     Program PWSCF v.5.1rc2 (svn rev. 11289) starts on 19Dec2018 at  4:41:47

     Current dimensions of program PWSCF are:
     Max number of different atomic species (ntypx) = 10
     Max number of k-points (npk) =  40000
     Max angular momentum in pseudopotentials (lmaxx) =  3
     Presently stress not available with electric field

     IMPORTANT: XC functional enforced from input :
     Exchange-correlation      = BEEF-VDW ( 1  4 27 13 2)
     Any further DFT definition will be discarded
     Please, verify this is what you really want

     Subspace diagonalization in iterative solution of the eigenvalue problem:
     a serial algorithm will be used

     Found symmetry operation: I + ( -0.5000  0.0000  0.0000)
     This is a supercell, fractional translations are disabled

     bravais-lattice index     =            0
     lattice parameter (alat)  =       1.8897  a.u.
     unit-cell volume          =    5976.0812 (a.u.)^3
     number of atoms/cell      =           12
     number of atomic types    =            2
     number of electrons       =       138.00
     number of Kohn-Sham states=           99
     kinetic-energy cutoff     =      36.7493  Ry
     charge density cutoff     =     367.4932  Ry
     convergence threshold     =      1.0E-06
     mixing beta               =       0.1000
     number of iterations used =           10  plain     mixing
     Exchange-correlation      = BEEF-VDW ( 1  4 27 13 2)
     nstep                     =           50

     celldm(1)=   1.889726  celldm(2)=   0.000000  celldm(3)=   0.000000
     celldm(4)=   0.000000  celldm(5)=   0.000000  celldm(6)=   0.000000

     crystal axes: (cart. coord. in units of alat)
               a(1) = (   6.321569   0.000000   0.000000 )
               a(2) = (  -3.160785   5.558922   0.000000 )
               a(3) = (   0.000000   0.000000  25.200227 )

     reciprocal axes: (cart. coord. in units 2 pi/alat)
               b(1) = (  0.158189  0.089946  0.000000 )
               b(2) = (  0.000000  0.179891  0.000000 )
               b(3) = (  0.000000  0.000000  0.039682 )

     PseudoPot. # 1 for Sc read from file:
     /afs/slac.stanford.edu/u/if/mamunm/psp/gbrv1.5pbe/Sc.UPF
     MD5 check sum: db30a2753ba66ef00f23801d899b7e7f
     Pseudo is Ultrasoft + core correction, Zval = 11.0
     Generated by new atomic code, or converted to UPF format
     Using radial grid of  849 points,  6 beta functions with:
                l(1) =   0
                l(2) =   0
                l(3) =   1
                l(4) =   1
                l(5) =   2
                l(6) =   2
     Q(r) pseudized with  6 coefficients,  rinner =    1.200   1.200   1.200
                                                       1.200   1.200

     PseudoPot. # 2 for Hf read from file:
     /afs/slac.stanford.edu/u/if/mamunm/psp/gbrv1.5pbe/Hf.UPF
     MD5 check sum: 8ee9378dfe14276e333edf04c5e4aa26
     Pseudo is Ultrasoft + core correction, Zval = 12.0
     Generated by new atomic code, or converted to UPF format
     Using radial grid of  921 points,  8 beta functions with:
                l(1) =   0
                l(2) =   0
                l(3) =   0
                l(4) =   1
                l(5) =   1
                l(6) =   2
                l(7) =   2
                l(8) =   3
     Q(r) pseudized with  6 coefficients,  rinner =    1.200   1.200   1.200
                                                       1.200   1.200   1.200
                                                       1.200

     vdW kernel table read from file vdW_kernel_table
     MD5 check sum: 095c7af220d748ca6e76c0b4c6cfb241

     atomic species   valence    mass     pseudopotential
        Sc1           11.00    44.95591     Sc( 1.00)
        Hf1           12.00   178.49000     Hf( 1.00)

     No symmetry found

   Cartesian axes

     site n.     atom                  positions (alat units)
         1           Sc1 tau(   1) = (   0.0000000   0.0000000  10.0000000  )
         2           Sc1 tau(   2) = (   3.1607846   0.0000000  10.0000000  )
         3           Hf1 tau(   3) = (   1.5803923   2.7794608  10.0000000  )
         4           Hf1 tau(   4) = (  -1.5803923   2.7794608  10.0000000  )
         5           Sc1 tau(   5) = (   3.1607846   1.7972117  12.6001133  )
         6           Sc1 tau(   6) = (  -0.0000000   1.7972117  12.6001133  )
         7           Hf1 tau(   7) = (  -1.5803923   4.5766725  12.6001133  )
         8           Hf1 tau(   8) = (   1.5803923   4.5766725  12.6001133  )
         9           Sc1 tau(   9) = (   0.0000000   3.5944235  15.2002266  )
        10           Sc1 tau(  10) = (   3.1607846   3.5944235  15.2002266  )
        11           Hf1 tau(  11) = (   4.7411769   0.8149626  15.2002266  )
        12           Hf1 tau(  12) = (   1.5803923   0.8149626  15.2002266  )

     number of k points=    20  Fermi-Dirac smearing, width (Ry)=  0.0110
                       cart. coord. in units 2pi/alat
        k(    1) = (   0.0000000   0.0000000   0.0000000), wk =   0.0555556
        k(    2) = (   0.0000000   0.0299818   0.0000000), wk =   0.1111111
        k(    3) = (   0.0000000   0.0599637   0.0000000), wk =   0.1111111
        k(    4) = (   0.0000000  -0.0899455   0.0000000), wk =   0.0555556
        k(    5) = (   0.0263648   0.0149909   0.0000000), wk =   0.1111111
        k(    6) = (   0.0263648   0.0449728   0.0000000), wk =   0.1111111
        k(    7) = (   0.0263648   0.0749546   0.0000000), wk =   0.1111111
        k(    8) = (   0.0263648  -0.0749546   0.0000000), wk =   0.1111111
        k(    9) = (   0.0263648  -0.0449728   0.0000000), wk =   0.1111111
        k(   10) = (   0.0263648  -0.0149909   0.0000000), wk =   0.1111111
        k(   11) = (   0.0527295   0.0299818   0.0000000), wk =   0.1111111
        k(   12) = (   0.0527295   0.0599637   0.0000000), wk =   0.1111111
        k(   13) = (   0.0527295   0.0899455   0.0000000), wk =   0.1111111
        k(   14) = (   0.0527295  -0.0599637   0.0000000), wk =   0.1111111
        k(   15) = (   0.0527295  -0.0299818   0.0000000), wk =   0.1111111
        k(   16) = (   0.0527295   0.0000000   0.0000000), wk =   0.1111111
        k(   17) = (  -0.0790943  -0.0449728   0.0000000), wk =   0.0555556
        k(   18) = (  -0.0790943  -0.0149909   0.0000000), wk =   0.1111111
        k(   19) = (  -0.0790943   0.0149909   0.0000000), wk =   0.1111111
        k(   20) = (  -0.0790943  -0.1349183   0.0000000), wk =   0.0555556

     Largest allocated arrays     est. size (Mb)     dimensions
     Largest temporary arrays     est. size (Mb)     dimensions

     Check: negative/imaginary core charge=   -0.000003    0.000000

     Initial potential from superposition of free atoms
     Check: negative starting charge=   -0.647004

     starting charge  125.98557, renormalised to  138.00000

     negative rho (up, down):  7.087E-01 0.000E+00

     *
     * You are using vdW-DF for exchange-correlation in this calculation.
     * Please cite the following three references that made this development
     * possible:
     *
     *   M. Dion, H. Rydberg, E. Schroder, D. C. Langreth, and
     *   B. I. Lundqvist, Phys. Rev. Lett. 92, 246401 (2004).
     *
     *   T. Thonhauser, V. R. Cooper, S. Li, A. Puzder, P. Hyldgaard, and
     *   D. C. Langreth, Phys. Rev. B 76, 125112 (2007).
     *
     *   G. Roman-Perez and J. M. Soler, Phys. Rev. Lett. 103, 096102 (2009).
     *
     *
     * If you are using vdW-DF2, please also cite:
     *
     *   K. Lee, E. D. Murray, L. Kong, B. I. Lundqvist, and
     *   D. C. Langreth, Phys. Rev. B 82, 081101(R) (2010).
     *
     *
     * If you are calculating the stress with vdW-DF, please also cite:
     *
     *   R. Sabatini, E. Kucukbenli, B. Kolb, T. Thonhauser, and
     *   S. de Gironcoli, J. Phys.: Condens. Matter 24, 424209 (2012).
     *

     Carrying out vdW-DF run using the following parameters:

     Nqs =      20    Nr_points =    1024   r_max =   100.000
     q_mesh =
               0.00001000     0.04494208     0.09755937     0.15916263
               0.23128650     0.31572767     0.41458969     0.53033537
               0.66584808     0.82450364     1.01025438     1.22772762
               1.48234092     1.78043706     2.12944203     2.53805004
               3.01644009     3.57652955     4.23227104     5.00000000

     Gradients computed in reciprocal space

     Adding external electric field

     Computed dipole along edir(3) :
        Dipole                0.0000 Ry au,          0.0000 Debye
        Dipole field          0.0000 Ry au

        Potential amp.       -0.0000 Ry
        Total length         46.4310 bohr

     Starting wfc are  156 randomized atomic wfcs

     Self-consistent Calculation

     iteration #  1     ecut=    36.75 Ry     beta=0.10
     Davidson diagonalization with overlap
     ethr =  1.00E-02,  avg # of iterations =  6.2

[...]

     total energy              =   -1535.24178626 Ry
     Harris-Foulkes estimate   =   -1537.27351368 Ry
     estimated scf accuracy    <      13.51579774 Ry

[...]

     End of self-consistent calculation

          k = 0.0000 0.0000 0.0000 ( 22521 PWs)   bands (ev):

   -61.7032 -61.7031 -61.6836 -61.6835 -61.2335 -61.2136 -48.8523 -48.8522
   -48.8238 -48.8236 -48.3656 -48.3369 -30.3644 -30.3610 -30.3178 -30.2860
   -30.2700 -30.2432 -30.2379 -30.2242 -30.1857 -30.1730 -29.9637 -29.9532
   -29.9524 -29.8042 -29.7497 -29.7167 -29.6716 -29.5461 -27.5718 -27.5667
   -27.4843 -27.4805 -27.4599 -27.4507 -27.3947 -27.3940 -27.3759 -27.3739
   -27.3044 -27.3038 -27.0817 -26.9682 -26.9427 -26.9259 -26.9051 -26.8148
    -4.7754  -3.6144  -2.3274  -1.4832  -1.2790  -1.2450  -1.1808  -1.1438
    -0.9957  -0.8072  -0.7893  -0.7866  -0.2465  -0.2113  -0.1325   0.1475
     0.3506   0.4670   0.9483   1.0456   1.3055   1.4220   1.4326   1.5248
     1.5450   1.5662   1.7133   1.9874   2.1236   2.1480   2.2506   2.2875
     2.2992   2.3131   2.4259   2.4442   2.4585   2.6026   2.6169   2.6204
     2.6611   2.7278   2.7842   3.4198   3.5140   3.6337   3.9217   3.9451
     4.0161   4.1159   4.2074

[...]

          k =-0.0791-0.0450 0.0000 ( 22420 PWs)   bands (ev):

[...]

     the Fermi energy is     0.9410 ev

!    total energy              =   -1532.06598339 Ry
     Harris-Foulkes estimate   =   -1532.06598253 Ry
     estimated scf accuracy    <       0.00000032 Ry

     The total energy is the sum of the following terms:

     one-electron contribution =   -7801.97435263 Ry
     hartree contribution      =    3883.63246709 Ry
     xc contribution           =    -547.05618295 Ry
     ewald contribution        =    2933.45805837 Ry
     electric field correction =       0.00000001 Ry
     smearing contrib. (-TS)   =      -0.12597327 Ry

     convergence has been achieved in  21 iterations

 BEEF-vdW xc energy contributions
           1 :   -490.097431097495
           2 :    452.168280756254
           3 :   -386.629011786220
           4 :    309.294453679316
           5 :   -235.012728191433
           6 :    172.989286503302
           7 :   -125.881174976363
           8 :    91.9815593775106
           9 :   -68.3213090872533
          10 :    52.6189303802882
[...]
     Davidson diagonalization with overlap
     c_bands:  1 eigenvalues not converged
     c_bands:  1 eigenvalues not converged
     ethr =  1.25E-06,  avg # of iterations =  5.3

[...]

   This run was terminated on:   4:54: 0  19Dec2018

[...]

     Program PWSCF v.5.1rc2 (svn rev. 11289) starts on 19Dec2018 at  4:54: 6

[...]

   This run was terminated on:   5: 0: 0  19Dec2018

[...]

     Program PWSCF v.5.1rc2 (svn rev. 11289) starts on 19Dec2018 at  5: 0: 6

[...]

   This run was terminated on:   5: 5:35  19Dec2018

[...]

     Program PWSCF v.5.1rc2 (svn rev. 11289) starts on 19Dec2018 at  5: 5:41

     Current dimensions of program PWSCF are:
     Max number of different atomic species (ntypx) = 10
     Max number of k-points (npk) =  40000
     Max angular momentum in pseudopotentials (lmaxx) =  3
     Presently stress not available with electric field

     IMPORTANT: XC functional enforced from input :
     Exchange-correlation      = BEEF-VDW ( 1  4 27 13 2)
     Any further DFT definition will be discarded
     Please, verify this is what you really want

     Subspace diagonalization in iterative solution of the eigenvalue problem:
     a serial algorithm will be used

     bravais-lattice index     =            0
     lattice parameter (alat)  =       1.8897  a.u.
     unit-cell volume          =    5976.0812 (a.u.)^3
     number of atoms/cell      =           12
     number of atomic types    =            2
     number of electrons       =       138.00
     number of Kohn-Sham states=           99
     kinetic-energy cutoff     =      36.7493  Ry
     charge density cutoff     =     367.4932  Ry
     convergence threshold     =      1.0E-06
     mixing beta               =       0.1000
     number of iterations used =           10  plain     mixing
     Exchange-correlation      = BEEF-VDW ( 1  4 27 13 2)
     nstep                     =           50

     celldm(1)=   1.889726  celldm(2)=   0.000000  celldm(3)=   0.000000
     celldm(4)=   0.000000  celldm(5)=   0.000000  celldm(6)=   0.000000

     crystal axes: (cart. coord. in units of alat)
               a(1) = (   6.321569   0.000000   0.000000 )
               a(2) = (  -3.160785   5.558922   0.000000 )
               a(3) = (   0.000000   0.000000  25.200227 )

     reciprocal axes: (cart. coord. in units 2 pi/alat)
               b(1) = (  0.158189  0.089946  0.000000 )
               b(2) = (  0.000000  0.179891  0.000000 )
               b(3) = (  0.000000  0.000000  0.039682 )

     PseudoPot. # 1 for Sc read from file:
     /afs/slac.stanford.edu/u/if/mamunm/psp/gbrv1.5pbe/Sc.UPF
     MD5 check sum: db30a2753ba66ef00f23801d899b7e7f
     Pseudo is Ultrasoft + core correction, Zval = 11.0
     Generated by new atomic code, or converted to UPF format
     Using radial grid of  849 points,  6 beta functions with:
                l(1) =   0
                l(2) =   0
                l(3) =   1
                l(4) =   1
                l(5) =   2
                l(6) =   2
     Q(r) pseudized with  6 coefficients,  rinner =    1.200   1.200   1.200
                                                       1.200   1.200

     PseudoPot. # 2 for Hf read from file:
     /afs/slac.stanford.edu/u/if/mamunm/psp/gbrv1.5pbe/Hf.UPF
     MD5 check sum: 8ee9378dfe14276e333edf04c5e4aa26
     Pseudo is Ultrasoft + core correction, Zval = 12.0
     Generated by new atomic code, or converted to UPF format
     Using radial grid of  921 points,  8 beta functions with:
                l(1) =   0
                l(2) =   0
                l(3) =   0
                l(4) =   1
                l(5) =   1
                l(6) =   2
                l(7) =   2
                l(8) =   3
     Q(r) pseudized with  6 coefficients,  rinner =    1.200   1.200   1.200
                                                       1.200   1.200   1.200
                                                       1.200

     vdW kernel table read from file vdW_kernel_table
     MD5 check sum: 095c7af220d748ca6e76c0b4c6cfb241

     atomic species   valence    mass     pseudopotential
        Sc1           11.00    44.95591     Sc( 1.00)
        Hf1           12.00   178.49000     Hf( 1.00)

     No symmetry found

   Cartesian axes

     site n.     atom                  positions (alat units)
         1           Sc1 tau(   1) = (   0.0000000   0.0000000  10.0000000  )
         2           Sc1 tau(   2) = (   3.1607846   0.0000000  10.0000000  )
         3           Hf1 tau(   3) = (   1.5803923   2.7794608  10.0000000  )
         4           Hf1 tau(   4) = (  -1.5803923   2.7794608  10.0000000  )
         5           Sc1 tau(   5) = (   3.1607846   1.7972117  12.6001133  )
         6           Sc1 tau(   6) = (  -0.0000000   1.7972117  12.6001133  )
         7           Hf1 tau(   7) = (  -1.5803923   4.5766725  12.6001133  )
         8           Hf1 tau(   8) = (   1.5803923   4.5766725  12.6001133  )
         9           Sc1 tau(   9) = (   0.0000079   3.6100791  15.1920958  )
        10           Sc1 tau(  10) = (   3.1607734   3.6097393  15.1921793  )
        11           Hf1 tau(  11) = (   4.7415035   0.7939968  15.0341800  )
        12           Hf1 tau(  12) = (   1.5800697   0.7939864  15.0341758  )

     number of k points=    20  Fermi-Dirac smearing, width (Ry)=  0.0110
                       cart. coord. in units 2pi/alat
        k(    1) = (   0.0000000   0.0000000   0.0000000), wk =   0.0555556
        k(    2) = (   0.0000000   0.0299818   0.0000000), wk =   0.1111111
        k(    3) = (   0.0000000   0.0599637   0.0000000), wk =   0.1111111
        k(    4) = (   0.0000000  -0.0899455   0.0000000), wk =   0.0555556
        k(    5) = (   0.0263648   0.0149909   0.0000000), wk =   0.1111111
        k(    6) = (   0.0263648   0.0449728   0.0000000), wk =   0.1111111
        k(    7) = (   0.0263648   0.0749546   0.0000000), wk =   0.1111111
        k(    8) = (   0.0263648  -0.0749546   0.0000000), wk =   0.1111111
        k(    9) = (   0.0263648  -0.0449728   0.0000000), wk =   0.1111111
        k(   10) = (   0.0263648  -0.0149909   0.0000000), wk =   0.1111111
        k(   11) = (   0.0527295   0.0299818   0.0000000), wk =   0.1111111
        k(   12) = (   0.0527295   0.0599637   0.0000000), wk =   0.1111111
        k(   13) = (   0.0527295   0.0899455   0.0000000), wk =   0.1111111
        k(   14) = (   0.0527295  -0.0599637   0.0000000), wk =   0.1111111
        k(   15) = (   0.0527295  -0.0299818   0.0000000), wk =   0.1111111
        k(   16) = (   0.0527295   0.0000000   0.0000000), wk =   0.1111111
        k(   17) = (  -0.0790943  -0.0449728   0.0000000), wk =   0.0555556
        k(   18) = (  -0.0790943  -0.0149909   0.0000000), wk =   0.1111111
        k(   19) = (  -0.0790943   0.0149909   0.0000000), wk =   0.1111111
        k(   20) = (  -0.0790943  -0.1349183   0.0000000), wk =   0.0555556

     Largest allocated arrays     est. size (Mb)     dimensions
     Largest temporary arrays     est. size (Mb)     dimensions

     Check: negative/imaginary core charge=   -0.000003    0.000000

     Initial potential from superposition of free atoms
     Check: negative starting charge=   -0.648378

     starting charge  125.98557, renormalised to  138.00000

[...]

     *
     * You are using vdW-DF for exchange-correlation in this calculation.
     * Please cite the following three references that made this development
     * possible:
     *
     *   M. Dion, H. Rydberg, E. Schroder, D. C. Langreth, and
     *   B. I. Lundqvist, Phys. Rev. Lett. 92, 246401 (2004).
     *
     *   T. Thonhauser, V. R. Cooper, S. Li, A. Puzder, P. Hyldgaard, and
     *   D. C. Langreth, Phys. Rev. B 76, 125112 (2007).
     *
     *   G. Roman-Perez and J. M. Soler, Phys. Rev. Lett. 103, 096102 (2009).
     *
     *
     * If you are using vdW-DF2, please also cite:
     *
     *   K. Lee, E. D. Murray, L. Kong, B. I. Lundqvist, and
     *   D. C. Langreth, Phys. Rev. B 82, 081101(R) (2010).
     *
     *
     * If you are calculating the stress with vdW-DF, please also cite:
     *
     *   R. Sabatini, E. Kucukbenli, B. Kolb, T. Thonhauser, and
     *   S. de Gironcoli, J. Phys.: Condens. Matter 24, 424209 (2012).
     *

     Carrying out vdW-DF run using the following parameters:

     Nqs =      20    Nr_points =    1024   r_max =   100.000
     q_mesh =
               0.00001000     0.04494208     0.09755937     0.15916263
               0.23128650     0.31572767     0.41458969     0.53033537
               0.66584808     0.82450364     1.01025438     1.22772762
               1.48234092     1.78043706     2.12944203     2.53805004
               3.01644009     3.57652955     4.23227104     5.00000000

     Gradients computed in reciprocal space

[...]

     Starting wfc are  156 randomized atomic wfcs

     Self-consistent Calculation

[...]

     total energy              =   -1532.07400629 Ry
     Harris-Foulkes estimate   =   -1532.07400509 Ry
     estimated scf accuracy    <       0.00000116 Ry

     iteration # 21     ecut=    36.75 Ry     beta=0.10
     Davidson diagonalization with overlap
     ethr =  8.41E-10,  avg # of iterations =  3.3

[...]

     negative rho (up, down):  6.871E-01 0.000E+00

     Adding external electric field

     Computed dipole along edir(3) :
        Dipole                0.0064 Ry au,          0.0163 Debye
        Dipole field          0.0000 Ry au

        Potential amp.       -0.0013 Ry
        Total length         46.4310 bohr

     End of self-consistent calculation

[...]

          k = 0.0527 0.0000 0.0000 ( 22523 PWs)   bands (ev):

[...]

          k =-0.0791-0.1349 0.0000 ( 22420 PWs)   bands (ev):

   -61.7159 -61.7158 -61.5320 -61.5320 -61.1570 -61.1570 -48.8570 -48.8569
   -48.8494 -48.8494 -48.2672 -48.2669 -30.3072 -30.3072 -30.2236 -30.2236
   -30.1771 -30.1771 -30.1428 -30.1427 -30.0718 -30.0717 -30.0352 -30.0345
   -29.7125 -29.7125 -29.7025 -29.7025 -29.6076 -29.6075 -27.4930 -27.4930
   -27.4804 -27.4804 -27.4597 -27.4596 -27.4502 -27.4502 -27.4115 -27.4114
   -27.4011 -27.4010 -26.8839 -26.8836 -26.8707 -26.8704 -26.8459 -26.8456
    -3.2942  -3.2941  -2.1910  -2.1909  -1.1715  -1.1715  -0.7995  -0.7994
    -0.5595  -0.5594   0.1805   0.1807   0.2924   0.2926   0.4836   0.4837
     0.5916   0.5918   0.7400   0.7402   0.8208   0.8208   0.9108   0.9108
     1.1077   1.1079   1.2123   1.2125   1.3854   1.3858   1.6083   1.6086
     2.0152   2.0157   2.0904   2.0907   2.3988   2.3991   2.8704   2.8705
     2.9472   2.9474   3.3005   3.3005   3.4315   3.4316   3.5266   3.5270
     3.6934   3.6942   3.7309

     the Fermi energy is     0.9372 ev

!    total energy              =   -1532.07400689 Ry
     Harris-Foulkes estimate   =   -1532.07400658 Ry
     estimated scf accuracy    <       0.00000087 Ry

     The total energy is the sum of the following terms:

     one-electron contribution =   -7901.28933507 Ry
     hartree contribution      =    3933.50281814 Ry
     xc contribution           =    -547.19478800 Ry
     ewald contribution        =    2983.03033244 Ry
     electric field correction =       0.00000009 Ry
     smearing contrib. (-TS)   =      -0.12303448 Ry

     convergence has been achieved in  21 iterations

 BEEF-vdW xc energy contributions
           1 :   -490.236499161546
           2 :    452.348940064030
           3 :   -386.842758822759
           4 :    309.476325949808
           5 :   -235.088025619557
           6 :    172.935356263052
           7 :   -125.751443031778
           8 :    91.8674879235823
           9 :   -68.2833609636560
          10 :    52.6453706032288
          11 :   -43.4707481057977
          12 :    39.2704070455599
          13 :   -37.8104098902957
          14 :    36.2921213684444
          15 :   -32.3586112471112
          16 :    25.1338037470462
          17 :   -15.5360411944237
          18 :    5.66649924465855
          19 :    2.27079589158222
          20 :   -6.86845538261480
          21 :    7.83705667157449
          22 :   -5.80521130293812
          23 :    1.89877793697383
          24 :    2.61814813827436
          25 :   -6.56204194357713
          26 :    8.97202538600919
          27 :   -9.25937071628368
          28 :    7.34833963254903
          29 :   -3.72660489863358
          30 :  -0.665864800086638
          31 :   -38.3899792572499
          32 :   -27.5987917528840

     Forces acting on atoms (Ry/au):

     negative rho (up, down):  6.871E-01 0.000E+00
     atom    1 type  1   force =     0.00000298   -0.00377551   -0.00153663
     atom    2 type  1   force =    -0.00000371   -0.00378587   -0.00152355
     atom    3 type  2   force =    -0.00000069    0.00498032    0.01867838
     atom    4 type  2   force =     0.00000252    0.00497487    0.01867667
     atom    5 type  1   force =    -0.00000086    0.00155096   -0.00972742
     atom    6 type  1   force =     0.00000006    0.00163666   -0.00975919
     atom    7 type  2   force =    -0.00008306   -0.00296086   -0.00566623
     atom    8 type  2   force =     0.00008254   -0.00296001   -0.00566570
     atom    9 type  1   force =    -0.00000466   -0.00080895   -0.00092874
     atom   10 type  1   force =     0.00000488   -0.00080573   -0.00092063
     atom   11 type  2   force =    -0.00000173    0.00097408   -0.00081587
     atom   12 type  2   force =     0.00000173    0.00098004   -0.00081109

     Total force =     0.032611     Total SCF correction =     0.000796

     entering subroutine stress ...

     negative rho (up, down):  6.871E-01 0.000E+00
          total   stress  (Ry/bohr**3)                   (kbar)     P=   -7.04
  -0.00004986   0.00000000   0.00000000         -7.33      0.00      0.00
   0.00000000  -0.00004617  -0.00000205          0.00     -6.79     -0.30
   0.00000000  -0.00000205  -0.00004760          0.00     -0.30     -7.00

 !ASE

     Writing output data file calc.save

     General routines

     Parallel routines

   This run was terminated on:   5:11:28  19Dec2018

   JOB DONE.
Job  /afs/slac/g/suncat/bin/suncat-tsmpirun -x LD_LIBRARY_PATH -wdir /scratch/qe530555_taF6I pw.x -in pw.inp

TID   HOST_NAME   COMMAND_LINE            STATUS            TERMINATION_TIME
00000 suncat2044 pw.x -in pw.inp   Done                     12/19/2018 05:11:28
00001 suncat2044 pw.x -in pw.inp   Done                     12/19/2018 05:11:28
00002 suncat2044 pw.x -in pw.inp   Done                     12/19/2018 05:11:28
00003 suncat2044 pw.x -in pw.inp   Done                     12/19/2018 05:11:28
00004 suncat2044 pw.x -in pw.inp   Done                     12/19/2018 05:11:28
00005 suncat2044 pw.x -in pw.inp   Done                     12/19/2018 05:11:28
00006 suncat2044 pw.x -in pw.inp   Done                     12/19/2018 05:11:28
00007 suncat2044 pw.x -in pw.inp   Done                     12/19/2018 05:11:28
00008 suncat2044 pw.x -in pw.inp   Done                     12/19/2018 05:11:28
00009 suncat2044 pw.x -in pw.inp   Done                     12/19/2018 05:11:28
00010 suncat2044 pw.x -in pw.inp   Done                     12/19/2018 05:11:28
00011 suncat2044 pw.x -in pw.inp   Done                     12/19/2018 05:11:28
00012 suncat2044 pw.x -in pw.inp   Done                     12/19/2018 05:11:28
00013 suncat2044 pw.x -in pw.inp   Done                     12/19/2018 05:11:28
00014 suncat2044 pw.x -in pw.inp   Done                     12/19/2018 05:11:28
00015 suncat2044 pw.x -in pw.inp   Done                     12/19/2018 05:11:28
00016 suncat2043 pw.x -in pw.inp   Done                     12/19/2018 05:11:28
00017 suncat2043 pw.x -in pw.inp   Done                     12/19/2018 05:11:28
00018 suncat2043 pw.x -in pw.inp   Done                     12/19/2018 05:11:28
00019 suncat2043 pw.x -in pw.inp   Done                     12/19/2018 05:11:28
00020 suncat2043 pw.x -in pw.inp   Done                     12/19/2018 05:11:28
00021 suncat2043 pw.x -in pw.inp   Done                     12/19/2018 05:11:28
00022 suncat2043 pw.x -in pw.inp   Done                     12/19/2018 05:11:28
00023 suncat2043 pw.x -in pw.inp   Done                     12/19/2018 05:11:28
00024 suncat2043 pw.x -in pw.inp   Done                     12/19/2018 05:11:28
00025 suncat2043 pw.x -in pw.inp   Done                     12/19/2018 05:11:28
00026 suncat2043 pw.x -in pw.inp   Done                     12/19/2018 05:11:28
00027 suncat2043 pw.x -in pw.inp   Done                     12/19/2018 05:11:28
00028 suncat2043 pw.x -in pw.inp   Done                     12/19/2018 05:11:28
00029 suncat2043 pw.x -in pw.inp   Done                     12/19/2018 05:11:28
00030 suncat2043 pw.x -in pw.inp   Done                     12/19/2018 05:11:28
00031 suncat2043 pw.x -in pw.inp   Done                     12/19/2018 05:11:28