     Program PWSCF v.5.1rc2 (svn rev. 11289) starts on 18Dec2018 at 17:25:59

     Current dimensions of program PWSCF are:
     Max number of different atomic species (ntypx) = 10
     Max number of k-points (npk) =  40000
     Max angular momentum in pseudopotentials (lmaxx) =  3
     Presently stress not available with electric field

     IMPORTANT: XC functional enforced from input :
     Exchange-correlation      = BEEF-VDW ( 1  4 27 13 2)
     Any further DFT definition will be discarded
     Please, verify this is what you really want

     Subspace diagonalization in iterative solution of the eigenvalue problem:
     a serial algorithm will be used

     Found symmetry operation: I + ( -0.5000  0.0000  0.0000)
     This is a supercell, fractional translations are disabled

     bravais-lattice index     =            0
     lattice parameter (alat)  =       1.8897  a.u.
     unit-cell volume          =    4776.5183 (a.u.)^3
     number of atoms/cell      =           12
     number of atomic types    =            2
     number of electrons       =        96.00
     number of Kohn-Sham states=           78
     kinetic-energy cutoff     =      36.7493  Ry
     charge density cutoff     =     367.4932  Ry
     convergence threshold     =      1.0E-06
     mixing beta               =       0.1000
     number of iterations used =           10  plain     mixing
     Exchange-correlation      = BEEF-VDW ( 1  4 27 13 2)
     nstep                     =           50

     celldm(1)=   1.889726  celldm(2)=   0.000000  celldm(3)=   0.000000
     celldm(4)=   0.000000  celldm(5)=   0.000000  celldm(6)=   0.000000

     crystal axes: (cart. coord. in units of alat)
               a(1) = (   5.670778   0.000000   0.000000 )
               a(2) = (  -2.835389   5.054433   0.000000 )
               a(3) = (   0.000000   0.000000  24.694472 )

     reciprocal axes: (cart. coord. in units 2 pi/alat)
               b(1) = (  0.176343  0.098923  0.000000 )
               b(2) = (  0.000000  0.197846  0.000000 )
               b(3) = (  0.000000  0.000000  0.040495 )

     PseudoPot. # 1 for Al read from file:
     /afs/slac.stanford.edu/u/if/mamunm/psp/gbrv1.5pbe/Al.UPF
     MD5 check sum: 0a6289f5291fc8f409219462bc851e1f
     Pseudo is Ultrasoft + core correction, Zval =  3.0
     Generated by new atomic code, or converted to UPF format
     Using radial grid of  893 points,  3 beta functions with:
                l(1) =   0
                l(2) =   1
                l(3) =   2
     Q(r) pseudized with  8 coefficients,  rinner =    0.900   0.900   0.900
                                                       0.900   0.900

     PseudoPot. # 2 for Nb read from file:
     /afs/slac.stanford.edu/u/if/mamunm/psp/gbrv1.5pbe/Nb.UPF
     MD5 check sum: 573aab8a2fa660278ed4a62cd769473f
     Pseudo is Ultrasoft + core correction, Zval = 13.0
     Generated by new atomic code, or converted to UPF format
     Using radial grid of  887 points,  6 beta functions with:
                l(1) =   0
                l(2) =   0
                l(3) =   1
                l(4) =   1
                l(5) =   2
                l(6) =   2
     Q(r) pseudized with  6 coefficients,  rinner =    1.000   1.000   1.000
                                                       1.000   1.000

     vdW kernel table read from file vdW_kernel_table
     MD5 check sum: 095c7af220d748ca6e76c0b4c6cfb241

     atomic species   valence    mass     pseudopotential
        Al1            3.00    26.98154     Al( 1.00)
        Nb1           13.00    92.90637     Nb( 1.00)

     No symmetry found

   Cartesian axes

     site n.     atom                  positions (alat units)
         1           Al1 tau(   1) = (   0.0000000   0.0000000  10.0000000  )
         2           Al1 tau(   2) = (   2.8353892   0.0000000  10.0000000  )
         3           Nb1 tau(   3) = (   1.4176946   2.5272164  10.0000000  )
         4           Nb1 tau(   4) = (  -1.4176946   2.5272164  10.0000000  )
         5           Al1 tau(   5) = (   2.8353892   1.5905705  12.3472361  )
         6           Al1 tau(   6) = (   0.0000000   1.5905705  12.3472361  )
         7           Nb1 tau(   7) = (  -1.4176946   4.1177869  12.3472361  )
         8           Nb1 tau(   8) = (   1.4176946   4.1177869  12.3472361  )
         9           Al1 tau(   9) = (   0.0000000   3.1811410  14.6944721  )
        10           Al1 tau(  10) = (   2.8353892   3.1811410  14.6944721  )
        11           Nb1 tau(  11) = (   4.2530838   0.6539247  14.6944721  )
        12           Nb1 tau(  12) = (   1.4176946   0.6539247  14.6944721  )

     number of k points=    20  Fermi-Dirac smearing, width (Ry)=  0.0110
                       cart. coord. in units 2pi/alat
        k(    1) = (   0.0000000   0.0000000   0.0000000), wk =   0.0555556
        k(    2) = (   0.0000000   0.0329744   0.0000000), wk =   0.1111111
        k(    3) = (   0.0000000   0.0659487   0.0000000), wk =   0.1111111
        k(    4) = (   0.0000000  -0.0989231   0.0000000), wk =   0.0555556
        k(    5) = (   0.0293904   0.0164872   0.0000000), wk =   0.1111111
        k(    6) = (   0.0293904   0.0494615   0.0000000), wk =   0.1111111
        k(    7) = (   0.0293904   0.0824359   0.0000000), wk =   0.1111111
        k(    8) = (   0.0293904  -0.0824359   0.0000000), wk =   0.1111111
        k(    9) = (   0.0293904  -0.0494615   0.0000000), wk =   0.1111111
        k(   10) = (   0.0293904  -0.0164872   0.0000000), wk =   0.1111111
        k(   11) = (   0.0587809   0.0329744   0.0000000), wk =   0.1111111
        k(   12) = (   0.0587809   0.0659487   0.0000000), wk =   0.1111111
        k(   13) = (   0.0587809   0.0989231   0.0000000), wk =   0.1111111
        k(   14) = (   0.0587809  -0.0659487   0.0000000), wk =   0.1111111
        k(   15) = (   0.0587809  -0.0329744   0.0000000), wk =   0.1111111
        k(   16) = (   0.0587809  -0.0000000   0.0000000), wk =   0.1111111
        k(   17) = (  -0.0881713  -0.0494615   0.0000000), wk =   0.0555556
        k(   18) = (  -0.0881713  -0.0164872   0.0000000), wk =   0.1111111
        k(   19) = (  -0.0881713   0.0164872   0.0000000), wk =   0.1111111
        k(   20) = (  -0.0881713  -0.1483846   0.0000000), wk =   0.0555556

     Largest allocated arrays     est. size (Mb)     dimensions
     Largest temporary arrays     est. size (Mb)     dimensions

     Initial potential from superposition of free atoms
     Check: negative starting charge=   -0.003689

     starting charge   95.96881, renormalised to   96.00000

     negative rho (up, down):  3.690E-03 0.000E+00

     *
     * You are using vdW-DF for exchange-correlation in this calculation.
     * Please cite the following three references that made this development
     * possible:
     *
     *   M. Dion, H. Rydberg, E. Schroder, D. C. Langreth, and
     *   B. I. Lundqvist, Phys. Rev. Lett. 92, 246401 (2004).
     *
     *   T. Thonhauser, V. R. Cooper, S. Li, A. Puzder, P. Hyldgaard, and
     *   D. C. Langreth, Phys. Rev. B 76, 125112 (2007).
     *
     *   G. Roman-Perez and J. M. Soler, Phys. Rev. Lett. 103, 096102 (2009).
     *
     *
     * If you are using vdW-DF2, please also cite:
     *
     *   K. Lee, E. D. Murray, L. Kong, B. I. Lundqvist, and
     *   D. C. Langreth, Phys. Rev. B 82, 081101(R) (2010).
     *
     *
     * If you are calculating the stress with vdW-DF, please also cite:
     *
     *   R. Sabatini, E. Kucukbenli, B. Kolb, T. Thonhauser, and
     *   S. de Gironcoli, J. Phys.: Condens. Matter 24, 424209 (2012).
     *

     Carrying out vdW-DF run using the following parameters:

     Nqs =      20    Nr_points =    1024   r_max =   100.000
     q_mesh =
               0.00001000     0.04494208     0.09755937     0.15916263
               0.23128650     0.31572767     0.41458969     0.53033537
               0.66584808     0.82450364     1.01025438     1.22772762
               1.48234092     1.78043706     2.12944203     2.53805004
               3.01644009     3.57652955     4.23227104     5.00000000

     Gradients computed in reciprocal space

     Adding external electric field

     Computed dipole along edir(3) :
        Dipole               -0.0000 Ry au,         -0.0000 Debye
        Dipole field         -0.0000 Ry au

        Potential amp.        0.0000 Ry
        Total length         45.4991 bohr

     Starting wfc are  102 randomized atomic wfcs

     Self-consistent Calculation

     iteration #  1     ecut=    36.75 Ry     beta=0.10
     Davidson diagonalization with overlap
     ethr =  1.00E-02,  avg # of iterations =  4.0

[...]

     total energy              =    -752.48319441 Ry
     Harris-Foulkes estimate   =    -752.92669801 Ry
     estimated scf accuracy    <       2.73699046 Ry

[...]

     End of self-consistent calculation

          k = 0.0000 0.0000 0.0000 ( 18043 PWs)   bands (ev):

   -54.5587 -54.5494 -54.4483 -54.4399 -54.3786 -54.2672 -30.9289 -30.8955
   -30.8714 -30.8268 -30.7457 -30.6815 -30.6419 -30.5792 -30.5688 -30.5336
   -30.5088 -30.4664 -30.3824 -30.1451 -30.0470 -29.9776 -29.9634 -29.8933
    -7.9549  -6.3808  -5.2289  -4.7297  -3.5494  -3.4503  -2.4328  -2.3007
    -2.1179  -2.0385  -1.9076  -1.6259  -1.4902  -1.4492  -1.0863  -0.6624
    -0.6081  -0.4577  -0.3896  -0.1460   0.1177   0.4297   0.4841   0.5093
     0.8673   0.8697   1.0741   1.2765   1.3430   1.6443   1.7701   1.8413
     2.1605   2.2898   2.4090   2.9248   3.1083   3.2012   3.2547   3.2786
     3.6795   3.7988   3.8262   4.1654   4.3199   4.3393   4.7342   5.0033
     5.0521   5.3400   5.3801   5.4418   5.8113   5.9608

[...]

          k =-0.0882-0.0495 0.0000 ( 17936 PWs)   bands (ev):

[...]

     the Fermi energy is     0.6193 ev

!    total energy              =    -752.53772440 Ry
     Harris-Foulkes estimate   =    -752.53772468 Ry
     estimated scf accuracy    <       0.00000045 Ry

     The total energy is the sum of the following terms:

     one-electron contribution =   -4834.97343180 Ry
     hartree contribution      =    2414.15883021 Ry
     xc contribution           =    -141.02093526 Ry
     ewald contribution        =    1809.35885253 Ry
     electric field correction =       0.00000000 Ry
     smearing contrib. (-TS)   =      -0.06104008 Ry

     convergence has been achieved in  15 iterations

 BEEF-vdW xc energy contributions
           1 :   -119.996292285077
           2 :    108.094380240005
           3 :   -88.3269340880999
           4 :    66.6165018643253
           5 :   -48.0636954496370
           6 :    35.1463761414647
           7 :   -27.5728194112504
           8 :    23.3988712201012
           9 :   -20.4720638071251
          10 :    17.3690014409721
          11 :   -13.6047079747522
          12 :    9.36131886611943
          13 :   -5.12446591360049
          14 :    1.41058147368321
          15 :    1.41386296431543
          16 :   -3.27006454605612
          17 :    4.40974092372576
          18 :   -5.29197652440669
          19 :    6.31024740506453
          20 :   -7.53776138652421
          21 :    8.67720099888629
          22 :   -9.27250741518176
          23 :    9.03343121715071
[...]
00024 suncat0066 pw.x -in pw.inp   Done                     12/18/2018 17:35:35
00025 suncat0066 pw.x -in pw.inp   Done                     12/18/2018 17:35:35
00026 suncat0066 pw.x -in pw.inp   Done                     12/18/2018 17:35:35
00027 suncat0066 pw.x -in pw.inp   Done                     12/18/2018 17:35:35
00028 suncat0066 pw.x -in pw.inp   Done                     12/18/2018 17:35:35
00029 suncat0066 pw.x -in pw.inp   Done                     12/18/2018 17:35:35
00030 suncat0066 pw.x -in pw.inp   Done                     12/18/2018 17:35:35
00031 suncat0066 pw.x -in pw.inp   Done                     12/18/2018 17:35:35

[...]

   This run was terminated on:  17:45: 4  18Dec2018

[...]

   This run was terminated on:  17:55: 8  18Dec2018

[...]

   This run was terminated on:  18: 5:26  18Dec2018

[...]

     Program PWSCF v.5.1rc2 (svn rev. 11289) starts on 18Dec2018 at 18: 5:32

[...]

     Program PWSCF v.5.1rc2 (svn rev. 11289) starts on 18Dec2018 at 18:15:38

     Current dimensions of program PWSCF are:
     Max number of different atomic species (ntypx) = 10
     Max number of k-points (npk) =  40000
     Max angular momentum in pseudopotentials (lmaxx) =  3
     Presently stress not available with electric field

     IMPORTANT: XC functional enforced from input :
     Exchange-correlation      = BEEF-VDW ( 1  4 27 13 2)
     Any further DFT definition will be discarded
     Please, verify this is what you really want

     Subspace diagonalization in iterative solution of the eigenvalue problem:
     a serial algorithm will be used

     Found symmetry operation: I + ( -0.5000  0.0000  0.0000)
     This is a supercell, fractional translations are disabled

     bravais-lattice index     =            0
     lattice parameter (alat)  =       1.8897  a.u.
     unit-cell volume          =    4776.5183 (a.u.)^3
     number of atoms/cell      =           12
     number of atomic types    =            2
     number of electrons       =        96.00
     number of Kohn-Sham states=           78
     kinetic-energy cutoff     =      36.7493  Ry
     charge density cutoff     =     367.4932  Ry
     convergence threshold     =      1.0E-06
     mixing beta               =       0.1000
     number of iterations used =           10  plain     mixing
     Exchange-correlation      = BEEF-VDW ( 1  4 27 13 2)
     nstep                     =           50

     celldm(1)=   1.889726  celldm(2)=   0.000000  celldm(3)=   0.000000
     celldm(4)=   0.000000  celldm(5)=   0.000000  celldm(6)=   0.000000

     crystal axes: (cart. coord. in units of alat)
               a(1) = (   5.670778   0.000000   0.000000 )
               a(2) = (  -2.835389   5.054433   0.000000 )
               a(3) = (   0.000000   0.000000  24.694472 )

     reciprocal axes: (cart. coord. in units 2 pi/alat)
               b(1) = (  0.176343  0.098923  0.000000 )
               b(2) = (  0.000000  0.197846  0.000000 )
               b(3) = (  0.000000  0.000000  0.040495 )

     PseudoPot. # 1 for Al read from file:
     /afs/slac.stanford.edu/u/if/mamunm/psp/gbrv1.5pbe/Al.UPF
     MD5 check sum: 0a6289f5291fc8f409219462bc851e1f
     Pseudo is Ultrasoft + core correction, Zval =  3.0
     Generated by new atomic code, or converted to UPF format
     Using radial grid of  893 points,  3 beta functions with:
                l(1) =   0
                l(2) =   1
                l(3) =   2
     Q(r) pseudized with  8 coefficients,  rinner =    0.900   0.900   0.900
                                                       0.900   0.900

     PseudoPot. # 2 for Nb read from file:
     /afs/slac.stanford.edu/u/if/mamunm/psp/gbrv1.5pbe/Nb.UPF
     MD5 check sum: 573aab8a2fa660278ed4a62cd769473f
     Pseudo is Ultrasoft + core correction, Zval = 13.0
     Generated by new atomic code, or converted to UPF format
     Using radial grid of  887 points,  6 beta functions with:
                l(1) =   0
                l(2) =   0
                l(3) =   1
                l(4) =   1
                l(5) =   2
                l(6) =   2
     Q(r) pseudized with  6 coefficients,  rinner =    1.000   1.000   1.000
                                                       1.000   1.000

     vdW kernel table read from file vdW_kernel_table
     MD5 check sum: 095c7af220d748ca6e76c0b4c6cfb241

     atomic species   valence    mass     pseudopotential
        Al1            3.00    26.98154     Al( 1.00)
        Nb1           13.00    92.90637     Nb( 1.00)

     No symmetry found

   Cartesian axes

     site n.     atom                  positions (alat units)
         1           Al1 tau(   1) = (   0.0000000   0.0000000  10.0000000  )
         2           Al1 tau(   2) = (   2.8353892   0.0000000  10.0000000  )
         3           Nb1 tau(   3) = (   1.4176946   2.5272164  10.0000000  )
         4           Nb1 tau(   4) = (  -1.4176946   2.5272164  10.0000000  )
         5           Al1 tau(   5) = (   2.8353892   1.5905705  12.3472361  )
         6           Al1 tau(   6) = (   0.0000000   1.5905705  12.3472361  )
         7           Nb1 tau(   7) = (  -1.4176946   4.1177869  12.3472361  )
         8           Nb1 tau(   8) = (   1.4176946   4.1177869  12.3472361  )
         9           Al1 tau(   9) = (   0.0000008   3.1555656  14.8368774  )
        10           Al1 tau(  10) = (   2.8353885   3.1555653  14.8368774  )
        11           Nb1 tau(  11) = (   4.2530838   0.6326972  14.5740050  )
        12           Nb1 tau(  12) = (   1.4176953   0.6326994  14.5740072  )

     number of k points=    20  Fermi-Dirac smearing, width (Ry)=  0.0110
                       cart. coord. in units 2pi/alat
        k(    1) = (   0.0000000   0.0000000   0.0000000), wk =   0.0555556
        k(    2) = (   0.0000000   0.0329744   0.0000000), wk =   0.1111111
        k(    3) = (   0.0000000   0.0659487   0.0000000), wk =   0.1111111
        k(    4) = (   0.0000000  -0.0989231   0.0000000), wk =   0.0555556
        k(    5) = (   0.0293904   0.0164872   0.0000000), wk =   0.1111111
        k(    6) = (   0.0293904   0.0494615   0.0000000), wk =   0.1111111
        k(    7) = (   0.0293904   0.0824359   0.0000000), wk =   0.1111111
        k(    8) = (   0.0293904  -0.0824359   0.0000000), wk =   0.1111111
        k(    9) = (   0.0293904  -0.0494615   0.0000000), wk =   0.1111111
        k(   10) = (   0.0293904  -0.0164872   0.0000000), wk =   0.1111111
        k(   11) = (   0.0587809   0.0329744   0.0000000), wk =   0.1111111
        k(   12) = (   0.0587809   0.0659487   0.0000000), wk =   0.1111111
        k(   13) = (   0.0587809   0.0989231   0.0000000), wk =   0.1111111
        k(   14) = (   0.0587809  -0.0659487   0.0000000), wk =   0.1111111
        k(   15) = (   0.0587809  -0.0329744   0.0000000), wk =   0.1111111
        k(   16) = (   0.0587809  -0.0000000   0.0000000), wk =   0.1111111
        k(   17) = (  -0.0881713  -0.0494615   0.0000000), wk =   0.0555556
        k(   18) = (  -0.0881713  -0.0164872   0.0000000), wk =   0.1111111
        k(   19) = (  -0.0881713   0.0164872   0.0000000), wk =   0.1111111
        k(   20) = (  -0.0881713  -0.1483846   0.0000000), wk =   0.0555556

     Largest allocated arrays     est. size (Mb)     dimensions
     Largest temporary arrays     est. size (Mb)     dimensions

     Initial potential from superposition of free atoms
     Check: negative starting charge=   -0.003559

     starting charge   95.96881, renormalised to   96.00000

[...]

     *
     * You are using vdW-DF for exchange-correlation in this calculation.
     * Please cite the following three references that made this development
     * possible:
     *
     *   M. Dion, H. Rydberg, E. Schroder, D. C. Langreth, and
     *   B. I. Lundqvist, Phys. Rev. Lett. 92, 246401 (2004).
     *
     *   T. Thonhauser, V. R. Cooper, S. Li, A. Puzder, P. Hyldgaard, and
     *   D. C. Langreth, Phys. Rev. B 76, 125112 (2007).
     *
     *   G. Roman-Perez and J. M. Soler, Phys. Rev. Lett. 103, 096102 (2009).
     *
     *
     * If you are using vdW-DF2, please also cite:
     *
     *   K. Lee, E. D. Murray, L. Kong, B. I. Lundqvist, and
     *   D. C. Langreth, Phys. Rev. B 82, 081101(R) (2010).
     *
     *
     * If you are calculating the stress with vdW-DF, please also cite:
     *
     *   R. Sabatini, E. Kucukbenli, B. Kolb, T. Thonhauser, and
     *   S. de Gironcoli, J. Phys.: Condens. Matter 24, 424209 (2012).
     *

     Carrying out vdW-DF run using the following parameters:

     Nqs =      20    Nr_points =    1024   r_max =   100.000
     q_mesh =
               0.00001000     0.04494208     0.09755937     0.15916263
               0.23128650     0.31572767     0.41458969     0.53033537
               0.66584808     0.82450364     1.01025438     1.22772762
               1.48234092     1.78043706     2.12944203     2.53805004
               3.01644009     3.57652955     4.23227104     5.00000000

     Gradients computed in reciprocal space

[...]

     Starting wfc are  102 randomized atomic wfcs

     Self-consistent Calculation

[...]

     total energy              =    -752.55221310 Ry
     Harris-Foulkes estimate   =    -752.55221303 Ry
     estimated scf accuracy    <       0.00000117 Ry

     iteration # 16     ecut=    36.75 Ry     beta=0.10
     Davidson diagonalization with overlap
     ethr =  1.22E-09,  avg # of iterations =  2.0

[...]

     negative rho (up, down):  3.511E-03 0.000E+00

     Adding external electric field

     Computed dipole along edir(3) :
        Dipole               -0.0310 Ry au,         -0.0789 Debye
        Dipole field         -0.0001 Ry au

        Potential amp.        0.0074 Ry
        Total length         45.4991 bohr

     End of self-consistent calculation

[...]

          k = 0.0588-0.0000 0.0000 ( 17983 PWs)   bands (ev):

[...]

          k =-0.0882-0.1484 0.0000 ( 17936 PWs)   bands (ev):

   -54.5560 -54.5560 -54.4565 -54.4565 -54.3401 -54.3401 -30.8861 -30.8861
   -30.6575 -30.6575 -30.5896 -30.5896 -30.5331 -30.5331 -30.5108 -30.5108
   -30.4585 -30.4585 -30.4500 -30.4500 -30.3717 -30.3717 -30.0429 -30.0429
    -6.4524  -6.4524  -5.1812  -5.1812  -4.1887  -4.1887  -2.4073  -2.4073
    -1.9451  -1.9451  -1.3596  -1.3596  -1.0247  -1.0247  -0.7249  -0.7249
    -0.5979  -0.5979  -0.3957  -0.3957   0.2839   0.2840   0.4030   0.4030
     0.7180   0.7180   0.9741   0.9741   1.3268   1.3268   1.7111   1.7111
     1.9718   1.9718   2.5126   2.5126   2.8107   2.8107   2.9290   2.9290
     3.4210   3.4210   4.4609   4.4609   5.0803   5.0803   5.3938   5.3938
     5.6404   5.6404   5.9156   5.9156   6.1063   6.1063

     the Fermi energy is     0.5724 ev

!    total energy              =    -752.55221317 Ry
     Harris-Foulkes estimate   =    -752.55221320 Ry
     estimated scf accuracy    <       0.00000036 Ry

     The total energy is the sum of the following terms:

     one-electron contribution =   -4881.19499319 Ry
     hartree contribution      =    2437.20721778 Ry
     xc contribution           =    -141.04178265 Ry
     ewald contribution        =    1832.53378083 Ry
     electric field correction =       0.00000253 Ry
     smearing contrib. (-TS)   =      -0.05643846 Ry

     convergence has been achieved in  16 iterations

 BEEF-vdW xc energy contributions
           1 :   -120.020496638365
           2 :    108.128203930873
           3 :   -88.3669738872584
           4 :    66.6433720010745
           5 :   -48.0503138955318
           6 :    35.0727141221729
           7 :   -27.4365804983465
           8 :    23.2168563976340
           9 :   -20.2726610735639
          10 :    17.1799416768892
          11 :   -13.4410912354882
          12 :    9.21977601948282
          13 :   -4.98690616151075
          14 :    1.25551931378311
          15 :    1.60017357973473
          16 :   -3.48850678557773
          17 :    4.64913616860943
          18 :   -5.53206413865072
          19 :    6.52609133622911
          20 :   -7.70791881541663
          21 :    8.79525305960314
          22 :   -9.35464426388501
          23 :    9.11296740081542
          24 :   -8.14957967726775
          25 :    6.83725274228021
          26 :   -5.59805095712403
          27 :    4.66326193372907
          28 :   -4.00373102397683
          29 :    3.44444750174145
          30 :   -2.84549706029691
          31 :   -14.5534282196247
          32 :   -10.9395073555111

     Forces acting on atoms (Ry/au):

     negative rho (up, down):  3.511E-03 0.000E+00
     atom    1 type  1   force =    -0.00000025    0.00439369   -0.02120463
     atom    2 type  1   force =     0.00000017    0.00439371   -0.02120462
     atom    3 type  2   force =     0.00000008    0.00359592    0.03283451
     atom    4 type  2   force =     0.00000010    0.00359543    0.03283403
     atom    5 type  1   force =    -0.00000013    0.00425500   -0.00850992
     atom    6 type  1   force =     0.00000012    0.00425493   -0.00850987
     atom    7 type  2   force =    -0.00000011   -0.01215548   -0.00333727
     atom    8 type  2   force =     0.00000008   -0.01215597   -0.00333788
     atom    9 type  1   force =    -0.00000019    0.00010114    0.00054314
     atom   10 type  1   force =     0.00000019    0.00010130    0.00054311
     atom   11 type  2   force =     0.00000009   -0.00018948   -0.00032515
     atom   12 type  2   force =    -0.00000016   -0.00019018   -0.00032545

     Total force =     0.060164     Total SCF correction =     0.000871

     entering subroutine stress ...

     negative rho (up, down):  3.511E-03 0.000E+00
          total   stress  (Ry/bohr**3)                   (kbar)     P=  -13.36
  -0.00010976   0.00000000  -0.00000000        -16.15      0.00     -0.00
   0.00000000  -0.00013953  -0.00001512          0.00    -20.53     -2.22
  -0.00000000  -0.00001512  -0.00002322         -0.00     -2.22     -3.42

 !ASE

     Writing output data file calc.save

     General routines

     Parallel routines

   This run was terminated on:  18:25:30  18Dec2018

   JOB DONE.
Job  /afs/slac/g/suncat/bin/suncat-tsmpirun -x LD_LIBRARY_PATH -wdir /scratch/qe529595_rICxF pw.x -in pw.inp

TID   HOST_NAME   COMMAND_LINE            STATUS            TERMINATION_TIME
00000 suncat0070 pw.x -in pw.inp   Done                     12/18/2018 18:25:30
00001 suncat0070 pw.x -in pw.inp   Done                     12/18/2018 18:25:30
00002 suncat0070 pw.x -in pw.inp   Done                     12/18/2018 18:25:30
00003 suncat0070 pw.x -in pw.inp   Done                     12/18/2018 18:25:30
00004 suncat0070 pw.x -in pw.inp   Done                     12/18/2018 18:25:30
00005 suncat0070 pw.x -in pw.inp   Done                     12/18/2018 18:25:30
00006 suncat0070 pw.x -in pw.inp   Done                     12/18/2018 18:25:30
00007 suncat0070 pw.x -in pw.inp   Done                     12/18/2018 18:25:30
00008 suncat0069 pw.x -in pw.inp   Done                     12/18/2018 18:25:30
00009 suncat0069 pw.x -in pw.inp   Done                     12/18/2018 18:25:30
00010 suncat0069 pw.x -in pw.inp   Done                     12/18/2018 18:25:30
00011 suncat0069 pw.x -in pw.inp   Done                     12/18/2018 18:25:30
00012 suncat0069 pw.x -in pw.inp   Done                     12/18/2018 18:25:30
00013 suncat0069 pw.x -in pw.inp   Done                     12/18/2018 18:25:30
00014 suncat0069 pw.x -in pw.inp   Done                     12/18/2018 18:25:30
00015 suncat0069 pw.x -in pw.inp   Done                     12/18/2018 18:25:30
00016 suncat0068 pw.x -in pw.inp   Done                     12/18/2018 18:25:30
00017 suncat0068 pw.x -in pw.inp   Done                     12/18/2018 18:25:30
00018 suncat0068 pw.x -in pw.inp   Done                     12/18/2018 18:25:30
00019 suncat0068 pw.x -in pw.inp   Done                     12/18/2018 18:25:30
00020 suncat0068 pw.x -in pw.inp   Done                     12/18/2018 18:25:30
00021 suncat0068 pw.x -in pw.inp   Done                     12/18/2018 18:25:30
00022 suncat0068 pw.x -in pw.inp   Done                     12/18/2018 18:25:30
00023 suncat0068 pw.x -in pw.inp   Done                     12/18/2018 18:25:30
00024 suncat0066 pw.x -in pw.inp   Done                     12/18/2018 18:25:30
00025 suncat0066 pw.x -in pw.inp   Done                     12/18/2018 18:25:30
00026 suncat0066 pw.x -in pw.inp   Done                     12/18/2018 18:25:30
00027 suncat0066 pw.x -in pw.inp   Done                     12/18/2018 18:25:30
00028 suncat0066 pw.x -in pw.inp   Done                     12/18/2018 18:25:30
00029 suncat0066 pw.x -in pw.inp   Done                     12/18/2018 18:25:30
00030 suncat0066 pw.x -in pw.inp   Done                     12/18/2018 18:25:30
00031 suncat0066 pw.x -in pw.inp   Done                     12/18/2018 18:25:30