     Program PWSCF v.5.1rc2 (svn rev. 11289) starts on 18Dec2018 at 16:51:57

     Current dimensions of program PWSCF are:
     Max number of different atomic species (ntypx) = 10
     Max number of k-points (npk) =  40000
     Max angular momentum in pseudopotentials (lmaxx) =  3
     Presently stress not available with electric field

     IMPORTANT: XC functional enforced from input :
     Exchange-correlation      = BEEF-VDW ( 1  4 27 13 2)
     Any further DFT definition will be discarded
     Please, verify this is what you really want

     Subspace diagonalization in iterative solution of the eigenvalue problem:
     a serial algorithm will be used

     Found symmetry operation: I + ( -0.5000 -0.5000  0.0000)
     This is a supercell, fractional translations are disabled

     Generating pointlists ...
     new r_m :   0.4125 (alat units)  0.7795 (a.u.) for type    1
     new r_m :   0.4125 (alat units)  0.7795 (a.u.) for type    2

     bravais-lattice index     =            0
     lattice parameter (alat)  =       1.8897  a.u.
     unit-cell volume          =    5030.7983 (a.u.)^3
     number of atoms/cell      =           12
     number of atomic types    =            2
     number of electrons       =       204.00
     number of Kohn-Sham states=          132
     kinetic-energy cutoff     =      36.7493  Ry
     charge density cutoff     =     367.4932  Ry
     convergence threshold     =      1.0E-06
     mixing beta               =       0.1000
     number of iterations used =           10  plain     mixing
     Exchange-correlation      = BEEF-VDW ( 1  4 27 13 2)
     nstep                     =           50

     celldm(1)=   1.889726  celldm(2)=   0.000000  celldm(3)=   0.000000
     celldm(4)=   0.000000  celldm(5)=   0.000000  celldm(6)=   0.000000

     crystal axes: (cart. coord. in units of alat)
               a(1) = (   5.669737   0.000000   0.000000 )
               a(2) = (   1.913607   5.337043   0.000000 )
               a(3) = (   0.000000   0.000000  24.636367 )

     reciprocal axes: (cart. coord. in units 2 pi/alat)
               b(1) = (  0.176375 -0.063240  0.000000 )
               b(2) = (  0.000000  0.187370  0.000000 )
               b(3) = (  0.000000  0.000000  0.040590 )

     PseudoPot. # 1 for Mn read from file:
     /afs/slac.stanford.edu/u/if/mamunm/psp/gbrv1.5pbe/Mn.UPF
     MD5 check sum: 82ef2b46521d7a7d9e736dc3972e4928
     Pseudo is Ultrasoft + core correction, Zval = 15.0
     Generated by new atomic code, or converted to UPF format
     Using radial grid of  859 points,  6 beta functions with:
                l(1) =   0
                l(2) =   0
                l(3) =   1
                l(4) =   1
                l(5) =   2
                l(6) =   2
     Q(r) pseudized with  8 coefficients,  rinner =    0.950   0.950   0.950
                                                       0.950   0.950

     PseudoPot. # 2 for Ag read from file:
     /afs/slac.stanford.edu/u/if/mamunm/psp/gbrv1.5pbe/Ag.UPF
     MD5 check sum: d66d668201baa78d5eb5b04ef7011058
     Pseudo is Ultrasoft + core correction, Zval = 19.0
     Generated by new atomic code, or converted to UPF format
     Using radial grid of  887 points,  6 beta functions with:
                l(1) =   0
                l(2) =   0
                l(3) =   1
                l(4) =   1
                l(5) =   2
                l(6) =   2
     Q(r) pseudized with  6 coefficients,  rinner =    1.300   1.300   1.300
                                                       1.300   1.300

     vdW kernel table read from file vdW_kernel_table
     MD5 check sum: 095c7af220d748ca6e76c0b4c6cfb241

     atomic species   valence    mass     pseudopotential
        Mn1           15.00    54.93804     Mn( 1.00)
        Ag1           19.00   107.86820     Ag( 1.00)

     Starting magnetic structure
     atomic species   magnetization
        Mn1          0.133
        Ag1          0.105

     No symmetry found

   Cartesian axes

     site n.     atom                  positions (alat units)
         1           Mn1 tau(   1) = (   0.0000000   0.0000000  10.0000000  )
         2           Mn1 tau(   2) = (   3.7916720   2.6685216  10.0000000  )
         3           Ag1 tau(   3) = (   2.8348686   0.0000000  10.0000000  )
         4           Ag1 tau(   4) = (   0.9568034   2.6685216  10.0000000  )
         5           Mn1 tau(   5) = (   5.6697372   3.9902756  12.3181833  )
         6           Mn1 tau(   6) = (   1.8780652   1.3217540  12.3181833  )
         7           Ag1 tau(   7) = (   2.8348686   3.9902756  12.3181833  )
         8           Ag1 tau(   8) = (   4.7129339   1.3217540  12.3181833  )
         9           Mn1 tau(   9) = (   3.7561305   2.6435080  14.6363666  )
        10           Mn1 tau(  10) = (   7.5478025   5.3120296  14.6363666  )
        11           Ag1 tau(  11) = (   6.5909991   2.6435080  14.6363666  )
        12           Ag1 tau(  12) = (   4.7129339   5.3120296  14.6363666  )

     number of k points=    40  Fermi-Dirac smearing, width (Ry)=  0.0110
                       cart. coord. in units 2pi/alat
        k(    1) = (   0.0000000   0.0000000   0.0000000), wk =   0.0277778
        k(    2) = (   0.0000000   0.0312283   0.0000000), wk =   0.0555556
        k(    3) = (   0.0000000   0.0624566   0.0000000), wk =   0.0555556
        k(    4) = (   0.0000000  -0.0936848   0.0000000), wk =   0.0277778
        k(    5) = (   0.0293958  -0.0105399   0.0000000), wk =   0.0555556
        k(    6) = (   0.0293958   0.0206883   0.0000000), wk =   0.0555556
        k(    7) = (   0.0293958   0.0519166   0.0000000), wk =   0.0555556
        k(    8) = (   0.0293958  -0.1042248   0.0000000), wk =   0.0555556
        k(    9) = (   0.0293958  -0.0729965   0.0000000), wk =   0.0555556
        k(   10) = (   0.0293958  -0.0417682   0.0000000), wk =   0.0555556
        k(   11) = (   0.0587917  -0.0210799   0.0000000), wk =   0.0555556
        k(   12) = (   0.0587917   0.0101484   0.0000000), wk =   0.0555556
        k(   13) = (   0.0587917   0.0413767   0.0000000), wk =   0.0555556
        k(   14) = (   0.0587917  -0.1147647   0.0000000), wk =   0.0555556
        k(   15) = (   0.0587917  -0.0835364   0.0000000), wk =   0.0555556
        k(   16) = (   0.0587917  -0.0523081   0.0000000), wk =   0.0555556
        k(   17) = (  -0.0881875   0.0316198   0.0000000), wk =   0.0277778
        k(   18) = (  -0.0881875   0.0628481   0.0000000), wk =   0.0555556
        k(   19) = (  -0.0881875   0.0940764   0.0000000), wk =   0.0555556
        k(   20) = (  -0.0881875  -0.0620650   0.0000000), wk =   0.0277778
        k(   21) = (   0.0000000   0.0000000   0.0000000), wk =   0.0277778
        k(   22) = (   0.0000000   0.0312283   0.0000000), wk =   0.0555556
        k(   23) = (   0.0000000   0.0624566   0.0000000), wk =   0.0555556
        k(   24) = (   0.0000000  -0.0936848   0.0000000), wk =   0.0277778
        k(   25) = (   0.0293958  -0.0105399   0.0000000), wk =   0.0555556
        k(   26) = (   0.0293958   0.0206883   0.0000000), wk =   0.0555556
        k(   27) = (   0.0293958   0.0519166   0.0000000), wk =   0.0555556
        k(   28) = (   0.0293958  -0.1042248   0.0000000), wk =   0.0555556
        k(   29) = (   0.0293958  -0.0729965   0.0000000), wk =   0.0555556
        k(   30) = (   0.0293958  -0.0417682   0.0000000), wk =   0.0555556
        k(   31) = (   0.0587917  -0.0210799   0.0000000), wk =   0.0555556
        k(   32) = (   0.0587917   0.0101484   0.0000000), wk =   0.0555556
        k(   33) = (   0.0587917   0.0413767   0.0000000), wk =   0.0555556
        k(   34) = (   0.0587917  -0.1147647   0.0000000), wk =   0.0555556
        k(   35) = (   0.0587917  -0.0835364   0.0000000), wk =   0.0555556
        k(   36) = (   0.0587917  -0.0523081   0.0000000), wk =   0.0555556
        k(   37) = (  -0.0881875   0.0316198   0.0000000), wk =   0.0277778
        k(   38) = (  -0.0881875   0.0628481   0.0000000), wk =   0.0555556
        k(   39) = (  -0.0881875   0.0940764   0.0000000), wk =   0.0555556
        k(   40) = (  -0.0881875  -0.0620650   0.0000000), wk =   0.0277778

     Largest allocated arrays     est. size (Mb)     dimensions
     Largest temporary arrays     est. size (Mb)     dimensions

     Check: negative/imaginary core charge=   -0.000005    0.000000

     Initial potential from superposition of free atoms
     Check: negative starting charge=(component1):   -0.001694
     Check: negative starting charge=(component2):   -0.001319

     starting charge  197.99921, renormalised to  204.00000

     negative rho (up, down):  1.745E-03 1.359E-03

     *
     * You are using vdW-DF for exchange-correlation in this calculation.
     * Please cite the following three references that made this development
     * possible:
     *
     *   M. Dion, H. Rydberg, E. Schroder, D. C. Langreth, and
     *   B. I. Lundqvist, Phys. Rev. Lett. 92, 246401 (2004).
     *
     *   T. Thonhauser, V. R. Cooper, S. Li, A. Puzder, P. Hyldgaard, and
     *   D. C. Langreth, Phys. Rev. B 76, 125112 (2007).
     *
     *   G. Roman-Perez and J. M. Soler, Phys. Rev. Lett. 103, 096102 (2009).
     *
     *
     * If you are using vdW-DF2, please also cite:
     *
     *   K. Lee, E. D. Murray, L. Kong, B. I. Lundqvist, and
     *   D. C. Langreth, Phys. Rev. B 82, 081101(R) (2010).
     *
     *
     * If you are calculating the stress with vdW-DF, please also cite:
     *
     *   R. Sabatini, E. Kucukbenli, B. Kolb, T. Thonhauser, and
     *   S. de Gironcoli, J. Phys.: Condens. Matter 24, 424209 (2012).
     *

     Carrying out vdW-DF run using the following parameters:

     Nqs =      20    Nr_points =    1024   r_max =   100.000
     q_mesh =
               0.00001000     0.04494208     0.09755937     0.15916263
               0.23128650     0.31572767     0.41458969     0.53033537
               0.66584808     0.82450364     1.01025438     1.22772762
               1.48234092     1.78043706     2.12944203     2.53805004
               3.01644009     3.57652955     4.23227104     5.00000000

     Gradients computed in reciprocal space

     Adding external electric field

     Computed dipole along edir(3) :
        Dipole                0.0000 Ry au,          0.0000 Debye
        Dipole field          0.0000 Ry au

        Potential amp.       -0.0000 Ry
        Total length         45.3921 bohr

[...]

     Starting wfc are  156 randomized atomic wfcs

     Self-consistent Calculation

     iteration #  1     ecut=    36.75 Ry     beta=0.10
     Davidson diagonalization with overlap
     ethr =  1.00E-02,  avg # of iterations =  8.0

[...]

     Magnetic moment per site:
     atom:    1    charge:    6.1349    magn:    0.8405    constr:    0.0000
     atom:    2    charge:    6.1349    magn:    0.8405    constr:    0.0000
     atom:    3    charge:    5.1424    magn:    0.5203    constr:    0.0000
     atom:    4    charge:    5.1425    magn:    0.5203    constr:    0.0000
     atom:    5    charge:    6.1242    magn:    0.8401    constr:    0.0000
     atom:    6    charge:    6.1242    magn:    0.8401    constr:    0.0000
[...]

     PseudoPot. # 2 for Ag read from file:
     /afs/slac.stanford.edu/u/if/mamunm/psp/gbrv1.5pbe/Ag.UPF
     MD5 check sum: d66d668201baa78d5eb5b04ef7011058
     Pseudo is Ultrasoft + core correction, Zval = 19.0
     Generated by new atomic code, or converted to UPF format
     Using radial grid of  887 points,  6 beta functions with:
                l(1) =   0
                l(2) =   0
                l(3) =   1
                l(4) =   1
                l(5) =   2
                l(6) =   2
     Q(r) pseudized with  6 coefficients,  rinner =    1.300   1.300   1.300
                                                       1.300   1.300

     vdW kernel table read from file vdW_kernel_table
     MD5 check sum: 095c7af220d748ca6e76c0b4c6cfb241

     atomic species   valence    mass     pseudopotential
        Mn1           15.00    54.93804     Mn( 1.00)
        Ag1           19.00   107.86820     Ag( 1.00)

     Starting magnetic structure
     atomic species   magnetization
        Mn1          0.133
        Ag1          0.105

     No symmetry found

   Cartesian axes

     site n.     atom                  positions (alat units)
         1           Mn1 tau(   1) = (   0.0000000   0.0000000  10.0000000  )
         2           Mn1 tau(   2) = (   3.7916720   2.6685216  10.0000000  )
         3           Ag1 tau(   3) = (   2.8348686   0.0000000  10.0000000  )
         4           Ag1 tau(   4) = (   0.9568034   2.6685216  10.0000000  )
         5           Mn1 tau(   5) = (   5.6697372   3.9902756  12.3181833  )
         6           Mn1 tau(   6) = (   1.8780652   1.3217540  12.3181833  )
         7           Ag1 tau(   7) = (   2.8348686   3.9902756  12.3181833  )
         8           Ag1 tau(   8) = (   4.7129339   1.3217540  12.3181833  )
         9           Mn1 tau(   9) = (   3.7567845   2.6439689  14.5966193  )
        10           Mn1 tau(  10) = (   7.5486389   5.3126184  14.5966401  )
        11           Ag1 tau(  11) = (   6.5918878   2.6438311  14.6027728  )
        12           Ag1 tau(  12) = (   4.7135392   5.3127603  14.6027730  )

     number of k points=    40  Fermi-Dirac smearing, width (Ry)=  0.0110
                       cart. coord. in units 2pi/alat
        k(    1) = (   0.0000000   0.0000000   0.0000000), wk =   0.0277778
        k(    2) = (   0.0000000   0.0312283   0.0000000), wk =   0.0555556
        k(    3) = (   0.0000000   0.0624566   0.0000000), wk =   0.0555556
        k(    4) = (   0.0000000  -0.0936848   0.0000000), wk =   0.0277778
        k(    5) = (   0.0293958  -0.0105399   0.0000000), wk =   0.0555556
        k(    6) = (   0.0293958   0.0206883   0.0000000), wk =   0.0555556
        k(    7) = (   0.0293958   0.0519166   0.0000000), wk =   0.0555556
        k(    8) = (   0.0293958  -0.1042248   0.0000000), wk =   0.0555556
        k(    9) = (   0.0293958  -0.0729965   0.0000000), wk =   0.0555556
        k(   10) = (   0.0293958  -0.0417682   0.0000000), wk =   0.0555556
        k(   11) = (   0.0587917  -0.0210799   0.0000000), wk =   0.0555556
        k(   12) = (   0.0587917   0.0101484   0.0000000), wk =   0.0555556
        k(   13) = (   0.0587917   0.0413767   0.0000000), wk =   0.0555556
        k(   14) = (   0.0587917  -0.1147647   0.0000000), wk =   0.0555556
        k(   15) = (   0.0587917  -0.0835364   0.0000000), wk =   0.0555556
        k(   16) = (   0.0587917  -0.0523081   0.0000000), wk =   0.0555556
        k(   17) = (  -0.0881875   0.0316198   0.0000000), wk =   0.0277778
        k(   18) = (  -0.0881875   0.0628481   0.0000000), wk =   0.0555556
        k(   19) = (  -0.0881875   0.0940764   0.0000000), wk =   0.0555556
        k(   20) = (  -0.0881875  -0.0620650   0.0000000), wk =   0.0277778
        k(   21) = (   0.0000000   0.0000000   0.0000000), wk =   0.0277778
        k(   22) = (   0.0000000   0.0312283   0.0000000), wk =   0.0555556
        k(   23) = (   0.0000000   0.0624566   0.0000000), wk =   0.0555556
        k(   24) = (   0.0000000  -0.0936848   0.0000000), wk =   0.0277778
        k(   25) = (   0.0293958  -0.0105399   0.0000000), wk =   0.0555556
        k(   26) = (   0.0293958   0.0206883   0.0000000), wk =   0.0555556
        k(   27) = (   0.0293958   0.0519166   0.0000000), wk =   0.0555556
        k(   28) = (   0.0293958  -0.1042248   0.0000000), wk =   0.0555556
        k(   29) = (   0.0293958  -0.0729965   0.0000000), wk =   0.0555556
        k(   30) = (   0.0293958  -0.0417682   0.0000000), wk =   0.0555556
        k(   31) = (   0.0587917  -0.0210799   0.0000000), wk =   0.0555556
        k(   32) = (   0.0587917   0.0101484   0.0000000), wk =   0.0555556
        k(   33) = (   0.0587917   0.0413767   0.0000000), wk =   0.0555556
        k(   34) = (   0.0587917  -0.1147647   0.0000000), wk =   0.0555556
        k(   35) = (   0.0587917  -0.0835364   0.0000000), wk =   0.0555556
        k(   36) = (   0.0587917  -0.0523081   0.0000000), wk =   0.0555556
        k(   37) = (  -0.0881875   0.0316198   0.0000000), wk =   0.0277778
        k(   38) = (  -0.0881875   0.0628481   0.0000000), wk =   0.0555556
        k(   39) = (  -0.0881875   0.0940764   0.0000000), wk =   0.0555556
        k(   40) = (  -0.0881875  -0.0620650   0.0000000), wk =   0.0277778

     Largest allocated arrays     est. size (Mb)     dimensions
     Largest temporary arrays     est. size (Mb)     dimensions

     Check: negative/imaginary core charge=   -0.000005    0.000000

     Initial potential from superposition of free atoms
     Check: negative starting charge=(component1):   -0.001700
     Check: negative starting charge=(component2):   -0.001324

     starting charge  197.99921, renormalised to  204.00000

[...]

     *
     * You are using vdW-DF for exchange-correlation in this calculation.
     * Please cite the following three references that made this development
     * possible:
     *
     *   M. Dion, H. Rydberg, E. Schroder, D. C. Langreth, and
     *   B. I. Lundqvist, Phys. Rev. Lett. 92, 246401 (2004).
     *
     *   T. Thonhauser, V. R. Cooper, S. Li, A. Puzder, P. Hyldgaard, and
     *   D. C. Langreth, Phys. Rev. B 76, 125112 (2007).
     *
     *   G. Roman-Perez and J. M. Soler, Phys. Rev. Lett. 103, 096102 (2009).
     *
     *
     * If you are using vdW-DF2, please also cite:
     *
     *   K. Lee, E. D. Murray, L. Kong, B. I. Lundqvist, and
     *   D. C. Langreth, Phys. Rev. B 82, 081101(R) (2010).
     *
     *
     * If you are calculating the stress with vdW-DF, please also cite:
     *
     *   R. Sabatini, E. Kucukbenli, B. Kolb, T. Thonhauser, and
     *   S. de Gironcoli, J. Phys.: Condens. Matter 24, 424209 (2012).
     *

     Carrying out vdW-DF run using the following parameters:

     Nqs =      20    Nr_points =    1024   r_max =   100.000
     q_mesh =
               0.00001000     0.04494208     0.09755937     0.15916263
               0.23128650     0.31572767     0.41458969     0.53033537
               0.66584808     0.82450364     1.01025438     1.22772762
               1.48234092     1.78043706     2.12944203     2.53805004
               3.01644009     3.57652955     4.23227104     5.00000000

     Gradients computed in reciprocal space

[...]

     Starting wfc are  156 randomized atomic wfcs

     Self-consistent Calculation

[...]

     total energy              =   -3052.40502326 Ry
     Harris-Foulkes estimate   =   -3052.40502059 Ry
     estimated scf accuracy    <       0.00000159 Ry

[...]

     iteration # 21     ecut=    36.75 Ry     beta=0.10
     Davidson diagonalization with overlap
     ethr =  7.78E-10,  avg # of iterations =  2.0

[...]

     negative rho (up, down):  1.806E-03 2.372E-03

[...]

     Adding external electric field

     Computed dipole along edir(3) :
        Dipole                0.0017 Ry au,          0.0044 Debye
        Dipole field          0.0000 Ry au

        Potential amp.       -0.0004 Ry
        Total length         45.3921 bohr

     Magnetic moment per site:
     atom:    1    charge:    6.0301    magn:    1.6509    constr:    0.0000
     atom:    2    charge:    6.0301    magn:    1.6509    constr:    0.0000
     atom:    3    charge:    5.0940    magn:    0.0210    constr:    0.0000
     atom:    4    charge:    5.0940    magn:    0.0210    constr:    0.0000
     atom:    5    charge:    6.0231    magn:    1.6099    constr:    0.0000
     atom:    6    charge:    6.0231    magn:    1.6099    constr:    0.0000
     atom:    7    charge:    5.0881    magn:    0.0238    constr:    0.0000
     atom:    8    charge:    5.0881    magn:    0.0238    constr:    0.0000
     atom:    9    charge:    6.0238    magn:    1.6459    constr:    0.0000
     atom:   10    charge:    6.0237    magn:    1.6459    constr:    0.0000
     atom:   11    charge:    5.0801    magn:    0.0212    constr:    0.0000
     atom:   12    charge:    5.0801    magn:    0.0212    constr:    0.0000

     End of self-consistent calculation

 ------ SPIN UP ------------

[...]

 ------ SPIN DOWN ----------

[...]

          k = 0.0588-0.0523 0.0000 ( 18934 PWs)   bands (ev):

[...]

          k =-0.0882-0.0621 0.0000 ( 18916 PWs)   bands (ev):

   -91.5309 -91.5301 -91.3111 -91.3103 -91.2891 -91.2883 -76.3623 -76.3610
   -76.3581 -76.3568 -76.2860 -76.2847 -55.0174 -55.0095 -55.0079 -55.0073
   -55.0061 -54.9980 -54.8182 -54.8170 -54.7986 -54.7985 -54.7975 -54.7794
   -54.7767 -54.7679 -54.7664 -54.7576 -54.7432 -54.7418 -45.1784 -45.1764
   -45.1752 -45.1734 -45.1459 -45.1443 -45.1432 -45.1419 -45.1397 -45.1373
   -45.1234 -45.1207 -45.0850 -45.0797 -45.0786 -45.0681 -45.0659 -45.0622
    -4.6773  -4.4867  -4.3785  -4.3129  -4.2991  -4.2903  -4.2803  -4.1843
    -4.1322  -4.1314  -4.0873  -3.9956  -3.9449  -3.9311  -3.7977  -3.7453
    -3.7322  -3.7279  -3.7024  -3.6562  -3.5640  -3.5312  -3.3947  -3.3481
    -3.3257  -3.3014  -3.2643  -3.2346  -3.1738  -3.0251  -2.8705  -2.7397
    -1.8791  -1.5817  -1.2802  -1.0481  -0.5027  -0.0164   0.1827   0.3622
     0.4808   0.7817   1.1440   1.2043   1.2560   1.3059   1.3646   1.4345
     1.4716   1.6118   1.7790   1.8151   1.8822   1.9205   1.9654   2.0949
     2.1060   2.2966   2.3932   2.4724   2.4759   2.5167   2.5798   2.6088
     2.6224   2.8267   2.9174   3.3634   3.5523   3.5544   4.1497   4.4638
     4.5168   4.5426   6.0427   6.1478   6.3743   6.5204   6.6498   6.6766
     6.8932   6.9204   7.3450   7.6704

     the Fermi energy is     1.0490 ev

!    total energy              =   -3052.40503360 Ry
     Harris-Foulkes estimate   =   -3052.40502340 Ry
     estimated scf accuracy    <       0.00000063 Ry

     The total energy is the sum of the following terms:

     one-electron contribution =  -21583.07424518 Ry
     hartree contribution      =   10779.75759156 Ry
     xc contribution           =    -346.35064171 Ry
     ewald contribution        =    8097.31308259 Ry
     electric field correction =       0.00000001 Ry
     smearing contrib. (-TS)   =      -0.05082086 Ry

     total magnetization       =    26.24 Bohr mag/cell
     absolute magnetization    =    27.18 Bohr mag/cell

     convergence has been achieved in  21 iterations

 BEEF-vdW xc energy contributions
           1 :   -301.326651490064
           2 :    272.186468323521
           3 :   -224.073805475455
           4 :    171.728120457651
           5 :   -127.516389738012
           6 :    97.3220975683561
           7 :   -80.5155004029745
           8 :    72.5130379574605
           9 :   -67.8546660236796
          10 :    62.4938377060290
          11 :   -54.8640039797901
          12 :    45.7262018068692
          13 :   -37.0947012844118
          14 :    30.7770109086337
          15 :   -27.2650833233821
          16 :    25.5831989592250
          17 :   -24.1396349896704
          18 :    21.8920780029170
          19 :   -18.9329929795674
          20 :    16.1406697966495
          21 :   -14.3361937676010
          22 :    13.6650622801380
          23 :   -13.5933301582776
          24 :    13.3690547191341
          25 :   -12.5376159506118
          26 :    11.1706703232381
          27 :   -9.73802866686617
          28 :    8.76774203982529
          29 :   -8.52399969183119
          30 :    8.86768966886189
          31 :   -28.4417562404750
          32 :   -20.3467123481272

     Forces acting on atoms (Ry/au):

     negative rho (up, down):  1.806E-03 2.372E-03
     atom    1 type  1   force =    -0.00002398   -0.00001707    0.00324071
     atom    2 type  1   force =    -0.00002819   -0.00001954    0.00324084
     atom    3 type  2   force =    -0.00008294   -0.00005143    0.00287560
     atom    4 type  2   force =    -0.00007637   -0.00006065    0.00287547
     atom    5 type  1   force =     0.00002900    0.00002044   -0.00292198
     atom    6 type  1   force =     0.00002657    0.00001881   -0.00295442
     atom    7 type  2   force =    -0.00004550   -0.00002673   -0.00313516
     atom    8 type  2   force =    -0.00004037   -0.00003386   -0.00313504
     atom    9 type  1   force =     0.00008912    0.00006319    0.00034271
     atom   10 type  1   force =     0.00001860    0.00001272    0.00033725
     atom   11 type  2   force =     0.00004324    0.00008146   -0.00038294
     atom   12 type  2   force =     0.00009083    0.00001266   -0.00038305

     Total force =     0.008663     Total SCF correction =     0.002100
     SCF correction compared to forces is large: reduce conv_thr to get better values

     entering subroutine stress ...

     negative rho (up, down):  1.806E-03 2.372E-03
          total   stress  (Ry/bohr**3)                   (kbar)     P=   -6.45
  -0.00004607   0.00001465   0.00000045         -6.78      2.16      0.07
   0.00001465  -0.00005658   0.00000032          2.16     -8.32      0.05
   0.00000045   0.00000032  -0.00002896          0.07      0.05     -4.26

 !ASE

     Writing output data file calc.save

     General routines

     Parallel routines

   This run was terminated on:  18:51:22  18Dec2018

   JOB DONE.
Job  /afs/slac/g/suncat/bin/suncat-tsmpirun -x LD_LIBRARY_PATH -wdir /scratch/qe530195_HuklM pw.x -in pw.inp

TID   HOST_NAME   COMMAND_LINE            STATUS            TERMINATION_TIME
00000 suncat2024 pw.x -in pw.inp   Done                     12/18/2018 18:51:22
00001 suncat2024 pw.x -in pw.inp   Done                     12/18/2018 18:51:22
00002 suncat2024 pw.x -in pw.inp   Done                     12/18/2018 18:51:22
00003 suncat2024 pw.x -in pw.inp   Done                     12/18/2018 18:51:22
00004 suncat2024 pw.x -in pw.inp   Done                     12/18/2018 18:51:22
00005 suncat2024 pw.x -in pw.inp   Done                     12/18/2018 18:51:22
00006 suncat2024 pw.x -in pw.inp   Done                     12/18/2018 18:51:22
00007 suncat2024 pw.x -in pw.inp   Done                     12/18/2018 18:51:22
00008 suncat2024 pw.x -in pw.inp   Done                     12/18/2018 18:51:22
00009 suncat2024 pw.x -in pw.inp   Done                     12/18/2018 18:51:22
00010 suncat2024 pw.x -in pw.inp   Done                     12/18/2018 18:51:22
00011 suncat2024 pw.x -in pw.inp   Done                     12/18/2018 18:51:22
00012 suncat2024 pw.x -in pw.inp   Done                     12/18/2018 18:51:22
00013 suncat2024 pw.x -in pw.inp   Done                     12/18/2018 18:51:22
00014 suncat2024 pw.x -in pw.inp   Done                     12/18/2018 18:51:22
00015 suncat2024 pw.x -in pw.inp   Done                     12/18/2018 18:51:22
00016 suncat2023 pw.x -in pw.inp   Done                     12/18/2018 18:51:22
00017 suncat2023 pw.x -in pw.inp   Done                     12/18/2018 18:51:22
00018 suncat2023 pw.x -in pw.inp   Done                     12/18/2018 18:51:22
00019 suncat2023 pw.x -in pw.inp   Done                     12/18/2018 18:51:22
00020 suncat2023 pw.x -in pw.inp   Done                     12/18/2018 18:51:22
00021 suncat2023 pw.x -in pw.inp   Done                     12/18/2018 18:51:22
00022 suncat2023 pw.x -in pw.inp   Done                     12/18/2018 18:51:22
00023 suncat2023 pw.x -in pw.inp   Done                     12/18/2018 18:51:22
00024 suncat2023 pw.x -in pw.inp   Done                     12/18/2018 18:51:22
00025 suncat2023 pw.x -in pw.inp   Done                     12/18/2018 18:51:22
00026 suncat2023 pw.x -in pw.inp   Done                     12/18/2018 18:51:22
00027 suncat2023 pw.x -in pw.inp   Done                     12/18/2018 18:51:22
00028 suncat2023 pw.x -in pw.inp   Done                     12/18/2018 18:51:22
00029 suncat2023 pw.x -in pw.inp   Done                     12/18/2018 18:51:22
00030 suncat2023 pw.x -in pw.inp   Done                     12/18/2018 18:51:22
00031 suncat2023 pw.x -in pw.inp   Done                     12/18/2018 18:51:22