     Program PWSCF v.5.1rc2 (svn rev. 11289) starts on 18Dec2018 at 16:49:47

     Current dimensions of program PWSCF are:
     Max number of different atomic species (ntypx) = 10
     Max number of k-points (npk) =  40000
     Max angular momentum in pseudopotentials (lmaxx) =  3
     Presently stress not available with electric field

     IMPORTANT: XC functional enforced from input :
     Exchange-correlation      = BEEF-VDW ( 1  4 27 13 2)
     Any further DFT definition will be discarded
     Please, verify this is what you really want

     Subspace diagonalization in iterative solution of the eigenvalue problem:
     a serial algorithm will be used

     Found symmetry operation: I + (  0.5000 -0.5000  0.0000)
     This is a supercell, fractional translations are disabled

     Generating pointlists ...
     new r_m :   0.4125 (alat units)  0.7795 (a.u.) for type    1
     new r_m :   0.4125 (alat units)  0.7795 (a.u.) for type    2

     bravais-lattice index     =            0
     lattice parameter (alat)  =       1.8897  a.u.
     unit-cell volume          =    3781.6051 (a.u.)^3
     number of atoms/cell      =           12
     number of atomic types    =            2
     number of electrons       =       114.00
     number of Kohn-Sham states=           87
     kinetic-energy cutoff     =      36.7493  Ry
     charge density cutoff     =     367.4932  Ry
     convergence threshold     =      1.0E-06
     mixing beta               =       0.1000
     number of iterations used =           10  plain     mixing
     Exchange-correlation      = BEEF-VDW ( 1  4 27 13 2)
     nstep                     =           50

     celldm(1)=   1.889726  celldm(2)=   0.000000  celldm(3)=   0.000000
     celldm(4)=   0.000000  celldm(5)=   0.000000  celldm(6)=   0.000000

     crystal axes: (cart. coord. in units of alat)
               a(1) = (   4.972020   0.000000   0.000000 )
               a(2) = (   1.668231   4.683800   0.000000 )
               a(3) = (   0.000000   0.000000  24.062921 )

     reciprocal axes: (cart. coord. in units 2 pi/alat)
               b(1) = (  0.201126 -0.071635  0.000000 )
               b(2) = (  0.000000  0.213502  0.000000 )
               b(3) = (  0.000000  0.000000  0.041558 )

     PseudoPot. # 1 for Al read from file:
     /afs/slac.stanford.edu/u/if/mamunm/psp/gbrv1.5pbe/Al.UPF
     MD5 check sum: 0a6289f5291fc8f409219462bc851e1f
     Pseudo is Ultrasoft + core correction, Zval =  3.0
     Generated by new atomic code, or converted to UPF format
     Using radial grid of  893 points,  3 beta functions with:
                l(1) =   0
                l(2) =   1
                l(3) =   2
     Q(r) pseudized with  8 coefficients,  rinner =    0.900   0.900   0.900
                                                       0.900   0.900

     PseudoPot. # 2 for Fe read from file:
     /afs/slac.stanford.edu/u/if/mamunm/psp/gbrv1.5pbe/Fe.UPF
     MD5 check sum: a130daea23fe5165f5d574ae7f82ed95
     Pseudo is Ultrasoft + core correction, Zval = 16.0
     Generated by new atomic code, or converted to UPF format
     Using radial grid of  861 points,  6 beta functions with:
                l(1) =   0
                l(2) =   0
                l(3) =   1
                l(4) =   1
                l(5) =   2
                l(6) =   2
     Q(r) pseudized with  8 coefficients,  rinner =    1.000   1.000   1.000
                                                       1.000   1.000

     vdW kernel table read from file vdW_kernel_table
     MD5 check sum: 095c7af220d748ca6e76c0b4c6cfb241

     atomic species   valence    mass     pseudopotential
        Al1            3.00    26.98154     Al( 1.00)
        Fe1           16.00    55.84500     Fe( 1.00)

     Starting magnetic structure
     atomic species   magnetization
        Al1          0.667
        Fe1          0.125

     No symmetry found

   Cartesian axes

     site n.     atom                  positions (alat units)
         1           Al1 tau(   1) = (   0.0000000   0.0000000  10.0000000  )
         2           Al1 tau(   2) = (   3.3201255   2.3419002  10.0000000  )
         3           Fe1 tau(   3) = (   2.4860099   0.0000000  10.0000000  )
         4           Fe1 tau(   4) = (   0.8341156   2.3419002  10.0000000  )
         5           Al1 tau(   5) = (   4.9720198   3.5070885  12.0314607  )
         6           Al1 tau(   6) = (   1.6518943   1.1651883  12.0314607  )
         7           Fe1 tau(   7) = (   2.4860099   3.5070885  12.0314607  )
         8           Fe1 tau(   8) = (   4.1379042   1.1651883  12.0314607  )
         9           Al1 tau(   9) = (   3.3037886   2.3303767  14.0629213  )
        10           Al1 tau(  10) = (   6.6239141   4.6722768  14.0629213  )
        11           Fe1 tau(  11) = (   5.7897985   2.3303767  14.0629213  )
        12           Fe1 tau(  12) = (   4.1379042   4.6722768  14.0629213  )

     number of k points=    40  Fermi-Dirac smearing, width (Ry)=  0.0110
                       cart. coord. in units 2pi/alat
        k(    1) = (   0.0000000   0.0000000   0.0000000), wk =   0.0277778
        k(    2) = (   0.0000000   0.0355836   0.0000000), wk =   0.0555556
        k(    3) = (   0.0000000   0.0711673   0.0000000), wk =   0.0555556
        k(    4) = (   0.0000000  -0.1067509   0.0000000), wk =   0.0277778
        k(    5) = (   0.0335209  -0.0119392   0.0000000), wk =   0.0555556
        k(    6) = (   0.0335209   0.0236445   0.0000000), wk =   0.0555556
        k(    7) = (   0.0335209   0.0592281   0.0000000), wk =   0.0555556
        k(    8) = (   0.0335209  -0.1186901   0.0000000), wk =   0.0555556
        k(    9) = (   0.0335209  -0.0831064   0.0000000), wk =   0.0555556
        k(   10) = (   0.0335209  -0.0475228   0.0000000), wk =   0.0555556
        k(   11) = (   0.0670418  -0.0238783   0.0000000), wk =   0.0555556
        k(   12) = (   0.0670418   0.0117053   0.0000000), wk =   0.0555556
        k(   13) = (   0.0670418   0.0472890   0.0000000), wk =   0.0555556
        k(   14) = (   0.0670418  -0.1306292   0.0000000), wk =   0.0555556
        k(   15) = (   0.0670418  -0.0950456   0.0000000), wk =   0.0555556
        k(   16) = (   0.0670418  -0.0594620   0.0000000), wk =   0.0555556
        k(   17) = (  -0.1005628   0.0358175   0.0000000), wk =   0.0277778
        k(   18) = (  -0.1005628   0.0714011   0.0000000), wk =   0.0555556
        k(   19) = (  -0.1005628   0.1069848   0.0000000), wk =   0.0555556
        k(   20) = (  -0.1005628  -0.0709334   0.0000000), wk =   0.0277778
        k(   21) = (   0.0000000   0.0000000   0.0000000), wk =   0.0277778
        k(   22) = (   0.0000000   0.0355836   0.0000000), wk =   0.0555556
        k(   23) = (   0.0000000   0.0711673   0.0000000), wk =   0.0555556
        k(   24) = (   0.0000000  -0.1067509   0.0000000), wk =   0.0277778
        k(   25) = (   0.0335209  -0.0119392   0.0000000), wk =   0.0555556
        k(   26) = (   0.0335209   0.0236445   0.0000000), wk =   0.0555556
        k(   27) = (   0.0335209   0.0592281   0.0000000), wk =   0.0555556
        k(   28) = (   0.0335209  -0.1186901   0.0000000), wk =   0.0555556
        k(   29) = (   0.0335209  -0.0831064   0.0000000), wk =   0.0555556
        k(   30) = (   0.0335209  -0.0475228   0.0000000), wk =   0.0555556
        k(   31) = (   0.0670418  -0.0238783   0.0000000), wk =   0.0555556
        k(   32) = (   0.0670418   0.0117053   0.0000000), wk =   0.0555556
        k(   33) = (   0.0670418   0.0472890   0.0000000), wk =   0.0555556
        k(   34) = (   0.0670418  -0.1306292   0.0000000), wk =   0.0555556
        k(   35) = (   0.0670418  -0.0950456   0.0000000), wk =   0.0555556
        k(   36) = (   0.0670418  -0.0594620   0.0000000), wk =   0.0555556
        k(   37) = (  -0.1005628   0.0358175   0.0000000), wk =   0.0277778
        k(   38) = (  -0.1005628   0.0714011   0.0000000), wk =   0.0555556
        k(   39) = (  -0.1005628   0.1069848   0.0000000), wk =   0.0555556
        k(   40) = (  -0.1005628  -0.0709334   0.0000000), wk =   0.0277778

     Largest allocated arrays     est. size (Mb)     dimensions
     Largest temporary arrays     est. size (Mb)     dimensions

     Check: negative/imaginary core charge=   -0.000004    0.000000

     Initial potential from superposition of free atoms
     Check: negative starting charge=(component1):   -0.000114

     starting charge  107.98517, renormalised to  114.00000

     negative rho (up, down):  1.202E-04 6.426E-05

     *
     * You are using vdW-DF for exchange-correlation in this calculation.
     * Please cite the following three references that made this development
     * possible:
     *
     *   M. Dion, H. Rydberg, E. Schroder, D. C. Langreth, and
     *   B. I. Lundqvist, Phys. Rev. Lett. 92, 246401 (2004).
     *
     *   T. Thonhauser, V. R. Cooper, S. Li, A. Puzder, P. Hyldgaard, and
     *   D. C. Langreth, Phys. Rev. B 76, 125112 (2007).
     *
     *   G. Roman-Perez and J. M. Soler, Phys. Rev. Lett. 103, 096102 (2009).
     *
     *
     * If you are using vdW-DF2, please also cite:
     *
     *   K. Lee, E. D. Murray, L. Kong, B. I. Lundqvist, and
     *   D. C. Langreth, Phys. Rev. B 82, 081101(R) (2010).
     *
     *
     * If you are calculating the stress with vdW-DF, please also cite:
     *
     *   R. Sabatini, E. Kucukbenli, B. Kolb, T. Thonhauser, and
     *   S. de Gironcoli, J. Phys.: Condens. Matter 24, 424209 (2012).
     *

     Carrying out vdW-DF run using the following parameters:

     Nqs =      20    Nr_points =    1024   r_max =   100.000
     q_mesh =
               0.00001000     0.04494208     0.09755937     0.15916263
               0.23128650     0.31572767     0.41458969     0.53033537
               0.66584808     0.82450364     1.01025438     1.22772762
               1.48234092     1.78043706     2.12944203     2.53805004
               3.01644009     3.57652955     4.23227104     5.00000000

     Gradients computed in reciprocal space

     Adding external electric field

     Computed dipole along edir(3) :
        Dipole               -0.0000 Ry au,         -0.0000 Debye
        Dipole field         -0.0000 Ry au

        Potential amp.        0.0000 Ry
        Total length         44.3355 bohr

[...]

     Starting wfc are  102 randomized atomic wfcs

     Self-consistent Calculation

     iteration #  1     ecut=    36.75 Ry     beta=0.10
     Davidson diagonalization with overlap
     ethr =  1.00E-02,  avg # of iterations =  7.0

[...]

     Magnetic moment per site:
     atom:    1    charge:    0.0944    magn:    0.0532    constr:    0.0000
     atom:    2    charge:    0.0944    magn:    0.0532    constr:    0.0000
     atom:    3    charge:    7.2259    magn:    0.9004    constr:    0.0000
     atom:    4    charge:    7.2259    magn:    0.9004    constr:    0.0000
     atom:    5    charge:    0.0987    magn:    0.0546    constr:    0.0000
     atom:    6    charge:    0.0987    magn:    0.0546    constr:    0.0000
     atom:    7    charge:    7.2660    magn:    0.8801    constr:    0.0000
     atom:    8    charge:    7.2660    magn:    0.8801    constr:    0.0000
[...]

     PseudoPot. # 1 for Al read from file:
     /afs/slac.stanford.edu/u/if/mamunm/psp/gbrv1.5pbe/Al.UPF
     MD5 check sum: 0a6289f5291fc8f409219462bc851e1f
     Pseudo is Ultrasoft + core correction, Zval =  3.0
     Generated by new atomic code, or converted to UPF format
     Using radial grid of  893 points,  3 beta functions with:
                l(1) =   0
                l(2) =   1
                l(3) =   2
     Q(r) pseudized with  8 coefficients,  rinner =    0.900   0.900   0.900
                                                       0.900   0.900

     PseudoPot. # 2 for Fe read from file:
     /afs/slac.stanford.edu/u/if/mamunm/psp/gbrv1.5pbe/Fe.UPF
     MD5 check sum: a130daea23fe5165f5d574ae7f82ed95
     Pseudo is Ultrasoft + core correction, Zval = 16.0
     Generated by new atomic code, or converted to UPF format
     Using radial grid of  861 points,  6 beta functions with:
                l(1) =   0
                l(2) =   0
                l(3) =   1
                l(4) =   1
                l(5) =   2
                l(6) =   2
     Q(r) pseudized with  8 coefficients,  rinner =    1.000   1.000   1.000
                                                       1.000   1.000

     vdW kernel table read from file vdW_kernel_table
     MD5 check sum: 095c7af220d748ca6e76c0b4c6cfb241

     atomic species   valence    mass     pseudopotential
        Al1            3.00    26.98154     Al( 1.00)
        Fe1           16.00    55.84500     Fe( 1.00)

     Starting magnetic structure
     atomic species   magnetization
        Al1          0.667
        Fe1          0.125

     No symmetry found

   Cartesian axes

     site n.     atom                  positions (alat units)
         1           Al1 tau(   1) = (   0.0000000   0.0000000  10.0000000  )
         2           Al1 tau(   2) = (   3.3201255   2.3419002  10.0000000  )
         3           Fe1 tau(   3) = (   2.4860099   0.0000000  10.0000000  )
         4           Fe1 tau(   4) = (   0.8341156   2.3419002  10.0000000  )
         5           Al1 tau(   5) = (   4.9720198   3.5070885  12.0314607  )
         6           Al1 tau(   6) = (   1.6518943   1.1651883  12.0314607  )
         7           Fe1 tau(   7) = (   2.4860099   3.5070885  12.0314607  )
         8           Fe1 tau(   8) = (   4.1379042   1.1651883  12.0314607  )
         9           Al1 tau(   9) = (   3.3036672   2.3302414  14.1846259  )
        10           Al1 tau(  10) = (   6.6237462   4.6722081  14.1846261  )
        11           Fe1 tau(  11) = (   5.7906732   2.3309934  14.0730781  )
        12           Fe1 tau(  12) = (   4.1387294   4.6728579  14.0731475  )

     number of k points=    40  Fermi-Dirac smearing, width (Ry)=  0.0110
                       cart. coord. in units 2pi/alat
        k(    1) = (   0.0000000   0.0000000   0.0000000), wk =   0.0277778
        k(    2) = (   0.0000000   0.0355836   0.0000000), wk =   0.0555556
        k(    3) = (   0.0000000   0.0711673   0.0000000), wk =   0.0555556
        k(    4) = (   0.0000000  -0.1067509   0.0000000), wk =   0.0277778
        k(    5) = (   0.0335209  -0.0119392   0.0000000), wk =   0.0555556
        k(    6) = (   0.0335209   0.0236445   0.0000000), wk =   0.0555556
        k(    7) = (   0.0335209   0.0592281   0.0000000), wk =   0.0555556
        k(    8) = (   0.0335209  -0.1186901   0.0000000), wk =   0.0555556
        k(    9) = (   0.0335209  -0.0831064   0.0000000), wk =   0.0555556
        k(   10) = (   0.0335209  -0.0475228   0.0000000), wk =   0.0555556
        k(   11) = (   0.0670418  -0.0238783   0.0000000), wk =   0.0555556
        k(   12) = (   0.0670418   0.0117053   0.0000000), wk =   0.0555556
        k(   13) = (   0.0670418   0.0472890   0.0000000), wk =   0.0555556
        k(   14) = (   0.0670418  -0.1306292   0.0000000), wk =   0.0555556
        k(   15) = (   0.0670418  -0.0950456   0.0000000), wk =   0.0555556
        k(   16) = (   0.0670418  -0.0594620   0.0000000), wk =   0.0555556
        k(   17) = (  -0.1005628   0.0358175   0.0000000), wk =   0.0277778
        k(   18) = (  -0.1005628   0.0714011   0.0000000), wk =   0.0555556
        k(   19) = (  -0.1005628   0.1069848   0.0000000), wk =   0.0555556
        k(   20) = (  -0.1005628  -0.0709334   0.0000000), wk =   0.0277778
        k(   21) = (   0.0000000   0.0000000   0.0000000), wk =   0.0277778
        k(   22) = (   0.0000000   0.0355836   0.0000000), wk =   0.0555556
        k(   23) = (   0.0000000   0.0711673   0.0000000), wk =   0.0555556
        k(   24) = (   0.0000000  -0.1067509   0.0000000), wk =   0.0277778
        k(   25) = (   0.0335209  -0.0119392   0.0000000), wk =   0.0555556
        k(   26) = (   0.0335209   0.0236445   0.0000000), wk =   0.0555556
        k(   27) = (   0.0335209   0.0592281   0.0000000), wk =   0.0555556
        k(   28) = (   0.0335209  -0.1186901   0.0000000), wk =   0.0555556
        k(   29) = (   0.0335209  -0.0831064   0.0000000), wk =   0.0555556
        k(   30) = (   0.0335209  -0.0475228   0.0000000), wk =   0.0555556
        k(   31) = (   0.0670418  -0.0238783   0.0000000), wk =   0.0555556
        k(   32) = (   0.0670418   0.0117053   0.0000000), wk =   0.0555556
        k(   33) = (   0.0670418   0.0472890   0.0000000), wk =   0.0555556
        k(   34) = (   0.0670418  -0.1306292   0.0000000), wk =   0.0555556
        k(   35) = (   0.0670418  -0.0950456   0.0000000), wk =   0.0555556
        k(   36) = (   0.0670418  -0.0594620   0.0000000), wk =   0.0555556
        k(   37) = (  -0.1005628   0.0358175   0.0000000), wk =   0.0277778
        k(   38) = (  -0.1005628   0.0714011   0.0000000), wk =   0.0555556
        k(   39) = (  -0.1005628   0.1069848   0.0000000), wk =   0.0555556
        k(   40) = (  -0.1005628  -0.0709334   0.0000000), wk =   0.0277778

     Largest allocated arrays     est. size (Mb)     dimensions
     Largest temporary arrays     est. size (Mb)     dimensions

     Check: negative/imaginary core charge=   -0.000004    0.000000

     Initial potential from superposition of free atoms
     Check: negative starting charge=(component1):   -0.000118

     starting charge  107.98517, renormalised to  114.00000

[...]

     *
     * You are using vdW-DF for exchange-correlation in this calculation.
     * Please cite the following three references that made this development
     * possible:
     *
     *   M. Dion, H. Rydberg, E. Schroder, D. C. Langreth, and
     *   B. I. Lundqvist, Phys. Rev. Lett. 92, 246401 (2004).
     *
     *   T. Thonhauser, V. R. Cooper, S. Li, A. Puzder, P. Hyldgaard, and
     *   D. C. Langreth, Phys. Rev. B 76, 125112 (2007).
     *
     *   G. Roman-Perez and J. M. Soler, Phys. Rev. Lett. 103, 096102 (2009).
     *
     *
     * If you are using vdW-DF2, please also cite:
     *
     *   K. Lee, E. D. Murray, L. Kong, B. I. Lundqvist, and
     *   D. C. Langreth, Phys. Rev. B 82, 081101(R) (2010).
     *
     *
     * If you are calculating the stress with vdW-DF, please also cite:
     *
     *   R. Sabatini, E. Kucukbenli, B. Kolb, T. Thonhauser, and
     *   S. de Gironcoli, J. Phys.: Condens. Matter 24, 424209 (2012).
     *

     Carrying out vdW-DF run using the following parameters:

     Nqs =      20    Nr_points =    1024   r_max =   100.000
     q_mesh =
               0.00001000     0.04494208     0.09755937     0.15916263
               0.23128650     0.31572767     0.41458969     0.53033537
               0.66584808     0.82450364     1.01025438     1.22772762
               1.48234092     1.78043706     2.12944203     2.53805004
               3.01644009     3.57652955     4.23227104     5.00000000

     Gradients computed in reciprocal space

[...]

     Starting wfc are  102 randomized atomic wfcs

     Self-consistent Calculation

[...]

     total energy              =   -1549.37426554 Ry
     Harris-Foulkes estimate   =   -1549.37426429 Ry
     estimated scf accuracy    <       0.00000126 Ry

[...]

     iteration # 35     ecut=    36.75 Ry     beta=0.10
     Davidson diagonalization with overlap
     ethr =  1.11E-09,  avg # of iterations =  1.1

[...]

     negative rho (up, down):  4.447E-04 4.339E-04

[...]

     Adding external electric field

     Computed dipole along edir(3) :
        Dipole                0.0112 Ry au,          0.0285 Debye
        Dipole field          0.0000 Ry au

        Potential amp.       -0.0033 Ry
        Total length         44.3355 bohr

     Magnetic moment per site:
     atom:    1    charge:    0.0835    magn:   -0.0065    constr:    0.0000
     atom:    2    charge:    0.0835    magn:   -0.0065    constr:    0.0000
     atom:    3    charge:    7.0839    magn:    0.9619    constr:    0.0000
     atom:    4    charge:    7.0837    magn:    0.9620    constr:    0.0000
     atom:    5    charge:    0.0845    magn:   -0.0057    constr:    0.0000
     atom:    6    charge:    0.0845    magn:   -0.0057    constr:    0.0000
     atom:    7    charge:    7.0886    magn:    0.5382    constr:    0.0000
     atom:    8    charge:    7.0888    magn:    0.5381    constr:    0.0000
     atom:    9    charge:    0.0821    magn:   -0.0065    constr:    0.0000
     atom:   10    charge:    0.0821    magn:   -0.0065    constr:    0.0000
     atom:   11    charge:    7.0817    magn:    0.9482    constr:    0.0000
     atom:   12    charge:    7.0815    magn:    0.9483    constr:    0.0000

     End of self-consistent calculation

 ------ SPIN UP ------------

[...]

 ------ SPIN DOWN ----------

[...]

          k = 0.0670-0.0595 0.0000 ( 14225 PWs)   bands (ev):

[...]

          k =-0.1006-0.0709 0.0000 ( 14304 PWs)   bands (ev):

   -85.9561 -85.9512 -85.6145 -85.6096 -85.5958 -85.5909 -52.1450 -52.0815
   -52.0231 -52.0157 -52.0150 -52.0073 -51.7724 -51.7653 -51.7550 -51.7480
   -51.7224 -51.7038 -51.6779 -51.6723 -51.6636 -51.6589 -51.6580 -51.6400
    -7.7608  -7.6919  -6.1235  -5.9475  -5.4874  -5.3708  -4.5916  -3.7210
    -3.5775  -3.1275  -2.9158  -2.7142  -1.8325  -1.7316  -1.6651  -1.3813
    -1.3628  -1.2631  -1.0804  -0.9406  -0.6467  -0.4437  -0.3855  -0.3727
    -0.3414  -0.2423  -0.1479   0.1535   0.1645   0.4048   0.5453   0.5466
     0.6564   0.7473   0.8140   0.8206   1.0048   1.3321   1.6663   1.8323
     1.9202   2.5303   2.5576   2.5628   3.6492   4.0611   4.6838   4.6918
     4.8983   5.6323   5.9037   6.2764   6.3069   6.3994   6.4582   6.6318
     6.7120   7.0621   7.1637   7.4145   7.4877   7.5986   7.6936

     the Fermi energy is    -0.0212 ev

!    total energy              =   -1549.37426685 Ry
     Harris-Foulkes estimate   =   -1549.37426591 Ry
     estimated scf accuracy    <       0.00000076 Ry

     The total energy is the sum of the following terms:

     one-electron contribution =   -9446.31296318 Ry
     hartree contribution      =    4724.32946594 Ry
     xc contribution           =    -208.87207919 Ry
     ewald contribution        =    3381.55714011 Ry
     electric field correction =       0.00000042 Ry
     smearing contrib. (-TS)   =      -0.07583095 Ry

     total magnetization       =     9.82 Bohr mag/cell
     absolute magnetization    =    11.89 Bohr mag/cell

     convergence has been achieved in  35 iterations

 BEEF-vdW xc energy contributions
           1 :   -181.392187518245
           2 :    163.302067019417
           3 :   -133.280067771935
           4 :    100.478491420823
           5 :   -72.8611266633492
           6 :    54.2832808899778
           7 :   -44.0833360713254
           8 :    38.8151754673383
           9 :   -34.7611865302509
          10 :    29.7743483280453
          11 :   -23.7432056651839
          12 :    17.8458171565095
          13 :   -13.3613820481490
          14 :    10.8044715584411
          15 :   -9.76821114284763
          16 :    9.34015905606554
          17 :   -8.69964038527394
          18 :    7.51282210257403
          19 :   -5.97620340994365
          20 :    4.56353507715906
          21 :   -3.67823690019921
          22 :    3.40593738480948
          23 :   -3.49244878853503
          24 :    3.52289774663296
          25 :   -3.18409098299009
          26 :    2.44454690021610
          27 :   -1.55595592263666
          28 :   0.876185322300387
          29 :  -0.635331876520581
          30 :   0.791460990927590
          31 :   -17.4119266621215
          32 :   -12.4292534371258

     Forces acting on atoms (Ry/au):

     negative rho (up, down):  4.447E-04 4.339E-04
     atom    1 type  1   force =    -0.00010849   -0.00006826   -0.01801916
     atom    2 type  1   force =    -0.00010072   -0.00007936   -0.01801916
     atom    3 type  2   force =     0.00002963    0.00002016   -0.00141919
     atom    4 type  2   force =     0.00007339    0.00005250   -0.00144562
     atom    5 type  1   force =     0.00013300    0.00010215    0.00433205
     atom    6 type  1   force =     0.00014090    0.00009091    0.00433211
     atom    7 type  2   force =    -0.00005129   -0.00003639    0.01695583
     atom    8 type  2   force =    -0.00005330   -0.00003735    0.01694913
     atom    9 type  1   force =     0.00044635    0.00031522   -0.00008398
     atom   10 type  1   force =     0.00044686    0.00031456   -0.00008401
     atom   11 type  2   force =    -0.00045781   -0.00032227   -0.00173036
     atom   12 type  2   force =    -0.00049852   -0.00035188   -0.00176766

     Total force =     0.035684     Total SCF correction =     0.002531

     entering subroutine stress ...

     negative rho (up, down):  4.447E-04 4.339E-04
          total   stress  (Ry/bohr**3)                   (kbar)     P=   -1.18
  -0.00001155   0.00004835   0.00000030         -1.70      7.11      0.04
   0.00004835  -0.00004598   0.00000021          7.11     -6.76      0.03
   0.00000030   0.00000021   0.00003342          0.04      0.03      4.92

 !ASE

     Writing output data file calc.save

     General routines

     Parallel routines

   This run was terminated on:  19: 5: 0  18Dec2018

   JOB DONE.
Job  /afs/slac/g/suncat/bin/suncat-tsmpirun -x LD_LIBRARY_PATH -wdir /scratch/qe529580_b1Wfc pw.x -in pw.inp

TID   HOST_NAME   COMMAND_LINE            STATUS            TERMINATION_TIME
00000 suncat0061 pw.x -in pw.inp   Done                     12/18/2018 19:05:00
00001 suncat0061 pw.x -in pw.inp   Done                     12/18/2018 19:05:00
00002 suncat0061 pw.x -in pw.inp   Done                     12/18/2018 19:05:00
00003 suncat0061 pw.x -in pw.inp   Done                     12/18/2018 19:05:00
00004 suncat0061 pw.x -in pw.inp   Done                     12/18/2018 19:05:00
00005 suncat0061 pw.x -in pw.inp   Done                     12/18/2018 19:05:00
00006 suncat0061 pw.x -in pw.inp   Done                     12/18/2018 19:05:00
00007 suncat0061 pw.x -in pw.inp   Done                     12/18/2018 19:05:00
00008 suncat0060 pw.x -in pw.inp   Done                     12/18/2018 19:05:00
00009 suncat0060 pw.x -in pw.inp   Done                     12/18/2018 19:05:00
00010 suncat0060 pw.x -in pw.inp   Done                     12/18/2018 19:05:00
00011 suncat0060 pw.x -in pw.inp   Done                     12/18/2018 19:05:00
00012 suncat0060 pw.x -in pw.inp   Done                     12/18/2018 19:05:00
00013 suncat0060 pw.x -in pw.inp   Done                     12/18/2018 19:05:00
00014 suncat0060 pw.x -in pw.inp   Done                     12/18/2018 19:05:00
00015 suncat0060 pw.x -in pw.inp   Done                     12/18/2018 19:05:00
00016 suncat0059 pw.x -in pw.inp   Done                     12/18/2018 19:05:00
00017 suncat0059 pw.x -in pw.inp   Done                     12/18/2018 19:05:00
00018 suncat0059 pw.x -in pw.inp   Done                     12/18/2018 19:05:00
00019 suncat0059 pw.x -in pw.inp   Done                     12/18/2018 19:05:00
00020 suncat0059 pw.x -in pw.inp   Done                     12/18/2018 19:05:00
00021 suncat0059 pw.x -in pw.inp   Done                     12/18/2018 19:05:00
00022 suncat0059 pw.x -in pw.inp   Done                     12/18/2018 19:05:00
00023 suncat0059 pw.x -in pw.inp   Done                     12/18/2018 19:05:00
00024 suncat0058 pw.x -in pw.inp   Done                     12/18/2018 19:05:00
00025 suncat0058 pw.x -in pw.inp   Done                     12/18/2018 19:05:00
00026 suncat0058 pw.x -in pw.inp   Done                     12/18/2018 19:05:00
00027 suncat0058 pw.x -in pw.inp   Done                     12/18/2018 19:05:00
00028 suncat0058 pw.x -in pw.inp   Done                     12/18/2018 19:05:00
00029 suncat0058 pw.x -in pw.inp   Done                     12/18/2018 19:05:00
00030 suncat0058 pw.x -in pw.inp   Done                     12/18/2018 19:05:00
00031 suncat0058 pw.x -in pw.inp   Done                     12/18/2018 19:05:00