     Program PWSCF v.5.1rc2 (svn rev. 11289) starts on 29Dec2018 at 16:14:51

     Current dimensions of program PWSCF are:
     Max number of different atomic species (ntypx) = 10
     Max number of k-points (npk) =  40000
     Max angular momentum in pseudopotentials (lmaxx) =  3
     Presently stress not available with electric field

     IMPORTANT: XC functional enforced from input :
     Exchange-correlation      = BEEF-VDW ( 1  4 27 13 2)
     Any further DFT definition will be discarded
     Please, verify this is what you really want

     Subspace diagonalization in iterative solution of the eigenvalue problem:
     a serial algorithm will be used

     Found symmetry operation: I + (  0.5000  0.0000  0.0000)
     This is a supercell, fractional translations are disabled

     bravais-lattice index     =            0
     lattice parameter (alat)  =       1.8897  a.u.
     unit-cell volume          =    4673.1216 (a.u.)^3
     number of atoms/cell      =           12
     number of atomic types    =            2
     number of electrons       =       204.00
     number of Kohn-Sham states=          132
     kinetic-energy cutoff     =      36.7493  Ry
     charge density cutoff     =     367.4932  Ry
     convergence threshold     =      1.0E-06
     mixing beta               =       0.1000
     number of iterations used =           10  plain     mixing
     Exchange-correlation      = BEEF-VDW ( 1  4 27 13 2)
     nstep                     =           50

     celldm(1)=   1.889726  celldm(2)=   0.000000  celldm(3)=   0.000000
     celldm(4)=   0.000000  celldm(5)=   0.000000  celldm(6)=   0.000000

     crystal axes: (cart. coord. in units of alat)
               a(1) = (   5.287316   0.000000   0.000000 )
               a(2) = (  -2.643658   5.326183   0.000000 )
               a(3) = (   0.000000   0.000000  24.590034 )

     reciprocal axes: (cart. coord. in units 2 pi/alat)
               b(1) = (  0.189132  0.093876  0.000000 )
               b(2) = (  0.000000  0.187752  0.000000 )
               b(3) = (  0.000000  0.000000  0.040667 )

     PseudoPot. # 1 for Tc read from file:
     /afs/slac.stanford.edu/u/if/mamunm/psp/gbrv1.5pbe/Tc.UPF
     MD5 check sum: 9eb49e5b028550b2339a02317eb7b844
     Pseudo is Ultrasoft + core correction, Zval = 15.0
     Generated by new atomic code, or converted to UPF format
     Using radial grid of  965 points,  6 beta functions with:
                l(1) =   0
                l(2) =   0
                l(3) =   1
                l(4) =   1
                l(5) =   2
                l(6) =   2
     Q(r) pseudized with  8 coefficients,  rinner =    1.300   1.300   1.300
                                                       1.300   1.300

     PseudoPot. # 2 for Ag read from file:
     /afs/slac.stanford.edu/u/if/mamunm/psp/gbrv1.5pbe/Ag.UPF
     MD5 check sum: d66d668201baa78d5eb5b04ef7011058
     Pseudo is Ultrasoft + core correction, Zval = 19.0
     Generated by new atomic code, or converted to UPF format
     Using radial grid of  887 points,  6 beta functions with:
                l(1) =   0
                l(2) =   0
                l(3) =   1
                l(4) =   1
                l(5) =   2
                l(6) =   2
     Q(r) pseudized with  6 coefficients,  rinner =    1.300   1.300   1.300
                                                       1.300   1.300

     vdW kernel table read from file vdW_kernel_table
     MD5 check sum: 095c7af220d748ca6e76c0b4c6cfb241

     atomic species   valence    mass     pseudopotential
        Tc1           15.00    97.90721     Tc( 1.00)
        Ag1           19.00   107.86820     Ag( 1.00)

     No symmetry found

   Cartesian axes

     site n.     atom                  positions (alat units)
         1           Tc1 tau(   1) = (   0.0000000   0.0000000  10.0000000  )
         2           Tc1 tau(   2) = (   2.6436582   0.0000000  10.0000000  )
         3           Ag1 tau(   3) = (   1.3218291   2.6630913  10.0000000  )
         4           Ag1 tau(   4) = (  -1.3218291   2.6630913  10.0000000  )
         5           Tc1 tau(   5) = (   2.6436582   1.3121834  12.2950170  )
         6           Tc1 tau(   6) = (  -0.0000000   1.3121834  12.2950170  )
         7           Ag1 tau(   7) = (  -1.3218291   3.9752747  12.2950170  )
         8           Ag1 tau(   8) = (   1.3218291   3.9752747  12.2950170  )
         9           Tc1 tau(   9) = (   0.0000000   2.6243668  14.5900341  )
        10           Tc1 tau(  10) = (   2.6436582   2.6243668  14.5900341  )
        11           Ag1 tau(  11) = (   1.3218291   5.2874582  14.5900341  )
        12           Ag1 tau(  12) = (  -1.3218291   5.2874582  14.5900341  )

     number of k points=    20  Fermi-Dirac smearing, width (Ry)=  0.0110
                       cart. coord. in units 2pi/alat
        k(    1) = (   0.0000000   0.0000000   0.0000000), wk =   0.0555556
        k(    2) = (   0.0000000   0.0312920   0.0000000), wk =   0.1111111
        k(    3) = (   0.0000000   0.0625839   0.0000000), wk =   0.1111111
        k(    4) = (   0.0000000  -0.0938759   0.0000000), wk =   0.0555556
        k(    5) = (   0.0315220   0.0156460   0.0000000), wk =   0.1111111
        k(    6) = (   0.0315220   0.0469379   0.0000000), wk =   0.1111111
        k(    7) = (   0.0315220   0.0782299   0.0000000), wk =   0.1111111
        k(    8) = (   0.0315220  -0.0782299   0.0000000), wk =   0.1111111
        k(    9) = (   0.0315220  -0.0469379   0.0000000), wk =   0.1111111
        k(   10) = (   0.0315220  -0.0156460   0.0000000), wk =   0.1111111
        k(   11) = (   0.0630440   0.0312920   0.0000000), wk =   0.1111111
        k(   12) = (   0.0630440   0.0625839   0.0000000), wk =   0.1111111
        k(   13) = (   0.0630440   0.0938759   0.0000000), wk =   0.1111111
        k(   14) = (   0.0630440  -0.0625839   0.0000000), wk =   0.1111111
        k(   15) = (   0.0630440  -0.0312920   0.0000000), wk =   0.1111111
        k(   16) = (   0.0630440   0.0000000   0.0000000), wk =   0.1111111
        k(   17) = (  -0.0945659  -0.0469379   0.0000000), wk =   0.0555556
        k(   18) = (  -0.0945659  -0.0156460   0.0000000), wk =   0.1111111
        k(   19) = (  -0.0945659   0.0156460   0.0000000), wk =   0.1111111
        k(   20) = (  -0.0945659  -0.1408138   0.0000000), wk =   0.0555556

     Largest allocated arrays     est. size (Mb)     dimensions
     Largest temporary arrays     est. size (Mb)     dimensions

     Check: negative/imaginary core charge=   -0.000015    0.000000

     Initial potential from superposition of free atoms
     Check: negative starting charge=   -0.759229

     starting charge  194.99955, renormalised to  204.00000

     negative rho (up, down):  7.943E-01 0.000E+00

     *
     * You are using vdW-DF for exchange-correlation in this calculation.
     * Please cite the following three references that made this development
     * possible:
     *
     *   M. Dion, H. Rydberg, E. Schroder, D. C. Langreth, and
     *   B. I. Lundqvist, Phys. Rev. Lett. 92, 246401 (2004).
     *
     *   T. Thonhauser, V. R. Cooper, S. Li, A. Puzder, P. Hyldgaard, and
     *   D. C. Langreth, Phys. Rev. B 76, 125112 (2007).
     *
     *   G. Roman-Perez and J. M. Soler, Phys. Rev. Lett. 103, 096102 (2009).
     *
     *
     * If you are using vdW-DF2, please also cite:
     *
     *   K. Lee, E. D. Murray, L. Kong, B. I. Lundqvist, and
     *   D. C. Langreth, Phys. Rev. B 82, 081101(R) (2010).
     *
     *
     * If you are calculating the stress with vdW-DF, please also cite:
     *
     *   R. Sabatini, E. Kucukbenli, B. Kolb, T. Thonhauser, and
     *   S. de Gironcoli, J. Phys.: Condens. Matter 24, 424209 (2012).
     *

     Carrying out vdW-DF run using the following parameters:

     Nqs =      20    Nr_points =    1024   r_max =   100.000
     q_mesh =
               0.00001000     0.04494208     0.09755937     0.15916263
               0.23128650     0.31572767     0.41458969     0.53033537
               0.66584808     0.82450364     1.01025438     1.22772762
               1.48234092     1.78043706     2.12944203     2.53805004
               3.01644009     3.57652955     4.23227104     5.00000000

     Gradients computed in reciprocal space

     Adding external electric field

     Computed dipole along edir(3) :
        Dipole                0.0000 Ry au,          0.0000 Debye
        Dipole field          0.0000 Ry au

        Potential amp.       -0.0000 Ry
        Total length         45.3067 bohr

     Starting wfc are  156 randomized atomic wfcs

     Self-consistent Calculation

     iteration #  1     ecut=    36.75 Ry     beta=0.10
     Davidson diagonalization with overlap
     ethr =  1.00E-02,  avg # of iterations =  7.5

[...]

     total energy              =   -2812.33143593 Ry
     Harris-Foulkes estimate   =   -2843.68717192 Ry
     estimated scf accuracy    <     175.36760934 Ry

[...]

     End of self-consistent calculation

          k = 0.0000 0.0000 0.0000 ( 17591 PWs)   bands (ev):

   -90.6286 -90.6086 -90.2961 -90.2958 -90.2761 -90.2758 -65.5676 -65.4661
   -65.1436 -65.1404 -65.0412 -65.0382 -54.2469 -54.1420 -54.1199 -54.0981
   -54.0765 -54.0198 -53.9375 -53.9372 -53.7857 -53.7795 -53.7642 -53.7582
   -53.7413 -53.7296 -53.7202 -53.7103 -53.7101 -53.7091 -37.9064 -37.7377
   -37.6344 -37.5824 -37.5772 -37.5485 -37.4533 -37.1385 -37.1337 -37.0959
   -37.0595 -37.0433 -37.0391 -37.0010 -36.9484 -36.8637 -36.7354 -36.7332
    -5.1385  -4.6190  -4.5127  -4.3225  -4.2888  -4.2554  -4.1437  -4.0806
    -3.8721  -3.8620  -3.8406  -3.7252  -3.5868  -3.5406  -3.4461  -3.2280
    -3.1598  -3.0770  -2.9142  -2.7392  -2.5347  -2.3208  -2.2980  -2.2813
    -2.1130  -2.0025  -1.9629  -1.7659  -1.7497  -1.7073  -1.6268  -1.3725
    -1.3023  -1.2731  -0.8375  -0.7871  -0.5721  -0.5637  -0.4253  -0.3802
     0.0432   0.0902   0.4592   0.6881   0.9041   0.9415   0.9597   1.0518
     1.0764   1.5855   1.7562   1.9699   2.1480   2.4433   2.4603   2.4779
     2.6677   2.7831   2.8472   2.8490   3.0109   3.1517   3.1770   3.3769
     3.4131   3.6451   3.7234   3.8713   4.2892   5.2642   5.5579   5.6010
     5.7056   5.8537   6.0842   6.2162   6.9009   6.9035   7.1884   7.9441
     8.0132   8.2824   8.8022   9.2424

[...]

          k =-0.0946-0.0469 0.0000 ( 17572 PWs)   bands (ev):

[...]

     the Fermi energy is     1.6536 ev

!    total energy              =   -2831.06272332 Ry
     Harris-Foulkes estimate   =   -2831.06272083 Ry
     estimated scf accuracy    <       0.00000039 Ry

     The total energy is the sum of the following terms:

     one-electron contribution =  -22473.97123297 Ry
     hartree contribution      =   11230.84461370 Ry
     xc contribution           =    -378.74489041 Ry
     ewald contribution        =    8790.88040803 Ry
     electric field correction =       0.00000000 Ry
     smearing contrib. (-TS)   =      -0.07162167 Ry

     convergence has been achieved in  20 iterations

 BEEF-vdW xc energy contributions
           1 :   -330.227215833629
           2 :    301.558989780137
           3 :   -252.011401551158
           4 :    193.835149090624
[...]
     Generated by new atomic code, or converted to UPF format
     Using radial grid of  965 points,  6 beta functions with:
                l(1) =   0
                l(2) =   0
                l(3) =   1
                l(4) =   1
                l(5) =   2
                l(6) =   2
     Q(r) pseudized with  8 coefficients,  rinner =    1.300   1.300   1.300
                                                       1.300   1.300

     PseudoPot. # 2 for Ag read from file:
     /afs/slac.stanford.edu/u/if/mamunm/psp/gbrv1.5pbe/Ag.UPF
     MD5 check sum: d66d668201baa78d5eb5b04ef7011058
     Pseudo is Ultrasoft + core correction, Zval = 19.0
     Generated by new atomic code, or converted to UPF format
     Using radial grid of  887 points,  6 beta functions with:
                l(1) =   0
                l(2) =   0
                l(3) =   1
                l(4) =   1
                l(5) =   2
                l(6) =   2
     Q(r) pseudized with  6 coefficients,  rinner =    1.300   1.300   1.300
                                                       1.300   1.300

     vdW kernel table read from file vdW_kernel_table
     MD5 check sum: 095c7af220d748ca6e76c0b4c6cfb241

     atomic species   valence    mass     pseudopotential
        Tc1           15.00    97.90721     Tc( 1.00)
        Ag1           19.00   107.86820     Ag( 1.00)

     No symmetry found

   Cartesian axes

     site n.     atom                  positions (alat units)
         1           Tc1 tau(   1) = (   0.0000000   0.0000000  10.0000000  )
         2           Tc1 tau(   2) = (   2.6436582   0.0000000  10.0000000  )
         3           Ag1 tau(   3) = (   1.3218291   2.6630913  10.0000000  )
         4           Ag1 tau(   4) = (  -1.3218291   2.6630913  10.0000000  )
         5           Tc1 tau(   5) = (   2.6436582   1.3121834  12.2950170  )
         6           Tc1 tau(   6) = (  -0.0000000   1.3121834  12.2950170  )
         7           Ag1 tau(   7) = (  -1.3218291   3.9752747  12.2950170  )
         8           Ag1 tau(   8) = (   1.3218291   3.9752747  12.2950170  )
         9           Tc1 tau(   9) = (   0.0001181   2.2719559  14.3555435  )
        10           Tc1 tau(  10) = (   2.6437854   2.2722522  14.3556700  )
        11           Ag1 tau(  11) = (   1.3238881   5.0219829  14.8918047  )
        12           Ag1 tau(  12) = (  -1.3229806   5.0219903  14.8918018  )

     number of k points=    20  Fermi-Dirac smearing, width (Ry)=  0.0110
                       cart. coord. in units 2pi/alat
        k(    1) = (   0.0000000   0.0000000   0.0000000), wk =   0.0555556
        k(    2) = (   0.0000000   0.0312920   0.0000000), wk =   0.1111111
        k(    3) = (   0.0000000   0.0625839   0.0000000), wk =   0.1111111
        k(    4) = (   0.0000000  -0.0938759   0.0000000), wk =   0.0555556
        k(    5) = (   0.0315220   0.0156460   0.0000000), wk =   0.1111111
        k(    6) = (   0.0315220   0.0469379   0.0000000), wk =   0.1111111
        k(    7) = (   0.0315220   0.0782299   0.0000000), wk =   0.1111111
        k(    8) = (   0.0315220  -0.0782299   0.0000000), wk =   0.1111111
        k(    9) = (   0.0315220  -0.0469379   0.0000000), wk =   0.1111111
        k(   10) = (   0.0315220  -0.0156460   0.0000000), wk =   0.1111111
        k(   11) = (   0.0630440   0.0312920   0.0000000), wk =   0.1111111
        k(   12) = (   0.0630440   0.0625839   0.0000000), wk =   0.1111111
        k(   13) = (   0.0630440   0.0938759   0.0000000), wk =   0.1111111
        k(   14) = (   0.0630440  -0.0625839   0.0000000), wk =   0.1111111
        k(   15) = (   0.0630440  -0.0312920   0.0000000), wk =   0.1111111
        k(   16) = (   0.0630440   0.0000000   0.0000000), wk =   0.1111111
        k(   17) = (  -0.0945659  -0.0469379   0.0000000), wk =   0.0555556
        k(   18) = (  -0.0945659  -0.0156460   0.0000000), wk =   0.1111111
        k(   19) = (  -0.0945659   0.0156460   0.0000000), wk =   0.1111111
        k(   20) = (  -0.0945659  -0.1408138   0.0000000), wk =   0.0555556

     Largest allocated arrays     est. size (Mb)     dimensions
     Largest temporary arrays     est. size (Mb)     dimensions

     Check: negative/imaginary core charge=   -0.000015    0.000000

     Initial potential from superposition of free atoms
     Check: negative starting charge=   -0.760045

     starting charge  194.99955, renormalised to  204.00000

[...]

     *
     * You are using vdW-DF for exchange-correlation in this calculation.
     * Please cite the following three references that made this development
     * possible:
     *
     *   M. Dion, H. Rydberg, E. Schroder, D. C. Langreth, and
     *   B. I. Lundqvist, Phys. Rev. Lett. 92, 246401 (2004).
     *
     *   T. Thonhauser, V. R. Cooper, S. Li, A. Puzder, P. Hyldgaard, and
     *   D. C. Langreth, Phys. Rev. B 76, 125112 (2007).
     *
     *   G. Roman-Perez and J. M. Soler, Phys. Rev. Lett. 103, 096102 (2009).
     *
     *
     * If you are using vdW-DF2, please also cite:
     *
     *   K. Lee, E. D. Murray, L. Kong, B. I. Lundqvist, and
     *   D. C. Langreth, Phys. Rev. B 82, 081101(R) (2010).
     *
     *
     * If you are calculating the stress with vdW-DF, please also cite:
     *
     *   R. Sabatini, E. Kucukbenli, B. Kolb, T. Thonhauser, and
     *   S. de Gironcoli, J. Phys.: Condens. Matter 24, 424209 (2012).
     *

     Carrying out vdW-DF run using the following parameters:

     Nqs =      20    Nr_points =    1024   r_max =   100.000
     q_mesh =
               0.00001000     0.04494208     0.09755937     0.15916263
               0.23128650     0.31572767     0.41458969     0.53033537
               0.66584808     0.82450364     1.01025438     1.22772762
               1.48234092     1.78043706     2.12944203     2.53805004
               3.01644009     3.57652955     4.23227104     5.00000000

     Gradients computed in reciprocal space

[...]

     Starting wfc are  156 randomized atomic wfcs

     Self-consistent Calculation

[...]

     total energy              =   -2831.11230130 Ry
     Harris-Foulkes estimate   =   -2831.11230142 Ry
     estimated scf accuracy    <       0.00000448 Ry

     iteration # 22     ecut=    36.75 Ry     beta=0.10
     Davidson diagonalization with overlap
     ethr =  2.20E-09,  avg # of iterations =  2.0

[...]

     negative rho (up, down):  7.853E-01 0.000E+00

     Adding external electric field

     Computed dipole along edir(3) :
        Dipole                0.0348 Ry au,          0.0884 Debye
        Dipole field          0.0001 Ry au

        Potential amp.       -0.0085 Ry
        Total length         45.3067 bohr

     End of self-consistent calculation

[...]

          k = 0.0630 0.0000 0.0000 ( 17507 PWs)   bands (ev):

[...]

          k =-0.0946-0.1408 0.0000 ( 17572 PWs)   bands (ev):

   -90.6312 -90.6312 -90.2975 -90.2975 -90.0673 -90.0670 -65.5431 -65.5429
   -65.1478 -65.1477 -65.0313 -65.0313 -54.1509 -54.1509 -54.1223 -54.1223
   -54.1053 -54.1053 -53.8355 -53.8355 -53.7819 -53.7819 -53.7372 -53.7371
   -53.6334 -53.6304 -53.5560 -53.5557 -53.4948 -53.4945 -38.2533 -38.2523
   -37.5482 -37.5481 -37.4435 -37.4433 -37.1800 -37.1799 -37.1694 -37.1693
   -37.1486 -37.1485 -37.0162 -37.0161 -36.9947 -36.9946 -36.6414 -36.6412
    -3.8712  -3.8709  -3.7297  -3.7295  -3.6152  -3.6149  -3.5633  -3.5628
    -3.3535  -3.3534  -3.1860  -3.1847  -3.0453  -3.0436  -2.8396  -2.8394
    -2.7648  -2.7611  -2.6911  -2.6852  -2.5736  -2.5724  -2.5318  -2.5295
    -2.4082  -2.4039  -2.2146  -2.2132  -2.1305  -2.1282  -2.0599  -2.0539
    -1.4458  -1.4443  -1.3677  -1.3671  -1.1001  -1.1001  -0.4856  -0.4853
    -0.1276  -0.1269   0.3541   0.3542   0.6322   0.6329   0.7707   0.7717
     0.9280   0.9282   0.9733   0.9736   1.1616   1.1618   1.3388   1.3391
     1.4237   1.4238   2.3616   2.3617   2.6392   2.6396   3.0897   3.0901
     3.6613   3.6619   3.8666   3.8674   4.6256   4.6266   5.7319   5.7336
     6.5427   6.5432   7.1862   7.1863   7.6824   7.6826   7.7581   7.7582
     8.6133   8.6141   8.9715   8.9716

     the Fermi energy is     1.6441 ev

!    total energy              =   -2831.11230294 Ry
     Harris-Foulkes estimate   =   -2831.11230128 Ry
     estimated scf accuracy    <       0.00000100 Ry

     The total energy is the sum of the following terms:

     one-electron contribution =  -22246.92914498 Ry
     hartree contribution      =   11117.51981787 Ry
     xc contribution           =    -378.99228082 Ry
     ewald contribution        =    8677.35967459 Ry
     electric field correction =       0.00000326 Ry
     smearing contrib. (-TS)   =      -0.07037285 Ry

     convergence has been achieved in  22 iterations

 BEEF-vdW xc energy contributions
           1 :   -330.462650946322
           2 :    301.780416393954
           3 :   -252.225020755572
           4 :    194.053677288139
           5 :   -139.401643829618
           6 :    96.3331851164353
           7 :   -67.1794776606360
           8 :    49.3810615838373
           9 :   -38.0630097057481
          10 :    28.8438267089257
          11 :   -19.6409615983629
          12 :    10.8681792617944
          13 :   -4.35434285134596
          14 :    1.79807418997677
          15 :   -3.65971509227239
          16 :    8.93019366411289
          17 :   -15.7007376680238
          18 :    22.0409802355211
          19 :   -26.6812403124472
          20 :    29.2049680884238
          21 :   -29.8082794799078
          22 :    28.8780267448884
          23 :   -26.6825108335954
          24 :    23.3155811965449
          25 :   -18.8616667290341
          26 :    13.6078145236235
          27 :   -8.13645317587856
          28 :    3.21860174252652
          29 :   0.428185103492012
          30 :   -2.37975709439530
          31 :   -32.0839407642894
          32 :   -23.4375578592396

     Forces acting on atoms (Ry/au):

     negative rho (up, down):  7.853E-01 0.000E+00
     atom    1 type  1   force =    -0.00001198    0.01070594    0.02746774
     atom    2 type  1   force =    -0.00001196    0.01071916    0.02748812
     atom    3 type  2   force =     0.00001026   -0.01665829   -0.03715985
     atom    4 type  2   force =     0.00001491   -0.01665850   -0.03715986
     atom    5 type  1   force =     0.00001456   -0.01304373   -0.00841855
     atom    6 type  1   force =     0.00001444   -0.01307294   -0.00852395
     atom    7 type  2   force =    -0.00000716    0.01902199    0.01855688
     atom    8 type  2   force =    -0.00006316    0.01902166    0.01855732
     atom    9 type  1   force =     0.00000565    0.00023082   -0.00058730
     atom   10 type  1   force =     0.00000515   -0.00001519   -0.00067704
     atom   11 type  2   force =    -0.00131693   -0.00012489    0.00022828
     atom   12 type  2   force =     0.00134622   -0.00012603    0.00022821

     Total force =     0.083413     Total SCF correction =     0.004203

     entering subroutine stress ...

     negative rho (up, down):  7.853E-01 0.000E+00
          total   stress  (Ry/bohr**3)                   (kbar)     P=   -8.34
  -0.00005237   0.00000001  -0.00000001         -7.70      0.00     -0.00
   0.00000001  -0.00012050   0.00001112          0.00    -17.73      1.64
  -0.00000001   0.00001112   0.00000286         -0.00      1.64      0.42

 !ASE

     Writing output data file calc.save

     General routines

     Parallel routines

   This run was terminated on:  20:16:23  29Dec2018

   JOB DONE.
Job  /afs/slac/g/suncat/bin/suncat-tsmpirun -x LD_LIBRARY_PATH -wdir /scratch/qe387707_Jd39w pw.x -in pw.inp

TID   HOST_NAME   COMMAND_LINE            STATUS            TERMINATION_TIME
00000 suncat0068 pw.x -in pw.inp   Done                     12/29/2018 20:16:23
00001 suncat0068 pw.x -in pw.inp   Done                     12/29/2018 20:16:23
00002 suncat0068 pw.x -in pw.inp   Done                     12/29/2018 20:16:23
00003 suncat0068 pw.x -in pw.inp   Done                     12/29/2018 20:16:23
00004 suncat0068 pw.x -in pw.inp   Done                     12/29/2018 20:16:23
00005 suncat0068 pw.x -in pw.inp   Done                     12/29/2018 20:16:23
00006 suncat0068 pw.x -in pw.inp   Done                     12/29/2018 20:16:23
00007 suncat0068 pw.x -in pw.inp   Done                     12/29/2018 20:16:23
00008 suncat0059 pw.x -in pw.inp   Done                     12/29/2018 20:16:23
00009 suncat0059 pw.x -in pw.inp   Done                     12/29/2018 20:16:23
00010 suncat0059 pw.x -in pw.inp   Done                     12/29/2018 20:16:23
00011 suncat0059 pw.x -in pw.inp   Done                     12/29/2018 20:16:23
00012 suncat0059 pw.x -in pw.inp   Done                     12/29/2018 20:16:23
00013 suncat0059 pw.x -in pw.inp   Done                     12/29/2018 20:16:23
00014 suncat0059 pw.x -in pw.inp   Done                     12/29/2018 20:16:23
00015 suncat0059 pw.x -in pw.inp   Done                     12/29/2018 20:16:23
00016 suncat0031 pw.x -in pw.inp   Done                     12/29/2018 20:16:23
00017 suncat0031 pw.x -in pw.inp   Done                     12/29/2018 20:16:23
00018 suncat0031 pw.x -in pw.inp   Done                     12/29/2018 20:16:23
00019 suncat0031 pw.x -in pw.inp   Done                     12/29/2018 20:16:23
00020 suncat0031 pw.x -in pw.inp   Done                     12/29/2018 20:16:23
00021 suncat0031 pw.x -in pw.inp   Done                     12/29/2018 20:16:23
00022 suncat0031 pw.x -in pw.inp   Done                     12/29/2018 20:16:23
00023 suncat0031 pw.x -in pw.inp   Done                     12/29/2018 20:16:23
00024 suncat0030 pw.x -in pw.inp   Done                     12/29/2018 20:16:23
00025 suncat0030 pw.x -in pw.inp   Done                     12/29/2018 20:16:23
00026 suncat0030 pw.x -in pw.inp   Done                     12/29/2018 20:16:23
00027 suncat0030 pw.x -in pw.inp   Done                     12/29/2018 20:16:23
00028 suncat0030 pw.x -in pw.inp   Done                     12/29/2018 20:16:23
00029 suncat0030 pw.x -in pw.inp   Done                     12/29/2018 20:16:23
00030 suncat0030 pw.x -in pw.inp   Done                     12/29/2018 20:16:23
00031 suncat0030 pw.x -in pw.inp   Done                     12/29/2018 20:16:23
00032 suncat0280 pw.x -in pw.inp   Done                     12/29/2018 20:16:23
00033 suncat0280 pw.x -in pw.inp   Done                     12/29/2018 20:16:23
00034 suncat0280 pw.x -in pw.inp   Done                     12/29/2018 20:16:23
00035 suncat0280 pw.x -in pw.inp   Done                     12/29/2018 20:16:23
00036 suncat0280 pw.x -in pw.inp   Done                     12/29/2018 20:16:23
00037 suncat0280 pw.x -in pw.inp   Done                     12/29/2018 20:16:23
00038 suncat0280 pw.x -in pw.inp   Done                     12/29/2018 20:16:23
00039 suncat0280 pw.x -in pw.inp   Done                     12/29/2018 20:16:23
00040 suncat0279 pw.x -in pw.inp   Done                     12/29/2018 20:16:23
00041 suncat0279 pw.x -in pw.inp   Done                     12/29/2018 20:16:23
00042 suncat0279 pw.x -in pw.inp   Done                     12/29/2018 20:16:23
00043 suncat0279 pw.x -in pw.inp   Done                     12/29/2018 20:16:23
00044 suncat0279 pw.x -in pw.inp   Done                     12/29/2018 20:16:23
00045 suncat0279 pw.x -in pw.inp   Done                     12/29/2018 20:16:23
00046 suncat0279 pw.x -in pw.inp   Done                     12/29/2018 20:16:23
00047 suncat0279 pw.x -in pw.inp   Done                     12/29/2018 20:16:23
00048 suncat0278 pw.x -in pw.inp   Done                     12/29/2018 20:16:23
00049 suncat0278 pw.x -in pw.inp   Done                     12/29/2018 20:16:23
00050 suncat0278 pw.x -in pw.inp   Done                     12/29/2018 20:16:23
00051 suncat0278 pw.x -in pw.inp   Done                     12/29/2018 20:16:23
00052 suncat0278 pw.x -in pw.inp   Done                     12/29/2018 20:16:23
00053 suncat0278 pw.x -in pw.inp   Done                     12/29/2018 20:16:23
00054 suncat0278 pw.x -in pw.inp   Done                     12/29/2018 20:16:23
00055 suncat0278 pw.x -in pw.inp   Done                     12/29/2018 20:16:23
00056 suncat0099 pw.x -in pw.inp   Done                     12/29/2018 20:16:23
00057 suncat0099 pw.x -in pw.inp   Done                     12/29/2018 20:16:23
00058 suncat0099 pw.x -in pw.inp   Done                     12/29/2018 20:16:23
00059 suncat0099 pw.x -in pw.inp   Done                     12/29/2018 20:16:23
00060 suncat0099 pw.x -in pw.inp   Done                     12/29/2018 20:16:23
00061 suncat0099 pw.x -in pw.inp   Done                     12/29/2018 20:16:23
00062 suncat0099 pw.x -in pw.inp   Done                     12/29/2018 20:16:23
00063 suncat0099 pw.x -in pw.inp   Done                     12/29/2018 20:16:23