     Program PWSCF v.5.1rc2 (svn rev. 11289) starts on 18Dec2018 at 20:43:48

     Current dimensions of program PWSCF are:
     Max number of different atomic species (ntypx) = 10
     Max number of k-points (npk) =  40000
     Max angular momentum in pseudopotentials (lmaxx) =  3
     Presently stress not available with electric field

     IMPORTANT: XC functional enforced from input :
     Exchange-correlation      = BEEF-VDW ( 1  4 27 13 2)
     Any further DFT definition will be discarded
     Please, verify this is what you really want

     Subspace diagonalization in iterative solution of the eigenvalue problem:
     a serial algorithm will be used

     Found symmetry operation: I + ( -0.5000 -0.5000  0.0000)
     This is a supercell, fractional translations are disabled

     Generating pointlists ...
     new r_m :   0.4125 (alat units)  0.7795 (a.u.) for type    1
     new r_m :   0.4125 (alat units)  0.7795 (a.u.) for type    2

     bravais-lattice index     =            0
     lattice parameter (alat)  =       1.8897  a.u.
     unit-cell volume          =    4568.6730 (a.u.)^3
     number of atoms/cell      =           12
     number of atomic types    =            2
     number of electrons       =       180.00
     number of Kohn-Sham states=          120
     kinetic-energy cutoff     =      36.7493  Ry
     charge density cutoff     =     367.4932  Ry
     convergence threshold     =      1.0E-06
     mixing beta               =       0.1000
     number of iterations used =           10  plain     mixing
     Exchange-correlation      = BEEF-VDW ( 1  4 27 13 2)
     nstep                     =           50

     celldm(1)=   1.889726  celldm(2)=   0.000000  celldm(3)=   0.000000
     celldm(4)=   0.000000  celldm(5)=   0.000000  celldm(6)=   0.000000

     crystal axes: (cart. coord. in units of alat)
               a(1) = (   5.490363   0.000000   0.000000 )
               a(2) = (   2.215990   5.023294   0.000000 )
               a(3) = (   0.000000   0.000000  24.547305 )

     reciprocal axes: (cart. coord. in units 2 pi/alat)
               b(1) = (  0.182137 -0.080349  0.000000 )
               b(2) = (  0.000000  0.199073  0.000000 )
               b(3) = (  0.000000  0.000000  0.040738 )

     PseudoPot. # 1 for Ni read from file:
     /afs/slac.stanford.edu/u/if/mamunm/psp/gbrv1.5pbe/Ni.UPF
     MD5 check sum: 1ee80287db30b12d2bc1f57a5b5d6409
     Pseudo is Ultrasoft + core correction, Zval = 18.0
     Generated by new atomic code, or converted to UPF format
     Using radial grid of  865 points,  6 beta functions with:
                l(1) =   0
                l(2) =   0
                l(3) =   1
                l(4) =   1
                l(5) =   2
                l(6) =   2
     Q(r) pseudized with 10 coefficients,  rinner =    0.980   0.980   0.980
                                                       0.980   0.980

     PseudoPot. # 2 for Cd read from file:
     /afs/slac.stanford.edu/u/if/mamunm/psp/gbrv1.5pbe/Cd.UPF
     MD5 check sum: 17164a7926edb8e0dc231208abae86a6
     Pseudo is Ultrasoft + core correction, Zval = 12.0
     Generated by new atomic code, or converted to UPF format
     Using radial grid of  889 points,  6 beta functions with:
                l(1) =   0
                l(2) =   0
                l(3) =   1
                l(4) =   1
                l(5) =   2
                l(6) =   2
     Q(r) pseudized with  6 coefficients,  rinner =    1.000   1.000   1.000
                                                       1.000   1.000

     vdW kernel table read from file vdW_kernel_table
     MD5 check sum: 095c7af220d748ca6e76c0b4c6cfb241

     atomic species   valence    mass     pseudopotential
        Ni1           18.00    58.69340     Ni( 1.00)
        Cd1           12.00   112.41400     Cd( 1.00)

     Starting magnetic structure
     atomic species   magnetization
        Ni1          0.111
        Cd1          0.167

     No symmetry found

   Cartesian axes

     site n.     atom                  positions (alat units)
         1           Ni1 tau(   1) = (   0.0000000   0.0000000  10.0000000  )
         2           Ni1 tau(   2) = (   3.8531764   2.5116468  10.0000000  )
         3           Cd1 tau(   3) = (   2.7451817   0.0000000  10.0000000  )
         4           Cd1 tau(   4) = (   1.1079948   2.5116468  10.0000000  )
         5           Ni1 tau(   5) = (   5.4903633   3.5788275  12.2736524  )
         6           Ni1 tau(   6) = (   1.6371869   1.0671806  12.2736524  )
         7           Cd1 tau(   7) = (   2.7451817   3.5788275  12.2736524  )
         8           Cd1 tau(   8) = (   4.3823685   1.0671806  12.2736524  )
         9           Ni1 tau(   9) = (   3.2743738   2.1343613  14.5473049  )
        10           Ni1 tau(  10) = (   7.1275502   4.6460081  14.5473049  )
        11           Cd1 tau(  11) = (   6.0195554   2.1343613  14.5473049  )
        12           Cd1 tau(  12) = (   4.3823685   4.6460081  14.5473049  )

     number of k points=    40  Fermi-Dirac smearing, width (Ry)=  0.0110
                       cart. coord. in units 2pi/alat
        k(    1) = (   0.0000000   0.0000000   0.0000000), wk =   0.0277778
        k(    2) = (   0.0000000   0.0331788   0.0000000), wk =   0.0555556
        k(    3) = (   0.0000000   0.0663575   0.0000000), wk =   0.0555556
        k(    4) = (   0.0000000  -0.0995363   0.0000000), wk =   0.0277778
        k(    5) = (   0.0303562  -0.0133914   0.0000000), wk =   0.0555556
        k(    6) = (   0.0303562   0.0197873   0.0000000), wk =   0.0555556
        k(    7) = (   0.0303562   0.0529661   0.0000000), wk =   0.0555556
        k(    8) = (   0.0303562  -0.1129277   0.0000000), wk =   0.0555556
        k(    9) = (   0.0303562  -0.0797489   0.0000000), wk =   0.0555556
        k(   10) = (   0.0303562  -0.0465702   0.0000000), wk =   0.0555556
        k(   11) = (   0.0607124  -0.0267829   0.0000000), wk =   0.0555556
        k(   12) = (   0.0607124   0.0063959   0.0000000), wk =   0.0555556
        k(   13) = (   0.0607124   0.0395747   0.0000000), wk =   0.0555556
        k(   14) = (   0.0607124  -0.1263191   0.0000000), wk =   0.0555556
        k(   15) = (   0.0607124  -0.0931404   0.0000000), wk =   0.0555556
        k(   16) = (   0.0607124  -0.0599616   0.0000000), wk =   0.0555556
        k(   17) = (  -0.0910687   0.0401743   0.0000000), wk =   0.0277778
        k(   18) = (  -0.0910687   0.0733530   0.0000000), wk =   0.0555556
        k(   19) = (  -0.0910687   0.1065318   0.0000000), wk =   0.0555556
        k(   20) = (  -0.0910687  -0.0593620   0.0000000), wk =   0.0277778
        k(   21) = (   0.0000000   0.0000000   0.0000000), wk =   0.0277778
        k(   22) = (   0.0000000   0.0331788   0.0000000), wk =   0.0555556
        k(   23) = (   0.0000000   0.0663575   0.0000000), wk =   0.0555556
        k(   24) = (   0.0000000  -0.0995363   0.0000000), wk =   0.0277778
        k(   25) = (   0.0303562  -0.0133914   0.0000000), wk =   0.0555556
        k(   26) = (   0.0303562   0.0197873   0.0000000), wk =   0.0555556
        k(   27) = (   0.0303562   0.0529661   0.0000000), wk =   0.0555556
        k(   28) = (   0.0303562  -0.1129277   0.0000000), wk =   0.0555556
        k(   29) = (   0.0303562  -0.0797489   0.0000000), wk =   0.0555556
        k(   30) = (   0.0303562  -0.0465702   0.0000000), wk =   0.0555556
        k(   31) = (   0.0607124  -0.0267829   0.0000000), wk =   0.0555556
        k(   32) = (   0.0607124   0.0063959   0.0000000), wk =   0.0555556
        k(   33) = (   0.0607124   0.0395747   0.0000000), wk =   0.0555556
        k(   34) = (   0.0607124  -0.1263191   0.0000000), wk =   0.0555556
        k(   35) = (   0.0607124  -0.0931404   0.0000000), wk =   0.0555556
        k(   36) = (   0.0607124  -0.0599616   0.0000000), wk =   0.0555556
        k(   37) = (  -0.0910687   0.0401743   0.0000000), wk =   0.0277778
        k(   38) = (  -0.0910687   0.0733530   0.0000000), wk =   0.0555556
        k(   39) = (  -0.0910687   0.1065318   0.0000000), wk =   0.0555556
        k(   40) = (  -0.0910687  -0.0593620   0.0000000), wk =   0.0277778

     Largest allocated arrays     est. size (Mb)     dimensions
     Largest temporary arrays     est. size (Mb)     dimensions

     Check: negative/imaginary core charge=   -0.000001    0.000000

     Initial potential from superposition of free atoms
     Check: negative starting charge=(component1):   -0.075971
     Check: negative starting charge=(component2):   -0.054288

     starting charge  164.99975, renormalised to  180.00000

     negative rho (up, down):  8.288E-02 5.922E-02

     *
     * You are using vdW-DF for exchange-correlation in this calculation.
     * Please cite the following three references that made this development
     * possible:
     *
     *   M. Dion, H. Rydberg, E. Schroder, D. C. Langreth, and
     *   B. I. Lundqvist, Phys. Rev. Lett. 92, 246401 (2004).
     *
     *   T. Thonhauser, V. R. Cooper, S. Li, A. Puzder, P. Hyldgaard, and
     *   D. C. Langreth, Phys. Rev. B 76, 125112 (2007).
     *
     *   G. Roman-Perez and J. M. Soler, Phys. Rev. Lett. 103, 096102 (2009).
     *
     *
     * If you are using vdW-DF2, please also cite:
     *
     *   K. Lee, E. D. Murray, L. Kong, B. I. Lundqvist, and
     *   D. C. Langreth, Phys. Rev. B 82, 081101(R) (2010).
     *
     *
     * If you are calculating the stress with vdW-DF, please also cite:
     *
     *   R. Sabatini, E. Kucukbenli, B. Kolb, T. Thonhauser, and
     *   S. de Gironcoli, J. Phys.: Condens. Matter 24, 424209 (2012).
     *

     Carrying out vdW-DF run using the following parameters:

     Nqs =      20    Nr_points =    1024   r_max =   100.000
     q_mesh =
               0.00001000     0.04494208     0.09755937     0.15916263
               0.23128650     0.31572767     0.41458969     0.53033537
               0.66584808     0.82450364     1.01025438     1.22772762
               1.48234092     1.78043706     2.12944203     2.53805004
               3.01644009     3.57652955     4.23227104     5.00000000

     Gradients computed in reciprocal space

     Adding external electric field

     Computed dipole along edir(3) :
        Dipole                0.0000 Ry au,          0.0000 Debye
        Dipole field          0.0000 Ry au

        Potential amp.       -0.0000 Ry
        Total length         45.2280 bohr

[...]

     Starting wfc are  132 randomized atomic wfcs

     Self-consistent Calculation

     iteration #  1     ecut=    36.75 Ry     beta=0.10
     Davidson diagonalization with overlap
     ethr =  1.00E-02,  avg # of iterations =  8.5

[...]

     Magnetic moment per site:
     atom:    1    charge:    9.6851    magn:    1.0248    constr:    0.0000
     atom:    2    charge:    9.6851    magn:    1.0248    constr:    0.0000
     atom:    3    charge:    2.4216    magn:    0.3722    constr:    0.0000
     atom:    4    charge:    2.4216    magn:    0.3722    constr:    0.0000
     atom:    5    charge:    9.6733    magn:    1.0239    constr:    0.0000
     atom:    6    charge:    9.6733    magn:    1.0239    constr:    0.0000
[...]
     Q(r) pseudized with 10 coefficients,  rinner =    0.980   0.980   0.980
                                                       0.980   0.980

     PseudoPot. # 2 for Cd read from file:
     /afs/slac.stanford.edu/u/if/mamunm/psp/gbrv1.5pbe/Cd.UPF
     MD5 check sum: 17164a7926edb8e0dc231208abae86a6
     Pseudo is Ultrasoft + core correction, Zval = 12.0
     Generated by new atomic code, or converted to UPF format
     Using radial grid of  889 points,  6 beta functions with:
                l(1) =   0
                l(2) =   0
                l(3) =   1
                l(4) =   1
                l(5) =   2
                l(6) =   2
     Q(r) pseudized with  6 coefficients,  rinner =    1.000   1.000   1.000
                                                       1.000   1.000

     vdW kernel table read from file vdW_kernel_table
     MD5 check sum: 095c7af220d748ca6e76c0b4c6cfb241

     atomic species   valence    mass     pseudopotential
        Ni1           18.00    58.69340     Ni( 1.00)
        Cd1           12.00   112.41400     Cd( 1.00)

     Starting magnetic structure
     atomic species   magnetization
        Ni1          0.111
        Cd1          0.167

     No symmetry found

   Cartesian axes

     site n.     atom                  positions (alat units)
         1           Ni1 tau(   1) = (   0.0000000   0.0000000  10.0000000  )
         2           Ni1 tau(   2) = (   3.8531764   2.5116468  10.0000000  )
         3           Cd1 tau(   3) = (   2.7451817   0.0000000  10.0000000  )
         4           Cd1 tau(   4) = (   1.1079948   2.5116468  10.0000000  )
         5           Ni1 tau(   5) = (   5.4903633   3.5788275  12.2736524  )
         6           Ni1 tau(   6) = (   1.6371869   1.0671806  12.2736524  )
         7           Cd1 tau(   7) = (   2.7451817   3.5788275  12.2736524  )
         8           Cd1 tau(   8) = (   4.3823685   1.0671806  12.2736524  )
         9           Ni1 tau(   9) = (   2.9224627   1.9049708  14.3611843  )
        10           Ni1 tau(  10) = (   6.7759281   4.4168201  14.3605390  )
        11           Cd1 tau(  11) = (   5.7206691   1.9390972  14.7861168  )
        12           Cd1 tau(  12) = (   4.0830766   4.4513513  14.7860952  )

     number of k points=    40  Fermi-Dirac smearing, width (Ry)=  0.0110
                       cart. coord. in units 2pi/alat
        k(    1) = (   0.0000000   0.0000000   0.0000000), wk =   0.0277778
        k(    2) = (   0.0000000   0.0331788   0.0000000), wk =   0.0555556
        k(    3) = (   0.0000000   0.0663575   0.0000000), wk =   0.0555556
        k(    4) = (   0.0000000  -0.0995363   0.0000000), wk =   0.0277778
        k(    5) = (   0.0303562  -0.0133914   0.0000000), wk =   0.0555556
        k(    6) = (   0.0303562   0.0197873   0.0000000), wk =   0.0555556
        k(    7) = (   0.0303562   0.0529661   0.0000000), wk =   0.0555556
        k(    8) = (   0.0303562  -0.1129277   0.0000000), wk =   0.0555556
        k(    9) = (   0.0303562  -0.0797489   0.0000000), wk =   0.0555556
        k(   10) = (   0.0303562  -0.0465702   0.0000000), wk =   0.0555556
        k(   11) = (   0.0607124  -0.0267829   0.0000000), wk =   0.0555556
        k(   12) = (   0.0607124   0.0063959   0.0000000), wk =   0.0555556
        k(   13) = (   0.0607124   0.0395747   0.0000000), wk =   0.0555556
        k(   14) = (   0.0607124  -0.1263191   0.0000000), wk =   0.0555556
        k(   15) = (   0.0607124  -0.0931404   0.0000000), wk =   0.0555556
        k(   16) = (   0.0607124  -0.0599616   0.0000000), wk =   0.0555556
        k(   17) = (  -0.0910687   0.0401743   0.0000000), wk =   0.0277778
        k(   18) = (  -0.0910687   0.0733530   0.0000000), wk =   0.0555556
        k(   19) = (  -0.0910687   0.1065318   0.0000000), wk =   0.0555556
        k(   20) = (  -0.0910687  -0.0593620   0.0000000), wk =   0.0277778
        k(   21) = (   0.0000000   0.0000000   0.0000000), wk =   0.0277778
        k(   22) = (   0.0000000   0.0331788   0.0000000), wk =   0.0555556
        k(   23) = (   0.0000000   0.0663575   0.0000000), wk =   0.0555556
        k(   24) = (   0.0000000  -0.0995363   0.0000000), wk =   0.0277778
        k(   25) = (   0.0303562  -0.0133914   0.0000000), wk =   0.0555556
        k(   26) = (   0.0303562   0.0197873   0.0000000), wk =   0.0555556
        k(   27) = (   0.0303562   0.0529661   0.0000000), wk =   0.0555556
        k(   28) = (   0.0303562  -0.1129277   0.0000000), wk =   0.0555556
        k(   29) = (   0.0303562  -0.0797489   0.0000000), wk =   0.0555556
        k(   30) = (   0.0303562  -0.0465702   0.0000000), wk =   0.0555556
        k(   31) = (   0.0607124  -0.0267829   0.0000000), wk =   0.0555556
        k(   32) = (   0.0607124   0.0063959   0.0000000), wk =   0.0555556
        k(   33) = (   0.0607124   0.0395747   0.0000000), wk =   0.0555556
        k(   34) = (   0.0607124  -0.1263191   0.0000000), wk =   0.0555556
        k(   35) = (   0.0607124  -0.0931404   0.0000000), wk =   0.0555556
        k(   36) = (   0.0607124  -0.0599616   0.0000000), wk =   0.0555556
        k(   37) = (  -0.0910687   0.0401743   0.0000000), wk =   0.0277778
        k(   38) = (  -0.0910687   0.0733530   0.0000000), wk =   0.0555556
        k(   39) = (  -0.0910687   0.1065318   0.0000000), wk =   0.0555556
        k(   40) = (  -0.0910687  -0.0593620   0.0000000), wk =   0.0277778

     Largest allocated arrays     est. size (Mb)     dimensions
     Largest temporary arrays     est. size (Mb)     dimensions

     Check: negative/imaginary core charge=   -0.000001    0.000000

     Initial potential from superposition of free atoms
     Check: negative starting charge=(component1):   -0.075650
     Check: negative starting charge=(component2):   -0.054058

     starting charge  164.99975, renormalised to  180.00000

[...]

     *
     * You are using vdW-DF for exchange-correlation in this calculation.
     * Please cite the following three references that made this development
     * possible:
     *
     *   M. Dion, H. Rydberg, E. Schroder, D. C. Langreth, and
     *   B. I. Lundqvist, Phys. Rev. Lett. 92, 246401 (2004).
     *
     *   T. Thonhauser, V. R. Cooper, S. Li, A. Puzder, P. Hyldgaard, and
     *   D. C. Langreth, Phys. Rev. B 76, 125112 (2007).
     *
     *   G. Roman-Perez and J. M. Soler, Phys. Rev. Lett. 103, 096102 (2009).
     *
     *
     * If you are using vdW-DF2, please also cite:
     *
     *   K. Lee, E. D. Murray, L. Kong, B. I. Lundqvist, and
     *   D. C. Langreth, Phys. Rev. B 82, 081101(R) (2010).
     *
     *
     * If you are calculating the stress with vdW-DF, please also cite:
     *
     *   R. Sabatini, E. Kucukbenli, B. Kolb, T. Thonhauser, and
     *   S. de Gironcoli, J. Phys.: Condens. Matter 24, 424209 (2012).
     *

     Carrying out vdW-DF run using the following parameters:

     Nqs =      20    Nr_points =    1024   r_max =   100.000
     q_mesh =
               0.00001000     0.04494208     0.09755937     0.15916263
               0.23128650     0.31572767     0.41458969     0.53033537
               0.66584808     0.82450364     1.01025438     1.22772762
               1.48234092     1.78043706     2.12944203     2.53805004
               3.01644009     3.57652955     4.23227104     5.00000000

     Gradients computed in reciprocal space

[...]

     Starting wfc are  132 randomized atomic wfcs

     Self-consistent Calculation

[...]

     total energy              =   -2762.93434092 Ry
     Harris-Foulkes estimate   =   -2762.93433978 Ry
     estimated scf accuracy    <       0.00000119 Ry

[...]

     iteration # 35     ecut=    36.75 Ry     beta=0.10
     Davidson diagonalization with overlap
     ethr =  6.62E-10,  avg # of iterations =  2.0

[...]

     negative rho (up, down):  6.783E-02 6.783E-02

[...]

     Adding external electric field

     Computed dipole along edir(3) :
        Dipole                0.0272 Ry au,          0.0692 Debye
        Dipole field          0.0001 Ry au

        Potential amp.       -0.0068 Ry
        Total length         45.2280 bohr

     Magnetic moment per site:
     atom:    1    charge:    9.3654    magn:    0.0023    constr:    0.0000
     atom:    2    charge:    9.3654    magn:    0.0023    constr:    0.0000
     atom:    3    charge:    2.2919    magn:    0.0000    constr:    0.0000
     atom:    4    charge:    2.2919    magn:    0.0000    constr:    0.0000
     atom:    5    charge:    9.3527    magn:   -0.0029    constr:    0.0000
     atom:    6    charge:    9.3527    magn:   -0.0027    constr:    0.0000
     atom:    7    charge:    2.2911    magn:    0.0000    constr:    0.0000
     atom:    8    charge:    2.2911    magn:    0.0000    constr:    0.0000
     atom:    9    charge:    9.3649    magn:    0.0005    constr:    0.0000
     atom:   10    charge:    9.3648    magn:    0.0003    constr:    0.0000
     atom:   11    charge:    2.2929    magn:    0.0000    constr:    0.0000
     atom:   12    charge:    2.2929    magn:    0.0000    constr:    0.0000

     End of self-consistent calculation

 ------ SPIN UP ------------

[...]

 ------ SPIN DOWN ----------

[...]

          k = 0.0607-0.0600 0.0000 ( 17234 PWs)   bands (ev):

[...]

          k =-0.0911-0.0594 0.0000 ( 17186 PWs)   bands (ev):

  -102.0966-102.0958-102.0235-102.0227-101.9231-101.9224 -62.5377 -62.5365
   -62.5040 -62.4916 -62.4827 -62.4814 -62.4557 -62.4547 -62.4428 -62.4306
   -62.3928 -62.3918 -62.3704 -62.3654 -62.3642 -62.3582 -62.2692 -62.2683
    -8.8124  -8.7049  -8.6193  -8.5919  -8.5445  -8.4430  -8.4085  -8.3715
    -8.3578  -8.3571  -8.3309  -8.3066  -8.1188  -8.1047  -8.0815  -8.0133
    -8.0055  -7.9857  -7.9743  -7.9264  -7.9213  -7.9136  -7.8145  -7.7690
    -7.7570  -7.7373  -7.6747  -7.6645  -7.5764  -7.3485  -5.4182  -5.3207
    -3.6053  -3.4269  -3.1290  -2.6628  -2.0256  -1.8506  -1.6248  -1.5155
    -1.5088  -1.3894  -1.2215  -1.1153  -1.0400  -1.0084  -0.9769  -0.9439
    -0.7549  -0.6610  -0.6536  -0.6069  -0.5438  -0.4296  -0.4177  -0.4076
    -0.2741  -0.1977  -0.1862  -0.1470  -0.0944  -0.0831  -0.0393   0.0173
     0.2427   0.4234   0.5710   0.7282   0.9361   1.1115   2.6201   2.6385
     2.6565   3.1087   5.1730   5.2602   5.5556   5.7348   6.1435   6.1532
     6.1932   6.1964   6.2866   6.5429   6.5632   6.6079   7.4907   7.5595
     7.5752   7.6044   7.6902   7.8112   7.8648   7.9601   7.9621   8.1805

     the Fermi energy is     0.4953 ev

!    total energy              =   -2762.93434593 Ry
     Harris-Foulkes estimate   =   -2762.93434190 Ry
     estimated scf accuracy    <       0.00000093 Ry

     The total energy is the sum of the following terms:

     one-electron contribution =  -18749.67882838 Ry
     hartree contribution      =    9429.75981031 Ry
     xc contribution           =    -465.81531973 Ry
     ewald contribution        =    7022.85517001 Ry
     electric field correction =       0.00000204 Ry
     smearing contrib. (-TS)   =      -0.05518018 Ry

     total magnetization       =    -0.00 Bohr mag/cell
     absolute magnetization    =     0.02 Bohr mag/cell

     convergence has been achieved in  35 iterations

 BEEF-vdW xc energy contributions
           1 :   -409.266867940522
           2 :    372.739263967883
           3 :   -311.229826750882
           4 :    242.437941154839
           5 :   -182.613167416840
           6 :    140.633411251185
           7 :   -116.363948607008
           8 :    103.375638576424
           9 :   -93.8973853665842
          10 :    83.0484925790039
          11 :   -70.3323997136376
          12 :    58.2513386072662
          13 :   -49.5628872518962
          14 :    45.1395466314776
          15 :   -43.6066403682802
          16 :    42.5678256991453
          17 :   -40.2797948592462
          18 :    36.5786250887437
          19 :   -32.5984332844914
          20 :    29.6950006367930
          21 :   -28.4414604918385
          22 :    28.3446113459413
          23 :   -28.3405540846354
          24 :    27.5896828089346
          25 :   -25.9858944719990
          26 :    24.0837819533695
          27 :   -22.5980821455535
          28 :    21.8842892162083
          29 :   -21.7586790798661
          30 :    21.7169663534027
          31 :   -35.4205550266232
          32 :   -25.3431794852240

     Forces acting on atoms (Ry/au):

     negative rho (up, down):  6.783E-02 6.783E-02
     atom    1 type  1   force =     0.00465166    0.00303219    0.01640676
     atom    2 type  1   force =     0.00464765    0.00302936    0.01642840
     atom    3 type  2   force =    -0.00518818   -0.00337983   -0.01850249
     atom    4 type  2   force =    -0.00518619   -0.00338294   -0.01850208
     atom    5 type  1   force =    -0.00270193   -0.00176114    0.01242688
     atom    6 type  1   force =    -0.00267813   -0.00174563    0.01241182
     atom    7 type  2   force =     0.00279799    0.00177797   -0.01025256
     atom    8 type  2   force =     0.00275677    0.00184316   -0.01025240
     atom    9 type  1   force =     0.00006567    0.00004207   -0.00132820
     atom   10 type  1   force =    -0.00006207   -0.00004137   -0.00117831
     atom   11 type  2   force =     0.00037710    0.00040177    0.00117003
     atom   12 type  2   force =     0.00051966    0.00018438    0.00117215

     Total force =     0.043930     Total SCF correction =     0.004617
     SCF correction compared to forces is large: reduce conv_thr to get better values

     entering subroutine stress ...

     negative rho (up, down):  6.783E-02 6.783E-02
          total   stress  (Ry/bohr**3)                   (kbar)     P=  -35.79
  -0.00026663   0.00000729   0.00000269        -39.22      1.07      0.40
   0.00000729  -0.00027306   0.00000175          1.07    -40.17      0.26
   0.00000269   0.00000175  -0.00019025          0.40      0.26    -27.99

 !ASE

     Writing output data file calc.save

     General routines

     Parallel routines

   This run was terminated on:   1:55:19  19Dec2018

   JOB DONE.
Job  /afs/slac/g/suncat/bin/suncat-tsmpirun -x LD_LIBRARY_PATH -wdir /scratch/qe530338_Wztzp pw.x -in pw.inp

TID   HOST_NAME   COMMAND_LINE            STATUS            TERMINATION_TIME
00000 suncat2046 pw.x -in pw.inp   Done                     12/19/2018 01:55:19
00001 suncat2046 pw.x -in pw.inp   Done                     12/19/2018 01:55:19
00002 suncat2046 pw.x -in pw.inp   Done                     12/19/2018 01:55:19
00003 suncat2046 pw.x -in pw.inp   Done                     12/19/2018 01:55:19
00004 suncat2046 pw.x -in pw.inp   Done                     12/19/2018 01:55:19
00005 suncat2046 pw.x -in pw.inp   Done                     12/19/2018 01:55:19
00006 suncat2046 pw.x -in pw.inp   Done                     12/19/2018 01:55:19
00007 suncat2046 pw.x -in pw.inp   Done                     12/19/2018 01:55:19
00008 suncat2046 pw.x -in pw.inp   Done                     12/19/2018 01:55:19
00009 suncat2046 pw.x -in pw.inp   Done                     12/19/2018 01:55:19
00010 suncat2046 pw.x -in pw.inp   Done                     12/19/2018 01:55:19
00011 suncat2046 pw.x -in pw.inp   Done                     12/19/2018 01:55:19
00012 suncat2046 pw.x -in pw.inp   Done                     12/19/2018 01:55:19
00013 suncat2046 pw.x -in pw.inp   Done                     12/19/2018 01:55:19
00014 suncat2046 pw.x -in pw.inp   Done                     12/19/2018 01:55:19
00015 suncat2046 pw.x -in pw.inp   Done                     12/19/2018 01:55:19
00016 suncat2045 pw.x -in pw.inp   Done                     12/19/2018 01:55:19
00017 suncat2045 pw.x -in pw.inp   Done                     12/19/2018 01:55:19
00018 suncat2045 pw.x -in pw.inp   Done                     12/19/2018 01:55:19
00019 suncat2045 pw.x -in pw.inp   Done                     12/19/2018 01:55:19
00020 suncat2045 pw.x -in pw.inp   Done                     12/19/2018 01:55:19
00021 suncat2045 pw.x -in pw.inp   Done                     12/19/2018 01:55:19
00022 suncat2045 pw.x -in pw.inp   Done                     12/19/2018 01:55:19
00023 suncat2045 pw.x -in pw.inp   Done                     12/19/2018 01:55:19
00024 suncat2045 pw.x -in pw.inp   Done                     12/19/2018 01:55:19
00025 suncat2045 pw.x -in pw.inp   Done                     12/19/2018 01:55:19
00026 suncat2045 pw.x -in pw.inp   Done                     12/19/2018 01:55:19
00027 suncat2045 pw.x -in pw.inp   Done                     12/19/2018 01:55:19
00028 suncat2045 pw.x -in pw.inp   Done                     12/19/2018 01:55:19
00029 suncat2045 pw.x -in pw.inp   Done                     12/19/2018 01:55:19
00030 suncat2045 pw.x -in pw.inp   Done                     12/19/2018 01:55:19
00031 suncat2045 pw.x -in pw.inp   Done                     12/19/2018 01:55:19