     Program PWSCF v.5.1rc2 (svn rev. 11289) starts on 19Dec2018 at  7: 8:55

     Current dimensions of program PWSCF are:
     Max number of different atomic species (ntypx) = 10
     Max number of k-points (npk) =  40000
     Max angular momentum in pseudopotentials (lmaxx) =  3
     Presently stress not available with electric field

     IMPORTANT: XC functional enforced from input :
     Exchange-correlation      = BEEF-VDW ( 1  4 27 13 2)
     Any further DFT definition will be discarded
     Please, verify this is what you really want

     Subspace diagonalization in iterative solution of the eigenvalue problem:
     a serial algorithm will be used

     Found symmetry operation: I + (  0.5000 -0.5000  0.0000)
     This is a supercell, fractional translations are disabled

     bravais-lattice index     =            0
     lattice parameter (alat)  =       1.8897  a.u.
     unit-cell volume          =    5044.3102 (a.u.)^3
     number of atoms/cell      =           12
     number of atomic types    =            2
     number of electrons       =       162.00
     number of Kohn-Sham states=          111
     kinetic-energy cutoff     =      36.7493  Ry
     charge density cutoff     =     367.4932  Ry
     convergence threshold     =      1.0E-06
     mixing beta               =       0.1000
     number of iterations used =           10  plain     mixing
     Exchange-correlation      = BEEF-VDW ( 1  4 27 13 2)
     nstep                     =           50

     celldm(1)=   1.889726  celldm(2)=   0.000000  celldm(3)=   0.000000
     celldm(4)=   0.000000  celldm(5)=   0.000000  celldm(6)=   0.000000

     crystal axes: (cart. coord. in units of alat)
               a(1) = (   5.675639   0.000000   0.000000 )
               a(2) = (   1.908242   5.345231   0.000000 )
               a(3) = (   0.000000   0.000000  24.639050 )

     reciprocal axes: (cart. coord. in units 2 pi/alat)
               b(1) = (  0.176192 -0.062900  0.000000 )
               b(2) = (  0.000000  0.187083  0.000000 )
               b(3) = (  0.000000  0.000000  0.040586 )

     PseudoPot. # 1 for Cr read from file:
     /afs/slac.stanford.edu/u/if/mamunm/psp/gbrv1.5pbe/Cr.UPF
     MD5 check sum: 0d52af634a40206e4dee301ad30da4bf
     Pseudo is Ultrasoft + core correction, Zval = 14.0
     Generated by new atomic code, or converted to UPF format
     Using radial grid of  857 points,  6 beta functions with:
                l(1) =   0
                l(2) =   0
                l(3) =   1
                l(4) =   1
                l(5) =   2
                l(6) =   2
     Q(r) pseudized with  8 coefficients,  rinner =    0.950   0.950   0.950
                                                       0.950   0.950

     PseudoPot. # 2 for Tl read from file:
     /afs/slac.stanford.edu/u/if/mamunm/psp/gbrv1.5pbe/Tl.UPF
     MD5 check sum: b76cf1f7e72655a2b2c53cf6385d7059
     Pseudo is Ultrasoft + core correction, Zval = 13.0
     Generated by new atomic code, or converted to UPF format
     Using radial grid of  899 points,  6 beta functions with:
                l(1) =   0
                l(2) =   0
                l(3) =   1
                l(4) =   1
                l(5) =   2
                l(6) =   2
     Q(r) pseudized with  6 coefficients,  rinner =    1.100   1.100   1.100
                                                       1.100   1.100

     vdW kernel table read from file vdW_kernel_table
     MD5 check sum: 095c7af220d748ca6e76c0b4c6cfb241

     atomic species   valence    mass     pseudopotential
        Cr1           14.00    51.99610     Cr( 1.00)
        Tl1           13.00   204.38000     Tl( 1.00)

     No symmetry found

   Cartesian axes

     site n.     atom                  positions (alat units)
         1           Cr1 tau(   1) = (   0.0000000   0.0000000  10.0000000  )
         2           Cr1 tau(   2) = (   3.7919405   2.6726154  10.0000000  )
         3           Tl1 tau(   3) = (   2.8378195   0.0000000  10.0000000  )
         4           Tl1 tau(   4) = (   0.9541210   2.6726154  10.0000000  )
         5           Cr1 tau(   5) = (   5.6756391   4.0002738  12.3195250  )
         6           Cr1 tau(   6) = (   1.8836985   1.3276584  12.3195250  )
         7           Tl1 tau(   7) = (   2.8378195   4.0002738  12.3195250  )
         8           Tl1 tau(   8) = (   4.7215181   1.3276584  12.3195250  )
         9           Cr1 tau(   9) = (   3.7673971   2.6553168  14.6390499  )
        10           Cr1 tau(  10) = (   7.5593376   5.3279321  14.6390499  )
        11           Tl1 tau(  11) = (   6.6052166   2.6553168  14.6390499  )
        12           Tl1 tau(  12) = (   4.7215181   5.3279321  14.6390499  )

     number of k points=    20  Fermi-Dirac smearing, width (Ry)=  0.0110
                       cart. coord. in units 2pi/alat
        k(    1) = (   0.0000000   0.0000000   0.0000000), wk =   0.0555556
        k(    2) = (   0.0000000   0.0311804   0.0000000), wk =   0.1111111
        k(    3) = (   0.0000000   0.0623609   0.0000000), wk =   0.1111111
        k(    4) = (   0.0000000  -0.0935413   0.0000000), wk =   0.0555556
        k(    5) = (   0.0293653  -0.0104834   0.0000000), wk =   0.1111111
        k(    6) = (   0.0293653   0.0206971   0.0000000), wk =   0.1111111
        k(    7) = (   0.0293653   0.0518775   0.0000000), wk =   0.1111111
        k(    8) = (   0.0293653  -0.1040247   0.0000000), wk =   0.1111111
        k(    9) = (   0.0293653  -0.0728443   0.0000000), wk =   0.1111111
        k(   10) = (   0.0293653  -0.0416638   0.0000000), wk =   0.1111111
        k(   11) = (   0.0587305  -0.0209667   0.0000000), wk =   0.1111111
        k(   12) = (   0.0587305   0.0102137   0.0000000), wk =   0.1111111
        k(   13) = (   0.0587305   0.0413941   0.0000000), wk =   0.1111111
        k(   14) = (   0.0587305  -0.1145081   0.0000000), wk =   0.1111111
        k(   15) = (   0.0587305  -0.0833276   0.0000000), wk =   0.1111111
        k(   16) = (   0.0587305  -0.0521472   0.0000000), wk =   0.1111111
        k(   17) = (  -0.0880958   0.0314501   0.0000000), wk =   0.0555556
        k(   18) = (  -0.0880958   0.0626306   0.0000000), wk =   0.1111111
        k(   19) = (  -0.0880958   0.0938110   0.0000000), wk =   0.1111111
        k(   20) = (  -0.0880958  -0.0620912   0.0000000), wk =   0.0555556

     Largest allocated arrays     est. size (Mb)     dimensions
     Largest temporary arrays     est. size (Mb)     dimensions

     Check: negative/imaginary core charge=   -0.000002    0.000000

     Initial potential from superposition of free atoms
     Check: negative starting charge=   -0.310554

     starting charge  155.97071, renormalised to  162.00000

     negative rho (up, down):  3.226E-01 0.000E+00

     *
     * You are using vdW-DF for exchange-correlation in this calculation.
     * Please cite the following three references that made this development
     * possible:
     *
     *   M. Dion, H. Rydberg, E. Schroder, D. C. Langreth, and
     *   B. I. Lundqvist, Phys. Rev. Lett. 92, 246401 (2004).
     *
     *   T. Thonhauser, V. R. Cooper, S. Li, A. Puzder, P. Hyldgaard, and
     *   D. C. Langreth, Phys. Rev. B 76, 125112 (2007).
     *
     *   G. Roman-Perez and J. M. Soler, Phys. Rev. Lett. 103, 096102 (2009).
     *
     *
     * If you are using vdW-DF2, please also cite:
     *
     *   K. Lee, E. D. Murray, L. Kong, B. I. Lundqvist, and
     *   D. C. Langreth, Phys. Rev. B 82, 081101(R) (2010).
     *
     *
     * If you are calculating the stress with vdW-DF, please also cite:
     *
     *   R. Sabatini, E. Kucukbenli, B. Kolb, T. Thonhauser, and
     *   S. de Gironcoli, J. Phys.: Condens. Matter 24, 424209 (2012).
     *

     Carrying out vdW-DF run using the following parameters:

     Nqs =      20    Nr_points =    1024   r_max =   100.000
     q_mesh =
               0.00001000     0.04494208     0.09755937     0.15916263
               0.23128650     0.31572767     0.41458969     0.53033537
               0.66584808     0.82450364     1.01025438     1.22772762
               1.48234092     1.78043706     2.12944203     2.53805004
               3.01644009     3.57652955     4.23227104     5.00000000

     Gradients computed in reciprocal space

     Adding external electric field

     Computed dipole along edir(3) :
        Dipole                0.0000 Ry au,          0.0000 Debye
        Dipole field          0.0000 Ry au

        Potential amp.       -0.0000 Ry
        Total length         45.3970 bohr

     Starting wfc are  114 randomized atomic wfcs

     Self-consistent Calculation

     iteration #  1     ecut=    36.75 Ry     beta=0.10
     Davidson diagonalization with overlap
     ethr =  1.00E-02,  avg # of iterations =  7.3

[...]

     total energy              =   -1937.89393716 Ry
     Harris-Foulkes estimate   =   -1938.27054545 Ry
     estimated scf accuracy    <       2.36242709 Ry

[...]

     End of self-consistent calculation

          k = 0.0000 0.0000 0.0000 ( 18967 PWs)   bands (ev):

   -70.3882 -70.3881 -70.3857 -70.3857 -70.3585 -70.3561 -41.7953 -41.7947
   -41.7943 -41.7913 -41.7405 -41.7326 -41.7212 -41.7209 -41.6890 -41.6861
   -41.6855 -41.6855 -41.6744 -41.6563 -41.6547 -41.6533 -41.6481 -41.6369
   -11.0322 -10.9556 -10.9223 -10.8762 -10.8645 -10.6982 -10.6931 -10.6833
   -10.6420 -10.6013 -10.5428 -10.5406 -10.5128 -10.5119 -10.4620 -10.4415
   -10.3710 -10.3057 -10.3011 -10.2925 -10.2476 -10.2464 -10.2317 -10.2038
   -10.1486 -10.1442  -9.9845  -9.9809  -9.9604  -9.8387  -8.7298  -6.8826
    -4.9230  -4.6296  -4.2981  -3.9046  -1.6193  -1.2065  -0.4753  -0.4546
    -0.3914  -0.3410  -0.3410   0.0899   0.3425   0.3658   0.5942   0.7270
     0.8155   0.8566   0.8766   0.8823   0.9006   0.9141   1.0904   1.2970
     1.3135   1.3413   1.3539   1.4274   1.4705   1.5125   1.5159   1.6090
     1.6280   1.6619   1.7395   1.8440   1.9331   2.1944   2.4213   2.7623
     2.7885   2.9910   3.7527   3.9528   4.2209   4.5703   4.6971   4.8056
     4.8535   5.1885   5.2130   6.1294   6.1337   6.1821   6.2186

[...]

          k =-0.0881 0.0315 0.0000 ( 19006 PWs)   bands (ev):

[...]

     the Fermi energy is     1.1922 ev

!    total energy              =   -1937.43218256 Ry
     Harris-Foulkes estimate   =   -1937.43219572 Ry
     estimated scf accuracy    <       0.00000071 Ry

     The total energy is the sum of the following terms:

     one-electron contribution =  -13033.46973032 Ry
     hartree contribution      =    6554.87681479 Ry
     xc contribution           =    -524.03303493 Ry
     ewald contribution        =    5065.34537837 Ry
     electric field correction =       0.00000000 Ry
     smearing contrib. (-TS)   =      -0.15161047 Ry

     convergence has been achieved in  24 iterations

 BEEF-vdW xc energy contributions
           1 :   -463.535339041526
           2 :    427.264043102108
           3 :   -364.491855521115
           4 :    290.521686210078
           5 :   -220.236558850262
           6 :    163.293313990087
           7 :   -122.379200784117
           8 :    94.6122274944890
           9 :   -74.7354260733372
          10 :    58.2212395076027
[...]
00031 suncat0139 pw.x -in pw.inp   Done                     12/19/2018 07:27:44

     Program PWSCF v.5.1rc2 (svn rev. 11289) starts on 19Dec2018 at  7:27:51

[...]

     iteration # 17     ecut=    36.75 Ry     beta=0.10
     Davidson diagonalization with overlap
     c_bands:  1 eigenvalues not converged
     ethr =  1.01E-06,  avg # of iterations =  7.7

[...]

     Program PWSCF v.5.1rc2 (svn rev. 11289) starts on 19Dec2018 at  8:38:18

[...]

   This run was terminated on:   9: 3:32  19Dec2018

[...]

     Program PWSCF v.5.1rc2 (svn rev. 11289) starts on 19Dec2018 at  9: 3:40

     Current dimensions of program PWSCF are:
     Max number of different atomic species (ntypx) = 10
     Max number of k-points (npk) =  40000
     Max angular momentum in pseudopotentials (lmaxx) =  3
     Presently stress not available with electric field

     IMPORTANT: XC functional enforced from input :
     Exchange-correlation      = BEEF-VDW ( 1  4 27 13 2)
     Any further DFT definition will be discarded
     Please, verify this is what you really want

     Subspace diagonalization in iterative solution of the eigenvalue problem:
     a serial algorithm will be used

     bravais-lattice index     =            0
     lattice parameter (alat)  =       1.8897  a.u.
     unit-cell volume          =    5044.3102 (a.u.)^3
     number of atoms/cell      =           12
     number of atomic types    =            2
     number of electrons       =       162.00
     number of Kohn-Sham states=          111
     kinetic-energy cutoff     =      36.7493  Ry
     charge density cutoff     =     367.4932  Ry
     convergence threshold     =      1.0E-06
     mixing beta               =       0.1000
     number of iterations used =           10  plain     mixing
     Exchange-correlation      = BEEF-VDW ( 1  4 27 13 2)
     nstep                     =           50

     celldm(1)=   1.889726  celldm(2)=   0.000000  celldm(3)=   0.000000
     celldm(4)=   0.000000  celldm(5)=   0.000000  celldm(6)=   0.000000

     crystal axes: (cart. coord. in units of alat)
               a(1) = (   5.675639   0.000000   0.000000 )
               a(2) = (   1.908242   5.345231   0.000000 )
               a(3) = (   0.000000   0.000000  24.639050 )

     reciprocal axes: (cart. coord. in units 2 pi/alat)
               b(1) = (  0.176192 -0.062900  0.000000 )
               b(2) = (  0.000000  0.187083  0.000000 )
               b(3) = (  0.000000  0.000000  0.040586 )

     PseudoPot. # 1 for Cr read from file:
     /afs/slac.stanford.edu/u/if/mamunm/psp/gbrv1.5pbe/Cr.UPF
     MD5 check sum: 0d52af634a40206e4dee301ad30da4bf
     Pseudo is Ultrasoft + core correction, Zval = 14.0
     Generated by new atomic code, or converted to UPF format
     Using radial grid of  857 points,  6 beta functions with:
                l(1) =   0
                l(2) =   0
                l(3) =   1
                l(4) =   1
                l(5) =   2
                l(6) =   2
     Q(r) pseudized with  8 coefficients,  rinner =    0.950   0.950   0.950
                                                       0.950   0.950

     PseudoPot. # 2 for Tl read from file:
     /afs/slac.stanford.edu/u/if/mamunm/psp/gbrv1.5pbe/Tl.UPF
     MD5 check sum: b76cf1f7e72655a2b2c53cf6385d7059
     Pseudo is Ultrasoft + core correction, Zval = 13.0
     Generated by new atomic code, or converted to UPF format
     Using radial grid of  899 points,  6 beta functions with:
                l(1) =   0
                l(2) =   0
                l(3) =   1
                l(4) =   1
                l(5) =   2
                l(6) =   2
     Q(r) pseudized with  6 coefficients,  rinner =    1.100   1.100   1.100
                                                       1.100   1.100

     vdW kernel table read from file vdW_kernel_table
     MD5 check sum: 095c7af220d748ca6e76c0b4c6cfb241

     atomic species   valence    mass     pseudopotential
        Cr1           14.00    51.99610     Cr( 1.00)
        Tl1           13.00   204.38000     Tl( 1.00)

     No symmetry found

   Cartesian axes

     site n.     atom                  positions (alat units)
         1           Cr1 tau(   1) = (   0.0000000   0.0000000  10.0000000  )
         2           Cr1 tau(   2) = (   3.7919405   2.6726154  10.0000000  )
         3           Tl1 tau(   3) = (   2.8378195   0.0000000  10.0000000  )
         4           Tl1 tau(   4) = (   0.9541210   2.6726154  10.0000000  )
         5           Cr1 tau(   5) = (   5.6756391   4.0002738  12.3195250  )
         6           Cr1 tau(   6) = (   1.8836985   1.3276584  12.3195250  )
         7           Tl1 tau(   7) = (   2.8378195   4.0002738  12.3195250  )
         8           Tl1 tau(   8) = (   4.7215181   1.3276584  12.3195250  )
         9           Cr1 tau(   9) = (   3.7603719   2.6503693  14.4645958  )
        10           Cr1 tau(  10) = (   7.5531406   5.3235587  14.4645926  )
        11           Tl1 tau(  11) = (   6.6016479   2.6524498  14.9881568  )
        12           Tl1 tau(  12) = (   4.7176147   5.3255320  14.9881343  )

     number of k points=    20  Fermi-Dirac smearing, width (Ry)=  0.0110
                       cart. coord. in units 2pi/alat
        k(    1) = (   0.0000000   0.0000000   0.0000000), wk =   0.0555556
        k(    2) = (   0.0000000   0.0311804   0.0000000), wk =   0.1111111
        k(    3) = (   0.0000000   0.0623609   0.0000000), wk =   0.1111111
        k(    4) = (   0.0000000  -0.0935413   0.0000000), wk =   0.0555556
        k(    5) = (   0.0293653  -0.0104834   0.0000000), wk =   0.1111111
        k(    6) = (   0.0293653   0.0206971   0.0000000), wk =   0.1111111
        k(    7) = (   0.0293653   0.0518775   0.0000000), wk =   0.1111111
        k(    8) = (   0.0293653  -0.1040247   0.0000000), wk =   0.1111111
        k(    9) = (   0.0293653  -0.0728443   0.0000000), wk =   0.1111111
        k(   10) = (   0.0293653  -0.0416638   0.0000000), wk =   0.1111111
        k(   11) = (   0.0587305  -0.0209667   0.0000000), wk =   0.1111111
        k(   12) = (   0.0587305   0.0102137   0.0000000), wk =   0.1111111
        k(   13) = (   0.0587305   0.0413941   0.0000000), wk =   0.1111111
        k(   14) = (   0.0587305  -0.1145081   0.0000000), wk =   0.1111111
        k(   15) = (   0.0587305  -0.0833276   0.0000000), wk =   0.1111111
        k(   16) = (   0.0587305  -0.0521472   0.0000000), wk =   0.1111111
        k(   17) = (  -0.0880958   0.0314501   0.0000000), wk =   0.0555556
        k(   18) = (  -0.0880958   0.0626306   0.0000000), wk =   0.1111111
        k(   19) = (  -0.0880958   0.0938110   0.0000000), wk =   0.1111111
        k(   20) = (  -0.0880958  -0.0620912   0.0000000), wk =   0.0555556

     Largest allocated arrays     est. size (Mb)     dimensions
     Largest temporary arrays     est. size (Mb)     dimensions

     Check: negative/imaginary core charge=   -0.000002    0.000000

     Initial potential from superposition of free atoms
     Check: negative starting charge=   -0.310774

     starting charge  155.97071, renormalised to  162.00000

[...]

     *
     * You are using vdW-DF for exchange-correlation in this calculation.
     * Please cite the following three references that made this development
     * possible:
     *
     *   M. Dion, H. Rydberg, E. Schroder, D. C. Langreth, and
     *   B. I. Lundqvist, Phys. Rev. Lett. 92, 246401 (2004).
     *
     *   T. Thonhauser, V. R. Cooper, S. Li, A. Puzder, P. Hyldgaard, and
     *   D. C. Langreth, Phys. Rev. B 76, 125112 (2007).
     *
     *   G. Roman-Perez and J. M. Soler, Phys. Rev. Lett. 103, 096102 (2009).
     *
     *
     * If you are using vdW-DF2, please also cite:
     *
     *   K. Lee, E. D. Murray, L. Kong, B. I. Lundqvist, and
     *   D. C. Langreth, Phys. Rev. B 82, 081101(R) (2010).
     *
     *
     * If you are calculating the stress with vdW-DF, please also cite:
     *
     *   R. Sabatini, E. Kucukbenli, B. Kolb, T. Thonhauser, and
     *   S. de Gironcoli, J. Phys.: Condens. Matter 24, 424209 (2012).
     *

     Carrying out vdW-DF run using the following parameters:

     Nqs =      20    Nr_points =    1024   r_max =   100.000
     q_mesh =
               0.00001000     0.04494208     0.09755937     0.15916263
               0.23128650     0.31572767     0.41458969     0.53033537
               0.66584808     0.82450364     1.01025438     1.22772762
               1.48234092     1.78043706     2.12944203     2.53805004
               3.01644009     3.57652955     4.23227104     5.00000000

     Gradients computed in reciprocal space

[...]

     Starting wfc are  114 randomized atomic wfcs

     Self-consistent Calculation

[...]

     total energy              =   -1937.47760483 Ry
     Harris-Foulkes estimate   =   -1937.47760530 Ry
     estimated scf accuracy    <       0.00000114 Ry

     iteration # 30     ecut=    36.75 Ry     beta=0.10
     Davidson diagonalization with overlap
     ethr =  7.04E-10,  avg # of iterations =  1.4

[...]

     negative rho (up, down):  3.349E-01 0.000E+00

     Adding external electric field

     Computed dipole along edir(3) :
        Dipole               -0.0134 Ry au,         -0.0340 Debye
        Dipole field         -0.0000 Ry au

        Potential amp.        0.0030 Ry
        Total length         45.3970 bohr

     End of self-consistent calculation

[...]

          k = 0.0587-0.0521 0.0000 ( 18991 PWs)   bands (ev):

[...]

          k =-0.0881-0.0621 0.0000 ( 18940 PWs)   bands (ev):

   -70.4422 -70.4401 -70.4309 -70.4283 -70.4075 -70.4052 -41.8348 -41.8242
   -41.8108 -41.8046 -41.8038 -41.7922 -41.7756 -41.7665 -41.7560 -41.7554
   -41.7407 -41.7391 -41.7189 -41.7051 -41.6888 -41.6858 -41.6827 -41.6800
   -11.0009 -10.8951 -10.8197 -10.7671 -10.7135 -10.7064 -10.6465 -10.6192
   -10.5436 -10.5244 -10.5081 -10.4951 -10.4790 -10.3872 -10.3721 -10.3531
   -10.3405 -10.3294 -10.2705 -10.2025 -10.1948 -10.1763 -10.1744 -10.1699
   -10.1616 -10.0756 -10.0301  -9.9920  -9.9441  -9.8442  -6.8413  -6.5130
    -5.6761  -5.4552  -4.0031  -3.1731  -3.0145  -2.4147  -2.1915  -1.5683
    -1.2169  -0.9803  -0.9575  -0.3526  -0.0169   0.1040   0.1751   0.1862
     0.2730   0.5193   0.6741   0.7299   0.7499   0.7626   0.9576   1.0385
     1.1608   1.2194   1.3740   1.4379   1.5438   1.5460   1.5685   1.6377
     1.6800   1.8273   1.9127   1.9789   2.3859   2.4231   2.5973   3.0798
     3.3024   3.5705   3.9883   4.6674   5.2868   5.6858   5.9722   6.0230
     6.4180   6.4970   6.5946   6.6374   6.7540   6.8827   7.1626

     the Fermi energy is     1.1639 ev

!    total energy              =   -1937.47760201 Ry
     Harris-Foulkes estimate   =   -1937.47760521 Ry
     estimated scf accuracy    <       0.00000051 Ry

     The total energy is the sum of the following terms:

     one-electron contribution =  -12874.39466068 Ry
     hartree contribution      =    6475.22746849 Ry
     xc contribution           =    -523.88143402 Ry
     ewald contribution        =    4985.72057176 Ry
     electric field correction =       0.00000044 Ry
     smearing contrib. (-TS)   =      -0.14954800 Ry

     convergence has been achieved in  30 iterations

 BEEF-vdW xc energy contributions
           1 :   -463.378356912373
           2 :    427.028988688890
           3 :   -364.165318393028
           4 :    290.168018887721
           5 :   -219.956081570351
           6 :    163.152834142973
           7 :   -122.358207156630
           8 :    94.6037449649762
           9 :   -74.6105541731472
          10 :    57.9177266539748
          11 :   -42.5135679356846
          12 :    28.6686951279834
          13 :   -17.6584109254890
          14 :    10.4031351976982
          15 :   -6.78897346752228
          16 :    5.80124958234279
          17 :   -6.11409261962763
          18 :    6.63844277624844
          19 :   -6.75709337548324
          20 :    6.27304755425860
          21 :   -5.26843901637869
          22 :    4.00955013390569
          23 :   -2.89042800554307
          24 :    2.32056615718284
          25 :   -2.53369700022370
          26 :    3.41581220926184
          27 :   -4.50817980919635
          28 :    5.24023008426821
          29 :   -5.27559555783068
          30 :    4.73654347072488
          31 :   -39.3671358565576
          32 :   -28.7093285967989

     Forces acting on atoms (Ry/au):

     negative rho (up, down):  3.349E-01 0.000E+00
     atom    1 type  1   force =     0.00048034    0.00033722    0.03565707
     atom    2 type  1   force =     0.00048236    0.00034111    0.03565458
     atom    3 type  2   force =    -0.00028047   -0.00020687   -0.04987446
     atom    4 type  2   force =    -0.00028327   -0.00019083   -0.04987290
     atom    5 type  1   force =     0.00026142    0.00018353    0.02743075
     atom    6 type  1   force =     0.00025722    0.00018194    0.02748447
     atom    7 type  2   force =     0.00056942    0.00046612   -0.01291254
     atom    8 type  2   force =     0.00063182    0.00038136   -0.01290454
     atom    9 type  1   force =    -0.00063360   -0.00044733   -0.00097469
     atom   10 type  1   force =    -0.00081312   -0.00057205   -0.00097563
     atom   11 type  2   force =    -0.00042714   -0.00010923    0.00064261
     atom   12 type  2   force =    -0.00024498   -0.00036498    0.00064527

     Total force =     0.096775     Total SCF correction =     0.003908

     entering subroutine stress ...

     negative rho (up, down):  3.349E-01 0.000E+00
          total   stress  (Ry/bohr**3)                   (kbar)     P=  -14.77
  -0.00015635  -0.00002886  -0.00000209        -23.00     -4.25     -0.31
  -0.00002886  -0.00013574  -0.00000148         -4.25    -19.97     -0.22
  -0.00000209  -0.00000148  -0.00000923         -0.31     -0.22     -1.36

 !ASE

     Writing output data file calc.save

     General routines

     Parallel routines

   This run was terminated on:   9:28:32  19Dec2018

   JOB DONE.
Job  /afs/slac/g/suncat/bin/suncat-tsmpirun -x LD_LIBRARY_PATH -wdir /scratch/qe529772_Ilg9J pw.x -in pw.inp

TID   HOST_NAME   COMMAND_LINE            STATUS            TERMINATION_TIME
00000 suncat0142 pw.x -in pw.inp   Done                     12/19/2018 09:28:32
00001 suncat0142 pw.x -in pw.inp   Done                     12/19/2018 09:28:32
00002 suncat0142 pw.x -in pw.inp   Done                     12/19/2018 09:28:32
00003 suncat0142 pw.x -in pw.inp   Done                     12/19/2018 09:28:32
00004 suncat0142 pw.x -in pw.inp   Done                     12/19/2018 09:28:32
00005 suncat0142 pw.x -in pw.inp   Done                     12/19/2018 09:28:32
00006 suncat0142 pw.x -in pw.inp   Done                     12/19/2018 09:28:32
00007 suncat0142 pw.x -in pw.inp   Done                     12/19/2018 09:28:32
00008 suncat0141 pw.x -in pw.inp   Done                     12/19/2018 09:28:32
00009 suncat0141 pw.x -in pw.inp   Done                     12/19/2018 09:28:32
00010 suncat0141 pw.x -in pw.inp   Done                     12/19/2018 09:28:32
00011 suncat0141 pw.x -in pw.inp   Done                     12/19/2018 09:28:32
00012 suncat0141 pw.x -in pw.inp   Done                     12/19/2018 09:28:32
00013 suncat0141 pw.x -in pw.inp   Done                     12/19/2018 09:28:32
00014 suncat0141 pw.x -in pw.inp   Done                     12/19/2018 09:28:32
00015 suncat0141 pw.x -in pw.inp   Done                     12/19/2018 09:28:32
00016 suncat0140 pw.x -in pw.inp   Done                     12/19/2018 09:28:32
00017 suncat0140 pw.x -in pw.inp   Done                     12/19/2018 09:28:32
00018 suncat0140 pw.x -in pw.inp   Done                     12/19/2018 09:28:32
00019 suncat0140 pw.x -in pw.inp   Done                     12/19/2018 09:28:32
00020 suncat0140 pw.x -in pw.inp   Done                     12/19/2018 09:28:32
00021 suncat0140 pw.x -in pw.inp   Done                     12/19/2018 09:28:32
00022 suncat0140 pw.x -in pw.inp   Done                     12/19/2018 09:28:32
00023 suncat0140 pw.x -in pw.inp   Done                     12/19/2018 09:28:32
00024 suncat0139 pw.x -in pw.inp   Done                     12/19/2018 09:28:32
00025 suncat0139 pw.x -in pw.inp   Done                     12/19/2018 09:28:32
00026 suncat0139 pw.x -in pw.inp   Done                     12/19/2018 09:28:32
00027 suncat0139 pw.x -in pw.inp   Done                     12/19/2018 09:28:32
00028 suncat0139 pw.x -in pw.inp   Done                     12/19/2018 09:28:32
00029 suncat0139 pw.x -in pw.inp   Done                     12/19/2018 09:28:32
00030 suncat0139 pw.x -in pw.inp   Done                     12/19/2018 09:28:32
00031 suncat0139 pw.x -in pw.inp   Done                     12/19/2018 09:28:32