     Program PWSCF v.5.1rc2 (svn rev. 11289) starts on 25Dec2018 at  4:51:21

     Current dimensions of program PWSCF are:
     Max number of different atomic species (ntypx) = 10
     Max number of k-points (npk) =  40000
     Max angular momentum in pseudopotentials (lmaxx) =  3
     Presently stress not available with electric field

     IMPORTANT: XC functional enforced from input :
     Exchange-correlation      = BEEF-VDW ( 1  4 27 13 2)
     Any further DFT definition will be discarded
     Please, verify this is what you really want

     Subspace diagonalization in iterative solution of the eigenvalue problem:
     a serial algorithm will be used

     Found symmetry operation: I + (  0.5000 -0.5000  0.0000)
     This is a supercell, fractional translations are disabled

     bravais-lattice index     =            0
     lattice parameter (alat)  =       1.8897  a.u.
     unit-cell volume          =    5909.5673 (a.u.)^3
     number of atoms/cell      =           12
     number of atomic types    =            2
     number of electrons       =       198.00
     number of Kohn-Sham states=          129
     kinetic-energy cutoff     =      36.7493  Ry
     charge density cutoff     =     367.4932  Ry
     convergence threshold     =      1.0E-06
     mixing beta               =       0.1000
     number of iterations used =           10  plain     mixing
     Exchange-correlation      = BEEF-VDW ( 1  4 27 13 2)
     nstep                     =           50

     celldm(1)=   1.889726  celldm(2)=   0.000000  celldm(3)=   0.000000
     celldm(4)=   0.000000  celldm(5)=   0.000000  celldm(6)=   0.000000

     crystal axes: (cart. coord. in units of alat)
               a(1) = (   6.250266   0.000000   0.000000 )
               a(2) = (   2.838857   5.568368   0.000000 )
               a(3) = (   0.000000   0.000000  25.161274 )

     reciprocal axes: (cart. coord. in units 2 pi/alat)
               b(1) = (  0.159993 -0.081567  0.000000 )
               b(2) = (  0.000000  0.179586  0.000000 )
               b(3) = (  0.000000  0.000000  0.039744 )

     PseudoPot. # 1 for Zn read from file:
     /afs/slac.stanford.edu/u/if/mamunm/psp/gbrv1.5pbe/Zn.UPF
     MD5 check sum: df62231357ef9e81f77b2b3087fa5675
     Pseudo is Ultrasoft, Zval = 20.0
     Generated by new atomic code, or converted to UPF format
     Using radial grid of  943 points,  6 beta functions with:
                l(1) =   0
                l(2) =   0
                l(3) =   1
                l(4) =   1
                l(5) =   2
                l(6) =   2
     Q(r) pseudized with  8 coefficients,  rinner =    1.100   1.100   1.100
                                                       1.100   1.100

     PseudoPot. # 2 for In read from file:
     /afs/slac.stanford.edu/u/if/mamunm/psp/gbrv1.5pbe/In.UPF
     MD5 check sum: 90777abd96fbb83f2e67db2a40c566b9
     Pseudo is Ultrasoft + core correction, Zval = 13.0
     Generated by new atomic code, or converted to UPF format
     Using radial grid of  889 points,  6 beta functions with:
                l(1) =   0
                l(2) =   0
                l(3) =   1
                l(4) =   1
                l(5) =   2
                l(6) =   2
     Q(r) pseudized with  6 coefficients,  rinner =    1.400   1.400   1.400
                                                       1.400   1.400

     vdW kernel table read from file vdW_kernel_table
     MD5 check sum: 095c7af220d748ca6e76c0b4c6cfb241

     atomic species   valence    mass     pseudopotential
        Zn1           20.00    65.38000     Zn( 1.00)
        In1           13.00   114.81800     In( 1.00)

     No symmetry found

   Cartesian axes

     site n.     atom                  positions (alat units)
         1           Zn1 tau(   1) = (   0.0000000   0.0000000  10.0000000  )
         2           Zn1 tau(   2) = (   4.5445618   2.7841839  10.0000000  )
         3           In1 tau(   3) = (   3.1251332   0.0000000  10.0000000  )
         4           In1 tau(   4) = (   1.4194286   2.7841839  10.0000000  )
         5           Zn1 tau(   5) = (   6.2502664   3.8291682  12.5806371  )
         6           Zn1 tau(   6) = (   1.7057046   1.0449842  12.5806371  )
         7           In1 tau(   7) = (   3.1251332   3.8291682  12.5806371  )
         8           In1 tau(   8) = (   4.8308379   1.0449842  12.5806371  )
         9           Zn1 tau(   9) = (   3.4114093   2.0899685  15.1612743  )
        10           Zn1 tau(  10) = (   7.9559711   4.8741524  15.1612743  )
        11           In1 tau(  11) = (   6.5365425   2.0899685  15.1612743  )
        12           In1 tau(  12) = (   4.8308379   4.8741524  15.1612743  )

     number of k points=    20  Fermi-Dirac smearing, width (Ry)=  0.0110
                       cart. coord. in units 2pi/alat
        k(    1) = (   0.0000000   0.0000000   0.0000000), wk =   0.0555556
        k(    2) = (   0.0000000   0.0299310   0.0000000), wk =   0.1111111
        k(    3) = (   0.0000000   0.0598619   0.0000000), wk =   0.1111111
        k(    4) = (   0.0000000  -0.0897929   0.0000000), wk =   0.0555556
        k(    5) = (   0.0266655  -0.0135946   0.0000000), wk =   0.1111111
        k(    6) = (   0.0266655   0.0163364   0.0000000), wk =   0.1111111
        k(    7) = (   0.0266655   0.0462674   0.0000000), wk =   0.1111111
        k(    8) = (   0.0266655  -0.1033875   0.0000000), wk =   0.1111111
        k(    9) = (   0.0266655  -0.0734565   0.0000000), wk =   0.1111111
        k(   10) = (   0.0266655  -0.0435256   0.0000000), wk =   0.1111111
        k(   11) = (   0.0533311  -0.0271892   0.0000000), wk =   0.1111111
        k(   12) = (   0.0533311   0.0027418   0.0000000), wk =   0.1111111
        k(   13) = (   0.0533311   0.0326728   0.0000000), wk =   0.1111111
        k(   14) = (   0.0533311  -0.1169821   0.0000000), wk =   0.1111111
        k(   15) = (   0.0533311  -0.0870511   0.0000000), wk =   0.1111111
        k(   16) = (   0.0533311  -0.0571201   0.0000000), wk =   0.1111111
        k(   17) = (  -0.0799966   0.0407837   0.0000000), wk =   0.0555556
        k(   18) = (  -0.0799966   0.0707147   0.0000000), wk =   0.1111111
        k(   19) = (  -0.0799966   0.1006457   0.0000000), wk =   0.1111111
        k(   20) = (  -0.0799966  -0.0490092   0.0000000), wk =   0.0555556

     Largest allocated arrays     est. size (Mb)     dimensions
     Largest temporary arrays     est. size (Mb)     dimensions

     Initial potential from superposition of free atoms
     Check: negative starting charge=   -0.000723

     starting charge  188.99915, renormalised to  198.00000

     negative rho (up, down):  7.576E-04 0.000E+00

     *
     * You are using vdW-DF for exchange-correlation in this calculation.
     * Please cite the following three references that made this development
     * possible:
     *
     *   M. Dion, H. Rydberg, E. Schroder, D. C. Langreth, and
     *   B. I. Lundqvist, Phys. Rev. Lett. 92, 246401 (2004).
     *
     *   T. Thonhauser, V. R. Cooper, S. Li, A. Puzder, P. Hyldgaard, and
     *   D. C. Langreth, Phys. Rev. B 76, 125112 (2007).
     *
     *   G. Roman-Perez and J. M. Soler, Phys. Rev. Lett. 103, 096102 (2009).
     *
     *
     * If you are using vdW-DF2, please also cite:
     *
     *   K. Lee, E. D. Murray, L. Kong, B. I. Lundqvist, and
     *   D. C. Langreth, Phys. Rev. B 82, 081101(R) (2010).
     *
     *
     * If you are calculating the stress with vdW-DF, please also cite:
     *
     *   R. Sabatini, E. Kucukbenli, B. Kolb, T. Thonhauser, and
     *   S. de Gironcoli, J. Phys.: Condens. Matter 24, 424209 (2012).
     *

     Carrying out vdW-DF run using the following parameters:

     Nqs =      20    Nr_points =    1024   r_max =   100.000
     q_mesh =
               0.00001000     0.04494208     0.09755937     0.15916263
               0.23128650     0.31572767     0.41458969     0.53033537
               0.66584808     0.82450364     1.01025438     1.22772762
               1.48234092     1.78043706     2.12944203     2.53805004
               3.01644009     3.57652955     4.23227104     5.00000000

     Gradients computed in reciprocal space

     Adding external electric field

     Computed dipole along edir(3) :
        Dipole               -0.0000 Ry au,         -0.0000 Debye
        Dipole field         -0.0000 Ry au

        Potential amp.        0.0000 Ry
        Total length         46.3592 bohr

     Starting wfc are  132 randomized atomic wfcs

     Self-consistent Calculation

     iteration #  1     ecut=    36.75 Ry     beta=0.10
     Davidson diagonalization with overlap
     ethr =  1.00E-02,  avg # of iterations =  8.3

[...]

     total energy              =   -3473.83164799 Ry
     Harris-Foulkes estimate   =   -3621.36760970 Ry
     estimated scf accuracy    <     816.64119323 Ry

[...]

     End of self-consistent calculation

          k = 0.0000 0.0000 0.0000 ( 22239 PWs)   bands (ev):

  -126.2230-126.2230-126.0999-126.0998-126.0997-126.0997 -80.4072 -80.4071
   -80.4020 -80.4019 -80.3994 -80.3985 -80.2874 -80.2873 -80.2872 -80.2871
   -80.2793 -80.2792 -80.2792 -80.2790 -80.2780 -80.2778 -80.2771 -80.2769
   -14.8969 -14.8132 -14.8049 -14.8020 -14.7708 -14.7523 -14.7512 -14.7438
   -14.7054 -14.7025 -14.7013 -14.7010 -14.6600 -14.6453 -14.6332 -14.6311
   -14.6231 -14.6143 -14.6073 -14.6032 -14.5942 -14.5844 -14.5645 -14.5585
   -14.5534 -14.5430 -14.5364 -14.5029 -14.4654 -14.4230  -8.5610  -7.3908
    -7.3479  -7.3391  -7.2643  -7.2430  -7.1677  -7.1415  -7.1362  -7.1211
    -7.1143  -7.1083  -7.0780  -7.0567  -7.0471  -7.0355  -7.0256  -7.0138
    -6.9969  -6.9953  -6.9898  -6.9698  -6.9594  -6.9439  -6.9230  -6.9221
    -6.9178  -6.9105  -6.8999  -6.8665  -6.8296  -6.7364  -4.7335  -3.6027
    -3.4160  -3.0004  -2.8661  -2.6885  -2.4856  -2.1538  -1.7687  -1.6398
    -1.4538  -1.3330  -1.1930  -0.9577  -0.0112   0.3351   0.5714   0.6112
     0.7522   0.7591   1.6874   3.2662   3.3584   3.7759   3.8912   3.9418
     4.0227   4.2331   4.5122   4.8367   4.9051   5.3567   6.0580   6.2616
     6.4062   6.6268   6.7788   6.8137   6.8252   7.0625   7.1368   7.2777
     7.4033

[...]

          k =-0.0800 0.0408 0.0000 ( 22260 PWs)   bands (ev):

[...]

     the Fermi energy is     0.1898 ev

!    total energy              =   -3585.21718485 Ry
     Harris-Foulkes estimate   =   -3585.21717773 Ry
     estimated scf accuracy    <       0.00000084 Ry

     The total energy is the sum of the following terms:

     one-electron contribution =  -18422.35293945 Ry
     hartree contribution      =    9239.20291061 Ry
     xc contribution           =    -494.90772751 Ry
     ewald contribution        =    6092.86775642 Ry
     electric field correction =       0.00000001 Ry
     smearing contrib. (-TS)   =      -0.02718493 Ry

     convergence has been achieved in  17 iterations

 BEEF-vdW xc energy contributions
           1 :   -436.815400369834
           2 :    397.219579799257
           3 :   -330.710495494686
           4 :    256.491781788559
           5 :   -191.714887594370
           6 :    145.058271923852
           7 :   -115.374901991543
           8 :    95.3019753884661
[...]
     Generated by new atomic code, or converted to UPF format
     Using radial grid of  943 points,  6 beta functions with:
                l(1) =   0
                l(2) =   0
                l(3) =   1
                l(4) =   1
                l(5) =   2
                l(6) =   2
     Q(r) pseudized with  8 coefficients,  rinner =    1.100   1.100   1.100
                                                       1.100   1.100

     PseudoPot. # 2 for In read from file:
     /afs/slac.stanford.edu/u/if/mamunm/psp/gbrv1.5pbe/In.UPF
     MD5 check sum: 90777abd96fbb83f2e67db2a40c566b9
     Pseudo is Ultrasoft + core correction, Zval = 13.0
     Generated by new atomic code, or converted to UPF format
     Using radial grid of  889 points,  6 beta functions with:
                l(1) =   0
                l(2) =   0
                l(3) =   1
                l(4) =   1
                l(5) =   2
                l(6) =   2
     Q(r) pseudized with  6 coefficients,  rinner =    1.400   1.400   1.400
                                                       1.400   1.400

     vdW kernel table read from file vdW_kernel_table
     MD5 check sum: 095c7af220d748ca6e76c0b4c6cfb241

     atomic species   valence    mass     pseudopotential
        Zn1           20.00    65.38000     Zn( 1.00)
        In1           13.00   114.81800     In( 1.00)

     No symmetry found

   Cartesian axes

     site n.     atom                  positions (alat units)
         1           Zn1 tau(   1) = (   0.0000000   0.0000000  10.0000000  )
         2           Zn1 tau(   2) = (   4.5445618   2.7841839  10.0000000  )
         3           In1 tau(   3) = (   3.1251332   0.0000000  10.0000000  )
         4           In1 tau(   4) = (   1.4194286   2.7841839  10.0000000  )
         5           Zn1 tau(   5) = (   6.2502664   3.8291682  12.5806371  )
         6           Zn1 tau(   6) = (   1.7057046   1.0449842  12.5806371  )
         7           In1 tau(   7) = (   3.1251332   3.8291682  12.5806371  )
         8           In1 tau(   8) = (   4.8308379   1.0449842  12.5806371  )
         9           Zn1 tau(   9) = (   3.3860406   2.0744300  15.1675400  )
        10           Zn1 tau(  10) = (   7.9308105   4.8587423  15.1674713  )
        11           In1 tau(  11) = (   6.5822671   2.1177134  15.2492900  )
        12           In1 tau(  12) = (   4.8763218   4.9022805  15.2492792  )

     number of k points=    20  Fermi-Dirac smearing, width (Ry)=  0.0110
                       cart. coord. in units 2pi/alat
        k(    1) = (   0.0000000   0.0000000   0.0000000), wk =   0.0555556
        k(    2) = (   0.0000000   0.0299310   0.0000000), wk =   0.1111111
        k(    3) = (   0.0000000   0.0598619   0.0000000), wk =   0.1111111
        k(    4) = (   0.0000000  -0.0897929   0.0000000), wk =   0.0555556
        k(    5) = (   0.0266655  -0.0135946   0.0000000), wk =   0.1111111
        k(    6) = (   0.0266655   0.0163364   0.0000000), wk =   0.1111111
        k(    7) = (   0.0266655   0.0462674   0.0000000), wk =   0.1111111
        k(    8) = (   0.0266655  -0.1033875   0.0000000), wk =   0.1111111
        k(    9) = (   0.0266655  -0.0734565   0.0000000), wk =   0.1111111
        k(   10) = (   0.0266655  -0.0435256   0.0000000), wk =   0.1111111
        k(   11) = (   0.0533311  -0.0271892   0.0000000), wk =   0.1111111
        k(   12) = (   0.0533311   0.0027418   0.0000000), wk =   0.1111111
        k(   13) = (   0.0533311   0.0326728   0.0000000), wk =   0.1111111
        k(   14) = (   0.0533311  -0.1169821   0.0000000), wk =   0.1111111
        k(   15) = (   0.0533311  -0.0870511   0.0000000), wk =   0.1111111
        k(   16) = (   0.0533311  -0.0571201   0.0000000), wk =   0.1111111
        k(   17) = (  -0.0799966   0.0407837   0.0000000), wk =   0.0555556
        k(   18) = (  -0.0799966   0.0707147   0.0000000), wk =   0.1111111
        k(   19) = (  -0.0799966   0.1006457   0.0000000), wk =   0.1111111
        k(   20) = (  -0.0799966  -0.0490092   0.0000000), wk =   0.0555556

     Largest allocated arrays     est. size (Mb)     dimensions
     Largest temporary arrays     est. size (Mb)     dimensions

     Initial potential from superposition of free atoms
     Check: negative starting charge=   -0.000722

     starting charge  188.99915, renormalised to  198.00000

[...]

     *
     * You are using vdW-DF for exchange-correlation in this calculation.
     * Please cite the following three references that made this development
     * possible:
     *
     *   M. Dion, H. Rydberg, E. Schroder, D. C. Langreth, and
     *   B. I. Lundqvist, Phys. Rev. Lett. 92, 246401 (2004).
     *
     *   T. Thonhauser, V. R. Cooper, S. Li, A. Puzder, P. Hyldgaard, and
     *   D. C. Langreth, Phys. Rev. B 76, 125112 (2007).
     *
     *   G. Roman-Perez and J. M. Soler, Phys. Rev. Lett. 103, 096102 (2009).
     *
     *
     * If you are using vdW-DF2, please also cite:
     *
     *   K. Lee, E. D. Murray, L. Kong, B. I. Lundqvist, and
     *   D. C. Langreth, Phys. Rev. B 82, 081101(R) (2010).
     *
     *
     * If you are calculating the stress with vdW-DF, please also cite:
     *
     *   R. Sabatini, E. Kucukbenli, B. Kolb, T. Thonhauser, and
     *   S. de Gironcoli, J. Phys.: Condens. Matter 24, 424209 (2012).
     *

     Carrying out vdW-DF run using the following parameters:

     Nqs =      20    Nr_points =    1024   r_max =   100.000
     q_mesh =
               0.00001000     0.04494208     0.09755937     0.15916263
               0.23128650     0.31572767     0.41458969     0.53033537
               0.66584808     0.82450364     1.01025438     1.22772762
               1.48234092     1.78043706     2.12944203     2.53805004
               3.01644009     3.57652955     4.23227104     5.00000000

     Gradients computed in reciprocal space

[...]

     Starting wfc are  132 randomized atomic wfcs

     Self-consistent Calculation

[...]

     total energy              =   -3585.21913908 Ry
     Harris-Foulkes estimate   =   -3585.21913784 Ry
     estimated scf accuracy    <       0.00000106 Ry

     iteration # 19     ecut=    36.75 Ry     beta=0.10
     Davidson diagonalization with overlap
     ethr =  5.37E-10,  avg # of iterations =  2.0

[...]

     negative rho (up, down):  1.134E-03 0.000E+00

     Adding external electric field

     Computed dipole along edir(3) :
        Dipole                0.0121 Ry au,          0.0307 Debye
        Dipole field          0.0000 Ry au

        Potential amp.       -0.0024 Ry
        Total length         46.3592 bohr

     End of self-consistent calculation

[...]

          k = 0.0533-0.0571 0.0000 ( 22247 PWs)   bands (ev):

[...]

          k =-0.0800-0.0490 0.0000 ( 22144 PWs)   bands (ev):

  -126.1868-126.1867-126.0878-126.0877-126.0867-126.0867 -80.3705 -80.3704
   -80.3662 -80.3661 -80.3632 -80.3622 -80.2748 -80.2747 -80.2740 -80.2739
   -80.2681 -80.2681 -80.2659 -80.2656 -80.2656 -80.2650 -80.2649 -80.2639
   -14.8617 -14.8004 -14.7908 -14.7645 -14.7299 -14.7251 -14.6945 -14.6930
   -14.6901 -14.6851 -14.6816 -14.6803 -14.6441 -14.6265 -14.6175 -14.6103
   -14.6030 -14.5988 -14.5933 -14.5801 -14.5719 -14.5563 -14.5525 -14.5410
   -14.5357 -14.5351 -14.5193 -14.5012 -14.4521 -14.4093  -7.3831  -7.2915
    -7.2237  -7.2090  -7.2004  -7.1461  -7.1449  -7.1160  -7.1087  -7.1074
    -7.0996  -7.0849  -7.0719  -7.0653  -7.0323  -7.0188  -7.0100  -7.0067
    -6.9988  -6.9929  -6.9859  -6.9597  -6.9567  -6.9242  -6.9192  -6.9176
    -6.8954  -6.8892  -6.8721  -6.8576  -6.8189  -6.7382  -5.9388  -5.1100
    -4.8443  -4.2440  -3.4885  -3.4275  -3.1706  -2.9110  -1.6745  -0.9456
    -0.0353   0.2719   0.7644   1.1645   1.4644   1.5326   1.6386   2.5260
     2.6796   2.8372   2.8689   2.9853   3.1446   3.1565   4.1947   4.3023
     4.5139   4.5158   4.5722   4.6600   4.7783   4.9362   5.1497   5.2325
     5.2547   5.2837   5.6812   5.7824   5.8658   5.9179   6.2024   6.2306
     6.6681

     the Fermi energy is     0.2102 ev

!    total energy              =   -3585.21914426 Ry
     Harris-Foulkes estimate   =   -3585.21913910 Ry
     estimated scf accuracy    <       0.00000032 Ry

     The total energy is the sum of the following terms:

     one-electron contribution =  -18335.18799295 Ry
     hartree contribution      =    9195.73971595 Ry
     xc contribution           =    -494.88184854 Ry
     ewald contribution        =    6049.13813128 Ry
     electric field correction =       0.00000031 Ry
     smearing contrib. (-TS)   =      -0.02715032 Ry

     convergence has been achieved in  19 iterations

 BEEF-vdW xc energy contributions
           1 :   -436.786989740714
           2 :    397.170064072881
           3 :   -330.636154929024
           4 :    256.410415723344
           5 :   -191.653742236579
           6 :    145.034891933660
           7 :   -115.385143568702
           8 :    95.3236191145888
           9 :   -77.0974949314060
          10 :    57.0472210647367
          11 :   -36.4830912315538
          12 :    19.2521307937449
          13 :   -8.23733193210251
          14 :    3.26858541369586
          15 :   -1.54884992655104
          16 :  -0.176173412044022
          17 :    3.51088149574537
          18 :   -7.81368110128761
          19 :    11.2564493287275
          20 :   -12.5030569556870
          21 :    11.7027102881869
          22 :   -10.1979780026147
          23 :    9.37217039682582
          24 :   -9.63780405586715
          25 :    10.3189381438488
          26 :   -10.3984188317336
          27 :    9.43143288535890
          28 :   -7.87891927644660
          29 :    6.65257826248410
          30 :   -6.31603836009032
          31 :   -36.4584901031085
          32 :   -25.5902807454868

     Forces acting on atoms (Ry/au):

     negative rho (up, down):  1.134E-03 0.000E+00
     atom    1 type  1   force =     0.00358894    0.00219846    0.00004126
     atom    2 type  1   force =     0.00359073    0.00220003    0.00005710
     atom    3 type  2   force =    -0.00501080   -0.00306475   -0.00610955
     atom    4 type  2   force =    -0.00500606   -0.00307193   -0.00610993
     atom    5 type  1   force =    -0.00098511   -0.00060354    0.00213057
     atom    6 type  1   force =    -0.00097623   -0.00059809    0.00211781
     atom    7 type  2   force =     0.00203095    0.00122098    0.00380273
     atom    8 type  2   force =     0.00201069    0.00125519    0.00380237
     atom    9 type  1   force =     0.00101614    0.00062242   -0.00050883
     atom   10 type  1   force =     0.00099687    0.00061060   -0.00051097
     atom   11 type  2   force =    -0.00064848   -0.00035140    0.00064367
     atom   12 type  2   force =    -0.00060763   -0.00041797    0.00064375

     Total force =     0.015367     Total SCF correction =     0.003172
     SCF correction compared to forces is large: reduce conv_thr to get better values

     entering subroutine stress ...

     negative rho (up, down):  1.134E-03 0.000E+00
          total   stress  (Ry/bohr**3)                   (kbar)     P=   -6.65
  -0.00006568  -0.00000944   0.00000300         -9.66     -1.39      0.44
  -0.00000944  -0.00005605   0.00000184         -1.39     -8.25      0.27
   0.00000300   0.00000184  -0.00001378          0.44      0.27     -2.03

 !ASE

     Writing output data file calc.save

     General routines

     Parallel routines

   This run was terminated on:   7: 6:33  25Dec2018

   JOB DONE.
Job  /afs/slac/g/suncat/bin/suncat-tsmpirun -x LD_LIBRARY_PATH -wdir /scratch/qe109215_J4x3B pw.x -in pw.inp

TID   HOST_NAME   COMMAND_LINE            STATUS            TERMINATION_TIME
00000 suncat0048 pw.x -in pw.inp   Done                     12/25/2018 07:06:33
00001 suncat0048 pw.x -in pw.inp   Done                     12/25/2018 07:06:33
00002 suncat0048 pw.x -in pw.inp   Done                     12/25/2018 07:06:33
00003 suncat0048 pw.x -in pw.inp   Done                     12/25/2018 07:06:33
00004 suncat0048 pw.x -in pw.inp   Done                     12/25/2018 07:06:33
00005 suncat0048 pw.x -in pw.inp   Done                     12/25/2018 07:06:33
00006 suncat0048 pw.x -in pw.inp   Done                     12/25/2018 07:06:33
00007 suncat0048 pw.x -in pw.inp   Done                     12/25/2018 07:06:33
00008 suncat0047 pw.x -in pw.inp   Done                     12/25/2018 07:06:33
00009 suncat0047 pw.x -in pw.inp   Done                     12/25/2018 07:06:33
00010 suncat0047 pw.x -in pw.inp   Done                     12/25/2018 07:06:33
00011 suncat0047 pw.x -in pw.inp   Done                     12/25/2018 07:06:33
00012 suncat0047 pw.x -in pw.inp   Done                     12/25/2018 07:06:33
00013 suncat0047 pw.x -in pw.inp   Done                     12/25/2018 07:06:33
00014 suncat0047 pw.x -in pw.inp   Done                     12/25/2018 07:06:33
00015 suncat0047 pw.x -in pw.inp   Done                     12/25/2018 07:06:33
00016 suncat0193 pw.x -in pw.inp   Done                     12/25/2018 07:06:33
00017 suncat0193 pw.x -in pw.inp   Done                     12/25/2018 07:06:33
00018 suncat0193 pw.x -in pw.inp   Done                     12/25/2018 07:06:33
00019 suncat0193 pw.x -in pw.inp   Done                     12/25/2018 07:06:33
00020 suncat0193 pw.x -in pw.inp   Done                     12/25/2018 07:06:33
00021 suncat0193 pw.x -in pw.inp   Done                     12/25/2018 07:06:33
00022 suncat0193 pw.x -in pw.inp   Done                     12/25/2018 07:06:33
00023 suncat0193 pw.x -in pw.inp   Done                     12/25/2018 07:06:33
00024 suncat0192 pw.x -in pw.inp   Done                     12/25/2018 07:06:33
00025 suncat0192 pw.x -in pw.inp   Done                     12/25/2018 07:06:33
00026 suncat0192 pw.x -in pw.inp   Done                     12/25/2018 07:06:33
00027 suncat0192 pw.x -in pw.inp   Done                     12/25/2018 07:06:33
00028 suncat0192 pw.x -in pw.inp   Done                     12/25/2018 07:06:33
00029 suncat0192 pw.x -in pw.inp   Done                     12/25/2018 07:06:33
00030 suncat0192 pw.x -in pw.inp   Done                     12/25/2018 07:06:33
00031 suncat0192 pw.x -in pw.inp   Done                     12/25/2018 07:06:33
00032 suncat0155 pw.x -in pw.inp   Done                     12/25/2018 07:06:33
00033 suncat0155 pw.x -in pw.inp   Done                     12/25/2018 07:06:33
00034 suncat0155 pw.x -in pw.inp   Done                     12/25/2018 07:06:33
00035 suncat0155 pw.x -in pw.inp   Done                     12/25/2018 07:06:33
00036 suncat0155 pw.x -in pw.inp   Done                     12/25/2018 07:06:33
00037 suncat0155 pw.x -in pw.inp   Done                     12/25/2018 07:06:33
00038 suncat0155 pw.x -in pw.inp   Done                     12/25/2018 07:06:33
00039 suncat0155 pw.x -in pw.inp   Done                     12/25/2018 07:06:33
00040 suncat0154 pw.x -in pw.inp   Done                     12/25/2018 07:06:33
00041 suncat0154 pw.x -in pw.inp   Done                     12/25/2018 07:06:33
00042 suncat0154 pw.x -in pw.inp   Done                     12/25/2018 07:06:33
00043 suncat0154 pw.x -in pw.inp   Done                     12/25/2018 07:06:33
00044 suncat0154 pw.x -in pw.inp   Done                     12/25/2018 07:06:33
00045 suncat0154 pw.x -in pw.inp   Done                     12/25/2018 07:06:33
00046 suncat0154 pw.x -in pw.inp   Done                     12/25/2018 07:06:33
00047 suncat0154 pw.x -in pw.inp   Done                     12/25/2018 07:06:33
00048 suncat0209 pw.x -in pw.inp   Done                     12/25/2018 07:06:33
00049 suncat0209 pw.x -in pw.inp   Done                     12/25/2018 07:06:33
00050 suncat0209 pw.x -in pw.inp   Done                     12/25/2018 07:06:33
00051 suncat0209 pw.x -in pw.inp   Done                     12/25/2018 07:06:33
00052 suncat0209 pw.x -in pw.inp   Done                     12/25/2018 07:06:33
00053 suncat0209 pw.x -in pw.inp   Done                     12/25/2018 07:06:33
00054 suncat0209 pw.x -in pw.inp   Done                     12/25/2018 07:06:33
00055 suncat0209 pw.x -in pw.inp   Done                     12/25/2018 07:06:33
00056 suncat0203 pw.x -in pw.inp   Done                     12/25/2018 07:06:33
00057 suncat0203 pw.x -in pw.inp   Done                     12/25/2018 07:06:33
00058 suncat0203 pw.x -in pw.inp   Done                     12/25/2018 07:06:33
00059 suncat0203 pw.x -in pw.inp   Done                     12/25/2018 07:06:33
00060 suncat0203 pw.x -in pw.inp   Done                     12/25/2018 07:06:33
00061 suncat0203 pw.x -in pw.inp   Done                     12/25/2018 07:06:33
00062 suncat0203 pw.x -in pw.inp   Done                     12/25/2018 07:06:33
00063 suncat0203 pw.x -in pw.inp   Done                     12/25/2018 07:06:33