     Program PWSCF v.5.1rc2 (svn rev. 11289) starts on 19Dec2018 at  7:49:30

     Current dimensions of program PWSCF are:
     Max number of different atomic species (ntypx) = 10
     Max number of k-points (npk) =  40000
     Max angular momentum in pseudopotentials (lmaxx) =  3
     Presently stress not available with electric field

     IMPORTANT: XC functional enforced from input :
     Exchange-correlation      = BEEF-VDW ( 1  4 27 13 2)
     Any further DFT definition will be discarded
     Please, verify this is what you really want

     Subspace diagonalization in iterative solution of the eigenvalue problem:
     a serial algorithm will be used

     Found symmetry operation: I + ( -0.5000 -0.5000  0.0000)
     This is a supercell, fractional translations are disabled

     bravais-lattice index     =            0
     lattice parameter (alat)  =       1.8897  a.u.
     unit-cell volume          =    4926.7533 (a.u.)^3
     number of atoms/cell      =           12
     number of atomic types    =            2
     number of electrons       =       156.00
     number of Kohn-Sham states=          108
     kinetic-energy cutoff     =      36.7493  Ry
     charge density cutoff     =     367.4932  Ry
     convergence threshold     =      1.0E-06
     mixing beta               =       0.1000
     number of iterations used =           10  plain     mixing
     Exchange-correlation      = BEEF-VDW ( 1  4 27 13 2)
     nstep                     =           50

     celldm(1)=   1.889726  celldm(2)=   0.000000  celldm(3)=   0.000000
     celldm(4)=   0.000000  celldm(5)=   0.000000  celldm(6)=   0.000000

     crystal axes: (cart. coord. in units of alat)
               a(1) = (   5.612655   0.000000   0.000000 )
               a(2) = (   1.871984   5.291273   0.000000 )
               a(3) = (   0.000000   0.000000  24.583049 )

     reciprocal axes: (cart. coord. in units 2 pi/alat)
               b(1) = (  0.178169 -0.063034  0.000000 )
               b(2) = (  0.000000  0.188990  0.000000 )
               b(3) = (  0.000000  0.000000  0.040678 )

     PseudoPot. # 1 for Cr read from file:
     /afs/slac.stanford.edu/u/if/mamunm/psp/gbrv1.5pbe/Cr.UPF
     MD5 check sum: 0d52af634a40206e4dee301ad30da4bf
     Pseudo is Ultrasoft + core correction, Zval = 14.0
     Generated by new atomic code, or converted to UPF format
     Using radial grid of  857 points,  6 beta functions with:
                l(1) =   0
                l(2) =   0
                l(3) =   1
                l(4) =   1
                l(5) =   2
                l(6) =   2
     Q(r) pseudized with  8 coefficients,  rinner =    0.950   0.950   0.950
                                                       0.950   0.950

     PseudoPot. # 2 for Zr read from file:
     /afs/slac.stanford.edu/u/if/mamunm/psp/gbrv1.5pbe/Zr.UPF
     MD5 check sum: 5db81b1e868ab7776c4564c113de050b
     Pseudo is Ultrasoft + core correction, Zval = 12.0
     Generated by new atomic code, or converted to UPF format
     Using radial grid of  887 points,  6 beta functions with:
                l(1) =   0
                l(2) =   0
                l(3) =   1
                l(4) =   1
                l(5) =   2
                l(6) =   2
     Q(r) pseudized with  6 coefficients,  rinner =    1.200   1.200   1.200
                                                       1.200   1.200

     vdW kernel table read from file vdW_kernel_table
     MD5 check sum: 095c7af220d748ca6e76c0b4c6cfb241

     atomic species   valence    mass     pseudopotential
        Cr1           14.00    51.99610     Cr( 1.00)
        Zr1           12.00    91.22400     Zr( 1.00)

     No symmetry found

   Cartesian axes

     site n.     atom                  positions (alat units)
         1           Cr1 tau(   1) = (   0.0000000   0.0000000  10.0000000  )
         2           Cr1 tau(   2) = (   3.7423193   2.6456364  10.0000000  )
         3           Zr1 tau(   3) = (   2.8063273   0.0000000  10.0000000  )
         4           Zr1 tau(   4) = (   0.9359920   2.6456364  10.0000000  )
         5           Cr1 tau(   5) = (   5.6126545   3.9678718  12.2915247  )
         6           Cr1 tau(   6) = (   1.8703353   1.3222354  12.2915247  )
         7           Zr1 tau(   7) = (   2.8063273   3.9678718  12.2915247  )
         8           Zr1 tau(   8) = (   4.6766626   1.3222354  12.2915247  )
         9           Cr1 tau(   9) = (   3.7406706   2.6444708  14.5830493  )
        10           Cr1 tau(  10) = (   7.4829898   5.2901072  14.5830493  )
        11           Zr1 tau(  11) = (   6.5469979   2.6444708  14.5830493  )
        12           Zr1 tau(  12) = (   4.6766626   5.2901072  14.5830493  )

     number of k points=    20  Fermi-Dirac smearing, width (Ry)=  0.0110
                       cart. coord. in units 2pi/alat
        k(    1) = (   0.0000000   0.0000000   0.0000000), wk =   0.0555556
        k(    2) = (   0.0000000   0.0314984   0.0000000), wk =   0.1111111
        k(    3) = (   0.0000000   0.0629968   0.0000000), wk =   0.1111111
        k(    4) = (   0.0000000  -0.0944952   0.0000000), wk =   0.0555556
        k(    5) = (   0.0296948  -0.0105056   0.0000000), wk =   0.1111111
        k(    6) = (   0.0296948   0.0209928   0.0000000), wk =   0.1111111
        k(    7) = (   0.0296948   0.0524912   0.0000000), wk =   0.1111111
        k(    8) = (   0.0296948  -0.1050009   0.0000000), wk =   0.1111111
        k(    9) = (   0.0296948  -0.0735025   0.0000000), wk =   0.1111111
        k(   10) = (   0.0296948  -0.0420040   0.0000000), wk =   0.1111111
        k(   11) = (   0.0593896  -0.0210113   0.0000000), wk =   0.1111111
        k(   12) = (   0.0593896   0.0104871   0.0000000), wk =   0.1111111
        k(   13) = (   0.0593896   0.0419855   0.0000000), wk =   0.1111111
        k(   14) = (   0.0593896  -0.1155065   0.0000000), wk =   0.1111111
        k(   15) = (   0.0593896  -0.0840081   0.0000000), wk =   0.1111111
        k(   16) = (   0.0593896  -0.0525097   0.0000000), wk =   0.1111111
        k(   17) = (  -0.0890844   0.0315169   0.0000000), wk =   0.0555556
        k(   18) = (  -0.0890844   0.0630153   0.0000000), wk =   0.1111111
        k(   19) = (  -0.0890844   0.0945137   0.0000000), wk =   0.1111111
        k(   20) = (  -0.0890844  -0.0629783   0.0000000), wk =   0.0555556

     Largest allocated arrays     est. size (Mb)     dimensions
     Largest temporary arrays     est. size (Mb)     dimensions

     Check: negative/imaginary core charge=   -0.000002    0.000000

     Initial potential from superposition of free atoms
     Check: negative starting charge=   -0.374103

     starting charge  149.98701, renormalised to  156.00000

     negative rho (up, down):  3.891E-01 0.000E+00

     *
     * You are using vdW-DF for exchange-correlation in this calculation.
     * Please cite the following three references that made this development
     * possible:
     *
     *   M. Dion, H. Rydberg, E. Schroder, D. C. Langreth, and
     *   B. I. Lundqvist, Phys. Rev. Lett. 92, 246401 (2004).
     *
     *   T. Thonhauser, V. R. Cooper, S. Li, A. Puzder, P. Hyldgaard, and
     *   D. C. Langreth, Phys. Rev. B 76, 125112 (2007).
     *
     *   G. Roman-Perez and J. M. Soler, Phys. Rev. Lett. 103, 096102 (2009).
     *
     *
     * If you are using vdW-DF2, please also cite:
     *
     *   K. Lee, E. D. Murray, L. Kong, B. I. Lundqvist, and
     *   D. C. Langreth, Phys. Rev. B 82, 081101(R) (2010).
     *
     *
     * If you are calculating the stress with vdW-DF, please also cite:
     *
     *   R. Sabatini, E. Kucukbenli, B. Kolb, T. Thonhauser, and
     *   S. de Gironcoli, J. Phys.: Condens. Matter 24, 424209 (2012).
     *

     Carrying out vdW-DF run using the following parameters:

     Nqs =      20    Nr_points =    1024   r_max =   100.000
     q_mesh =
               0.00001000     0.04494208     0.09755937     0.15916263
               0.23128650     0.31572767     0.41458969     0.53033537
               0.66584808     0.82450364     1.01025438     1.22772762
               1.48234092     1.78043706     2.12944203     2.53805004
               3.01644009     3.57652955     4.23227104     5.00000000

     Gradients computed in reciprocal space

     Adding external electric field

     Computed dipole along edir(3) :
        Dipole                0.0000 Ry au,          0.0000 Debye
        Dipole field          0.0000 Ry au

        Potential amp.       -0.0000 Ry
        Total length         45.2938 bohr

     Starting wfc are  138 randomized atomic wfcs

     Self-consistent Calculation

     iteration #  1     ecut=    36.75 Ry     beta=0.10
     Davidson diagonalization with overlap
     ethr =  1.00E-02,  avg # of iterations =  2.6

[...]

     total energy              =   -1655.86778533 Ry
     Harris-Foulkes estimate   =   -1657.03209188 Ry
     estimated scf accuracy    <       6.93620840 Ry

[...]

     End of self-consistent calculation

          k = 0.0000 0.0000 0.0000 ( 18567 PWs)   bands (ev):

   -70.0308 -70.0276 -70.0172 -70.0169 -70.0144 -70.0143 -47.4772 -47.4770
   -47.4362 -47.4354 -46.9879 -46.9477 -41.4102 -41.4084 -41.4025 -41.4015
   -41.3673 -41.3627 -41.3623 -41.3601 -41.3573 -41.3547 -41.3199 -41.3196
   -41.3161 -41.2738 -41.2724 -41.2703 -41.2681 -41.2649 -25.6605 -25.6534
   -25.5720 -25.5504 -25.5411 -25.4957 -25.4807 -25.4602 -25.4393 -25.4013
   -25.2253 -25.2124 -25.2119 -24.9985 -24.9695 -24.9234 -24.9220 -24.7654
    -4.0940  -2.7359  -1.9870  -1.8308  -1.7766  -1.2893  -1.2372  -1.1478
    -1.0543  -1.0421  -0.8884  -0.8585  -0.2765  -0.0078   0.1398   0.1555
     0.1754   0.2274   0.2521   0.2866   0.3920   0.6034   0.7030   0.8770
     1.0889   1.1716   1.1947   1.3351   1.3494   1.6596   1.6790   1.7700
     1.8566   1.9510   2.2158   2.2906   2.8165   2.8246   2.8297   2.8894
     3.0567   3.0810   3.0921   3.2446   3.3278   3.4143   3.4359   3.5867
     3.6959   3.7321   3.9542   4.0834   4.0977   4.2502   4.3202   4.3900
     4.4794   4.6007   4.7184   4.7553

[...]

          k =-0.0891 0.0315 0.0000 ( 18566 PWs)   bands (ev):

[...]

     the Fermi energy is     1.2794 ev

!    total energy              =   -1655.81285959 Ry
     Harris-Foulkes estimate   =   -1655.81286699 Ry
     estimated scf accuracy    <       0.00000063 Ry

     The total energy is the sum of the following terms:

     one-electron contribution =  -12470.57551196 Ry
     hartree contribution      =    6228.01613980 Ry
     xc contribution           =    -250.07658473 Ry
     ewald contribution        =    4836.96032807 Ry
     electric field correction =       0.00000000 Ry
     smearing contrib. (-TS)   =      -0.13723077 Ry

     convergence has been achieved in  24 iterations

 BEEF-vdW xc energy contributions
           1 :   -215.544228914523
           2 :    194.483762301574
           3 :   -159.172518223106
           4 :    119.973819940404
           5 :   -86.2807571131947
           6 :    63.0877398810138
           7 :   -50.1395957784605
           8 :    43.5977352962630
           9 :   -38.9083076027886
          10 :    33.1989599921882
          11 :   -26.1356734981966
[...]
00029 suncat0131 pw.x -in pw.inp   Done                     12/19/2018 08:07:12
00030 suncat0131 pw.x -in pw.inp   Done                     12/19/2018 08:07:12
00031 suncat0131 pw.x -in pw.inp   Done                     12/19/2018 08:07:12

     Program PWSCF v.5.1rc2 (svn rev. 11289) starts on 19Dec2018 at  8: 7:19

[...]

   This run was terminated on:   8:25:38  19Dec2018

[...]

     Program PWSCF v.5.1rc2 (svn rev. 11289) starts on 19Dec2018 at  8:44:27

[...]

   This run was terminated on:   9: 4:45  19Dec2018

[...]

     Program PWSCF v.5.1rc2 (svn rev. 11289) starts on 19Dec2018 at  9: 4:51

     Current dimensions of program PWSCF are:
     Max number of different atomic species (ntypx) = 10
     Max number of k-points (npk) =  40000
     Max angular momentum in pseudopotentials (lmaxx) =  3
     Presently stress not available with electric field

     IMPORTANT: XC functional enforced from input :
     Exchange-correlation      = BEEF-VDW ( 1  4 27 13 2)
     Any further DFT definition will be discarded
     Please, verify this is what you really want

     Subspace diagonalization in iterative solution of the eigenvalue problem:
     a serial algorithm will be used

     bravais-lattice index     =            0
     lattice parameter (alat)  =       1.8897  a.u.
     unit-cell volume          =    4926.7533 (a.u.)^3
     number of atoms/cell      =           12
     number of atomic types    =            2
     number of electrons       =       156.00
     number of Kohn-Sham states=          108
     kinetic-energy cutoff     =      36.7493  Ry
     charge density cutoff     =     367.4932  Ry
     convergence threshold     =      1.0E-06
     mixing beta               =       0.1000
     number of iterations used =           10  plain     mixing
     Exchange-correlation      = BEEF-VDW ( 1  4 27 13 2)
     nstep                     =           50

     celldm(1)=   1.889726  celldm(2)=   0.000000  celldm(3)=   0.000000
     celldm(4)=   0.000000  celldm(5)=   0.000000  celldm(6)=   0.000000

     crystal axes: (cart. coord. in units of alat)
               a(1) = (   5.612655   0.000000   0.000000 )
               a(2) = (   1.871984   5.291273   0.000000 )
               a(3) = (   0.000000   0.000000  24.583049 )

     reciprocal axes: (cart. coord. in units 2 pi/alat)
               b(1) = (  0.178169 -0.063034  0.000000 )
               b(2) = (  0.000000  0.188990  0.000000 )
               b(3) = (  0.000000  0.000000  0.040678 )

     PseudoPot. # 1 for Cr read from file:
     /afs/slac.stanford.edu/u/if/mamunm/psp/gbrv1.5pbe/Cr.UPF
     MD5 check sum: 0d52af634a40206e4dee301ad30da4bf
     Pseudo is Ultrasoft + core correction, Zval = 14.0
     Generated by new atomic code, or converted to UPF format
     Using radial grid of  857 points,  6 beta functions with:
                l(1) =   0
                l(2) =   0
                l(3) =   1
                l(4) =   1
                l(5) =   2
                l(6) =   2
     Q(r) pseudized with  8 coefficients,  rinner =    0.950   0.950   0.950
                                                       0.950   0.950

     PseudoPot. # 2 for Zr read from file:
     /afs/slac.stanford.edu/u/if/mamunm/psp/gbrv1.5pbe/Zr.UPF
     MD5 check sum: 5db81b1e868ab7776c4564c113de050b
     Pseudo is Ultrasoft + core correction, Zval = 12.0
     Generated by new atomic code, or converted to UPF format
     Using radial grid of  887 points,  6 beta functions with:
                l(1) =   0
                l(2) =   0
                l(3) =   1
                l(4) =   1
                l(5) =   2
                l(6) =   2
     Q(r) pseudized with  6 coefficients,  rinner =    1.200   1.200   1.200
                                                       1.200   1.200

     vdW kernel table read from file vdW_kernel_table
     MD5 check sum: 095c7af220d748ca6e76c0b4c6cfb241

     atomic species   valence    mass     pseudopotential
        Cr1           14.00    51.99610     Cr( 1.00)
        Zr1           12.00    91.22400     Zr( 1.00)

     No symmetry found

   Cartesian axes

     site n.     atom                  positions (alat units)
         1           Cr1 tau(   1) = (   0.0000000   0.0000000  10.0000000  )
         2           Cr1 tau(   2) = (   3.7423193   2.6456364  10.0000000  )
         3           Zr1 tau(   3) = (   2.8063273   0.0000000  10.0000000  )
         4           Zr1 tau(   4) = (   0.9359920   2.6456364  10.0000000  )
         5           Cr1 tau(   5) = (   5.6126545   3.9678718  12.2915247  )
         6           Cr1 tau(   6) = (   1.8703353   1.3222354  12.2915247  )
         7           Zr1 tau(   7) = (   2.8063273   3.9678718  12.2915247  )
         8           Zr1 tau(   8) = (   4.6766626   1.3222354  12.2915247  )
         9           Cr1 tau(   9) = (   3.7407801   2.6445484  14.4089689  )
        10           Cr1 tau(  10) = (   7.4831699   5.2902343  14.4090352  )
        11           Zr1 tau(  11) = (   6.5476785   2.6447039  14.5792228  )
        12           Zr1 tau(  12) = (   4.6771093   5.2906708  14.5792281  )

     number of k points=    20  Fermi-Dirac smearing, width (Ry)=  0.0110
                       cart. coord. in units 2pi/alat
        k(    1) = (   0.0000000   0.0000000   0.0000000), wk =   0.0555556
        k(    2) = (   0.0000000   0.0314984   0.0000000), wk =   0.1111111
        k(    3) = (   0.0000000   0.0629968   0.0000000), wk =   0.1111111
        k(    4) = (   0.0000000  -0.0944952   0.0000000), wk =   0.0555556
        k(    5) = (   0.0296948  -0.0105056   0.0000000), wk =   0.1111111
        k(    6) = (   0.0296948   0.0209928   0.0000000), wk =   0.1111111
        k(    7) = (   0.0296948   0.0524912   0.0000000), wk =   0.1111111
        k(    8) = (   0.0296948  -0.1050009   0.0000000), wk =   0.1111111
        k(    9) = (   0.0296948  -0.0735025   0.0000000), wk =   0.1111111
        k(   10) = (   0.0296948  -0.0420040   0.0000000), wk =   0.1111111
        k(   11) = (   0.0593896  -0.0210113   0.0000000), wk =   0.1111111
        k(   12) = (   0.0593896   0.0104871   0.0000000), wk =   0.1111111
        k(   13) = (   0.0593896   0.0419855   0.0000000), wk =   0.1111111
        k(   14) = (   0.0593896  -0.1155065   0.0000000), wk =   0.1111111
        k(   15) = (   0.0593896  -0.0840081   0.0000000), wk =   0.1111111
        k(   16) = (   0.0593896  -0.0525097   0.0000000), wk =   0.1111111
        k(   17) = (  -0.0890844   0.0315169   0.0000000), wk =   0.0555556
        k(   18) = (  -0.0890844   0.0630153   0.0000000), wk =   0.1111111
        k(   19) = (  -0.0890844   0.0945137   0.0000000), wk =   0.1111111
        k(   20) = (  -0.0890844  -0.0629783   0.0000000), wk =   0.0555556

     Largest allocated arrays     est. size (Mb)     dimensions
     Largest temporary arrays     est. size (Mb)     dimensions

     Check: negative/imaginary core charge=   -0.000002    0.000000

     Initial potential from superposition of free atoms
     Check: negative starting charge=   -0.373739

     starting charge  149.98701, renormalised to  156.00000

[...]

     *
     * You are using vdW-DF for exchange-correlation in this calculation.
     * Please cite the following three references that made this development
     * possible:
     *
     *   M. Dion, H. Rydberg, E. Schroder, D. C. Langreth, and
     *   B. I. Lundqvist, Phys. Rev. Lett. 92, 246401 (2004).
     *
     *   T. Thonhauser, V. R. Cooper, S. Li, A. Puzder, P. Hyldgaard, and
     *   D. C. Langreth, Phys. Rev. B 76, 125112 (2007).
     *
     *   G. Roman-Perez and J. M. Soler, Phys. Rev. Lett. 103, 096102 (2009).
     *
     *
     * If you are using vdW-DF2, please also cite:
     *
     *   K. Lee, E. D. Murray, L. Kong, B. I. Lundqvist, and
     *   D. C. Langreth, Phys. Rev. B 82, 081101(R) (2010).
     *
     *
     * If you are calculating the stress with vdW-DF, please also cite:
     *
     *   R. Sabatini, E. Kucukbenli, B. Kolb, T. Thonhauser, and
     *   S. de Gironcoli, J. Phys.: Condens. Matter 24, 424209 (2012).
     *

     Carrying out vdW-DF run using the following parameters:

     Nqs =      20    Nr_points =    1024   r_max =   100.000
     q_mesh =
               0.00001000     0.04494208     0.09755937     0.15916263
               0.23128650     0.31572767     0.41458969     0.53033537
               0.66584808     0.82450364     1.01025438     1.22772762
               1.48234092     1.78043706     2.12944203     2.53805004
               3.01644009     3.57652955     4.23227104     5.00000000

     Gradients computed in reciprocal space

[...]

     Starting wfc are  138 randomized atomic wfcs

     Self-consistent Calculation

[...]

     total energy              =   -1655.82224456 Ry
     Harris-Foulkes estimate   =   -1655.82224579 Ry
     estimated scf accuracy    <       0.00000148 Ry

     iteration # 27     ecut=    36.75 Ry     beta=0.10
     Davidson diagonalization with overlap
     ethr =  9.46E-10,  avg # of iterations =  2.1

[...]

     negative rho (up, down):  3.813E-01 0.000E+00

     Adding external electric field

     Computed dipole along edir(3) :
        Dipole                0.0410 Ry au,          0.1042 Debye
        Dipole field          0.0001 Ry au

        Potential amp.       -0.0095 Ry
        Total length         45.2938 bohr

     End of self-consistent calculation

[...]

          k = 0.0594-0.0525 0.0000 ( 18550 PWs)   bands (ev):

[...]

          k =-0.0891-0.0630 0.0000 ( 18552 PWs)   bands (ev):

   -70.0304 -70.0277 -69.9895 -69.9867 -69.9539 -69.9509 -47.4778 -47.4489
   -47.4370 -47.4079 -46.8471 -46.8012 -41.3844 -41.3824 -41.3660 -41.3622
   -41.3601 -41.3565 -41.3277 -41.3118 -41.3116 -41.3058 -41.3026 -41.2898
   -41.2678 -41.2650 -41.2358 -41.2347 -41.2316 -41.2309 -25.6637 -25.6407
   -25.5946 -25.5251 -25.5211 -25.5127 -25.4748 -25.4493 -25.4302 -25.3863
   -25.2057 -25.1846 -25.1117 -24.8605 -24.8575 -24.8356 -24.8120 -24.6414
    -2.2058  -2.1105  -1.2384  -1.0645  -0.9891  -0.7969  -0.6803  -0.6728
    -0.6247  -0.2063   0.0354   0.0485   0.1877   0.1900   0.2687   0.3318
     0.4626   0.5292   0.5380   0.5818   0.5901   0.7585   0.8982   1.0254
     1.0304   1.0313   1.0395   1.1306   1.1630   1.2343   1.2984   1.3028
     1.3707   1.3965   1.5109   1.5585   1.6143   1.7675   1.8063   1.9226
     1.9857   2.3011   2.7593   2.8005   2.8119   2.8125   2.9010   2.9144
     3.0183   3.3646   3.4175   3.4649   3.5486   3.6321   3.6659   3.6730
     3.9618   4.0315   4.3728   4.5326

     the Fermi energy is     1.3160 ev

!    total energy              =   -1655.82223728 Ry
     Harris-Foulkes estimate   =   -1655.82224545 Ry
     estimated scf accuracy    <       0.00000081 Ry

     The total energy is the sum of the following terms:

     one-electron contribution =  -12634.16133554 Ry
     hartree contribution      =    6310.04968095 Ry
     xc contribution           =    -250.18593460 Ry
     ewald contribution        =    4918.61230188 Ry
     electric field correction =       0.00000429 Ry
     smearing contrib. (-TS)   =      -0.13695424 Ry

     convergence has been achieved in  27 iterations

 BEEF-vdW xc energy contributions
           1 :   -215.659844157598
           2 :    194.652755686052
           3 :   -159.402059938417
           4 :    120.213082316079
           5 :   -86.4522112373539
           6 :    63.1408868244453
           7 :   -50.0890516494146
           8 :    43.5161968856051
           9 :   -38.8777845060504
          10 :    33.2563170177834
          11 :   -26.2521296274252
          12 :    19.3053706438433
          13 :   -14.2076159688369
          14 :    11.8097278400595
          15 :   -11.6046586778265
          16 :    12.2271940428796
          17 :   -12.3831050395236
          18 :    11.5628546492462
          19 :   -10.1493861647693
          20 :    8.96587006150287
          21 :   -8.64155433036865
          22 :    9.21324483558857
          23 :   -10.1664350422724
          24 :    10.8183523033335
          25 :   -10.7553234005915
          26 :    10.0457686286690
          27 :   -9.12798306491237
          28 :    8.48465778170188
          29 :   -8.33603962296249
          30 :    8.54145137549904
          31 :   -22.8539684964940
          32 :   -16.7096118727141

     Forces acting on atoms (Ry/au):

     negative rho (up, down):  3.813E-01 0.000E+00
     atom    1 type  1   force =    -0.00000154   -0.00000102    0.02669356
     atom    2 type  1   force =     0.00000553    0.00000386    0.02668648
     atom    3 type  2   force =    -0.00011818   -0.00002164   -0.00815829
     atom    4 type  2   force =    -0.00006033   -0.00010453   -0.00815831
     atom    5 type  1   force =     0.00001996    0.00001417    0.00368683
     atom    6 type  1   force =     0.00002308    0.00001626    0.00367025
     atom    7 type  2   force =     0.00003711    0.00003633   -0.02107997
     atom    8 type  2   force =     0.00004623    0.00002253   -0.02108004
     atom    9 type  1   force =     0.00003008    0.00002126   -0.00145841
     atom   10 type  1   force =     0.00000527    0.00000368   -0.00147421
     atom   11 type  2   force =     0.00000043    0.00001276    0.00033642
     atom   12 type  2   force =     0.00001235   -0.00000365    0.00033569

     Total force =     0.049781     Total SCF correction =     0.003298

     entering subroutine stress ...

     negative rho (up, down):  3.813E-01 0.000E+00
          total   stress  (Ry/bohr**3)                   (kbar)     P=  -15.93
  -0.00015572  -0.00003235   0.00000019        -22.91     -4.76      0.03
  -0.00003235  -0.00013283   0.00000014         -4.76    -19.54      0.02
   0.00000019   0.00000014  -0.00003639          0.03      0.02     -5.35

 !ASE

     Writing output data file calc.save

     General routines

     Parallel routines

   This run was terminated on:   9:24:12  19Dec2018

   JOB DONE.
Job  /afs/slac/g/suncat/bin/suncat-tsmpirun -x LD_LIBRARY_PATH -wdir /scratch/qe529779_zjoIg pw.x -in pw.inp

TID   HOST_NAME   COMMAND_LINE            STATUS            TERMINATION_TIME
00000 suncat0134 pw.x -in pw.inp   Done                     12/19/2018 09:24:12
00001 suncat0134 pw.x -in pw.inp   Done                     12/19/2018 09:24:12
00002 suncat0134 pw.x -in pw.inp   Done                     12/19/2018 09:24:12
00003 suncat0134 pw.x -in pw.inp   Done                     12/19/2018 09:24:12
00004 suncat0134 pw.x -in pw.inp   Done                     12/19/2018 09:24:12
00005 suncat0134 pw.x -in pw.inp   Done                     12/19/2018 09:24:12
00006 suncat0134 pw.x -in pw.inp   Done                     12/19/2018 09:24:12
00007 suncat0134 pw.x -in pw.inp   Done                     12/19/2018 09:24:12
00008 suncat0133 pw.x -in pw.inp   Done                     12/19/2018 09:24:12
00009 suncat0133 pw.x -in pw.inp   Done                     12/19/2018 09:24:12
00010 suncat0133 pw.x -in pw.inp   Done                     12/19/2018 09:24:12
00011 suncat0133 pw.x -in pw.inp   Done                     12/19/2018 09:24:12
00012 suncat0133 pw.x -in pw.inp   Done                     12/19/2018 09:24:12
00013 suncat0133 pw.x -in pw.inp   Done                     12/19/2018 09:24:12
00014 suncat0133 pw.x -in pw.inp   Done                     12/19/2018 09:24:12
00015 suncat0133 pw.x -in pw.inp   Done                     12/19/2018 09:24:12
00016 suncat0132 pw.x -in pw.inp   Done                     12/19/2018 09:24:12
00017 suncat0132 pw.x -in pw.inp   Done                     12/19/2018 09:24:12
00018 suncat0132 pw.x -in pw.inp   Done                     12/19/2018 09:24:12
00019 suncat0132 pw.x -in pw.inp   Done                     12/19/2018 09:24:12
00020 suncat0132 pw.x -in pw.inp   Done                     12/19/2018 09:24:12
00021 suncat0132 pw.x -in pw.inp   Done                     12/19/2018 09:24:12
00022 suncat0132 pw.x -in pw.inp   Done                     12/19/2018 09:24:12
00023 suncat0132 pw.x -in pw.inp   Done                     12/19/2018 09:24:12
00024 suncat0131 pw.x -in pw.inp   Done                     12/19/2018 09:24:12
00025 suncat0131 pw.x -in pw.inp   Done                     12/19/2018 09:24:12
00026 suncat0131 pw.x -in pw.inp   Done                     12/19/2018 09:24:12
00027 suncat0131 pw.x -in pw.inp   Done                     12/19/2018 09:24:12
00028 suncat0131 pw.x -in pw.inp   Done                     12/19/2018 09:24:12
00029 suncat0131 pw.x -in pw.inp   Done                     12/19/2018 09:24:12
00030 suncat0131 pw.x -in pw.inp   Done                     12/19/2018 09:24:12
00031 suncat0131 pw.x -in pw.inp   Done                     12/19/2018 09:24:12