     Program PWSCF v.5.1rc2 (svn rev. 11289) starts on 28Dec2018 at  4: 8:10

     Current dimensions of program PWSCF are:
     Max number of different atomic species (ntypx) = 10
     Max number of k-points (npk) =  40000
     Max angular momentum in pseudopotentials (lmaxx) =  3
     Presently stress not available with electric field

     IMPORTANT: XC functional enforced from input :
     Exchange-correlation      = BEEF-VDW ( 1  4 27 13 2)
     Any further DFT definition will be discarded
     Please, verify this is what you really want

     Subspace diagonalization in iterative solution of the eigenvalue problem:
     a serial algorithm will be used

     Found symmetry operation: I + ( -0.5000  0.5000  0.0000)
     This is a supercell, fractional translations are disabled

     Generating pointlists ...
     new r_m :   0.4125 (alat units)  0.7795 (a.u.) for type    1
     new r_m :   0.4125 (alat units)  0.7795 (a.u.) for type    2

     bravais-lattice index     =            0
     lattice parameter (alat)  =       1.8897  a.u.
     unit-cell volume          =    5668.7044 (a.u.)^3
     number of atoms/cell      =           12
     number of atomic types    =            2
     number of electrons       =       180.00
     number of Kohn-Sham states=          120
     kinetic-energy cutoff     =      36.7493  Ry
     charge density cutoff     =     367.4932  Ry
     convergence threshold     =      1.0E-06
     mixing beta               =       0.1000
     number of iterations used =           10  plain     mixing
     Exchange-correlation      = BEEF-VDW ( 1  4 27 13 2)
     nstep                     =           50

     celldm(1)=   1.889726  celldm(2)=   0.000000  celldm(3)=   0.000000
     celldm(4)=   0.000000  celldm(5)=   0.000000  celldm(6)=   0.000000

     crystal axes: (cart. coord. in units of alat)
               a(1) = (   5.970643   0.000000   0.000000 )
               a(2) = (   1.889510   5.663773   0.000000 )
               a(3) = (   0.000000   0.000000  24.840497 )

     reciprocal axes: (cart. coord. in units 2 pi/alat)
               b(1) = (  0.167486 -0.055876  0.000000 )
               b(2) = (  0.000000  0.176561  0.000000 )
               b(3) = (  0.000000  0.000000  0.040257 )

     PseudoPot. # 1 for Fe read from file:
     /afs/slac.stanford.edu/u/if/mamunm/psp/gbrv1.5pbe/Fe.UPF
     MD5 check sum: a130daea23fe5165f5d574ae7f82ed95
     Pseudo is Ultrasoft + core correction, Zval = 16.0
     Generated by new atomic code, or converted to UPF format
     Using radial grid of  861 points,  6 beta functions with:
                l(1) =   0
                l(2) =   0
                l(3) =   1
                l(4) =   1
                l(5) =   2
                l(6) =   2
     Q(r) pseudized with  8 coefficients,  rinner =    1.000   1.000   1.000
                                                       1.000   1.000

     PseudoPot. # 2 for Pb read from file:
     /afs/slac.stanford.edu/u/if/mamunm/psp/gbrv1.5pbe/Pb.UPF
     MD5 check sum: 3d1c1779aa92214d1e8f3a7db79003e2
     Pseudo is Ultrasoft + core correction, Zval = 14.0
     Generated by new atomic code, or converted to UPF format
     Using radial grid of  899 points,  6 beta functions with:
                l(1) =   0
                l(2) =   0
                l(3) =   1
                l(4) =   1
                l(5) =   2
                l(6) =   2
     Q(r) pseudized with  6 coefficients,  rinner =    1.000   1.000   1.000
                                                       1.000   1.000

     vdW kernel table read from file vdW_kernel_table
     MD5 check sum: 095c7af220d748ca6e76c0b4c6cfb241

     atomic species   valence    mass     pseudopotential
        Fe1           16.00    55.84500     Fe( 1.00)
        Pb1           14.00   207.20000     Pb( 1.00)

     Starting magnetic structure
     atomic species   magnetization
        Fe1          0.125
        Pb1          0.143

     No symmetry found

   Cartesian axes

     site n.     atom                  positions (alat units)
         1           Fe1 tau(   1) = (   0.0000000   0.0000000  10.0000000  )
         2           Fe1 tau(   2) = (   3.9300762   2.8318865  10.0000000  )
         3           Pb1 tau(   3) = (   2.9853213   0.0000000  10.0000000  )
         4           Pb1 tau(   4) = (   0.9447549   2.8318865  10.0000000  )
         5           Fe1 tau(   5) = (   5.9706426   4.3022530  12.4202487  )
         6           Fe1 tau(   6) = (   2.0405664   1.4703665  12.4202487  )
         7           Pb1 tau(   7) = (   2.9853213   4.3022530  12.4202487  )
         8           Pb1 tau(   8) = (   5.0258877   1.4703665  12.4202487  )
         9           Fe1 tau(   9) = (   4.0811327   2.9407330  14.8404974  )
        10           Fe1 tau(  10) = (   0.1510565   0.1088465  14.8404974  )
        11           Pb1 tau(  11) = (   1.0958114   2.9407330  14.8404974  )
        12           Pb1 tau(  12) = (   3.1363778   0.1088465  14.8404974  )

     number of k points=    40  Fermi-Dirac smearing, width (Ry)=  0.0110
                       cart. coord. in units 2pi/alat
        k(    1) = (   0.0000000   0.0000000   0.0000000), wk =   0.0277778
        k(    2) = (   0.0000000   0.0294268   0.0000000), wk =   0.0555556
        k(    3) = (   0.0000000   0.0588536   0.0000000), wk =   0.0555556
        k(    4) = (   0.0000000  -0.0882804   0.0000000), wk =   0.0277778
        k(    5) = (   0.0279144  -0.0093126   0.0000000), wk =   0.0555556
        k(    6) = (   0.0279144   0.0201142   0.0000000), wk =   0.0555556
        k(    7) = (   0.0279144   0.0495410   0.0000000), wk =   0.0555556
        k(    8) = (   0.0279144  -0.0975930   0.0000000), wk =   0.0555556
        k(    9) = (   0.0279144  -0.0681662   0.0000000), wk =   0.0555556
        k(   10) = (   0.0279144  -0.0387394   0.0000000), wk =   0.0555556
        k(   11) = (   0.0558287  -0.0186252   0.0000000), wk =   0.0555556
        k(   12) = (   0.0558287   0.0108016   0.0000000), wk =   0.0555556
        k(   13) = (   0.0558287   0.0402284   0.0000000), wk =   0.0555556
        k(   14) = (   0.0558287  -0.1069056   0.0000000), wk =   0.0555556
        k(   15) = (   0.0558287  -0.0774788   0.0000000), wk =   0.0555556
        k(   16) = (   0.0558287  -0.0480520   0.0000000), wk =   0.0555556
        k(   17) = (  -0.0837431   0.0279378   0.0000000), wk =   0.0277778
        k(   18) = (  -0.0837431   0.0573646   0.0000000), wk =   0.0555556
        k(   19) = (  -0.0837431   0.0867914   0.0000000), wk =   0.0555556
        k(   20) = (  -0.0837431  -0.0603426   0.0000000), wk =   0.0277778
        k(   21) = (   0.0000000   0.0000000   0.0000000), wk =   0.0277778
        k(   22) = (   0.0000000   0.0294268   0.0000000), wk =   0.0555556
        k(   23) = (   0.0000000   0.0588536   0.0000000), wk =   0.0555556
        k(   24) = (   0.0000000  -0.0882804   0.0000000), wk =   0.0277778
        k(   25) = (   0.0279144  -0.0093126   0.0000000), wk =   0.0555556
        k(   26) = (   0.0279144   0.0201142   0.0000000), wk =   0.0555556
        k(   27) = (   0.0279144   0.0495410   0.0000000), wk =   0.0555556
        k(   28) = (   0.0279144  -0.0975930   0.0000000), wk =   0.0555556
        k(   29) = (   0.0279144  -0.0681662   0.0000000), wk =   0.0555556
        k(   30) = (   0.0279144  -0.0387394   0.0000000), wk =   0.0555556
        k(   31) = (   0.0558287  -0.0186252   0.0000000), wk =   0.0555556
        k(   32) = (   0.0558287   0.0108016   0.0000000), wk =   0.0555556
        k(   33) = (   0.0558287   0.0402284   0.0000000), wk =   0.0555556
        k(   34) = (   0.0558287  -0.1069056   0.0000000), wk =   0.0555556
        k(   35) = (   0.0558287  -0.0774788   0.0000000), wk =   0.0555556
        k(   36) = (   0.0558287  -0.0480520   0.0000000), wk =   0.0555556
        k(   37) = (  -0.0837431   0.0279378   0.0000000), wk =   0.0277778
        k(   38) = (  -0.0837431   0.0573646   0.0000000), wk =   0.0555556
        k(   39) = (  -0.0837431   0.0867914   0.0000000), wk =   0.0555556
        k(   40) = (  -0.0837431  -0.0603426   0.0000000), wk =   0.0277778

     Largest allocated arrays     est. size (Mb)     dimensions
     Largest temporary arrays     est. size (Mb)     dimensions

     Check: negative/imaginary core charge=   -0.000004    0.000000

     Initial potential from superposition of free atoms
     Check: negative starting charge=(component1):   -0.058070
     Check: negative starting charge=(component2):   -0.043548

     starting charge  173.98586, renormalised to  180.00000

     negative rho (up, down):  6.008E-02 4.505E-02

     *
     * You are using vdW-DF for exchange-correlation in this calculation.
     * Please cite the following three references that made this development
     * possible:
     *
     *   M. Dion, H. Rydberg, E. Schroder, D. C. Langreth, and
     *   B. I. Lundqvist, Phys. Rev. Lett. 92, 246401 (2004).
     *
     *   T. Thonhauser, V. R. Cooper, S. Li, A. Puzder, P. Hyldgaard, and
     *   D. C. Langreth, Phys. Rev. B 76, 125112 (2007).
     *
     *   G. Roman-Perez and J. M. Soler, Phys. Rev. Lett. 103, 096102 (2009).
     *
     *
     * If you are using vdW-DF2, please also cite:
     *
     *   K. Lee, E. D. Murray, L. Kong, B. I. Lundqvist, and
     *   D. C. Langreth, Phys. Rev. B 82, 081101(R) (2010).
     *
     *
     * If you are calculating the stress with vdW-DF, please also cite:
     *
     *   R. Sabatini, E. Kucukbenli, B. Kolb, T. Thonhauser, and
     *   S. de Gironcoli, J. Phys.: Condens. Matter 24, 424209 (2012).
     *

     Carrying out vdW-DF run using the following parameters:

     Nqs =      20    Nr_points =    1024   r_max =   100.000
     q_mesh =
               0.00001000     0.04494208     0.09755937     0.15916263
               0.23128650     0.31572767     0.41458969     0.53033537
               0.66584808     0.82450364     1.01025438     1.22772762
               1.48234092     1.78043706     2.12944203     2.53805004
               3.01644009     3.57652955     4.23227104     5.00000000

     Gradients computed in reciprocal space

     Adding external electric field

     Computed dipole along edir(3) :
        Dipole               -0.0000 Ry au,         -0.0000 Debye
        Dipole field         -0.0000 Ry au

        Potential amp.        0.0000 Ry
        Total length         45.7682 bohr

[...]

     Starting wfc are  132 randomized atomic wfcs

     Self-consistent Calculation

     iteration #  1     ecut=    36.75 Ry     beta=0.10
     Davidson diagonalization with overlap
     ethr =  1.00E-02,  avg # of iterations =  6.7

[...]

     Magnetic moment per site:
     atom:    1    charge:    7.2549    magn:    0.8789    constr:    0.0000
     atom:    2    charge:    7.2549    magn:    0.8789    constr:    0.0000
     atom:    3    charge:    1.7854    magn:    0.2325    constr:    0.0000
     atom:    4    charge:    1.7855    magn:    0.2325    constr:    0.0000
     atom:    5    charge:    7.2444    magn:    0.8777    constr:    0.0000
     atom:    6    charge:    7.2444    magn:    0.8777    constr:    0.0000
[...]
        k(    3) = (   0.0000000   0.0588536   0.0000000), wk =   0.0555556
        k(    4) = (   0.0000000  -0.0882804   0.0000000), wk =   0.0277778
        k(    5) = (   0.0279144  -0.0093126   0.0000000), wk =   0.0555556
        k(    6) = (   0.0279144   0.0201142   0.0000000), wk =   0.0555556
        k(    7) = (   0.0279144   0.0495410   0.0000000), wk =   0.0555556
        k(    8) = (   0.0279144  -0.0975930   0.0000000), wk =   0.0555556
        k(    9) = (   0.0279144  -0.0681662   0.0000000), wk =   0.0555556
        k(   10) = (   0.0279144  -0.0387394   0.0000000), wk =   0.0555556
        k(   11) = (   0.0558287  -0.0186252   0.0000000), wk =   0.0555556
        k(   12) = (   0.0558287   0.0108016   0.0000000), wk =   0.0555556
        k(   13) = (   0.0558287   0.0402284   0.0000000), wk =   0.0555556
        k(   14) = (   0.0558287  -0.1069056   0.0000000), wk =   0.0555556
        k(   15) = (   0.0558287  -0.0774788   0.0000000), wk =   0.0555556
        k(   16) = (   0.0558287  -0.0480520   0.0000000), wk =   0.0555556
        k(   17) = (  -0.0837431   0.0279378   0.0000000), wk =   0.0277778
        k(   18) = (  -0.0837431   0.0573646   0.0000000), wk =   0.0555556
        k(   19) = (  -0.0837431   0.0867914   0.0000000), wk =   0.0555556
        k(   20) = (  -0.0837431  -0.0603426   0.0000000), wk =   0.0277778
        k(   21) = (   0.0000000   0.0000000   0.0000000), wk =   0.0277778
        k(   22) = (   0.0000000   0.0294268   0.0000000), wk =   0.0555556
        k(   23) = (   0.0000000   0.0588536   0.0000000), wk =   0.0555556
        k(   24) = (   0.0000000  -0.0882804   0.0000000), wk =   0.0277778
        k(   25) = (   0.0279144  -0.0093126   0.0000000), wk =   0.0555556
        k(   26) = (   0.0279144   0.0201142   0.0000000), wk =   0.0555556
        k(   27) = (   0.0279144   0.0495410   0.0000000), wk =   0.0555556
        k(   28) = (   0.0279144  -0.0975930   0.0000000), wk =   0.0555556
        k(   29) = (   0.0279144  -0.0681662   0.0000000), wk =   0.0555556
        k(   30) = (   0.0279144  -0.0387394   0.0000000), wk =   0.0555556
        k(   31) = (   0.0558287  -0.0186252   0.0000000), wk =   0.0555556
        k(   32) = (   0.0558287   0.0108016   0.0000000), wk =   0.0555556
        k(   33) = (   0.0558287   0.0402284   0.0000000), wk =   0.0555556
        k(   34) = (   0.0558287  -0.1069056   0.0000000), wk =   0.0555556
        k(   35) = (   0.0558287  -0.0774788   0.0000000), wk =   0.0555556
        k(   36) = (   0.0558287  -0.0480520   0.0000000), wk =   0.0555556
        k(   37) = (  -0.0837431   0.0279378   0.0000000), wk =   0.0277778
        k(   38) = (  -0.0837431   0.0573646   0.0000000), wk =   0.0555556
        k(   39) = (  -0.0837431   0.0867914   0.0000000), wk =   0.0555556
        k(   40) = (  -0.0837431  -0.0603426   0.0000000), wk =   0.0277778

     Largest allocated arrays     est. size (Mb)     dimensions
     Largest temporary arrays     est. size (Mb)     dimensions

     Check: negative/imaginary core charge=   -0.000004    0.000000

     Initial potential from superposition of free atoms
     Check: negative starting charge=(component1):   -0.057626
     Check: negative starting charge=(component2):   -0.043216

     starting charge  173.98586, renormalised to  180.00000

[...]

     *
     * You are using vdW-DF for exchange-correlation in this calculation.
     * Please cite the following three references that made this development
     * possible:
     *
     *   M. Dion, H. Rydberg, E. Schroder, D. C. Langreth, and
     *   B. I. Lundqvist, Phys. Rev. Lett. 92, 246401 (2004).
     *
     *   T. Thonhauser, V. R. Cooper, S. Li, A. Puzder, P. Hyldgaard, and
     *   D. C. Langreth, Phys. Rev. B 76, 125112 (2007).
     *
     *   G. Roman-Perez and J. M. Soler, Phys. Rev. Lett. 103, 096102 (2009).
     *
     *
     * If you are using vdW-DF2, please also cite:
     *
     *   K. Lee, E. D. Murray, L. Kong, B. I. Lundqvist, and
     *   D. C. Langreth, Phys. Rev. B 82, 081101(R) (2010).
     *
     *
     * If you are calculating the stress with vdW-DF, please also cite:
     *
     *   R. Sabatini, E. Kucukbenli, B. Kolb, T. Thonhauser, and
     *   S. de Gironcoli, J. Phys.: Condens. Matter 24, 424209 (2012).
     *

     Carrying out vdW-DF run using the following parameters:

     Nqs =      20    Nr_points =    1024   r_max =   100.000
     q_mesh =
               0.00001000     0.04494208     0.09755937     0.15916263
               0.23128650     0.31572767     0.41458969     0.53033537
               0.66584808     0.82450364     1.01025438     1.22772762
               1.48234092     1.78043706     2.12944203     2.53805004
               3.01644009     3.57652955     4.23227104     5.00000000

     Gradients computed in reciprocal space

[...]

     Starting wfc are  132 randomized atomic wfcs

     Self-consistent Calculation

[...]

     total energy              =   -2503.69952800 Ry
     Harris-Foulkes estimate   =   -2503.69952708 Ry
     estimated scf accuracy    <       0.00000336 Ry

[...]

     iteration # 36     ecut=    36.75 Ry     beta=0.10
     Davidson diagonalization with overlap
     ethr =  1.29E-09,  avg # of iterations =  1.5

[...]

     negative rho (up, down):  5.366E-02 5.598E-02

[...]

     Adding external electric field

     Computed dipole along edir(3) :
        Dipole                0.0637 Ry au,          0.1619 Debye
        Dipole field          0.0001 Ry au

        Potential amp.       -0.0129 Ry
        Total length         45.7682 bohr

     Magnetic moment per site:
     atom:    1    charge:    7.1088    magn:    1.3473    constr:    0.0000
     atom:    2    charge:    7.1088    magn:    1.3474    constr:    0.0000
     atom:    3    charge:    1.7491    magn:   -0.0027    constr:    0.0000
     atom:    4    charge:    1.7491    magn:   -0.0027    constr:    0.0000
     atom:    5    charge:    7.0962    magn:    1.2806    constr:    0.0000
     atom:    6    charge:    7.0962    magn:    1.2806    constr:    0.0000
     atom:    7    charge:    1.7499    magn:   -0.0018    constr:    0.0000
     atom:    8    charge:    1.7499    magn:   -0.0018    constr:    0.0000
     atom:    9    charge:    7.1047    magn:    1.2928    constr:    0.0000
     atom:   10    charge:    7.1044    magn:    1.2929    constr:    0.0000
     atom:   11    charge:    1.7458    magn:   -0.0025    constr:    0.0000
     atom:   12    charge:    1.7458    magn:   -0.0025    constr:    0.0000

     End of self-consistent calculation

 ------ SPIN UP ------------

[...]

 ------ SPIN DOWN ----------

[...]

          k = 0.0558-0.0481 0.0000 ( 21325 PWs)   bands (ev):

[...]

          k =-0.0837-0.0603 0.0000 ( 21362 PWs)   bands (ev):

   -84.4328 -84.4325 -84.3930 -84.3927 -84.3693 -84.3688 -50.5859 -50.5853
   -50.5645 -50.5594 -50.5589 -50.5587 -50.5320 -50.5263 -50.5261 -50.5251
   -50.5227 -50.5223 -50.5210 -50.5207 -50.5130 -50.5076 -50.3622 -50.3618
   -16.3155 -16.2413 -16.2355 -16.2161 -16.2029 -16.1750 -16.1692 -16.1472
   -16.1265 -16.1098 -16.1011 -16.0889 -16.0880 -16.0653 -16.0454 -16.0395
   -16.0394 -16.0390 -16.0236 -16.0201 -15.9971 -15.9952 -15.9888 -15.9747
   -15.9672 -15.9508 -15.9451 -15.9197 -15.8886 -15.8427  -8.8518  -8.2854
    -7.9025  -7.7590  -6.6474  -5.4558  -4.0720  -3.8644  -3.1600  -2.4044
    -1.7949  -1.5976  -1.1718  -0.8356  -0.3500  -0.2537   0.0446   0.0968
     0.1490   0.1667   0.4786   0.6282   0.6898   0.8214   0.8474   0.9887
     1.0317   1.1490   1.2214   1.3040   1.3354   1.4310   1.4561   1.5843
     1.7280   1.8005   1.8526   1.8570   1.9399   1.9756   1.9982   2.0682
     2.1008   2.2273   2.7378   3.0327   3.5199   3.9074   4.1237   4.3146
     4.5977   4.6806   4.8756   5.0322   5.4018   5.5486   5.7129   5.7134
     6.1009   6.1594   6.3255   6.3474   6.4264   6.4657   6.5388   6.7233

     the Fermi energy is     1.0593 ev

!    total energy              =   -2503.69953053 Ry
     Harris-Foulkes estimate   =   -2503.69952954 Ry
     estimated scf accuracy    <       0.00000096 Ry

     The total energy is the sum of the following terms:

     one-electron contribution =  -14843.08121516 Ry
     hartree contribution      =    7456.10210314 Ry
     xc contribution           =    -573.81929358 Ry
     ewald contribution        =    5457.18222307 Ry
     electric field correction =       0.00000899 Ry
     smearing contrib. (-TS)   =      -0.08335699 Ry

     total magnetization       =    16.60 Bohr mag/cell
     absolute magnetization    =    18.73 Bohr mag/cell

     convergence has been achieved in  36 iterations

 BEEF-vdW xc energy contributions
           1 :   -508.641872105573
           2 :    468.384545089588
           3 :   -399.088603477946
           4 :    318.099844063437
           5 :   -241.889044321184
           6 :    180.673903576545
           7 :   -136.772279626633
           8 :    106.500809380834
           9 :   -83.8780768908861
          10 :    63.9985407772244
          11 :   -44.7360970807914
          12 :    26.5755234622419
          13 :   -11.3019065120924
          14 :   0.510406495702682
          15 :    5.34650334357514
          16 :   -7.14947048991371
          17 :    6.65413562375784
          18 :   -5.71121388363576
          19 :    5.52754078248711
          20 :   -6.30576728636879
          21 :    7.40347236260845
          22 :   -7.90696251781299
          23 :    7.27138134542440
          24 :   -5.66573554740273
          25 :    3.83799126404267
          26 :   -2.63510825366336
          27 :    2.50260665302710
          28 :   -3.28115773171260
          29 :    4.37798121858600
          30 :   -5.15689437260369
          31 :   -41.8583167924411
          32 :   -30.2576748802594

     Forces acting on atoms (Ry/au):

     negative rho (up, down):  5.366E-02 5.598E-02
     atom    1 type  1   force =    -0.00087831   -0.00063307    0.02405970
     atom    2 type  1   force =    -0.00088771   -0.00063984    0.02404508
     atom    3 type  2   force =     0.00223275    0.00162115   -0.02595559
     atom    4 type  2   force =     0.00224434    0.00160544   -0.02595633
     atom    5 type  1   force =    -0.00176830   -0.00127406    0.01105173
     atom    6 type  1   force =    -0.00184791   -0.00133164    0.01114311
     atom    7 type  2   force =     0.00001832    0.00008152   -0.00865445
     atom    8 type  2   force =     0.00008201   -0.00000945   -0.00865753
     atom    9 type  1   force =     0.00075366    0.00054254    0.00024973
     atom   10 type  1   force =     0.00075517    0.00054440    0.00029801
     atom   11 type  2   force =    -0.00033233   -0.00028124   -0.00081157
     atom   12 type  2   force =    -0.00037169   -0.00022574   -0.00081191

     Total force =     0.054146     Total SCF correction =     0.003452

     entering subroutine stress ...

     negative rho (up, down):  5.366E-02 5.598E-02
          total   stress  (Ry/bohr**3)                   (kbar)     P=   -9.15
  -0.00009510  -0.00000883  -0.00000196        -13.99     -1.30     -0.29
  -0.00000883  -0.00008921  -0.00000141         -1.30    -13.12     -0.21
  -0.00000196  -0.00000141  -0.00000232         -0.29     -0.21     -0.34

 !ASE

     Writing output data file calc.save

     General routines

     Parallel routines

   This run was terminated on:  18:19:21  28Dec2018

   JOB DONE.
Job  /afs/slac/g/suncat/bin/suncat-tsmpirun -x LD_LIBRARY_PATH -wdir /scratch/qe758136_w0gFA pw.x -in pw.inp

TID   HOST_NAME   COMMAND_LINE            STATUS            TERMINATION_TIME
00000 suncat0029 pw.x -in pw.inp   Done                     12/28/2018 18:19:21
00001 suncat0029 pw.x -in pw.inp   Done                     12/28/2018 18:19:21
00002 suncat0029 pw.x -in pw.inp   Done                     12/28/2018 18:19:21
00003 suncat0029 pw.x -in pw.inp   Done                     12/28/2018 18:19:21
00004 suncat0029 pw.x -in pw.inp   Done                     12/28/2018 18:19:21
00005 suncat0029 pw.x -in pw.inp   Done                     12/28/2018 18:19:21
00006 suncat0029 pw.x -in pw.inp   Done                     12/28/2018 18:19:21
00007 suncat0029 pw.x -in pw.inp   Done                     12/28/2018 18:19:21
00008 suncat0020 pw.x -in pw.inp   Done                     12/28/2018 18:19:21
00009 suncat0020 pw.x -in pw.inp   Done                     12/28/2018 18:19:21
00010 suncat0020 pw.x -in pw.inp   Done                     12/28/2018 18:19:21
00011 suncat0020 pw.x -in pw.inp   Done                     12/28/2018 18:19:21
00012 suncat0020 pw.x -in pw.inp   Done                     12/28/2018 18:19:21
00013 suncat0020 pw.x -in pw.inp   Done                     12/28/2018 18:19:21
00014 suncat0020 pw.x -in pw.inp   Done                     12/28/2018 18:19:21
00015 suncat0020 pw.x -in pw.inp   Done                     12/28/2018 18:19:21
00016 suncat0199 pw.x -in pw.inp   Done                     12/28/2018 18:19:21
00017 suncat0199 pw.x -in pw.inp   Done                     12/28/2018 18:19:21
00018 suncat0199 pw.x -in pw.inp   Done                     12/28/2018 18:19:21
00019 suncat0199 pw.x -in pw.inp   Done                     12/28/2018 18:19:21
00020 suncat0199 pw.x -in pw.inp   Done                     12/28/2018 18:19:21
00021 suncat0199 pw.x -in pw.inp   Done                     12/28/2018 18:19:21
00022 suncat0199 pw.x -in pw.inp   Done                     12/28/2018 18:19:21
00023 suncat0199 pw.x -in pw.inp   Done                     12/28/2018 18:19:21
00024 suncat0006 pw.x -in pw.inp   Done                     12/28/2018 18:19:21
00025 suncat0006 pw.x -in pw.inp   Done                     12/28/2018 18:19:21
00026 suncat0006 pw.x -in pw.inp   Done                     12/28/2018 18:19:21
00027 suncat0006 pw.x -in pw.inp   Done                     12/28/2018 18:19:21
00028 suncat0006 pw.x -in pw.inp   Done                     12/28/2018 18:19:21
00029 suncat0006 pw.x -in pw.inp   Done                     12/28/2018 18:19:21
00030 suncat0006 pw.x -in pw.inp   Done                     12/28/2018 18:19:21
00031 suncat0006 pw.x -in pw.inp   Done                     12/28/2018 18:19:21
00032 suncat0005 pw.x -in pw.inp   Done                     12/28/2018 18:19:21
00033 suncat0005 pw.x -in pw.inp   Done                     12/28/2018 18:19:21
00034 suncat0005 pw.x -in pw.inp   Done                     12/28/2018 18:19:21
00035 suncat0005 pw.x -in pw.inp   Done                     12/28/2018 18:19:21
00036 suncat0005 pw.x -in pw.inp   Done                     12/28/2018 18:19:21
00037 suncat0005 pw.x -in pw.inp   Done                     12/28/2018 18:19:21
00038 suncat0005 pw.x -in pw.inp   Done                     12/28/2018 18:19:21
00039 suncat0005 pw.x -in pw.inp   Done                     12/28/2018 18:19:21
00040 suncat0004 pw.x -in pw.inp   Done                     12/28/2018 18:19:21
00041 suncat0004 pw.x -in pw.inp   Done                     12/28/2018 18:19:21
00042 suncat0004 pw.x -in pw.inp   Done                     12/28/2018 18:19:21
00043 suncat0004 pw.x -in pw.inp   Done                     12/28/2018 18:19:21
00044 suncat0004 pw.x -in pw.inp   Done                     12/28/2018 18:19:21
00045 suncat0004 pw.x -in pw.inp   Done                     12/28/2018 18:19:21
00046 suncat0004 pw.x -in pw.inp   Done                     12/28/2018 18:19:21
00047 suncat0004 pw.x -in pw.inp   Done                     12/28/2018 18:19:21
00048 suncat0187 pw.x -in pw.inp   Done                     12/28/2018 18:19:21
00049 suncat0187 pw.x -in pw.inp   Done                     12/28/2018 18:19:21
00050 suncat0187 pw.x -in pw.inp   Done                     12/28/2018 18:19:21
00051 suncat0187 pw.x -in pw.inp   Done                     12/28/2018 18:19:21
00052 suncat0187 pw.x -in pw.inp   Done                     12/28/2018 18:19:21
00053 suncat0187 pw.x -in pw.inp   Done                     12/28/2018 18:19:21
00054 suncat0187 pw.x -in pw.inp   Done                     12/28/2018 18:19:21
00055 suncat0187 pw.x -in pw.inp   Done                     12/28/2018 18:19:21
00056 suncat0186 pw.x -in pw.inp   Done                     12/28/2018 18:19:21
00057 suncat0186 pw.x -in pw.inp   Done                     12/28/2018 18:19:21
00058 suncat0186 pw.x -in pw.inp   Done                     12/28/2018 18:19:21
00059 suncat0186 pw.x -in pw.inp   Done                     12/28/2018 18:19:21
00060 suncat0186 pw.x -in pw.inp   Done                     12/28/2018 18:19:21
00061 suncat0186 pw.x -in pw.inp   Done                     12/28/2018 18:19:21
00062 suncat0186 pw.x -in pw.inp   Done                     12/28/2018 18:19:21
00063 suncat0186 pw.x -in pw.inp   Done                     12/28/2018 18:19:21