     Program PWSCF v.5.1rc2 (svn rev. 11289) starts on 29Dec2018 at 11:23:21

     Current dimensions of program PWSCF are:
     Max number of different atomic species (ntypx) = 10
     Max number of k-points (npk) =  40000
     Max angular momentum in pseudopotentials (lmaxx) =  3
     Presently stress not available with electric field

     IMPORTANT: XC functional enforced from input :
     Exchange-correlation      = BEEF-VDW ( 1  4 27 13 2)
     Any further DFT definition will be discarded
     Please, verify this is what you really want

     Subspace diagonalization in iterative solution of the eigenvalue problem:
     a serial algorithm will be used

     Found symmetry operation: I + (  0.5000  0.5000  0.0000)
     This is a supercell, fractional translations are disabled

     bravais-lattice index     =            0
     lattice parameter (alat)  =       1.8897  a.u.
     unit-cell volume          =    8059.1676 (a.u.)^3
     number of atoms/cell      =           12
     number of atomic types    =            2
     number of electrons       =       150.00
     number of Kohn-Sham states=          105
     kinetic-energy cutoff     =      36.7493  Ry
     charge density cutoff     =     367.4932  Ry
     convergence threshold     =      1.0E-06
     mixing beta               =       0.1000
     number of iterations used =           10  plain     mixing
     Exchange-correlation      = BEEF-VDW ( 1  4 27 13 2)
     nstep                     =           50

     celldm(1)=   1.889726  celldm(2)=   0.000000  celldm(3)=   0.000000
     celldm(4)=   0.000000  celldm(5)=   0.000000  celldm(6)=   0.000000

     crystal axes: (cart. coord. in units of alat)
               a(1) = (   7.101392   0.000000   0.000000 )
               a(2) = (   2.865263   6.497695   0.000000 )
               a(3) = (   0.000000   0.000000  25.881578 )

     reciprocal axes: (cart. coord. in units 2 pi/alat)
               b(1) = (  0.140817 -0.062096  0.000000 )
               b(2) = (  0.000000  0.153901  0.000000 )
               b(3) = (  0.000000  0.000000  0.038638 )

     PseudoPot. # 1 for La read from file:
     /afs/slac.stanford.edu/u/if/mamunm/psp/gbrv1.5pbe/La.UPF
     MD5 check sum: 5937b0c7494ba0601a847275249473aa
     Pseudo is Ultrasoft + core correction, Zval = 11.0
     Generated by new atomic code, or converted to UPF format
     Using radial grid of  995 points,  8 beta functions with:
                l(1) =   0
                l(2) =   0
                l(3) =   1
                l(4) =   1
                l(5) =   2
                l(6) =   2
                l(7) =   3
                l(8) =   3
     Q(r) pseudized with  8 coefficients,  rinner =    1.700   1.700   1.700
                                                       1.700   1.700   1.700
                                                       1.700

     PseudoPot. # 2 for Pb read from file:
     /afs/slac.stanford.edu/u/if/mamunm/psp/gbrv1.5pbe/Pb.UPF
     MD5 check sum: 3d1c1779aa92214d1e8f3a7db79003e2
     Pseudo is Ultrasoft + core correction, Zval = 14.0
     Generated by new atomic code, or converted to UPF format
     Using radial grid of  899 points,  6 beta functions with:
                l(1) =   0
                l(2) =   0
                l(3) =   1
                l(4) =   1
                l(5) =   2
                l(6) =   2
     Q(r) pseudized with  6 coefficients,  rinner =    1.000   1.000   1.000
                                                       1.000   1.000

     vdW kernel table read from file vdW_kernel_table
     MD5 check sum: 095c7af220d748ca6e76c0b4c6cfb241

     atomic species   valence    mass     pseudopotential
        La1           11.00   138.90547     La( 1.00)
        Pb1           14.00   207.20000     Pb( 1.00)

     No symmetry found

   Cartesian axes

     site n.     atom                  positions (alat units)
         1           La1 tau(   1) = (   0.0000000   0.0000000  10.0000000  )
         2           La1 tau(   2) = (   4.9833279   3.2488475  10.0000000  )
         3           Pb1 tau(   3) = (   3.5506962   0.0000000  10.0000000  )
         4           Pb1 tau(   4) = (   1.4326317   3.2488475  10.0000000  )
         5           La1 tau(   5) = (   7.1013924   4.6297056  12.9407892  )
         6           La1 tau(   6) = (   2.1180645   1.3808581  12.9407892  )
         7           Pb1 tau(   7) = (   3.5506962   4.6297056  12.9407892  )
         8           Pb1 tau(   8) = (   5.6687607   1.3808581  12.9407892  )
         9           La1 tau(   9) = (   4.2361290   2.7617161  15.8815783  )
        10           La1 tau(  10) = (   9.2194569   6.0105636  15.8815783  )
        11           Pb1 tau(  11) = (   7.7868252   2.7617161  15.8815783  )
        12           Pb1 tau(  12) = (   5.6687607   6.0105636  15.8815783  )

     number of k points=    20  Fermi-Dirac smearing, width (Ry)=  0.0110
                       cart. coord. in units 2pi/alat
        k(    1) = (   0.0000000   0.0000000   0.0000000), wk =   0.0555556
        k(    2) = (   0.0000000   0.0256501   0.0000000), wk =   0.1111111
        k(    3) = (   0.0000000   0.0513002   0.0000000), wk =   0.1111111
        k(    4) = (   0.0000000  -0.0769504   0.0000000), wk =   0.0555556
        k(    5) = (   0.0234696  -0.0103493   0.0000000), wk =   0.1111111
        k(    6) = (   0.0234696   0.0153008   0.0000000), wk =   0.1111111
        k(    7) = (   0.0234696   0.0409510   0.0000000), wk =   0.1111111
        k(    8) = (   0.0234696  -0.0872997   0.0000000), wk =   0.1111111
        k(    9) = (   0.0234696  -0.0616495   0.0000000), wk =   0.1111111
        k(   10) = (   0.0234696  -0.0359994   0.0000000), wk =   0.1111111
        k(   11) = (   0.0469392  -0.0206986   0.0000000), wk =   0.1111111
        k(   12) = (   0.0469392   0.0049515   0.0000000), wk =   0.1111111
        k(   13) = (   0.0469392   0.0306017   0.0000000), wk =   0.1111111
        k(   14) = (   0.0469392  -0.0976489   0.0000000), wk =   0.1111111
        k(   15) = (   0.0469392  -0.0719988   0.0000000), wk =   0.1111111
        k(   16) = (   0.0469392  -0.0463487   0.0000000), wk =   0.1111111
        k(   17) = (  -0.0704087   0.0310479   0.0000000), wk =   0.0555556
        k(   18) = (  -0.0704087   0.0566980   0.0000000), wk =   0.1111111
        k(   19) = (  -0.0704087   0.0823481   0.0000000), wk =   0.1111111
        k(   20) = (  -0.0704087  -0.0459025   0.0000000), wk =   0.0555556

     Largest allocated arrays     est. size (Mb)     dimensions
     Largest temporary arrays     est. size (Mb)     dimensions

     Check: negative/imaginary core charge=   -0.000001    0.000000

     Initial potential from superposition of free atoms
     Check: negative starting charge=   -0.524316

     starting charge  149.79348, renormalised to  150.00000

     negative rho (up, down):  5.250E-01 0.000E+00

     *
     * You are using vdW-DF for exchange-correlation in this calculation.
     * Please cite the following three references that made this development
     * possible:
     *
     *   M. Dion, H. Rydberg, E. Schroder, D. C. Langreth, and
     *   B. I. Lundqvist, Phys. Rev. Lett. 92, 246401 (2004).
     *
     *   T. Thonhauser, V. R. Cooper, S. Li, A. Puzder, P. Hyldgaard, and
     *   D. C. Langreth, Phys. Rev. B 76, 125112 (2007).
     *
     *   G. Roman-Perez and J. M. Soler, Phys. Rev. Lett. 103, 096102 (2009).
     *
     *
     * If you are using vdW-DF2, please also cite:
     *
     *   K. Lee, E. D. Murray, L. Kong, B. I. Lundqvist, and
     *   D. C. Langreth, Phys. Rev. B 82, 081101(R) (2010).
     *
     *
     * If you are calculating the stress with vdW-DF, please also cite:
     *
     *   R. Sabatini, E. Kucukbenli, B. Kolb, T. Thonhauser, and
     *   S. de Gironcoli, J. Phys.: Condens. Matter 24, 424209 (2012).
     *

     Carrying out vdW-DF run using the following parameters:

     Nqs =      20    Nr_points =    1024   r_max =   100.000
     q_mesh =
               0.00001000     0.04494208     0.09755937     0.15916263
               0.23128650     0.31572767     0.41458969     0.53033537
               0.66584808     0.82450364     1.01025438     1.22772762
               1.48234092     1.78043706     2.12944203     2.53805004
               3.01644009     3.57652955     4.23227104     5.00000000

     Gradients computed in reciprocal space

     Adding external electric field

     Computed dipole along edir(3) :
        Dipole               -0.0000 Ry au,         -0.0000 Debye
        Dipole field         -0.0000 Ry au

        Potential amp.        0.0000 Ry
        Total length         47.6864 bohr

     Starting wfc are  174 randomized atomic wfcs

     Self-consistent Calculation

     iteration #  1     ecut=    36.75 Ry     beta=0.10
     Davidson diagonalization with overlap
     ethr =  1.00E-02,  avg # of iterations =  1.1

[...]

     total energy              =   -1620.36677095 Ry
     Harris-Foulkes estimate   =   -1620.87604468 Ry
     estimated scf accuracy    <       2.84905661 Ry

[...]

     iteration #  7     ecut=    36.75 Ry     beta=0.10
     Davidson diagonalization with overlap
     c_bands:  1 eigenvalues not converged
     c_bands:  1 eigenvalues not converged
     ethr =  1.83E-05,  avg # of iterations = 11.6

[...]

     End of self-consistent calculation

          k = 0.0000 0.0000 0.0000 ( 30229 PWs)   bands (ev):

   -32.2438 -32.2430 -32.2031 -32.2027 -31.8528 -31.8113 -16.0279 -15.9966
   -15.9528 -15.9481 -15.9312 -15.8974 -15.8140 -15.7952 -15.7671 -15.7437
   -15.7325 -15.5534 -15.5048 -15.5031 -15.4770 -15.4436 -15.4240 -15.4171
   -15.3881 -15.3878 -15.3590 -15.3517 -15.3407 -15.3284 -15.3072 -15.2983
   -15.2904 -15.2888 -15.2571 -15.2546 -15.2525 -15.2266 -15.2204 -15.2201
   -15.2007 -15.1949 -15.1870 -15.1828 -15.1773 -15.1659 -15.1525 -15.1518
   -15.1463 -15.1281 -15.1248 -15.1097 -15.0577 -15.0411  -7.5028  -6.8461
    -6.6409  -6.4866  -6.0302  -5.9926  -0.6226  -0.3637  -0.2312   0.0242
     0.0325   0.1926   0.2417   0.6396   0.6874   0.8719   0.9792   1.0465
     1.5114   1.5596   1.6002   1.7117   1.7198   1.8316   1.8874   2.2342
     2.3253   2.4247   2.4692   2.5543   2.5694   2.6324   2.6380   2.6393
     2.6672   2.6728   2.6886   2.6891   2.7000   2.7366   2.7377   2.7409
     2.7717   2.7780   2.7914   2.7957   2.7982   2.8242   2.8258   2.8552
     2.8580

[...]

          k =-0.0704 0.0310 0.0000 ( 30302 PWs)   bands (ev):

[...]

     the Fermi energy is     1.5367 ev

!    total energy              =   -1620.60384816 Ry
     Harris-Foulkes estimate   =   -1620.60387466 Ry
     estimated scf accuracy    <       0.00000068 Ry

     The total energy is the sum of the following terms:

     one-electron contribution =   -6576.83432888 Ry
     hartree contribution      =    3329.54425161 Ry
     xc contribution           =    -696.13775425 Ry
     ewald contribution        =    2322.90192438 Ry
     electric field correction =       0.00000002 Ry
     smearing contrib. (-TS)   =      -0.07794103 Ry

     convergence has been achieved in  17 iterations

 BEEF-vdW xc energy contributions
           1 :   -619.061368415026
[...]
                l(4) =   1
                l(5) =   2
                l(6) =   2
                l(7) =   3
                l(8) =   3
     Q(r) pseudized with  8 coefficients,  rinner =    1.700   1.700   1.700
                                                       1.700   1.700   1.700
                                                       1.700

     PseudoPot. # 2 for Pb read from file:
     /afs/slac.stanford.edu/u/if/mamunm/psp/gbrv1.5pbe/Pb.UPF
     MD5 check sum: 3d1c1779aa92214d1e8f3a7db79003e2
     Pseudo is Ultrasoft + core correction, Zval = 14.0
     Generated by new atomic code, or converted to UPF format
     Using radial grid of  899 points,  6 beta functions with:
                l(1) =   0
                l(2) =   0
                l(3) =   1
                l(4) =   1
                l(5) =   2
                l(6) =   2
     Q(r) pseudized with  6 coefficients,  rinner =    1.000   1.000   1.000
                                                       1.000   1.000

     vdW kernel table read from file vdW_kernel_table
     MD5 check sum: 095c7af220d748ca6e76c0b4c6cfb241

     atomic species   valence    mass     pseudopotential
        La1           11.00   138.90547     La( 1.00)
        Pb1           14.00   207.20000     Pb( 1.00)

     No symmetry found

   Cartesian axes

     site n.     atom                  positions (alat units)
         1           La1 tau(   1) = (   0.0000000   0.0000000  10.0000000  )
         2           La1 tau(   2) = (   4.9833279   3.2488475  10.0000000  )
         3           Pb1 tau(   3) = (   3.5506962   0.0000000  10.0000000  )
         4           Pb1 tau(   4) = (   1.4326317   3.2488475  10.0000000  )
         5           La1 tau(   5) = (   7.1013924   4.6297056  12.9407892  )
         6           La1 tau(   6) = (   2.1180645   1.3808581  12.9407892  )
         7           Pb1 tau(   7) = (   3.5506962   4.6297056  12.9407892  )
         8           Pb1 tau(   8) = (   5.6687607   1.3808581  12.9407892  )
         9           La1 tau(   9) = (   4.0336383   2.6297303  15.7508952  )
        10           La1 tau(  10) = (   9.0169085   5.8785189  15.7516279  )
        11           Pb1 tau(  11) = (   7.5175109   2.5861243  15.9062145  )
        12           Pb1 tau(  12) = (   5.3990517   5.8350074  15.9062209  )

     number of k points=    20  Fermi-Dirac smearing, width (Ry)=  0.0110
                       cart. coord. in units 2pi/alat
        k(    1) = (   0.0000000   0.0000000   0.0000000), wk =   0.0555556
        k(    2) = (   0.0000000   0.0256501   0.0000000), wk =   0.1111111
        k(    3) = (   0.0000000   0.0513002   0.0000000), wk =   0.1111111
        k(    4) = (   0.0000000  -0.0769504   0.0000000), wk =   0.0555556
        k(    5) = (   0.0234696  -0.0103493   0.0000000), wk =   0.1111111
        k(    6) = (   0.0234696   0.0153008   0.0000000), wk =   0.1111111
        k(    7) = (   0.0234696   0.0409510   0.0000000), wk =   0.1111111
        k(    8) = (   0.0234696  -0.0872997   0.0000000), wk =   0.1111111
        k(    9) = (   0.0234696  -0.0616495   0.0000000), wk =   0.1111111
        k(   10) = (   0.0234696  -0.0359994   0.0000000), wk =   0.1111111
        k(   11) = (   0.0469392  -0.0206986   0.0000000), wk =   0.1111111
        k(   12) = (   0.0469392   0.0049515   0.0000000), wk =   0.1111111
        k(   13) = (   0.0469392   0.0306017   0.0000000), wk =   0.1111111
        k(   14) = (   0.0469392  -0.0976489   0.0000000), wk =   0.1111111
        k(   15) = (   0.0469392  -0.0719988   0.0000000), wk =   0.1111111
        k(   16) = (   0.0469392  -0.0463487   0.0000000), wk =   0.1111111
        k(   17) = (  -0.0704087   0.0310479   0.0000000), wk =   0.0555556
        k(   18) = (  -0.0704087   0.0566980   0.0000000), wk =   0.1111111
        k(   19) = (  -0.0704087   0.0823481   0.0000000), wk =   0.1111111
        k(   20) = (  -0.0704087  -0.0459025   0.0000000), wk =   0.0555556

     Largest allocated arrays     est. size (Mb)     dimensions
     Largest temporary arrays     est. size (Mb)     dimensions

     Check: negative/imaginary core charge=   -0.000001    0.000000

     Initial potential from superposition of free atoms
     Check: negative starting charge=   -0.522593

     starting charge  149.79348, renormalised to  150.00000

[...]

     *
     * You are using vdW-DF for exchange-correlation in this calculation.
     * Please cite the following three references that made this development
     * possible:
     *
     *   M. Dion, H. Rydberg, E. Schroder, D. C. Langreth, and
     *   B. I. Lundqvist, Phys. Rev. Lett. 92, 246401 (2004).
     *
     *   T. Thonhauser, V. R. Cooper, S. Li, A. Puzder, P. Hyldgaard, and
     *   D. C. Langreth, Phys. Rev. B 76, 125112 (2007).
     *
     *   G. Roman-Perez and J. M. Soler, Phys. Rev. Lett. 103, 096102 (2009).
     *
     *
     * If you are using vdW-DF2, please also cite:
     *
     *   K. Lee, E. D. Murray, L. Kong, B. I. Lundqvist, and
     *   D. C. Langreth, Phys. Rev. B 82, 081101(R) (2010).
     *
     *
     * If you are calculating the stress with vdW-DF, please also cite:
     *
     *   R. Sabatini, E. Kucukbenli, B. Kolb, T. Thonhauser, and
     *   S. de Gironcoli, J. Phys.: Condens. Matter 24, 424209 (2012).
     *

     Carrying out vdW-DF run using the following parameters:

     Nqs =      20    Nr_points =    1024   r_max =   100.000
     q_mesh =
               0.00001000     0.04494208     0.09755937     0.15916263
               0.23128650     0.31572767     0.41458969     0.53033537
               0.66584808     0.82450364     1.01025438     1.22772762
               1.48234092     1.78043706     2.12944203     2.53805004
               3.01644009     3.57652955     4.23227104     5.00000000

     Gradients computed in reciprocal space

[...]

     Starting wfc are  174 randomized atomic wfcs

     Self-consistent Calculation

[...]

     iteration # 11     ecut=    36.75 Ry     beta=0.10
     Davidson diagonalization with overlap
     c_bands:  1 eigenvalues not converged
     c_bands:  1 eigenvalues not converged
     ethr =  2.94E-06,  avg # of iterations =  4.0

[...]

     total energy              =   -1620.61026475 Ry
     Harris-Foulkes estimate   =   -1620.61024770 Ry
     estimated scf accuracy    <       0.00000136 Ry

     iteration # 19     ecut=    36.75 Ry     beta=0.10
     Davidson diagonalization with overlap
     ethr =  9.05E-10,  avg # of iterations =  5.4

[...]

     negative rho (up, down):  3.850E-01 0.000E+00

     Adding external electric field

     Computed dipole along edir(3) :
        Dipole               -0.0230 Ry au,         -0.0584 Debye
        Dipole field         -0.0000 Ry au

        Potential amp.        0.0034 Ry
        Total length         47.6864 bohr

     End of self-consistent calculation

[...]

          k = 0.0469-0.0463 0.0000 ( 30358 PWs)   bands (ev):

[...]

          k =-0.0704-0.0459 0.0000 ( 30392 PWs)   bands (ev):

   -32.2552 -32.2153 -32.1993 -32.1591 -31.8539 -31.8120 -16.0828 -16.0595
   -16.0519 -16.0396 -15.9325 -15.9210 -15.8901 -15.8733 -15.8683 -15.8413
   -15.8402 -15.7098 -15.6647 -15.6256 -15.5541 -15.5140 -15.4945 -15.4595
   -15.4589 -15.4064 -15.3553 -15.3542 -15.3387 -15.3157 -15.3001 -15.2973
   -15.2783 -15.2748 -15.2533 -15.2381 -15.2363 -15.2048 -15.1963 -15.1764
   -15.1762 -15.1506 -15.1460 -15.1426 -15.1350 -15.1304 -15.1218 -15.1169
   -15.0958 -15.0790 -15.0622 -15.0491 -15.0437 -15.0237  -7.0408  -6.7050
    -6.4234  -6.4058  -5.9529  -5.6126  -1.5838  -1.5521  -1.3370  -0.9013
    -0.8988  -0.7247  -0.6388  -0.4564  -0.1509   0.3936   0.4209   0.6249
     1.2557   1.4964   1.5572   1.7808   1.8265   1.9067   2.1862   2.3168
     2.3910   2.5535   2.5720   2.6149   2.6356   2.6378   2.6569   2.6593
     2.6804   2.6958   2.6993   2.7081   2.7259   2.7304   2.7393   2.7413
     2.7765   2.7802   2.7847   2.8264   2.8326   2.8357   2.8438   2.8468
     2.8628

     the Fermi energy is     1.5299 ev

!    total energy              =   -1620.61019677 Ry
     Harris-Foulkes estimate   =   -1620.61026521 Ry
     estimated scf accuracy    <       0.00000021 Ry

     The total energy is the sum of the following terms:

     one-electron contribution =   -6618.09904977 Ry
     hartree contribution      =    3350.08776811 Ry
     xc contribution           =    -696.18781323 Ry
     ewald contribution        =    2343.66643077 Ry
     electric field correction =       0.00000082 Ry
     smearing contrib. (-TS)   =      -0.07753346 Ry

     convergence has been achieved in  19 iterations

 BEEF-vdW xc energy contributions
           1 :   -619.111879021028
           2 :    572.759382625808
           3 :   -490.925473236777
           4 :    391.232313871729
           5 :   -292.102876427032
           6 :    207.572245104436
           7 :   -144.524163921201
           8 :    102.722642370966
           9 :   -77.0254065823234
          10 :    60.5642006477239
          11 :   -47.5484356453056
          12 :    34.7432967430883
          13 :   -21.4637273632242
          14 :    8.60810237386204
          15 :    2.50910754147526
          16 :   -10.9712047487067
          17 :    16.5269883470689
          18 :   -19.4362913990890
          19 :    20.1637146090945
          20 :   -19.1637257253780
          21 :    16.8458212205772
          22 :   -13.6628230800974
          23 :    10.1976780415023
          24 :   -7.14858923934980
          25 :    5.18060826110775
          26 :   -4.69899046845671
          27 :    5.65635748092905
          28 :   -7.50977674358785
          29 :    9.38253849345597
          30 :   -10.3939963746593
          31 :   -50.7534517457308
          32 :   -36.8445461108013

     Forces acting on atoms (Ry/au):

     negative rho (up, down):  3.850E-01 0.000E+00
     atom    1 type  1   force =    -0.00148980   -0.00097085    0.01169621
     atom    2 type  1   force =    -0.00149114   -0.00097152    0.01165886
     atom    3 type  2   force =     0.00509401    0.00330777   -0.00593669
     atom    4 type  2   force =     0.00508192    0.00332613   -0.00593403
     atom    5 type  1   force =    -0.00320978   -0.00208890   -0.00274823
     atom    6 type  1   force =    -0.00321670   -0.00209624   -0.00276539
     atom    7 type  2   force =    -0.00051744   -0.00028410   -0.00183926
     atom    8 type  2   force =    -0.00046607   -0.00035348   -0.00183144
     atom    9 type  1   force =    -0.00018400   -0.00012819    0.00019004
     atom   10 type  1   force =    -0.00016660   -0.00009511    0.00015881
     atom   11 type  2   force =     0.00028114    0.00014304   -0.00131713
     atom   12 type  2   force =     0.00028446    0.00021144   -0.00133177

     Total force =     0.021891     Total SCF correction =     0.002382
     SCF correction compared to forces is large: reduce conv_thr to get better values

     entering subroutine stress ...

     negative rho (up, down):  3.850E-01 0.000E+00
          total   stress  (Ry/bohr**3)                   (kbar)     P=   -7.84
  -0.00008297  -0.00001467  -0.00000464        -12.20     -2.16     -0.68
  -0.00001467  -0.00007003  -0.00000303         -2.16    -10.30     -0.45
  -0.00000464  -0.00000303  -0.00000684         -0.68     -0.45     -1.01

 !ASE

     Writing output data file calc.save

     General routines

     Parallel routines

   This run was terminated on:  12:14:24  30Dec2018

   JOB DONE.
Job  /afs/slac/g/suncat/bin/suncat-tsmpirun -x LD_LIBRARY_PATH -wdir /scratch/qe387686_RefiJ pw.x -in pw.inp

TID   HOST_NAME   COMMAND_LINE            STATUS            TERMINATION_TIME
00000 suncat0169 pw.x -in pw.inp   Done                     12/30/2018 12:14:24
00001 suncat0169 pw.x -in pw.inp   Done                     12/30/2018 12:14:24
00002 suncat0169 pw.x -in pw.inp   Done                     12/30/2018 12:14:24
00003 suncat0169 pw.x -in pw.inp   Done                     12/30/2018 12:14:24
00004 suncat0169 pw.x -in pw.inp   Done                     12/30/2018 12:14:24
00005 suncat0169 pw.x -in pw.inp   Done                     12/30/2018 12:14:24
00006 suncat0169 pw.x -in pw.inp   Done                     12/30/2018 12:14:24
00007 suncat0169 pw.x -in pw.inp   Done                     12/30/2018 12:14:24
00008 suncat0168 pw.x -in pw.inp   Done                     12/30/2018 12:14:24
00009 suncat0168 pw.x -in pw.inp   Done                     12/30/2018 12:14:24
00010 suncat0168 pw.x -in pw.inp   Done                     12/30/2018 12:14:24
00011 suncat0168 pw.x -in pw.inp   Done                     12/30/2018 12:14:24
00012 suncat0168 pw.x -in pw.inp   Done                     12/30/2018 12:14:24
00013 suncat0168 pw.x -in pw.inp   Done                     12/30/2018 12:14:24
00014 suncat0168 pw.x -in pw.inp   Done                     12/30/2018 12:14:24
00015 suncat0168 pw.x -in pw.inp   Done                     12/30/2018 12:14:24
00016 suncat0161 pw.x -in pw.inp   Done                     12/30/2018 12:14:24
00017 suncat0161 pw.x -in pw.inp   Done                     12/30/2018 12:14:24
00018 suncat0161 pw.x -in pw.inp   Done                     12/30/2018 12:14:24
00019 suncat0161 pw.x -in pw.inp   Done                     12/30/2018 12:14:24
00020 suncat0161 pw.x -in pw.inp   Done                     12/30/2018 12:14:24
00021 suncat0161 pw.x -in pw.inp   Done                     12/30/2018 12:14:24
00022 suncat0161 pw.x -in pw.inp   Done                     12/30/2018 12:14:24
00023 suncat0161 pw.x -in pw.inp   Done                     12/30/2018 12:14:24
00024 suncat0137 pw.x -in pw.inp   Done                     12/30/2018 12:14:24
00025 suncat0137 pw.x -in pw.inp   Done                     12/30/2018 12:14:24
00026 suncat0137 pw.x -in pw.inp   Done                     12/30/2018 12:14:24
00027 suncat0137 pw.x -in pw.inp   Done                     12/30/2018 12:14:24
00028 suncat0137 pw.x -in pw.inp   Done                     12/30/2018 12:14:24
00029 suncat0137 pw.x -in pw.inp   Done                     12/30/2018 12:14:24
00030 suncat0137 pw.x -in pw.inp   Done                     12/30/2018 12:14:24
00031 suncat0137 pw.x -in pw.inp   Done                     12/30/2018 12:14:24
00032 suncat0117 pw.x -in pw.inp   Done                     12/30/2018 12:14:24
00033 suncat0117 pw.x -in pw.inp   Done                     12/30/2018 12:14:24
00034 suncat0117 pw.x -in pw.inp   Done                     12/30/2018 12:14:24
00035 suncat0117 pw.x -in pw.inp   Done                     12/30/2018 12:14:24
00036 suncat0117 pw.x -in pw.inp   Done                     12/30/2018 12:14:24
00037 suncat0117 pw.x -in pw.inp   Done                     12/30/2018 12:14:24
00038 suncat0117 pw.x -in pw.inp   Done                     12/30/2018 12:14:24
00039 suncat0117 pw.x -in pw.inp   Done                     12/30/2018 12:14:24
00040 suncat0250 pw.x -in pw.inp   Done                     12/30/2018 12:14:24
00041 suncat0250 pw.x -in pw.inp   Done                     12/30/2018 12:14:24
00042 suncat0250 pw.x -in pw.inp   Done                     12/30/2018 12:14:24
00043 suncat0250 pw.x -in pw.inp   Done                     12/30/2018 12:14:24
00044 suncat0250 pw.x -in pw.inp   Done                     12/30/2018 12:14:24
00045 suncat0250 pw.x -in pw.inp   Done                     12/30/2018 12:14:24
00046 suncat0250 pw.x -in pw.inp   Done                     12/30/2018 12:14:24
00047 suncat0250 pw.x -in pw.inp   Done                     12/30/2018 12:14:24
00048 suncat0249 pw.x -in pw.inp   Done                     12/30/2018 12:14:24
00049 suncat0249 pw.x -in pw.inp   Done                     12/30/2018 12:14:24
00050 suncat0249 pw.x -in pw.inp   Done                     12/30/2018 12:14:24
00051 suncat0249 pw.x -in pw.inp   Done                     12/30/2018 12:14:24
00052 suncat0249 pw.x -in pw.inp   Done                     12/30/2018 12:14:24
00053 suncat0249 pw.x -in pw.inp   Done                     12/30/2018 12:14:24
00054 suncat0249 pw.x -in pw.inp   Done                     12/30/2018 12:14:24
00055 suncat0249 pw.x -in pw.inp   Done                     12/30/2018 12:14:24
00056 suncat0231 pw.x -in pw.inp   Done                     12/30/2018 12:14:24
00057 suncat0231 pw.x -in pw.inp   Done                     12/30/2018 12:14:24
00058 suncat0231 pw.x -in pw.inp   Done                     12/30/2018 12:14:24
00059 suncat0231 pw.x -in pw.inp   Done                     12/30/2018 12:14:24
00060 suncat0231 pw.x -in pw.inp   Done                     12/30/2018 12:14:24
00061 suncat0231 pw.x -in pw.inp   Done                     12/30/2018 12:14:24
00062 suncat0231 pw.x -in pw.inp   Done                     12/30/2018 12:14:24
00063 suncat0231 pw.x -in pw.inp   Done                     12/30/2018 12:14:24