     Program PWSCF v.5.1rc2 (svn rev. 11289) starts on 19Dec2018 at  9: 2:51

     Current dimensions of program PWSCF are:
     Max number of different atomic species (ntypx) = 10
     Max number of k-points (npk) =  40000
     Max angular momentum in pseudopotentials (lmaxx) =  3
     Presently stress not available with electric field

     IMPORTANT: XC functional enforced from input :
     Exchange-correlation      = BEEF-VDW ( 1  4 27 13 2)
     Any further DFT definition will be discarded
     Please, verify this is what you really want

     Subspace diagonalization in iterative solution of the eigenvalue problem:
     a serial algorithm will be used

     Found symmetry operation: I + ( -0.5000 -0.5000  0.0000)
     This is a supercell, fractional translations are disabled

     bravais-lattice index     =            0
     lattice parameter (alat)  =       1.8897  a.u.
     unit-cell volume          =    4294.9945 (a.u.)^3
     number of atoms/cell      =           12
     number of atomic types    =            2
     number of electrons       =       210.00
     number of Kohn-Sham states=          135
     kinetic-energy cutoff     =      36.7493  Ry
     charge density cutoff     =     367.4932  Ry
     convergence threshold     =      1.0E-06
     mixing beta               =       0.1000
     number of iterations used =           10  plain     mixing
     Exchange-correlation      = BEEF-VDW ( 1  4 27 13 2)
     nstep                     =           50

     celldm(1)=   1.889726  celldm(2)=   0.000000  celldm(3)=   0.000000
     celldm(4)=   0.000000  celldm(5)=   0.000000  celldm(6)=   0.000000

     crystal axes: (cart. coord. in units of alat)
               a(1) = (   5.270348   0.000000   0.000000 )
               a(2) = (   1.756787   4.968930   0.000000 )
               a(3) = (   0.000000   0.000000  24.303222 )

     reciprocal axes: (cart. coord. in units 2 pi/alat)
               b(1) = (  0.189741 -0.067084  0.000000 )
               b(2) = (  0.000000  0.201251  0.000000 )
               b(3) = (  0.000000  0.000000  0.041147 )

     PseudoPot. # 1 for Cu read from file:
     /afs/slac.stanford.edu/u/if/mamunm/psp/gbrv1.5pbe/Cu.UPF
     MD5 check sum: 6e991ff952a84172a2a52a1c1e996048
     Pseudo is Ultrasoft + core correction, Zval = 19.0
     Generated by new atomic code, or converted to UPF format
     Using radial grid of  867 points,  6 beta functions with:
                l(1) =   0
                l(2) =   0
                l(3) =   1
                l(4) =   1
                l(5) =   2
                l(6) =   2
     Q(r) pseudized with  8 coefficients,  rinner =    1.150   1.150   1.150
                                                       1.150   1.150

     PseudoPot. # 2 for Pd read from file:
     /afs/slac.stanford.edu/u/if/mamunm/psp/gbrv1.5pbe/Pd.UPF
     MD5 check sum: 2d733d2bc2cbfd217af676df1668a4bc
     Pseudo is Ultrasoft + core correction, Zval = 16.0
     Generated by new atomic code, or converted to UPF format
     Using radial grid of  887 points,  6 beta functions with:
                l(1) =   0
                l(2) =   0
                l(3) =   1
                l(4) =   1
                l(5) =   2
                l(6) =   2
     Q(r) pseudized with  8 coefficients,  rinner =    1.130   1.130   1.130
                                                       1.130   1.130

     vdW kernel table read from file vdW_kernel_table
     MD5 check sum: 095c7af220d748ca6e76c0b4c6cfb241

     atomic species   valence    mass     pseudopotential
        Cu1           19.00    63.54600     Cu( 1.00)
        Pd1           16.00   106.42000     Pd( 1.00)

     No symmetry found

   Cartesian axes

     site n.     atom                  positions (alat units)
         1           Cu1 tau(   1) = (   0.0000000   0.0000000  10.0000000  )
         2           Cu1 tau(   2) = (   3.5135674   2.4844650  10.0000000  )
         3           Pd1 tau(   3) = (   2.6351739   0.0000000  10.0000000  )
         4           Pd1 tau(   4) = (   0.8783935   2.4844650  10.0000000  )
         5           Cu1 tau(   5) = (   5.2703478   3.7266951  12.1516112  )
         6           Cu1 tau(   6) = (   1.7567804   1.2422301  12.1516112  )
         7           Pd1 tau(   7) = (   2.6351739   3.7266951  12.1516112  )
         8           Pd1 tau(   8) = (   4.3919543   1.2422301  12.1516112  )
         9           Cu1 tau(   9) = (   3.5135608   2.4844603  14.3032223  )
        10           Cu1 tau(  10) = (   7.0271282   4.9689253  14.3032223  )
        11           Pd1 tau(  11) = (   6.1487347   2.4844603  14.3032223  )
        12           Pd1 tau(  12) = (   4.3919543   4.9689253  14.3032223  )

     number of k points=    20  Fermi-Dirac smearing, width (Ry)=  0.0110
                       cart. coord. in units 2pi/alat
        k(    1) = (   0.0000000   0.0000000   0.0000000), wk =   0.0555556
        k(    2) = (   0.0000000   0.0335418   0.0000000), wk =   0.1111111
        k(    3) = (   0.0000000   0.0670835   0.0000000), wk =   0.1111111
        k(    4) = (   0.0000000  -0.1006253   0.0000000), wk =   0.0555556
        k(    5) = (   0.0316235  -0.0111806   0.0000000), wk =   0.1111111
        k(    6) = (   0.0316235   0.0223611   0.0000000), wk =   0.1111111
        k(    7) = (   0.0316235   0.0559029   0.0000000), wk =   0.1111111
        k(    8) = (   0.0316235  -0.1118059   0.0000000), wk =   0.1111111
        k(    9) = (   0.0316235  -0.0782641   0.0000000), wk =   0.1111111
        k(   10) = (   0.0316235  -0.0447224   0.0000000), wk =   0.1111111
        k(   11) = (   0.0632469  -0.0223612   0.0000000), wk =   0.1111111
        k(   12) = (   0.0632469   0.0111805   0.0000000), wk =   0.1111111
        k(   13) = (   0.0632469   0.0447223   0.0000000), wk =   0.1111111
        k(   14) = (   0.0632469  -0.1229865   0.0000000), wk =   0.1111111
        k(   15) = (   0.0632469  -0.0894448   0.0000000), wk =   0.1111111
        k(   16) = (   0.0632469  -0.0559030   0.0000000), wk =   0.1111111
        k(   17) = (  -0.0948704   0.0335418   0.0000000), wk =   0.0555556
        k(   18) = (  -0.0948704   0.0670836   0.0000000), wk =   0.1111111
        k(   19) = (  -0.0948704   0.1006254   0.0000000), wk =   0.1111111
        k(   20) = (  -0.0948704  -0.0670834   0.0000000), wk =   0.0555556

     Largest allocated arrays     est. size (Mb)     dimensions
     Largest temporary arrays     est. size (Mb)     dimensions

     Initial potential from superposition of free atoms
     Check: negative starting charge=   -0.451580

     starting charge  200.99995, renormalised to  210.00000

     negative rho (up, down):  4.718E-01 0.000E+00

     *
     * You are using vdW-DF for exchange-correlation in this calculation.
     * Please cite the following three references that made this development
     * possible:
     *
     *   M. Dion, H. Rydberg, E. Schroder, D. C. Langreth, and
     *   B. I. Lundqvist, Phys. Rev. Lett. 92, 246401 (2004).
     *
     *   T. Thonhauser, V. R. Cooper, S. Li, A. Puzder, P. Hyldgaard, and
     *   D. C. Langreth, Phys. Rev. B 76, 125112 (2007).
     *
     *   G. Roman-Perez and J. M. Soler, Phys. Rev. Lett. 103, 096102 (2009).
     *
     *
     * If you are using vdW-DF2, please also cite:
     *
     *   K. Lee, E. D. Murray, L. Kong, B. I. Lundqvist, and
     *   D. C. Langreth, Phys. Rev. B 82, 081101(R) (2010).
     *
     *
     * If you are calculating the stress with vdW-DF, please also cite:
     *
     *   R. Sabatini, E. Kucukbenli, B. Kolb, T. Thonhauser, and
     *   S. de Gironcoli, J. Phys.: Condens. Matter 24, 424209 (2012).
     *

     Carrying out vdW-DF run using the following parameters:

     Nqs =      20    Nr_points =    1024   r_max =   100.000
     q_mesh =
               0.00001000     0.04494208     0.09755937     0.15916263
               0.23128650     0.31572767     0.41458969     0.53033537
               0.66584808     0.82450364     1.01025438     1.22772762
               1.48234092     1.78043706     2.12944203     2.53805004
               3.01644009     3.57652955     4.23227104     5.00000000

     Gradients computed in reciprocal space

     Adding external electric field

     Computed dipole along edir(3) :
        Dipole               -0.0000 Ry au,         -0.0000 Debye
        Dipole field         -0.0000 Ry au

        Potential amp.        0.0000 Ry
        Total length         44.7783 bohr

     Starting wfc are  150 randomized atomic wfcs

     Self-consistent Calculation

     iteration #  1     ecut=    36.75 Ry     beta=0.10
     Davidson diagonalization with overlap
     ethr =  1.00E-02,  avg # of iterations =  7.1

[...]

     total energy              =   -3625.82746790 Ry
     Harris-Foulkes estimate   =   -3635.39113446 Ry
     estimated scf accuracy    <      56.17134201 Ry

[...]

     End of self-consistent calculation

          k = 0.0000 0.0000 0.0000 ( 16241 PWs)   bands (ev):

  -111.3413-111.3410-111.2004-111.2002-111.2001-111.1999 -68.7554 -68.7548
   -68.7446 -68.7395 -68.7390 -68.7382 -68.6630 -68.6627 -68.6624 -68.6622
   -68.6124 -68.6122 -68.6061 -68.6058 -68.5522 -68.5519 -68.5517 -68.5514
   -49.2654 -49.2601 -49.2599 -49.2552 -49.2543 -49.1958 -49.0077 -49.0060
   -49.0058 -49.0056 -49.0022 -48.9994 -48.9366 -48.9365 -48.8556 -48.8536
   -48.8492 -48.8474  -6.1509  -4.5101  -4.0717  -4.0615  -3.9427  -3.5400
    -3.3870  -3.3745  -3.3237  -3.2619  -3.2072  -3.0320  -2.6907  -2.6623
    -2.6564  -2.6202  -2.5844  -2.5058  -2.4000  -2.3279  -2.3128  -2.2333
    -2.1252  -1.9946  -1.8528  -1.6085  -1.5457  -1.5288  -1.4502  -1.2847
    -1.1631  -1.0629  -1.0043  -0.9850  -0.8490  -0.8195  -0.8111  -0.7947
    -0.7689  -0.7545  -0.7280  -0.7011  -0.6890  -0.6874  -0.6527  -0.5603
    -0.5136  -0.5064  -0.4692  -0.2611  -0.2207  -0.1946  -0.1485  -0.0713
    -0.0668   0.0588   0.0835   0.1129   0.1849   0.2112   0.2200   0.3574
     0.3749   1.6645   1.9944   2.1568   2.2320   2.4227   2.5747   2.6311
     2.6388   4.7491   4.9845   5.0636   5.3903   5.4520   5.6967   6.0901
     6.3456   6.4986   6.9815   7.1434   7.6256   7.6321   7.9187   8.2640
     8.6797   8.8476   8.9479   9.3424   9.4795   9.5753   9.7450

[...]

          k =-0.0949 0.0335 0.0000 ( 16184 PWs)   bands (ev):

[...]

     the Fermi energy is     0.4175 ev

!    total energy              =   -3628.37310285 Ry
     Harris-Foulkes estimate   =   -3628.37309777 Ry
     estimated scf accuracy    <       0.00000032 Ry

     The total energy is the sum of the following terms:

     one-electron contribution =  -27243.59720082 Ry
     hartree contribution      =   13655.30970956 Ry
     xc contribution           =    -435.36516971 Ry
     ewald contribution        =   10395.32666085 Ry
     electric field correction =       0.00000000 Ry
     smearing contrib. (-TS)   =      -0.04710273 Ry

     convergence has been achieved in  18 iterations

 BEEF-vdW xc energy contributions
           1 :   -382.895717660510
           2 :    348.328676571024
           3 :   -289.640013684845
           4 :    222.897774973448
           5 :   -163.060512519516
[...]

     Program PWSCF v.5.1rc2 (svn rev. 11289) starts on 19Dec2018 at  9:19:44

[...]

   This run was terminated on:   9:51:31  19Dec2018

[...]

     Program PWSCF v.5.1rc2 (svn rev. 11289) starts on 19Dec2018 at  9:51:38

     Current dimensions of program PWSCF are:
     Max number of different atomic species (ntypx) = 10
     Max number of k-points (npk) =  40000
     Max angular momentum in pseudopotentials (lmaxx) =  3
     Presently stress not available with electric field

     IMPORTANT: XC functional enforced from input :
     Exchange-correlation      = BEEF-VDW ( 1  4 27 13 2)
     Any further DFT definition will be discarded
     Please, verify this is what you really want

     Subspace diagonalization in iterative solution of the eigenvalue problem:
     a serial algorithm will be used

     Found symmetry operation: I + ( -0.5000 -0.5000  0.0000)
     This is a supercell, fractional translations are disabled

     bravais-lattice index     =            0
     lattice parameter (alat)  =       1.8897  a.u.
     unit-cell volume          =    4294.9945 (a.u.)^3
     number of atoms/cell      =           12
     number of atomic types    =            2
     number of electrons       =       210.00
     number of Kohn-Sham states=          135
     kinetic-energy cutoff     =      36.7493  Ry
     charge density cutoff     =     367.4932  Ry
     convergence threshold     =      1.0E-06
     mixing beta               =       0.1000
     number of iterations used =           10  plain     mixing
     Exchange-correlation      = BEEF-VDW ( 1  4 27 13 2)
     nstep                     =           50

     celldm(1)=   1.889726  celldm(2)=   0.000000  celldm(3)=   0.000000
     celldm(4)=   0.000000  celldm(5)=   0.000000  celldm(6)=   0.000000

     crystal axes: (cart. coord. in units of alat)
               a(1) = (   5.270348   0.000000   0.000000 )
               a(2) = (   1.756787   4.968930   0.000000 )
               a(3) = (   0.000000   0.000000  24.303222 )

     reciprocal axes: (cart. coord. in units 2 pi/alat)
               b(1) = (  0.189741 -0.067084  0.000000 )
               b(2) = (  0.000000  0.201251  0.000000 )
               b(3) = (  0.000000  0.000000  0.041147 )

     PseudoPot. # 1 for Cu read from file:
     /afs/slac.stanford.edu/u/if/mamunm/psp/gbrv1.5pbe/Cu.UPF
     MD5 check sum: 6e991ff952a84172a2a52a1c1e996048
     Pseudo is Ultrasoft + core correction, Zval = 19.0
     Generated by new atomic code, or converted to UPF format
     Using radial grid of  867 points,  6 beta functions with:
                l(1) =   0
                l(2) =   0
                l(3) =   1
                l(4) =   1
                l(5) =   2
                l(6) =   2
     Q(r) pseudized with  8 coefficients,  rinner =    1.150   1.150   1.150
                                                       1.150   1.150

     PseudoPot. # 2 for Pd read from file:
     /afs/slac.stanford.edu/u/if/mamunm/psp/gbrv1.5pbe/Pd.UPF
     MD5 check sum: 2d733d2bc2cbfd217af676df1668a4bc
     Pseudo is Ultrasoft + core correction, Zval = 16.0
     Generated by new atomic code, or converted to UPF format
     Using radial grid of  887 points,  6 beta functions with:
                l(1) =   0
                l(2) =   0
                l(3) =   1
                l(4) =   1
                l(5) =   2
                l(6) =   2
     Q(r) pseudized with  8 coefficients,  rinner =    1.130   1.130   1.130
                                                       1.130   1.130

     vdW kernel table read from file vdW_kernel_table
     MD5 check sum: 095c7af220d748ca6e76c0b4c6cfb241

     atomic species   valence    mass     pseudopotential
        Cu1           19.00    63.54600     Cu( 1.00)
        Pd1           16.00   106.42000     Pd( 1.00)

     No symmetry found

   Cartesian axes

     site n.     atom                  positions (alat units)
         1           Cu1 tau(   1) = (   0.0000000   0.0000000  10.0000000  )
         2           Cu1 tau(   2) = (   3.5135674   2.4844650  10.0000000  )
         3           Pd1 tau(   3) = (   2.6351739   0.0000000  10.0000000  )
         4           Pd1 tau(   4) = (   0.8783935   2.4844650  10.0000000  )
         5           Cu1 tau(   5) = (   5.2703478   3.7266951  12.1516112  )
         6           Cu1 tau(   6) = (   1.7567804   1.2422301  12.1516112  )
         7           Pd1 tau(   7) = (   2.6351739   3.7266951  12.1516112  )
         8           Pd1 tau(   8) = (   4.3919543   1.2422301  12.1516112  )
         9           Cu1 tau(   9) = (   3.5135581   2.4844630  14.2936223  )
        10           Cu1 tau(  10) = (   7.0271303   4.9689217  14.2936050  )
        11           Pd1 tau(  11) = (   6.1487349   2.4844607  14.2762583  )
        12           Pd1 tau(  12) = (   4.3919547   4.9689254  14.2762571  )

     number of k points=    20  Fermi-Dirac smearing, width (Ry)=  0.0110
                       cart. coord. in units 2pi/alat
        k(    1) = (   0.0000000   0.0000000   0.0000000), wk =   0.0555556
        k(    2) = (   0.0000000   0.0335418   0.0000000), wk =   0.1111111
        k(    3) = (   0.0000000   0.0670835   0.0000000), wk =   0.1111111
        k(    4) = (   0.0000000  -0.1006253   0.0000000), wk =   0.0555556
        k(    5) = (   0.0316235  -0.0111806   0.0000000), wk =   0.1111111
        k(    6) = (   0.0316235   0.0223611   0.0000000), wk =   0.1111111
        k(    7) = (   0.0316235   0.0559029   0.0000000), wk =   0.1111111
        k(    8) = (   0.0316235  -0.1118059   0.0000000), wk =   0.1111111
        k(    9) = (   0.0316235  -0.0782641   0.0000000), wk =   0.1111111
        k(   10) = (   0.0316235  -0.0447224   0.0000000), wk =   0.1111111
        k(   11) = (   0.0632469  -0.0223612   0.0000000), wk =   0.1111111
        k(   12) = (   0.0632469   0.0111805   0.0000000), wk =   0.1111111
        k(   13) = (   0.0632469   0.0447223   0.0000000), wk =   0.1111111
        k(   14) = (   0.0632469  -0.1229865   0.0000000), wk =   0.1111111
        k(   15) = (   0.0632469  -0.0894448   0.0000000), wk =   0.1111111
        k(   16) = (   0.0632469  -0.0559030   0.0000000), wk =   0.1111111
        k(   17) = (  -0.0948704   0.0335418   0.0000000), wk =   0.0555556
        k(   18) = (  -0.0948704   0.0670836   0.0000000), wk =   0.1111111
        k(   19) = (  -0.0948704   0.1006254   0.0000000), wk =   0.1111111
        k(   20) = (  -0.0948704  -0.0670834   0.0000000), wk =   0.0555556

     Largest allocated arrays     est. size (Mb)     dimensions
     Largest temporary arrays     est. size (Mb)     dimensions

     Initial potential from superposition of free atoms
     Check: negative starting charge=   -0.447411

     starting charge  200.99995, renormalised to  210.00000

[...]

     *
     * You are using vdW-DF for exchange-correlation in this calculation.
     * Please cite the following three references that made this development
     * possible:
     *
     *   M. Dion, H. Rydberg, E. Schroder, D. C. Langreth, and
     *   B. I. Lundqvist, Phys. Rev. Lett. 92, 246401 (2004).
     *
     *   T. Thonhauser, V. R. Cooper, S. Li, A. Puzder, P. Hyldgaard, and
     *   D. C. Langreth, Phys. Rev. B 76, 125112 (2007).
     *
     *   G. Roman-Perez and J. M. Soler, Phys. Rev. Lett. 103, 096102 (2009).
     *
     *
     * If you are using vdW-DF2, please also cite:
     *
     *   K. Lee, E. D. Murray, L. Kong, B. I. Lundqvist, and
     *   D. C. Langreth, Phys. Rev. B 82, 081101(R) (2010).
     *
     *
     * If you are calculating the stress with vdW-DF, please also cite:
     *
     *   R. Sabatini, E. Kucukbenli, B. Kolb, T. Thonhauser, and
     *   S. de Gironcoli, J. Phys.: Condens. Matter 24, 424209 (2012).
     *

     Carrying out vdW-DF run using the following parameters:

     Nqs =      20    Nr_points =    1024   r_max =   100.000
     q_mesh =
               0.00001000     0.04494208     0.09755937     0.15916263
               0.23128650     0.31572767     0.41458969     0.53033537
               0.66584808     0.82450364     1.01025438     1.22772762
               1.48234092     1.78043706     2.12944203     2.53805004
               3.01644009     3.57652955     4.23227104     5.00000000

     Gradients computed in reciprocal space

[...]

     Starting wfc are  150 randomized atomic wfcs

     Self-consistent Calculation

[...]

     total energy              =   -3628.37337648 Ry
     Harris-Foulkes estimate   =   -3628.37337533 Ry
     estimated scf accuracy    <       0.00000330 Ry

     iteration # 18     ecut=    36.75 Ry     beta=0.10
     Davidson diagonalization with overlap
     ethr =  1.57E-09,  avg # of iterations =  1.4

[...]

     negative rho (up, down):  4.661E-01 0.000E+00

     Adding external electric field

     Computed dipole along edir(3) :
        Dipole                0.0025 Ry au,          0.0063 Debye
        Dipole field          0.0000 Ry au

        Potential amp.       -0.0007 Ry
        Total length         44.7783 bohr

     End of self-consistent calculation

[...]

          k = 0.0632-0.0559 0.0000 ( 16173 PWs)   bands (ev):

[...]

          k =-0.0949-0.0671 0.0000 ( 16080 PWs)   bands (ev):

  -111.3479-111.3476-111.2006-111.2003-111.1973-111.1970 -68.7595 -68.7591
   -68.7515 -68.7481 -68.7476 -68.7452 -68.6626 -68.6621 -68.6598 -68.6593
   -68.6121 -68.6093 -68.6058 -68.6030 -68.5535 -68.5530 -68.5490 -68.5485
   -49.2695 -49.2670 -49.2652 -49.2591 -49.2584 -49.1994 -49.0199 -49.0185
   -49.0120 -49.0046 -49.0038 -48.9983 -48.9502 -48.9341 -48.8708 -48.8652
   -48.8518 -48.8461  -4.3596  -4.2241  -3.3813  -3.3577  -3.2863  -3.2361
    -3.0282  -3.0225  -2.9749  -2.9172  -2.8381  -2.5502  -2.4506  -2.4231
    -2.4181  -2.2188  -2.2145  -2.1037  -2.0603  -2.0438  -2.0394  -1.9549
    -1.8895  -1.8724  -1.8116  -1.6599  -1.6370  -1.6118  -1.6113  -1.5392
    -1.5081  -1.4951  -1.4849  -1.4794  -1.4252  -1.3893  -1.3632  -1.3495
    -1.2610  -1.2381  -1.2234  -1.1300  -1.1036  -1.0851  -1.0653  -0.9935
    -0.9694  -0.9693  -0.9088  -0.8573  -0.8509  -0.8146  -0.7991  -0.7606
    -0.7099  -0.5054  -0.4406  -0.3252  -0.1499  -0.1229  -0.0672   0.0395
     0.0492   0.2357   0.7951   1.6642   1.8250   2.2395   2.6667   2.8520
     4.3318   4.8057   4.8458   4.8534   6.5748   6.7019   7.0563   7.2184
     7.2595   7.3233   7.3623   7.3701   7.8288   8.4231   8.4944   8.5682
     8.7040   8.9004   9.0185   9.0514   9.1786   9.3125   9.3772

     the Fermi energy is     0.4207 ev

!    total energy              =   -3628.37338195 Ry
     Harris-Foulkes estimate   =   -3628.37337677 Ry
     estimated scf accuracy    <       0.00000056 Ry

     The total energy is the sum of the following terms:

     one-electron contribution =  -27307.13954470 Ry
     hartree contribution      =   13687.05016390 Ry
     xc contribution           =    -435.38183812 Ry
     ewald contribution        =   10427.14502122 Ry
     electric field correction =       0.00000002 Ry
     smearing contrib. (-TS)   =      -0.04718428 Ry

     convergence has been achieved in  18 iterations

 BEEF-vdW xc energy contributions
           1 :   -382.915196024976
           2 :    348.363196197498
           3 :   -289.691686468373
           4 :    222.952659008001
           5 :   -163.097563653133
           6 :    118.757447494474
           7 :   -90.6977978231566
           8 :    74.0024565392836
           9 :   -62.2145369136597
          10 :    50.9720448366836
          11 :   -39.4183921082334
          12 :    29.2106754367003
          13 :   -22.3315937347645
          14 :    19.3231195406365
          15 :   -18.9436553410824
          16 :    19.1371419964904
          17 :   -18.3947106287377
          18 :    16.5195976277894
          19 :   -14.3906757905196
          20 :    13.0593093406110
          21 :   -12.9131742225889
          22 :    13.4696130279739
          23 :   -13.8377306084982
          24 :    13.4148774055402
          25 :   -12.2868593079373
          26 :    11.0815523061582
          27 :   -10.4449676179300
          28 :    10.5551758891540
          29 :   -11.0234533713170
          30 :    11.2202166331073
          31 :   -33.4228087681272
          32 :   -23.7227439491896

     Forces acting on atoms (Ry/au):

     negative rho (up, down):  4.661E-01 0.000E+00
     atom    1 type  1   force =     0.00000091    0.00000048    0.00182177
     atom    2 type  1   force =    -0.00000251   -0.00000101    0.00182277
     atom    3 type  2   force =    -0.00000023    0.00000043    0.00433909
     atom    4 type  2   force =     0.00000059   -0.00000032    0.00433873
     atom    5 type  1   force =     0.00000040    0.00000256   -0.00363022
     atom    6 type  1   force =     0.00000231   -0.00000046   -0.00363178
     atom    7 type  2   force =     0.00000038   -0.00000099   -0.00216544
     atom    8 type  2   force =    -0.00000068    0.00000073   -0.00216423
     atom    9 type  1   force =     0.00000151   -0.00000236   -0.00022563
     atom   10 type  1   force =    -0.00000309    0.00000066   -0.00022605
     atom   11 type  2   force =    -0.00000068    0.00000000   -0.00013959
     atom   12 type  2   force =     0.00000109    0.00000028   -0.00013942

     Total force =     0.008954     Total SCF correction =     0.002560
     SCF correction compared to forces is large: reduce conv_thr to get better values

     entering subroutine stress ...

     negative rho (up, down):  4.661E-01 0.000E+00
          total   stress  (Ry/bohr**3)                   (kbar)     P=  -15.02
  -0.00011520   0.00002055   0.00000000        -16.95      3.02      0.00
   0.00002055  -0.00012973   0.00000000          3.02    -19.08      0.00
   0.00000000   0.00000000  -0.00006131          0.00      0.00     -9.02

 !ASE

     Writing output data file calc.save

     General routines

     Parallel routines

   This run was terminated on:  10: 7:55  19Dec2018

   JOB DONE.
Job  /afs/slac/g/suncat/bin/suncat-tsmpirun -x LD_LIBRARY_PATH -wdir /scratch/qe529800_QcVG3 pw.x -in pw.inp

TID   HOST_NAME   COMMAND_LINE            STATUS            TERMINATION_TIME
00000 suncat0122 pw.x -in pw.inp   Done                     12/19/2018 10:07:55
00001 suncat0122 pw.x -in pw.inp   Done                     12/19/2018 10:07:55
00002 suncat0122 pw.x -in pw.inp   Done                     12/19/2018 10:07:55
00003 suncat0122 pw.x -in pw.inp   Done                     12/19/2018 10:07:55
00004 suncat0122 pw.x -in pw.inp   Done                     12/19/2018 10:07:55
00005 suncat0122 pw.x -in pw.inp   Done                     12/19/2018 10:07:55
00006 suncat0122 pw.x -in pw.inp   Done                     12/19/2018 10:07:55
00007 suncat0122 pw.x -in pw.inp   Done                     12/19/2018 10:07:55
00008 suncat0121 pw.x -in pw.inp   Done                     12/19/2018 10:07:55
00009 suncat0121 pw.x -in pw.inp   Done                     12/19/2018 10:07:55
00010 suncat0121 pw.x -in pw.inp   Done                     12/19/2018 10:07:55
00011 suncat0121 pw.x -in pw.inp   Done                     12/19/2018 10:07:55
00012 suncat0121 pw.x -in pw.inp   Done                     12/19/2018 10:07:55
00013 suncat0121 pw.x -in pw.inp   Done                     12/19/2018 10:07:55
00014 suncat0121 pw.x -in pw.inp   Done                     12/19/2018 10:07:55
00015 suncat0121 pw.x -in pw.inp   Done                     12/19/2018 10:07:55
00016 suncat0117 pw.x -in pw.inp   Done                     12/19/2018 10:07:55
00017 suncat0117 pw.x -in pw.inp   Done                     12/19/2018 10:07:55
00018 suncat0117 pw.x -in pw.inp   Done                     12/19/2018 10:07:55
00019 suncat0117 pw.x -in pw.inp   Done                     12/19/2018 10:07:55
00020 suncat0117 pw.x -in pw.inp   Done                     12/19/2018 10:07:55
00021 suncat0117 pw.x -in pw.inp   Done                     12/19/2018 10:07:55
00022 suncat0117 pw.x -in pw.inp   Done                     12/19/2018 10:07:55
00023 suncat0117 pw.x -in pw.inp   Done                     12/19/2018 10:07:55
00024 suncat0116 pw.x -in pw.inp   Done                     12/19/2018 10:07:55
00025 suncat0116 pw.x -in pw.inp   Done                     12/19/2018 10:07:55
00026 suncat0116 pw.x -in pw.inp   Done                     12/19/2018 10:07:55
00027 suncat0116 pw.x -in pw.inp   Done                     12/19/2018 10:07:55
00028 suncat0116 pw.x -in pw.inp   Done                     12/19/2018 10:07:55
00029 suncat0116 pw.x -in pw.inp   Done                     12/19/2018 10:07:55
00030 suncat0116 pw.x -in pw.inp   Done                     12/19/2018 10:07:55
00031 suncat0116 pw.x -in pw.inp   Done                     12/19/2018 10:07:55