     Program PWSCF v.5.1rc2 (svn rev. 11289) starts on 24Dec2018 at 23: 3:32

     Current dimensions of program PWSCF are:
     Max number of different atomic species (ntypx) = 10
     Max number of k-points (npk) =  40000
     Max angular momentum in pseudopotentials (lmaxx) =  3
     Presently stress not available with electric field

     IMPORTANT: XC functional enforced from input :
     Exchange-correlation      = BEEF-VDW ( 1  4 27 13 2)
     Any further DFT definition will be discarded
     Please, verify this is what you really want

     Subspace diagonalization in iterative solution of the eigenvalue problem:
     a serial algorithm will be used

     Found symmetry operation: I + ( -0.5000  0.0000  0.0000)
     This is a supercell, fractional translations are disabled

     bravais-lattice index     =            0
     lattice parameter (alat)  =       1.8897  a.u.
     unit-cell volume          =    7509.3224 (a.u.)^3
     number of atoms/cell      =           12
     number of atomic types    =            2
     number of electrons       =       156.00
     number of Kohn-Sham states=          108
     kinetic-energy cutoff     =      36.7493  Ry
     charge density cutoff     =     367.4932  Ry
     convergence threshold     =      1.0E-06
     mixing beta               =       0.1000
     number of iterations used =           10  plain     mixing
     Exchange-correlation      = BEEF-VDW ( 1  4 27 13 2)
     nstep                     =           50

     celldm(1)=   1.889726  celldm(2)=   0.000000  celldm(3)=   0.000000
     celldm(4)=   0.000000  celldm(5)=   0.000000  celldm(6)=   0.000000

     crystal axes: (cart. coord. in units of alat)
               a(1) = (   6.997488   0.000000   0.000000 )
               a(2) = (  -3.498744   6.172170   0.000000 )
               a(3) = (   0.000000   0.000000  25.764639 )

     reciprocal axes: (cart. coord. in units 2 pi/alat)
               b(1) = (  0.142908  0.081009  0.000000 )
               b(2) = (  0.000000  0.162018  0.000000 )
               b(3) = (  0.000000  0.000000  0.038813 )

     PseudoPot. # 1 for In read from file:
     /afs/slac.stanford.edu/u/if/mamunm/psp/gbrv1.5pbe/In.UPF
     MD5 check sum: 90777abd96fbb83f2e67db2a40c566b9
     Pseudo is Ultrasoft + core correction, Zval = 13.0
     Generated by new atomic code, or converted to UPF format
     Using radial grid of  889 points,  6 beta functions with:
                l(1) =   0
                l(2) =   0
                l(3) =   1
                l(4) =   1
                l(5) =   2
                l(6) =   2
     Q(r) pseudized with  6 coefficients,  rinner =    1.400   1.400   1.400
                                                       1.400   1.400

     PseudoPot. # 2 for Tl read from file:
     /afs/slac.stanford.edu/u/if/mamunm/psp/gbrv1.5pbe/Tl.UPF
     MD5 check sum: b76cf1f7e72655a2b2c53cf6385d7059
     Pseudo is Ultrasoft + core correction, Zval = 13.0
     Generated by new atomic code, or converted to UPF format
     Using radial grid of  899 points,  6 beta functions with:
                l(1) =   0
                l(2) =   0
                l(3) =   1
                l(4) =   1
                l(5) =   2
                l(6) =   2
     Q(r) pseudized with  6 coefficients,  rinner =    1.100   1.100   1.100
                                                       1.100   1.100

     vdW kernel table read from file vdW_kernel_table
     MD5 check sum: 095c7af220d748ca6e76c0b4c6cfb241

     atomic species   valence    mass     pseudopotential
        In1           13.00   114.81800     In( 1.00)
        Tl1           13.00   204.38000     Tl( 1.00)

     No symmetry found

   Cartesian axes

     site n.     atom                  positions (alat units)
         1           In1 tau(   1) = (   0.0000000   0.0000000  10.0000000  )
         2           In1 tau(   2) = (   3.4987442   0.0000000  10.0000000  )
         3           Tl1 tau(   3) = (   1.7493721   3.0860851  10.0000000  )
         4           Tl1 tau(   4) = (  -1.7493721   3.0860851  10.0000000  )
         5           In1 tau(   5) = (   3.4987442   1.9832912  12.8823197  )
         6           In1 tau(   6) = (   0.0000000   1.9832912  12.8823197  )
         7           Tl1 tau(   7) = (  -1.7493721   5.0693763  12.8823197  )
         8           Tl1 tau(   8) = (   1.7493721   5.0693763  12.8823197  )
         9           In1 tau(   9) = (  -0.0000000   3.9665824  15.7646394  )
        10           In1 tau(  10) = (   3.4987442   3.9665824  15.7646394  )
        11           Tl1 tau(  11) = (   5.2481163   0.8804972  15.7646394  )
        12           Tl1 tau(  12) = (   1.7493721   0.8804972  15.7646394  )

     number of k points=    20  Fermi-Dirac smearing, width (Ry)=  0.0110
                       cart. coord. in units 2pi/alat
        k(    1) = (   0.0000000   0.0000000   0.0000000), wk =   0.0555556
        k(    2) = (   0.0000000   0.0270029   0.0000000), wk =   0.1111111
        k(    3) = (   0.0000000   0.0540059   0.0000000), wk =   0.1111111
        k(    4) = (   0.0000000  -0.0810088   0.0000000), wk =   0.0555556
        k(    5) = (   0.0238181   0.0135015   0.0000000), wk =   0.1111111
        k(    6) = (   0.0238181   0.0405044   0.0000000), wk =   0.1111111
        k(    7) = (   0.0238181   0.0675073   0.0000000), wk =   0.1111111
        k(    8) = (   0.0238181  -0.0675073   0.0000000), wk =   0.1111111
        k(    9) = (   0.0238181  -0.0405044   0.0000000), wk =   0.1111111
        k(   10) = (   0.0238181  -0.0135015   0.0000000), wk =   0.1111111
        k(   11) = (   0.0476361   0.0270029   0.0000000), wk =   0.1111111
        k(   12) = (   0.0476361   0.0540059   0.0000000), wk =   0.1111111
        k(   13) = (   0.0476361   0.0810088   0.0000000), wk =   0.1111111
        k(   14) = (   0.0476361  -0.0540059   0.0000000), wk =   0.1111111
        k(   15) = (   0.0476361  -0.0270029   0.0000000), wk =   0.1111111
        k(   16) = (   0.0476361   0.0000000   0.0000000), wk =   0.1111111
        k(   17) = (  -0.0714542  -0.0405044   0.0000000), wk =   0.0555556
        k(   18) = (  -0.0714542  -0.0135015   0.0000000), wk =   0.1111111
        k(   19) = (  -0.0714542   0.0135015   0.0000000), wk =   0.1111111
        k(   20) = (  -0.0714542  -0.1215132   0.0000000), wk =   0.0555556

     Largest allocated arrays     est. size (Mb)     dimensions
     Largest temporary arrays     est. size (Mb)     dimensions

     Check: negative/imaginary core charge=   -0.000001    0.000000

     Initial potential from superposition of free atoms
     Check: negative starting charge=   -0.306470

     starting charge  146.97080, renormalised to  156.00000

     negative rho (up, down):  3.253E-01 0.000E+00

     *
     * You are using vdW-DF for exchange-correlation in this calculation.
     * Please cite the following three references that made this development
     * possible:
     *
     *   M. Dion, H. Rydberg, E. Schroder, D. C. Langreth, and
     *   B. I. Lundqvist, Phys. Rev. Lett. 92, 246401 (2004).
     *
     *   T. Thonhauser, V. R. Cooper, S. Li, A. Puzder, P. Hyldgaard, and
     *   D. C. Langreth, Phys. Rev. B 76, 125112 (2007).
     *
     *   G. Roman-Perez and J. M. Soler, Phys. Rev. Lett. 103, 096102 (2009).
     *
     *
     * If you are using vdW-DF2, please also cite:
     *
     *   K. Lee, E. D. Murray, L. Kong, B. I. Lundqvist, and
     *   D. C. Langreth, Phys. Rev. B 82, 081101(R) (2010).
     *
     *
     * If you are calculating the stress with vdW-DF, please also cite:
     *
     *   R. Sabatini, E. Kucukbenli, B. Kolb, T. Thonhauser, and
     *   S. de Gironcoli, J. Phys.: Condens. Matter 24, 424209 (2012).
     *

     Carrying out vdW-DF run using the following parameters:

     Nqs =      20    Nr_points =    1024   r_max =   100.000
     q_mesh =
               0.00001000     0.04494208     0.09755937     0.15916263
               0.23128650     0.31572767     0.41458969     0.53033537
               0.66584808     0.82450364     1.01025438     1.22772762
               1.48234092     1.78043706     2.12944203     2.53805004
               3.01644009     3.57652955     4.23227104     5.00000000

     Gradients computed in reciprocal space

     Adding external electric field

     Computed dipole along edir(3) :
        Dipole                0.0000 Ry au,          0.0000 Debye
        Dipole field          0.0000 Ry au

        Potential amp.       -0.0000 Ry
        Total length         47.4709 bohr

     Starting wfc are  108 randomized atomic wfcs

     Self-consistent Calculation

     iteration #  1     ecut=    36.75 Ry     beta=0.10
     Davidson diagonalization with overlap
     ethr =  1.00E-02,  avg # of iterations =  8.4

[...]

     total energy              =   -1691.24121452 Ry
     Harris-Foulkes estimate   =   -1692.61931532 Ry
     estimated scf accuracy    <       8.73998459 Ry

[...]

     End of self-consistent calculation

          k = 0.0000 0.0000 0.0000 ( 28147 PWs)   bands (ev):

   -14.6178 -14.6081 -14.5623 -14.5594 -14.5556 -14.5533 -14.5477 -14.5470
   -14.5463 -14.5377 -14.5368 -14.5303 -14.5298 -14.5214 -14.5042 -14.4848
   -14.4814 -14.4710 -14.4686 -14.4683 -14.4362 -14.4347 -14.4207 -14.4116
   -14.4115 -14.3956 -14.3850 -14.3792 -14.3639 -14.3044 -11.6101 -11.5810
   -11.5056 -11.4920 -11.4573 -11.4535 -11.4513 -11.4446 -11.4379 -11.4295
   -11.3902 -11.3715 -11.3713 -11.3638 -11.3534 -11.3514 -11.3217 -11.3012
   -11.2863 -11.2668 -11.2652 -11.2579 -11.2389 -11.2309 -11.2030 -11.1902
   -11.1722 -11.1685 -11.1487 -11.0441  -8.2966  -7.2488  -5.7716  -5.0338
    -4.6162  -4.1487  -4.0396  -3.8729  -3.7161  -3.3841  -3.3509  -2.4692
    -1.7093  -1.6542  -1.6093  -1.3099  -0.6286  -0.5536  -0.5431  -0.4172
    -0.3514  -0.2672   1.0742   2.7753   2.8627   2.9469   2.9681   2.9696
     3.0174   3.0265   3.4934   4.1672   4.3292   4.3884   4.5126   4.7422
     4.8381   5.1200   5.1237   5.3897   5.6222   5.8265   5.9294   5.9642
     6.0937   6.1519   6.2786   6.7459

[...]

          k =-0.0715-0.0405 0.0000 ( 28248 PWs)   bands (ev):

[...]

     the Fermi energy is     0.3517 ev

!    total energy              =   -1689.44727352 Ry
     Harris-Foulkes estimate   =   -1689.44723524 Ry
     estimated scf accuracy    <       0.00000085 Ry

     The total energy is the sum of the following terms:

     one-electron contribution =   -7832.18287200 Ry
     hartree contribution      =    3994.46467570 Ry
     xc contribution           =    -618.32492931 Ry
     ewald contribution        =    2766.64193003 Ry
     electric field correction =       0.00000000 Ry
     smearing contrib. (-TS)   =      -0.04607794 Ry

     convergence has been achieved in  14 iterations

 BEEF-vdW xc energy contributions
           1 :   -547.394281080721
           2 :    504.834944124972
           3 :   -431.491587788187
           4 :    345.670118864524
           5 :   -264.879540742243
           6 :    199.947115765099
           7 :   -152.982533413355
           8 :    119.409537364574
           9 :   -92.3963517978491
          10 :    67.0793784864314
          11 :   -42.5363672581409
[...]
     MD5 check sum: 90777abd96fbb83f2e67db2a40c566b9
     Pseudo is Ultrasoft + core correction, Zval = 13.0
     Generated by new atomic code, or converted to UPF format
     Using radial grid of  889 points,  6 beta functions with:
                l(1) =   0
                l(2) =   0
                l(3) =   1
                l(4) =   1
                l(5) =   2
                l(6) =   2
     Q(r) pseudized with  6 coefficients,  rinner =    1.400   1.400   1.400
                                                       1.400   1.400

     PseudoPot. # 2 for Tl read from file:
     /afs/slac.stanford.edu/u/if/mamunm/psp/gbrv1.5pbe/Tl.UPF
     MD5 check sum: b76cf1f7e72655a2b2c53cf6385d7059
     Pseudo is Ultrasoft + core correction, Zval = 13.0
     Generated by new atomic code, or converted to UPF format
     Using radial grid of  899 points,  6 beta functions with:
                l(1) =   0
                l(2) =   0
                l(3) =   1
                l(4) =   1
                l(5) =   2
                l(6) =   2
     Q(r) pseudized with  6 coefficients,  rinner =    1.100   1.100   1.100
                                                       1.100   1.100

     vdW kernel table read from file vdW_kernel_table
     MD5 check sum: 095c7af220d748ca6e76c0b4c6cfb241

     atomic species   valence    mass     pseudopotential
        In1           13.00   114.81800     In( 1.00)
        Tl1           13.00   204.38000     Tl( 1.00)

     No symmetry found

   Cartesian axes

     site n.     atom                  positions (alat units)
         1           In1 tau(   1) = (   0.0000000   0.0000000  10.0000000  )
         2           In1 tau(   2) = (   3.4987442   0.0000000  10.0000000  )
         3           Tl1 tau(   3) = (   1.7493721   3.0860851  10.0000000  )
         4           Tl1 tau(   4) = (  -1.7493721   3.0860851  10.0000000  )
         5           In1 tau(   5) = (   3.4987442   1.9832912  12.8823197  )
         6           In1 tau(   6) = (   0.0000000   1.9832912  12.8823197  )
         7           Tl1 tau(   7) = (  -1.7493721   5.0693763  12.8823197  )
         8           Tl1 tau(   8) = (   1.7493721   5.0693763  12.8823197  )
         9           In1 tau(   9) = (  -0.0000475   3.9275997  15.6298251  )
        10           In1 tau(  10) = (   3.4987766   3.9285051  15.6294692  )
        11           Tl1 tau(  11) = (   5.2474282   0.9234620  15.8634292  )
        12           Tl1 tau(  12) = (   1.7499516   0.9236524  15.8635486  )

     number of k points=    20  Fermi-Dirac smearing, width (Ry)=  0.0110
                       cart. coord. in units 2pi/alat
        k(    1) = (   0.0000000   0.0000000   0.0000000), wk =   0.0555556
        k(    2) = (   0.0000000   0.0270029   0.0000000), wk =   0.1111111
        k(    3) = (   0.0000000   0.0540059   0.0000000), wk =   0.1111111
        k(    4) = (   0.0000000  -0.0810088   0.0000000), wk =   0.0555556
        k(    5) = (   0.0238181   0.0135015   0.0000000), wk =   0.1111111
        k(    6) = (   0.0238181   0.0405044   0.0000000), wk =   0.1111111
        k(    7) = (   0.0238181   0.0675073   0.0000000), wk =   0.1111111
        k(    8) = (   0.0238181  -0.0675073   0.0000000), wk =   0.1111111
        k(    9) = (   0.0238181  -0.0405044   0.0000000), wk =   0.1111111
        k(   10) = (   0.0238181  -0.0135015   0.0000000), wk =   0.1111111
        k(   11) = (   0.0476361   0.0270029   0.0000000), wk =   0.1111111
        k(   12) = (   0.0476361   0.0540059   0.0000000), wk =   0.1111111
        k(   13) = (   0.0476361   0.0810088   0.0000000), wk =   0.1111111
        k(   14) = (   0.0476361  -0.0540059   0.0000000), wk =   0.1111111
        k(   15) = (   0.0476361  -0.0270029   0.0000000), wk =   0.1111111
        k(   16) = (   0.0476361   0.0000000   0.0000000), wk =   0.1111111
        k(   17) = (  -0.0714542  -0.0405044   0.0000000), wk =   0.0555556
        k(   18) = (  -0.0714542  -0.0135015   0.0000000), wk =   0.1111111
        k(   19) = (  -0.0714542   0.0135015   0.0000000), wk =   0.1111111
        k(   20) = (  -0.0714542  -0.1215132   0.0000000), wk =   0.0555556

     Largest allocated arrays     est. size (Mb)     dimensions
     Largest temporary arrays     est. size (Mb)     dimensions

     Check: negative/imaginary core charge=   -0.000001    0.000000

     Initial potential from superposition of free atoms
     Check: negative starting charge=   -0.306953

     starting charge  146.97080, renormalised to  156.00000

[...]

     *
     * You are using vdW-DF for exchange-correlation in this calculation.
     * Please cite the following three references that made this development
     * possible:
     *
     *   M. Dion, H. Rydberg, E. Schroder, D. C. Langreth, and
     *   B. I. Lundqvist, Phys. Rev. Lett. 92, 246401 (2004).
     *
     *   T. Thonhauser, V. R. Cooper, S. Li, A. Puzder, P. Hyldgaard, and
     *   D. C. Langreth, Phys. Rev. B 76, 125112 (2007).
     *
     *   G. Roman-Perez and J. M. Soler, Phys. Rev. Lett. 103, 096102 (2009).
     *
     *
     * If you are using vdW-DF2, please also cite:
     *
     *   K. Lee, E. D. Murray, L. Kong, B. I. Lundqvist, and
     *   D. C. Langreth, Phys. Rev. B 82, 081101(R) (2010).
     *
     *
     * If you are calculating the stress with vdW-DF, please also cite:
     *
     *   R. Sabatini, E. Kucukbenli, B. Kolb, T. Thonhauser, and
     *   S. de Gironcoli, J. Phys.: Condens. Matter 24, 424209 (2012).
     *

     Carrying out vdW-DF run using the following parameters:

     Nqs =      20    Nr_points =    1024   r_max =   100.000
     q_mesh =
               0.00001000     0.04494208     0.09755937     0.15916263
               0.23128650     0.31572767     0.41458969     0.53033537
               0.66584808     0.82450364     1.01025438     1.22772762
               1.48234092     1.78043706     2.12944203     2.53805004
               3.01644009     3.57652955     4.23227104     5.00000000

     Gradients computed in reciprocal space

[...]

     Starting wfc are  108 randomized atomic wfcs

     Self-consistent Calculation

[...]

     total energy              =   -1689.44865836 Ry
     Harris-Foulkes estimate   =   -1689.44864052 Ry
     estimated scf accuracy    <       0.00000192 Ry

     iteration # 15     ecut=    36.75 Ry     beta=0.10
     Davidson diagonalization with overlap
     ethr =  1.23E-09,  avg # of iterations =  2.0

[...]

     negative rho (up, down):  3.166E-01 0.000E+00

     Adding external electric field

     Computed dipole along edir(3) :
        Dipole                0.0032 Ry au,          0.0081 Debye
        Dipole field          0.0000 Ry au

        Potential amp.       -0.0005 Ry
        Total length         47.4709 bohr

     End of self-consistent calculation

[...]

          k = 0.0476 0.0000 0.0000 ( 28201 PWs)   bands (ev):

[...]

          k =-0.0715-0.1215 0.0000 ( 28248 PWs)   bands (ev):

   -14.5589 -14.5588 -14.5371 -14.5370 -14.5208 -14.5207 -14.5181 -14.5181
   -14.5149 -14.5149 -14.5080 -14.5080 -14.5047 -14.5046 -14.4992 -14.4992
   -14.4879 -14.4878 -14.4856 -14.4855 -14.4193 -14.4193 -14.4133 -14.4132
   -14.4028 -14.4028 -14.3891 -14.3890 -14.3613 -14.3613 -11.4771 -11.4769
   -11.4086 -11.4086 -11.4006 -11.4003 -11.3924 -11.3919 -11.3785 -11.3782
   -11.3746 -11.3745 -11.3728 -11.3726 -11.3694 -11.3692 -11.3580 -11.3580
   -11.3559 -11.3559 -11.2879 -11.2879 -11.2791 -11.2791 -11.2575 -11.2575
   -11.2537 -11.2537 -11.1971 -11.1971  -7.2332  -7.2329  -6.2517  -6.2507
    -5.3511  -5.3504  -4.5106  -4.5102  -3.7868  -3.7865  -2.9832  -2.9830
    -0.2075  -0.2074   0.1183   0.1185   0.2436   0.2442   1.0955   1.0964
     1.3351   1.3353   1.8366   1.8369   2.4191   2.4193   2.5699   2.5704
     3.0152   3.0161   3.3208   3.3215   3.4392   3.4395   3.9611   3.9613
     4.1116   4.1120   4.4763   4.4765   4.7609   4.7611   5.2028   5.2031
     5.3849   5.3851   5.6349   5.6351

     the Fermi energy is     0.3537 ev

!    total energy              =   -1689.44868168 Ry
     Harris-Foulkes estimate   =   -1689.44865862 Ry
     estimated scf accuracy    <       0.00000049 Ry

     The total energy is the sum of the following terms:

     one-electron contribution =   -7850.80735565 Ry
     hartree contribution      =    4003.79438978 Ry
     xc contribution           =    -618.33577651 Ry
     ewald contribution        =    2775.94556803 Ry
     electric field correction =       0.00000002 Ry
     smearing contrib. (-TS)   =      -0.04550734 Ry

     convergence has been achieved in  15 iterations

 BEEF-vdW xc energy contributions
           1 :   -547.405881747692
           2 :    504.853161605260
           3 :   -431.520383694772
           4 :    345.706471281080
           5 :   -264.912341739500
           6 :    199.962756511057
           7 :   -152.974027856964
           8 :    119.382024523107
           9 :   -92.3642623760410
          10 :    67.0577819953579
          11 :   -42.5328940232110
          12 :    20.9945241818344
          13 :   -5.31077727658419
          14 :   -3.32744854300256
          15 :    6.23720187988317
          16 :   -6.37274102416973
          17 :    6.60354146661518
          18 :   -8.33876367514608
          19 :    11.2341985985369
          20 :   -13.9389694188413
          21 :    15.2282625611003
          22 :   -14.7843448131499
          23 :    13.2424369859385
          24 :   -11.6436177921468
          25 :    10.7547873420785
          26 :   -10.6971798044893
          27 :    11.0290441129164
          28 :   -11.1251773374283
          29 :    10.5607263466926
          30 :   -9.29455796534819
          31 :   -46.0154875031326
          32 :   -33.4296599756217

     Forces acting on atoms (Ry/au):

     negative rho (up, down):  3.166E-01 0.000E+00
     atom    1 type  1   force =    -0.00000018    0.00249455    0.00348863
     atom    2 type  1   force =     0.00000034    0.00249228    0.00349050
     atom    3 type  2   force =    -0.00003954   -0.00320494   -0.00296499
     atom    4 type  2   force =     0.00003629   -0.00320538   -0.00296492
     atom    5 type  1   force =    -0.00000076   -0.00267476   -0.00034941
     atom    6 type  1   force =     0.00000060   -0.00267526   -0.00033833
     atom    7 type  2   force =    -0.00000153    0.00326605   -0.00095330
     atom    8 type  2   force =     0.00000334    0.00326387   -0.00095547
     atom    9 type  1   force =    -0.00000092    0.00089525    0.00101544
     atom   10 type  1   force =     0.00000099    0.00096299    0.00102513
     atom   11 type  2   force =     0.00007107   -0.00080574   -0.00024679
     atom   12 type  2   force =    -0.00006970   -0.00080890   -0.00024648

     Total force =     0.010856     Total SCF correction =     0.002830
     SCF correction compared to forces is large: reduce conv_thr to get better values

     entering subroutine stress ...

     negative rho (up, down):  3.166E-01 0.000E+00
          total   stress  (Ry/bohr**3)                   (kbar)     P=   -5.14
  -0.00004523  -0.00000000   0.00000000         -6.65     -0.00      0.00
  -0.00000000  -0.00004220  -0.00000161         -0.00     -6.21     -0.24
   0.00000000  -0.00000161  -0.00001740          0.00     -0.24     -2.56

 !ASE

     Writing output data file calc.save

     General routines

     Parallel routines

   This run was terminated on:   0:47:53  25Dec2018

   JOB DONE.
Job  /afs/slac/g/suncat/bin/suncat-tsmpirun -x LD_LIBRARY_PATH -wdir /scratch/qe109033_U93Op pw.x -in pw.inp

TID   HOST_NAME   COMMAND_LINE            STATUS            TERMINATION_TIME
00000 suncat0161 pw.x -in pw.inp   Done                     12/25/2018 00:47:53
00001 suncat0161 pw.x -in pw.inp   Done                     12/25/2018 00:47:53
00002 suncat0161 pw.x -in pw.inp   Done                     12/25/2018 00:47:53
00003 suncat0161 pw.x -in pw.inp   Done                     12/25/2018 00:47:53
00004 suncat0161 pw.x -in pw.inp   Done                     12/25/2018 00:47:53
00005 suncat0161 pw.x -in pw.inp   Done                     12/25/2018 00:47:53
00006 suncat0161 pw.x -in pw.inp   Done                     12/25/2018 00:47:53
00007 suncat0161 pw.x -in pw.inp   Done                     12/25/2018 00:47:53
00008 suncat0159 pw.x -in pw.inp   Done                     12/25/2018 00:47:53
00009 suncat0159 pw.x -in pw.inp   Done                     12/25/2018 00:47:53
00010 suncat0159 pw.x -in pw.inp   Done                     12/25/2018 00:47:53
00011 suncat0159 pw.x -in pw.inp   Done                     12/25/2018 00:47:53
00012 suncat0159 pw.x -in pw.inp   Done                     12/25/2018 00:47:53
00013 suncat0159 pw.x -in pw.inp   Done                     12/25/2018 00:47:53
00014 suncat0159 pw.x -in pw.inp   Done                     12/25/2018 00:47:53
00015 suncat0159 pw.x -in pw.inp   Done                     12/25/2018 00:47:53
00016 suncat0137 pw.x -in pw.inp   Done                     12/25/2018 00:47:53
00017 suncat0137 pw.x -in pw.inp   Done                     12/25/2018 00:47:53
00018 suncat0137 pw.x -in pw.inp   Done                     12/25/2018 00:47:53
00019 suncat0137 pw.x -in pw.inp   Done                     12/25/2018 00:47:53
00020 suncat0137 pw.x -in pw.inp   Done                     12/25/2018 00:47:53
00021 suncat0137 pw.x -in pw.inp   Done                     12/25/2018 00:47:53
00022 suncat0137 pw.x -in pw.inp   Done                     12/25/2018 00:47:53
00023 suncat0137 pw.x -in pw.inp   Done                     12/25/2018 00:47:53
00024 suncat0136 pw.x -in pw.inp   Done                     12/25/2018 00:47:53
00025 suncat0136 pw.x -in pw.inp   Done                     12/25/2018 00:47:53
00026 suncat0136 pw.x -in pw.inp   Done                     12/25/2018 00:47:53
00027 suncat0136 pw.x -in pw.inp   Done                     12/25/2018 00:47:53
00028 suncat0136 pw.x -in pw.inp   Done                     12/25/2018 00:47:53
00029 suncat0136 pw.x -in pw.inp   Done                     12/25/2018 00:47:53
00030 suncat0136 pw.x -in pw.inp   Done                     12/25/2018 00:47:53
00031 suncat0136 pw.x -in pw.inp   Done                     12/25/2018 00:47:53
00032 suncat0135 pw.x -in pw.inp   Done                     12/25/2018 00:47:53
00033 suncat0135 pw.x -in pw.inp   Done                     12/25/2018 00:47:53
00034 suncat0135 pw.x -in pw.inp   Done                     12/25/2018 00:47:53
00035 suncat0135 pw.x -in pw.inp   Done                     12/25/2018 00:47:53
00036 suncat0135 pw.x -in pw.inp   Done                     12/25/2018 00:47:53
00037 suncat0135 pw.x -in pw.inp   Done                     12/25/2018 00:47:53
00038 suncat0135 pw.x -in pw.inp   Done                     12/25/2018 00:47:53
00039 suncat0135 pw.x -in pw.inp   Done                     12/25/2018 00:47:53
00040 suncat0134 pw.x -in pw.inp   Done                     12/25/2018 00:47:53
00041 suncat0134 pw.x -in pw.inp   Done                     12/25/2018 00:47:53
00042 suncat0134 pw.x -in pw.inp   Done                     12/25/2018 00:47:53
00043 suncat0134 pw.x -in pw.inp   Done                     12/25/2018 00:47:53
00044 suncat0134 pw.x -in pw.inp   Done                     12/25/2018 00:47:53
00045 suncat0134 pw.x -in pw.inp   Done                     12/25/2018 00:47:53
00046 suncat0134 pw.x -in pw.inp   Done                     12/25/2018 00:47:53
00047 suncat0134 pw.x -in pw.inp   Done                     12/25/2018 00:47:53
00048 suncat0201 pw.x -in pw.inp   Done                     12/25/2018 00:47:53
00049 suncat0201 pw.x -in pw.inp   Done                     12/25/2018 00:47:53
00050 suncat0201 pw.x -in pw.inp   Done                     12/25/2018 00:47:53
00051 suncat0201 pw.x -in pw.inp   Done                     12/25/2018 00:47:53
00052 suncat0201 pw.x -in pw.inp   Done                     12/25/2018 00:47:53
00053 suncat0201 pw.x -in pw.inp   Done                     12/25/2018 00:47:53
00054 suncat0201 pw.x -in pw.inp   Done                     12/25/2018 00:47:53
00055 suncat0201 pw.x -in pw.inp   Done                     12/25/2018 00:47:53
00056 suncat0200 pw.x -in pw.inp   Done                     12/25/2018 00:47:53
00057 suncat0200 pw.x -in pw.inp   Done                     12/25/2018 00:47:53
00058 suncat0200 pw.x -in pw.inp   Done                     12/25/2018 00:47:53
00059 suncat0200 pw.x -in pw.inp   Done                     12/25/2018 00:47:53
00060 suncat0200 pw.x -in pw.inp   Done                     12/25/2018 00:47:53
00061 suncat0200 pw.x -in pw.inp   Done                     12/25/2018 00:47:53
00062 suncat0200 pw.x -in pw.inp   Done                     12/25/2018 00:47:53
00063 suncat0200 pw.x -in pw.inp   Done                     12/25/2018 00:47:53