     Program PWSCF v.5.1rc2 (svn rev. 11289) starts on 19Dec2018 at  3:37: 0

     Current dimensions of program PWSCF are:
     Max number of different atomic species (ntypx) = 10
     Max number of k-points (npk) =  40000
     Max angular momentum in pseudopotentials (lmaxx) =  3
     Presently stress not available with electric field

     IMPORTANT: XC functional enforced from input :
     Exchange-correlation      = BEEF-VDW ( 1  4 27 13 2)
     Any further DFT definition will be discarded
     Please, verify this is what you really want

     Subspace diagonalization in iterative solution of the eigenvalue problem:
     a serial algorithm will be used

     Found symmetry operation: I + (  0.5000  0.0000  0.0000)
     This is a supercell, fractional translations are disabled

     bravais-lattice index     =            0
     lattice parameter (alat)  =       1.8897  a.u.
     unit-cell volume          =    4607.6559 (a.u.)^3
     number of atoms/cell      =           12
     number of atomic types    =            2
     number of electrons       =       162.00
     number of Kohn-Sham states=          111
     kinetic-energy cutoff     =      36.7493  Ry
     charge density cutoff     =     367.4932  Ry
     convergence threshold     =      1.0E-06
     mixing beta               =       0.1000
     number of iterations used =           10  plain     mixing
     Exchange-correlation      = BEEF-VDW ( 1  4 27 13 2)
     nstep                     =           50

     celldm(1)=   1.889726  celldm(2)=   0.000000  celldm(3)=   0.000000
     celldm(4)=   0.000000  celldm(5)=   0.000000  celldm(6)=   0.000000

     crystal axes: (cart. coord. in units of alat)
               a(1) = (   5.570144   0.000000   0.000000 )
               a(2) = (  -2.785072   4.979380   0.000000 )
               a(3) = (   0.000000   0.000000  24.617377 )

     reciprocal axes: (cart. coord. in units 2 pi/alat)
               b(1) = (  0.179529  0.100414  0.000000 )
               b(2) = (  0.000000  0.200828  0.000000 )
               b(3) = (  0.000000  0.000000  0.040622 )

     PseudoPot. # 1 for Ru read from file:
     /afs/slac.stanford.edu/u/if/mamunm/psp/gbrv1.5pbe/Ru.UPF
     MD5 check sum: 7158a806dd851261a58e6920c40ebe78
     Pseudo is Ultrasoft + core correction, Zval = 16.0
     Generated by new atomic code, or converted to UPF format
     Using radial grid of  967 points,  6 beta functions with:
                l(1) =   0
                l(2) =   0
                l(3) =   1
                l(4) =   1
                l(5) =   2
                l(6) =   2
     Q(r) pseudized with  8 coefficients,  rinner =    1.300   1.300   1.300
                                                       1.300   1.300

     PseudoPot. # 2 for Au read from file:
     /afs/slac.stanford.edu/u/if/mamunm/psp/gbrv1.5pbe/Au.UPF
     MD5 check sum: 9d7f43293ad2c663164586bc4b293ffc
     Pseudo is Ultrasoft + core correction, Zval = 11.0
     Generated by new atomic code, or converted to UPF format
     Using radial grid of  985 points,  7 beta functions with:
                l(1) =   0
                l(2) =   0
                l(3) =   1
                l(4) =   1
                l(5) =   2
                l(6) =   2
                l(7) =   3
     Q(r) pseudized with  6 coefficients,  rinner =    1.900   1.900   1.900
                                                       1.900   1.900   1.900
                                                       1.900

     vdW kernel table read from file vdW_kernel_table
     MD5 check sum: 095c7af220d748ca6e76c0b4c6cfb241

     atomic species   valence    mass     pseudopotential
        Ru1           16.00   101.07000     Ru( 1.00)
        Au1           11.00   196.96657     Au( 1.00)

     No symmetry found

   Cartesian axes

     site n.     atom                  positions (alat units)
         1           Ru1 tau(   1) = (   0.0000000   0.0000000  10.0000000  )
         2           Ru1 tau(   2) = (   2.7850719   0.0000000  10.0000000  )
         3           Au1 tau(   3) = (   1.3925359   2.4896899  10.0000000  )
         4           Au1 tau(   4) = (  -1.3925359   2.4896899  10.0000000  )
         5           Ru1 tau(   5) = (   2.7850719   1.5577493  12.3086885  )
         6           Ru1 tau(   6) = (  -0.0000000   1.5577493  12.3086885  )
         7           Au1 tau(   7) = (  -1.3925359   4.0474392  12.3086885  )
         8           Au1 tau(   8) = (   1.3925359   4.0474392  12.3086885  )
         9           Ru1 tau(   9) = (  -0.0000000   3.1154986  14.6173770  )
        10           Ru1 tau(  10) = (   2.7850719   3.1154986  14.6173770  )
        11           Au1 tau(  11) = (   4.1776078   0.6258086  14.6173770  )
        12           Au1 tau(  12) = (   1.3925359   0.6258086  14.6173770  )

     number of k points=    20  Fermi-Dirac smearing, width (Ry)=  0.0110
                       cart. coord. in units 2pi/alat
        k(    1) = (   0.0000000   0.0000000   0.0000000), wk =   0.0555556
        k(    2) = (   0.0000000   0.0334714   0.0000000), wk =   0.1111111
        k(    3) = (   0.0000000   0.0669427   0.0000000), wk =   0.1111111
        k(    4) = (   0.0000000  -0.1004141   0.0000000), wk =   0.0555556
        k(    5) = (   0.0299214   0.0167357   0.0000000), wk =   0.1111111
        k(    6) = (   0.0299214   0.0502071   0.0000000), wk =   0.1111111
        k(    7) = (   0.0299214   0.0836784   0.0000000), wk =   0.1111111
        k(    8) = (   0.0299214  -0.0836784   0.0000000), wk =   0.1111111
        k(    9) = (   0.0299214  -0.0502071   0.0000000), wk =   0.1111111
        k(   10) = (   0.0299214  -0.0167357   0.0000000), wk =   0.1111111
        k(   11) = (   0.0598429   0.0334714   0.0000000), wk =   0.1111111
        k(   12) = (   0.0598429   0.0669427   0.0000000), wk =   0.1111111
        k(   13) = (   0.0598429   0.1004141   0.0000000), wk =   0.1111111
        k(   14) = (   0.0598429  -0.0669427   0.0000000), wk =   0.1111111
        k(   15) = (   0.0598429  -0.0334714   0.0000000), wk =   0.1111111
        k(   16) = (   0.0598429   0.0000000   0.0000000), wk =   0.1111111
        k(   17) = (  -0.0897643  -0.0502071   0.0000000), wk =   0.0555556
        k(   18) = (  -0.0897643  -0.0167357   0.0000000), wk =   0.1111111
        k(   19) = (  -0.0897643   0.0167357   0.0000000), wk =   0.1111111
        k(   20) = (  -0.0897643  -0.1506212   0.0000000), wk =   0.0555556

     Largest allocated arrays     est. size (Mb)     dimensions
     Largest temporary arrays     est. size (Mb)     dimensions

     Check: negative/imaginary core charge=   -0.000002    0.000000

     Initial potential from superposition of free atoms
     Check: negative starting charge=   -0.435114

     starting charge  155.99917, renormalised to  162.00000

     negative rho (up, down):  4.519E-01 0.000E+00

     *
     * You are using vdW-DF for exchange-correlation in this calculation.
     * Please cite the following three references that made this development
     * possible:
     *
     *   M. Dion, H. Rydberg, E. Schroder, D. C. Langreth, and
     *   B. I. Lundqvist, Phys. Rev. Lett. 92, 246401 (2004).
     *
     *   T. Thonhauser, V. R. Cooper, S. Li, A. Puzder, P. Hyldgaard, and
     *   D. C. Langreth, Phys. Rev. B 76, 125112 (2007).
     *
     *   G. Roman-Perez and J. M. Soler, Phys. Rev. Lett. 103, 096102 (2009).
     *
     *
     * If you are using vdW-DF2, please also cite:
     *
     *   K. Lee, E. D. Murray, L. Kong, B. I. Lundqvist, and
     *   D. C. Langreth, Phys. Rev. B 82, 081101(R) (2010).
     *
     *
     * If you are calculating the stress with vdW-DF, please also cite:
     *
     *   R. Sabatini, E. Kucukbenli, B. Kolb, T. Thonhauser, and
     *   S. de Gironcoli, J. Phys.: Condens. Matter 24, 424209 (2012).
     *

     Carrying out vdW-DF run using the following parameters:

     Nqs =      20    Nr_points =    1024   r_max =   100.000
     q_mesh =
               0.00001000     0.04494208     0.09755937     0.15916263
               0.23128650     0.31572767     0.41458969     0.53033537
               0.66584808     0.82450364     1.01025438     1.22772762
               1.48234092     1.78043706     2.12944203     2.53805004
               3.01644009     3.57652955     4.23227104     5.00000000

     Gradients computed in reciprocal space

     Adding external electric field

     Computed dipole along edir(3) :
        Dipole                0.0000 Ry au,          0.0000 Debye
        Dipole field          0.0000 Ry au

        Potential amp.       -0.0000 Ry
        Total length         45.3571 bohr

     Starting wfc are  132 randomized atomic wfcs

     Self-consistent Calculation

     iteration #  1     ecut=    36.75 Ry     beta=0.10
     Davidson diagonalization with overlap
     ethr =  1.00E-02,  avg # of iterations =  7.5

[...]

     total energy              =   -1870.53118437 Ry
     Harris-Foulkes estimate   =   -1872.45923989 Ry
     estimated scf accuracy    <      11.41669811 Ry

[...]

     End of self-consistent calculation

          k = 0.0000 0.0000 0.0000 ( 17397 PWs)   bands (ev):

   -71.5490 -71.5134 -71.2306 -71.2302 -71.1947 -71.1942 -41.6247 -41.6198
   -41.5803 -41.4885 -41.4537 -41.4518 -41.4498 -41.2531 -41.1872 -41.1771
   -41.1489 -41.1390 -41.1080 -41.0835 -41.0826 -41.0789 -41.0698 -41.0430
    -6.8460  -5.4793  -5.3858  -5.2529  -4.9989  -4.9585  -4.8745  -4.7822
    -4.6924  -4.5870  -4.5455  -4.4772  -4.2879  -4.2628  -3.9268  -3.7189
    -3.3641  -3.2949  -3.2774  -3.0961  -2.9073  -2.7703  -2.7096  -2.7072
    -2.5660  -2.4178  -2.3208  -2.1959  -2.1877  -1.6526  -1.6353  -1.4161
    -1.3653  -1.3557  -0.8378  -0.7877  -0.7645  -0.6553  -0.4137  -0.3702
    -0.1072  -0.0646  -0.0036   0.3933   0.5372   0.5381   0.5583   0.5700
     0.6155   0.9610   1.1513   1.1842   1.3465   1.4012   1.5556   1.6105
     1.6220   1.8280   1.8713   1.9281   1.9824   1.9999   2.0850   2.4449
     2.5460   2.5671   2.7799   3.7669   3.8940   3.9267   4.1200   4.3439
     4.4545   5.5432   5.8576   6.1025   6.1585   6.4815   6.9691   7.0277
     7.3591   7.4360   7.9057   8.4075   8.4854   8.4918   9.5256

[...]

          k =-0.0898-0.0502 0.0000 ( 17340 PWs)   bands (ev):

[...]

     the Fermi energy is     1.2028 ev

!    total energy              =   -1870.47057847 Ry
     Harris-Foulkes estimate   =   -1870.47057844 Ry
     estimated scf accuracy    <       0.00000043 Ry

     The total energy is the sum of the following terms:

     one-electron contribution =  -13967.84105597 Ry
     hartree contribution      =    7030.45247105 Ry
     xc contribution           =    -544.79593930 Ry
     ewald contribution        =    5611.82301677 Ry
     electric field correction =       0.00000000 Ry
     smearing contrib. (-TS)   =      -0.10907101 Ry

     convergence has been achieved in  20 iterations

 BEEF-vdW xc energy contributions
           1 :   -482.821122335373
           2 :    447.334442375878
           3 :   -384.416026542067
           4 :    307.222146077228
           5 :   -229.770144924005
           6 :    163.079593422324
           7 :   -112.918322537505
[...]

   This run was terminated on:   5: 1: 7  19Dec2018

[...]

     Found symmetry operation: I + (  0.5000  0.0000  0.0000)
     This is a supercell, fractional translations are disabled

[...]

   This run was terminated on:   7: 5:38  19Dec2018

[...]

     Program PWSCF v.5.1rc2 (svn rev. 11289) starts on 19Dec2018 at  7: 5:47

[...]

   This run was terminated on:   7:41: 8  19Dec2018

[...]

     Program PWSCF v.5.1rc2 (svn rev. 11289) starts on 19Dec2018 at  7:58: 1

[...]

     Program PWSCF v.5.1rc2 (svn rev. 11289) starts on 19Dec2018 at  8:14:58

     Current dimensions of program PWSCF are:
     Max number of different atomic species (ntypx) = 10
     Max number of k-points (npk) =  40000
     Max angular momentum in pseudopotentials (lmaxx) =  3
     Presently stress not available with electric field

     IMPORTANT: XC functional enforced from input :
     Exchange-correlation      = BEEF-VDW ( 1  4 27 13 2)
     Any further DFT definition will be discarded
     Please, verify this is what you really want

     Subspace diagonalization in iterative solution of the eigenvalue problem:
     a serial algorithm will be used

     bravais-lattice index     =            0
     lattice parameter (alat)  =       1.8897  a.u.
     unit-cell volume          =    4607.6559 (a.u.)^3
     number of atoms/cell      =           12
     number of atomic types    =            2
     number of electrons       =       162.00
     number of Kohn-Sham states=          111
     kinetic-energy cutoff     =      36.7493  Ry
     charge density cutoff     =     367.4932  Ry
     convergence threshold     =      1.0E-06
     mixing beta               =       0.1000
     number of iterations used =           10  plain     mixing
     Exchange-correlation      = BEEF-VDW ( 1  4 27 13 2)
     nstep                     =           50

     celldm(1)=   1.889726  celldm(2)=   0.000000  celldm(3)=   0.000000
     celldm(4)=   0.000000  celldm(5)=   0.000000  celldm(6)=   0.000000

     crystal axes: (cart. coord. in units of alat)
               a(1) = (   5.570144   0.000000   0.000000 )
               a(2) = (  -2.785072   4.979380   0.000000 )
               a(3) = (   0.000000   0.000000  24.617377 )

     reciprocal axes: (cart. coord. in units 2 pi/alat)
               b(1) = (  0.179529  0.100414  0.000000 )
               b(2) = (  0.000000  0.200828  0.000000 )
               b(3) = (  0.000000  0.000000  0.040622 )

     PseudoPot. # 1 for Ru read from file:
     /afs/slac.stanford.edu/u/if/mamunm/psp/gbrv1.5pbe/Ru.UPF
     MD5 check sum: 7158a806dd851261a58e6920c40ebe78
     Pseudo is Ultrasoft + core correction, Zval = 16.0
     Generated by new atomic code, or converted to UPF format
     Using radial grid of  967 points,  6 beta functions with:
                l(1) =   0
                l(2) =   0
                l(3) =   1
                l(4) =   1
                l(5) =   2
                l(6) =   2
     Q(r) pseudized with  8 coefficients,  rinner =    1.300   1.300   1.300
                                                       1.300   1.300

     PseudoPot. # 2 for Au read from file:
     /afs/slac.stanford.edu/u/if/mamunm/psp/gbrv1.5pbe/Au.UPF
     MD5 check sum: 9d7f43293ad2c663164586bc4b293ffc
     Pseudo is Ultrasoft + core correction, Zval = 11.0
     Generated by new atomic code, or converted to UPF format
     Using radial grid of  985 points,  7 beta functions with:
                l(1) =   0
                l(2) =   0
                l(3) =   1
                l(4) =   1
                l(5) =   2
                l(6) =   2
                l(7) =   3
     Q(r) pseudized with  6 coefficients,  rinner =    1.900   1.900   1.900
                                                       1.900   1.900   1.900
                                                       1.900

     vdW kernel table read from file vdW_kernel_table
     MD5 check sum: 095c7af220d748ca6e76c0b4c6cfb241

     atomic species   valence    mass     pseudopotential
        Ru1           16.00   101.07000     Ru( 1.00)
        Au1           11.00   196.96657     Au( 1.00)

     No symmetry found

   Cartesian axes

     site n.     atom                  positions (alat units)
         1           Ru1 tau(   1) = (   0.0000000   0.0000000  10.0000000  )
         2           Ru1 tau(   2) = (   2.7850719   0.0000000  10.0000000  )
         3           Au1 tau(   3) = (   1.3925359   2.4896899  10.0000000  )
         4           Au1 tau(   4) = (  -1.3925359   2.4896899  10.0000000  )
         5           Ru1 tau(   5) = (   2.7850719   1.5577493  12.3086885  )
         6           Ru1 tau(   6) = (  -0.0000000   1.5577493  12.3086885  )
         7           Au1 tau(   7) = (  -1.3925359   4.0474392  12.3086885  )
         8           Au1 tau(   8) = (   1.3925359   4.0474392  12.3086885  )
         9           Ru1 tau(   9) = (   0.0000374   0.7227463  14.4379532  )
        10           Ru1 tau(  10) = (   2.7850716   0.7226225  14.4379986  )
        11           Au1 tau(  11) = (   1.3925952   3.1501507  14.9887392  )
        12           Au1 tau(  12) = (  -1.3925325   3.1501201  14.9887439  )

     number of k points=    20  Fermi-Dirac smearing, width (Ry)=  0.0110
                       cart. coord. in units 2pi/alat
        k(    1) = (   0.0000000   0.0000000   0.0000000), wk =   0.0555556
        k(    2) = (   0.0000000   0.0334714   0.0000000), wk =   0.1111111
        k(    3) = (   0.0000000   0.0669427   0.0000000), wk =   0.1111111
        k(    4) = (   0.0000000  -0.1004141   0.0000000), wk =   0.0555556
        k(    5) = (   0.0299214   0.0167357   0.0000000), wk =   0.1111111
        k(    6) = (   0.0299214   0.0502071   0.0000000), wk =   0.1111111
        k(    7) = (   0.0299214   0.0836784   0.0000000), wk =   0.1111111
        k(    8) = (   0.0299214  -0.0836784   0.0000000), wk =   0.1111111
        k(    9) = (   0.0299214  -0.0502071   0.0000000), wk =   0.1111111
        k(   10) = (   0.0299214  -0.0167357   0.0000000), wk =   0.1111111
        k(   11) = (   0.0598429   0.0334714   0.0000000), wk =   0.1111111
        k(   12) = (   0.0598429   0.0669427   0.0000000), wk =   0.1111111
        k(   13) = (   0.0598429   0.1004141   0.0000000), wk =   0.1111111
        k(   14) = (   0.0598429  -0.0669427   0.0000000), wk =   0.1111111
        k(   15) = (   0.0598429  -0.0334714   0.0000000), wk =   0.1111111
        k(   16) = (   0.0598429   0.0000000   0.0000000), wk =   0.1111111
        k(   17) = (  -0.0897643  -0.0502071   0.0000000), wk =   0.0555556
        k(   18) = (  -0.0897643  -0.0167357   0.0000000), wk =   0.1111111
        k(   19) = (  -0.0897643   0.0167357   0.0000000), wk =   0.1111111
        k(   20) = (  -0.0897643  -0.1506212   0.0000000), wk =   0.0555556

     Largest allocated arrays     est. size (Mb)     dimensions
     Largest temporary arrays     est. size (Mb)     dimensions

     Check: negative/imaginary core charge=   -0.000002    0.000000

     Initial potential from superposition of free atoms
     Check: negative starting charge=   -0.434901

     starting charge  155.99917, renormalised to  162.00000

[...]

     *
     * You are using vdW-DF for exchange-correlation in this calculation.
     * Please cite the following three references that made this development
     * possible:
     *
     *   M. Dion, H. Rydberg, E. Schroder, D. C. Langreth, and
     *   B. I. Lundqvist, Phys. Rev. Lett. 92, 246401 (2004).
     *
     *   T. Thonhauser, V. R. Cooper, S. Li, A. Puzder, P. Hyldgaard, and
     *   D. C. Langreth, Phys. Rev. B 76, 125112 (2007).
     *
     *   G. Roman-Perez and J. M. Soler, Phys. Rev. Lett. 103, 096102 (2009).
     *
     *
     * If you are using vdW-DF2, please also cite:
     *
     *   K. Lee, E. D. Murray, L. Kong, B. I. Lundqvist, and
     *   D. C. Langreth, Phys. Rev. B 82, 081101(R) (2010).
     *
     *
     * If you are calculating the stress with vdW-DF, please also cite:
     *
     *   R. Sabatini, E. Kucukbenli, B. Kolb, T. Thonhauser, and
     *   S. de Gironcoli, J. Phys.: Condens. Matter 24, 424209 (2012).
     *

     Carrying out vdW-DF run using the following parameters:

     Nqs =      20    Nr_points =    1024   r_max =   100.000
     q_mesh =
               0.00001000     0.04494208     0.09755937     0.15916263
               0.23128650     0.31572767     0.41458969     0.53033537
               0.66584808     0.82450364     1.01025438     1.22772762
               1.48234092     1.78043706     2.12944203     2.53805004
               3.01644009     3.57652955     4.23227104     5.00000000

     Gradients computed in reciprocal space

[...]

     Starting wfc are  132 randomized atomic wfcs

     Self-consistent Calculation

[...]

     total energy              =   -1870.55393249 Ry
     Harris-Foulkes estimate   =   -1870.55393314 Ry
     estimated scf accuracy    <       0.00000129 Ry

     iteration # 21     ecut=    36.75 Ry     beta=0.10
     Davidson diagonalization with overlap
     ethr =  7.93E-10,  avg # of iterations =  1.9

[...]

     negative rho (up, down):  4.474E-01 0.000E+00

     Adding external electric field

     Computed dipole along edir(3) :
        Dipole               -0.0125 Ry au,         -0.0317 Debye
        Dipole field         -0.0000 Ry au

        Potential amp.        0.0031 Ry
        Total length         45.3571 bohr

     End of self-consistent calculation

[...]

          k = 0.0598 0.0000 0.0000 ( 17346 PWs)   bands (ev):

[...]

          k =-0.0898-0.1506 0.0000 ( 17340 PWs)   bands (ev):

   -71.8194 -71.8193 -71.5067 -71.5065 -71.1665 -71.1665 -42.4555 -42.4551
   -41.6822 -41.6821 -41.6039 -41.6038 -41.3863 -41.3861 -41.3652 -41.3650
   -41.3163 -41.3162 -41.2236 -41.2236 -41.1064 -41.1063 -41.0462 -41.0461
    -5.0947  -5.0946  -4.2779  -4.2778  -4.1459  -4.1459  -3.9857  -3.9857
    -3.7998  -3.7998  -3.7227  -3.7227  -3.5389  -3.5389  -3.2165  -3.2165
    -3.1664  -3.1664  -2.9985  -2.9985  -2.8549  -2.8549  -2.7305  -2.7305
    -2.6716  -2.6716  -2.5753  -2.5752  -2.4914  -2.4913  -2.1139  -2.1137
    -1.9109  -1.9108  -1.6508  -1.6505  -1.3851  -1.3851  -0.9640  -0.9639
    -0.8625  -0.8624  -0.4782  -0.4782  -0.2226  -0.2225  -0.0348  -0.0348
     0.1904   0.1904   0.3102   0.3103   0.4249   0.4250   0.5645   0.5645
     0.7886   0.7886   1.3814   1.3815   1.5694   1.5695   1.8231   1.8231
     2.6811   2.6812   3.3028   3.3029   4.1395   4.1396   5.1675   5.1676
     5.9582   5.9583   6.9631   6.9631   7.5953   7.5954   7.6823   7.6824
     8.4902   8.4902   8.7415   8.7416   8.8622   8.8623   9.2585

     the Fermi energy is     1.2731 ev

!    total energy              =   -1870.55393173 Ry
     Harris-Foulkes estimate   =   -1870.55393275 Ry
     estimated scf accuracy    <       0.00000065 Ry

     The total energy is the sum of the following terms:

     one-electron contribution =  -13872.97956885 Ry
     hartree contribution      =    6982.88461855 Ry
     xc contribution           =    -544.88236232 Ry
     ewald contribution        =    5564.50430979 Ry
     electric field correction =       0.00000042 Ry
     smearing contrib. (-TS)   =      -0.08092933 Ry

     convergence has been achieved in  21 iterations

 BEEF-vdW xc energy contributions
           1 :   -482.895821194038
           2 :    447.327349188610
           3 :   -384.301537865867
           4 :    307.030418884118
           5 :   -229.541696188416
           6 :    162.819598302577
           7 :   -112.586875714363
           8 :    79.1264297475947
           9 :   -58.8320011506606
          10 :    46.5974466361996
          11 :   -38.0112665418635
          12 :    30.5764285596360
          13 :   -23.7490188363556
          14 :    18.1153673039214
          15 :   -14.3314370532780
          16 :    12.3865169700798
          17 :   -11.4771222939396
          18 :    10.4195329134619
          19 :   -8.28951830875121
          20 :    4.90559699834148
          21 :  -0.907882003378404
          22 :   -2.58754779334868
          23 :    4.55325117444545
          24 :   -4.54081540917377
          25 :    2.86326444062979
          26 :  -0.412996316501562
          27 :   -1.76433947999158
          28 :    2.91377045230206
          29 :   -2.82787695033880
          30 :    1.82306709100112
          31 :   -41.5380857463651
          32 :   -30.6842536087012

     Forces acting on atoms (Ry/au):

     negative rho (up, down):  4.474E-01 0.000E+00
     atom    1 type  1   force =     0.00000021    0.02817905    0.03299310
     atom    2 type  1   force =     0.00000029    0.02817700    0.03298819
     atom    3 type  2   force =    -0.00000130   -0.01067922   -0.04247020
     atom    4 type  2   force =    -0.00000327   -0.01068009   -0.04246910
     atom    5 type  1   force =     0.00000068   -0.02692397    0.00078513
     atom    6 type  1   force =     0.00000207   -0.02691331    0.00076501
     atom    7 type  2   force =     0.00000101    0.00945311    0.00945928
     atom    8 type  2   force =     0.00000054    0.00945418    0.00945882
     atom    9 type  1   force =    -0.00000073    0.00061418   -0.00100714
     atom   10 type  1   force =     0.00000026    0.00064803   -0.00104381
     atom   11 type  2   force =    -0.00000992   -0.00066524    0.00027188
     atom   12 type  2   force =     0.00001018   -0.00066372    0.00026885

     Total force =     0.097017     Total SCF correction =     0.003525

     entering subroutine stress ...

     negative rho (up, down):  4.474E-01 0.000E+00
          total   stress  (Ry/bohr**3)                   (kbar)     P=  -13.89
  -0.00015708  -0.00000000  -0.00000000        -23.11     -0.00     -0.00
  -0.00000000  -0.00014193  -0.00003266         -0.00    -20.88     -4.80
  -0.00000000  -0.00003266   0.00001568         -0.00     -4.80      2.31

 !ASE

     Writing output data file calc.save

     General routines

     Parallel routines

   This run was terminated on:   8:31:49  19Dec2018

   JOB DONE.
Job  /afs/slac/g/suncat/bin/suncat-tsmpirun -x LD_LIBRARY_PATH -wdir /scratch/qe530501_nF1sT pw.x -in pw.inp

TID   HOST_NAME   COMMAND_LINE            STATUS            TERMINATION_TIME
00000 suncat2032 pw.x -in pw.inp   Done                     12/19/2018 08:31:49
00001 suncat2032 pw.x -in pw.inp   Done                     12/19/2018 08:31:49
00002 suncat2032 pw.x -in pw.inp   Done                     12/19/2018 08:31:49
00003 suncat2032 pw.x -in pw.inp   Done                     12/19/2018 08:31:49
00004 suncat2032 pw.x -in pw.inp   Done                     12/19/2018 08:31:49
00005 suncat2032 pw.x -in pw.inp   Done                     12/19/2018 08:31:49
00006 suncat2032 pw.x -in pw.inp   Done                     12/19/2018 08:31:49
00007 suncat2032 pw.x -in pw.inp   Done                     12/19/2018 08:31:49
00008 suncat2032 pw.x -in pw.inp   Done                     12/19/2018 08:31:49
00009 suncat2032 pw.x -in pw.inp   Done                     12/19/2018 08:31:49
00010 suncat2032 pw.x -in pw.inp   Done                     12/19/2018 08:31:49
00011 suncat2032 pw.x -in pw.inp   Done                     12/19/2018 08:31:49
00012 suncat2032 pw.x -in pw.inp   Done                     12/19/2018 08:31:49
00013 suncat2032 pw.x -in pw.inp   Done                     12/19/2018 08:31:49
00014 suncat2032 pw.x -in pw.inp   Done                     12/19/2018 08:31:49
00015 suncat2032 pw.x -in pw.inp   Done                     12/19/2018 08:31:49
00016 suncat2031 pw.x -in pw.inp   Done                     12/19/2018 08:31:49
00017 suncat2031 pw.x -in pw.inp   Done                     12/19/2018 08:31:49
00018 suncat2031 pw.x -in pw.inp   Done                     12/19/2018 08:31:49
00019 suncat2031 pw.x -in pw.inp   Done                     12/19/2018 08:31:49
00020 suncat2031 pw.x -in pw.inp   Done                     12/19/2018 08:31:49
00021 suncat2031 pw.x -in pw.inp   Done                     12/19/2018 08:31:49
00022 suncat2031 pw.x -in pw.inp   Done                     12/19/2018 08:31:49
00023 suncat2031 pw.x -in pw.inp   Done                     12/19/2018 08:31:49
00024 suncat2031 pw.x -in pw.inp   Done                     12/19/2018 08:31:49
00025 suncat2031 pw.x -in pw.inp   Done                     12/19/2018 08:31:49
00026 suncat2031 pw.x -in pw.inp   Done                     12/19/2018 08:31:49
00027 suncat2031 pw.x -in pw.inp   Done                     12/19/2018 08:31:49
00028 suncat2031 pw.x -in pw.inp   Done                     12/19/2018 08:31:49
00029 suncat2031 pw.x -in pw.inp   Done                     12/19/2018 08:31:49
00030 suncat2031 pw.x -in pw.inp   Done                     12/19/2018 08:31:49
00031 suncat2031 pw.x -in pw.inp   Done                     12/19/2018 08:31:49