     Program PWSCF v.5.1rc2 (svn rev. 11289) starts on 19Dec2018 at  3: 1:26

     Current dimensions of program PWSCF are:
     Max number of different atomic species (ntypx) = 10
     Max number of k-points (npk) =  40000
     Max angular momentum in pseudopotentials (lmaxx) =  3
     Presently stress not available with electric field

     IMPORTANT: XC functional enforced from input :
     Exchange-correlation      = BEEF-VDW ( 1  4 27 13 2)
     Any further DFT definition will be discarded
     Please, verify this is what you really want

     Subspace diagonalization in iterative solution of the eigenvalue problem:
     a serial algorithm will be used

     Found symmetry operation: I + ( -0.5000 -0.5000  0.0000)
     This is a supercell, fractional translations are disabled

     bravais-lattice index     =            0
     lattice parameter (alat)  =       1.8897  a.u.
     unit-cell volume          =    5484.4608 (a.u.)^3
     number of atoms/cell      =           12
     number of atomic types    =            2
     number of electrons       =       174.00
     number of Kohn-Sham states=          117
     kinetic-energy cutoff     =      36.7493  Ry
     charge density cutoff     =     367.4932  Ry
     convergence threshold     =      1.0E-06
     mixing beta               =       0.1000
     number of iterations used =           10  plain     mixing
     Exchange-correlation      = BEEF-VDW ( 1  4 27 13 2)
     nstep                     =           50

     celldm(1)=   1.889726  celldm(2)=   0.000000  celldm(3)=   0.000000
     celldm(4)=   0.000000  celldm(5)=   0.000000  celldm(6)=   0.000000

     crystal axes: (cart. coord. in units of alat)
               a(1) = (   5.897978   0.000000   0.000000 )
               a(2) = (   1.993292   5.550939   0.000000 )
               a(3) = (   0.000000   0.000000  24.823770 )

     reciprocal axes: (cart. coord. in units 2 pi/alat)
               b(1) = (  0.169550 -0.060884  0.000000 )
               b(2) = (  0.000000  0.180150  0.000000 )
               b(3) = (  0.000000  0.000000  0.040284 )

     PseudoPot. # 1 for Rh read from file:
     /afs/slac.stanford.edu/u/if/mamunm/psp/gbrv1.5pbe/Rh.UPF
     MD5 check sum: 761627e959a2e3a1f56b0b5fe687810e
     Pseudo is Ultrasoft + core correction, Zval = 15.0
     Generated by new atomic code, or converted to UPF format
     Using radial grid of  969 points,  7 beta functions with:
                l(1) =   0
                l(2) =   0
                l(3) =   1
                l(4) =   1
                l(5) =   2
                l(6) =   2
                l(7) =   2
     Q(r) pseudized with  8 coefficients,  rinner =    1.200   1.200   1.200
                                                       1.200   1.200

     PseudoPot. # 2 for Pb read from file:
     /afs/slac.stanford.edu/u/if/mamunm/psp/gbrv1.5pbe/Pb.UPF
     MD5 check sum: 3d1c1779aa92214d1e8f3a7db79003e2
     Pseudo is Ultrasoft + core correction, Zval = 14.0
     Generated by new atomic code, or converted to UPF format
     Using radial grid of  899 points,  6 beta functions with:
                l(1) =   0
                l(2) =   0
                l(3) =   1
                l(4) =   1
                l(5) =   2
                l(6) =   2
     Q(r) pseudized with  6 coefficients,  rinner =    1.000   1.000   1.000
                                                       1.000   1.000

     vdW kernel table read from file vdW_kernel_table
     MD5 check sum: 095c7af220d748ca6e76c0b4c6cfb241

     atomic species   valence    mass     pseudopotential
        Rh1           15.00   102.90550     Rh( 1.00)
        Pb1           14.00   207.20000     Pb( 1.00)

     No symmetry found

   Cartesian axes

     site n.     atom                  positions (alat units)
         1           Rh1 tau(   1) = (   0.0000000   0.0000000  10.0000000  )
         2           Rh1 tau(   2) = (   3.9456349   2.7754696  10.0000000  )
         3           Pb1 tau(   3) = (   2.9489888   0.0000000  10.0000000  )
         4           Pb1 tau(   4) = (   0.9966461   2.7754696  10.0000000  )
         5           Rh1 tau(   5) = (   5.8979776   4.1488020  12.4118851  )
         6           Rh1 tau(   6) = (   1.9523428   1.3733323  12.4118851  )
         7           Pb1 tau(   7) = (   2.9489888   4.1488020  12.4118851  )
         8           Pb1 tau(   8) = (   4.9013316   1.3733323  12.4118851  )
         9           Rh1 tau(   9) = (   3.9046855   2.7466647  14.8237703  )
        10           Rh1 tau(  10) = (   7.8503204   5.5221343  14.8237703  )
        11           Pb1 tau(  11) = (   6.8536743   2.7466647  14.8237703  )
        12           Pb1 tau(  12) = (   4.9013316   5.5221343  14.8237703  )

     number of k points=    20  Fermi-Dirac smearing, width (Ry)=  0.0110
                       cart. coord. in units 2pi/alat
        k(    1) = (   0.0000000   0.0000000   0.0000000), wk =   0.0555556
        k(    2) = (   0.0000000   0.0300249   0.0000000), wk =   0.1111111
        k(    3) = (   0.0000000   0.0600499   0.0000000), wk =   0.1111111
        k(    4) = (   0.0000000  -0.0900748   0.0000000), wk =   0.0555556
        k(    5) = (   0.0282583  -0.0101473   0.0000000), wk =   0.1111111
        k(    6) = (   0.0282583   0.0198777   0.0000000), wk =   0.1111111
        k(    7) = (   0.0282583   0.0499026   0.0000000), wk =   0.1111111
        k(    8) = (   0.0282583  -0.1002221   0.0000000), wk =   0.1111111
        k(    9) = (   0.0282583  -0.0701972   0.0000000), wk =   0.1111111
        k(   10) = (   0.0282583  -0.0401722   0.0000000), wk =   0.1111111
        k(   11) = (   0.0565165  -0.0202946   0.0000000), wk =   0.1111111
        k(   12) = (   0.0565165   0.0097304   0.0000000), wk =   0.1111111
        k(   13) = (   0.0565165   0.0397553   0.0000000), wk =   0.1111111
        k(   14) = (   0.0565165  -0.1103694   0.0000000), wk =   0.1111111
        k(   15) = (   0.0565165  -0.0803445   0.0000000), wk =   0.1111111
        k(   16) = (   0.0565165  -0.0503195   0.0000000), wk =   0.1111111
        k(   17) = (  -0.0847748   0.0304419   0.0000000), wk =   0.0555556
        k(   18) = (  -0.0847748   0.0604668   0.0000000), wk =   0.1111111
        k(   19) = (  -0.0847748   0.0904918   0.0000000), wk =   0.1111111
        k(   20) = (  -0.0847748  -0.0596330   0.0000000), wk =   0.0555556

     Largest allocated arrays     est. size (Mb)     dimensions
     Largest temporary arrays     est. size (Mb)     dimensions

     Initial potential from superposition of free atoms
     Check: negative starting charge=   -0.427398

     starting charge  170.98530, renormalised to  174.00000

     negative rho (up, down):  4.349E-01 0.000E+00

     *
     * You are using vdW-DF for exchange-correlation in this calculation.
     * Please cite the following three references that made this development
     * possible:
     *
     *   M. Dion, H. Rydberg, E. Schroder, D. C. Langreth, and
     *   B. I. Lundqvist, Phys. Rev. Lett. 92, 246401 (2004).
     *
     *   T. Thonhauser, V. R. Cooper, S. Li, A. Puzder, P. Hyldgaard, and
     *   D. C. Langreth, Phys. Rev. B 76, 125112 (2007).
     *
     *   G. Roman-Perez and J. M. Soler, Phys. Rev. Lett. 103, 096102 (2009).
     *
     *
     * If you are using vdW-DF2, please also cite:
     *
     *   K. Lee, E. D. Murray, L. Kong, B. I. Lundqvist, and
     *   D. C. Langreth, Phys. Rev. B 82, 081101(R) (2010).
     *
     *
     * If you are calculating the stress with vdW-DF, please also cite:
     *
     *   R. Sabatini, E. Kucukbenli, B. Kolb, T. Thonhauser, and
     *   S. de Gironcoli, J. Phys.: Condens. Matter 24, 424209 (2012).
     *

     Carrying out vdW-DF run using the following parameters:

     Nqs =      20    Nr_points =    1024   r_max =   100.000
     q_mesh =
               0.00001000     0.04494208     0.09755937     0.15916263
               0.23128650     0.31572767     0.41458969     0.53033537
               0.66584808     0.82450364     1.01025438     1.22772762
               1.48234092     1.78043706     2.12944203     2.53805004
               3.01644009     3.57652955     4.23227104     5.00000000

     Gradients computed in reciprocal space

     Adding external electric field

     Computed dipole along edir(3) :
        Dipole               -0.0000 Ry au,         -0.0000 Debye
        Dipole field         -0.0000 Ry au

        Potential amp.        0.0000 Ry
        Total length         45.7374 bohr

     Starting wfc are  126 randomized atomic wfcs

     Self-consistent Calculation

     iteration #  1     ecut=    36.75 Ry     beta=0.10
     Davidson diagonalization with overlap
     ethr =  1.00E-02,  avg # of iterations =  8.1

     Threshold (ethr) on eigenvalues was too large:
     Diagonalizing with lowered threshold

     Davidson diagonalization with overlap
     ethr =  4.43E-04,  avg # of iterations =  3.4

[...]

     total energy              =   -2029.45976657 Ry
     Harris-Foulkes estimate   =   -2029.58476671 Ry
     estimated scf accuracy    <       0.77914073 Ry

[...]

     End of self-consistent calculation

          k = 0.0000 0.0000 0.0000 ( 20695 PWs)   bands (ev):

   -44.5066 -44.4756 -44.4398 -44.4380 -44.4375 -44.4354 -44.2814 -44.2811
   -44.2789 -44.2783 -44.2390 -44.2389 -44.2089 -44.2089 -44.0532 -44.0527
   -44.0506 -44.0504 -16.0190 -15.9402 -15.9343 -15.9221 -15.9032 -15.8998
   -15.8716 -15.8411 -15.8202 -15.8089 -15.8058 -15.8023 -15.7907 -15.7839
   -15.7776 -15.7677 -15.7392 -15.7386 -15.7355 -15.7229 -15.7095 -15.7060
   -15.6899 -15.6874 -15.6792 -15.6667 -15.5785 -15.5766 -15.5704 -15.5352
    -9.6192  -8.2445  -7.0171  -6.7612  -6.4249  -6.3725  -2.1613  -2.1258
    -1.5514  -1.4609  -1.4237  -1.2247  -1.1857  -1.0168  -0.9336  -0.8787
    -0.7010  -0.4809  -0.3700  -0.3480  -0.1715  -0.1218  -0.0592   0.0272
     0.0791   0.2046   0.2211   0.2783   0.3191   0.3268   0.4120   0.4204
     0.4388   0.4446   0.5045   0.5155   0.5963   0.7657   0.9383   1.0271
     1.1030   1.2474   1.4139   2.0168   2.2746   2.3182   2.8456   3.5715
     4.1724   4.4843   4.8219   4.8722   4.9332   5.0869   5.1865   5.3438
     5.7403   6.1495   6.2773   6.7416   6.7437   7.0869   7.2040   7.4866
     7.9870   8.3239   8.3265   8.7442   8.9916

[...]

          k =-0.0848 0.0304 0.0000 ( 20602 PWs)   bands (ev):

[...]

     the Fermi energy is     1.3645 ev

!    total energy              =   -2029.30872683 Ry
     Harris-Foulkes estimate   =   -2029.30879613 Ry
     estimated scf accuracy    <       0.00000071 Ry

     The total energy is the sum of the following terms:

     one-electron contribution =  -13525.60551929 Ry
     hartree contribution      =    6820.97606672 Ry
     xc contribution           =    -578.78405617 Ry
     ewald contribution        =    5254.16584864 Ry
     electric field correction =       0.00000000 Ry
     smearing contrib. (-TS)   =      -0.06106674 Ry

     convergence has been achieved in  16 iterations

 BEEF-vdW xc energy contributions
           1 :   -512.205576905929
           2 :    474.127417631219
           3 :   -407.524446555374
           4 :    327.738776687110
[...]

[...]

     Threshold (ethr) on eigenvalues was too large:
     Diagonalizing with lowered threshold

     Davidson diagonalization with overlap
     ethr =  6.24E-04,  avg # of iterations =  3.0

[...]

   This run was terminated on:   3:12: 8  19Dec2018

[...]

     Program PWSCF v.5.1rc2 (svn rev. 11289) starts on 19Dec2018 at  3:12:14

[...]

   This run was terminated on:   3:17:45  19Dec2018

[...]

     Program PWSCF v.5.1rc2 (svn rev. 11289) starts on 19Dec2018 at  3:23:37

     Current dimensions of program PWSCF are:
     Max number of different atomic species (ntypx) = 10
     Max number of k-points (npk) =  40000
     Max angular momentum in pseudopotentials (lmaxx) =  3
     Presently stress not available with electric field

     IMPORTANT: XC functional enforced from input :
     Exchange-correlation      = BEEF-VDW ( 1  4 27 13 2)
     Any further DFT definition will be discarded
     Please, verify this is what you really want

     Subspace diagonalization in iterative solution of the eigenvalue problem:
     a serial algorithm will be used

     Found symmetry operation: I + ( -0.5000 -0.5000  0.0000)
     This is a supercell, fractional translations are disabled

     bravais-lattice index     =            0
     lattice parameter (alat)  =       1.8897  a.u.
     unit-cell volume          =    5484.4608 (a.u.)^3
     number of atoms/cell      =           12
     number of atomic types    =            2
     number of electrons       =       174.00
     number of Kohn-Sham states=          117
     kinetic-energy cutoff     =      36.7493  Ry
     charge density cutoff     =     367.4932  Ry
     convergence threshold     =      1.0E-06
     mixing beta               =       0.1000
     number of iterations used =           10  plain     mixing
     Exchange-correlation      = BEEF-VDW ( 1  4 27 13 2)
     nstep                     =           50

     celldm(1)=   1.889726  celldm(2)=   0.000000  celldm(3)=   0.000000
     celldm(4)=   0.000000  celldm(5)=   0.000000  celldm(6)=   0.000000

     crystal axes: (cart. coord. in units of alat)
               a(1) = (   5.897978   0.000000   0.000000 )
               a(2) = (   1.993292   5.550939   0.000000 )
               a(3) = (   0.000000   0.000000  24.823770 )

     reciprocal axes: (cart. coord. in units 2 pi/alat)
               b(1) = (  0.169550 -0.060884  0.000000 )
               b(2) = (  0.000000  0.180150  0.000000 )
               b(3) = (  0.000000  0.000000  0.040284 )

     PseudoPot. # 1 for Rh read from file:
     /afs/slac.stanford.edu/u/if/mamunm/psp/gbrv1.5pbe/Rh.UPF
     MD5 check sum: 761627e959a2e3a1f56b0b5fe687810e
     Pseudo is Ultrasoft + core correction, Zval = 15.0
     Generated by new atomic code, or converted to UPF format
     Using radial grid of  969 points,  7 beta functions with:
                l(1) =   0
                l(2) =   0
                l(3) =   1
                l(4) =   1
                l(5) =   2
                l(6) =   2
                l(7) =   2
     Q(r) pseudized with  8 coefficients,  rinner =    1.200   1.200   1.200
                                                       1.200   1.200

     PseudoPot. # 2 for Pb read from file:
     /afs/slac.stanford.edu/u/if/mamunm/psp/gbrv1.5pbe/Pb.UPF
     MD5 check sum: 3d1c1779aa92214d1e8f3a7db79003e2
     Pseudo is Ultrasoft + core correction, Zval = 14.0
     Generated by new atomic code, or converted to UPF format
     Using radial grid of  899 points,  6 beta functions with:
                l(1) =   0
                l(2) =   0
                l(3) =   1
                l(4) =   1
                l(5) =   2
                l(6) =   2
     Q(r) pseudized with  6 coefficients,  rinner =    1.000   1.000   1.000
                                                       1.000   1.000

     vdW kernel table read from file vdW_kernel_table
     MD5 check sum: 095c7af220d748ca6e76c0b4c6cfb241

     atomic species   valence    mass     pseudopotential
        Rh1           15.00   102.90550     Rh( 1.00)
        Pb1           14.00   207.20000     Pb( 1.00)

     No symmetry found

   Cartesian axes

     site n.     atom                  positions (alat units)
         1           Rh1 tau(   1) = (   0.0000000   0.0000000  10.0000000  )
         2           Rh1 tau(   2) = (   3.9456349   2.7754696  10.0000000  )
         3           Pb1 tau(   3) = (   2.9489888   0.0000000  10.0000000  )
         4           Pb1 tau(   4) = (   0.9966461   2.7754696  10.0000000  )
         5           Rh1 tau(   5) = (   5.8979776   4.1488020  12.4118851  )
         6           Rh1 tau(   6) = (   1.9523428   1.3733323  12.4118851  )
         7           Pb1 tau(   7) = (   2.9489888   4.1488020  12.4118851  )
         8           Pb1 tau(   8) = (   4.9013316   1.3733323  12.4118851  )
         9           Rh1 tau(   9) = (   3.9049568   2.7468554  14.5644685  )
        10           Rh1 tau(  10) = (   7.8506151   5.5223396  14.5644610  )
        11           Pb1 tau(  11) = (   6.8593774   2.7506782  15.0519479  )
        12           Pb1 tau(  12) = (   4.9070755   5.5261374  15.0520181  )

     number of k points=    20  Fermi-Dirac smearing, width (Ry)=  0.0110
                       cart. coord. in units 2pi/alat
        k(    1) = (   0.0000000   0.0000000   0.0000000), wk =   0.0555556
        k(    2) = (   0.0000000   0.0300249   0.0000000), wk =   0.1111111
        k(    3) = (   0.0000000   0.0600499   0.0000000), wk =   0.1111111
        k(    4) = (   0.0000000  -0.0900748   0.0000000), wk =   0.0555556
        k(    5) = (   0.0282583  -0.0101473   0.0000000), wk =   0.1111111
        k(    6) = (   0.0282583   0.0198777   0.0000000), wk =   0.1111111
        k(    7) = (   0.0282583   0.0499026   0.0000000), wk =   0.1111111
        k(    8) = (   0.0282583  -0.1002221   0.0000000), wk =   0.1111111
        k(    9) = (   0.0282583  -0.0701972   0.0000000), wk =   0.1111111
        k(   10) = (   0.0282583  -0.0401722   0.0000000), wk =   0.1111111
        k(   11) = (   0.0565165  -0.0202946   0.0000000), wk =   0.1111111
        k(   12) = (   0.0565165   0.0097304   0.0000000), wk =   0.1111111
        k(   13) = (   0.0565165   0.0397553   0.0000000), wk =   0.1111111
        k(   14) = (   0.0565165  -0.1103694   0.0000000), wk =   0.1111111
        k(   15) = (   0.0565165  -0.0803445   0.0000000), wk =   0.1111111
        k(   16) = (   0.0565165  -0.0503195   0.0000000), wk =   0.1111111
        k(   17) = (  -0.0847748   0.0304419   0.0000000), wk =   0.0555556
        k(   18) = (  -0.0847748   0.0604668   0.0000000), wk =   0.1111111
        k(   19) = (  -0.0847748   0.0904918   0.0000000), wk =   0.1111111
        k(   20) = (  -0.0847748  -0.0596330   0.0000000), wk =   0.0555556

     Largest allocated arrays     est. size (Mb)     dimensions
     Largest temporary arrays     est. size (Mb)     dimensions

     Initial potential from superposition of free atoms
     Check: negative starting charge=   -0.427417

     starting charge  170.98530, renormalised to  174.00000

[...]

     *
     * You are using vdW-DF for exchange-correlation in this calculation.
     * Please cite the following three references that made this development
     * possible:
     *
     *   M. Dion, H. Rydberg, E. Schroder, D. C. Langreth, and
     *   B. I. Lundqvist, Phys. Rev. Lett. 92, 246401 (2004).
     *
     *   T. Thonhauser, V. R. Cooper, S. Li, A. Puzder, P. Hyldgaard, and
     *   D. C. Langreth, Phys. Rev. B 76, 125112 (2007).
     *
     *   G. Roman-Perez and J. M. Soler, Phys. Rev. Lett. 103, 096102 (2009).
     *
     *
     * If you are using vdW-DF2, please also cite:
     *
     *   K. Lee, E. D. Murray, L. Kong, B. I. Lundqvist, and
     *   D. C. Langreth, Phys. Rev. B 82, 081101(R) (2010).
     *
     *
     * If you are calculating the stress with vdW-DF, please also cite:
     *
     *   R. Sabatini, E. Kucukbenli, B. Kolb, T. Thonhauser, and
     *   S. de Gironcoli, J. Phys.: Condens. Matter 24, 424209 (2012).
     *

     Carrying out vdW-DF run using the following parameters:

     Nqs =      20    Nr_points =    1024   r_max =   100.000
     q_mesh =
               0.00001000     0.04494208     0.09755937     0.15916263
               0.23128650     0.31572767     0.41458969     0.53033537
               0.66584808     0.82450364     1.01025438     1.22772762
               1.48234092     1.78043706     2.12944203     2.53805004
               3.01644009     3.57652955     4.23227104     5.00000000

     Gradients computed in reciprocal space

[...]

     Starting wfc are  126 randomized atomic wfcs

     Self-consistent Calculation

[...]

     total energy              =   -2029.34486831 Ry
     Harris-Foulkes estimate   =   -2029.34485821 Ry
     estimated scf accuracy    <       0.00000163 Ry

     iteration # 17     ecut=    36.75 Ry     beta=0.10
     Davidson diagonalization with overlap
     ethr =  9.39E-10,  avg # of iterations =  4.5

[...]

     negative rho (up, down):  4.361E-01 0.000E+00

     Adding external electric field

     Computed dipole along edir(3) :
        Dipole                0.1194 Ry au,          0.3036 Debye
        Dipole field          0.0003 Ry au

        Potential amp.       -0.0250 Ry
        Total length         45.7374 bohr

     End of self-consistent calculation

[...]

          k = 0.0565-0.0503 0.0000 ( 20625 PWs)   bands (ev):

[...]

          k =-0.0848-0.0596 0.0000 ( 20666 PWs)   bands (ev):

   -44.3105 -44.2945 -44.2938 -44.2801 -44.2694 -44.2587 -44.2387 -44.2368
   -44.2161 -44.1856 -44.1770 -44.1745 -44.1355 -44.1331 -44.1311 -44.1057
   -43.9617 -43.9593 -15.8622 -15.8209 -15.7960 -15.7707 -15.7534 -15.7450
   -15.7080 -15.7051 -15.6775 -15.6694 -15.6458 -15.6435 -15.6354 -15.6329
   -15.6328 -15.6128 -15.5981 -15.5956 -15.5892 -15.5891 -15.5837 -15.5816
   -15.5742 -15.5610 -15.5397 -15.5313 -15.5231 -15.4590 -15.4532 -15.4146
    -8.1541  -7.8481  -7.4371  -7.2194  -6.0808  -4.9328  -3.5732  -3.3458
    -2.9682  -2.4047  -2.2801  -2.2628  -1.7054  -1.5676  -1.3681  -0.9388
    -0.8251  -0.7720  -0.7361  -0.7331  -0.4837  -0.4813  -0.4091  -0.3675
    -0.3123  -0.0557   0.0019   0.0851   0.4767   0.5151   0.5325   0.5454
     0.6538   0.7680   0.8464   0.9409   1.0438   1.1860   1.5112   1.6077
     1.7792   2.3398   2.7591   2.8462   3.3669   3.7860   4.7781   5.0040
     5.5639   5.8113   6.0457   6.1537   6.3059   6.4386   6.7079   6.7292
     6.7349   7.0300   7.2660   7.4385   7.5621   7.6530   7.7155   7.8538
     7.9843   8.0741   8.0943   8.1791   8.3308

     the Fermi energy is     1.4921 ev

!    total energy              =   -2029.34481473 Ry
     Harris-Foulkes estimate   =   -2029.34486804 Ry
     estimated scf accuracy    <       0.00000041 Ry

     The total energy is the sum of the following terms:

     one-electron contribution =  -13556.31420906 Ry
     hartree contribution      =    6836.98348444 Ry
     xc contribution           =    -578.75253954 Ry
     ewald contribution        =    5268.79440779 Ry
     electric field correction =       0.00003269 Ry
     smearing contrib. (-TS)   =      -0.05599103 Ry

     convergence has been achieved in  17 iterations

 BEEF-vdW xc energy contributions
           1 :   -512.179730788163
           2 :    474.107520942100
           3 :   -407.511550628144
           4 :    327.728075342023
           5 :   -250.415613223336
           6 :    186.737865896035
           7 :   -140.886041366292
           8 :    110.534203140483
           9 :   -89.6056459398574
          10 :    71.8519794287265
          11 :   -53.6079016888705
          12 :    34.6866892178342
          13 :   -17.3977200748457
          14 :    4.54189540847551
          15 :    2.42682628671128
          16 :   -4.18564050361579
          17 :    3.06114148188169
          18 :   -1.74071650475423
          19 :    1.96824552044450
          20 :   -3.90783234019159
          21 :    6.41998531847480
          22 :   -7.98587417633689
          23 :    7.69720443837150
          24 :   -5.76324482143150
          25 :    3.31485518422232
          26 :   -1.69862601326417
          27 :    1.71006292232300
          28 :   -3.19895098810389
          29 :    5.23015776539160
          30 :   -6.66243313651944
          31 :   -43.9322211293695
          32 :   -32.4888590830503

     Forces acting on atoms (Ry/au):

     negative rho (up, down):  4.361E-01 0.000E+00
     atom    1 type  1   force =     0.00025637    0.00018006    0.04320855
     atom    2 type  1   force =     0.00025515    0.00018020    0.04320879
     atom    3 type  2   force =    -0.00088931   -0.00063431   -0.02981817
     atom    4 type  2   force =    -0.00089909   -0.00062459   -0.02981893
     atom    5 type  1   force =    -0.00061227   -0.00043007    0.00672463
     atom    6 type  1   force =    -0.00060831   -0.00042827    0.00672402
     atom    7 type  2   force =     0.00076541    0.00063120   -0.01938117
     atom    8 type  2   force =     0.00085093    0.00050647   -0.01938020
     atom    9 type  1   force =     0.00040759    0.00028651   -0.00061662
     atom   10 type  1   force =     0.00040549    0.00028531   -0.00062031
     atom   11 type  2   force =     0.00003211    0.00002673   -0.00011514
     atom   12 type  2   force =     0.00003593    0.00002076   -0.00011546

     Total force =     0.079755     Total SCF correction =     0.002610

     entering subroutine stress ...

     negative rho (up, down):  4.361E-01 0.000E+00
          total   stress  (Ry/bohr**3)                   (kbar)     P=  -23.43
  -0.00020673  -0.00002782   0.00000162        -30.41     -4.09      0.24
  -0.00002782  -0.00018675   0.00000114         -4.09    -27.47      0.17
   0.00000162   0.00000114  -0.00008443          0.24      0.17    -12.42

 !ASE

     Writing output data file calc.save

     General routines

     Parallel routines

   This run was terminated on:   3:28:51  19Dec2018

   JOB DONE.
Job  /afs/slac/g/suncat/bin/suncat-tsmpirun -x LD_LIBRARY_PATH -wdir /scratch/qe530478_xc1Oc pw.x -in pw.inp

TID   HOST_NAME   COMMAND_LINE            STATUS            TERMINATION_TIME
00000 suncat2046 pw.x -in pw.inp   Done                     12/19/2018 03:28:51
00001 suncat2046 pw.x -in pw.inp   Done                     12/19/2018 03:28:51
00002 suncat2046 pw.x -in pw.inp   Done                     12/19/2018 03:28:51
00003 suncat2046 pw.x -in pw.inp   Done                     12/19/2018 03:28:51
00004 suncat2046 pw.x -in pw.inp   Done                     12/19/2018 03:28:51
00005 suncat2046 pw.x -in pw.inp   Done                     12/19/2018 03:28:51
00006 suncat2046 pw.x -in pw.inp   Done                     12/19/2018 03:28:51
00007 suncat2046 pw.x -in pw.inp   Done                     12/19/2018 03:28:51
00008 suncat2046 pw.x -in pw.inp   Done                     12/19/2018 03:28:51
00009 suncat2046 pw.x -in pw.inp   Done                     12/19/2018 03:28:51
00010 suncat2046 pw.x -in pw.inp   Done                     12/19/2018 03:28:51
00011 suncat2046 pw.x -in pw.inp   Done                     12/19/2018 03:28:51
00012 suncat2046 pw.x -in pw.inp   Done                     12/19/2018 03:28:51
00013 suncat2046 pw.x -in pw.inp   Done                     12/19/2018 03:28:51
00014 suncat2046 pw.x -in pw.inp   Done                     12/19/2018 03:28:51
00015 suncat2046 pw.x -in pw.inp   Done                     12/19/2018 03:28:51
00016 suncat2045 pw.x -in pw.inp   Done                     12/19/2018 03:28:51
00017 suncat2045 pw.x -in pw.inp   Done                     12/19/2018 03:28:51
00018 suncat2045 pw.x -in pw.inp   Done                     12/19/2018 03:28:51
00019 suncat2045 pw.x -in pw.inp   Done                     12/19/2018 03:28:51
00020 suncat2045 pw.x -in pw.inp   Done                     12/19/2018 03:28:51
00021 suncat2045 pw.x -in pw.inp   Done                     12/19/2018 03:28:51
00022 suncat2045 pw.x -in pw.inp   Done                     12/19/2018 03:28:51
00023 suncat2045 pw.x -in pw.inp   Done                     12/19/2018 03:28:51
00024 suncat2045 pw.x -in pw.inp   Done                     12/19/2018 03:28:51
00025 suncat2045 pw.x -in pw.inp   Done                     12/19/2018 03:28:51
00026 suncat2045 pw.x -in pw.inp   Done                     12/19/2018 03:28:51
00027 suncat2045 pw.x -in pw.inp   Done                     12/19/2018 03:28:51
00028 suncat2045 pw.x -in pw.inp   Done                     12/19/2018 03:28:51
00029 suncat2045 pw.x -in pw.inp   Done                     12/19/2018 03:28:51
00030 suncat2045 pw.x -in pw.inp   Done                     12/19/2018 03:28:51
00031 suncat2045 pw.x -in pw.inp   Done                     12/19/2018 03:28:51