     Program PWSCF v.5.1rc2 (svn rev. 11289) starts on 19Dec2018 at  6: 2:15

     Current dimensions of program PWSCF are:
     Max number of different atomic species (ntypx) = 10
     Max number of k-points (npk) =  40000
     Max angular momentum in pseudopotentials (lmaxx) =  3
     Presently stress not available with electric field

     IMPORTANT: XC functional enforced from input :
     Exchange-correlation      = BEEF-VDW ( 1  4 27 13 2)
     Any further DFT definition will be discarded
     Please, verify this is what you really want

     Subspace diagonalization in iterative solution of the eigenvalue problem:
     a serial algorithm will be used

     Found symmetry operation: I + ( -0.5000 -0.5000  0.0000)
     This is a supercell, fractional translations are disabled

     Generating pointlists ...
     new r_m :   0.4125 (alat units)  0.7795 (a.u.) for type    1
     new r_m :   0.4125 (alat units)  0.7795 (a.u.) for type    2

     bravais-lattice index     =            0
     lattice parameter (alat)  =       1.8897  a.u.
     unit-cell volume          =    3831.0650 (a.u.)^3
     number of atoms/cell      =           12
     number of atomic types    =            2
     number of electrons       =       198.00
     number of Kohn-Sham states=          129
     kinetic-energy cutoff     =      36.7493  Ry
     charge density cutoff     =     367.4932  Ry
     convergence threshold     =      1.0E-06
     mixing beta               =       0.1000
     number of iterations used =           10  plain     mixing
     Exchange-correlation      = BEEF-VDW ( 1  4 27 13 2)
     nstep                     =           50

     celldm(1)=   1.889726  celldm(2)=   0.000000  celldm(3)=   0.000000
     celldm(4)=   0.000000  celldm(5)=   0.000000  celldm(6)=   0.000000

     crystal axes: (cart. coord. in units of alat)
               a(1) = (   5.181923   0.000000   0.000000 )
               a(2) = (   2.536532   4.518665   0.000000 )
               a(3) = (   0.000000   0.000000  24.244978 )

     reciprocal axes: (cart. coord. in units 2 pi/alat)
               b(1) = (  0.192979 -0.108328  0.000000 )
               b(2) = (  0.000000  0.221304  0.000000 )
               b(3) = (  0.000000  0.000000  0.041246 )

     PseudoPot. # 1 for Co read from file:
     /afs/slac.stanford.edu/u/if/mamunm/psp/gbrv1.5pbe/Co.UPF
     MD5 check sum: 5f91765df6ddd3222702df6e7b74a16d
     Pseudo is Ultrasoft + core correction, Zval = 17.0
     Generated by new atomic code, or converted to UPF format
     Using radial grid of  863 points,  6 beta functions with:
                l(1) =   0
                l(2) =   0
                l(3) =   1
                l(4) =   1
                l(5) =   2
                l(6) =   2
     Q(r) pseudized with  8 coefficients,  rinner =    1.200   1.200   1.200
                                                       1.200   1.200

     PseudoPot. # 2 for Ru read from file:
     /afs/slac.stanford.edu/u/if/mamunm/psp/gbrv1.5pbe/Ru.UPF
     MD5 check sum: 7158a806dd851261a58e6920c40ebe78
     Pseudo is Ultrasoft + core correction, Zval = 16.0
     Generated by new atomic code, or converted to UPF format
     Using radial grid of  967 points,  6 beta functions with:
                l(1) =   0
                l(2) =   0
                l(3) =   1
                l(4) =   1
                l(5) =   2
                l(6) =   2
     Q(r) pseudized with  8 coefficients,  rinner =    1.300   1.300   1.300
                                                       1.300   1.300

     vdW kernel table read from file vdW_kernel_table
     MD5 check sum: 095c7af220d748ca6e76c0b4c6cfb241

     atomic species   valence    mass     pseudopotential
        Co1           17.00    58.93319     Co( 1.00)
        Ru1           16.00   101.07000     Ru( 1.00)

     Starting magnetic structure
     atomic species   magnetization
        Co1          0.118
        Ru1          0.125

     No symmetry found

   Cartesian axes

     site n.     atom                  positions (alat units)
         1           Co1 tau(   1) = (   0.0000000   0.0000000  10.0000000  )
         2           Co1 tau(   2) = (   3.8592274   2.2593326  10.0000000  )
         3           Ru1 tau(   3) = (   2.5909616   0.0000000  10.0000000  )
         4           Ru1 tau(   4) = (   1.2682658   2.2593326  10.0000000  )
         5           Co1 tau(   5) = (   5.1819231   3.0336869  12.1224889  )
         6           Co1 tau(   6) = (   1.3226957   0.7743544  12.1224889  )
         7           Ru1 tau(   7) = (   2.5909616   3.0336869  12.1224889  )
         8           Ru1 tau(   8) = (   3.9136573   0.7743544  12.1224889  )
         9           Co1 tau(   9) = (   2.6453915   1.5487087  14.2449777  )
        10           Co1 tau(  10) = (   6.5046189   3.8080413  14.2449777  )
        11           Ru1 tau(  11) = (   5.2363531   1.5487087  14.2449777  )
        12           Ru1 tau(  12) = (   3.9136573   3.8080413  14.2449777  )

     number of k points=    40  Fermi-Dirac smearing, width (Ry)=  0.0110
                       cart. coord. in units 2pi/alat
        k(    1) = (   0.0000000   0.0000000   0.0000000), wk =   0.0277778
        k(    2) = (   0.0000000   0.0368840   0.0000000), wk =   0.0555556
        k(    3) = (   0.0000000   0.0737681   0.0000000), wk =   0.0555556
        k(    4) = (   0.0000000  -0.1106521   0.0000000), wk =   0.0277778
        k(    5) = (   0.0321631  -0.0180546   0.0000000), wk =   0.0555556
        k(    6) = (   0.0321631   0.0188294   0.0000000), wk =   0.0555556
        k(    7) = (   0.0321631   0.0557135   0.0000000), wk =   0.0555556
        k(    8) = (   0.0321631  -0.1287067   0.0000000), wk =   0.0555556
        k(    9) = (   0.0321631  -0.0918227   0.0000000), wk =   0.0555556
        k(   10) = (   0.0321631  -0.0549387   0.0000000), wk =   0.0555556
        k(   11) = (   0.0643262  -0.0361092   0.0000000), wk =   0.0555556
        k(   12) = (   0.0643262   0.0007748   0.0000000), wk =   0.0555556
        k(   13) = (   0.0643262   0.0376589   0.0000000), wk =   0.0555556
        k(   14) = (   0.0643262  -0.1467614   0.0000000), wk =   0.0555556
        k(   15) = (   0.0643262  -0.1098773   0.0000000), wk =   0.0555556
        k(   16) = (   0.0643262  -0.0729933   0.0000000), wk =   0.0555556
        k(   17) = (  -0.0964893   0.0541638   0.0000000), wk =   0.0277778
        k(   18) = (  -0.0964893   0.0910479   0.0000000), wk =   0.0555556
        k(   19) = (  -0.0964893   0.1279319   0.0000000), wk =   0.0555556
        k(   20) = (  -0.0964893  -0.0564883   0.0000000), wk =   0.0277778
        k(   21) = (   0.0000000   0.0000000   0.0000000), wk =   0.0277778
        k(   22) = (   0.0000000   0.0368840   0.0000000), wk =   0.0555556
        k(   23) = (   0.0000000   0.0737681   0.0000000), wk =   0.0555556
        k(   24) = (   0.0000000  -0.1106521   0.0000000), wk =   0.0277778
        k(   25) = (   0.0321631  -0.0180546   0.0000000), wk =   0.0555556
        k(   26) = (   0.0321631   0.0188294   0.0000000), wk =   0.0555556
        k(   27) = (   0.0321631   0.0557135   0.0000000), wk =   0.0555556
        k(   28) = (   0.0321631  -0.1287067   0.0000000), wk =   0.0555556
        k(   29) = (   0.0321631  -0.0918227   0.0000000), wk =   0.0555556
        k(   30) = (   0.0321631  -0.0549387   0.0000000), wk =   0.0555556
        k(   31) = (   0.0643262  -0.0361092   0.0000000), wk =   0.0555556
        k(   32) = (   0.0643262   0.0007748   0.0000000), wk =   0.0555556
        k(   33) = (   0.0643262   0.0376589   0.0000000), wk =   0.0555556
        k(   34) = (   0.0643262  -0.1467614   0.0000000), wk =   0.0555556
        k(   35) = (   0.0643262  -0.1098773   0.0000000), wk =   0.0555556
        k(   36) = (   0.0643262  -0.0729933   0.0000000), wk =   0.0555556
        k(   37) = (  -0.0964893   0.0541638   0.0000000), wk =   0.0277778
        k(   38) = (  -0.0964893   0.0910479   0.0000000), wk =   0.0555556
        k(   39) = (  -0.0964893   0.1279319   0.0000000), wk =   0.0555556
        k(   40) = (  -0.0964893  -0.0564883   0.0000000), wk =   0.0277778

     Largest allocated arrays     est. size (Mb)     dimensions
     Largest temporary arrays     est. size (Mb)     dimensions

     Check: negative/imaginary core charge=   -0.000004    0.000000

     Initial potential from superposition of free atoms
     Check: negative starting charge=(component1):   -0.246662
     Check: negative starting charge=(component2):   -0.191843

     starting charge  185.99986, renormalised to  198.00000

     negative rho (up, down):  2.626E-01 2.042E-01

     *
     * You are using vdW-DF for exchange-correlation in this calculation.
     * Please cite the following three references that made this development
     * possible:
     *
     *   M. Dion, H. Rydberg, E. Schroder, D. C. Langreth, and
     *   B. I. Lundqvist, Phys. Rev. Lett. 92, 246401 (2004).
     *
     *   T. Thonhauser, V. R. Cooper, S. Li, A. Puzder, P. Hyldgaard, and
     *   D. C. Langreth, Phys. Rev. B 76, 125112 (2007).
     *
     *   G. Roman-Perez and J. M. Soler, Phys. Rev. Lett. 103, 096102 (2009).
     *
     *
     * If you are using vdW-DF2, please also cite:
     *
     *   K. Lee, E. D. Murray, L. Kong, B. I. Lundqvist, and
     *   D. C. Langreth, Phys. Rev. B 82, 081101(R) (2010).
     *
     *
     * If you are calculating the stress with vdW-DF, please also cite:
     *
     *   R. Sabatini, E. Kucukbenli, B. Kolb, T. Thonhauser, and
     *   S. de Gironcoli, J. Phys.: Condens. Matter 24, 424209 (2012).
     *

     Carrying out vdW-DF run using the following parameters:

     Nqs =      20    Nr_points =    1024   r_max =   100.000
     q_mesh =
               0.00001000     0.04494208     0.09755937     0.15916263
               0.23128650     0.31572767     0.41458969     0.53033537
               0.66584808     0.82450364     1.01025438     1.22772762
               1.48234092     1.78043706     2.12944203     2.53805004
               3.01644009     3.57652955     4.23227104     5.00000000

     Gradients computed in reciprocal space

     Adding external electric field

     Computed dipole along edir(3) :
        Dipole                0.0000 Ry au,          0.0000 Debye
        Dipole field          0.0000 Ry au

        Potential amp.       -0.0000 Ry
        Total length         44.6710 bohr

[...]

     Starting wfc are  156 randomized atomic wfcs

     Self-consistent Calculation

     iteration #  1     ecut=    36.75 Ry     beta=0.10
     Davidson diagonalization with overlap
     ethr =  1.00E-02,  avg # of iterations =  7.3

[...]

     Magnetic moment per site:
     atom:    1    charge:    8.4392    magn:    0.9470    constr:    0.0000
     atom:    2    charge:    8.4392    magn:    0.9470    constr:    0.0000
     atom:    3    charge:    3.0010    magn:    0.3446    constr:    0.0000
     atom:    4    charge:    3.0010    magn:    0.3446    constr:    0.0000
     atom:    5    charge:    8.4373    magn:    0.9500    constr:    0.0000
     atom:    6    charge:    8.4373    magn:    0.9500    constr:    0.0000
[...]

     PseudoPot. # 2 for Ru read from file:
     /afs/slac.stanford.edu/u/if/mamunm/psp/gbrv1.5pbe/Ru.UPF
     MD5 check sum: 7158a806dd851261a58e6920c40ebe78
     Pseudo is Ultrasoft + core correction, Zval = 16.0
     Generated by new atomic code, or converted to UPF format
     Using radial grid of  967 points,  6 beta functions with:
                l(1) =   0
                l(2) =   0
                l(3) =   1
                l(4) =   1
                l(5) =   2
                l(6) =   2
     Q(r) pseudized with  8 coefficients,  rinner =    1.300   1.300   1.300
                                                       1.300   1.300

     vdW kernel table read from file vdW_kernel_table
     MD5 check sum: 095c7af220d748ca6e76c0b4c6cfb241

     atomic species   valence    mass     pseudopotential
        Co1           17.00    58.93319     Co( 1.00)
        Ru1           16.00   101.07000     Ru( 1.00)

     Starting magnetic structure
     atomic species   magnetization
        Co1          0.118
        Ru1          0.125

     No symmetry found

   Cartesian axes

     site n.     atom                  positions (alat units)
         1           Co1 tau(   1) = (   0.0000000   0.0000000  10.0000000  )
         2           Co1 tau(   2) = (   3.8592274   2.2593326  10.0000000  )
         3           Ru1 tau(   3) = (   2.5909616   0.0000000  10.0000000  )
         4           Ru1 tau(   4) = (   1.2682658   2.2593326  10.0000000  )
         5           Co1 tau(   5) = (   5.1819231   3.0336869  12.1224889  )
         6           Co1 tau(   6) = (   1.3226957   0.7743544  12.1224889  )
         7           Ru1 tau(   7) = (   2.5909616   3.0336869  12.1224889  )
         8           Ru1 tau(   8) = (   3.9136573   0.7743544  12.1224889  )
         9           Co1 tau(   9) = (   2.6150809   1.5309643  14.1688417  )
        10           Co1 tau(  10) = (   6.4742688   3.7902726  14.1688501  )
        11           Ru1 tau(  11) = (   5.2197702   1.5389874  14.2058629  )
        12           Ru1 tau(  12) = (   3.8970635   3.7983398  14.2058630  )

     number of k points=    40  Fermi-Dirac smearing, width (Ry)=  0.0110
                       cart. coord. in units 2pi/alat
        k(    1) = (   0.0000000   0.0000000   0.0000000), wk =   0.0277778
        k(    2) = (   0.0000000   0.0368840   0.0000000), wk =   0.0555556
        k(    3) = (   0.0000000   0.0737681   0.0000000), wk =   0.0555556
        k(    4) = (   0.0000000  -0.1106521   0.0000000), wk =   0.0277778
        k(    5) = (   0.0321631  -0.0180546   0.0000000), wk =   0.0555556
        k(    6) = (   0.0321631   0.0188294   0.0000000), wk =   0.0555556
        k(    7) = (   0.0321631   0.0557135   0.0000000), wk =   0.0555556
        k(    8) = (   0.0321631  -0.1287067   0.0000000), wk =   0.0555556
        k(    9) = (   0.0321631  -0.0918227   0.0000000), wk =   0.0555556
        k(   10) = (   0.0321631  -0.0549387   0.0000000), wk =   0.0555556
        k(   11) = (   0.0643262  -0.0361092   0.0000000), wk =   0.0555556
        k(   12) = (   0.0643262   0.0007748   0.0000000), wk =   0.0555556
        k(   13) = (   0.0643262   0.0376589   0.0000000), wk =   0.0555556
        k(   14) = (   0.0643262  -0.1467614   0.0000000), wk =   0.0555556
        k(   15) = (   0.0643262  -0.1098773   0.0000000), wk =   0.0555556
        k(   16) = (   0.0643262  -0.0729933   0.0000000), wk =   0.0555556
        k(   17) = (  -0.0964893   0.0541638   0.0000000), wk =   0.0277778
        k(   18) = (  -0.0964893   0.0910479   0.0000000), wk =   0.0555556
        k(   19) = (  -0.0964893   0.1279319   0.0000000), wk =   0.0555556
        k(   20) = (  -0.0964893  -0.0564883   0.0000000), wk =   0.0277778
        k(   21) = (   0.0000000   0.0000000   0.0000000), wk =   0.0277778
        k(   22) = (   0.0000000   0.0368840   0.0000000), wk =   0.0555556
        k(   23) = (   0.0000000   0.0737681   0.0000000), wk =   0.0555556
        k(   24) = (   0.0000000  -0.1106521   0.0000000), wk =   0.0277778
        k(   25) = (   0.0321631  -0.0180546   0.0000000), wk =   0.0555556
        k(   26) = (   0.0321631   0.0188294   0.0000000), wk =   0.0555556
        k(   27) = (   0.0321631   0.0557135   0.0000000), wk =   0.0555556
        k(   28) = (   0.0321631  -0.1287067   0.0000000), wk =   0.0555556
        k(   29) = (   0.0321631  -0.0918227   0.0000000), wk =   0.0555556
        k(   30) = (   0.0321631  -0.0549387   0.0000000), wk =   0.0555556
        k(   31) = (   0.0643262  -0.0361092   0.0000000), wk =   0.0555556
        k(   32) = (   0.0643262   0.0007748   0.0000000), wk =   0.0555556
        k(   33) = (   0.0643262   0.0376589   0.0000000), wk =   0.0555556
        k(   34) = (   0.0643262  -0.1467614   0.0000000), wk =   0.0555556
        k(   35) = (   0.0643262  -0.1098773   0.0000000), wk =   0.0555556
        k(   36) = (   0.0643262  -0.0729933   0.0000000), wk =   0.0555556
        k(   37) = (  -0.0964893   0.0541638   0.0000000), wk =   0.0277778
        k(   38) = (  -0.0964893   0.0910479   0.0000000), wk =   0.0555556
        k(   39) = (  -0.0964893   0.1279319   0.0000000), wk =   0.0555556
        k(   40) = (  -0.0964893  -0.0564883   0.0000000), wk =   0.0277778

     Largest allocated arrays     est. size (Mb)     dimensions
     Largest temporary arrays     est. size (Mb)     dimensions

     Check: negative/imaginary core charge=   -0.000004    0.000000

     Initial potential from superposition of free atoms
     Check: negative starting charge=(component1):   -0.246609
     Check: negative starting charge=(component2):   -0.191801

     starting charge  185.99986, renormalised to  198.00000

[...]

     *
     * You are using vdW-DF for exchange-correlation in this calculation.
     * Please cite the following three references that made this development
     * possible:
     *
     *   M. Dion, H. Rydberg, E. Schroder, D. C. Langreth, and
     *   B. I. Lundqvist, Phys. Rev. Lett. 92, 246401 (2004).
     *
     *   T. Thonhauser, V. R. Cooper, S. Li, A. Puzder, P. Hyldgaard, and
     *   D. C. Langreth, Phys. Rev. B 76, 125112 (2007).
     *
     *   G. Roman-Perez and J. M. Soler, Phys. Rev. Lett. 103, 096102 (2009).
     *
     *
     * If you are using vdW-DF2, please also cite:
     *
     *   K. Lee, E. D. Murray, L. Kong, B. I. Lundqvist, and
     *   D. C. Langreth, Phys. Rev. B 82, 081101(R) (2010).
     *
     *
     * If you are calculating the stress with vdW-DF, please also cite:
     *
     *   R. Sabatini, E. Kucukbenli, B. Kolb, T. Thonhauser, and
     *   S. de Gironcoli, J. Phys.: Condens. Matter 24, 424209 (2012).
     *

     Carrying out vdW-DF run using the following parameters:

     Nqs =      20    Nr_points =    1024   r_max =   100.000
     q_mesh =
               0.00001000     0.04494208     0.09755937     0.15916263
               0.23128650     0.31572767     0.41458969     0.53033537
               0.66584808     0.82450364     1.01025438     1.22772762
               1.48234092     1.78043706     2.12944203     2.53805004
               3.01644009     3.57652955     4.23227104     5.00000000

     Gradients computed in reciprocal space

[...]

     Starting wfc are  156 randomized atomic wfcs

     Self-consistent Calculation

[...]

     total energy              =   -2967.65532270 Ry
     Harris-Foulkes estimate   =   -2967.65532219 Ry
     estimated scf accuracy    <       0.00000122 Ry

[...]

     iteration # 42     ecut=    36.75 Ry     beta=0.10
     Davidson diagonalization with overlap
     ethr =  6.15E-10,  avg # of iterations =  1.0

[...]

     negative rho (up, down):  2.260E-01 2.297E-01

[...]

     Adding external electric field

     Computed dipole along edir(3) :
        Dipole                0.0052 Ry au,          0.0131 Debye
        Dipole field          0.0000 Ry au

        Potential amp.       -0.0015 Ry
        Total length         44.6710 bohr

     Magnetic moment per site:
     atom:    1    charge:    8.2894    magn:    0.8064    constr:    0.0000
     atom:    2    charge:    8.2894    magn:    0.8063    constr:    0.0000
     atom:    3    charge:    2.8463    magn:    0.0240    constr:    0.0000
     atom:    4    charge:    2.8463    magn:    0.0240    constr:    0.0000
     atom:    5    charge:    8.2741    magn:    0.7110    constr:    0.0000
     atom:    6    charge:    8.2741    magn:    0.7110    constr:    0.0000
     atom:    7    charge:    2.8427    magn:    0.0172    constr:    0.0000
     atom:    8    charge:    2.8427    magn:    0.0172    constr:    0.0000
     atom:    9    charge:    8.2873    magn:    0.7577    constr:    0.0000
     atom:   10    charge:    8.2874    magn:    0.7577    constr:    0.0000
     atom:   11    charge:    2.8428    magn:    0.0193    constr:    0.0000
     atom:   12    charge:    2.8428    magn:    0.0193    constr:    0.0000

     End of self-consistent calculation

 ------ SPIN UP ------------

[...]

 ------ SPIN DOWN ----------

[...]

          k = 0.0643-0.0730 0.0000 ( 14397 PWs)   bands (ev):

[...]

          k =-0.0965-0.0565 0.0000 ( 14342 PWs)   bands (ev):

   -92.7468 -92.7372 -92.4630 -92.4534 -92.3971 -92.3875 -71.5546 -71.4776
   -71.0707 -71.0191 -70.9930 -70.9413 -56.1332 -56.1236 -56.1235 -56.0396
   -56.0298 -56.0199 -55.8654 -55.8562 -55.8429 -55.8063 -55.7971 -55.7788
   -55.7405 -55.7394 -55.7308 -55.6754 -55.6713 -55.6616 -41.7737 -41.6867
   -41.6056 -41.4809 -41.4237 -41.4027 -41.3862 -41.0927 -40.9965 -40.9612
   -40.9269 -40.9202 -40.8873 -40.8528 -40.8505 -40.7820 -40.7457 -40.7081
    -4.1078  -3.9518  -3.3891  -3.0458  -2.6938  -2.6736  -2.6708  -2.6124
    -2.2603  -2.2075  -1.9546  -1.8636  -1.8413  -1.6919  -1.6866  -1.4893
    -1.3671  -1.0862  -0.9214  -0.5907  -0.5402  -0.4122  -0.3741  -0.1991
    -0.0527  -0.0416   0.1103   0.1733   0.2435   0.3221   0.3540   0.4274
     0.4699   0.4963   0.5357   0.5363   0.5762   0.6526   0.6530   0.7157
     0.9216   1.0910   1.2198   1.2432   1.2931   1.4622   1.4762   1.5101
     1.5991   1.7430   1.7679   1.8174   1.8452   1.9580   2.0788   2.2106
     2.2813   2.3530   2.4620   2.4772   2.7325   2.8181   2.9045   3.7020
     3.9648   4.0185   4.5269   5.2104   6.1227   6.2764   6.4279   6.6511
     7.5853   7.7139   7.8194   7.8459   8.3511   8.3995   8.5043   8.5085
     9.5760

     the Fermi energy is     1.6494 ev

!    total energy              =   -2967.65532325 Ry
     Harris-Foulkes estimate   =   -2967.65532288 Ry
     estimated scf accuracy    <       0.00000095 Ry

     The total energy is the sum of the following terms:

     one-electron contribution =  -26549.25139809 Ry
     hartree contribution      =   13278.03175043 Ry
     xc contribution           =    -363.56091869 Ry
     ewald contribution        =   10667.23428571 Ry
     electric field correction =       0.00000009 Ry
     smearing contrib. (-TS)   =      -0.10904270 Ry

     total magnetization       =     8.90 Bohr mag/cell
     absolute magnetization    =     9.92 Bohr mag/cell

     convergence has been achieved in  42 iterations

 BEEF-vdW xc energy contributions
           1 :   -318.114705506001
           2 :    290.115874404001
           3 :   -242.059116302628
           4 :    186.367278488929
           5 :   -135.044320539777
           6 :    95.6528968469531
           7 :   -69.7944893030200
           8 :    54.2930579013074
           9 :   -44.0428460780001
          10 :    34.8709925891668
          11 :   -25.1089073705708
          12 :    15.4530562160063
          13 :   -7.65958071446971
          14 :    3.05752094318007
          15 :   -1.72854583378580
          16 :    2.61408841709294
          17 :   -4.24973706466824
          18 :    5.53881719968138
          19 :   -6.11695959626832
          20 :    6.19983687657214
          21 :   -6.15758255063213
          22 :    6.15769616140972
          23 :   -6.09926841792748
          24 :    5.79829069170501
          25 :   -5.22011852611354
          26 :    4.54774640369311
          27 :   -4.04502160653340
          28 :    3.83424720886296
          29 :   -3.77938827254809
          30 :    3.56978369199408
          31 :   -29.5724707031596
          32 :   -21.4646594308421

     Forces acting on atoms (Ry/au):

     negative rho (up, down):  2.260E-01 2.297E-01
     atom    1 type  1   force =     0.00459928    0.00269045    0.01053933
     atom    2 type  1   force =     0.00459515    0.00269229    0.01052199
     atom    3 type  2   force =    -0.00095278   -0.00055812    0.00864587
     atom    4 type  2   force =    -0.00095381   -0.00055805    0.00864483
     atom    5 type  1   force =     0.00001442    0.00002501   -0.00771891
     atom    6 type  1   force =     0.00003734    0.00000527   -0.00769886
     atom    7 type  2   force =    -0.00131114   -0.00076242   -0.01106046
     atom    8 type  2   force =    -0.00130312   -0.00076806   -0.01105690
     atom    9 type  1   force =    -0.00158977   -0.00093009    0.00015104
     atom   10 type  1   force =    -0.00156841   -0.00091882    0.00015220
     atom   11 type  2   force =    -0.00078565   -0.00045499   -0.00055942
     atom   12 type  2   force =    -0.00078150   -0.00046247   -0.00056072

     Total force =     0.028417     Total SCF correction =     0.005361
     SCF correction compared to forces is large: reduce conv_thr to get better values

     entering subroutine stress ...

     negative rho (up, down):  2.260E-01 2.297E-01
          total   stress  (Ry/bohr**3)                   (kbar)     P=  -18.97
  -0.00014199   0.00002767  -0.00001414        -20.89      4.07     -2.08
   0.00002767  -0.00017306  -0.00000828          4.07    -25.46     -1.22
  -0.00001414  -0.00000828  -0.00007180         -2.08     -1.22    -10.56

 !ASE

     Writing output data file calc.save

     General routines

     Parallel routines

   This run was terminated on:  11:26:12  19Dec2018

   JOB DONE.
Job  /afs/slac/g/suncat/bin/suncat-tsmpirun -x LD_LIBRARY_PATH -wdir /scratch/qe529697_5mJi4 pw.x -in pw.inp

TID   HOST_NAME   COMMAND_LINE            STATUS            TERMINATION_TIME
00000 suncat0179 pw.x -in pw.inp   Done                     12/19/2018 11:26:12
00001 suncat0179 pw.x -in pw.inp   Done                     12/19/2018 11:26:12
00002 suncat0179 pw.x -in pw.inp   Done                     12/19/2018 11:26:12
00003 suncat0179 pw.x -in pw.inp   Done                     12/19/2018 11:26:12
00004 suncat0179 pw.x -in pw.inp   Done                     12/19/2018 11:26:12
00005 suncat0179 pw.x -in pw.inp   Done                     12/19/2018 11:26:12
00006 suncat0179 pw.x -in pw.inp   Done                     12/19/2018 11:26:12
00007 suncat0179 pw.x -in pw.inp   Done                     12/19/2018 11:26:12
00008 suncat0178 pw.x -in pw.inp   Done                     12/19/2018 11:26:12
00009 suncat0178 pw.x -in pw.inp   Done                     12/19/2018 11:26:12
00010 suncat0178 pw.x -in pw.inp   Done                     12/19/2018 11:26:12
00011 suncat0178 pw.x -in pw.inp   Done                     12/19/2018 11:26:12
00012 suncat0178 pw.x -in pw.inp   Done                     12/19/2018 11:26:12
00013 suncat0178 pw.x -in pw.inp   Done                     12/19/2018 11:26:12
00014 suncat0178 pw.x -in pw.inp   Done                     12/19/2018 11:26:12
00015 suncat0178 pw.x -in pw.inp   Done                     12/19/2018 11:26:12
00016 suncat0177 pw.x -in pw.inp   Done                     12/19/2018 11:26:12
00017 suncat0177 pw.x -in pw.inp   Done                     12/19/2018 11:26:12
00018 suncat0177 pw.x -in pw.inp   Done                     12/19/2018 11:26:12
00019 suncat0177 pw.x -in pw.inp   Done                     12/19/2018 11:26:12
00020 suncat0177 pw.x -in pw.inp   Done                     12/19/2018 11:26:12
00021 suncat0177 pw.x -in pw.inp   Done                     12/19/2018 11:26:12
00022 suncat0177 pw.x -in pw.inp   Done                     12/19/2018 11:26:12
00023 suncat0177 pw.x -in pw.inp   Done                     12/19/2018 11:26:12
00024 suncat0172 pw.x -in pw.inp   Done                     12/19/2018 11:26:12
00025 suncat0172 pw.x -in pw.inp   Done                     12/19/2018 11:26:12
00026 suncat0172 pw.x -in pw.inp   Done                     12/19/2018 11:26:12
00027 suncat0172 pw.x -in pw.inp   Done                     12/19/2018 11:26:12
00028 suncat0172 pw.x -in pw.inp   Done                     12/19/2018 11:26:12
00029 suncat0172 pw.x -in pw.inp   Done                     12/19/2018 11:26:12
00030 suncat0172 pw.x -in pw.inp   Done                     12/19/2018 11:26:12
00031 suncat0172 pw.x -in pw.inp   Done                     12/19/2018 11:26:12