     Program PWSCF v.5.1rc2 (svn rev. 11289) starts on 24Dec2018 at 23:33:18

     Current dimensions of program PWSCF are:
     Max number of different atomic species (ntypx) = 10
     Max number of k-points (npk) =  40000
     Max angular momentum in pseudopotentials (lmaxx) =  3
     Presently stress not available with electric field

     IMPORTANT: XC functional enforced from input :
     Exchange-correlation      = BEEF-VDW ( 1  4 27 13 2)
     Any further DFT definition will be discarded
     Please, verify this is what you really want

     Subspace diagonalization in iterative solution of the eigenvalue problem:
     a serial algorithm will be used

     Found symmetry operation: I + ( -0.5000 -0.5000  0.0000)
     This is a supercell, fractional translations are disabled

     bravais-lattice index     =            0
     lattice parameter (alat)  =       1.8897  a.u.
     unit-cell volume          =    5218.5304 (a.u.)^3
     number of atoms/cell      =           12
     number of atomic types    =            2
     number of electrons       =       168.00
     number of Kohn-Sham states=          114
     kinetic-energy cutoff     =      36.7493  Ry
     charge density cutoff     =     367.4932  Ry
     convergence threshold     =      1.0E-06
     mixing beta               =       0.1000
     number of iterations used =           10  plain     mixing
     Exchange-correlation      = BEEF-VDW ( 1  4 27 13 2)
     nstep                     =           50

     celldm(1)=   1.889726  celldm(2)=   0.000000  celldm(3)=   0.000000
     celldm(4)=   0.000000  celldm(5)=   0.000000  celldm(6)=   0.000000

     crystal axes: (cart. coord. in units of alat)
               a(1) = (   5.836110   0.000000   0.000000 )
               a(2) = (   2.364686   5.335583   0.000000 )
               a(3) = (   0.000000   0.000000  24.833974 )

     reciprocal axes: (cart. coord. in units 2 pi/alat)
               b(1) = (  0.171347 -0.075940  0.000000 )
               b(2) = (  0.000000  0.187421  0.000000 )
               b(3) = (  0.000000  0.000000  0.040267 )

     PseudoPot. # 1 for Ir read from file:
     /afs/slac.stanford.edu/u/if/mamunm/psp/gbrv1.5pbe/Ir.UPF
     MD5 check sum: 8836f839c3459d2b385c504ce6d91f2c
     Pseudo is Ultrasoft + core correction, Zval = 15.0
     Generated by new atomic code, or converted to UPF format
     Using radial grid of  983 points,  7 beta functions with:
                l(1) =   0
                l(2) =   0
                l(3) =   1
                l(4) =   1
                l(5) =   1
                l(6) =   2
                l(7) =   2
     Q(r) pseudized with  8 coefficients,  rinner =    1.400   1.400   1.400
                                                       1.400   1.400

     PseudoPot. # 2 for Tl read from file:
     /afs/slac.stanford.edu/u/if/mamunm/psp/gbrv1.5pbe/Tl.UPF
     MD5 check sum: b76cf1f7e72655a2b2c53cf6385d7059
     Pseudo is Ultrasoft + core correction, Zval = 13.0
     Generated by new atomic code, or converted to UPF format
     Using radial grid of  899 points,  6 beta functions with:
                l(1) =   0
                l(2) =   0
                l(3) =   1
                l(4) =   1
                l(5) =   2
                l(6) =   2
     Q(r) pseudized with  6 coefficients,  rinner =    1.100   1.100   1.100
                                                       1.100   1.100

     vdW kernel table read from file vdW_kernel_table
     MD5 check sum: 095c7af220d748ca6e76c0b4c6cfb241

     atomic species   valence    mass     pseudopotential
        Ir1           15.00   192.21700     Ir( 1.00)
        Tl1           13.00   204.38000     Tl( 1.00)

     No symmetry found

   Cartesian axes

     site n.     atom                  positions (alat units)
         1           Ir1 tau(   1) = (   0.0000000   0.0000000  10.0000000  )
         2           Ir1 tau(   2) = (   4.1003980   2.6677916  10.0000000  )
         3           Tl1 tau(   3) = (   2.9180552   0.0000000  10.0000000  )
         4           Tl1 tau(   4) = (   1.1823428   2.6677916  10.0000000  )
         5           Ir1 tau(   5) = (   5.8361104   3.7970768  12.4169871  )
         6           Ir1 tau(   6) = (   1.7357124   1.1292853  12.4169871  )
         7           Tl1 tau(   7) = (   2.9180552   3.7970768  12.4169871  )
         8           Tl1 tau(   8) = (   4.6537677   1.1292853  12.4169871  )
         9           Ir1 tau(   9) = (   3.4714249   2.2585705  14.8339742  )
        10           Ir1 tau(  10) = (   7.5718229   4.9263621  14.8339742  )
        11           Tl1 tau(  11) = (   6.3894801   2.2585705  14.8339742  )
        12           Tl1 tau(  12) = (   4.6537677   4.9263621  14.8339742  )

     number of k points=    20  Fermi-Dirac smearing, width (Ry)=  0.0110
                       cart. coord. in units 2pi/alat
        k(    1) = (   0.0000000   0.0000000   0.0000000), wk =   0.0555556
        k(    2) = (   0.0000000   0.0312368   0.0000000), wk =   0.1111111
        k(    3) = (   0.0000000   0.0624736   0.0000000), wk =   0.1111111
        k(    4) = (   0.0000000  -0.0937105   0.0000000), wk =   0.0555556
        k(    5) = (   0.0285578  -0.0126566   0.0000000), wk =   0.1111111
        k(    6) = (   0.0285578   0.0185802   0.0000000), wk =   0.1111111
        k(    7) = (   0.0285578   0.0498171   0.0000000), wk =   0.1111111
        k(    8) = (   0.0285578  -0.1063671   0.0000000), wk =   0.1111111
        k(    9) = (   0.0285578  -0.0751302   0.0000000), wk =   0.1111111
        k(   10) = (   0.0285578  -0.0438934   0.0000000), wk =   0.1111111
        k(   11) = (   0.0571157  -0.0253132   0.0000000), wk =   0.1111111
        k(   12) = (   0.0571157   0.0059236   0.0000000), wk =   0.1111111
        k(   13) = (   0.0571157   0.0371605   0.0000000), wk =   0.1111111
        k(   14) = (   0.0571157  -0.1190237   0.0000000), wk =   0.1111111
        k(   15) = (   0.0571157  -0.0877868   0.0000000), wk =   0.1111111
        k(   16) = (   0.0571157  -0.0565500   0.0000000), wk =   0.1111111
        k(   17) = (  -0.0856735   0.0379698   0.0000000), wk =   0.0555556
        k(   18) = (  -0.0856735   0.0692066   0.0000000), wk =   0.1111111
        k(   19) = (  -0.0856735   0.1004434   0.0000000), wk =   0.1111111
        k(   20) = (  -0.0856735  -0.0557407   0.0000000), wk =   0.0555556

     Largest allocated arrays     est. size (Mb)     dimensions
     Largest temporary arrays     est. size (Mb)     dimensions

     Check: negative/imaginary core charge=   -0.000001    0.000000

     Initial potential from superposition of free atoms
     Check: negative starting charge=   -2.486003

     starting charge  164.97062, renormalised to  168.00000

     negative rho (up, down):  2.532E+00 0.000E+00

     *
     * You are using vdW-DF for exchange-correlation in this calculation.
     * Please cite the following three references that made this development
     * possible:
     *
     *   M. Dion, H. Rydberg, E. Schroder, D. C. Langreth, and
     *   B. I. Lundqvist, Phys. Rev. Lett. 92, 246401 (2004).
     *
     *   T. Thonhauser, V. R. Cooper, S. Li, A. Puzder, P. Hyldgaard, and
     *   D. C. Langreth, Phys. Rev. B 76, 125112 (2007).
     *
     *   G. Roman-Perez and J. M. Soler, Phys. Rev. Lett. 103, 096102 (2009).
     *
     *
     * If you are using vdW-DF2, please also cite:
     *
     *   K. Lee, E. D. Murray, L. Kong, B. I. Lundqvist, and
     *   D. C. Langreth, Phys. Rev. B 82, 081101(R) (2010).
     *
     *
     * If you are calculating the stress with vdW-DF, please also cite:
     *
     *   R. Sabatini, E. Kucukbenli, B. Kolb, T. Thonhauser, and
     *   S. de Gironcoli, J. Phys.: Condens. Matter 24, 424209 (2012).
     *

     Carrying out vdW-DF run using the following parameters:

     Nqs =      20    Nr_points =    1024   r_max =   100.000
     q_mesh =
               0.00001000     0.04494208     0.09755937     0.15916263
               0.23128650     0.31572767     0.41458969     0.53033537
               0.66584808     0.82450364     1.01025438     1.22772762
               1.48234092     1.78043706     2.12944203     2.53805004
               3.01644009     3.57652955     4.23227104     5.00000000

     Gradients computed in reciprocal space

     Adding external electric field

     Computed dipole along edir(3) :
        Dipole                0.0000 Ry au,          0.0001 Debye
        Dipole field          0.0000 Ry au

        Potential amp.       -0.0000 Ry
        Total length         45.7562 bohr

     Starting wfc are  126 randomized atomic wfcs

     Self-consistent Calculation

     iteration #  1     ecut=    36.75 Ry     beta=0.10
     Davidson diagonalization with overlap
     ethr =  1.00E-02,  avg # of iterations =  8.4

[...]

     total energy              =   -1980.43941266 Ry
     Harris-Foulkes estimate   =   -1980.89262423 Ry
     estimated scf accuracy    <       3.05645551 Ry

[...]

     End of self-consistent calculation

          k = 0.0000 0.0000 0.0000 ( 19705 PWs)   bands (ev):

   -46.9027 -46.8694 -46.8633 -46.8315 -46.8045 -46.8045 -46.7724 -46.7671
   -46.7480 -46.7440 -46.7421 -46.7372 -46.7353 -46.7353 -46.6012 -46.6003
   -46.5950 -46.5943 -10.7262 -10.6257 -10.5111 -10.4900 -10.4813 -10.4494
   -10.4145 -10.3523 -10.3246 -10.2792 -10.2700 -10.1743 -10.1390 -10.1069
   -10.0656 -10.0187 -10.0095  -9.9934  -9.9645  -9.9530  -9.9396  -9.9070
    -9.8566  -9.8435  -9.7952  -9.7726  -9.7091  -9.6538  -9.6133  -9.4797
    -8.5442  -6.7855  -5.2394  -4.7793  -4.0676  -3.9078  -1.7159  -1.6969
    -1.6386  -1.5325  -1.2302  -1.0842  -1.0620  -0.7127  -0.6811  -0.4783
    -0.4361  -0.1537   0.0019   0.0935   0.0962   0.4423   0.4602   0.5973
     0.6317   0.6406   0.6905   0.7730   0.8004   0.8881   0.9062   0.9303
     1.0081   1.0329   1.1551   1.1905   1.3709   1.4877   1.7081   2.3464
     2.4234   2.6410   2.6549   2.7508   3.2005   3.8706   4.2607   4.2611
     4.6971   4.8224   5.0764   5.1113   5.5328   5.6120   5.8568   6.8634
     7.1374   7.2339   7.2545   7.9130   8.3369   8.5088   8.7115   9.0755
     9.0867   9.6047

[...]

          k =-0.0857 0.0380 0.0000 ( 19626 PWs)   bands (ev):

[...]

     the Fermi energy is     1.3899 ev

!    total energy              =   -1980.19153105 Ry
     Harris-Foulkes estimate   =   -1980.19151972 Ry
     estimated scf accuracy    <       0.00000060 Ry

     The total energy is the sum of the following terms:

     one-electron contribution =  -13059.72795670 Ry
     hartree contribution      =    6588.84552457 Ry
     xc contribution           =    -696.40203938 Ry
     ewald contribution        =    5187.14938006 Ry
     electric field correction =       0.00000000 Ry
     smearing contrib. (-TS)   =      -0.05643960 Ry

     convergence has been achieved in  16 iterations

 BEEF-vdW xc energy contributions
           1 :   -618.965073659275
           2 :    575.333881591900
           3 :   -497.908692205513
           4 :    402.766863838953
           5 :   -306.993966019652
           6 :    223.863682385371
           7 :   -160.026285863538
           8 :    115.324175863008
[...]
     MD5 check sum: 8836f839c3459d2b385c504ce6d91f2c
     Pseudo is Ultrasoft + core correction, Zval = 15.0
     Generated by new atomic code, or converted to UPF format
     Using radial grid of  983 points,  7 beta functions with:
                l(1) =   0
                l(2) =   0
                l(3) =   1
                l(4) =   1
                l(5) =   1
                l(6) =   2
                l(7) =   2
     Q(r) pseudized with  8 coefficients,  rinner =    1.400   1.400   1.400
                                                       1.400   1.400

     PseudoPot. # 2 for Tl read from file:
     /afs/slac.stanford.edu/u/if/mamunm/psp/gbrv1.5pbe/Tl.UPF
     MD5 check sum: b76cf1f7e72655a2b2c53cf6385d7059
     Pseudo is Ultrasoft + core correction, Zval = 13.0
     Generated by new atomic code, or converted to UPF format
     Using radial grid of  899 points,  6 beta functions with:
                l(1) =   0
                l(2) =   0
                l(3) =   1
                l(4) =   1
                l(5) =   2
                l(6) =   2
     Q(r) pseudized with  6 coefficients,  rinner =    1.100   1.100   1.100
                                                       1.100   1.100

     vdW kernel table read from file vdW_kernel_table
     MD5 check sum: 095c7af220d748ca6e76c0b4c6cfb241

     atomic species   valence    mass     pseudopotential
        Ir1           15.00   192.21700     Ir( 1.00)
        Tl1           13.00   204.38000     Tl( 1.00)

     No symmetry found

   Cartesian axes

     site n.     atom                  positions (alat units)
         1           Ir1 tau(   1) = (   0.0000000   0.0000000  10.0000000  )
         2           Ir1 tau(   2) = (   4.1003980   2.6677916  10.0000000  )
         3           Tl1 tau(   3) = (   2.9180552   0.0000000  10.0000000  )
         4           Tl1 tau(   4) = (   1.1823428   2.6677916  10.0000000  )
         5           Ir1 tau(   5) = (   5.8361104   3.7970768  12.4169871  )
         6           Ir1 tau(   6) = (   1.7357124   1.1292853  12.4169871  )
         7           Tl1 tau(   7) = (   2.9180552   3.7970768  12.4169871  )
         8           Tl1 tau(   8) = (   4.6537677   1.1292853  12.4169871  )
         9           Ir1 tau(   9) = (   2.9500928   1.9193534  14.5950509  )
        10           Ir1 tau(  10) = (   7.0504814   4.5871966  14.5950563  )
        11           Tl1 tau(  11) = (   5.9319804   1.9609179  15.3703604  )
        12           Tl1 tau(  12) = (   4.1962583   4.6287331  15.3703103  )

     number of k points=    20  Fermi-Dirac smearing, width (Ry)=  0.0110
                       cart. coord. in units 2pi/alat
        k(    1) = (   0.0000000   0.0000000   0.0000000), wk =   0.0555556
        k(    2) = (   0.0000000   0.0312368   0.0000000), wk =   0.1111111
        k(    3) = (   0.0000000   0.0624736   0.0000000), wk =   0.1111111
        k(    4) = (   0.0000000  -0.0937105   0.0000000), wk =   0.0555556
        k(    5) = (   0.0285578  -0.0126566   0.0000000), wk =   0.1111111
        k(    6) = (   0.0285578   0.0185802   0.0000000), wk =   0.1111111
        k(    7) = (   0.0285578   0.0498171   0.0000000), wk =   0.1111111
        k(    8) = (   0.0285578  -0.1063671   0.0000000), wk =   0.1111111
        k(    9) = (   0.0285578  -0.0751302   0.0000000), wk =   0.1111111
        k(   10) = (   0.0285578  -0.0438934   0.0000000), wk =   0.1111111
        k(   11) = (   0.0571157  -0.0253132   0.0000000), wk =   0.1111111
        k(   12) = (   0.0571157   0.0059236   0.0000000), wk =   0.1111111
        k(   13) = (   0.0571157   0.0371605   0.0000000), wk =   0.1111111
        k(   14) = (   0.0571157  -0.1190237   0.0000000), wk =   0.1111111
        k(   15) = (   0.0571157  -0.0877868   0.0000000), wk =   0.1111111
        k(   16) = (   0.0571157  -0.0565500   0.0000000), wk =   0.1111111
        k(   17) = (  -0.0856735   0.0379698   0.0000000), wk =   0.0555556
        k(   18) = (  -0.0856735   0.0692066   0.0000000), wk =   0.1111111
        k(   19) = (  -0.0856735   0.1004434   0.0000000), wk =   0.1111111
        k(   20) = (  -0.0856735  -0.0557407   0.0000000), wk =   0.0555556

     Largest allocated arrays     est. size (Mb)     dimensions
     Largest temporary arrays     est. size (Mb)     dimensions

     Check: negative/imaginary core charge=   -0.000001    0.000000

     Initial potential from superposition of free atoms
     Check: negative starting charge=   -2.480583

     starting charge  164.97062, renormalised to  168.00000

[...]

     *
     * You are using vdW-DF for exchange-correlation in this calculation.
     * Please cite the following three references that made this development
     * possible:
     *
     *   M. Dion, H. Rydberg, E. Schroder, D. C. Langreth, and
     *   B. I. Lundqvist, Phys. Rev. Lett. 92, 246401 (2004).
     *
     *   T. Thonhauser, V. R. Cooper, S. Li, A. Puzder, P. Hyldgaard, and
     *   D. C. Langreth, Phys. Rev. B 76, 125112 (2007).
     *
     *   G. Roman-Perez and J. M. Soler, Phys. Rev. Lett. 103, 096102 (2009).
     *
     *
     * If you are using vdW-DF2, please also cite:
     *
     *   K. Lee, E. D. Murray, L. Kong, B. I. Lundqvist, and
     *   D. C. Langreth, Phys. Rev. B 82, 081101(R) (2010).
     *
     *
     * If you are calculating the stress with vdW-DF, please also cite:
     *
     *   R. Sabatini, E. Kucukbenli, B. Kolb, T. Thonhauser, and
     *   S. de Gironcoli, J. Phys.: Condens. Matter 24, 424209 (2012).
     *

     Carrying out vdW-DF run using the following parameters:

     Nqs =      20    Nr_points =    1024   r_max =   100.000
     q_mesh =
               0.00001000     0.04494208     0.09755937     0.15916263
               0.23128650     0.31572767     0.41458969     0.53033537
               0.66584808     0.82450364     1.01025438     1.22772762
               1.48234092     1.78043706     2.12944203     2.53805004
               3.01644009     3.57652955     4.23227104     5.00000000

     Gradients computed in reciprocal space

[...]

     Starting wfc are  126 randomized atomic wfcs

     Self-consistent Calculation

[...]

     total energy              =   -1980.24697787 Ry
     Harris-Foulkes estimate   =   -1980.24696200 Ry
     estimated scf accuracy    <       0.00000192 Ry

     iteration # 17     ecut=    36.75 Ry     beta=0.10
     Davidson diagonalization with overlap
     ethr =  1.14E-09,  avg # of iterations =  3.9

[...]

     negative rho (up, down):  2.341E+00 0.000E+00

     Adding external electric field

     Computed dipole along edir(3) :
        Dipole                0.2203 Ry au,          0.5600 Debye
        Dipole field          0.0005 Ry au

        Potential amp.       -0.0486 Ry
        Total length         45.7562 bohr

     End of self-consistent calculation

[...]

          k = 0.0571-0.0566 0.0000 ( 19608 PWs)   bands (ev):

[...]

          k =-0.0857-0.0557 0.0000 ( 19602 PWs)   bands (ev):

   -46.9045 -46.8977 -46.7075 -46.6746 -46.6372 -46.6103 -46.6063 -46.6046
   -46.5315 -46.5240 -46.5073 -46.5024 -46.5012 -46.4316 -46.4189 -46.4126
   -46.2641 -46.2581 -10.3852 -10.2234 -10.1847 -10.1622 -10.1205 -10.0091
    -9.9629  -9.9428  -9.9423  -9.9421  -9.9105  -9.8783  -9.8133  -9.7377
    -9.7163  -9.7046  -9.6982  -9.6892  -9.6652  -9.6339  -9.6202  -9.5700
    -9.5654  -9.5645  -9.5271  -9.4869  -9.4643  -9.4401  -9.3523  -9.2116
    -6.5604  -5.9623  -5.0110  -4.3566  -3.6699  -3.3453  -3.2200  -2.5303
    -2.3955  -1.9119  -1.8535  -1.8293  -1.5799  -1.5331  -1.1293  -1.1112
    -1.0533  -1.0488  -0.6884  -0.6046  -0.3924  -0.1810  -0.0793   0.2538
     0.3824   0.4363   0.6790   0.7584   0.9914   1.0567   1.1710   1.1931
     1.2581   1.2855   1.3348   1.6867   1.7153   2.1760   2.3100   2.7897
     2.9617   3.1821   3.6844   4.4139   4.6580   5.7261   5.7314   6.2547
     6.2870   6.4082   6.7230   6.8728   7.0653   7.2559   7.2934   7.4227
     7.5519   8.0706   8.1165   8.2469   8.3148   8.3170   8.4119   8.4269
     8.4922   8.6123

     the Fermi energy is     1.6905 ev

!    total energy              =   -1980.24700374 Ry
     Harris-Foulkes estimate   =   -1980.24697787 Ry
     estimated scf accuracy    <       0.00000073 Ry

     The total energy is the sum of the following terms:

     one-electron contribution =  -12800.94629490 Ry
     hartree contribution      =    6460.76160957 Ry
     xc contribution           =    -696.26108095 Ry
     ewald contribution        =    5056.26028373 Ry
     electric field correction =       0.00011690 Ry
     smearing contrib. (-TS)   =      -0.06163809 Ry

     convergence has been achieved in  17 iterations

 BEEF-vdW xc energy contributions
           1 :   -618.820262924640
           2 :    575.075629823830
           3 :   -497.498276688925
           4 :    402.259459426841
           5 :   -306.491917525640
           6 :    223.442055838104
           7 :   -159.684222906906
           8 :    114.994558005071
           9 :   -84.5037516428063
          10 :    61.9182422622824
          11 :   -42.3791601338114
          12 :    23.8922795970598
          13 :   -7.08843813104897
          14 :   -6.16353846100355
          15 :    14.3658414781177
          16 :   -17.4236757697356
          17 :    16.7302280572086
          18 :   -14.4603829373272
          19 :    12.5666763052614
          20 :   -12.0374767187582
          21 :    12.7432604186251
          22 :   -13.8457108375947
          23 :    14.4495813034168
          24 :   -14.1154215183087
          25 :    12.9936029533171
          26 :   -11.5955968457894
          27 :    10.4088600478379
          28 :   -9.61276602370526
          29 :    9.04363011567466
          30 :   -8.38812857648702
          31 :   -51.0894736922971
          32 :   -37.7820412767790

     Forces acting on atoms (Ry/au):

     negative rho (up, down):  2.341E+00 0.000E+00
     atom    1 type  1   force =     0.01067110    0.00694329    0.03098550
     atom    2 type  1   force =     0.01067283    0.00694403    0.03098321
     atom    3 type  2   force =    -0.00687094   -0.00444576   -0.04026273
     atom    4 type  2   force =    -0.00684595   -0.00448239   -0.04026418
     atom    5 type  1   force =    -0.02124130   -0.01382071    0.01231867
     atom    6 type  1   force =    -0.02122544   -0.01380962    0.01232523
     atom    7 type  2   force =     0.01682805    0.01085205   -0.00391021
     atom    8 type  2   force =     0.01674579    0.01099033   -0.00391396
     atom    9 type  1   force =     0.00048477    0.00031614    0.00088115
     atom   10 type  1   force =     0.00048434    0.00031521    0.00088599
     atom   11 type  2   force =     0.00015101    0.00009986   -0.00001311
     atom   12 type  2   force =     0.00014575    0.00009755   -0.00001556

     Total force =     0.089681     Total SCF correction =     0.004041

     entering subroutine stress ...

     negative rho (up, down):  2.341E+00 0.000E+00
          total   stress  (Ry/bohr**3)                   (kbar)     P=  -20.22
  -0.00019103  -0.00000411  -0.00000647        -28.10     -0.60     -0.95
  -0.00000411  -0.00018739  -0.00000421         -0.60    -27.57     -0.62
  -0.00000647  -0.00000421  -0.00003400         -0.95     -0.62     -5.00

 !ASE

     Writing output data file calc.save

     General routines

     Parallel routines

   This run was terminated on:   2:37:11  25Dec2018

   JOB DONE.
Job  /afs/slac/g/suncat/bin/suncat-tsmpirun -x LD_LIBRARY_PATH -wdir /scratch/qe109046_Z11eF pw.x -in pw.inp

TID   HOST_NAME   COMMAND_LINE            STATUS            TERMINATION_TIME
00000 suncat0169 pw.x -in pw.inp   Done                     12/25/2018 02:37:11
00001 suncat0169 pw.x -in pw.inp   Done                     12/25/2018 02:37:11
00002 suncat0169 pw.x -in pw.inp   Done                     12/25/2018 02:37:11
00003 suncat0169 pw.x -in pw.inp   Done                     12/25/2018 02:37:11
00004 suncat0169 pw.x -in pw.inp   Done                     12/25/2018 02:37:11
00005 suncat0169 pw.x -in pw.inp   Done                     12/25/2018 02:37:11
00006 suncat0169 pw.x -in pw.inp   Done                     12/25/2018 02:37:11
00007 suncat0169 pw.x -in pw.inp   Done                     12/25/2018 02:37:11
00008 suncat0168 pw.x -in pw.inp   Done                     12/25/2018 02:37:11
00009 suncat0168 pw.x -in pw.inp   Done                     12/25/2018 02:37:11
00010 suncat0168 pw.x -in pw.inp   Done                     12/25/2018 02:37:11
00011 suncat0168 pw.x -in pw.inp   Done                     12/25/2018 02:37:11
00012 suncat0168 pw.x -in pw.inp   Done                     12/25/2018 02:37:11
00013 suncat0168 pw.x -in pw.inp   Done                     12/25/2018 02:37:11
00014 suncat0168 pw.x -in pw.inp   Done                     12/25/2018 02:37:11
00015 suncat0168 pw.x -in pw.inp   Done                     12/25/2018 02:37:11
00016 suncat0110 pw.x -in pw.inp   Done                     12/25/2018 02:37:11
00017 suncat0110 pw.x -in pw.inp   Done                     12/25/2018 02:37:11
00018 suncat0110 pw.x -in pw.inp   Done                     12/25/2018 02:37:11
00019 suncat0110 pw.x -in pw.inp   Done                     12/25/2018 02:37:11
00020 suncat0110 pw.x -in pw.inp   Done                     12/25/2018 02:37:11
00021 suncat0110 pw.x -in pw.inp   Done                     12/25/2018 02:37:11
00022 suncat0110 pw.x -in pw.inp   Done                     12/25/2018 02:37:11
00023 suncat0110 pw.x -in pw.inp   Done                     12/25/2018 02:37:11
00024 suncat0109 pw.x -in pw.inp   Done                     12/25/2018 02:37:11
00025 suncat0109 pw.x -in pw.inp   Done                     12/25/2018 02:37:11
00026 suncat0109 pw.x -in pw.inp   Done                     12/25/2018 02:37:11
00027 suncat0109 pw.x -in pw.inp   Done                     12/25/2018 02:37:11
00028 suncat0109 pw.x -in pw.inp   Done                     12/25/2018 02:37:11
00029 suncat0109 pw.x -in pw.inp   Done                     12/25/2018 02:37:11
00030 suncat0109 pw.x -in pw.inp   Done                     12/25/2018 02:37:11
00031 suncat0109 pw.x -in pw.inp   Done                     12/25/2018 02:37:11
00032 suncat0277 pw.x -in pw.inp   Done                     12/25/2018 02:37:11
00033 suncat0277 pw.x -in pw.inp   Done                     12/25/2018 02:37:11
00034 suncat0277 pw.x -in pw.inp   Done                     12/25/2018 02:37:11
00035 suncat0277 pw.x -in pw.inp   Done                     12/25/2018 02:37:11
00036 suncat0277 pw.x -in pw.inp   Done                     12/25/2018 02:37:11
00037 suncat0277 pw.x -in pw.inp   Done                     12/25/2018 02:37:11
00038 suncat0277 pw.x -in pw.inp   Done                     12/25/2018 02:37:11
00039 suncat0277 pw.x -in pw.inp   Done                     12/25/2018 02:37:11
00040 suncat0276 pw.x -in pw.inp   Done                     12/25/2018 02:37:11
00041 suncat0276 pw.x -in pw.inp   Done                     12/25/2018 02:37:11
00042 suncat0276 pw.x -in pw.inp   Done                     12/25/2018 02:37:11
00043 suncat0276 pw.x -in pw.inp   Done                     12/25/2018 02:37:11
00044 suncat0276 pw.x -in pw.inp   Done                     12/25/2018 02:37:11
00045 suncat0276 pw.x -in pw.inp   Done                     12/25/2018 02:37:11
00046 suncat0276 pw.x -in pw.inp   Done                     12/25/2018 02:37:11
00047 suncat0276 pw.x -in pw.inp   Done                     12/25/2018 02:37:11
00048 suncat0274 pw.x -in pw.inp   Done                     12/25/2018 02:37:11
00049 suncat0274 pw.x -in pw.inp   Done                     12/25/2018 02:37:11
00050 suncat0274 pw.x -in pw.inp   Done                     12/25/2018 02:37:11
00051 suncat0274 pw.x -in pw.inp   Done                     12/25/2018 02:37:11
00052 suncat0274 pw.x -in pw.inp   Done                     12/25/2018 02:37:11
00053 suncat0274 pw.x -in pw.inp   Done                     12/25/2018 02:37:11
00054 suncat0274 pw.x -in pw.inp   Done                     12/25/2018 02:37:11
00055 suncat0274 pw.x -in pw.inp   Done                     12/25/2018 02:37:11
00056 suncat0273 pw.x -in pw.inp   Done                     12/25/2018 02:37:11
00057 suncat0273 pw.x -in pw.inp   Done                     12/25/2018 02:37:11
00058 suncat0273 pw.x -in pw.inp   Done                     12/25/2018 02:37:11
00059 suncat0273 pw.x -in pw.inp   Done                     12/25/2018 02:37:11
00060 suncat0273 pw.x -in pw.inp   Done                     12/25/2018 02:37:11
00061 suncat0273 pw.x -in pw.inp   Done                     12/25/2018 02:37:11
00062 suncat0273 pw.x -in pw.inp   Done                     12/25/2018 02:37:11
00063 suncat0273 pw.x -in pw.inp   Done                     12/25/2018 02:37:11