     Program PWSCF v.5.1rc2 (svn rev. 11289) starts on 19Dec2018 at  6:20:50

     Current dimensions of program PWSCF are:
     Max number of different atomic species (ntypx) = 10
     Max number of k-points (npk) =  40000
     Max angular momentum in pseudopotentials (lmaxx) =  3
     Presently stress not available with electric field

     IMPORTANT: XC functional enforced from input :
     Exchange-correlation      = BEEF-VDW ( 1  4 27 13 2)
     Any further DFT definition will be discarded
     Please, verify this is what you really want

     Subspace diagonalization in iterative solution of the eigenvalue problem:
     a serial algorithm will be used

     Found symmetry operation: I + ( -0.5000  0.0000  0.0000)
     This is a supercell, fractional translations are disabled

     bravais-lattice index     =            0
     lattice parameter (alat)  =       1.8897  a.u.
     unit-cell volume          =    4413.9193 (a.u.)^3
     number of atoms/cell      =           12
     number of atomic types    =            2
     number of electrons       =       198.00
     number of Kohn-Sham states=          129
     kinetic-energy cutoff     =      36.7493  Ry
     charge density cutoff     =     367.4932  Ry
     convergence threshold     =      1.0E-06
     mixing beta               =       0.1000
     number of iterations used =           10  plain     mixing
     Exchange-correlation      = BEEF-VDW ( 1  4 27 13 2)
     nstep                     =           50

     celldm(1)=   1.889726  celldm(2)=   0.000000  celldm(3)=   0.000000
     celldm(4)=   0.000000  celldm(5)=   0.000000  celldm(6)=   0.000000

     crystal axes: (cart. coord. in units of alat)
               a(1) = (   5.221429   0.000000   0.000000 )
               a(2) = (  -2.610715   5.115026   0.000000 )
               a(3) = (   0.000000   0.000000  24.490098 )

     reciprocal axes: (cart. coord. in units 2 pi/alat)
               b(1) = (  0.191518  0.097751  0.000000 )
               b(2) = (  0.000000  0.195502  0.000000 )
               b(3) = (  0.000000  0.000000  0.040833 )

     PseudoPot. # 1 for Cr read from file:
     /afs/slac.stanford.edu/u/if/mamunm/psp/gbrv1.5pbe/Cr.UPF
     MD5 check sum: 0d52af634a40206e4dee301ad30da4bf
     Pseudo is Ultrasoft + core correction, Zval = 14.0
     Generated by new atomic code, or converted to UPF format
     Using radial grid of  857 points,  6 beta functions with:
                l(1) =   0
                l(2) =   0
                l(3) =   1
                l(4) =   1
                l(5) =   2
                l(6) =   2
     Q(r) pseudized with  8 coefficients,  rinner =    0.950   0.950   0.950
                                                       0.950   0.950

     PseudoPot. # 2 for Ag read from file:
     /afs/slac.stanford.edu/u/if/mamunm/psp/gbrv1.5pbe/Ag.UPF
     MD5 check sum: d66d668201baa78d5eb5b04ef7011058
     Pseudo is Ultrasoft + core correction, Zval = 19.0
     Generated by new atomic code, or converted to UPF format
     Using radial grid of  887 points,  6 beta functions with:
                l(1) =   0
                l(2) =   0
                l(3) =   1
                l(4) =   1
                l(5) =   2
                l(6) =   2
     Q(r) pseudized with  6 coefficients,  rinner =    1.300   1.300   1.300
                                                       1.300   1.300

     vdW kernel table read from file vdW_kernel_table
     MD5 check sum: 095c7af220d748ca6e76c0b4c6cfb241

     atomic species   valence    mass     pseudopotential
        Cr1           14.00    51.99610     Cr( 1.00)
        Ag1           19.00   107.86820     Ag( 1.00)

     No symmetry found

   Cartesian axes

     site n.     atom                  positions (alat units)
         1           Cr1 tau(   1) = (   0.0000000   0.0000000  10.0000000  )
         2           Cr1 tau(   2) = (   2.6107146   0.0000000  10.0000000  )
         3           Ag1 tau(   3) = (   1.3053573   2.5575132  10.0000000  )
         4           Ag1 tau(   4) = (  -1.3053573   2.5575132  10.0000000  )
         5           Cr1 tau(   5) = (   2.6107146   1.3325114  12.2450488  )
         6           Cr1 tau(   6) = (   0.0000000   1.3325114  12.2450488  )
         7           Ag1 tau(   7) = (  -1.3053573   3.8900246  12.2450488  )
         8           Ag1 tau(   8) = (   1.3053573   3.8900246  12.2450488  )
         9           Cr1 tau(   9) = (   0.0000000   2.6650228  14.4900977  )
        10           Cr1 tau(  10) = (   2.6107146   2.6650228  14.4900977  )
        11           Ag1 tau(  11) = (   3.9160719   0.1075096  14.4900977  )
        12           Ag1 tau(  12) = (   1.3053573   0.1075096  14.4900977  )

     number of k points=    20  Fermi-Dirac smearing, width (Ry)=  0.0110
                       cart. coord. in units 2pi/alat
        k(    1) = (   0.0000000   0.0000000   0.0000000), wk =   0.0555556
        k(    2) = (   0.0000000   0.0325837   0.0000000), wk =   0.1111111
        k(    3) = (   0.0000000   0.0651675   0.0000000), wk =   0.1111111
        k(    4) = (   0.0000000  -0.0977512   0.0000000), wk =   0.0555556
        k(    5) = (   0.0319197   0.0162919   0.0000000), wk =   0.1111111
        k(    6) = (   0.0319197   0.0488756   0.0000000), wk =   0.1111111
        k(    7) = (   0.0319197   0.0814593   0.0000000), wk =   0.1111111
        k(    8) = (   0.0319197  -0.0814593   0.0000000), wk =   0.1111111
        k(    9) = (   0.0319197  -0.0488756   0.0000000), wk =   0.1111111
        k(   10) = (   0.0319197  -0.0162919   0.0000000), wk =   0.1111111
        k(   11) = (   0.0638395   0.0325837   0.0000000), wk =   0.1111111
        k(   12) = (   0.0638395   0.0651675   0.0000000), wk =   0.1111111
        k(   13) = (   0.0638395   0.0977512   0.0000000), wk =   0.1111111
        k(   14) = (   0.0638395  -0.0651675   0.0000000), wk =   0.1111111
        k(   15) = (   0.0638395  -0.0325837   0.0000000), wk =   0.1111111
        k(   16) = (   0.0638395   0.0000000   0.0000000), wk =   0.1111111
        k(   17) = (  -0.0957592  -0.0488756   0.0000000), wk =   0.0555556
        k(   18) = (  -0.0957592  -0.0162919   0.0000000), wk =   0.1111111
        k(   19) = (  -0.0957592   0.0162919   0.0000000), wk =   0.1111111
        k(   20) = (  -0.0957592  -0.1466268   0.0000000), wk =   0.0555556

     Largest allocated arrays     est. size (Mb)     dimensions
     Largest temporary arrays     est. size (Mb)     dimensions

     Check: negative/imaginary core charge=   -0.000003    0.000000

     Initial potential from superposition of free atoms
     Check: negative starting charge=   -0.007400

     starting charge  188.99962, renormalised to  198.00000

     negative rho (up, down):  7.752E-03 0.000E+00

     *
     * You are using vdW-DF for exchange-correlation in this calculation.
     * Please cite the following three references that made this development
     * possible:
     *
     *   M. Dion, H. Rydberg, E. Schroder, D. C. Langreth, and
     *   B. I. Lundqvist, Phys. Rev. Lett. 92, 246401 (2004).
     *
     *   T. Thonhauser, V. R. Cooper, S. Li, A. Puzder, P. Hyldgaard, and
     *   D. C. Langreth, Phys. Rev. B 76, 125112 (2007).
     *
     *   G. Roman-Perez and J. M. Soler, Phys. Rev. Lett. 103, 096102 (2009).
     *
     *
     * If you are using vdW-DF2, please also cite:
     *
     *   K. Lee, E. D. Murray, L. Kong, B. I. Lundqvist, and
     *   D. C. Langreth, Phys. Rev. B 82, 081101(R) (2010).
     *
     *
     * If you are calculating the stress with vdW-DF, please also cite:
     *
     *   R. Sabatini, E. Kucukbenli, B. Kolb, T. Thonhauser, and
     *   S. de Gironcoli, J. Phys.: Condens. Matter 24, 424209 (2012).
     *

     Carrying out vdW-DF run using the following parameters:

     Nqs =      20    Nr_points =    1024   r_max =   100.000
     q_mesh =
               0.00001000     0.04494208     0.09755937     0.15916263
               0.23128650     0.31572767     0.41458969     0.53033537
               0.66584808     0.82450364     1.01025438     1.22772762
               1.48234092     1.78043706     2.12944203     2.53805004
               3.01644009     3.57652955     4.23227104     5.00000000

     Gradients computed in reciprocal space

     Adding external electric field

     Computed dipole along edir(3) :
        Dipole                0.0000 Ry au,          0.0000 Debye
        Dipole field          0.0000 Ry au

        Potential amp.       -0.0000 Ry
        Total length         45.1226 bohr

     Starting wfc are  138 randomized atomic wfcs

     Self-consistent Calculation

     iteration #  1     ecut=    36.75 Ry     beta=0.10
     Davidson diagonalization with overlap
     ethr =  1.00E-02,  avg # of iterations =  7.5

[...]

     total energy              =   -2813.20657194 Ry
     Harris-Foulkes estimate   =   -2852.83468828 Ry
     estimated scf accuracy    <     218.73192725 Ry

[...]

     End of self-consistent calculation

          k = 0.0000 0.0000 0.0000 ( 16655 PWs)   bands (ev):

   -91.2483 -91.2247 -90.9558 -90.9556 -90.9322 -90.9319 -70.5195 -70.4747
   -70.3843 -70.3823 -70.3397 -70.3379 -54.8788 -54.7648 -54.7389 -54.7127
   -54.6875 -54.6200 -54.6007 -54.6005 -54.4497 -54.4424 -54.4246 -54.4174
   -54.3937 -54.3760 -54.3694 -54.3524 -54.3418 -54.3417 -41.9709 -41.8917
   -41.8490 -41.8440 -41.8053 -41.7728 -41.7713 -41.7577 -41.7369 -41.7193
   -41.6991 -41.6968 -41.6588 -41.6171 -41.6125 -41.5836 -41.4143 -41.4137
    -5.8298  -5.2876  -5.1464  -4.9871  -4.9271  -4.8500  -4.7828  -4.6383
    -4.4718  -4.3588  -4.2855  -4.1873  -4.1672  -4.1297  -3.4945  -3.4874
    -3.3599  -3.3593  -3.3251  -3.1796  -3.0845  -2.9658  -2.8676  -2.8273
    -2.6273  -2.5467  -2.4734  -2.3318  -2.3014  -2.1979  -1.9125  -1.2742
    -0.6661  -0.4349  -0.4333  -0.2467  -0.0527   0.0544   0.1054   0.2926
     0.3065   0.3364   0.7085   0.8458   0.9060   1.0692   1.0792   1.1620
     1.1931   1.4632   1.5571   1.6804   1.7535   2.0116   2.0196   2.0819
     2.0828   2.2113   2.2978   2.3381   2.3601   2.4802   2.4936   2.5020
     2.6956   2.7771   2.7824   3.1008   3.1903   4.0980   4.4295   4.7125
     4.9973   5.1633   5.4147   5.8595   6.2726   6.4120   6.8120   7.1248
     7.6423

[...]

          k =-0.0958-0.0489 0.0000 ( 16542 PWs)   bands (ev):

[...]

     the Fermi energy is     1.2786 ev

!    total energy              =   -2836.78169293 Ry
     Harris-Foulkes estimate   =   -2836.78169505 Ry
     estimated scf accuracy    <       0.00000016 Ry

     The total energy is the sum of the following terms:

     one-electron contribution =  -22762.19597653 Ry
     hartree contribution      =   11370.63328646 Ry
     xc contribution           =    -319.71306909 Ry
     ewald contribution        =    8874.61359077 Ry
     electric field correction =       0.00000001 Ry
     smearing contrib. (-TS)   =      -0.11952455 Ry

     convergence has been achieved in  28 iterations

 BEEF-vdW xc energy contributions
           1 :   -277.038497715866
           2 :    250.386165502299
           3 :   -205.806663951437
           4 :    156.631714330744
           5 :   -115.051321361135
[...]

[...]

   This run was terminated on:   8: 0:30  19Dec2018

[...]

     Program PWSCF v.5.1rc2 (svn rev. 11289) starts on 19Dec2018 at  8: 0:37

[...]

     Program PWSCF v.5.1rc2 (svn rev. 11289) starts on 19Dec2018 at  9:44: 4

[...]

   This run was terminated on:  12: 6:41  19Dec2018

[...]

     Program PWSCF v.5.1rc2 (svn rev. 11289) starts on 19Dec2018 at 12: 6:48

[...]

     Program PWSCF v.5.1rc2 (svn rev. 11289) starts on 19Dec2018 at 12:30:51

     Current dimensions of program PWSCF are:
     Max number of different atomic species (ntypx) = 10
     Max number of k-points (npk) =  40000
     Max angular momentum in pseudopotentials (lmaxx) =  3
     Presently stress not available with electric field

     IMPORTANT: XC functional enforced from input :
     Exchange-correlation      = BEEF-VDW ( 1  4 27 13 2)
     Any further DFT definition will be discarded
     Please, verify this is what you really want

     Subspace diagonalization in iterative solution of the eigenvalue problem:
     a serial algorithm will be used

     bravais-lattice index     =            0
     lattice parameter (alat)  =       1.8897  a.u.
     unit-cell volume          =    4413.9193 (a.u.)^3
     number of atoms/cell      =           12
     number of atomic types    =            2
     number of electrons       =       198.00
     number of Kohn-Sham states=          129
     kinetic-energy cutoff     =      36.7493  Ry
     charge density cutoff     =     367.4932  Ry
     convergence threshold     =      1.0E-06
     mixing beta               =       0.1000
     number of iterations used =           10  plain     mixing
     Exchange-correlation      = BEEF-VDW ( 1  4 27 13 2)
     nstep                     =           50

     celldm(1)=   1.889726  celldm(2)=   0.000000  celldm(3)=   0.000000
     celldm(4)=   0.000000  celldm(5)=   0.000000  celldm(6)=   0.000000

     crystal axes: (cart. coord. in units of alat)
               a(1) = (   5.221429   0.000000   0.000000 )
               a(2) = (  -2.610715   5.115026   0.000000 )
               a(3) = (   0.000000   0.000000  24.490098 )

     reciprocal axes: (cart. coord. in units 2 pi/alat)
               b(1) = (  0.191518  0.097751  0.000000 )
               b(2) = (  0.000000  0.195502  0.000000 )
               b(3) = (  0.000000  0.000000  0.040833 )

     PseudoPot. # 1 for Cr read from file:
     /afs/slac.stanford.edu/u/if/mamunm/psp/gbrv1.5pbe/Cr.UPF
     MD5 check sum: 0d52af634a40206e4dee301ad30da4bf
     Pseudo is Ultrasoft + core correction, Zval = 14.0
     Generated by new atomic code, or converted to UPF format
     Using radial grid of  857 points,  6 beta functions with:
                l(1) =   0
                l(2) =   0
                l(3) =   1
                l(4) =   1
                l(5) =   2
                l(6) =   2
     Q(r) pseudized with  8 coefficients,  rinner =    0.950   0.950   0.950
                                                       0.950   0.950

     PseudoPot. # 2 for Ag read from file:
     /afs/slac.stanford.edu/u/if/mamunm/psp/gbrv1.5pbe/Ag.UPF
     MD5 check sum: d66d668201baa78d5eb5b04ef7011058
     Pseudo is Ultrasoft + core correction, Zval = 19.0
     Generated by new atomic code, or converted to UPF format
     Using radial grid of  887 points,  6 beta functions with:
                l(1) =   0
                l(2) =   0
                l(3) =   1
                l(4) =   1
                l(5) =   2
                l(6) =   2
     Q(r) pseudized with  6 coefficients,  rinner =    1.300   1.300   1.300
                                                       1.300   1.300

     vdW kernel table read from file vdW_kernel_table
     MD5 check sum: 095c7af220d748ca6e76c0b4c6cfb241

     atomic species   valence    mass     pseudopotential
        Cr1           14.00    51.99610     Cr( 1.00)
        Ag1           19.00   107.86820     Ag( 1.00)

     No symmetry found

   Cartesian axes

     site n.     atom                  positions (alat units)
         1           Cr1 tau(   1) = (   0.0000000   0.0000000  10.0000000  )
         2           Cr1 tau(   2) = (   2.6107146   0.0000000  10.0000000  )
         3           Ag1 tau(   3) = (   1.3053573   2.5575132  10.0000000  )
         4           Ag1 tau(   4) = (  -1.3053573   2.5575132  10.0000000  )
         5           Cr1 tau(   5) = (   2.6107146   1.3325114  12.2450488  )
         6           Cr1 tau(   6) = (   0.0000000   1.3325114  12.2450488  )
         7           Ag1 tau(   7) = (  -1.3053573   3.8900246  12.2450488  )
         8           Ag1 tau(   8) = (   1.3053573   3.8900246  12.2450488  )
         9           Cr1 tau(   9) = (  -0.0004089   1.8396794  14.0094613  )
        10           Cr1 tau(  10) = (   2.6103067   1.8396727  14.0092681  )
        11           Ag1 tau(  11) = (   1.3040572   4.5665381  14.9535846  )
        12           Ag1 tau(  12) = (  -1.3052453   4.5665759  14.9535942  )

     number of k points=    20  Fermi-Dirac smearing, width (Ry)=  0.0110
                       cart. coord. in units 2pi/alat
        k(    1) = (   0.0000000   0.0000000   0.0000000), wk =   0.0555556
        k(    2) = (   0.0000000   0.0325837   0.0000000), wk =   0.1111111
        k(    3) = (   0.0000000   0.0651675   0.0000000), wk =   0.1111111
        k(    4) = (   0.0000000  -0.0977512   0.0000000), wk =   0.0555556
        k(    5) = (   0.0319197   0.0162919   0.0000000), wk =   0.1111111
        k(    6) = (   0.0319197   0.0488756   0.0000000), wk =   0.1111111
        k(    7) = (   0.0319197   0.0814593   0.0000000), wk =   0.1111111
        k(    8) = (   0.0319197  -0.0814593   0.0000000), wk =   0.1111111
        k(    9) = (   0.0319197  -0.0488756   0.0000000), wk =   0.1111111
        k(   10) = (   0.0319197  -0.0162919   0.0000000), wk =   0.1111111
        k(   11) = (   0.0638395   0.0325837   0.0000000), wk =   0.1111111
        k(   12) = (   0.0638395   0.0651675   0.0000000), wk =   0.1111111
        k(   13) = (   0.0638395   0.0977512   0.0000000), wk =   0.1111111
        k(   14) = (   0.0638395  -0.0651675   0.0000000), wk =   0.1111111
        k(   15) = (   0.0638395  -0.0325837   0.0000000), wk =   0.1111111
        k(   16) = (   0.0638395   0.0000000   0.0000000), wk =   0.1111111
        k(   17) = (  -0.0957592  -0.0488756   0.0000000), wk =   0.0555556
        k(   18) = (  -0.0957592  -0.0162919   0.0000000), wk =   0.1111111
        k(   19) = (  -0.0957592   0.0162919   0.0000000), wk =   0.1111111
        k(   20) = (  -0.0957592  -0.1466268   0.0000000), wk =   0.0555556

     Largest allocated arrays     est. size (Mb)     dimensions
     Largest temporary arrays     est. size (Mb)     dimensions

     Check: negative/imaginary core charge=   -0.000003    0.000000

     Initial potential from superposition of free atoms
     Check: negative starting charge=   -0.008302

     starting charge  188.99962, renormalised to  198.00000

[...]

     *
     * You are using vdW-DF for exchange-correlation in this calculation.
     * Please cite the following three references that made this development
     * possible:
     *
     *   M. Dion, H. Rydberg, E. Schroder, D. C. Langreth, and
     *   B. I. Lundqvist, Phys. Rev. Lett. 92, 246401 (2004).
     *
     *   T. Thonhauser, V. R. Cooper, S. Li, A. Puzder, P. Hyldgaard, and
     *   D. C. Langreth, Phys. Rev. B 76, 125112 (2007).
     *
     *   G. Roman-Perez and J. M. Soler, Phys. Rev. Lett. 103, 096102 (2009).
     *
     *
     * If you are using vdW-DF2, please also cite:
     *
     *   K. Lee, E. D. Murray, L. Kong, B. I. Lundqvist, and
     *   D. C. Langreth, Phys. Rev. B 82, 081101(R) (2010).
     *
     *
     * If you are calculating the stress with vdW-DF, please also cite:
     *
     *   R. Sabatini, E. Kucukbenli, B. Kolb, T. Thonhauser, and
     *   S. de Gironcoli, J. Phys.: Condens. Matter 24, 424209 (2012).
     *

     Carrying out vdW-DF run using the following parameters:

     Nqs =      20    Nr_points =    1024   r_max =   100.000
     q_mesh =
               0.00001000     0.04494208     0.09755937     0.15916263
               0.23128650     0.31572767     0.41458969     0.53033537
               0.66584808     0.82450364     1.01025438     1.22772762
               1.48234092     1.78043706     2.12944203     2.53805004
               3.01644009     3.57652955     4.23227104     5.00000000

     Gradients computed in reciprocal space

[...]

     Starting wfc are  138 randomized atomic wfcs

     Self-consistent Calculation

[...]

     total energy              =   -2836.90526909 Ry
     Harris-Foulkes estimate   =   -2836.90526906 Ry
     estimated scf accuracy    <       0.00000147 Ry

     iteration # 26     ecut=    36.75 Ry     beta=0.10
     Davidson diagonalization with overlap
     ethr =  7.42E-10,  avg # of iterations =  1.9

[...]

     negative rho (up, down):  6.765E-03 0.000E+00

     Adding external electric field

     Computed dipole along edir(3) :
        Dipole                0.0464 Ry au,          0.1180 Debye
        Dipole field          0.0001 Ry au

        Potential amp.       -0.0119 Ry
        Total length         45.1226 bohr

     End of self-consistent calculation

[...]

          k = 0.0638 0.0000 0.0000 ( 16639 PWs)   bands (ev):

[...]

          k =-0.0958-0.1466 0.0000 ( 16542 PWs)   bands (ev):

   -91.1881 -91.1881 -90.9341 -90.9341 -90.6304 -90.6302 -70.6879 -70.6871
   -70.3101 -70.3100 -69.8858 -69.8857 -54.7056 -54.7056 -54.6858 -54.6858
   -54.6586 -54.6586 -54.4648 -54.4648 -54.4218 -54.4218 -54.3635 -54.3635
   -54.2005 -54.1990 -54.1215 -54.1213 -54.0570 -54.0569 -43.1203 -43.1189
   -41.8603 -41.8598 -41.7693 -41.7687 -41.6891 -41.6891 -41.6083 -41.6083
   -41.5691 -41.5690 -41.3914 -41.3912 -41.3023 -41.3020 -40.2504 -40.2500
    -4.4495  -4.4495  -4.2878  -4.2877  -4.1663  -4.1661  -4.0860  -4.0857
    -3.8521  -3.8520  -3.6523  -3.6513  -3.4861  -3.4859  -3.3779  -3.3778
    -3.2040  -3.2018  -3.1770  -3.1728  -3.1049  -3.1040  -3.0469  -3.0445
    -2.8701  -2.8688  -2.7452  -2.7446  -2.6404  -2.6387  -2.5589  -2.5567
    -1.6421  -1.6413  -1.1312  -1.1310  -0.6976  -0.6972  -0.6000  -0.5998
    -0.2718  -0.2713   0.5207   0.5208   0.5921   0.5924   0.7601   0.7603
     1.1453   1.1455   1.2127   1.2127   1.3157   1.3157   1.7082   1.7083
     1.8288   1.8289   2.2937   2.2940   2.6977   2.6979   3.0587   3.0587
     3.4604   3.4607   3.7305   3.7307   4.1978   4.1982   4.8850   4.8858
     5.8384   5.8388   6.6852   6.6852   7.3082   7.3083   7.4709   7.4711
     7.9765

     the Fermi energy is     1.3413 ev

!    total energy              =   -2836.90526854 Ry
     Harris-Foulkes estimate   =   -2836.90526882 Ry
     estimated scf accuracy    <       0.00000059 Ry

     The total energy is the sum of the following terms:

     one-electron contribution =  -22496.61328152 Ry
     hartree contribution      =   11238.56859402 Ry
     xc contribution           =    -320.39312327 Ry
     ewald contribution        =    8741.62462209 Ry
     electric field correction =       0.00000614 Ry
     smearing contrib. (-TS)   =      -0.09208599 Ry

     convergence has been achieved in  26 iterations

 BEEF-vdW xc energy contributions
           1 :   -277.700197590644
           2 :    251.035698424275
           3 :   -206.404081334587
           4 :    157.082062919755
           5 :   -115.213294238302
           6 :    87.4258600150136
           7 :   -73.6233360983787
           8 :    68.9219821372063
           9 :   -67.1861416259646
          10 :    64.1133134569456
          11 :   -58.5025739352353
          12 :    51.5836084563072
          13 :   -45.3341384375918
          14 :    40.9915456590966
          15 :   -38.5172394739481
          16 :    37.0074362373770
          17 :   -35.5027132390626
          18 :    33.5723001034280
          19 :   -31.3793998118274
          20 :    29.3453470831427
          21 :   -27.7556805679949
          22 :    26.5825271974296
          23 :   -25.5780604301538
          24 :    24.4967641213806
          25 :   -23.2634043048690
          26 :    21.9891517670090
          27 :   -20.8654159624342
          28 :    20.0318701286159
          29 :   -19.5033746516566
          30 :    19.1771837880345
          31 :   -27.5009446123548
          32 :   -19.9126496279474

     Forces acting on atoms (Ry/au):

     negative rho (up, down):  6.765E-03 0.000E+00
     atom    1 type  1   force =    -0.00000333    0.00726974    0.02717266
     atom    2 type  1   force =    -0.00000340    0.00727060    0.02717858
     atom    3 type  2   force =    -0.00001827   -0.02238237   -0.04853254
     atom    4 type  2   force =     0.00001746   -0.02238232   -0.04853260
     atom    5 type  1   force =     0.00001646   -0.00666185   -0.00918915
     atom    6 type  1   force =     0.00001669   -0.00659991   -0.00898770
     atom    7 type  2   force =     0.00000647    0.02149901    0.03139764
     atom    8 type  2   force =     0.00002715    0.02149945    0.03139535
     atom    9 type  1   force =    -0.00001063    0.00120846   -0.00060443
     atom   10 type  1   force =    -0.00000949    0.00130617   -0.00043505
     atom   11 type  2   force =     0.00064209   -0.00101253   -0.00043153
     atom   12 type  2   force =    -0.00068118   -0.00101446   -0.00043123

     Total force =     0.102233     Total SCF correction =     0.004581

     entering subroutine stress ...

     negative rho (up, down):  6.765E-03 0.000E+00
          total   stress  (Ry/bohr**3)                   (kbar)     P=   -0.15
   0.00007622  -0.00000002  -0.00000001         11.21     -0.00     -0.00
  -0.00000002  -0.00010043   0.00002841         -0.00    -14.77      4.18
  -0.00000001   0.00002841   0.00002124         -0.00      4.18      3.12

 !ASE

     Writing output data file calc.save

     General routines

     Parallel routines

   This run was terminated on:  12:53:33  19Dec2018

   JOB DONE.
Job  /afs/slac/g/suncat/bin/suncat-tsmpirun -x LD_LIBRARY_PATH -wdir /scratch/qe529713_2WQAA pw.x -in pw.inp

TID   HOST_NAME   COMMAND_LINE            STATUS            TERMINATION_TIME
00000 suncat0191 pw.x -in pw.inp   Done                     12/19/2018 12:53:33
00001 suncat0191 pw.x -in pw.inp   Done                     12/19/2018 12:53:33
00002 suncat0191 pw.x -in pw.inp   Done                     12/19/2018 12:53:33
00003 suncat0191 pw.x -in pw.inp   Done                     12/19/2018 12:53:33
00004 suncat0191 pw.x -in pw.inp   Done                     12/19/2018 12:53:33
00005 suncat0191 pw.x -in pw.inp   Done                     12/19/2018 12:53:33
00006 suncat0191 pw.x -in pw.inp   Done                     12/19/2018 12:53:33
00007 suncat0191 pw.x -in pw.inp   Done                     12/19/2018 12:53:33
00008 suncat0190 pw.x -in pw.inp   Done                     12/19/2018 12:53:33
00009 suncat0190 pw.x -in pw.inp   Done                     12/19/2018 12:53:33
00010 suncat0190 pw.x -in pw.inp   Done                     12/19/2018 12:53:33
00011 suncat0190 pw.x -in pw.inp   Done                     12/19/2018 12:53:33
00012 suncat0190 pw.x -in pw.inp   Done                     12/19/2018 12:53:33
00013 suncat0190 pw.x -in pw.inp   Done                     12/19/2018 12:53:33
00014 suncat0190 pw.x -in pw.inp   Done                     12/19/2018 12:53:33
00015 suncat0190 pw.x -in pw.inp   Done                     12/19/2018 12:53:33
00016 suncat0009 pw.x -in pw.inp   Done                     12/19/2018 12:53:33
00017 suncat0009 pw.x -in pw.inp   Done                     12/19/2018 12:53:33
00018 suncat0009 pw.x -in pw.inp   Done                     12/19/2018 12:53:33
00019 suncat0009 pw.x -in pw.inp   Done                     12/19/2018 12:53:33
00020 suncat0009 pw.x -in pw.inp   Done                     12/19/2018 12:53:33
00021 suncat0009 pw.x -in pw.inp   Done                     12/19/2018 12:53:33
00022 suncat0009 pw.x -in pw.inp   Done                     12/19/2018 12:53:33
00023 suncat0009 pw.x -in pw.inp   Done                     12/19/2018 12:53:33
00024 suncat0008 pw.x -in pw.inp   Done                     12/19/2018 12:53:33
00025 suncat0008 pw.x -in pw.inp   Done                     12/19/2018 12:53:33
00026 suncat0008 pw.x -in pw.inp   Done                     12/19/2018 12:53:33
00027 suncat0008 pw.x -in pw.inp   Done                     12/19/2018 12:53:33
00028 suncat0008 pw.x -in pw.inp   Done                     12/19/2018 12:53:33
00029 suncat0008 pw.x -in pw.inp   Done                     12/19/2018 12:53:33
00030 suncat0008 pw.x -in pw.inp   Done                     12/19/2018 12:53:33
00031 suncat0008 pw.x -in pw.inp   Done                     12/19/2018 12:53:33