     Program PWSCF v.5.1rc2 (svn rev. 11289) starts on 18Dec2018 at 22:38:41

     Current dimensions of program PWSCF are:
     Max number of different atomic species (ntypx) = 10
     Max number of k-points (npk) =  40000
     Max angular momentum in pseudopotentials (lmaxx) =  3
     Presently stress not available with electric field

     IMPORTANT: XC functional enforced from input :
     Exchange-correlation      = BEEF-VDW ( 1  4 27 13 2)
     Any further DFT definition will be discarded
     Please, verify this is what you really want

     Subspace diagonalization in iterative solution of the eigenvalue problem:
     a serial algorithm will be used

     Found symmetry operation: I + ( -0.5000 -0.5000  0.0000)
     This is a supercell, fractional translations are disabled

     Generating pointlists ...
     new r_m :   0.4125 (alat units)  0.7795 (a.u.) for type    1
     new r_m :   0.4125 (alat units)  0.7795 (a.u.) for type    2

     bravais-lattice index     =            0
     lattice parameter (alat)  =       1.8897  a.u.
     unit-cell volume          =    3906.3970 (a.u.)^3
     number of atoms/cell      =           12
     number of atomic types    =            2
     number of electrons       =       198.00
     number of Kohn-Sham states=          129
     kinetic-energy cutoff     =      36.7493  Ry
     charge density cutoff     =     367.4932  Ry
     convergence threshold     =      1.0E-06
     mixing beta               =       0.1000
     number of iterations used =           10  plain     mixing
     Exchange-correlation      = BEEF-VDW ( 1  4 27 13 2)
     nstep                     =           50

     celldm(1)=   1.889726  celldm(2)=   0.000000  celldm(3)=   0.000000
     celldm(4)=   0.000000  celldm(5)=   0.000000  celldm(6)=   0.000000

     crystal axes: (cart. coord. in units of alat)
               a(1) = (   5.200310   0.000000   0.000000 )
               a(2) = (   2.454347   4.584692   0.000000 )
               a(3) = (   0.000000   0.000000  24.279539 )

     reciprocal axes: (cart. coord. in units 2 pi/alat)
               b(1) = (  0.192296 -0.102943  0.000000 )
               b(2) = (  0.000000  0.218117  0.000000 )
               b(3) = (  0.000000  0.000000  0.041187 )

     PseudoPot. # 1 for Ni read from file:
     /afs/slac.stanford.edu/u/if/mamunm/psp/gbrv1.5pbe/Ni.UPF
     MD5 check sum: 1ee80287db30b12d2bc1f57a5b5d6409
     Pseudo is Ultrasoft + core correction, Zval = 18.0
     Generated by new atomic code, or converted to UPF format
     Using radial grid of  865 points,  6 beta functions with:
                l(1) =   0
                l(2) =   0
                l(3) =   1
                l(4) =   1
                l(5) =   2
                l(6) =   2
     Q(r) pseudized with 10 coefficients,  rinner =    0.980   0.980   0.980
                                                       0.980   0.980

     PseudoPot. # 2 for Rh read from file:
     /afs/slac.stanford.edu/u/if/mamunm/psp/gbrv1.5pbe/Rh.UPF
     MD5 check sum: 761627e959a2e3a1f56b0b5fe687810e
     Pseudo is Ultrasoft + core correction, Zval = 15.0
     Generated by new atomic code, or converted to UPF format
     Using radial grid of  969 points,  7 beta functions with:
                l(1) =   0
                l(2) =   0
                l(3) =   1
                l(4) =   1
                l(5) =   2
                l(6) =   2
                l(7) =   2
     Q(r) pseudized with  8 coefficients,  rinner =    1.200   1.200   1.200
                                                       1.200   1.200

     vdW kernel table read from file vdW_kernel_table
     MD5 check sum: 095c7af220d748ca6e76c0b4c6cfb241

     atomic species   valence    mass     pseudopotential
        Ni1           18.00    58.69340     Ni( 1.00)
        Rh1           15.00   102.90550     Rh( 1.00)

     Starting magnetic structure
     atomic species   magnetization
        Ni1          0.111
        Rh1          0.133

     No symmetry found

   Cartesian axes

     site n.     atom                  positions (alat units)
         1           Ni1 tau(   1) = (   0.0000000   0.0000000  10.0000000  )
         2           Ni1 tau(   2) = (   3.8273285   2.2923459  10.0000000  )
         3           Rh1 tau(   3) = (   2.6001548   0.0000000  10.0000000  )
         4           Rh1 tau(   4) = (   1.2271737   2.2923459  10.0000000  )
         5           Ni1 tau(   5) = (   5.2003096   3.1146812  12.1397696  )
         6           Ni1 tau(   6) = (   1.3729811   0.8223353  12.1397696  )
         7           Rh1 tau(   7) = (   2.6001548   3.1146812  12.1397696  )
         8           Rh1 tau(   8) = (   3.9731358   0.8223353  12.1397696  )
         9           Ni1 tau(   9) = (   2.7459621   1.6446707  14.2795393  )
        10           Ni1 tau(  10) = (   6.5732906   3.9370165  14.2795393  )
        11           Rh1 tau(  11) = (   5.3461169   1.6446707  14.2795393  )
        12           Rh1 tau(  12) = (   3.9731358   3.9370165  14.2795393  )

     number of k points=    40  Fermi-Dirac smearing, width (Ry)=  0.0110
                       cart. coord. in units 2pi/alat
        k(    1) = (   0.0000000   0.0000000   0.0000000), wk =   0.0277778
        k(    2) = (   0.0000000   0.0363529   0.0000000), wk =   0.0555556
        k(    3) = (   0.0000000   0.0727057   0.0000000), wk =   0.0555556
        k(    4) = (   0.0000000  -0.1090586   0.0000000), wk =   0.0277778
        k(    5) = (   0.0320494  -0.0171572   0.0000000), wk =   0.0555556
        k(    6) = (   0.0320494   0.0191957   0.0000000), wk =   0.0555556
        k(    7) = (   0.0320494   0.0555486   0.0000000), wk =   0.0555556
        k(    8) = (   0.0320494  -0.1262157   0.0000000), wk =   0.0555556
        k(    9) = (   0.0320494  -0.0898629   0.0000000), wk =   0.0555556
        k(   10) = (   0.0320494  -0.0535100   0.0000000), wk =   0.0555556
        k(   11) = (   0.0640987  -0.0343143   0.0000000), wk =   0.0555556
        k(   12) = (   0.0640987   0.0020385   0.0000000), wk =   0.0555556
        k(   13) = (   0.0640987   0.0383914   0.0000000), wk =   0.0555556
        k(   14) = (   0.0640987  -0.1433729   0.0000000), wk =   0.0555556
        k(   15) = (   0.0640987  -0.1070200   0.0000000), wk =   0.0555556
        k(   16) = (   0.0640987  -0.0706672   0.0000000), wk =   0.0555556
        k(   17) = (  -0.0961481   0.0514715   0.0000000), wk =   0.0277778
        k(   18) = (  -0.0961481   0.0878243   0.0000000), wk =   0.0555556
        k(   19) = (  -0.0961481   0.1241772   0.0000000), wk =   0.0555556
        k(   20) = (  -0.0961481  -0.0575871   0.0000000), wk =   0.0277778
        k(   21) = (   0.0000000   0.0000000   0.0000000), wk =   0.0277778
        k(   22) = (   0.0000000   0.0363529   0.0000000), wk =   0.0555556
        k(   23) = (   0.0000000   0.0727057   0.0000000), wk =   0.0555556
        k(   24) = (   0.0000000  -0.1090586   0.0000000), wk =   0.0277778
        k(   25) = (   0.0320494  -0.0171572   0.0000000), wk =   0.0555556
        k(   26) = (   0.0320494   0.0191957   0.0000000), wk =   0.0555556
        k(   27) = (   0.0320494   0.0555486   0.0000000), wk =   0.0555556
        k(   28) = (   0.0320494  -0.1262157   0.0000000), wk =   0.0555556
        k(   29) = (   0.0320494  -0.0898629   0.0000000), wk =   0.0555556
        k(   30) = (   0.0320494  -0.0535100   0.0000000), wk =   0.0555556
        k(   31) = (   0.0640987  -0.0343143   0.0000000), wk =   0.0555556
        k(   32) = (   0.0640987   0.0020385   0.0000000), wk =   0.0555556
        k(   33) = (   0.0640987   0.0383914   0.0000000), wk =   0.0555556
        k(   34) = (   0.0640987  -0.1433729   0.0000000), wk =   0.0555556
        k(   35) = (   0.0640987  -0.1070200   0.0000000), wk =   0.0555556
        k(   36) = (   0.0640987  -0.0706672   0.0000000), wk =   0.0555556
        k(   37) = (  -0.0961481   0.0514715   0.0000000), wk =   0.0277778
        k(   38) = (  -0.0961481   0.0878243   0.0000000), wk =   0.0555556
        k(   39) = (  -0.0961481   0.1241772   0.0000000), wk =   0.0555556
        k(   40) = (  -0.0961481  -0.0575871   0.0000000), wk =   0.0277778

     Largest allocated arrays     est. size (Mb)     dimensions
     Largest temporary arrays     est. size (Mb)     dimensions

     Check: negative/imaginary core charge=   -0.000001    0.000000

     Initial potential from superposition of free atoms
     Check: negative starting charge=(component1):   -0.188026
     Check: negative starting charge=(component2):   -0.143794

     starting charge  182.99941, renormalised to  198.00000

     negative rho (up, down):  2.034E-01 1.556E-01

     *
     * You are using vdW-DF for exchange-correlation in this calculation.
     * Please cite the following three references that made this development
     * possible:
     *
     *   M. Dion, H. Rydberg, E. Schroder, D. C. Langreth, and
     *   B. I. Lundqvist, Phys. Rev. Lett. 92, 246401 (2004).
     *
     *   T. Thonhauser, V. R. Cooper, S. Li, A. Puzder, P. Hyldgaard, and
     *   D. C. Langreth, Phys. Rev. B 76, 125112 (2007).
     *
     *   G. Roman-Perez and J. M. Soler, Phys. Rev. Lett. 103, 096102 (2009).
     *
     *
     * If you are using vdW-DF2, please also cite:
     *
     *   K. Lee, E. D. Murray, L. Kong, B. I. Lundqvist, and
     *   D. C. Langreth, Phys. Rev. B 82, 081101(R) (2010).
     *
     *
     * If you are calculating the stress with vdW-DF, please also cite:
     *
     *   R. Sabatini, E. Kucukbenli, B. Kolb, T. Thonhauser, and
     *   S. de Gironcoli, J. Phys.: Condens. Matter 24, 424209 (2012).
     *

     Carrying out vdW-DF run using the following parameters:

     Nqs =      20    Nr_points =    1024   r_max =   100.000
     q_mesh =
               0.00001000     0.04494208     0.09755937     0.15916263
               0.23128650     0.31572767     0.41458969     0.53033537
               0.66584808     0.82450364     1.01025438     1.22772762
               1.48234092     1.78043706     2.12944203     2.53805004
               3.01644009     3.57652955     4.23227104     5.00000000

     Gradients computed in reciprocal space

     Adding external electric field

     Computed dipole along edir(3) :
        Dipole                0.0000 Ry au,          0.0000 Debye
        Dipole field          0.0000 Ry au

        Potential amp.       -0.0000 Ry
        Total length         44.7346 bohr

[...]

     Starting wfc are  150 randomized atomic wfcs

     Self-consistent Calculation

     iteration #  1     ecut=    36.75 Ry     beta=0.10
     Davidson diagonalization with overlap
     ethr =  1.00E-02,  avg # of iterations =  8.1

[...]

     Magnetic moment per site:
     atom:    1    charge:    9.6302    magn:    1.0198    constr:    0.0000
     atom:    2    charge:    9.6302    magn:    1.0198    constr:    0.0000
     atom:    3    charge:    2.8626    magn:    0.3541    constr:    0.0000
     atom:    4    charge:    2.8626    magn:    0.3541    constr:    0.0000
     atom:    5    charge:    9.6332    magn:    1.0201    constr:    0.0000
     atom:    6    charge:    9.6332    magn:    1.0201    constr:    0.0000
[...]

     PseudoPot. # 2 for Rh read from file:
     /afs/slac.stanford.edu/u/if/mamunm/psp/gbrv1.5pbe/Rh.UPF
     MD5 check sum: 761627e959a2e3a1f56b0b5fe687810e
     Pseudo is Ultrasoft + core correction, Zval = 15.0
     Generated by new atomic code, or converted to UPF format
     Using radial grid of  969 points,  7 beta functions with:
                l(1) =   0
                l(2) =   0
                l(3) =   1
                l(4) =   1
                l(5) =   2
                l(6) =   2
                l(7) =   2
     Q(r) pseudized with  8 coefficients,  rinner =    1.200   1.200   1.200
                                                       1.200   1.200

     vdW kernel table read from file vdW_kernel_table
     MD5 check sum: 095c7af220d748ca6e76c0b4c6cfb241

     atomic species   valence    mass     pseudopotential
        Ni1           18.00    58.69340     Ni( 1.00)
        Rh1           15.00   102.90550     Rh( 1.00)

     Starting magnetic structure
     atomic species   magnetization
        Ni1          0.111
        Rh1          0.133

     No symmetry found

   Cartesian axes

     site n.     atom                  positions (alat units)
         1           Ni1 tau(   1) = (   0.0000000   0.0000000  10.0000000  )
         2           Ni1 tau(   2) = (   3.8273285   2.2923459  10.0000000  )
         3           Rh1 tau(   3) = (   2.6001548   0.0000000  10.0000000  )
         4           Rh1 tau(   4) = (   1.2271737   2.2923459  10.0000000  )
         5           Ni1 tau(   5) = (   5.2003096   3.1146812  12.1397696  )
         6           Ni1 tau(   6) = (   1.3729811   0.8223353  12.1397696  )
         7           Rh1 tau(   7) = (   2.6001548   3.1146812  12.1397696  )
         8           Rh1 tau(   8) = (   3.9731358   0.8223353  12.1397696  )
         9           Ni1 tau(   9) = (   2.6857855   1.6086259  14.2332070  )
        10           Ni1 tau(  10) = (   6.5132412   3.9010521  14.2329530  )
        11           Rh1 tau(  11) = (   5.2996837   1.6165401  14.2800129  )
        12           Rh1 tau(  12) = (   3.9264202   3.9093562  14.2800128  )

     number of k points=    40  Fermi-Dirac smearing, width (Ry)=  0.0110
                       cart. coord. in units 2pi/alat
        k(    1) = (   0.0000000   0.0000000   0.0000000), wk =   0.0277778
        k(    2) = (   0.0000000   0.0363529   0.0000000), wk =   0.0555556
        k(    3) = (   0.0000000   0.0727057   0.0000000), wk =   0.0555556
        k(    4) = (   0.0000000  -0.1090586   0.0000000), wk =   0.0277778
        k(    5) = (   0.0320494  -0.0171572   0.0000000), wk =   0.0555556
        k(    6) = (   0.0320494   0.0191957   0.0000000), wk =   0.0555556
        k(    7) = (   0.0320494   0.0555486   0.0000000), wk =   0.0555556
        k(    8) = (   0.0320494  -0.1262157   0.0000000), wk =   0.0555556
        k(    9) = (   0.0320494  -0.0898629   0.0000000), wk =   0.0555556
        k(   10) = (   0.0320494  -0.0535100   0.0000000), wk =   0.0555556
        k(   11) = (   0.0640987  -0.0343143   0.0000000), wk =   0.0555556
        k(   12) = (   0.0640987   0.0020385   0.0000000), wk =   0.0555556
        k(   13) = (   0.0640987   0.0383914   0.0000000), wk =   0.0555556
        k(   14) = (   0.0640987  -0.1433729   0.0000000), wk =   0.0555556
        k(   15) = (   0.0640987  -0.1070200   0.0000000), wk =   0.0555556
        k(   16) = (   0.0640987  -0.0706672   0.0000000), wk =   0.0555556
        k(   17) = (  -0.0961481   0.0514715   0.0000000), wk =   0.0277778
        k(   18) = (  -0.0961481   0.0878243   0.0000000), wk =   0.0555556
        k(   19) = (  -0.0961481   0.1241772   0.0000000), wk =   0.0555556
        k(   20) = (  -0.0961481  -0.0575871   0.0000000), wk =   0.0277778
        k(   21) = (   0.0000000   0.0000000   0.0000000), wk =   0.0277778
        k(   22) = (   0.0000000   0.0363529   0.0000000), wk =   0.0555556
        k(   23) = (   0.0000000   0.0727057   0.0000000), wk =   0.0555556
        k(   24) = (   0.0000000  -0.1090586   0.0000000), wk =   0.0277778
        k(   25) = (   0.0320494  -0.0171572   0.0000000), wk =   0.0555556
        k(   26) = (   0.0320494   0.0191957   0.0000000), wk =   0.0555556
        k(   27) = (   0.0320494   0.0555486   0.0000000), wk =   0.0555556
        k(   28) = (   0.0320494  -0.1262157   0.0000000), wk =   0.0555556
        k(   29) = (   0.0320494  -0.0898629   0.0000000), wk =   0.0555556
        k(   30) = (   0.0320494  -0.0535100   0.0000000), wk =   0.0555556
        k(   31) = (   0.0640987  -0.0343143   0.0000000), wk =   0.0555556
        k(   32) = (   0.0640987   0.0020385   0.0000000), wk =   0.0555556
        k(   33) = (   0.0640987   0.0383914   0.0000000), wk =   0.0555556
        k(   34) = (   0.0640987  -0.1433729   0.0000000), wk =   0.0555556
        k(   35) = (   0.0640987  -0.1070200   0.0000000), wk =   0.0555556
        k(   36) = (   0.0640987  -0.0706672   0.0000000), wk =   0.0555556
        k(   37) = (  -0.0961481   0.0514715   0.0000000), wk =   0.0277778
        k(   38) = (  -0.0961481   0.0878243   0.0000000), wk =   0.0555556
        k(   39) = (  -0.0961481   0.1241772   0.0000000), wk =   0.0555556
        k(   40) = (  -0.0961481  -0.0575871   0.0000000), wk =   0.0277778

     Largest allocated arrays     est. size (Mb)     dimensions
     Largest temporary arrays     est. size (Mb)     dimensions

     Check: negative/imaginary core charge=   -0.000001    0.000000

     Initial potential from superposition of free atoms
     Check: negative starting charge=(component1):   -0.186766
     Check: negative starting charge=(component2):   -0.142831

     starting charge  182.99941, renormalised to  198.00000

[...]

     *
     * You are using vdW-DF for exchange-correlation in this calculation.
     * Please cite the following three references that made this development
     * possible:
     *
     *   M. Dion, H. Rydberg, E. Schroder, D. C. Langreth, and
     *   B. I. Lundqvist, Phys. Rev. Lett. 92, 246401 (2004).
     *
     *   T. Thonhauser, V. R. Cooper, S. Li, A. Puzder, P. Hyldgaard, and
     *   D. C. Langreth, Phys. Rev. B 76, 125112 (2007).
     *
     *   G. Roman-Perez and J. M. Soler, Phys. Rev. Lett. 103, 096102 (2009).
     *
     *
     * If you are using vdW-DF2, please also cite:
     *
     *   K. Lee, E. D. Murray, L. Kong, B. I. Lundqvist, and
     *   D. C. Langreth, Phys. Rev. B 82, 081101(R) (2010).
     *
     *
     * If you are calculating the stress with vdW-DF, please also cite:
     *
     *   R. Sabatini, E. Kucukbenli, B. Kolb, T. Thonhauser, and
     *   S. de Gironcoli, J. Phys.: Condens. Matter 24, 424209 (2012).
     *

     Carrying out vdW-DF run using the following parameters:

     Nqs =      20    Nr_points =    1024   r_max =   100.000
     q_mesh =
               0.00001000     0.04494208     0.09755937     0.15916263
               0.23128650     0.31572767     0.41458969     0.53033537
               0.66584808     0.82450364     1.01025438     1.22772762
               1.48234092     1.78043706     2.12944203     2.53805004
               3.01644009     3.57652955     4.23227104     5.00000000

     Gradients computed in reciprocal space

[...]

     Starting wfc are  150 randomized atomic wfcs

     Self-consistent Calculation

[...]

     total energy              =   -3099.67491749 Ry
     Harris-Foulkes estimate   =   -3099.67491655 Ry
     estimated scf accuracy    <       0.00000125 Ry

[...]

     iteration # 43     ecut=    36.75 Ry     beta=0.10
     Davidson diagonalization with overlap
     ethr =  6.30E-10,  avg # of iterations =  2.0

[...]

     negative rho (up, down):  1.631E-01 1.820E-01

[...]

     Adding external electric field

     Computed dipole along edir(3) :
        Dipole                0.0046 Ry au,          0.0117 Debye
        Dipole field          0.0000 Ry au

        Potential amp.       -0.0013 Ry
        Total length         44.7346 bohr

     Magnetic moment per site:
     atom:    1    charge:    9.3476    magn:    0.4389    constr:    0.0000
     atom:    2    charge:    9.3474    magn:    0.4390    constr:    0.0000
     atom:    3    charge:    2.6965    magn:    0.0986    constr:    0.0000
     atom:    4    charge:    2.6965    magn:    0.0986    constr:    0.0000
     atom:    5    charge:    9.3468    magn:    0.4811    constr:    0.0000
     atom:    6    charge:    9.3469    magn:    0.4810    constr:    0.0000
     atom:    7    charge:    2.7028    magn:    0.1150    constr:    0.0000
     atom:    8    charge:    2.7028    magn:    0.1150    constr:    0.0000
     atom:    9    charge:    9.3584    magn:    0.4401    constr:    0.0000
     atom:   10    charge:    9.3581    magn:    0.4402    constr:    0.0000
     atom:   11    charge:    2.6987    magn:    0.0986    constr:    0.0000
     atom:   12    charge:    2.6987    magn:    0.0986    constr:    0.0000

     End of self-consistent calculation

 ------ SPIN UP ------------

[...]

 ------ SPIN DOWN ----------

[...]

          k = 0.0641-0.0707 0.0000 ( 14701 PWs)   bands (ev):

[...]

          k =-0.0961-0.0576 0.0000 ( 14662 PWs)   bands (ev):

  -101.7556-101.7514-101.5678-101.5636-101.5408-101.5366 -62.1706 -62.1679
   -62.1655 -62.1447 -62.1397 -62.1155 -62.0376 -62.0327 -62.0218 -62.0137
   -62.0088 -62.0011 -61.9698 -61.9492 -61.8609 -61.8561 -61.8250 -61.8202
   -45.3978 -45.3005 -45.2553 -45.1236 -45.0815 -45.0792 -45.0788 -44.9907
   -44.8465 -44.8158 -44.8033 -44.7745 -44.6763 -44.6746 -44.6735 -44.6551
   -44.6335 -44.6147  -4.4188  -4.3259  -3.4283  -3.3178  -2.9779  -2.9604
    -2.8981  -2.8268  -2.6646  -2.4637  -2.3782  -2.2481  -2.1829  -1.9712
    -1.9386  -1.8619  -1.7998  -1.5335  -1.4372  -1.1370  -1.0944  -1.0542
    -0.9400  -0.9214  -0.7380  -0.6879  -0.6001  -0.5892  -0.4601  -0.4193
    -0.4160  -0.3909  -0.3642  -0.3415  -0.2960  -0.2852  -0.2648  -0.2504
    -0.1599  -0.1456   0.0724   0.1110   0.2539   0.3608   0.3657   0.3783
     0.3903   0.4106   0.4682   0.6374   0.7137   0.7968   0.8279   0.8642
     1.0476   1.1081   1.1696   1.2507   1.2733   1.3819   1.6538   1.6751
     1.6860   2.2804   2.5785   3.0725   3.6756   3.9597   4.5814   5.1094
     5.5388   5.7707   6.4054   6.7446   7.2801   7.2960   7.8268   7.8641
     8.0151   8.0216   8.8969   9.0675   9.1081   9.2494   9.6609   9.6633
     9.9411

     the Fermi energy is     1.1107 ev

!    total energy              =   -3099.67491824 Ry
     Harris-Foulkes estimate   =   -3099.67491769 Ry
     estimated scf accuracy    <       0.00000079 Ry

     The total energy is the sum of the following terms:

     one-electron contribution =  -26142.56294700 Ry
     hartree contribution      =   13097.61629871 Ry
     xc contribution           =    -406.75411762 Ry
     ewald contribution        =   10352.14042119 Ry
     electric field correction =       0.00000007 Ry
     smearing contrib. (-TS)   =      -0.11457359 Ry

     total magnetization       =     8.17 Bohr mag/cell
     absolute magnetization    =     8.94 Bohr mag/cell

     convergence has been achieved in  43 iterations

 BEEF-vdW xc energy contributions
           1 :   -356.531221104428
           2 :    325.076195837553
           3 :   -271.592210162229
           4 :    210.717074371149
           5 :   -156.331008504765
           6 :    116.744389213412
           7 :   -93.0184985574357
           8 :    80.6233584592955
           9 :   -73.0514455508339
          10 :    65.2888331434496
          11 :   -55.5427423762681
          12 :    44.8389457888779
          13 :   -35.3079194134562
          14 :    28.4523262630109
          15 :   -24.3606765717723
          16 :    22.0155578749203
          17 :   -20.1737268111987
          18 :    18.1012782274366
          19 :   -15.7594095794335
          20 :    13.4912136189529
          21 :   -11.5790958345139
          22 :    10.0236810673667
          23 :   -8.65033731696434
          24 :    7.35848753933737
          25 :   -6.25256351663080
          26 :    5.53227154498467
          27 :   -5.25858185575606
          28 :    5.21506686006450
          29 :   -5.00906741748605
          30 :    4.34801866491767
          31 :   -32.0858309611353
          32 :   -23.2312517503225

     Forces acting on atoms (Ry/au):

     negative rho (up, down):  1.631E-01 1.820E-01
     atom    1 type  1   force =     0.00416866    0.00249679    0.00592350
     atom    2 type  1   force =     0.00420022    0.00251557    0.00593938
     atom    3 type  2   force =    -0.00125115   -0.00074527    0.00024131
     atom    4 type  2   force =    -0.00124753   -0.00075132    0.00024133
     atom    5 type  1   force =    -0.00220741   -0.00132177   -0.00022593
     atom    6 type  1   force =    -0.00216165   -0.00129493   -0.00024892
     atom    7 type  2   force =    -0.00101263   -0.00062670   -0.00676261
     atom    8 type  2   force =    -0.00103026   -0.00059695   -0.00676278
     atom    9 type  1   force =    -0.00001300   -0.00000742    0.00104226
     atom   10 type  1   force =    -0.00017809   -0.00010684    0.00108908
     atom   11 type  2   force =     0.00028736    0.00035158   -0.00023836
     atom   12 type  2   force =     0.00044547    0.00008726   -0.00023827

     Total force =     0.015249     Total SCF correction =     0.005364
     SCF correction compared to forces is large: reduce conv_thr to get better values

     entering subroutine stress ...

     negative rho (up, down):  1.631E-01 1.820E-01
          total   stress  (Ry/bohr**3)                   (kbar)     P=  -51.09
  -0.00035670   0.00002560  -0.00000709        -52.47      3.77     -1.04
   0.00002560  -0.00038411  -0.00000425          3.77    -56.50     -0.62
  -0.00000709  -0.00000425  -0.00030100         -1.04     -0.62    -44.28

 !ASE

     Writing output data file calc.save

     General routines

     Parallel routines

   This run was terminated on:   1:18:27  19Dec2018

   JOB DONE.
Job  /afs/slac/g/suncat/bin/suncat-tsmpirun -x LD_LIBRARY_PATH -wdir /scratch/qe530375_tVesK pw.x -in pw.inp

TID   HOST_NAME   COMMAND_LINE            STATUS            TERMINATION_TIME
00000 suncat2054 pw.x -in pw.inp   Done                     12/19/2018 01:18:27
00001 suncat2054 pw.x -in pw.inp   Done                     12/19/2018 01:18:27
00002 suncat2054 pw.x -in pw.inp   Done                     12/19/2018 01:18:27
00003 suncat2054 pw.x -in pw.inp   Done                     12/19/2018 01:18:27
00004 suncat2054 pw.x -in pw.inp   Done                     12/19/2018 01:18:27
00005 suncat2054 pw.x -in pw.inp   Done                     12/19/2018 01:18:27
00006 suncat2054 pw.x -in pw.inp   Done                     12/19/2018 01:18:27
00007 suncat2054 pw.x -in pw.inp   Done                     12/19/2018 01:18:27
00008 suncat2054 pw.x -in pw.inp   Done                     12/19/2018 01:18:27
00009 suncat2054 pw.x -in pw.inp   Done                     12/19/2018 01:18:27
00010 suncat2054 pw.x -in pw.inp   Done                     12/19/2018 01:18:27
00011 suncat2054 pw.x -in pw.inp   Done                     12/19/2018 01:18:27
00012 suncat2054 pw.x -in pw.inp   Done                     12/19/2018 01:18:27
00013 suncat2054 pw.x -in pw.inp   Done                     12/19/2018 01:18:27
00014 suncat2054 pw.x -in pw.inp   Done                     12/19/2018 01:18:27
00015 suncat2054 pw.x -in pw.inp   Done                     12/19/2018 01:18:27
00016 suncat2053 pw.x -in pw.inp   Done                     12/19/2018 01:18:27
00017 suncat2053 pw.x -in pw.inp   Done                     12/19/2018 01:18:27
00018 suncat2053 pw.x -in pw.inp   Done                     12/19/2018 01:18:27
00019 suncat2053 pw.x -in pw.inp   Done                     12/19/2018 01:18:27
00020 suncat2053 pw.x -in pw.inp   Done                     12/19/2018 01:18:27
00021 suncat2053 pw.x -in pw.inp   Done                     12/19/2018 01:18:27
00022 suncat2053 pw.x -in pw.inp   Done                     12/19/2018 01:18:27
00023 suncat2053 pw.x -in pw.inp   Done                     12/19/2018 01:18:27
00024 suncat2053 pw.x -in pw.inp   Done                     12/19/2018 01:18:27
00025 suncat2053 pw.x -in pw.inp   Done                     12/19/2018 01:18:27
00026 suncat2053 pw.x -in pw.inp   Done                     12/19/2018 01:18:27
00027 suncat2053 pw.x -in pw.inp   Done                     12/19/2018 01:18:27
00028 suncat2053 pw.x -in pw.inp   Done                     12/19/2018 01:18:27
00029 suncat2053 pw.x -in pw.inp   Done                     12/19/2018 01:18:27
00030 suncat2053 pw.x -in pw.inp   Done                     12/19/2018 01:18:27
00031 suncat2053 pw.x -in pw.inp   Done                     12/19/2018 01:18:27