     Program PWSCF v.5.1rc2 (svn rev. 11289) starts on 24Dec2018 at 16:42: 9

     Current dimensions of program PWSCF are:
     Max number of different atomic species (ntypx) = 10
     Max number of k-points (npk) =  40000
     Max angular momentum in pseudopotentials (lmaxx) =  3
     Presently stress not available with electric field

     IMPORTANT: XC functional enforced from input :
     Exchange-correlation      = BEEF-VDW ( 1  4 27 13 2)
     Any further DFT definition will be discarded
     Please, verify this is what you really want

     Subspace diagonalization in iterative solution of the eigenvalue problem:
     a serial algorithm will be used

     Found symmetry operation: I + ( -0.5000 -0.5000  0.0000)
     This is a supercell, fractional translations are disabled

     bravais-lattice index     =            0
     lattice parameter (alat)  =       1.8897  a.u.
     unit-cell volume          =    7126.8358 (a.u.)^3
     number of atoms/cell      =           12
     number of atomic types    =            2
     number of electrons       =       180.00
     number of Kohn-Sham states=          120
     kinetic-energy cutoff     =      36.7493  Ry
     charge density cutoff     =     367.4932  Ry
     convergence threshold     =      1.0E-06
     mixing beta               =       0.1000
     number of iterations used =           10  plain     mixing
     Exchange-correlation      = BEEF-VDW ( 1  4 27 13 2)
     nstep                     =           50

     celldm(1)=   1.889726  celldm(2)=   0.000000  celldm(3)=   0.000000
     celldm(4)=   0.000000  celldm(5)=   0.000000  celldm(6)=   0.000000

     crystal axes: (cart. coord. in units of alat)
               a(1) = (   6.622581   0.000000   0.000000 )
               a(2) = (   2.080126   6.287420   0.000000 )
               a(3) = (   0.000000   0.000000  25.362985 )

     reciprocal axes: (cart. coord. in units 2 pi/alat)
               b(1) = (  0.150999 -0.049956  0.000000 )
               b(2) = (  0.000000  0.159048  0.000000 )
               b(3) = (  0.000000  0.000000  0.039428 )

     PseudoPot. # 1 for Ga read from file:
     /afs/slac.stanford.edu/u/if/mamunm/psp/gbrv1.5pbe/Ga.UPF
     MD5 check sum: ccd671392a58a050fbb373893b4fcd66
     Pseudo is Ultrasoft + core correction, Zval = 19.0
     Generated by new atomic code, or converted to UPF format
     Using radial grid of  871 points,  6 beta functions with:
                l(1) =   0
                l(2) =   0
                l(3) =   1
                l(4) =   1
                l(5) =   2
                l(6) =   2
     Q(r) pseudized with  8 coefficients,  rinner =    1.250   1.250   1.250
                                                       1.250   1.250

     PseudoPot. # 2 for La read from file:
     /afs/slac.stanford.edu/u/if/mamunm/psp/gbrv1.5pbe/La.UPF
     MD5 check sum: 5937b0c7494ba0601a847275249473aa
     Pseudo is Ultrasoft + core correction, Zval = 11.0
     Generated by new atomic code, or converted to UPF format
     Using radial grid of  995 points,  8 beta functions with:
                l(1) =   0
                l(2) =   0
                l(3) =   1
                l(4) =   1
                l(5) =   2
                l(6) =   2
                l(7) =   3
                l(8) =   3
     Q(r) pseudized with  8 coefficients,  rinner =    1.700   1.700   1.700
                                                       1.700   1.700   1.700
                                                       1.700

     vdW kernel table read from file vdW_kernel_table
     MD5 check sum: 095c7af220d748ca6e76c0b4c6cfb241

     atomic species   valence    mass     pseudopotential
        Ga1           19.00    69.72300     Ga( 1.00)
        La1           11.00   138.90547     La( 1.00)

     No symmetry found

   Cartesian axes

     site n.     atom                  positions (alat units)
         1           Ga1 tau(   1) = (   0.0000000   0.0000000  10.0000000  )
         2           Ga1 tau(   2) = (   4.3513535   3.1437102  10.0000000  )
         3           La1 tau(   3) = (   3.3112905   0.0000000  10.0000000  )
         4           La1 tau(   4) = (   1.0400630   3.1437102  10.0000000  )
         5           Ga1 tau(   5) = (   6.6225810   4.7845976  12.6814926  )
         6           Ga1 tau(   6) = (   2.2712275   1.6408874  12.6814926  )
         7           La1 tau(   7) = (   3.3112905   4.7845976  12.6814926  )
         8           La1 tau(   8) = (   5.5825180   1.6408874  12.6814926  )
         9           Ga1 tau(   9) = (   4.5424550   3.2817748  15.3629852  )
        10           Ga1 tau(  10) = (   0.1911015   0.1380646  15.3629852  )
        11           La1 tau(  11) = (   1.2311645   3.2817748  15.3629852  )
        12           La1 tau(  12) = (   3.5023920   0.1380646  15.3629852  )

     number of k points=    20  Fermi-Dirac smearing, width (Ry)=  0.0110
                       cart. coord. in units 2pi/alat
        k(    1) = (   0.0000000   0.0000000   0.0000000), wk =   0.0555556
        k(    2) = (   0.0000000   0.0265080   0.0000000), wk =   0.1111111
        k(    3) = (   0.0000000   0.0530159   0.0000000), wk =   0.1111111
        k(    4) = (   0.0000000  -0.0795239   0.0000000), wk =   0.0555556
        k(    5) = (   0.0251664  -0.0083260   0.0000000), wk =   0.1111111
        k(    6) = (   0.0251664   0.0181819   0.0000000), wk =   0.1111111
        k(    7) = (   0.0251664   0.0446899   0.0000000), wk =   0.1111111
        k(    8) = (   0.0251664  -0.0878499   0.0000000), wk =   0.1111111
        k(    9) = (   0.0251664  -0.0613420   0.0000000), wk =   0.1111111
        k(   10) = (   0.0251664  -0.0348340   0.0000000), wk =   0.1111111
        k(   11) = (   0.0503328  -0.0166521   0.0000000), wk =   0.1111111
        k(   12) = (   0.0503328   0.0098559   0.0000000), wk =   0.1111111
        k(   13) = (   0.0503328   0.0363638   0.0000000), wk =   0.1111111
        k(   14) = (   0.0503328  -0.0961760   0.0000000), wk =   0.1111111
        k(   15) = (   0.0503328  -0.0696680   0.0000000), wk =   0.1111111
        k(   16) = (   0.0503328  -0.0431600   0.0000000), wk =   0.1111111
        k(   17) = (  -0.0754993   0.0249781   0.0000000), wk =   0.0555556
        k(   18) = (  -0.0754993   0.0514861   0.0000000), wk =   0.1111111
        k(   19) = (  -0.0754993   0.0779940   0.0000000), wk =   0.1111111
        k(   20) = (  -0.0754993  -0.0545457   0.0000000), wk =   0.0555556

     Largest allocated arrays     est. size (Mb)     dimensions
     Largest temporary arrays     est. size (Mb)     dimensions

     Initial potential from superposition of free atoms
     Check: negative starting charge=   -0.425755

     starting charge  173.80758, renormalised to  180.00000

     negative rho (up, down):  4.409E-01 0.000E+00

     *
     * You are using vdW-DF for exchange-correlation in this calculation.
     * Please cite the following three references that made this development
     * possible:
     *
     *   M. Dion, H. Rydberg, E. Schroder, D. C. Langreth, and
     *   B. I. Lundqvist, Phys. Rev. Lett. 92, 246401 (2004).
     *
     *   T. Thonhauser, V. R. Cooper, S. Li, A. Puzder, P. Hyldgaard, and
     *   D. C. Langreth, Phys. Rev. B 76, 125112 (2007).
     *
     *   G. Roman-Perez and J. M. Soler, Phys. Rev. Lett. 103, 096102 (2009).
     *
     *
     * If you are using vdW-DF2, please also cite:
     *
     *   K. Lee, E. D. Murray, L. Kong, B. I. Lundqvist, and
     *   D. C. Langreth, Phys. Rev. B 82, 081101(R) (2010).
     *
     *
     * If you are calculating the stress with vdW-DF, please also cite:
     *
     *   R. Sabatini, E. Kucukbenli, B. Kolb, T. Thonhauser, and
     *   S. de Gironcoli, J. Phys.: Condens. Matter 24, 424209 (2012).
     *

     Carrying out vdW-DF run using the following parameters:

     Nqs =      20    Nr_points =    1024   r_max =   100.000
     q_mesh =
               0.00001000     0.04494208     0.09755937     0.15916263
               0.23128650     0.31572767     0.41458969     0.53033537
               0.66584808     0.82450364     1.01025438     1.22772762
               1.48234092     1.78043706     2.12944203     2.53805004
               3.01644009     3.57652955     4.23227104     5.00000000

     Gradients computed in reciprocal space

     Adding external electric field

     Computed dipole along edir(3) :
        Dipole               -0.0000 Ry au,         -0.0000 Debye
        Dipole field         -0.0000 Ry au

        Potential amp.        0.0000 Ry
        Total length         46.7309 bohr

     Starting wfc are  192 randomized atomic wfcs

     Self-consistent Calculation

     iteration #  1     ecut=    36.75 Ry     beta=0.10
     Davidson diagonalization with overlap
     ethr =  1.00E-02,  avg # of iterations =  2.0

[...]

     total energy              =   -3124.85158781 Ry
     Harris-Foulkes estimate   =   -3129.37476581 Ry
     estimated scf accuracy    <      25.09051079 Ry

[...]

     iteration # 11     ecut=    36.75 Ry     beta=0.10
     Davidson diagonalization with overlap
     c_bands:  1 eigenvalues not converged
     ethr =  1.23E-06,  avg # of iterations = 12.1

[...]

     End of self-consistent calculation

          k = 0.0000 0.0000 0.0000 ( 26781 PWs)   bands (ev):

   -93.2117 -93.2117 -93.2114 -93.2113 -93.2006 -93.2005 -93.2000 -93.1999
   -93.1871 -93.1870 -93.1866 -93.1865 -93.1860 -93.1859 -93.1816 -93.1816
   -93.1797 -93.1797 -32.2833 -32.2795 -32.2384 -32.2379 -31.8368 -31.7967
   -16.0742 -16.0651 -16.0490 -16.0250 -15.9773 -15.9245 -15.9127 -15.8996
   -15.8465 -15.7979 -15.7459 -15.5394 -15.5374 -15.4328 -15.3888 -15.3344
   -15.2882 -15.1770 -13.5395 -13.5383 -13.5355 -13.5322 -13.5313 -13.5310
   -13.5304 -13.5283 -13.5262 -13.5247 -13.5244 -13.5218 -13.5215 -13.5190
   -13.5168 -13.5158 -13.5140 -13.5136 -13.5126 -13.5100 -13.5100 -13.5098
   -13.5071 -13.5059 -13.5038 -13.5010 -13.4956 -13.4860 -13.4838 -13.4761
    -5.7142  -4.8222  -4.4763  -4.4437  -4.2803  -4.0730  -0.0174   0.0491
     0.1233   0.1275   0.1650   0.7431   0.8181   0.8208   0.8824   0.9442
     1.1474   1.2956   1.6403   1.7142   1.7676   1.7824   1.8637   1.8661
     1.9960   2.0916   2.2983   2.3593   2.3774   2.4224   2.5336   2.5584
     2.5698   2.5766   2.5789   2.6011   2.6215   2.6334   2.6423   2.6820
     2.7032   2.7213   2.7283   2.7341   2.7378   2.7538   2.7715   2.7813

[...]

          k =-0.0755 0.0250 0.0000 ( 26808 PWs)   bands (ev):

[...]

     the Fermi energy is     1.2558 ev

!    total energy              =   -3123.99710679 Ry
     Harris-Foulkes estimate   =   -3123.99712153 Ry
     estimated scf accuracy    <       0.00000035 Ry

     The total energy is the sum of the following terms:

     one-electron contribution =  -12973.78532405 Ry
     hartree contribution      =    6498.16577763 Ry
     xc contribution           =    -602.59135476 Ry
     ewald contribution        =    3954.29504387 Ry
     electric field correction =       0.00000002 Ry
     smearing contrib. (-TS)   =      -0.08124949 Ry

     convergence has been achieved in  18 iterations

 BEEF-vdW xc energy contributions
[...]
                l(5) =   2
                l(6) =   2
     Q(r) pseudized with  8 coefficients,  rinner =    1.250   1.250   1.250
                                                       1.250   1.250

     PseudoPot. # 2 for La read from file:
     /afs/slac.stanford.edu/u/if/mamunm/psp/gbrv1.5pbe/La.UPF
     MD5 check sum: 5937b0c7494ba0601a847275249473aa
     Pseudo is Ultrasoft + core correction, Zval = 11.0
     Generated by new atomic code, or converted to UPF format
     Using radial grid of  995 points,  8 beta functions with:
                l(1) =   0
                l(2) =   0
                l(3) =   1
                l(4) =   1
                l(5) =   2
                l(6) =   2
                l(7) =   3
                l(8) =   3
     Q(r) pseudized with  8 coefficients,  rinner =    1.700   1.700   1.700
                                                       1.700   1.700   1.700
                                                       1.700

     vdW kernel table read from file vdW_kernel_table
     MD5 check sum: 095c7af220d748ca6e76c0b4c6cfb241

     atomic species   valence    mass     pseudopotential
        Ga1           19.00    69.72300     Ga( 1.00)
        La1           11.00   138.90547     La( 1.00)

     No symmetry found

   Cartesian axes

     site n.     atom                  positions (alat units)
         1           Ga1 tau(   1) = (   0.0000000   0.0000000  10.0000000  )
         2           Ga1 tau(   2) = (   4.3513535   3.1437102  10.0000000  )
         3           La1 tau(   3) = (   3.3112905   0.0000000  10.0000000  )
         4           La1 tau(   4) = (   1.0400630   3.1437102  10.0000000  )
         5           Ga1 tau(   5) = (   6.6225810   4.7845976  12.6814926  )
         6           Ga1 tau(   6) = (   2.2712275   1.6408874  12.6814926  )
         7           La1 tau(   7) = (   3.3112905   4.7845976  12.6814926  )
         8           La1 tau(   8) = (   5.5825180   1.6408874  12.6814926  )
         9           Ga1 tau(   9) = (   4.5563425   3.2920287  15.3637885  )
        10           Ga1 tau(  10) = (   0.2052118   0.1480950  15.3638796  )
        11           La1 tau(  11) = (   1.2161831   3.2709841  15.3125987  )
        12           La1 tau(  12) = (   3.4875682   0.1273698  15.3126029  )

     number of k points=    20  Fermi-Dirac smearing, width (Ry)=  0.0110
                       cart. coord. in units 2pi/alat
        k(    1) = (   0.0000000   0.0000000   0.0000000), wk =   0.0555556
        k(    2) = (   0.0000000   0.0265080   0.0000000), wk =   0.1111111
        k(    3) = (   0.0000000   0.0530159   0.0000000), wk =   0.1111111
        k(    4) = (   0.0000000  -0.0795239   0.0000000), wk =   0.0555556
        k(    5) = (   0.0251664  -0.0083260   0.0000000), wk =   0.1111111
        k(    6) = (   0.0251664   0.0181819   0.0000000), wk =   0.1111111
        k(    7) = (   0.0251664   0.0446899   0.0000000), wk =   0.1111111
        k(    8) = (   0.0251664  -0.0878499   0.0000000), wk =   0.1111111
        k(    9) = (   0.0251664  -0.0613420   0.0000000), wk =   0.1111111
        k(   10) = (   0.0251664  -0.0348340   0.0000000), wk =   0.1111111
        k(   11) = (   0.0503328  -0.0166521   0.0000000), wk =   0.1111111
        k(   12) = (   0.0503328   0.0098559   0.0000000), wk =   0.1111111
        k(   13) = (   0.0503328   0.0363638   0.0000000), wk =   0.1111111
        k(   14) = (   0.0503328  -0.0961760   0.0000000), wk =   0.1111111
        k(   15) = (   0.0503328  -0.0696680   0.0000000), wk =   0.1111111
        k(   16) = (   0.0503328  -0.0431600   0.0000000), wk =   0.1111111
        k(   17) = (  -0.0754993   0.0249781   0.0000000), wk =   0.0555556
        k(   18) = (  -0.0754993   0.0514861   0.0000000), wk =   0.1111111
        k(   19) = (  -0.0754993   0.0779940   0.0000000), wk =   0.1111111
        k(   20) = (  -0.0754993  -0.0545457   0.0000000), wk =   0.0555556

     Largest allocated arrays     est. size (Mb)     dimensions
     Largest temporary arrays     est. size (Mb)     dimensions

     Initial potential from superposition of free atoms
     Check: negative starting charge=   -0.426032

     starting charge  173.80758, renormalised to  180.00000

[...]

     *
     * You are using vdW-DF for exchange-correlation in this calculation.
     * Please cite the following three references that made this development
     * possible:
     *
     *   M. Dion, H. Rydberg, E. Schroder, D. C. Langreth, and
     *   B. I. Lundqvist, Phys. Rev. Lett. 92, 246401 (2004).
     *
     *   T. Thonhauser, V. R. Cooper, S. Li, A. Puzder, P. Hyldgaard, and
     *   D. C. Langreth, Phys. Rev. B 76, 125112 (2007).
     *
     *   G. Roman-Perez and J. M. Soler, Phys. Rev. Lett. 103, 096102 (2009).
     *
     *
     * If you are using vdW-DF2, please also cite:
     *
     *   K. Lee, E. D. Murray, L. Kong, B. I. Lundqvist, and
     *   D. C. Langreth, Phys. Rev. B 82, 081101(R) (2010).
     *
     *
     * If you are calculating the stress with vdW-DF, please also cite:
     *
     *   R. Sabatini, E. Kucukbenli, B. Kolb, T. Thonhauser, and
     *   S. de Gironcoli, J. Phys.: Condens. Matter 24, 424209 (2012).
     *

     Carrying out vdW-DF run using the following parameters:

     Nqs =      20    Nr_points =    1024   r_max =   100.000
     q_mesh =
               0.00001000     0.04494208     0.09755937     0.15916263
               0.23128650     0.31572767     0.41458969     0.53033537
               0.66584808     0.82450364     1.01025438     1.22772762
               1.48234092     1.78043706     2.12944203     2.53805004
               3.01644009     3.57652955     4.23227104     5.00000000

     Gradients computed in reciprocal space

[...]

     Starting wfc are  192 randomized atomic wfcs

     Self-consistent Calculation

[...]

     iteration # 14     ecut=    36.75 Ry     beta=0.10
     Davidson diagonalization with overlap
     c_bands:  1 eigenvalues not converged
     ethr =  2.17E-07,  avg # of iterations =  7.0

[...]

     total energy              =   -3123.99789961 Ry
     Harris-Foulkes estimate   =   -3123.99790314 Ry
     estimated scf accuracy    <       0.00000275 Ry

     iteration # 20     ecut=    36.75 Ry     beta=0.10
     Davidson diagonalization with overlap
     ethr =  1.42E-09,  avg # of iterations =  5.8

[...]

     negative rho (up, down):  2.802E-01 0.000E+00

     Adding external electric field

     Computed dipole along edir(3) :
        Dipole               -0.0174 Ry au,         -0.0443 Debye
        Dipole field         -0.0000 Ry au

        Potential amp.        0.0029 Ry
        Total length         46.7309 bohr

     End of self-consistent calculation

[...]

          k = 0.0503-0.0432 0.0000 ( 26828 PWs)   bands (ev):

[...]

          k =-0.0755-0.0545 0.0000 ( 26830 PWs)   bands (ev):

   -93.2376 -93.2375 -93.2255 -93.2255 -93.2249 -93.2249 -93.2141 -93.2141
   -93.2097 -93.2097 -93.2003 -93.2002 -93.1977 -93.1977 -93.1918 -93.1918
   -93.1904 -93.1904 -32.2928 -32.2616 -32.2539 -32.2229 -31.8526 -31.8066
   -16.1393 -16.1171 -16.0824 -16.0354 -15.9991 -15.9545 -15.9019 -15.8980
   -15.8862 -15.8027 -15.7623 -15.5577 -15.5332 -15.4226 -15.3844 -15.3567
   -15.3463 -15.2109 -13.5564 -13.5554 -13.5514 -13.5469 -13.5439 -13.5439
   -13.5399 -13.5373 -13.5331 -13.5324 -13.5321 -13.5310 -13.5306 -13.5286
   -13.5216 -13.5178 -13.5143 -13.5122 -13.5120 -13.5118 -13.5095 -13.5051
   -13.5039 -13.5031 -13.5013 -13.4994 -13.4984 -13.4976 -13.4873 -13.4843
    -4.5499  -4.5380  -4.2032  -4.0817  -3.8857  -3.1744  -1.4167  -1.3428
    -1.0627  -1.0493  -0.9513  -0.4441  -0.3804  -0.3771  -0.1553   0.7739
     1.0716   1.1427   1.2643   1.6419   1.6447   1.7477   1.7531   1.9572
     1.9622   2.1271   2.2498   2.3408   2.4626   2.4779   2.5249   2.5584
     2.5755   2.5793   2.6108   2.6252   2.6258   2.6261   2.6477   2.6767
     2.6995   2.7204   2.7226   2.7236   2.7517   2.7529   2.7610   2.7807

     the Fermi energy is     1.2435 ev

!    total energy              =   -3123.99788893 Ry
     Harris-Foulkes estimate   =   -3123.99790034 Ry
     estimated scf accuracy    <       0.00000031 Ry

     The total energy is the sum of the following terms:

     one-electron contribution =  -13001.79817155 Ry
     hartree contribution      =    6512.09156473 Ry
     xc contribution           =    -602.61895422 Ry
     ewald contribution        =    3968.40866910 Ry
     electric field correction =       0.00000054 Ry
     smearing contrib. (-TS)   =      -0.08099753 Ry

     convergence has been achieved in  20 iterations

 BEEF-vdW xc energy contributions
           1 :   -536.481961683244
           2 :    490.411268610537
           3 :   -411.109180319626
           4 :    318.592526306146
           5 :   -232.065682490860
           6 :    163.647014545856
           7 :   -116.333200674988
           8 :    86.1571323235726
           9 :   -66.5291708890119
          10 :    52.1232559756935
          11 :   -40.4964996422150
          12 :    31.2880294152967
          13 :   -24.3488532067969
          14 :    18.5314795557570
          15 :   -12.0059006566244
          16 :    3.61523992600326
          17 :    5.99439340726417
          18 :   -14.4844462455110
          19 :    19.1977618509702
          20 :   -18.8730981890822
          21 :    14.5204884426068
          22 :   -8.87361482204392
          23 :    4.81521205058891
          24 :   -3.83727050866753
          25 :    5.49103485373189
          26 :   -8.04942318270423
          27 :    9.79381334003335
          28 :   -10.0139217815174
          29 :    9.13084487350864
          30 :   -8.04140408025592
          31 :   -42.4836166660984
          32 :   -29.7204395066934

     Forces acting on atoms (Ry/au):

     negative rho (up, down):  2.802E-01 0.000E+00
     atom    1 type  1   force =    -0.00197102   -0.00142841    0.00073143
     atom    2 type  1   force =    -0.00198615   -0.00142750    0.00072737
     atom    3 type  2   force =     0.00256207    0.00184811    0.00546871
     atom    4 type  2   force =     0.00255712    0.00184871    0.00546796
     atom    5 type  1   force =     0.00029128    0.00021957   -0.00280889
     atom    6 type  1   force =     0.00028827    0.00020790   -0.00281260
     atom    7 type  2   force =    -0.00135781   -0.00097984   -0.00191366
     atom    8 type  2   force =    -0.00135569   -0.00098312   -0.00190680
     atom    9 type  1   force =     0.00029047    0.00019976   -0.00048657
     atom   10 type  1   force =     0.00028628    0.00021253   -0.00049098
     atom   11 type  2   force =     0.00019483    0.00014031   -0.00098760
     atom   12 type  2   force =     0.00020036    0.00014199   -0.00098836

     Total force =     0.011157     Total SCF correction =     0.003201
     SCF correction compared to forces is large: reduce conv_thr to get better values

     entering subroutine stress ...

     negative rho (up, down):  2.802E-01 0.000E+00
          total   stress  (Ry/bohr**3)                   (kbar)     P=   -7.96
  -0.00007905  -0.00001370   0.00000000        -11.63     -2.01      0.00
  -0.00001370  -0.00006999   0.00000000         -2.01    -10.30      0.00
   0.00000000   0.00000000  -0.00001321          0.00      0.00     -1.94

 !ASE

     Writing output data file calc.save

     General routines

     Parallel routines

   This run was terminated on:  19: 7:26  24Dec2018

   JOB DONE.
Job  /afs/slac/g/suncat/bin/suncat-tsmpirun -x LD_LIBRARY_PATH -wdir /scratch/qe108966_kowgd pw.x -in pw.inp

TID   HOST_NAME   COMMAND_LINE            STATUS            TERMINATION_TIME
00000 suncat0163 pw.x -in pw.inp   Done                     12/24/2018 19:07:26
00001 suncat0163 pw.x -in pw.inp   Done                     12/24/2018 19:07:26
00002 suncat0163 pw.x -in pw.inp   Done                     12/24/2018 19:07:26
00003 suncat0163 pw.x -in pw.inp   Done                     12/24/2018 19:07:26
00004 suncat0163 pw.x -in pw.inp   Done                     12/24/2018 19:07:26
00005 suncat0163 pw.x -in pw.inp   Done                     12/24/2018 19:07:26
00006 suncat0163 pw.x -in pw.inp   Done                     12/24/2018 19:07:26
00007 suncat0163 pw.x -in pw.inp   Done                     12/24/2018 19:07:26
00008 suncat0162 pw.x -in pw.inp   Done                     12/24/2018 19:07:26
00009 suncat0162 pw.x -in pw.inp   Done                     12/24/2018 19:07:26
00010 suncat0162 pw.x -in pw.inp   Done                     12/24/2018 19:07:26
00011 suncat0162 pw.x -in pw.inp   Done                     12/24/2018 19:07:26
00012 suncat0162 pw.x -in pw.inp   Done                     12/24/2018 19:07:26
00013 suncat0162 pw.x -in pw.inp   Done                     12/24/2018 19:07:26
00014 suncat0162 pw.x -in pw.inp   Done                     12/24/2018 19:07:26
00015 suncat0162 pw.x -in pw.inp   Done                     12/24/2018 19:07:26
00016 suncat0145 pw.x -in pw.inp   Done                     12/24/2018 19:07:26
00017 suncat0145 pw.x -in pw.inp   Done                     12/24/2018 19:07:26
00018 suncat0145 pw.x -in pw.inp   Done                     12/24/2018 19:07:26
00019 suncat0145 pw.x -in pw.inp   Done                     12/24/2018 19:07:26
00020 suncat0145 pw.x -in pw.inp   Done                     12/24/2018 19:07:26
00021 suncat0145 pw.x -in pw.inp   Done                     12/24/2018 19:07:26
00022 suncat0145 pw.x -in pw.inp   Done                     12/24/2018 19:07:26
00023 suncat0145 pw.x -in pw.inp   Done                     12/24/2018 19:07:26
00024 suncat0144 pw.x -in pw.inp   Done                     12/24/2018 19:07:26
00025 suncat0144 pw.x -in pw.inp   Done                     12/24/2018 19:07:26
00026 suncat0144 pw.x -in pw.inp   Done                     12/24/2018 19:07:26
00027 suncat0144 pw.x -in pw.inp   Done                     12/24/2018 19:07:26
00028 suncat0144 pw.x -in pw.inp   Done                     12/24/2018 19:07:26
00029 suncat0144 pw.x -in pw.inp   Done                     12/24/2018 19:07:26
00030 suncat0144 pw.x -in pw.inp   Done                     12/24/2018 19:07:26
00031 suncat0144 pw.x -in pw.inp   Done                     12/24/2018 19:07:26
00032 suncat0133 pw.x -in pw.inp   Done                     12/24/2018 19:07:26
00033 suncat0133 pw.x -in pw.inp   Done                     12/24/2018 19:07:26
00034 suncat0133 pw.x -in pw.inp   Done                     12/24/2018 19:07:26
00035 suncat0133 pw.x -in pw.inp   Done                     12/24/2018 19:07:26
00036 suncat0133 pw.x -in pw.inp   Done                     12/24/2018 19:07:26
00037 suncat0133 pw.x -in pw.inp   Done                     12/24/2018 19:07:26
00038 suncat0133 pw.x -in pw.inp   Done                     12/24/2018 19:07:26
00039 suncat0133 pw.x -in pw.inp   Done                     12/24/2018 19:07:26
00040 suncat0132 pw.x -in pw.inp   Done                     12/24/2018 19:07:26
00041 suncat0132 pw.x -in pw.inp   Done                     12/24/2018 19:07:26
00042 suncat0132 pw.x -in pw.inp   Done                     12/24/2018 19:07:26
00043 suncat0132 pw.x -in pw.inp   Done                     12/24/2018 19:07:26
00044 suncat0132 pw.x -in pw.inp   Done                     12/24/2018 19:07:26
00045 suncat0132 pw.x -in pw.inp   Done                     12/24/2018 19:07:26
00046 suncat0132 pw.x -in pw.inp   Done                     12/24/2018 19:07:26
00047 suncat0132 pw.x -in pw.inp   Done                     12/24/2018 19:07:26
00048 suncat0131 pw.x -in pw.inp   Done                     12/24/2018 19:07:26
00049 suncat0131 pw.x -in pw.inp   Done                     12/24/2018 19:07:26
00050 suncat0131 pw.x -in pw.inp   Done                     12/24/2018 19:07:26
00051 suncat0131 pw.x -in pw.inp   Done                     12/24/2018 19:07:26
00052 suncat0131 pw.x -in pw.inp   Done                     12/24/2018 19:07:26
00053 suncat0131 pw.x -in pw.inp   Done                     12/24/2018 19:07:26
00054 suncat0131 pw.x -in pw.inp   Done                     12/24/2018 19:07:26
00055 suncat0131 pw.x -in pw.inp   Done                     12/24/2018 19:07:26
00056 suncat0130 pw.x -in pw.inp   Done                     12/24/2018 19:07:26
00057 suncat0130 pw.x -in pw.inp   Done                     12/24/2018 19:07:26
00058 suncat0130 pw.x -in pw.inp   Done                     12/24/2018 19:07:26
00059 suncat0130 pw.x -in pw.inp   Done                     12/24/2018 19:07:26
00060 suncat0130 pw.x -in pw.inp   Done                     12/24/2018 19:07:26
00061 suncat0130 pw.x -in pw.inp   Done                     12/24/2018 19:07:26
00062 suncat0130 pw.x -in pw.inp   Done                     12/24/2018 19:07:26
00063 suncat0130 pw.x -in pw.inp   Done                     12/24/2018 19:07:26