     Program PWSCF v.5.1rc2 (svn rev. 11289) starts on 18Dec2018 at 19:40:31

     Current dimensions of program PWSCF are:
     Max number of different atomic species (ntypx) = 10
     Max number of k-points (npk) =  40000
     Max angular momentum in pseudopotentials (lmaxx) =  3
     Presently stress not available with electric field

     IMPORTANT: XC functional enforced from input :
     Exchange-correlation      = BEEF-VDW ( 1  4 27 13 2)
     Any further DFT definition will be discarded
     Please, verify this is what you really want

     Subspace diagonalization in iterative solution of the eigenvalue problem:
     a serial algorithm will be used

     Found symmetry operation: I + ( -0.5000  0.0000  0.0000)
     This is a supercell, fractional translations are disabled

     bravais-lattice index     =            0
     lattice parameter (alat)  =       1.8897  a.u.
     unit-cell volume          =    5305.5782 (a.u.)^3
     number of atoms/cell      =           12
     number of atomic types    =            2
     number of electrons       =       150.00
     number of Kohn-Sham states=          105
     kinetic-energy cutoff     =      36.7493  Ry
     charge density cutoff     =     367.4932  Ry
     convergence threshold     =      1.0E-06
     mixing beta               =       0.1000
     number of iterations used =           10  plain     mixing
     Exchange-correlation      = BEEF-VDW ( 1  4 27 13 2)
     nstep                     =           50

     celldm(1)=   1.889726  celldm(2)=   0.000000  celldm(3)=   0.000000
     celldm(4)=   0.000000  celldm(5)=   0.000000  celldm(6)=   0.000000

     crystal axes: (cart. coord. in units of alat)
               a(1) = (   5.730235   0.000000   0.000000 )
               a(2) = (  -2.865117   5.511260   0.000000 )
               a(3) = (   0.000000   0.000000  24.895040 )

     reciprocal axes: (cart. coord. in units 2 pi/alat)
               b(1) = (  0.174513  0.090723  0.000000 )
               b(2) = (  0.000000  0.181447  0.000000 )
               b(3) = (  0.000000  0.000000  0.040169 )

     PseudoPot. # 1 for Nb read from file:
     /afs/slac.stanford.edu/u/if/mamunm/psp/gbrv1.5pbe/Nb.UPF
     MD5 check sum: 573aab8a2fa660278ed4a62cd769473f
     Pseudo is Ultrasoft + core correction, Zval = 13.0
     Generated by new atomic code, or converted to UPF format
     Using radial grid of  887 points,  6 beta functions with:
                l(1) =   0
                l(2) =   0
                l(3) =   1
                l(4) =   1
                l(5) =   2
                l(6) =   2
     Q(r) pseudized with  6 coefficients,  rinner =    1.000   1.000   1.000
                                                       1.000   1.000

     PseudoPot. # 2 for Cd read from file:
     /afs/slac.stanford.edu/u/if/mamunm/psp/gbrv1.5pbe/Cd.UPF
     MD5 check sum: 17164a7926edb8e0dc231208abae86a6
     Pseudo is Ultrasoft + core correction, Zval = 12.0
     Generated by new atomic code, or converted to UPF format
     Using radial grid of  889 points,  6 beta functions with:
                l(1) =   0
                l(2) =   0
                l(3) =   1
                l(4) =   1
                l(5) =   2
                l(6) =   2
     Q(r) pseudized with  6 coefficients,  rinner =    1.000   1.000   1.000
                                                       1.000   1.000

     vdW kernel table read from file vdW_kernel_table
     MD5 check sum: 095c7af220d748ca6e76c0b4c6cfb241

     atomic species   valence    mass     pseudopotential
        Nb1           13.00    92.90637     Nb( 1.00)
        Cd1           12.00   112.41400     Cd( 1.00)

     No symmetry found

   Cartesian axes

     site n.     atom                  positions (alat units)
         1           Nb1 tau(   1) = (   0.0000000   0.0000000  10.0000000  )
         2           Nb1 tau(   2) = (   2.8651174   0.0000000  10.0000000  )
         3           Cd1 tau(   3) = (   1.4325587   2.7556299  10.0000000  )
         4           Cd1 tau(   4) = (  -1.4325587   2.7556299  10.0000000  )
         5           Nb1 tau(   5) = (   2.8651174   1.4894775  12.4475200  )
         6           Nb1 tau(   6) = (  -0.0000000   1.4894775  12.4475200  )
         7           Cd1 tau(   7) = (  -1.4325587   4.2451074  12.4475200  )
         8           Cd1 tau(   8) = (   1.4325587   4.2451074  12.4475200  )
         9           Nb1 tau(   9) = (  -0.0000000   2.9789550  14.8950400  )
        10           Nb1 tau(  10) = (   2.8651174   2.9789550  14.8950400  )
        11           Cd1 tau(  11) = (   4.2976760   0.2233251  14.8950400  )
        12           Cd1 tau(  12) = (   1.4325587   0.2233251  14.8950400  )

     number of k points=    20  Fermi-Dirac smearing, width (Ry)=  0.0110
                       cart. coord. in units 2pi/alat
        k(    1) = (   0.0000000   0.0000000   0.0000000), wk =   0.0555556
        k(    2) = (   0.0000000   0.0302411   0.0000000), wk =   0.1111111
        k(    3) = (   0.0000000   0.0604822   0.0000000), wk =   0.1111111
        k(    4) = (   0.0000000  -0.0907234   0.0000000), wk =   0.0555556
        k(    5) = (   0.0290855   0.0151206   0.0000000), wk =   0.1111111
        k(    6) = (   0.0290855   0.0453617   0.0000000), wk =   0.1111111
        k(    7) = (   0.0290855   0.0756028   0.0000000), wk =   0.1111111
        k(    8) = (   0.0290855  -0.0756028   0.0000000), wk =   0.1111111
        k(    9) = (   0.0290855  -0.0453617   0.0000000), wk =   0.1111111
        k(   10) = (   0.0290855  -0.0151206   0.0000000), wk =   0.1111111
        k(   11) = (   0.0581710   0.0302411   0.0000000), wk =   0.1111111
        k(   12) = (   0.0581710   0.0604822   0.0000000), wk =   0.1111111
        k(   13) = (   0.0581710   0.0907234   0.0000000), wk =   0.1111111
        k(   14) = (   0.0581710  -0.0604822   0.0000000), wk =   0.1111111
        k(   15) = (   0.0581710  -0.0302411   0.0000000), wk =   0.1111111
        k(   16) = (   0.0581710   0.0000000   0.0000000), wk =   0.1111111
        k(   17) = (  -0.0872565  -0.0453617   0.0000000), wk =   0.0555556
        k(   18) = (  -0.0872565  -0.0151206   0.0000000), wk =   0.1111111
        k(   19) = (  -0.0872565   0.0151206   0.0000000), wk =   0.1111111
        k(   20) = (  -0.0872565  -0.1360850   0.0000000), wk =   0.0555556

     Largest allocated arrays     est. size (Mb)     dimensions
     Largest temporary arrays     est. size (Mb)     dimensions

     Initial potential from superposition of free atoms
     Check: negative starting charge=   -0.133014

     starting charge  146.98335, renormalised to  150.00000

     negative rho (up, down):  1.357E-01 0.000E+00

     *
     * You are using vdW-DF for exchange-correlation in this calculation.
     * Please cite the following three references that made this development
     * possible:
     *
     *   M. Dion, H. Rydberg, E. Schroder, D. C. Langreth, and
     *   B. I. Lundqvist, Phys. Rev. Lett. 92, 246401 (2004).
     *
     *   T. Thonhauser, V. R. Cooper, S. Li, A. Puzder, P. Hyldgaard, and
     *   D. C. Langreth, Phys. Rev. B 76, 125112 (2007).
     *
     *   G. Roman-Perez and J. M. Soler, Phys. Rev. Lett. 103, 096102 (2009).
     *
     *
     * If you are using vdW-DF2, please also cite:
     *
     *   K. Lee, E. D. Murray, L. Kong, B. I. Lundqvist, and
     *   D. C. Langreth, Phys. Rev. B 82, 081101(R) (2010).
     *
     *
     * If you are calculating the stress with vdW-DF, please also cite:
     *
     *   R. Sabatini, E. Kucukbenli, B. Kolb, T. Thonhauser, and
     *   S. de Gironcoli, J. Phys.: Condens. Matter 24, 424209 (2012).
     *

     Carrying out vdW-DF run using the following parameters:

     Nqs =      20    Nr_points =    1024   r_max =   100.000
     q_mesh =
               0.00001000     0.04494208     0.09755937     0.15916263
               0.23128650     0.31572767     0.41458969     0.53033537
               0.66584808     0.82450364     1.01025438     1.22772762
               1.48234092     1.78043706     2.12944203     2.53805004
               3.01644009     3.57652955     4.23227104     5.00000000

     Gradients computed in reciprocal space

     Adding external electric field

     Computed dipole along edir(3) :
        Dipole               -0.0000 Ry au,         -0.0000 Debye
        Dipole field         -0.0000 Ry au

        Potential amp.        0.0000 Ry
        Total length         45.8687 bohr

     Starting wfc are  132 randomized atomic wfcs

     Self-consistent Calculation

     iteration #  1     ecut=    36.75 Ry     beta=0.10
     Davidson diagonalization with overlap
     ethr =  1.00E-02,  avg # of iterations =  5.7

[...]

     total energy              =   -1407.56265300 Ry
     Harris-Foulkes estimate   =   -1408.04885548 Ry
     estimated scf accuracy    <       3.08197674 Ry

[...]

     End of self-consistent calculation

          k = 0.0000 0.0000 0.0000 ( 19969 PWs)   bands (ev):

   -54.0591 -54.0546 -53.9625 -53.9582 -53.7960 -53.6980 -30.3432 -30.3320
   -30.3006 -30.1930 -30.1849 -30.1791 -30.1286 -30.0816 -30.0713 -30.0289
   -29.9733 -29.9176 -29.8150 -29.5880 -29.5012 -29.4952 -29.4904 -29.3374
    -8.3542  -8.1901  -8.0678  -8.0472  -7.9848  -7.8910  -7.8652  -7.8274
    -7.7499  -7.7364  -7.7129  -7.6379  -7.4108  -7.3972  -7.3333  -7.2710
    -7.2650  -7.2045  -7.2035  -7.1622  -7.1412  -7.1338  -7.0810  -6.9933
    -6.9400  -6.9263  -6.9151  -6.8251  -6.7590  -6.4630  -6.0309  -4.4285
    -2.7226  -1.9697  -1.4333  -1.0526  -0.9933  -0.9226  -0.6894  -0.3636
    -0.3392  -0.1847   0.1692   0.2191   0.5490   0.6039   0.6103   0.6278
     1.3406   1.3459   1.5754   1.6191   1.6757   1.7745   2.1047   2.4440
     2.5157   2.5225   2.5598   2.6068   3.1724   3.2265   3.3083   3.5081
     3.6950   3.7826   3.8105   3.9546   4.0353   4.1355   4.4667   4.7605
     4.8823   4.9688   5.2303   5.3328   5.4284   5.5100   5.5393   5.7314
     6.4388

[...]

          k =-0.0873-0.0454 0.0000 ( 19948 PWs)   bands (ev):

[...]

     the Fermi energy is     1.2736 ev

!    total energy              =   -1407.40003749 Ry
     Harris-Foulkes estimate   =   -1407.40003623 Ry
     estimated scf accuracy    <       0.00000081 Ry

     The total energy is the sum of the following terms:

     one-electron contribution =  -10277.07273857 Ry
     hartree contribution      =    5181.53007404 Ry
     xc contribution           =    -358.95399123 Ry
     ewald contribution        =    4047.16628679 Ry
     electric field correction =       0.00000002 Ry
     smearing contrib. (-TS)   =      -0.06966853 Ry

     convergence has been achieved in  17 iterations

 BEEF-vdW xc energy contributions
           1 :   -312.523956104586
           2 :    285.630782797515
           3 :   -239.910576012671
           4 :    187.903431140604
           5 :   -141.546974486645
           6 :    107.999916554125
           7 :   -88.1222340919065
           8 :    77.8367052872200
           9 :   -71.2657040508756
          10 :    63.8656395242426
          11 :   -54.1233539719376
          12 :    43.3144868645679
          13 :   -33.8952751443234
[...]

     Program PWSCF v.5.1rc2 (svn rev. 11289) starts on 18Dec2018 at 20: 2: 4

[...]

   This run was terminated on:  20: 6:21  18Dec2018

[...]

     Program PWSCF v.5.1rc2 (svn rev. 11289) starts on 18Dec2018 at 20: 6:27

[...]

     Program PWSCF v.5.1rc2 (svn rev. 11289) starts on 18Dec2018 at 20:15: 3

[...]

     iteration # 11     ecut=    36.75 Ry     beta=0.10
     Davidson diagonalization with overlap
     c_bands:  1 eigenvalues not converged
     ethr =  5.47E-07,  avg # of iterations =  5.8

[...]

   This run was terminated on:  20:23:38  18Dec2018

[...]

     Program PWSCF v.5.1rc2 (svn rev. 11289) starts on 18Dec2018 at 20:23:44

     Current dimensions of program PWSCF are:
     Max number of different atomic species (ntypx) = 10
     Max number of k-points (npk) =  40000
     Max angular momentum in pseudopotentials (lmaxx) =  3
     Presently stress not available with electric field

     IMPORTANT: XC functional enforced from input :
     Exchange-correlation      = BEEF-VDW ( 1  4 27 13 2)
     Any further DFT definition will be discarded
     Please, verify this is what you really want

     Subspace diagonalization in iterative solution of the eigenvalue problem:
     a serial algorithm will be used

     Found symmetry operation: I + ( -0.5000  0.0000  0.0000)
     This is a supercell, fractional translations are disabled

     bravais-lattice index     =            0
     lattice parameter (alat)  =       1.8897  a.u.
     unit-cell volume          =    5305.5782 (a.u.)^3
     number of atoms/cell      =           12
     number of atomic types    =            2
     number of electrons       =       150.00
     number of Kohn-Sham states=          105
     kinetic-energy cutoff     =      36.7493  Ry
     charge density cutoff     =     367.4932  Ry
     convergence threshold     =      1.0E-06
     mixing beta               =       0.1000
     number of iterations used =           10  plain     mixing
     Exchange-correlation      = BEEF-VDW ( 1  4 27 13 2)
     nstep                     =           50

     celldm(1)=   1.889726  celldm(2)=   0.000000  celldm(3)=   0.000000
     celldm(4)=   0.000000  celldm(5)=   0.000000  celldm(6)=   0.000000

     crystal axes: (cart. coord. in units of alat)
               a(1) = (   5.730235   0.000000   0.000000 )
               a(2) = (  -2.865117   5.511260   0.000000 )
               a(3) = (   0.000000   0.000000  24.895040 )

     reciprocal axes: (cart. coord. in units 2 pi/alat)
               b(1) = (  0.174513  0.090723  0.000000 )
               b(2) = (  0.000000  0.181447  0.000000 )
               b(3) = (  0.000000  0.000000  0.040169 )

     PseudoPot. # 1 for Nb read from file:
     /afs/slac.stanford.edu/u/if/mamunm/psp/gbrv1.5pbe/Nb.UPF
     MD5 check sum: 573aab8a2fa660278ed4a62cd769473f
     Pseudo is Ultrasoft + core correction, Zval = 13.0
     Generated by new atomic code, or converted to UPF format
     Using radial grid of  887 points,  6 beta functions with:
                l(1) =   0
                l(2) =   0
                l(3) =   1
                l(4) =   1
                l(5) =   2
                l(6) =   2
     Q(r) pseudized with  6 coefficients,  rinner =    1.000   1.000   1.000
                                                       1.000   1.000

     PseudoPot. # 2 for Cd read from file:
     /afs/slac.stanford.edu/u/if/mamunm/psp/gbrv1.5pbe/Cd.UPF
     MD5 check sum: 17164a7926edb8e0dc231208abae86a6
     Pseudo is Ultrasoft + core correction, Zval = 12.0
     Generated by new atomic code, or converted to UPF format
     Using radial grid of  889 points,  6 beta functions with:
                l(1) =   0
                l(2) =   0
                l(3) =   1
                l(4) =   1
                l(5) =   2
                l(6) =   2
     Q(r) pseudized with  6 coefficients,  rinner =    1.000   1.000   1.000
                                                       1.000   1.000

     vdW kernel table read from file vdW_kernel_table
     MD5 check sum: 095c7af220d748ca6e76c0b4c6cfb241

     atomic species   valence    mass     pseudopotential
        Nb1           13.00    92.90637     Nb( 1.00)
        Cd1           12.00   112.41400     Cd( 1.00)

     No symmetry found

   Cartesian axes

     site n.     atom                  positions (alat units)
         1           Nb1 tau(   1) = (   0.0000000   0.0000000  10.0000000  )
         2           Nb1 tau(   2) = (   2.8651174   0.0000000  10.0000000  )
         3           Cd1 tau(   3) = (   1.4325587   2.7556299  10.0000000  )
         4           Cd1 tau(   4) = (  -1.4325587   2.7556299  10.0000000  )
         5           Nb1 tau(   5) = (   2.8651174   1.4894775  12.4475200  )
         6           Nb1 tau(   6) = (  -0.0000000   1.4894775  12.4475200  )
         7           Cd1 tau(   7) = (  -1.4325587   4.2451074  12.4475200  )
         8           Cd1 tau(   8) = (   1.4325587   4.2451074  12.4475200  )
         9           Nb1 tau(   9) = (  -0.0000110   2.8200598  14.7363054  )
        10           Nb1 tau(  10) = (   2.8651072   2.8200565  14.7363066  )
        11           Cd1 tau(  11) = (   4.2976628   0.1303855  15.1421241  )
        12           Cd1 tau(  12) = (   1.4325922   0.1303711  15.1421568  )

     number of k points=    20  Fermi-Dirac smearing, width (Ry)=  0.0110
                       cart. coord. in units 2pi/alat
        k(    1) = (   0.0000000   0.0000000   0.0000000), wk =   0.0555556
        k(    2) = (   0.0000000   0.0302411   0.0000000), wk =   0.1111111
        k(    3) = (   0.0000000   0.0604822   0.0000000), wk =   0.1111111
        k(    4) = (   0.0000000  -0.0907234   0.0000000), wk =   0.0555556
        k(    5) = (   0.0290855   0.0151206   0.0000000), wk =   0.1111111
        k(    6) = (   0.0290855   0.0453617   0.0000000), wk =   0.1111111
        k(    7) = (   0.0290855   0.0756028   0.0000000), wk =   0.1111111
        k(    8) = (   0.0290855  -0.0756028   0.0000000), wk =   0.1111111
        k(    9) = (   0.0290855  -0.0453617   0.0000000), wk =   0.1111111
        k(   10) = (   0.0290855  -0.0151206   0.0000000), wk =   0.1111111
        k(   11) = (   0.0581710   0.0302411   0.0000000), wk =   0.1111111
        k(   12) = (   0.0581710   0.0604822   0.0000000), wk =   0.1111111
        k(   13) = (   0.0581710   0.0907234   0.0000000), wk =   0.1111111
        k(   14) = (   0.0581710  -0.0604822   0.0000000), wk =   0.1111111
        k(   15) = (   0.0581710  -0.0302411   0.0000000), wk =   0.1111111
        k(   16) = (   0.0581710   0.0000000   0.0000000), wk =   0.1111111
        k(   17) = (  -0.0872565  -0.0453617   0.0000000), wk =   0.0555556
        k(   18) = (  -0.0872565  -0.0151206   0.0000000), wk =   0.1111111
        k(   19) = (  -0.0872565   0.0151206   0.0000000), wk =   0.1111111
        k(   20) = (  -0.0872565  -0.1360850   0.0000000), wk =   0.0555556

     Largest allocated arrays     est. size (Mb)     dimensions
     Largest temporary arrays     est. size (Mb)     dimensions

     Initial potential from superposition of free atoms
     Check: negative starting charge=   -0.132272

     starting charge  146.98335, renormalised to  150.00000

[...]

     *
     * You are using vdW-DF for exchange-correlation in this calculation.
     * Please cite the following three references that made this development
     * possible:
     *
     *   M. Dion, H. Rydberg, E. Schroder, D. C. Langreth, and
     *   B. I. Lundqvist, Phys. Rev. Lett. 92, 246401 (2004).
     *
     *   T. Thonhauser, V. R. Cooper, S. Li, A. Puzder, P. Hyldgaard, and
     *   D. C. Langreth, Phys. Rev. B 76, 125112 (2007).
     *
     *   G. Roman-Perez and J. M. Soler, Phys. Rev. Lett. 103, 096102 (2009).
     *
     *
     * If you are using vdW-DF2, please also cite:
     *
     *   K. Lee, E. D. Murray, L. Kong, B. I. Lundqvist, and
     *   D. C. Langreth, Phys. Rev. B 82, 081101(R) (2010).
     *
     *
     * If you are calculating the stress with vdW-DF, please also cite:
     *
     *   R. Sabatini, E. Kucukbenli, B. Kolb, T. Thonhauser, and
     *   S. de Gironcoli, J. Phys.: Condens. Matter 24, 424209 (2012).
     *

     Carrying out vdW-DF run using the following parameters:

     Nqs =      20    Nr_points =    1024   r_max =   100.000
     q_mesh =
               0.00001000     0.04494208     0.09755937     0.15916263
               0.23128650     0.31572767     0.41458969     0.53033537
               0.66584808     0.82450364     1.01025438     1.22772762
               1.48234092     1.78043706     2.12944203     2.53805004
               3.01644009     3.57652955     4.23227104     5.00000000

     Gradients computed in reciprocal space

[...]

     Starting wfc are  132 randomized atomic wfcs

     Self-consistent Calculation

[...]

     total energy              =   -1407.42531395 Ry
     Harris-Foulkes estimate   =   -1407.42531386 Ry
     estimated scf accuracy    <       0.00000226 Ry

     iteration # 17     ecut=    36.75 Ry     beta=0.10
     Davidson diagonalization with overlap
     ethr =  1.51E-09,  avg # of iterations =  2.0

[...]

     negative rho (up, down):  1.379E-01 0.000E+00

     Adding external electric field

     Computed dipole along edir(3) :
        Dipole               -0.0327 Ry au,         -0.0831 Debye
        Dipole field         -0.0001 Ry au

        Potential amp.        0.0071 Ry
        Total length         45.8687 bohr

     End of self-consistent calculation

[...]

          k = 0.0582 0.0000 0.0000 ( 19969 PWs)   bands (ev):

[...]

          k =-0.0873-0.1361 0.0000 ( 19948 PWs)   bands (ev):

   -54.0958 -54.0958 -53.9178 -53.9178 -53.7077 -53.7077 -30.3759 -30.3759
   -30.1886 -30.1886 -30.1011 -30.1011 -29.9942 -29.9942 -29.9844 -29.9844
   -29.8824 -29.8824 -29.8261 -29.8261 -29.7412 -29.7412 -29.3824 -29.3824
    -7.9172  -7.9172  -7.7604  -7.7604  -7.7097  -7.7097  -7.6173  -7.6173
    -7.5893  -7.5893  -7.4160  -7.4160  -7.3894  -7.3893  -7.3322  -7.3321
    -7.3177  -7.3176  -7.2885  -7.2885  -7.2595  -7.2594  -7.2353  -7.2353
    -7.1570  -7.1569  -7.1244  -7.1244  -7.0514  -7.0513  -4.4400  -4.4400
    -3.1359  -3.1359  -1.9506  -1.9506  -0.9617  -0.9617  -0.3873  -0.3873
     0.1700   0.1700   0.2828   0.2828   0.6673   0.6674   0.7949   0.7949
     0.9754   0.9754   1.3000   1.3000   1.4291   1.4291   1.6229   1.6230
     2.0644   2.0644   2.3158   2.3158   2.7699   2.7699   3.0487   3.0487
     3.5871   3.5872   3.7501   3.7501   3.9889   3.9890   4.5943   4.5943
     5.1818   5.1818   6.0791   6.0791   6.5404   6.5404   6.7055   6.7056
     6.9904

     the Fermi energy is     1.2324 ev

!    total energy              =   -1407.42531534 Ry
     Harris-Foulkes estimate   =   -1407.42531428 Ry
     estimated scf accuracy    <       0.00000076 Ry

     The total energy is the sum of the following terms:

     one-electron contribution =  -10217.61362331 Ry
     hartree contribution      =    5151.76902001 Ry
     xc contribution           =    -359.01000905 Ry
     ewald contribution        =    4017.49705661 Ry
     electric field correction =       0.00000253 Ry
     smearing contrib. (-TS)   =      -0.06776213 Ry

     convergence has been achieved in  17 iterations

 BEEF-vdW xc energy contributions
           1 :   -312.573883244965
           2 :    285.654992938574
           3 :   -239.904644600620
           4 :    187.882939614844
           5 :   -141.525567572770
           6 :    107.966716716892
           7 :   -88.0380590074569
           8 :    77.6576123401780
           9 :   -70.9831216320603
          10 :    63.5324565956873
          11 :   -53.8375921366854
          12 :    43.1624773129645
          13 :   -33.8908955725958
          14 :    27.7258948525931
          15 :   -24.7192548760472
          16 :    23.4829146243151
          17 :   -22.2272790583773
          18 :    19.8639396634866
          19 :   -16.5174824022276
          20 :    13.2335469138042
          21 :   -11.1823836776022
          22 :    10.9021305243438
          23 :   -12.0285419344018
          24 :    13.5975662254079
          25 :   -14.6633468783552
          26 :    14.8204617874379
          27 :   -14.3374714208903
          28 :    13.8722536342773
          29 :   -13.9938416804400
          30 :    14.8179995516469
          31 :   -30.5719873584859
          32 :   -22.6457212413063

     Forces acting on atoms (Ry/au):

     negative rho (up, down):  1.379E-01 0.000E+00
     atom    1 type  1   force =    -0.00000062    0.01628904    0.03178096
     atom    2 type  1   force =     0.00000049    0.01628813    0.03177968
     atom    3 type  2   force =    -0.00000039   -0.00738159   -0.02746500
     atom    4 type  2   force =     0.00000046   -0.00738280   -0.02746863
     atom    5 type  1   force =    -0.00000029   -0.01707883   -0.00949483
     atom    6 type  1   force =     0.00000058   -0.01707724   -0.00949041
     atom    7 type  2   force =    -0.00000809    0.00898750    0.00544921
     atom    8 type  2   force =     0.00000756    0.00898756    0.00545288
     atom    9 type  1   force =     0.00000090   -0.00038064   -0.00004397
     atom   10 type  1   force =     0.00000008   -0.00037581   -0.00004360
     atom   11 type  2   force =     0.00001063   -0.00043990   -0.00022567
     atom   12 type  2   force =    -0.00001133   -0.00043542   -0.00023061

     Total force =     0.071790     Total SCF correction =     0.001724

     entering subroutine stress ...

     negative rho (up, down):  1.379E-01 0.000E+00
          total   stress  (Ry/bohr**3)                   (kbar)     P=  -12.27
  -0.00013279  -0.00000000  -0.00000000        -19.53     -0.00     -0.00
  -0.00000000  -0.00009616  -0.00001679         -0.00    -14.15     -2.47
  -0.00000000  -0.00001679  -0.00002120         -0.00     -2.47     -3.12

 !ASE

     Writing output data file calc.save

     General routines

     Parallel routines

   This run was terminated on:  20:28: 1  18Dec2018

   JOB DONE.
Job  /afs/slac/g/suncat/bin/suncat-tsmpirun -x LD_LIBRARY_PATH -wdir /scratch/qe530290_HQTvb pw.x -in pw.inp

TID   HOST_NAME   COMMAND_LINE            STATUS            TERMINATION_TIME
00000 suncat2048 pw.x -in pw.inp   Done                     12/18/2018 20:28:01
00001 suncat2048 pw.x -in pw.inp   Done                     12/18/2018 20:28:01
00002 suncat2048 pw.x -in pw.inp   Done                     12/18/2018 20:28:01
00003 suncat2048 pw.x -in pw.inp   Done                     12/18/2018 20:28:01
00004 suncat2048 pw.x -in pw.inp   Done                     12/18/2018 20:28:01
00005 suncat2048 pw.x -in pw.inp   Done                     12/18/2018 20:28:01
00006 suncat2048 pw.x -in pw.inp   Done                     12/18/2018 20:28:01
00007 suncat2048 pw.x -in pw.inp   Done                     12/18/2018 20:28:01
00008 suncat2048 pw.x -in pw.inp   Done                     12/18/2018 20:28:01
00009 suncat2048 pw.x -in pw.inp   Done                     12/18/2018 20:28:01
00010 suncat2048 pw.x -in pw.inp   Done                     12/18/2018 20:28:01
00011 suncat2048 pw.x -in pw.inp   Done                     12/18/2018 20:28:01
00012 suncat2048 pw.x -in pw.inp   Done                     12/18/2018 20:28:01
00013 suncat2048 pw.x -in pw.inp   Done                     12/18/2018 20:28:01
00014 suncat2048 pw.x -in pw.inp   Done                     12/18/2018 20:28:01
00015 suncat2048 pw.x -in pw.inp   Done                     12/18/2018 20:28:01
00016 suncat2047 pw.x -in pw.inp   Done                     12/18/2018 20:28:01
00017 suncat2047 pw.x -in pw.inp   Done                     12/18/2018 20:28:01
00018 suncat2047 pw.x -in pw.inp   Done                     12/18/2018 20:28:01
00019 suncat2047 pw.x -in pw.inp   Done                     12/18/2018 20:28:01
00020 suncat2047 pw.x -in pw.inp   Done                     12/18/2018 20:28:01
00021 suncat2047 pw.x -in pw.inp   Done                     12/18/2018 20:28:01
00022 suncat2047 pw.x -in pw.inp   Done                     12/18/2018 20:28:01
00023 suncat2047 pw.x -in pw.inp   Done                     12/18/2018 20:28:01
00024 suncat2047 pw.x -in pw.inp   Done                     12/18/2018 20:28:01
00025 suncat2047 pw.x -in pw.inp   Done                     12/18/2018 20:28:01
00026 suncat2047 pw.x -in pw.inp   Done                     12/18/2018 20:28:01
00027 suncat2047 pw.x -in pw.inp   Done                     12/18/2018 20:28:01
00028 suncat2047 pw.x -in pw.inp   Done                     12/18/2018 20:28:01
00029 suncat2047 pw.x -in pw.inp   Done                     12/18/2018 20:28:01
00030 suncat2047 pw.x -in pw.inp   Done                     12/18/2018 20:28:01
00031 suncat2047 pw.x -in pw.inp   Done                     12/18/2018 20:28:01