     Program PWSCF v.5.1rc2 (svn rev. 11289) starts on 18Dec2018 at 17:59:34

     Current dimensions of program PWSCF are:
     Max number of different atomic species (ntypx) = 10
     Max number of k-points (npk) =  40000
     Max angular momentum in pseudopotentials (lmaxx) =  3
     Presently stress not available with electric field

     IMPORTANT: XC functional enforced from input :
     Exchange-correlation      = BEEF-VDW ( 1  4 27 13 2)
     Any further DFT definition will be discarded
     Please, verify this is what you really want

     Subspace diagonalization in iterative solution of the eigenvalue problem:
     a serial algorithm will be used

     Found symmetry operation: I + ( -0.5000  0.0000  0.0000)
     This is a supercell, fractional translations are disabled

     bravais-lattice index     =            0
     lattice parameter (alat)  =       1.8897  a.u.
     unit-cell volume          =    4324.3786 (a.u.)^3
     number of atoms/cell      =           12
     number of atomic types    =            2
     number of electrons       =       108.00
     number of Kohn-Sham states=           84
     kinetic-energy cutoff     =      36.7493  Ry
     charge density cutoff     =     367.4932  Ry
     convergence threshold     =      1.0E-06
     mixing beta               =       0.1000
     number of iterations used =           10  plain     mixing
     Exchange-correlation      = BEEF-VDW ( 1  4 27 13 2)
     nstep                     =           50

     celldm(1)=   1.889726  celldm(2)=   0.000000  celldm(3)=   0.000000
     celldm(4)=   0.000000  celldm(5)=   0.000000  celldm(6)=   0.000000

     crystal axes: (cart. coord. in units of alat)
               a(1) = (   5.447399   0.000000   0.000000 )
               a(2) = (  -2.723699   4.803948   0.000000 )
               a(3) = (   0.000000   0.000000  24.487228 )

     reciprocal axes: (cart. coord. in units 2 pi/alat)
               b(1) = (  0.183574  0.104081  0.000000 )
               b(2) = (  0.000000  0.208162  0.000000 )
               b(3) = (  0.000000  0.000000  0.040838 )

     PseudoPot. # 1 for Al read from file:
     /afs/slac.stanford.edu/u/if/mamunm/psp/gbrv1.5pbe/Al.UPF
     MD5 check sum: 0a6289f5291fc8f409219462bc851e1f
     Pseudo is Ultrasoft + core correction, Zval =  3.0
     Generated by new atomic code, or converted to UPF format
     Using radial grid of  893 points,  3 beta functions with:
                l(1) =   0
                l(2) =   1
                l(3) =   2
     Q(r) pseudized with  8 coefficients,  rinner =    0.900   0.900   0.900
                                                       0.900   0.900

     PseudoPot. # 2 for Re read from file:
     /afs/slac.stanford.edu/u/if/mamunm/psp/gbrv1.5pbe/Re.UPF
     MD5 check sum: 85f993410f3e006da9d71c142b4ad953
     Pseudo is Ultrasoft + core correction, Zval = 15.0
     Generated by new atomic code, or converted to UPF format
     Using radial grid of  981 points,  8 beta functions with:
                l(1) =   0
                l(2) =   0
                l(3) =   1
                l(4) =   1
                l(5) =   2
                l(6) =   2
                l(7) =   3
                l(8) =   3
     Q(r) pseudized with  8 coefficients,  rinner =    1.150   1.150   1.150
                                                       1.150   1.150   1.150
                                                       1.150

     vdW kernel table read from file vdW_kernel_table
     MD5 check sum: 095c7af220d748ca6e76c0b4c6cfb241

     atomic species   valence    mass     pseudopotential
        Al1            3.00    26.98154     Al( 1.00)
        Re1           15.00   186.20700     Re( 1.00)

     No symmetry found

   Cartesian axes

     site n.     atom                  positions (alat units)
         1           Al1 tau(   1) = (   0.0000000   0.0000000  10.0000000  )
         2           Al1 tau(   2) = (   2.7236993   0.0000000  10.0000000  )
         3           Re1 tau(   3) = (   1.3618497   2.4019742  10.0000000  )
         4           Re1 tau(   4) = (  -1.3618497   2.4019742  10.0000000  )
         5           Al1 tau(   5) = (   2.7236993   1.5442585  12.2436140  )
         6           Al1 tau(   6) = (   0.0000000   1.5442585  12.2436140  )
         7           Re1 tau(   7) = (  -1.3618497   3.9462326  12.2436140  )
         8           Re1 tau(   8) = (   1.3618497   3.9462326  12.2436140  )
         9           Al1 tau(   9) = (   0.0000000   3.0885170  14.4872280  )
        10           Al1 tau(  10) = (   2.7236993   3.0885170  14.4872280  )
        11           Re1 tau(  11) = (   4.0855490   0.6865428  14.4872280  )
        12           Re1 tau(  12) = (   1.3618497   0.6865428  14.4872280  )

     number of k points=    20  Fermi-Dirac smearing, width (Ry)=  0.0110
                       cart. coord. in units 2pi/alat
        k(    1) = (   0.0000000   0.0000000   0.0000000), wk =   0.0555556
        k(    2) = (   0.0000000   0.0346937   0.0000000), wk =   0.1111111
        k(    3) = (   0.0000000   0.0693874   0.0000000), wk =   0.1111111
        k(    4) = (   0.0000000  -0.1040811   0.0000000), wk =   0.0555556
        k(    5) = (   0.0305956   0.0173468   0.0000000), wk =   0.1111111
        k(    6) = (   0.0305956   0.0520405   0.0000000), wk =   0.1111111
        k(    7) = (   0.0305956   0.0867342   0.0000000), wk =   0.1111111
        k(    8) = (   0.0305956  -0.0867342   0.0000000), wk =   0.1111111
        k(    9) = (   0.0305956  -0.0520405   0.0000000), wk =   0.1111111
        k(   10) = (   0.0305956  -0.0173468   0.0000000), wk =   0.1111111
        k(   11) = (   0.0611913   0.0346937   0.0000000), wk =   0.1111111
        k(   12) = (   0.0611913   0.0693874   0.0000000), wk =   0.1111111
        k(   13) = (   0.0611913   0.1040811   0.0000000), wk =   0.1111111
        k(   14) = (   0.0611913  -0.0693874   0.0000000), wk =   0.1111111
        k(   15) = (   0.0611913  -0.0346937   0.0000000), wk =   0.1111111
        k(   16) = (   0.0611913   0.0000000   0.0000000), wk =   0.1111111
        k(   17) = (  -0.0917869  -0.0520405   0.0000000), wk =   0.0555556
        k(   18) = (  -0.0917869  -0.0173468   0.0000000), wk =   0.1111111
        k(   19) = (  -0.0917869   0.0173468   0.0000000), wk =   0.1111111
        k(   20) = (  -0.0917869  -0.1561216   0.0000000), wk =   0.0555556

     Largest allocated arrays     est. size (Mb)     dimensions
     Largest temporary arrays     est. size (Mb)     dimensions

     Initial potential from superposition of free atoms
     Check: negative starting charge=   -0.769448

     starting charge  104.98494, renormalised to  108.00000

     negative rho (up, down):  7.915E-01 0.000E+00

     *
     * You are using vdW-DF for exchange-correlation in this calculation.
     * Please cite the following three references that made this development
     * possible:
     *
     *   M. Dion, H. Rydberg, E. Schroder, D. C. Langreth, and
     *   B. I. Lundqvist, Phys. Rev. Lett. 92, 246401 (2004).
     *
     *   T. Thonhauser, V. R. Cooper, S. Li, A. Puzder, P. Hyldgaard, and
     *   D. C. Langreth, Phys. Rev. B 76, 125112 (2007).
     *
     *   G. Roman-Perez and J. M. Soler, Phys. Rev. Lett. 103, 096102 (2009).
     *
     *
     * If you are using vdW-DF2, please also cite:
     *
     *   K. Lee, E. D. Murray, L. Kong, B. I. Lundqvist, and
     *   D. C. Langreth, Phys. Rev. B 82, 081101(R) (2010).
     *
     *
     * If you are calculating the stress with vdW-DF, please also cite:
     *
     *   R. Sabatini, E. Kucukbenli, B. Kolb, T. Thonhauser, and
     *   S. de Gironcoli, J. Phys.: Condens. Matter 24, 424209 (2012).
     *

     Carrying out vdW-DF run using the following parameters:

     Nqs =      20    Nr_points =    1024   r_max =   100.000
     q_mesh =
               0.00001000     0.04494208     0.09755937     0.15916263
               0.23128650     0.31572767     0.41458969     0.53033537
               0.66584808     0.82450364     1.01025438     1.22772762
               1.48234092     1.78043706     2.12944203     2.53805004
               3.01644009     3.57652955     4.23227104     5.00000000

     Gradients computed in reciprocal space

     Adding external electric field

     Computed dipole along edir(3) :
        Dipole                0.0000 Ry au,          0.0000 Debye
        Dipole field          0.0000 Ry au

        Potential amp.       -0.0000 Ry
        Total length         45.1173 bohr

     Starting wfc are  102 randomized atomic wfcs

     Self-consistent Calculation

     iteration #  1     ecut=    36.75 Ry     beta=0.10
     Davidson diagonalization with overlap
     ethr =  1.00E-02,  avg # of iterations =  6.5

[...]

     total energy              =   -1194.26047499 Ry
     Harris-Foulkes estimate   =   -1194.52973970 Ry
     estimated scf accuracy    <       1.75128770 Ry

[...]

     End of self-consistent calculation

          k = 0.0000 0.0000 0.0000 ( 16189 PWs)   bands (ev):

   -79.6185 -79.5759 -79.2522 -79.2516 -79.2099 -79.2093 -41.6585 -41.4905
   -41.4114 -41.3029 -41.3026 -41.3002 -41.2276 -40.9783 -40.9654 -40.9606
   -40.9295 -40.8915 -40.8861 -40.8574 -40.8223 -40.7571 -40.6307 -40.6293
    -9.2347  -7.2944  -5.8011  -5.3653  -4.5717  -4.0334  -3.9446  -3.3946
    -3.3866  -3.1272  -2.9646  -2.7817  -2.4627  -2.0701  -2.0567  -1.8718
    -1.4981  -1.2797  -1.1149  -0.7792  -0.3218  -0.3047  -0.0659   0.1602
     0.1735   0.2732   0.4856   0.6424   0.9199   1.1036   1.1193   1.2278
     1.5470   1.6047   1.7679   1.7804   2.2718   2.3408   2.4832   2.4988
     3.3800   3.3839   4.4058   4.4175   4.4589   4.7439   4.7896   5.1627
     5.2119   5.5911   5.8216   5.8672   6.5989   6.9558   7.3541   7.3582
     7.5306   7.8411   7.9116   7.9379

[...]

          k =-0.0918-0.0520 0.0000 ( 16260 PWs)   bands (ev):

[...]

     the Fermi energy is     1.0189 ev

!    total energy              =   -1194.13158731 Ry
     Harris-Foulkes estimate   =   -1194.13158642 Ry
     estimated scf accuracy    <       0.00000055 Ry

     The total energy is the sum of the following terms:

     one-electron contribution =   -6835.73054025 Ry
     hartree contribution      =    3409.01108812 Ry
     xc contribution           =    -351.44183580 Ry
     ewald contribution        =    2584.09008631 Ry
     electric field correction =       0.00000000 Ry
     smearing contrib. (-TS)   =      -0.06038570 Ry

     convergence has been achieved in  16 iterations

 BEEF-vdW xc energy contributions
           1 :   -310.714119866989
           2 :    287.212906933120
           3 :   -245.821025144051
           4 :    195.408297070131
           5 :   -144.926086486465
           6 :    100.926017324570
           7 :   -66.5613619481431
           8 :    41.9853651609634
           9 :   -25.4935804827958
          10 :    14.6989332370269
          11 :   -7.36874876208731
          12 :    1.89404433457617
          13 :    2.51816605037959
          14 :   -5.90601892144724
          15 :    7.87364114864062
          16 :   -8.08548086580197
          17 :    6.69864256920926
          18 :   -4.47532310034546
[...]
00027 suncat0021 pw.x -in pw.inp   Done                     12/18/2018 18:10:20
00028 suncat0021 pw.x -in pw.inp   Done                     12/18/2018 18:10:20
00029 suncat0021 pw.x -in pw.inp   Done                     12/18/2018 18:10:20
00030 suncat0021 pw.x -in pw.inp   Done                     12/18/2018 18:10:20
00031 suncat0021 pw.x -in pw.inp   Done                     12/18/2018 18:10:20

[...]

   This run was terminated on:  18:41: 1  18Dec2018

[...]

     Program PWSCF v.5.1rc2 (svn rev. 11289) starts on 18Dec2018 at 18:41: 7

[...]

     Program PWSCF v.5.1rc2 (svn rev. 11289) starts on 18Dec2018 at 18:51:17

[...]

   This run was terminated on:  19: 1:22  18Dec2018

[...]

     Program PWSCF v.5.1rc2 (svn rev. 11289) starts on 18Dec2018 at 19: 1:28

     Current dimensions of program PWSCF are:
     Max number of different atomic species (ntypx) = 10
     Max number of k-points (npk) =  40000
     Max angular momentum in pseudopotentials (lmaxx) =  3
     Presently stress not available with electric field

     IMPORTANT: XC functional enforced from input :
     Exchange-correlation      = BEEF-VDW ( 1  4 27 13 2)
     Any further DFT definition will be discarded
     Please, verify this is what you really want

     Subspace diagonalization in iterative solution of the eigenvalue problem:
     a serial algorithm will be used

     Found symmetry operation: I + ( -0.5000  0.0000  0.0000)
     This is a supercell, fractional translations are disabled

     bravais-lattice index     =            0
     lattice parameter (alat)  =       1.8897  a.u.
     unit-cell volume          =    4324.3786 (a.u.)^3
     number of atoms/cell      =           12
     number of atomic types    =            2
     number of electrons       =       108.00
     number of Kohn-Sham states=           84
     kinetic-energy cutoff     =      36.7493  Ry
     charge density cutoff     =     367.4932  Ry
     convergence threshold     =      1.0E-06
     mixing beta               =       0.1000
     number of iterations used =           10  plain     mixing
     Exchange-correlation      = BEEF-VDW ( 1  4 27 13 2)
     nstep                     =           50

     celldm(1)=   1.889726  celldm(2)=   0.000000  celldm(3)=   0.000000
     celldm(4)=   0.000000  celldm(5)=   0.000000  celldm(6)=   0.000000

     crystal axes: (cart. coord. in units of alat)
               a(1) = (   5.447399   0.000000   0.000000 )
               a(2) = (  -2.723699   4.803948   0.000000 )
               a(3) = (   0.000000   0.000000  24.487228 )

     reciprocal axes: (cart. coord. in units 2 pi/alat)
               b(1) = (  0.183574  0.104081  0.000000 )
               b(2) = (  0.000000  0.208162  0.000000 )
               b(3) = (  0.000000  0.000000  0.040838 )

     PseudoPot. # 1 for Al read from file:
     /afs/slac.stanford.edu/u/if/mamunm/psp/gbrv1.5pbe/Al.UPF
     MD5 check sum: 0a6289f5291fc8f409219462bc851e1f
     Pseudo is Ultrasoft + core correction, Zval =  3.0
     Generated by new atomic code, or converted to UPF format
     Using radial grid of  893 points,  3 beta functions with:
                l(1) =   0
                l(2) =   1
                l(3) =   2
     Q(r) pseudized with  8 coefficients,  rinner =    0.900   0.900   0.900
                                                       0.900   0.900

     PseudoPot. # 2 for Re read from file:
     /afs/slac.stanford.edu/u/if/mamunm/psp/gbrv1.5pbe/Re.UPF
     MD5 check sum: 85f993410f3e006da9d71c142b4ad953
     Pseudo is Ultrasoft + core correction, Zval = 15.0
     Generated by new atomic code, or converted to UPF format
     Using radial grid of  981 points,  8 beta functions with:
                l(1) =   0
                l(2) =   0
                l(3) =   1
                l(4) =   1
                l(5) =   2
                l(6) =   2
                l(7) =   3
                l(8) =   3
     Q(r) pseudized with  8 coefficients,  rinner =    1.150   1.150   1.150
                                                       1.150   1.150   1.150
                                                       1.150

     vdW kernel table read from file vdW_kernel_table
     MD5 check sum: 095c7af220d748ca6e76c0b4c6cfb241

     atomic species   valence    mass     pseudopotential
        Al1            3.00    26.98154     Al( 1.00)
        Re1           15.00   186.20700     Re( 1.00)

     No symmetry found

   Cartesian axes

     site n.     atom                  positions (alat units)
         1           Al1 tau(   1) = (   0.0000000   0.0000000  10.0000000  )
         2           Al1 tau(   2) = (   2.7236993   0.0000000  10.0000000  )
         3           Re1 tau(   3) = (   1.3618497   2.4019742  10.0000000  )
         4           Re1 tau(   4) = (  -1.3618497   2.4019742  10.0000000  )
         5           Al1 tau(   5) = (   2.7236993   1.5442585  12.2436140  )
         6           Al1 tau(   6) = (   0.0000000   1.5442585  12.2436140  )
         7           Re1 tau(   7) = (  -1.3618497   3.9462326  12.2436140  )
         8           Re1 tau(   8) = (   1.3618497   3.9462326  12.2436140  )
         9           Al1 tau(   9) = (  -0.0000038   2.9102920  14.6311063  )
        10           Al1 tau(  10) = (   2.7236965   2.9103044  14.6311079  )
        11           Re1 tau(  11) = (   4.0855440   0.4906619  14.3373741  )
        12           Re1 tau(  12) = (   1.3618669   0.4906587  14.3373879  )

     number of k points=    20  Fermi-Dirac smearing, width (Ry)=  0.0110
                       cart. coord. in units 2pi/alat
        k(    1) = (   0.0000000   0.0000000   0.0000000), wk =   0.0555556
        k(    2) = (   0.0000000   0.0346937   0.0000000), wk =   0.1111111
        k(    3) = (   0.0000000   0.0693874   0.0000000), wk =   0.1111111
        k(    4) = (   0.0000000  -0.1040811   0.0000000), wk =   0.0555556
        k(    5) = (   0.0305956   0.0173468   0.0000000), wk =   0.1111111
        k(    6) = (   0.0305956   0.0520405   0.0000000), wk =   0.1111111
        k(    7) = (   0.0305956   0.0867342   0.0000000), wk =   0.1111111
        k(    8) = (   0.0305956  -0.0867342   0.0000000), wk =   0.1111111
        k(    9) = (   0.0305956  -0.0520405   0.0000000), wk =   0.1111111
        k(   10) = (   0.0305956  -0.0173468   0.0000000), wk =   0.1111111
        k(   11) = (   0.0611913   0.0346937   0.0000000), wk =   0.1111111
        k(   12) = (   0.0611913   0.0693874   0.0000000), wk =   0.1111111
        k(   13) = (   0.0611913   0.1040811   0.0000000), wk =   0.1111111
        k(   14) = (   0.0611913  -0.0693874   0.0000000), wk =   0.1111111
        k(   15) = (   0.0611913  -0.0346937   0.0000000), wk =   0.1111111
        k(   16) = (   0.0611913   0.0000000   0.0000000), wk =   0.1111111
        k(   17) = (  -0.0917869  -0.0520405   0.0000000), wk =   0.0555556
        k(   18) = (  -0.0917869  -0.0173468   0.0000000), wk =   0.1111111
        k(   19) = (  -0.0917869   0.0173468   0.0000000), wk =   0.1111111
        k(   20) = (  -0.0917869  -0.1561216   0.0000000), wk =   0.0555556

     Largest allocated arrays     est. size (Mb)     dimensions
     Largest temporary arrays     est. size (Mb)     dimensions

     Initial potential from superposition of free atoms
     Check: negative starting charge=   -0.769209

     starting charge  104.98494, renormalised to  108.00000

[...]

     *
     * You are using vdW-DF for exchange-correlation in this calculation.
     * Please cite the following three references that made this development
     * possible:
     *
     *   M. Dion, H. Rydberg, E. Schroder, D. C. Langreth, and
     *   B. I. Lundqvist, Phys. Rev. Lett. 92, 246401 (2004).
     *
     *   T. Thonhauser, V. R. Cooper, S. Li, A. Puzder, P. Hyldgaard, and
     *   D. C. Langreth, Phys. Rev. B 76, 125112 (2007).
     *
     *   G. Roman-Perez and J. M. Soler, Phys. Rev. Lett. 103, 096102 (2009).
     *
     *
     * If you are using vdW-DF2, please also cite:
     *
     *   K. Lee, E. D. Murray, L. Kong, B. I. Lundqvist, and
     *   D. C. Langreth, Phys. Rev. B 82, 081101(R) (2010).
     *
     *
     * If you are calculating the stress with vdW-DF, please also cite:
     *
     *   R. Sabatini, E. Kucukbenli, B. Kolb, T. Thonhauser, and
     *   S. de Gironcoli, J. Phys.: Condens. Matter 24, 424209 (2012).
     *

     Carrying out vdW-DF run using the following parameters:

     Nqs =      20    Nr_points =    1024   r_max =   100.000
     q_mesh =
               0.00001000     0.04494208     0.09755937     0.15916263
               0.23128650     0.31572767     0.41458969     0.53033537
               0.66584808     0.82450364     1.01025438     1.22772762
               1.48234092     1.78043706     2.12944203     2.53805004
               3.01644009     3.57652955     4.23227104     5.00000000

     Gradients computed in reciprocal space

[...]

     Starting wfc are  102 randomized atomic wfcs

     Self-consistent Calculation

[...]

     total energy              =   -1194.15932055 Ry
     Harris-Foulkes estimate   =   -1194.15932103 Ry
     estimated scf accuracy    <       0.00000210 Ry

     iteration # 15     ecut=    36.75 Ry     beta=0.10
     Davidson diagonalization with overlap
     ethr =  1.94E-09,  avg # of iterations =  2.9

[...]

     negative rho (up, down):  7.922E-01 0.000E+00

     Adding external electric field

     Computed dipole along edir(3) :
        Dipole                0.0838 Ry au,          0.2130 Debye
        Dipole field          0.0002 Ry au

        Potential amp.       -0.0220 Ry
        Total length         45.1173 bohr

     End of self-consistent calculation

[...]

          k = 0.0612 0.0000 0.0000 ( 16268 PWs)   bands (ev):

[...]

          k =-0.0918-0.1561 0.0000 ( 16260 PWs)   bands (ev):

   -79.5293 -79.5293 -79.1843 -79.1843 -79.0781 -79.0781 -41.5675 -41.5675
   -41.2347 -41.2347 -41.2191 -41.2191 -40.9089 -40.9089 -40.9057 -40.9057
   -40.8240 -40.8240 -40.8006 -40.8006 -40.7666 -40.7666 -40.6015 -40.6015
    -7.3633  -7.3633  -5.7438  -5.7438  -4.7565  -4.7565  -3.6817  -3.6817
    -2.9846  -2.9846  -2.1350  -2.1350  -1.8777  -1.8777  -1.5847  -1.5847
    -1.4736  -1.4736  -1.1950  -1.1950  -0.5928  -0.5928  -0.3242  -0.3241
    -0.0922  -0.0922   0.0869   0.0869   0.4332   0.4332   0.9935   0.9936
     1.5127   1.5127   1.9680   1.9680   2.1009   2.1009   2.6479   2.6480
     3.4587   3.4587   4.4050   4.4050   5.2122   5.2122   5.8272   5.8272
     6.2658   6.2658   6.6075   6.6075   6.8320   6.8320   7.2779   7.2779
     7.3631   7.3631   7.9053   7.9053

     the Fermi energy is     1.1383 ev

!    total energy              =   -1194.15932028 Ry
     Harris-Foulkes estimate   =   -1194.15932159 Ry
     estimated scf accuracy    <       0.00000046 Ry

     The total energy is the sum of the following terms:

     one-electron contribution =   -6935.62108650 Ry
     hartree contribution      =    3459.19525517 Ry
     xc contribution           =    -351.54364544 Ry
     ewald contribution        =    2633.86136211 Ry
     electric field correction =       0.00002041 Ry
     smearing contrib. (-TS)   =      -0.05122603 Ry

     convergence has been achieved in  15 iterations

 BEEF-vdW xc energy contributions
           1 :   -310.821495743899
           2 :    287.361185830737
           3 :   -246.022718945266
           4 :    195.632861552492
           5 :   -145.105565217431
           6 :    100.981323308062
           7 :   -66.4407750175548
           8 :    41.6948371776993
           9 :   -25.0984730259810
          10 :    14.2936721120228
          11 :   -7.03296236903026
          12 :    1.66163690448076
          13 :    2.66261613103580
          14 :   -6.00883129683444
          15 :    7.98825530133223
          16 :   -8.25514594874033
          17 :    6.94536151494441
          18 :   -4.79103335934241
          19 :    2.83175139242559
          20 :   -1.91108635473245
          21 :    2.28247696256830
          22 :   -3.55939824565326
          23 :    5.00329976578519
          24 :   -5.94031568628105
          25 :    6.05712980569029
          26 :   -5.45000627160272
          27 :    4.47017616813315
          28 :   -3.50768238279392
          29 :    2.83465995366709
          30 :   -2.54641363721242
          31 :   -27.2407770438045
          32 :   -20.1379143452109

     Forces acting on atoms (Ry/au):

     negative rho (up, down):  7.922E-01 0.000E+00
     atom    1 type  1   force =     0.00000006    0.00440287   -0.02854294
     atom    2 type  1   force =    -0.00000013    0.00440267   -0.02854284
     atom    3 type  2   force =    -0.00000320    0.00497919    0.04405341
     atom    4 type  2   force =     0.00000471    0.00498298    0.04405355
     atom    5 type  1   force =    -0.00000042    0.01337533   -0.01613557
     atom    6 type  1   force =     0.00000078    0.01337473   -0.01613478
     atom    7 type  2   force =    -0.00000477   -0.02197582    0.00340624
     atom    8 type  2   force =     0.00000236   -0.02197332    0.00340468
     atom    9 type  1   force =     0.00000145   -0.00039967   -0.00185944
     atom   10 type  1   force =     0.00000018   -0.00039874   -0.00185961
     atom   11 type  2   force =    -0.00000076   -0.00038424   -0.00091962
     atom   12 type  2   force =    -0.00000025   -0.00038597   -0.00092308

     Total force =     0.086463     Total SCF correction =     0.002424

     entering subroutine stress ...

     negative rho (up, down):  7.922E-01 0.000E+00
          total   stress  (Ry/bohr**3)                   (kbar)     P=  -22.71
  -0.00017178  -0.00000000   0.00000000        -25.27     -0.00      0.00
  -0.00000000  -0.00023830  -0.00002000         -0.00    -35.05     -2.94
   0.00000000  -0.00002000  -0.00005299          0.00     -2.94     -7.79

 !ASE

     Writing output data file calc.save

     General routines

     Parallel routines

   This run was terminated on:  19:11:36  18Dec2018

   JOB DONE.
Job  /afs/slac/g/suncat/bin/suncat-tsmpirun -x LD_LIBRARY_PATH -wdir /scratch/qe529605_gE9TI pw.x -in pw.inp

TID   HOST_NAME   COMMAND_LINE            STATUS            TERMINATION_TIME
00000 suncat0024 pw.x -in pw.inp   Done                     12/18/2018 19:11:36
00001 suncat0024 pw.x -in pw.inp   Done                     12/18/2018 19:11:36
00002 suncat0024 pw.x -in pw.inp   Done                     12/18/2018 19:11:36
00003 suncat0024 pw.x -in pw.inp   Done                     12/18/2018 19:11:36
00004 suncat0024 pw.x -in pw.inp   Done                     12/18/2018 19:11:36
00005 suncat0024 pw.x -in pw.inp   Done                     12/18/2018 19:11:36
00006 suncat0024 pw.x -in pw.inp   Done                     12/18/2018 19:11:36
00007 suncat0024 pw.x -in pw.inp   Done                     12/18/2018 19:11:36
00008 suncat0023 pw.x -in pw.inp   Done                     12/18/2018 19:11:36
00009 suncat0023 pw.x -in pw.inp   Done                     12/18/2018 19:11:36
00010 suncat0023 pw.x -in pw.inp   Done                     12/18/2018 19:11:36
00011 suncat0023 pw.x -in pw.inp   Done                     12/18/2018 19:11:36
00012 suncat0023 pw.x -in pw.inp   Done                     12/18/2018 19:11:36
00013 suncat0023 pw.x -in pw.inp   Done                     12/18/2018 19:11:36
00014 suncat0023 pw.x -in pw.inp   Done                     12/18/2018 19:11:36
00015 suncat0023 pw.x -in pw.inp   Done                     12/18/2018 19:11:36
00016 suncat0022 pw.x -in pw.inp   Done                     12/18/2018 19:11:36
00017 suncat0022 pw.x -in pw.inp   Done                     12/18/2018 19:11:36
00018 suncat0022 pw.x -in pw.inp   Done                     12/18/2018 19:11:36
00019 suncat0022 pw.x -in pw.inp   Done                     12/18/2018 19:11:36
00020 suncat0022 pw.x -in pw.inp   Done                     12/18/2018 19:11:36
00021 suncat0022 pw.x -in pw.inp   Done                     12/18/2018 19:11:36
00022 suncat0022 pw.x -in pw.inp   Done                     12/18/2018 19:11:36
00023 suncat0022 pw.x -in pw.inp   Done                     12/18/2018 19:11:36
00024 suncat0021 pw.x -in pw.inp   Done                     12/18/2018 19:11:36
00025 suncat0021 pw.x -in pw.inp   Done                     12/18/2018 19:11:36
00026 suncat0021 pw.x -in pw.inp   Done                     12/18/2018 19:11:36
00027 suncat0021 pw.x -in pw.inp   Done                     12/18/2018 19:11:36
00028 suncat0021 pw.x -in pw.inp   Done                     12/18/2018 19:11:36
00029 suncat0021 pw.x -in pw.inp   Done                     12/18/2018 19:11:36
00030 suncat0021 pw.x -in pw.inp   Done                     12/18/2018 19:11:36
00031 suncat0021 pw.x -in pw.inp   Done                     12/18/2018 19:11:36