     Program PWSCF v.5.1rc2 (svn rev. 11289) starts on 19Dec2018 at  6:20:50

     Current dimensions of program PWSCF are:
     Max number of different atomic species (ntypx) = 10
     Max number of k-points (npk) =  40000
     Max angular momentum in pseudopotentials (lmaxx) =  3
     Presently stress not available with electric field

     IMPORTANT: XC functional enforced from input :
     Exchange-correlation      = BEEF-VDW ( 1  4 27 13 2)
     Any further DFT definition will be discarded
     Please, verify this is what you really want

     Subspace diagonalization in iterative solution of the eigenvalue problem:
     a serial algorithm will be used

     Found symmetry operation: I + (  0.5000  0.5000  0.0000)
     This is a supercell, fractional translations are disabled

     Generating pointlists ...
     new r_m :   0.4125 (alat units)  0.7795 (a.u.) for type    1
     new r_m :   0.4125 (alat units)  0.7795 (a.u.) for type    2

     bravais-lattice index     =            0
     lattice parameter (alat)  =       1.8897  a.u.
     unit-cell volume          =    4794.6911 (a.u.)^3
     number of atoms/cell      =           12
     number of atomic types    =            2
     number of electrons       =       174.00
     number of Kohn-Sham states=          117
     kinetic-energy cutoff     =      36.7493  Ry
     charge density cutoff     =     367.4932  Ry
     convergence threshold     =      1.0E-06
     mixing beta               =       0.1000
     number of iterations used =           10  plain     mixing
     Exchange-correlation      = BEEF-VDW ( 1  4 27 13 2)
     nstep                     =           50

     celldm(1)=   1.889726  celldm(2)=   0.000000  celldm(3)=   0.000000
     celldm(4)=   0.000000  celldm(5)=   0.000000  celldm(6)=   0.000000

     crystal axes: (cart. coord. in units of alat)
               a(1) = (   5.542262   0.000000   0.000000 )
               a(2) = (   1.841010   5.227557   0.000000 )
               a(3) = (   0.000000   0.000000  24.523260 )

     reciprocal axes: (cart. coord. in units 2 pi/alat)
               b(1) = (  0.180432 -0.063543  0.000000 )
               b(2) = (  0.000000  0.191294  0.000000 )
               b(3) = (  0.000000  0.000000  0.040778 )

     PseudoPot. # 1 for Co read from file:
     /afs/slac.stanford.edu/u/if/mamunm/psp/gbrv1.5pbe/Co.UPF
     MD5 check sum: 5f91765df6ddd3222702df6e7b74a16d
     Pseudo is Ultrasoft + core correction, Zval = 17.0
     Generated by new atomic code, or converted to UPF format
     Using radial grid of  863 points,  6 beta functions with:
                l(1) =   0
                l(2) =   0
                l(3) =   1
                l(4) =   1
                l(5) =   2
                l(6) =   2
     Q(r) pseudized with  8 coefficients,  rinner =    1.200   1.200   1.200
                                                       1.200   1.200

     PseudoPot. # 2 for Zr read from file:
     /afs/slac.stanford.edu/u/if/mamunm/psp/gbrv1.5pbe/Zr.UPF
     MD5 check sum: 5db81b1e868ab7776c4564c113de050b
     Pseudo is Ultrasoft + core correction, Zval = 12.0
     Generated by new atomic code, or converted to UPF format
     Using radial grid of  887 points,  6 beta functions with:
                l(1) =   0
                l(2) =   0
                l(3) =   1
                l(4) =   1
                l(5) =   2
                l(6) =   2
     Q(r) pseudized with  6 coefficients,  rinner =    1.200   1.200   1.200
                                                       1.200   1.200

     vdW kernel table read from file vdW_kernel_table
     MD5 check sum: 095c7af220d748ca6e76c0b4c6cfb241

     atomic species   valence    mass     pseudopotential
        Co1           17.00    58.93319     Co( 1.00)
        Zr1           12.00    91.22400     Zr( 1.00)

     Starting magnetic structure
     atomic species   magnetization
        Co1          0.118
        Zr1          0.167

     No symmetry found

   Cartesian axes

     site n.     atom                  positions (alat units)
         1           Co1 tau(   1) = (   0.0000000   0.0000000  10.0000000  )
         2           Co1 tau(   2) = (   3.6916363   2.6137785  10.0000000  )
         3           Zr1 tau(   3) = (   2.7711311   0.0000000  10.0000000  )
         4           Zr1 tau(   4) = (   0.9205052   2.6137785  10.0000000  )
         5           Co1 tau(   5) = (   5.5422622   3.9240717  12.2616298  )
         6           Co1 tau(   6) = (   1.8506259   1.3102933  12.2616298  )
         7           Zr1 tau(   7) = (   2.7711311   3.9240717  12.2616298  )
         8           Zr1 tau(   8) = (   4.6217570   1.3102933  12.2616298  )
         9           Co1 tau(   9) = (   3.7012518   2.6205865  14.5232596  )
        10           Co1 tau(  10) = (   0.0096155   0.0068081  14.5232596  )
        11           Zr1 tau(  11) = (   0.9301207   2.6205865  14.5232596  )
        12           Zr1 tau(  12) = (   2.7807466   0.0068081  14.5232596  )

     number of k points=    40  Fermi-Dirac smearing, width (Ry)=  0.0110
                       cart. coord. in units 2pi/alat
        k(    1) = (   0.0000000   0.0000000   0.0000000), wk =   0.0277778
        k(    2) = (   0.0000000   0.0318823   0.0000000), wk =   0.0555556
        k(    3) = (   0.0000000   0.0637646   0.0000000), wk =   0.0555556
        k(    4) = (   0.0000000  -0.0956470   0.0000000), wk =   0.0277778
        k(    5) = (   0.0300720  -0.0105906   0.0000000), wk =   0.0555556
        k(    6) = (   0.0300720   0.0212918   0.0000000), wk =   0.0555556
        k(    7) = (   0.0300720   0.0531741   0.0000000), wk =   0.0555556
        k(    8) = (   0.0300720  -0.1062375   0.0000000), wk =   0.0555556
        k(    9) = (   0.0300720  -0.0743552   0.0000000), wk =   0.0555556
        k(   10) = (   0.0300720  -0.0424729   0.0000000), wk =   0.0555556
        k(   11) = (   0.0601439  -0.0211811   0.0000000), wk =   0.0555556
        k(   12) = (   0.0601439   0.0107012   0.0000000), wk =   0.0555556
        k(   13) = (   0.0601439   0.0425835   0.0000000), wk =   0.0555556
        k(   14) = (   0.0601439  -0.1168281   0.0000000), wk =   0.0555556
        k(   15) = (   0.0601439  -0.0849458   0.0000000), wk =   0.0555556
        k(   16) = (   0.0601439  -0.0530635   0.0000000), wk =   0.0555556
        k(   17) = (  -0.0902159   0.0317717   0.0000000), wk =   0.0277778
        k(   18) = (  -0.0902159   0.0636540   0.0000000), wk =   0.0555556
        k(   19) = (  -0.0902159   0.0955363   0.0000000), wk =   0.0555556
        k(   20) = (  -0.0902159  -0.0638753   0.0000000), wk =   0.0277778
        k(   21) = (   0.0000000   0.0000000   0.0000000), wk =   0.0277778
        k(   22) = (   0.0000000   0.0318823   0.0000000), wk =   0.0555556
        k(   23) = (   0.0000000   0.0637646   0.0000000), wk =   0.0555556
        k(   24) = (   0.0000000  -0.0956470   0.0000000), wk =   0.0277778
        k(   25) = (   0.0300720  -0.0105906   0.0000000), wk =   0.0555556
        k(   26) = (   0.0300720   0.0212918   0.0000000), wk =   0.0555556
        k(   27) = (   0.0300720   0.0531741   0.0000000), wk =   0.0555556
        k(   28) = (   0.0300720  -0.1062375   0.0000000), wk =   0.0555556
        k(   29) = (   0.0300720  -0.0743552   0.0000000), wk =   0.0555556
        k(   30) = (   0.0300720  -0.0424729   0.0000000), wk =   0.0555556
        k(   31) = (   0.0601439  -0.0211811   0.0000000), wk =   0.0555556
        k(   32) = (   0.0601439   0.0107012   0.0000000), wk =   0.0555556
        k(   33) = (   0.0601439   0.0425835   0.0000000), wk =   0.0555556
        k(   34) = (   0.0601439  -0.1168281   0.0000000), wk =   0.0555556
        k(   35) = (   0.0601439  -0.0849458   0.0000000), wk =   0.0555556
        k(   36) = (   0.0601439  -0.0530635   0.0000000), wk =   0.0555556
        k(   37) = (  -0.0902159   0.0317717   0.0000000), wk =   0.0277778
        k(   38) = (  -0.0902159   0.0636540   0.0000000), wk =   0.0555556
        k(   39) = (  -0.0902159   0.0955363   0.0000000), wk =   0.0555556
        k(   40) = (  -0.0902159  -0.0638753   0.0000000), wk =   0.0277778

     Largest allocated arrays     est. size (Mb)     dimensions
     Largest temporary arrays     est. size (Mb)     dimensions

     Check: negative/imaginary core charge=   -0.000003    0.000000

     Initial potential from superposition of free atoms
     Check: negative starting charge=(component1):   -0.214500
     Check: negative starting charge=(component2):   -0.153186

     starting charge  167.98706, renormalised to  174.00000

     negative rho (up, down):  2.222E-01 1.587E-01

     *
     * You are using vdW-DF for exchange-correlation in this calculation.
     * Please cite the following three references that made this development
     * possible:
     *
     *   M. Dion, H. Rydberg, E. Schroder, D. C. Langreth, and
     *   B. I. Lundqvist, Phys. Rev. Lett. 92, 246401 (2004).
     *
     *   T. Thonhauser, V. R. Cooper, S. Li, A. Puzder, P. Hyldgaard, and
     *   D. C. Langreth, Phys. Rev. B 76, 125112 (2007).
     *
     *   G. Roman-Perez and J. M. Soler, Phys. Rev. Lett. 103, 096102 (2009).
     *
     *
     * If you are using vdW-DF2, please also cite:
     *
     *   K. Lee, E. D. Murray, L. Kong, B. I. Lundqvist, and
     *   D. C. Langreth, Phys. Rev. B 82, 081101(R) (2010).
     *
     *
     * If you are calculating the stress with vdW-DF, please also cite:
     *
     *   R. Sabatini, E. Kucukbenli, B. Kolb, T. Thonhauser, and
     *   S. de Gironcoli, J. Phys.: Condens. Matter 24, 424209 (2012).
     *

     Carrying out vdW-DF run using the following parameters:

     Nqs =      20    Nr_points =    1024   r_max =   100.000
     q_mesh =
               0.00001000     0.04494208     0.09755937     0.15916263
               0.23128650     0.31572767     0.41458969     0.53033537
               0.66584808     0.82450364     1.01025438     1.22772762
               1.48234092     1.78043706     2.12944203     2.53805004
               3.01644009     3.57652955     4.23227104     5.00000000

     Gradients computed in reciprocal space

     Adding external electric field

     Computed dipole along edir(3) :
        Dipole                0.0000 Ry au,          0.0000 Debye
        Dipole field          0.0000 Ry au

        Potential amp.       -0.0000 Ry
        Total length         45.1837 bohr

[...]

     Starting wfc are  156 randomized atomic wfcs

     Self-consistent Calculation

     iteration #  1     ecut=    36.75 Ry     beta=0.10
     Davidson diagonalization with overlap
     ethr =  1.00E-02,  avg # of iterations =  2.8

[...]

     Magnetic moment per site:
     atom:    1    charge:    8.3246    magn:    0.9637    constr:    0.0000
     atom:    2    charge:    8.3246    magn:    0.9637    constr:    0.0000
     atom:    3    charge:    1.1514    magn:    0.1743    constr:    0.0000
     atom:    4    charge:    1.1514    magn:    0.1743    constr:    0.0000
     atom:    5    charge:    8.3285    magn:    0.9615    constr:    0.0000
     atom:    6    charge:    8.3285    magn:    0.9615    constr:    0.0000
[...]
                l(3) =   1
                l(4) =   1
                l(5) =   2
                l(6) =   2
     Q(r) pseudized with  8 coefficients,  rinner =    1.200   1.200   1.200
                                                       1.200   1.200

     PseudoPot. # 2 for Zr read from file:
     /afs/slac.stanford.edu/u/if/mamunm/psp/gbrv1.5pbe/Zr.UPF
     MD5 check sum: 5db81b1e868ab7776c4564c113de050b
     Pseudo is Ultrasoft + core correction, Zval = 12.0
     Generated by new atomic code, or converted to UPF format
     Using radial grid of  887 points,  6 beta functions with:
                l(1) =   0
                l(2) =   0
                l(3) =   1
                l(4) =   1
                l(5) =   2
                l(6) =   2
     Q(r) pseudized with  6 coefficients,  rinner =    1.200   1.200   1.200
                                                       1.200   1.200

     vdW kernel table read from file vdW_kernel_table
     MD5 check sum: 095c7af220d748ca6e76c0b4c6cfb241

     atomic species   valence    mass     pseudopotential
        Co1           17.00    58.93319     Co( 1.00)
        Zr1           12.00    91.22400     Zr( 1.00)

     Starting magnetic structure
     atomic species   magnetization
        Co1          0.118
        Zr1          0.167

     No symmetry found

   Cartesian axes

     site n.     atom                  positions (alat units)
         1           Co1 tau(   1) = (   0.0000000   0.0000000  10.0000000  )
         2           Co1 tau(   2) = (   3.6916363   2.6137785  10.0000000  )
         3           Zr1 tau(   3) = (   2.7711311   0.0000000  10.0000000  )
         4           Zr1 tau(   4) = (   0.9205052   2.6137785  10.0000000  )
         5           Co1 tau(   5) = (   5.5422622   3.9240717  12.2616298  )
         6           Co1 tau(   6) = (   1.8506259   1.3102933  12.2616298  )
         7           Zr1 tau(   7) = (   2.7711311   3.9240717  12.2616298  )
         8           Zr1 tau(   8) = (   4.6217570   1.3102933  12.2616298  )
         9           Co1 tau(   9) = (   3.6995143   2.6193308  14.2531924  )
        10           Co1 tau(  10) = (   0.0081539   0.0057983  14.2531031  )
        11           Zr1 tau(  11) = (   0.9265405   2.6178345  14.5382865  )
        12           Zr1 tau(  12) = (   2.7769674   0.0043496  14.5382887  )

     number of k points=    40  Fermi-Dirac smearing, width (Ry)=  0.0110
                       cart. coord. in units 2pi/alat
        k(    1) = (   0.0000000   0.0000000   0.0000000), wk =   0.0277778
        k(    2) = (   0.0000000   0.0318823   0.0000000), wk =   0.0555556
        k(    3) = (   0.0000000   0.0637646   0.0000000), wk =   0.0555556
        k(    4) = (   0.0000000  -0.0956470   0.0000000), wk =   0.0277778
        k(    5) = (   0.0300720  -0.0105906   0.0000000), wk =   0.0555556
        k(    6) = (   0.0300720   0.0212918   0.0000000), wk =   0.0555556
        k(    7) = (   0.0300720   0.0531741   0.0000000), wk =   0.0555556
        k(    8) = (   0.0300720  -0.1062375   0.0000000), wk =   0.0555556
        k(    9) = (   0.0300720  -0.0743552   0.0000000), wk =   0.0555556
        k(   10) = (   0.0300720  -0.0424729   0.0000000), wk =   0.0555556
        k(   11) = (   0.0601439  -0.0211811   0.0000000), wk =   0.0555556
        k(   12) = (   0.0601439   0.0107012   0.0000000), wk =   0.0555556
        k(   13) = (   0.0601439   0.0425835   0.0000000), wk =   0.0555556
        k(   14) = (   0.0601439  -0.1168281   0.0000000), wk =   0.0555556
        k(   15) = (   0.0601439  -0.0849458   0.0000000), wk =   0.0555556
        k(   16) = (   0.0601439  -0.0530635   0.0000000), wk =   0.0555556
        k(   17) = (  -0.0902159   0.0317717   0.0000000), wk =   0.0277778
        k(   18) = (  -0.0902159   0.0636540   0.0000000), wk =   0.0555556
        k(   19) = (  -0.0902159   0.0955363   0.0000000), wk =   0.0555556
        k(   20) = (  -0.0902159  -0.0638753   0.0000000), wk =   0.0277778
        k(   21) = (   0.0000000   0.0000000   0.0000000), wk =   0.0277778
        k(   22) = (   0.0000000   0.0318823   0.0000000), wk =   0.0555556
        k(   23) = (   0.0000000   0.0637646   0.0000000), wk =   0.0555556
        k(   24) = (   0.0000000  -0.0956470   0.0000000), wk =   0.0277778
        k(   25) = (   0.0300720  -0.0105906   0.0000000), wk =   0.0555556
        k(   26) = (   0.0300720   0.0212918   0.0000000), wk =   0.0555556
        k(   27) = (   0.0300720   0.0531741   0.0000000), wk =   0.0555556
        k(   28) = (   0.0300720  -0.1062375   0.0000000), wk =   0.0555556
        k(   29) = (   0.0300720  -0.0743552   0.0000000), wk =   0.0555556
        k(   30) = (   0.0300720  -0.0424729   0.0000000), wk =   0.0555556
        k(   31) = (   0.0601439  -0.0211811   0.0000000), wk =   0.0555556
        k(   32) = (   0.0601439   0.0107012   0.0000000), wk =   0.0555556
        k(   33) = (   0.0601439   0.0425835   0.0000000), wk =   0.0555556
        k(   34) = (   0.0601439  -0.1168281   0.0000000), wk =   0.0555556
        k(   35) = (   0.0601439  -0.0849458   0.0000000), wk =   0.0555556
        k(   36) = (   0.0601439  -0.0530635   0.0000000), wk =   0.0555556
        k(   37) = (  -0.0902159   0.0317717   0.0000000), wk =   0.0277778
        k(   38) = (  -0.0902159   0.0636540   0.0000000), wk =   0.0555556
        k(   39) = (  -0.0902159   0.0955363   0.0000000), wk =   0.0555556
        k(   40) = (  -0.0902159  -0.0638753   0.0000000), wk =   0.0277778

     Largest allocated arrays     est. size (Mb)     dimensions
     Largest temporary arrays     est. size (Mb)     dimensions

     Check: negative/imaginary core charge=   -0.000003    0.000000

     Initial potential from superposition of free atoms
     Check: negative starting charge=(component1):   -0.214752
     Check: negative starting charge=(component2):   -0.153362

     starting charge  167.98706, renormalised to  174.00000

[...]

     *
     * You are using vdW-DF for exchange-correlation in this calculation.
     * Please cite the following three references that made this development
     * possible:
     *
     *   M. Dion, H. Rydberg, E. Schroder, D. C. Langreth, and
     *   B. I. Lundqvist, Phys. Rev. Lett. 92, 246401 (2004).
     *
     *   T. Thonhauser, V. R. Cooper, S. Li, A. Puzder, P. Hyldgaard, and
     *   D. C. Langreth, Phys. Rev. B 76, 125112 (2007).
     *
     *   G. Roman-Perez and J. M. Soler, Phys. Rev. Lett. 103, 096102 (2009).
     *
     *
     * If you are using vdW-DF2, please also cite:
     *
     *   K. Lee, E. D. Murray, L. Kong, B. I. Lundqvist, and
     *   D. C. Langreth, Phys. Rev. B 82, 081101(R) (2010).
     *
     *
     * If you are calculating the stress with vdW-DF, please also cite:
     *
     *   R. Sabatini, E. Kucukbenli, B. Kolb, T. Thonhauser, and
     *   S. de Gironcoli, J. Phys.: Condens. Matter 24, 424209 (2012).
     *

     Carrying out vdW-DF run using the following parameters:

     Nqs =      20    Nr_points =    1024   r_max =   100.000
     q_mesh =
               0.00001000     0.04494208     0.09755937     0.15916263
               0.23128650     0.31572767     0.41458969     0.53033537
               0.66584808     0.82450364     1.01025438     1.22772762
               1.48234092     1.78043706     2.12944203     2.53805004
               3.01644009     3.57652955     4.23227104     5.00000000

     Gradients computed in reciprocal space

[...]

     Starting wfc are  156 randomized atomic wfcs

     Self-consistent Calculation

[...]

     total energy              =   -2395.83068759 Ry
     Harris-Foulkes estimate   =   -2395.83068816 Ry
     estimated scf accuracy    <       0.00000110 Ry

[...]

     iteration # 58     ecut=    36.75 Ry     beta=0.10
     Davidson diagonalization with overlap
     ethr =  6.34E-10,  avg # of iterations =  3.0

[...]

     negative rho (up, down):  1.909E-01 1.898E-01

[...]

     Adding external electric field

     Computed dipole along edir(3) :
        Dipole                0.1090 Ry au,          0.2771 Debye
        Dipole field          0.0003 Ry au

        Potential amp.       -0.0258 Ry
        Total length         45.1837 bohr

     Magnetic moment per site:
     atom:    1    charge:    8.2924    magn:    0.3565    constr:    0.0000
     atom:    2    charge:    8.2924    magn:    0.3565    constr:    0.0000
     atom:    3    charge:    1.1100    magn:   -0.0090    constr:    0.0000
     atom:    4    charge:    1.1100    magn:   -0.0090    constr:    0.0000
     atom:    5    charge:    8.2686    magn:    0.3556    constr:    0.0000
     atom:    6    charge:    8.2684    magn:    0.3557    constr:    0.0000
     atom:    7    charge:    1.1082    magn:   -0.0029    constr:    0.0000
     atom:    8    charge:    1.1082    magn:   -0.0029    constr:    0.0000
     atom:    9    charge:    8.2854    magn:   -0.0553    constr:    0.0000
     atom:   10    charge:    8.2853    magn:   -0.0554    constr:    0.0000
     atom:   11    charge:    1.1076    magn:   -0.0009    constr:    0.0000
     atom:   12    charge:    1.1076    magn:   -0.0009    constr:    0.0000

     End of self-consistent calculation

 ------ SPIN UP ------------

[...]

 ------ SPIN DOWN ----------

[...]

          k = 0.0601-0.0531 0.0000 ( 18050 PWs)   bands (ev):

[...]

          k =-0.0902-0.0639 0.0000 ( 18056 PWs)   bands (ev):

   -93.1707 -93.1702 -92.9900 -92.9894 -92.6011 -92.6007 -56.5143 -56.5109
   -56.5094 -56.5040 -56.4225 -56.4210 -56.3215 -56.3204 -56.3195 -56.3094
   -56.2851 -56.2837 -56.0336 -56.0321 -55.9354 -55.9255 -55.8255 -55.8246
   -48.0589 -48.0438 -48.0163 -48.0007 -47.4407 -47.3939 -26.1963 -26.1937
   -26.1759 -26.1233 -26.1120 -26.0733 -26.0610 -25.9913 -25.9652 -25.9211
   -25.7100 -25.6989 -25.6878 -25.4365 -25.4003 -25.3785 -25.3778 -25.1968
    -2.7849  -2.7150  -1.7211  -1.6190  -1.4063  -1.3141  -1.2888  -1.1020
    -1.0014  -0.7852  -0.5157  -0.4605  -0.3924  -0.3903  -0.3107  -0.2310
    -0.1878  -0.0516   0.0009   0.0586   0.0853   0.1041   0.1148   0.2258
     0.2295   0.3949   0.4612   0.4812   0.4842   0.4885   0.5899   0.6521
     0.6674   0.7355   0.7796   0.8282   0.8528   0.8988   0.9960   1.1023
     1.3654   1.5237   1.7391   1.7909   1.8910   1.9787   2.1443   2.2214
     2.4114   2.5220   2.5946   2.7724   3.0299   3.0863   3.1791   3.2451
     3.3190   3.7037   3.7646   3.9703   4.3124   4.6154   4.6640   4.9624
     5.4434   5.6379   5.7381   6.0676   6.2716

     the Fermi energy is     1.4848 ev

!    total energy              =   -2395.83068979 Ry
     Harris-Foulkes estimate   =   -2395.83068803 Ry
     estimated scf accuracy    <       0.00000087 Ry

     The total energy is the sum of the following terms:

     one-electron contribution =  -16914.05518600 Ry
     hartree contribution      =    8458.92496723 Ry
     xc contribution           =    -312.85276344 Ry
     ewald contribution        =    6372.21867672 Ry
     electric field correction =       0.00003115 Ry
     smearing contrib. (-TS)   =      -0.06641544 Ry

     total magnetization       =     1.33 Bohr mag/cell
     absolute magnetization    =     4.14 Bohr mag/cell

     convergence has been achieved in  58 iterations

 BEEF-vdW xc energy contributions
           1 :   -272.891940466669
           2 :    247.292110596460
           3 :   -203.757049320743
           4 :    154.045820873802
           5 :   -109.058458737898
           6 :    75.0075043499225
           7 :   -52.3440430191753
           8 :    37.4046464127575
           9 :   -25.4817201203024
          10 :    13.5541421153447
          11 :   -1.42346038117893
          12 :   -9.00862598246709
          13 :    15.5446936780758
          14 :   -17.3465854488825
          15 :    15.4712986126194
          16 :   -12.1551944944401
          17 :    9.47762181734555
          18 :   -8.32291545784994
          19 :    8.21161081783117
          20 :   -7.96749478424817
          21 :    6.67779826888818
          22 :   -4.32218177211638
          23 :    1.72324089425553
          24 :   5.319267741504063E-002
          25 :  -0.403348227333652
          26 :  -0.470887363399299
          27 :    1.75162009014957
          28 :   -2.55380275781727
          29 :    2.44798285508153
          30 :   -1.64572919440667
          31 :   -26.0723044617354
          32 :   -18.6403645368699

     Forces acting on atoms (Ry/au):

     negative rho (up, down):  1.909E-01 1.898E-01
     atom    1 type  1   force =     0.00002842    0.00002291    0.04206841
     atom    2 type  1   force =    -0.00004135   -0.00003225    0.04207128
     atom    3 type  2   force =     0.00057240    0.00037011   -0.01802428
     atom    4 type  2   force =     0.00054105    0.00041735   -0.01802507
     atom    5 type  1   force =    -0.00000102    0.00000127    0.00170430
     atom    6 type  1   force =     0.00000260    0.00000104    0.00169459
     atom    7 type  2   force =    -0.00038087   -0.00027631   -0.02576977
     atom    8 type  2   force =    -0.00038673   -0.00026771   -0.02577363
     atom    9 type  1   force =    -0.00016828   -0.00012150    0.00081522
     atom   10 type  1   force =    -0.00010144   -0.00006846    0.00082322
     atom   11 type  2   force =    -0.00008347    0.00005448   -0.00079151
     atom   12 type  2   force =     0.00001870   -0.00010093   -0.00079274

     Total force =     0.074349     Total SCF correction =     0.003318

     entering subroutine stress ...

     negative rho (up, down):  1.909E-01 1.898E-01
          total   stress  (Ry/bohr**3)                   (kbar)     P=  -22.23
  -0.00020578  -0.00002925  -0.00000132        -30.27     -4.30     -0.19
  -0.00002925  -0.00018518  -0.00000094         -4.30    -27.24     -0.14
  -0.00000132  -0.00000094  -0.00006229         -0.19     -0.14     -9.16

 !ASE

     Writing output data file calc.save

     General routines

     Parallel routines

   This run was terminated on:  19:18:24  19Dec2018

   JOB DONE.
Job  /afs/slac/g/suncat/bin/suncat-tsmpirun -x LD_LIBRARY_PATH -wdir /scratch/qe529711_2VdmK pw.x -in pw.inp

TID   HOST_NAME   COMMAND_LINE            STATUS            TERMINATION_TIME
00000 suncat0076 pw.x -in pw.inp   Done                     12/19/2018 19:18:24
00001 suncat0076 pw.x -in pw.inp   Done                     12/19/2018 19:18:24
00002 suncat0076 pw.x -in pw.inp   Done                     12/19/2018 19:18:24
00003 suncat0076 pw.x -in pw.inp   Done                     12/19/2018 19:18:24
00004 suncat0076 pw.x -in pw.inp   Done                     12/19/2018 19:18:24
00005 suncat0076 pw.x -in pw.inp   Done                     12/19/2018 19:18:24
00006 suncat0076 pw.x -in pw.inp   Done                     12/19/2018 19:18:24
00007 suncat0076 pw.x -in pw.inp   Done                     12/19/2018 19:18:24
00008 suncat0075 pw.x -in pw.inp   Done                     12/19/2018 19:18:24
00009 suncat0075 pw.x -in pw.inp   Done                     12/19/2018 19:18:24
00010 suncat0075 pw.x -in pw.inp   Done                     12/19/2018 19:18:24
00011 suncat0075 pw.x -in pw.inp   Done                     12/19/2018 19:18:24
00012 suncat0075 pw.x -in pw.inp   Done                     12/19/2018 19:18:24
00013 suncat0075 pw.x -in pw.inp   Done                     12/19/2018 19:18:24
00014 suncat0075 pw.x -in pw.inp   Done                     12/19/2018 19:18:24
00015 suncat0075 pw.x -in pw.inp   Done                     12/19/2018 19:18:24
00016 suncat0155 pw.x -in pw.inp   Done                     12/19/2018 19:18:24
00017 suncat0155 pw.x -in pw.inp   Done                     12/19/2018 19:18:24
00018 suncat0155 pw.x -in pw.inp   Done                     12/19/2018 19:18:24
00019 suncat0155 pw.x -in pw.inp   Done                     12/19/2018 19:18:24
00020 suncat0155 pw.x -in pw.inp   Done                     12/19/2018 19:18:24
00021 suncat0155 pw.x -in pw.inp   Done                     12/19/2018 19:18:24
00022 suncat0155 pw.x -in pw.inp   Done                     12/19/2018 19:18:24
00023 suncat0155 pw.x -in pw.inp   Done                     12/19/2018 19:18:24
00024 suncat0154 pw.x -in pw.inp   Done                     12/19/2018 19:18:24
00025 suncat0154 pw.x -in pw.inp   Done                     12/19/2018 19:18:24
00026 suncat0154 pw.x -in pw.inp   Done                     12/19/2018 19:18:24
00027 suncat0154 pw.x -in pw.inp   Done                     12/19/2018 19:18:24
00028 suncat0154 pw.x -in pw.inp   Done                     12/19/2018 19:18:24
00029 suncat0154 pw.x -in pw.inp   Done                     12/19/2018 19:18:24
00030 suncat0154 pw.x -in pw.inp   Done                     12/19/2018 19:18:24
00031 suncat0154 pw.x -in pw.inp   Done                     12/19/2018 19:18:24