     Program PWSCF v.5.1rc2 (svn rev. 11289) starts on 19Dec2018 at  2:34:43

     Current dimensions of program PWSCF are:
     Max number of different atomic species (ntypx) = 10
     Max number of k-points (npk) =  40000
     Max angular momentum in pseudopotentials (lmaxx) =  3
     Presently stress not available with electric field

     IMPORTANT: XC functional enforced from input :
     Exchange-correlation      = BEEF-VDW ( 1  4 27 13 2)
     Any further DFT definition will be discarded
     Please, verify this is what you really want

     Subspace diagonalization in iterative solution of the eigenvalue problem:
     a serial algorithm will be used

     Found symmetry operation: I + ( -0.5000  0.0000  0.0000)
     This is a supercell, fractional translations are disabled

     bravais-lattice index     =            0
     lattice parameter (alat)  =       1.8897  a.u.
     unit-cell volume          =    4681.0903 (a.u.)^3
     number of atoms/cell      =           12
     number of atomic types    =            2
     number of electrons       =       156.00
     number of Kohn-Sham states=          108
     kinetic-energy cutoff     =      36.7493  Ry
     charge density cutoff     =     367.4932  Ry
     convergence threshold     =      1.0E-06
     mixing beta               =       0.1000
     number of iterations used =           10  plain     mixing
     Exchange-correlation      = BEEF-VDW ( 1  4 27 13 2)
     nstep                     =           50

     celldm(1)=   1.889726  celldm(2)=   0.000000  celldm(3)=   0.000000
     celldm(4)=   0.000000  celldm(5)=   0.000000  celldm(6)=   0.000000

     crystal axes: (cart. coord. in units of alat)
               a(1) = (   5.641015   0.000000   0.000000 )
               a(2) = (  -2.820507   4.988046   0.000000 )
               a(3) = (   0.000000   0.000000  24.652598 )

     reciprocal axes: (cart. coord. in units 2 pi/alat)
               b(1) = (  0.177273  0.100240  0.000000 )
               b(2) = (  0.000000  0.200479  0.000000 )
               b(3) = (  0.000000  0.000000  0.040564 )

     PseudoPot. # 1 for Rh read from file:
     /afs/slac.stanford.edu/u/if/mamunm/psp/gbrv1.5pbe/Rh.UPF
     MD5 check sum: 761627e959a2e3a1f56b0b5fe687810e
     Pseudo is Ultrasoft + core correction, Zval = 15.0
     Generated by new atomic code, or converted to UPF format
     Using radial grid of  969 points,  7 beta functions with:
                l(1) =   0
                l(2) =   0
                l(3) =   1
                l(4) =   1
                l(5) =   2
                l(6) =   2
                l(7) =   2
     Q(r) pseudized with  8 coefficients,  rinner =    1.200   1.200   1.200
                                                       1.200   1.200

     PseudoPot. # 2 for Au read from file:
     /afs/slac.stanford.edu/u/if/mamunm/psp/gbrv1.5pbe/Au.UPF
     MD5 check sum: 9d7f43293ad2c663164586bc4b293ffc
     Pseudo is Ultrasoft + core correction, Zval = 11.0
     Generated by new atomic code, or converted to UPF format
     Using radial grid of  985 points,  7 beta functions with:
                l(1) =   0
                l(2) =   0
                l(3) =   1
                l(4) =   1
                l(5) =   2
                l(6) =   2
                l(7) =   3
     Q(r) pseudized with  6 coefficients,  rinner =    1.900   1.900   1.900
                                                       1.900   1.900   1.900
                                                       1.900

     vdW kernel table read from file vdW_kernel_table
     MD5 check sum: 095c7af220d748ca6e76c0b4c6cfb241

     atomic species   valence    mass     pseudopotential
        Rh1           15.00   102.90550     Rh( 1.00)
        Au1           11.00   196.96657     Au( 1.00)

     No symmetry found

   Cartesian axes

     site n.     atom                  positions (alat units)
         1           Rh1 tau(   1) = (   0.0000000   0.0000000  10.0000000  )
         2           Rh1 tau(   2) = (   2.8205074   0.0000000  10.0000000  )
         3           Au1 tau(   3) = (   1.4102537   2.4940232  10.0000000  )
         4           Au1 tau(   4) = (  -1.4102537   2.4940232  10.0000000  )
         5           Rh1 tau(   5) = (   2.8205074   1.5948653  12.3262989  )
         6           Rh1 tau(   6) = (  -0.0000000   1.5948653  12.3262989  )
         7           Au1 tau(   7) = (  -1.4102537   4.0888885  12.3262989  )
         8           Au1 tau(   8) = (   1.4102537   4.0888885  12.3262989  )
         9           Rh1 tau(   9) = (   0.0000000   3.1897305  14.6525979  )
        10           Rh1 tau(  10) = (   2.8205074   3.1897305  14.6525979  )
        11           Au1 tau(  11) = (   4.2307611   0.6957073  14.6525979  )
        12           Au1 tau(  12) = (   1.4102537   0.6957073  14.6525979  )

     number of k points=    20  Fermi-Dirac smearing, width (Ry)=  0.0110
                       cart. coord. in units 2pi/alat
        k(    1) = (   0.0000000   0.0000000   0.0000000), wk =   0.0555556
        k(    2) = (   0.0000000   0.0334132   0.0000000), wk =   0.1111111
        k(    3) = (   0.0000000   0.0668264   0.0000000), wk =   0.1111111
        k(    4) = (   0.0000000  -0.1002396   0.0000000), wk =   0.0555556
        k(    5) = (   0.0295455   0.0167066   0.0000000), wk =   0.1111111
        k(    6) = (   0.0295455   0.0501198   0.0000000), wk =   0.1111111
        k(    7) = (   0.0295455   0.0835330   0.0000000), wk =   0.1111111
        k(    8) = (   0.0295455  -0.0835330   0.0000000), wk =   0.1111111
        k(    9) = (   0.0295455  -0.0501198   0.0000000), wk =   0.1111111
        k(   10) = (   0.0295455  -0.0167066   0.0000000), wk =   0.1111111
        k(   11) = (   0.0590910   0.0334132   0.0000000), wk =   0.1111111
        k(   12) = (   0.0590910   0.0668264   0.0000000), wk =   0.1111111
        k(   13) = (   0.0590910   0.1002396   0.0000000), wk =   0.1111111
        k(   14) = (   0.0590910  -0.0668264   0.0000000), wk =   0.1111111
        k(   15) = (   0.0590910  -0.0334132   0.0000000), wk =   0.1111111
        k(   16) = (   0.0590910   0.0000000   0.0000000), wk =   0.1111111
        k(   17) = (  -0.0886365  -0.0501198   0.0000000), wk =   0.0555556
        k(   18) = (  -0.0886365  -0.0167066   0.0000000), wk =   0.1111111
        k(   19) = (  -0.0886365   0.0167066   0.0000000), wk =   0.1111111
        k(   20) = (  -0.0886365  -0.1503595   0.0000000), wk =   0.0555556

     Largest allocated arrays     est. size (Mb)     dimensions
     Largest temporary arrays     est. size (Mb)     dimensions

     Check: negative/imaginary core charge=   -0.000002    0.000000

     Initial potential from superposition of free atoms
     Check: negative starting charge=   -0.325538

     starting charge  152.99868, renormalised to  156.00000

     negative rho (up, down):  3.319E-01 0.000E+00

     *
     * You are using vdW-DF for exchange-correlation in this calculation.
     * Please cite the following three references that made this development
     * possible:
     *
     *   M. Dion, H. Rydberg, E. Schroder, D. C. Langreth, and
     *   B. I. Lundqvist, Phys. Rev. Lett. 92, 246401 (2004).
     *
     *   T. Thonhauser, V. R. Cooper, S. Li, A. Puzder, P. Hyldgaard, and
     *   D. C. Langreth, Phys. Rev. B 76, 125112 (2007).
     *
     *   G. Roman-Perez and J. M. Soler, Phys. Rev. Lett. 103, 096102 (2009).
     *
     *
     * If you are using vdW-DF2, please also cite:
     *
     *   K. Lee, E. D. Murray, L. Kong, B. I. Lundqvist, and
     *   D. C. Langreth, Phys. Rev. B 82, 081101(R) (2010).
     *
     *
     * If you are calculating the stress with vdW-DF, please also cite:
     *
     *   R. Sabatini, E. Kucukbenli, B. Kolb, T. Thonhauser, and
     *   S. de Gironcoli, J. Phys.: Condens. Matter 24, 424209 (2012).
     *

     Carrying out vdW-DF run using the following parameters:

     Nqs =      20    Nr_points =    1024   r_max =   100.000
     q_mesh =
               0.00001000     0.04494208     0.09755937     0.15916263
               0.23128650     0.31572767     0.41458969     0.53033537
               0.66584808     0.82450364     1.01025438     1.22772762
               1.48234092     1.78043706     2.12944203     2.53805004
               3.01644009     3.57652955     4.23227104     5.00000000

     Gradients computed in reciprocal space

     Adding external electric field

     Computed dipole along edir(3) :
        Dipole                0.0000 Ry au,          0.0000 Debye
        Dipole field          0.0000 Ry au

        Potential amp.       -0.0000 Ry
        Total length         45.4220 bohr

     Starting wfc are  126 randomized atomic wfcs

     Self-consistent Calculation

     iteration #  1     ecut=    36.75 Ry     beta=0.10
     Davidson diagonalization with overlap
     ethr =  1.00E-02,  avg # of iterations =  8.2

[...]

     total energy              =   -1733.20802259 Ry
     Harris-Foulkes estimate   =   -1733.97144435 Ry
     estimated scf accuracy    <       4.43945708 Ry

[...]

     End of self-consistent calculation

          k = 0.0000 0.0000 0.0000 ( 17669 PWs)   bands (ev):

   -45.3791 -45.3716 -45.3488 -45.2419 -45.2410 -45.2080 -45.1855 -45.1479
   -45.0573 -45.0461 -45.0351 -45.0245 -45.0117 -45.0115 -44.9225 -44.9135
   -44.9000 -44.8919  -6.8378  -5.5300  -5.3686  -5.2198  -4.9939  -4.9426
    -4.8687  -4.8011  -4.6952  -4.5991  -4.5765  -4.5403  -4.3375  -4.3026
    -4.0214  -3.7889  -3.3959  -3.3865  -3.3241  -3.2178  -3.0353  -2.8741
    -2.8499  -2.8446  -2.6950  -2.5797  -2.4696  -2.4202  -2.4031  -1.9853
    -1.8461  -1.7441  -1.7429  -1.6285  -1.3122  -1.0596  -1.0557  -1.0158
    -0.8476  -0.7785  -0.5706  -0.5391  -0.3890  -0.1686  -0.1174  -0.0977
     0.0011   0.0872   0.1229   0.3737   0.3930   0.4765   0.4784   0.5840
     0.7416   0.7460   0.7849   0.8503   0.9242   0.9952   1.0617   1.1833
     1.4459   1.7251   2.0596   2.2497   2.4277   3.3761   3.4179   3.4546
     3.6206   3.6717   3.8964   5.1328   5.3951   5.4949   5.7218   5.9445
     6.4415   6.5097   6.9117   6.9252   7.4323   7.6516   7.7437   7.8355
     8.6145   9.1152   9.7413   9.8307

[...]

          k =-0.0886-0.0501 0.0000 ( 17610 PWs)   bands (ev):

[...]

     the Fermi energy is     0.6955 ev

!    total energy              =   -1733.25713685 Ry
     Harris-Foulkes estimate   =   -1733.25713588 Ry
     estimated scf accuracy    <       0.00000043 Ry

     The total energy is the sum of the following terms:

     one-electron contribution =  -12677.37651121 Ry
     hartree contribution      =    6407.26961856 Ry
     xc contribution           =    -570.06209652 Ry
     ewald contribution        =    5107.02326243 Ry
     electric field correction =       0.00000000 Ry
     smearing contrib. (-TS)   =      -0.11141011 Ry

     convergence has been achieved in  19 iterations

 BEEF-vdW xc energy contributions
           1 :   -505.386984075121
           2 :    467.990491253610
           3 :   -401.881848418648
           4 :    321.148353348201
           5 :   -240.608388171725
           6 :    171.646523911847
           7 :   -119.904698768493
[...]

   This run was terminated on:   3: 1:56  19Dec2018

[...]

     Program PWSCF v.5.1rc2 (svn rev. 11289) starts on 19Dec2018 at  3: 2: 2

[...]

     Found symmetry operation: I + ( -0.5000  0.0000  0.0000)
     This is a supercell, fractional translations are disabled

[...]

   This run was terminated on:   3: 7:20  19Dec2018

[...]

     Program PWSCF v.5.1rc2 (svn rev. 11289) starts on 19Dec2018 at  3: 7:25

[...]

   This run was terminated on:   3:18:25  19Dec2018

[...]

     Program PWSCF v.5.1rc2 (svn rev. 11289) starts on 19Dec2018 at  3:18:31

     Current dimensions of program PWSCF are:
     Max number of different atomic species (ntypx) = 10
     Max number of k-points (npk) =  40000
     Max angular momentum in pseudopotentials (lmaxx) =  3
     Presently stress not available with electric field

     IMPORTANT: XC functional enforced from input :
     Exchange-correlation      = BEEF-VDW ( 1  4 27 13 2)
     Any further DFT definition will be discarded
     Please, verify this is what you really want

     Subspace diagonalization in iterative solution of the eigenvalue problem:
     a serial algorithm will be used

     bravais-lattice index     =            0
     lattice parameter (alat)  =       1.8897  a.u.
     unit-cell volume          =    4681.0903 (a.u.)^3
     number of atoms/cell      =           12
     number of atomic types    =            2
     number of electrons       =       156.00
     number of Kohn-Sham states=          108
     kinetic-energy cutoff     =      36.7493  Ry
     charge density cutoff     =     367.4932  Ry
     convergence threshold     =      1.0E-06
     mixing beta               =       0.1000
     number of iterations used =           10  plain     mixing
     Exchange-correlation      = BEEF-VDW ( 1  4 27 13 2)
     nstep                     =           50

     celldm(1)=   1.889726  celldm(2)=   0.000000  celldm(3)=   0.000000
     celldm(4)=   0.000000  celldm(5)=   0.000000  celldm(6)=   0.000000

     crystal axes: (cart. coord. in units of alat)
               a(1) = (   5.641015   0.000000   0.000000 )
               a(2) = (  -2.820507   4.988046   0.000000 )
               a(3) = (   0.000000   0.000000  24.652598 )

     reciprocal axes: (cart. coord. in units 2 pi/alat)
               b(1) = (  0.177273  0.100240  0.000000 )
               b(2) = (  0.000000  0.200479  0.000000 )
               b(3) = (  0.000000  0.000000  0.040564 )

     PseudoPot. # 1 for Rh read from file:
     /afs/slac.stanford.edu/u/if/mamunm/psp/gbrv1.5pbe/Rh.UPF
     MD5 check sum: 761627e959a2e3a1f56b0b5fe687810e
     Pseudo is Ultrasoft + core correction, Zval = 15.0
     Generated by new atomic code, or converted to UPF format
     Using radial grid of  969 points,  7 beta functions with:
                l(1) =   0
                l(2) =   0
                l(3) =   1
                l(4) =   1
                l(5) =   2
                l(6) =   2
                l(7) =   2
     Q(r) pseudized with  8 coefficients,  rinner =    1.200   1.200   1.200
                                                       1.200   1.200

     PseudoPot. # 2 for Au read from file:
     /afs/slac.stanford.edu/u/if/mamunm/psp/gbrv1.5pbe/Au.UPF
     MD5 check sum: 9d7f43293ad2c663164586bc4b293ffc
     Pseudo is Ultrasoft + core correction, Zval = 11.0
     Generated by new atomic code, or converted to UPF format
     Using radial grid of  985 points,  7 beta functions with:
                l(1) =   0
                l(2) =   0
                l(3) =   1
                l(4) =   1
                l(5) =   2
                l(6) =   2
                l(7) =   3
     Q(r) pseudized with  6 coefficients,  rinner =    1.900   1.900   1.900
                                                       1.900   1.900   1.900
                                                       1.900

     vdW kernel table read from file vdW_kernel_table
     MD5 check sum: 095c7af220d748ca6e76c0b4c6cfb241

     atomic species   valence    mass     pseudopotential
        Rh1           15.00   102.90550     Rh( 1.00)
        Au1           11.00   196.96657     Au( 1.00)

     No symmetry found

   Cartesian axes

     site n.     atom                  positions (alat units)
         1           Rh1 tau(   1) = (   0.0000000   0.0000000  10.0000000  )
         2           Rh1 tau(   2) = (   2.8205074   0.0000000  10.0000000  )
         3           Au1 tau(   3) = (   1.4102537   2.4940232  10.0000000  )
         4           Au1 tau(   4) = (  -1.4102537   2.4940232  10.0000000  )
         5           Rh1 tau(   5) = (   2.8205074   1.5948653  12.3262989  )
         6           Rh1 tau(   6) = (  -0.0000000   1.5948653  12.3262989  )
         7           Au1 tau(   7) = (  -1.4102537   4.0888885  12.3262989  )
         8           Au1 tau(   8) = (   1.4102537   4.0888885  12.3262989  )
         9           Rh1 tau(   9) = (  -0.0000341   2.9617472  14.5595618  )
        10           Rh1 tau(  10) = (   2.8205288   2.9611114  14.5596208  )
        11           Au1 tau(  11) = (   4.2298454   0.5151494  14.8263517  )
        12           Au1 tau(  12) = (   1.4111641   0.5152169  14.8262538  )

     number of k points=    20  Fermi-Dirac smearing, width (Ry)=  0.0110
                       cart. coord. in units 2pi/alat
        k(    1) = (   0.0000000   0.0000000   0.0000000), wk =   0.0555556
        k(    2) = (   0.0000000   0.0334132   0.0000000), wk =   0.1111111
        k(    3) = (   0.0000000   0.0668264   0.0000000), wk =   0.1111111
        k(    4) = (   0.0000000  -0.1002396   0.0000000), wk =   0.0555556
        k(    5) = (   0.0295455   0.0167066   0.0000000), wk =   0.1111111
        k(    6) = (   0.0295455   0.0501198   0.0000000), wk =   0.1111111
        k(    7) = (   0.0295455   0.0835330   0.0000000), wk =   0.1111111
        k(    8) = (   0.0295455  -0.0835330   0.0000000), wk =   0.1111111
        k(    9) = (   0.0295455  -0.0501198   0.0000000), wk =   0.1111111
        k(   10) = (   0.0295455  -0.0167066   0.0000000), wk =   0.1111111
        k(   11) = (   0.0590910   0.0334132   0.0000000), wk =   0.1111111
        k(   12) = (   0.0590910   0.0668264   0.0000000), wk =   0.1111111
        k(   13) = (   0.0590910   0.1002396   0.0000000), wk =   0.1111111
        k(   14) = (   0.0590910  -0.0668264   0.0000000), wk =   0.1111111
        k(   15) = (   0.0590910  -0.0334132   0.0000000), wk =   0.1111111
        k(   16) = (   0.0590910   0.0000000   0.0000000), wk =   0.1111111
        k(   17) = (  -0.0886365  -0.0501198   0.0000000), wk =   0.0555556
        k(   18) = (  -0.0886365  -0.0167066   0.0000000), wk =   0.1111111
        k(   19) = (  -0.0886365   0.0167066   0.0000000), wk =   0.1111111
        k(   20) = (  -0.0886365  -0.1503595   0.0000000), wk =   0.0555556

     Largest allocated arrays     est. size (Mb)     dimensions
     Largest temporary arrays     est. size (Mb)     dimensions

     Check: negative/imaginary core charge=   -0.000001    0.000000

     Initial potential from superposition of free atoms
     Check: negative starting charge=   -0.327044

     starting charge  152.99868, renormalised to  156.00000

[...]

     *
     * You are using vdW-DF for exchange-correlation in this calculation.
     * Please cite the following three references that made this development
     * possible:
     *
     *   M. Dion, H. Rydberg, E. Schroder, D. C. Langreth, and
     *   B. I. Lundqvist, Phys. Rev. Lett. 92, 246401 (2004).
     *
     *   T. Thonhauser, V. R. Cooper, S. Li, A. Puzder, P. Hyldgaard, and
     *   D. C. Langreth, Phys. Rev. B 76, 125112 (2007).
     *
     *   G. Roman-Perez and J. M. Soler, Phys. Rev. Lett. 103, 096102 (2009).
     *
     *
     * If you are using vdW-DF2, please also cite:
     *
     *   K. Lee, E. D. Murray, L. Kong, B. I. Lundqvist, and
     *   D. C. Langreth, Phys. Rev. B 82, 081101(R) (2010).
     *
     *
     * If you are calculating the stress with vdW-DF, please also cite:
     *
     *   R. Sabatini, E. Kucukbenli, B. Kolb, T. Thonhauser, and
     *   S. de Gironcoli, J. Phys.: Condens. Matter 24, 424209 (2012).
     *

     Carrying out vdW-DF run using the following parameters:

     Nqs =      20    Nr_points =    1024   r_max =   100.000
     q_mesh =
               0.00001000     0.04494208     0.09755937     0.15916263
               0.23128650     0.31572767     0.41458969     0.53033537
               0.66584808     0.82450364     1.01025438     1.22772762
               1.48234092     1.78043706     2.12944203     2.53805004
               3.01644009     3.57652955     4.23227104     5.00000000

     Gradients computed in reciprocal space

[...]

     Starting wfc are  126 randomized atomic wfcs

     Self-consistent Calculation

[...]

     total energy              =   -1733.26815790 Ry
     Harris-Foulkes estimate   =   -1733.26815731 Ry
     estimated scf accuracy    <       0.00000114 Ry

     iteration # 19     ecut=    36.75 Ry     beta=0.10
     Davidson diagonalization with overlap
     ethr =  7.30E-10,  avg # of iterations =  2.0

[...]

     negative rho (up, down):  3.348E-01 0.000E+00

     Adding external electric field

     Computed dipole along edir(3) :
        Dipole               -0.0100 Ry au,         -0.0254 Debye
        Dipole field         -0.0000 Ry au

        Potential amp.        0.0024 Ry
        Total length         45.4220 bohr

     End of self-consistent calculation

[...]

          k = 0.0591 0.0000 0.0000 ( 17628 PWs)   bands (ev):

[...]

          k =-0.0886-0.1504 0.0000 ( 17610 PWs)   bands (ev):

   -45.5337 -45.5332 -45.3140 -45.3137 -45.2295 -45.2291 -45.2236 -45.2235
   -45.1651 -45.1650 -45.1454 -45.1453 -45.0676 -45.0675 -45.0536 -45.0536
   -44.9186 -44.9185  -5.2601  -5.2595  -4.4690  -4.4685  -4.2693  -4.2691
    -4.1917  -4.1913  -3.9807  -3.9800  -3.9079  -3.9073  -3.7712  -3.7703
    -3.6420  -3.6410  -3.3366  -3.3362  -3.2582  -3.2560  -3.0433  -3.0428
    -3.0247  -3.0229  -2.9169  -2.9128  -2.8461  -2.8453  -2.6668  -2.6642
    -2.5554  -2.5542  -2.3604  -2.3587  -1.7650  -1.7644  -1.5592  -1.5586
    -1.1033  -1.1033  -1.0326  -1.0318  -0.7223  -0.7221  -0.5849  -0.5847
    -0.4902  -0.4888  -0.4440  -0.4438  -0.3874  -0.3863  -0.3329  -0.3323
    -0.1546  -0.1545   0.2002   0.2002   0.3112   0.3115   0.5549   0.5550
     0.8129   0.8132   2.0332   2.0342   2.6533   2.6536   3.5408   3.5414
     4.8045   4.8058   5.4615   5.4619   6.5888   6.5889   7.2221   7.2222
     7.2746   7.2747   8.1416   8.1420   8.2447   8.2458   8.4855   8.4856
     8.7180   8.7185   9.0542   9.0550

     the Fermi energy is     0.6643 ev

!    total energy              =   -1733.26815893 Ry
     Harris-Foulkes estimate   =   -1733.26815800 Ry
     estimated scf accuracy    <       0.00000047 Ry

     The total energy is the sum of the following terms:

     one-electron contribution =  -12638.01991132 Ry
     hartree contribution      =    6387.39370211 Ry
     xc contribution           =    -570.02586922 Ry
     ewald contribution        =    5087.49014894 Ry
     electric field correction =       0.00000027 Ry
     smearing contrib. (-TS)   =      -0.10622971 Ry

     convergence has been achieved in  19 iterations

 BEEF-vdW xc energy contributions
           1 :   -505.346105542050
           2 :    467.911516422490
           3 :   -401.753120913641
           4 :    320.991346806334
           5 :   -240.464265945435
           6 :    171.552738759918
           7 :   -119.873318463347
           8 :    85.2563215797488
           9 :   -63.6025861850518
          10 :    49.5633140170504
          11 :   -38.8597831121607
          12 :    29.4086456879766
          13 :   -21.1128588524418
          14 :    14.7837769392941
          15 :   -10.9594201401098
          16 :    9.24035026470585
          17 :   -8.38162675026160
          18 :    6.94374640405476
          19 :   -4.05751995465994
          20 :  -0.148505825359734
          21 :    4.66502737285282
          22 :   -8.16221549145166
          23 :    9.66615250904511
          24 :   -9.00599463575122
          25 :    6.83512123507603
          26 :   -4.26483146202281
          27 :    2.32953552867502
          28 :   -1.56355711489675
          29 :    1.87662834168759
          30 :   -2.74507965423277
          31 :   -43.0655959149879
          32 :   -31.6978864163489

     Forces acting on atoms (Ry/au):

     negative rho (up, down):  3.348E-01 0.000E+00
     atom    1 type  1   force =     0.00000043    0.01011189    0.01390820
     atom    2 type  1   force =     0.00000035    0.01011308    0.01389443
     atom    3 type  2   force =    -0.00000301   -0.00743965   -0.02209338
     atom    4 type  2   force =     0.00000386   -0.00744051   -0.02209380
     atom    5 type  1   force =     0.00000241   -0.01104368    0.00645501
     atom    6 type  1   force =    -0.00000217   -0.01105755    0.00652296
     atom    7 type  2   force =    -0.00002728    0.00808937    0.00379775
     atom    8 type  2   force =     0.00002667    0.00808940    0.00380808
     atom    9 type  1   force =     0.00000149    0.00025743   -0.00081977
     atom   10 type  1   force =    -0.00000001    0.00060979   -0.00083709
     atom   11 type  2   force =     0.00049954   -0.00014240   -0.00127719
     atom   12 type  2   force =    -0.00050228   -0.00014718   -0.00126520

     Total force =     0.046603     Total SCF correction =     0.002287

     entering subroutine stress ...

     negative rho (up, down):  3.348E-01 0.000E+00
          total   stress  (Ry/bohr**3)                   (kbar)     P=  -24.15
  -0.00022397   0.00000000   0.00000000        -32.95      0.00      0.00
   0.00000000  -0.00020370  -0.00000323          0.00    -29.97     -0.48
   0.00000000  -0.00000323  -0.00006477          0.00     -0.48     -9.53

 !ASE

     Writing output data file calc.save

     General routines

     Parallel routines

   This run was terminated on:   3:24: 6  19Dec2018

   JOB DONE.
Job  /afs/slac/g/suncat/bin/suncat-tsmpirun -x LD_LIBRARY_PATH -wdir /scratch/qe530459_aESUk pw.x -in pw.inp

TID   HOST_NAME   COMMAND_LINE            STATUS            TERMINATION_TIME
00000 suncat2056 pw.x -in pw.inp   Done                     12/19/2018 03:24:06
00001 suncat2056 pw.x -in pw.inp   Done                     12/19/2018 03:24:06
00002 suncat2056 pw.x -in pw.inp   Done                     12/19/2018 03:24:06
00003 suncat2056 pw.x -in pw.inp   Done                     12/19/2018 03:24:06
00004 suncat2056 pw.x -in pw.inp   Done                     12/19/2018 03:24:06
00005 suncat2056 pw.x -in pw.inp   Done                     12/19/2018 03:24:06
00006 suncat2056 pw.x -in pw.inp   Done                     12/19/2018 03:24:06
00007 suncat2056 pw.x -in pw.inp   Done                     12/19/2018 03:24:06
00008 suncat2056 pw.x -in pw.inp   Done                     12/19/2018 03:24:06
00009 suncat2056 pw.x -in pw.inp   Done                     12/19/2018 03:24:06
00010 suncat2056 pw.x -in pw.inp   Done                     12/19/2018 03:24:06
00011 suncat2056 pw.x -in pw.inp   Done                     12/19/2018 03:24:06
00012 suncat2056 pw.x -in pw.inp   Done                     12/19/2018 03:24:06
00013 suncat2056 pw.x -in pw.inp   Done                     12/19/2018 03:24:06
00014 suncat2056 pw.x -in pw.inp   Done                     12/19/2018 03:24:06
00015 suncat2056 pw.x -in pw.inp   Done                     12/19/2018 03:24:06
00016 suncat2055 pw.x -in pw.inp   Done                     12/19/2018 03:24:06
00017 suncat2055 pw.x -in pw.inp   Done                     12/19/2018 03:24:06
00018 suncat2055 pw.x -in pw.inp   Done                     12/19/2018 03:24:06
00019 suncat2055 pw.x -in pw.inp   Done                     12/19/2018 03:24:06
00020 suncat2055 pw.x -in pw.inp   Done                     12/19/2018 03:24:06
00021 suncat2055 pw.x -in pw.inp   Done                     12/19/2018 03:24:06
00022 suncat2055 pw.x -in pw.inp   Done                     12/19/2018 03:24:06
00023 suncat2055 pw.x -in pw.inp   Done                     12/19/2018 03:24:06
00024 suncat2055 pw.x -in pw.inp   Done                     12/19/2018 03:24:06
00025 suncat2055 pw.x -in pw.inp   Done                     12/19/2018 03:24:06
00026 suncat2055 pw.x -in pw.inp   Done                     12/19/2018 03:24:06
00027 suncat2055 pw.x -in pw.inp   Done                     12/19/2018 03:24:06
00028 suncat2055 pw.x -in pw.inp   Done                     12/19/2018 03:24:06
00029 suncat2055 pw.x -in pw.inp   Done                     12/19/2018 03:24:06
00030 suncat2055 pw.x -in pw.inp   Done                     12/19/2018 03:24:06
00031 suncat2055 pw.x -in pw.inp   Done                     12/19/2018 03:24:06