     Program PWSCF v.5.1rc2 (svn rev. 11289) starts on 19Dec2018 at  2:37:53

     Current dimensions of program PWSCF are:
     Max number of different atomic species (ntypx) = 10
     Max number of k-points (npk) =  40000
     Max angular momentum in pseudopotentials (lmaxx) =  3
     Presently stress not available with electric field

     IMPORTANT: XC functional enforced from input :
     Exchange-correlation      = BEEF-VDW ( 1  4 27 13 2)
     Any further DFT definition will be discarded
     Please, verify this is what you really want

     Subspace diagonalization in iterative solution of the eigenvalue problem:
     a serial algorithm will be used

     Found symmetry operation: I + (  0.5000  0.5000  0.0000)
     This is a supercell, fractional translations are disabled

     bravais-lattice index     =            0
     lattice parameter (alat)  =       1.8897  a.u.
     unit-cell volume          =    4983.6542 (a.u.)^3
     number of atoms/cell      =           12
     number of atomic types    =            2
     number of electrons       =       162.00
     number of Kohn-Sham states=          111
     kinetic-energy cutoff     =      36.7493  Ry
     charge density cutoff     =     367.4932  Ry
     convergence threshold     =      1.0E-06
     mixing beta               =       0.1000
     number of iterations used =           10  plain     mixing
     Exchange-correlation      = BEEF-VDW ( 1  4 27 13 2)
     nstep                     =           50

     celldm(1)=   1.889726  celldm(2)=   0.000000  celldm(3)=   0.000000
     celldm(4)=   0.000000  celldm(5)=   0.000000  celldm(6)=   0.000000

     crystal axes: (cart. coord. in units of alat)
               a(1) = (   5.642050   0.000000   0.000000 )
               a(2) = (   1.880682   5.319376   0.000000 )
               a(3) = (   0.000000   0.000000  24.606714 )

     reciprocal axes: (cart. coord. in units 2 pi/alat)
               b(1) = (  0.177241 -0.062664  0.000000 )
               b(2) = (  0.000000  0.187992  0.000000 )
               b(3) = (  0.000000  0.000000  0.040639 )

     PseudoPot. # 1 for Rh read from file:
     /afs/slac.stanford.edu/u/if/mamunm/psp/gbrv1.5pbe/Rh.UPF
     MD5 check sum: 761627e959a2e3a1f56b0b5fe687810e
     Pseudo is Ultrasoft + core correction, Zval = 15.0
     Generated by new atomic code, or converted to UPF format
     Using radial grid of  969 points,  7 beta functions with:
                l(1) =   0
                l(2) =   0
                l(3) =   1
                l(4) =   1
                l(5) =   2
                l(6) =   2
                l(7) =   2
     Q(r) pseudized with  8 coefficients,  rinner =    1.200   1.200   1.200
                                                       1.200   1.200

     PseudoPot. # 2 for Cd read from file:
     /afs/slac.stanford.edu/u/if/mamunm/psp/gbrv1.5pbe/Cd.UPF
     MD5 check sum: 17164a7926edb8e0dc231208abae86a6
     Pseudo is Ultrasoft + core correction, Zval = 12.0
     Generated by new atomic code, or converted to UPF format
     Using radial grid of  889 points,  6 beta functions with:
                l(1) =   0
                l(2) =   0
                l(3) =   1
                l(4) =   1
                l(5) =   2
                l(6) =   2
     Q(r) pseudized with  6 coefficients,  rinner =    1.000   1.000   1.000
                                                       1.000   1.000

     vdW kernel table read from file vdW_kernel_table
     MD5 check sum: 095c7af220d748ca6e76c0b4c6cfb241

     atomic species   valence    mass     pseudopotential
        Rh1           15.00   102.90550     Rh( 1.00)
        Cd1           12.00   112.41400     Cd( 1.00)

     No symmetry found

   Cartesian axes

     site n.     atom                  positions (alat units)
         1           Rh1 tau(   1) = (   0.0000000   0.0000000  10.0000000  )
         2           Rh1 tau(   2) = (   3.7613663   2.6596882  10.0000000  )
         3           Cd1 tau(   3) = (   2.8210251   0.0000000  10.0000000  )
         4           Cd1 tau(   4) = (   0.9403412   2.6596882  10.0000000  )
         5           Rh1 tau(   5) = (   5.6420503   3.9895329  12.3033572  )
         6           Rh1 tau(   6) = (   1.8806840   1.3298447  12.3033572  )
         7           Cd1 tau(   7) = (   2.8210251   3.9895329  12.3033572  )
         8           Cd1 tau(   8) = (   4.7017091   1.3298447  12.3033572  )
         9           Rh1 tau(   9) = (   3.7613679   2.6596894  14.6067144  )
        10           Rh1 tau(  10) = (   0.0000016   0.0000012  14.6067144  )
        11           Cd1 tau(  11) = (   0.9403428   2.6596894  14.6067144  )
        12           Cd1 tau(  12) = (   2.8210268   0.0000012  14.6067144  )

     number of k points=    20  Fermi-Dirac smearing, width (Ry)=  0.0110
                       cart. coord. in units 2pi/alat
        k(    1) = (   0.0000000   0.0000000   0.0000000), wk =   0.0555556
        k(    2) = (   0.0000000   0.0313320   0.0000000), wk =   0.1111111
        k(    3) = (   0.0000000   0.0626640   0.0000000), wk =   0.1111111
        k(    4) = (   0.0000000  -0.0939960   0.0000000), wk =   0.0555556
        k(    5) = (   0.0295401  -0.0104440   0.0000000), wk =   0.1111111
        k(    6) = (   0.0295401   0.0208880   0.0000000), wk =   0.1111111
        k(    7) = (   0.0295401   0.0522200   0.0000000), wk =   0.1111111
        k(    8) = (   0.0295401  -0.1044400   0.0000000), wk =   0.1111111
        k(    9) = (   0.0295401  -0.0731080   0.0000000), wk =   0.1111111
        k(   10) = (   0.0295401  -0.0417760   0.0000000), wk =   0.1111111
        k(   11) = (   0.0590802  -0.0208880   0.0000000), wk =   0.1111111
        k(   12) = (   0.0590802   0.0104440   0.0000000), wk =   0.1111111
        k(   13) = (   0.0590802   0.0417760   0.0000000), wk =   0.1111111
        k(   14) = (   0.0590802  -0.1148840   0.0000000), wk =   0.1111111
        k(   15) = (   0.0590802  -0.0835520   0.0000000), wk =   0.1111111
        k(   16) = (   0.0590802  -0.0522200   0.0000000), wk =   0.1111111
        k(   17) = (  -0.0886203   0.0313320   0.0000000), wk =   0.0555556
        k(   18) = (  -0.0886203   0.0626640   0.0000000), wk =   0.1111111
        k(   19) = (  -0.0886203   0.0939960   0.0000000), wk =   0.1111111
        k(   20) = (  -0.0886203  -0.0626640   0.0000000), wk =   0.0555556

     Largest allocated arrays     est. size (Mb)     dimensions
     Largest temporary arrays     est. size (Mb)     dimensions

     Initial potential from superposition of free atoms
     Check: negative starting charge=   -0.454266

     starting charge  155.99916, renormalised to  162.00000

     negative rho (up, down):  4.717E-01 0.000E+00

     *
     * You are using vdW-DF for exchange-correlation in this calculation.
     * Please cite the following three references that made this development
     * possible:
     *
     *   M. Dion, H. Rydberg, E. Schroder, D. C. Langreth, and
     *   B. I. Lundqvist, Phys. Rev. Lett. 92, 246401 (2004).
     *
     *   T. Thonhauser, V. R. Cooper, S. Li, A. Puzder, P. Hyldgaard, and
     *   D. C. Langreth, Phys. Rev. B 76, 125112 (2007).
     *
     *   G. Roman-Perez and J. M. Soler, Phys. Rev. Lett. 103, 096102 (2009).
     *
     *
     * If you are using vdW-DF2, please also cite:
     *
     *   K. Lee, E. D. Murray, L. Kong, B. I. Lundqvist, and
     *   D. C. Langreth, Phys. Rev. B 82, 081101(R) (2010).
     *
     *
     * If you are calculating the stress with vdW-DF, please also cite:
     *
     *   R. Sabatini, E. Kucukbenli, B. Kolb, T. Thonhauser, and
     *   S. de Gironcoli, J. Phys.: Condens. Matter 24, 424209 (2012).
     *

     Carrying out vdW-DF run using the following parameters:

     Nqs =      20    Nr_points =    1024   r_max =   100.000
     q_mesh =
               0.00001000     0.04494208     0.09755937     0.15916263
               0.23128650     0.31572767     0.41458969     0.53033537
               0.66584808     0.82450364     1.01025438     1.22772762
               1.48234092     1.78043706     2.12944203     2.53805004
               3.01644009     3.57652955     4.23227104     5.00000000

     Gradients computed in reciprocal space

     Adding external electric field

     Computed dipole along edir(3) :
        Dipole               -0.0000 Ry au,         -0.0000 Debye
        Dipole field         -0.0000 Ry au

        Potential amp.        0.0000 Ry
        Total length         45.3375 bohr

     Starting wfc are  126 randomized atomic wfcs

     Self-consistent Calculation

     iteration #  1     ecut=    36.75 Ry     beta=0.10
     Davidson diagonalization with overlap
     ethr =  1.00E-02,  avg # of iterations =  7.5

[...]

     total energy              =   -1729.81994467 Ry
     Harris-Foulkes estimate   =   -1730.55284838 Ry
     estimated scf accuracy    <       4.50893365 Ry

[...]

     End of self-consistent calculation

          k = 0.0000 0.0000 0.0000 ( 18767 PWs)   bands (ev):

   -44.7737 -44.7729 -44.7701 -44.7663 -44.7623 -44.7244 -44.5812 -44.5810
   -44.5400 -44.5388 -44.5360 -44.5345 -44.5336 -44.5335 -44.4596 -44.4582
   -44.4552 -44.4540  -7.9173  -7.8840  -7.8782  -7.8448  -7.8368  -7.7900
    -7.7605  -7.7031  -7.5971  -7.5767  -7.5721  -7.5491  -7.5298  -7.5099
    -7.5067  -7.4875  -7.4847  -7.4811  -7.4461  -7.4075  -7.3954  -7.3951
    -7.2873  -7.2599  -7.2575  -7.1713  -7.1027  -6.9971  -6.9245  -6.8931
    -6.2541  -4.4672  -2.9327  -2.8227  -2.5814  -2.4201  -1.2430  -1.1095
    -1.0559  -1.0125  -1.0061  -0.9123  -0.8633  -0.6664  -0.4793  -0.3609
    -0.2843  -0.2712  -0.1333  -0.0951  -0.0144   0.0343   0.1946   0.2251
     0.2824   0.4156   0.4375   0.4572   0.4632   0.4990   0.5202   0.5961
     0.8455   1.1869   1.2354   1.5243   1.6879   1.9006   2.0848   2.1261
     2.1421   4.0891   4.2957   4.4563   4.5848   4.8873   5.2254   5.4541
     5.6521   5.8108   6.2481   6.3775   6.4332   6.6388   7.0335   7.0804
     7.5352   7.6960   8.2080   8.4326   8.5932   8.6957   8.7354

[...]

          k =-0.0886 0.0313 0.0000 ( 18768 PWs)   bands (ev):

[...]

     the Fermi energy is     0.6900 ev

!    total energy              =   -1729.69856818 Ry
     Harris-Foulkes estimate   =   -1729.69858076 Ry
     estimated scf accuracy    <       0.00000023 Ry

     The total energy is the sum of the following terms:

     one-electron contribution =  -13010.68317276 Ry
     hartree contribution      =    6575.52993111 Ry
     xc contribution           =    -431.52061230 Ry
     ewald contribution        =    5137.05336681 Ry
     electric field correction =       0.00000000 Ry
     smearing contrib. (-TS)   =      -0.07808104 Ry

     convergence has been achieved in  16 iterations

 BEEF-vdW xc energy contributions
           1 :   -377.130043341535
           2 :    345.463222922504
           3 :   -291.516373218893
           4 :    229.912259271424
           5 :   -174.628085299954
           6 :    134.218074587308
           7 :   -109.999554099244
           8 :    97.5036151080961
           9 :   -89.9803266389206
          10 :    82.0040918323887
          11 :   -71.5134438439731
[...]
00029 suncat2045 pw.x -in pw.inp   Done                     12/19/2018 02:42:20
00030 suncat2045 pw.x -in pw.inp   Done                     12/19/2018 02:42:20
00031 suncat2045 pw.x -in pw.inp   Done                     12/19/2018 02:42:20

[...]

     Found symmetry operation: I + (  0.5000  0.5000  0.0000)
     This is a supercell, fractional translations are disabled

[...]

   This run was terminated on:   2:47: 2  19Dec2018

[...]

     Program PWSCF v.5.1rc2 (svn rev. 11289) starts on 19Dec2018 at  2:47: 8

[...]

   This run was terminated on:   2:56:17  19Dec2018

[...]

     Program PWSCF v.5.1rc2 (svn rev. 11289) starts on 19Dec2018 at  2:56:26

     Current dimensions of program PWSCF are:
     Max number of different atomic species (ntypx) = 10
     Max number of k-points (npk) =  40000
     Max angular momentum in pseudopotentials (lmaxx) =  3
     Presently stress not available with electric field

     IMPORTANT: XC functional enforced from input :
     Exchange-correlation      = BEEF-VDW ( 1  4 27 13 2)
     Any further DFT definition will be discarded
     Please, verify this is what you really want

     Subspace diagonalization in iterative solution of the eigenvalue problem:
     a serial algorithm will be used

     bravais-lattice index     =            0
     lattice parameter (alat)  =       1.8897  a.u.
     unit-cell volume          =    4983.6542 (a.u.)^3
     number of atoms/cell      =           12
     number of atomic types    =            2
     number of electrons       =       162.00
     number of Kohn-Sham states=          111
     kinetic-energy cutoff     =      36.7493  Ry
     charge density cutoff     =     367.4932  Ry
     convergence threshold     =      1.0E-06
     mixing beta               =       0.1000
     number of iterations used =           10  plain     mixing
     Exchange-correlation      = BEEF-VDW ( 1  4 27 13 2)
     nstep                     =           50

     celldm(1)=   1.889726  celldm(2)=   0.000000  celldm(3)=   0.000000
     celldm(4)=   0.000000  celldm(5)=   0.000000  celldm(6)=   0.000000

     crystal axes: (cart. coord. in units of alat)
               a(1) = (   5.642050   0.000000   0.000000 )
               a(2) = (   1.880682   5.319376   0.000000 )
               a(3) = (   0.000000   0.000000  24.606714 )

     reciprocal axes: (cart. coord. in units 2 pi/alat)
               b(1) = (  0.177241 -0.062664  0.000000 )
               b(2) = (  0.000000  0.187992  0.000000 )
               b(3) = (  0.000000  0.000000  0.040639 )

     PseudoPot. # 1 for Rh read from file:
     /afs/slac.stanford.edu/u/if/mamunm/psp/gbrv1.5pbe/Rh.UPF
     MD5 check sum: 761627e959a2e3a1f56b0b5fe687810e
     Pseudo is Ultrasoft + core correction, Zval = 15.0
     Generated by new atomic code, or converted to UPF format
     Using radial grid of  969 points,  7 beta functions with:
                l(1) =   0
                l(2) =   0
                l(3) =   1
                l(4) =   1
                l(5) =   2
                l(6) =   2
                l(7) =   2
     Q(r) pseudized with  8 coefficients,  rinner =    1.200   1.200   1.200
                                                       1.200   1.200

     PseudoPot. # 2 for Cd read from file:
     /afs/slac.stanford.edu/u/if/mamunm/psp/gbrv1.5pbe/Cd.UPF
     MD5 check sum: 17164a7926edb8e0dc231208abae86a6
     Pseudo is Ultrasoft + core correction, Zval = 12.0
     Generated by new atomic code, or converted to UPF format
     Using radial grid of  889 points,  6 beta functions with:
                l(1) =   0
                l(2) =   0
                l(3) =   1
                l(4) =   1
                l(5) =   2
                l(6) =   2
     Q(r) pseudized with  6 coefficients,  rinner =    1.000   1.000   1.000
                                                       1.000   1.000

     vdW kernel table read from file vdW_kernel_table
     MD5 check sum: 095c7af220d748ca6e76c0b4c6cfb241

     atomic species   valence    mass     pseudopotential
        Rh1           15.00   102.90550     Rh( 1.00)
        Cd1           12.00   112.41400     Cd( 1.00)

     No symmetry found

   Cartesian axes

     site n.     atom                  positions (alat units)
         1           Rh1 tau(   1) = (   0.0000000   0.0000000  10.0000000  )
         2           Rh1 tau(   2) = (   3.7613663   2.6596882  10.0000000  )
         3           Cd1 tau(   3) = (   2.8210251   0.0000000  10.0000000  )
         4           Cd1 tau(   4) = (   0.9403412   2.6596882  10.0000000  )
         5           Rh1 tau(   5) = (   5.6420503   3.9895329  12.3033572  )
         6           Rh1 tau(   6) = (   1.8806840   1.3298447  12.3033572  )
         7           Cd1 tau(   7) = (   2.8210251   3.9895329  12.3033572  )
         8           Cd1 tau(   8) = (   4.7017091   1.3298447  12.3033572  )
         9           Rh1 tau(   9) = (   3.7614025   2.6597042  14.4946392  )
        10           Rh1 tau(  10) = (   7.5226993   5.3193650  14.4946348  )
        11           Cd1 tau(  11) = (   0.9403573   2.6596502  14.7277149  )
        12           Cd1 tau(  12) = (   2.8210131   0.0000472  14.7277386  )

     number of k points=    20  Fermi-Dirac smearing, width (Ry)=  0.0110
                       cart. coord. in units 2pi/alat
        k(    1) = (   0.0000000   0.0000000   0.0000000), wk =   0.0555556
        k(    2) = (   0.0000000   0.0313320   0.0000000), wk =   0.1111111
        k(    3) = (   0.0000000   0.0626640   0.0000000), wk =   0.1111111
        k(    4) = (   0.0000000  -0.0939960   0.0000000), wk =   0.0555556
        k(    5) = (   0.0295401  -0.0104440   0.0000000), wk =   0.1111111
        k(    6) = (   0.0295401   0.0208880   0.0000000), wk =   0.1111111
        k(    7) = (   0.0295401   0.0522200   0.0000000), wk =   0.1111111
        k(    8) = (   0.0295401  -0.1044400   0.0000000), wk =   0.1111111
        k(    9) = (   0.0295401  -0.0731080   0.0000000), wk =   0.1111111
        k(   10) = (   0.0295401  -0.0417760   0.0000000), wk =   0.1111111
        k(   11) = (   0.0590802  -0.0208880   0.0000000), wk =   0.1111111
        k(   12) = (   0.0590802   0.0104440   0.0000000), wk =   0.1111111
        k(   13) = (   0.0590802   0.0417760   0.0000000), wk =   0.1111111
        k(   14) = (   0.0590802  -0.1148840   0.0000000), wk =   0.1111111
        k(   15) = (   0.0590802  -0.0835520   0.0000000), wk =   0.1111111
        k(   16) = (   0.0590802  -0.0522200   0.0000000), wk =   0.1111111
        k(   17) = (  -0.0886203   0.0313320   0.0000000), wk =   0.0555556
        k(   18) = (  -0.0886203   0.0626640   0.0000000), wk =   0.1111111
        k(   19) = (  -0.0886203   0.0939960   0.0000000), wk =   0.1111111
        k(   20) = (  -0.0886203  -0.0626640   0.0000000), wk =   0.0555556

     Largest allocated arrays     est. size (Mb)     dimensions
     Largest temporary arrays     est. size (Mb)     dimensions

     Initial potential from superposition of free atoms
     Check: negative starting charge=   -0.455787

     starting charge  155.99916, renormalised to  162.00000

[...]

     *
     * You are using vdW-DF for exchange-correlation in this calculation.
     * Please cite the following three references that made this development
     * possible:
     *
     *   M. Dion, H. Rydberg, E. Schroder, D. C. Langreth, and
     *   B. I. Lundqvist, Phys. Rev. Lett. 92, 246401 (2004).
     *
     *   T. Thonhauser, V. R. Cooper, S. Li, A. Puzder, P. Hyldgaard, and
     *   D. C. Langreth, Phys. Rev. B 76, 125112 (2007).
     *
     *   G. Roman-Perez and J. M. Soler, Phys. Rev. Lett. 103, 096102 (2009).
     *
     *
     * If you are using vdW-DF2, please also cite:
     *
     *   K. Lee, E. D. Murray, L. Kong, B. I. Lundqvist, and
     *   D. C. Langreth, Phys. Rev. B 82, 081101(R) (2010).
     *
     *
     * If you are calculating the stress with vdW-DF, please also cite:
     *
     *   R. Sabatini, E. Kucukbenli, B. Kolb, T. Thonhauser, and
     *   S. de Gironcoli, J. Phys.: Condens. Matter 24, 424209 (2012).
     *

     Carrying out vdW-DF run using the following parameters:

     Nqs =      20    Nr_points =    1024   r_max =   100.000
     q_mesh =
               0.00001000     0.04494208     0.09755937     0.15916263
               0.23128650     0.31572767     0.41458969     0.53033537
               0.66584808     0.82450364     1.01025438     1.22772762
               1.48234092     1.78043706     2.12944203     2.53805004
               3.01644009     3.57652955     4.23227104     5.00000000

     Gradients computed in reciprocal space

[...]

     Starting wfc are  126 randomized atomic wfcs

     Self-consistent Calculation

[...]

     total energy              =   -1729.70854946 Ry
     Harris-Foulkes estimate   =   -1729.70855132 Ry
     estimated scf accuracy    <       0.00000103 Ry

     iteration # 18     ecut=    36.75 Ry     beta=0.10
     Davidson diagonalization with overlap
     ethr =  6.38E-10,  avg # of iterations =  2.7

[...]

     negative rho (up, down):  4.609E-01 0.000E+00

     Adding external electric field

     Computed dipole along edir(3) :
        Dipole                0.0159 Ry au,          0.0403 Debye
        Dipole field          0.0000 Ry au

        Potential amp.       -0.0036 Ry
        Total length         45.3375 bohr

     End of self-consistent calculation

[...]

          k = 0.0591-0.0522 0.0000 ( 18740 PWs)   bands (ev):

[...]

          k =-0.0886-0.0627 0.0000 ( 18792 PWs)   bands (ev):

   -44.7643 -44.7596 -44.7547 -44.7535 -44.7491 -44.7046 -44.6119 -44.5702
   -44.5637 -44.5626 -44.5584 -44.5290 -44.5247 -44.5222 -44.4927 -44.4890
   -44.4462 -44.4423  -7.7443  -7.7299  -7.7293  -7.6862  -7.6474  -7.6339
    -7.6220  -7.5992  -7.5651  -7.4520  -7.4515  -7.4413  -7.4280  -7.4280
    -7.4273  -7.4088  -7.3776  -7.3724  -7.3543  -7.3371  -7.3061  -7.2894
    -7.2737  -7.2593  -7.2149  -7.1829  -7.1221  -7.0904  -6.9726  -6.8593
    -4.2725  -4.0671  -2.6748  -2.6340  -2.6334  -2.5942  -2.4486  -1.9212
    -1.8652  -1.6356  -1.4933  -1.2918  -1.2181  -1.1753  -1.1738  -1.1418
    -0.8674  -0.7517  -0.6384  -0.5376  -0.4561  -0.4486  -0.3932  -0.3884
    -0.3540  -0.1273  -0.0523   0.2981   0.3543   0.3780   0.3988   0.4793
     0.7460   0.8791   1.0649   1.0900   1.7691   1.8771   2.4559   2.5272
     3.3828   4.0306   4.0332   4.3878   5.9857   6.2158   6.2647   6.3309
     6.3395   6.7335   6.8453   7.1602   7.2222   7.7383   7.8694   7.9523
     8.0673   8.1718   8.2333   8.4506   8.5548   8.7076   8.7784

     the Fermi energy is     0.7005 ev

!    total energy              =   -1729.70854518 Ry
     Harris-Foulkes estimate   =   -1729.70854951 Ry
     estimated scf accuracy    <       0.00000016 Ry

     The total energy is the sum of the following terms:

     one-electron contribution =  -13021.78265908 Ry
     hartree contribution      =    6581.12829607 Ry
     xc contribution           =    -431.50027660 Ry
     ewald contribution        =    5142.52485895 Ry
     electric field correction =       0.00000064 Ry
     smearing contrib. (-TS)   =      -0.07876516 Ry

     convergence has been achieved in  18 iterations

 BEEF-vdW xc energy contributions
           1 :   -377.159666112692
           2 :    345.492077602495
           3 :   -291.541604845790
           4 :    229.930374989736
           5 :   -174.637304071906
           6 :    134.218622975433
           7 :   -109.992969365596
           8 :    97.4931600844911
           9 :   -89.9721915343664
          10 :    82.0066623931435
          11 :   -71.5332116381807
          12 :    59.7102888402788
          13 :   -49.1886767608846
          14 :    42.0556756489129
          15 :   -38.6142779097812
          16 :    37.4659564087725
          17 :   -36.5652854370829
          18 :    34.4540741700196
          19 :   -30.9430056889464
          20 :    26.9541046869311
          21 :   -23.7549443616883
          22 :    22.1199351171405
          23 :   -21.9129433354414
          24 :    22.2686668145075
          25 :   -22.1814304839746
          26 :    21.1049294504319
          27 :   -19.2131310873787
          28 :    17.2099436220423
          29 :   -15.8492550142069
          30 :    15.4785041258701
          31 :   -35.3118653785137
          32 :   -26.0529275936585

     Forces acting on atoms (Ry/au):

     negative rho (up, down):  4.609E-01 0.000E+00
     atom    1 type  1   force =    -0.00000056   -0.00000066    0.01956302
     atom    2 type  1   force =     0.00000085    0.00000023    0.01956474
     atom    3 type  2   force =    -0.00001478    0.00002670   -0.01596279
     atom    4 type  2   force =     0.00001771   -0.00002290   -0.01596265
     atom    5 type  1   force =    -0.00000015    0.00000076    0.01138549
     atom    6 type  1   force =     0.00000036   -0.00000103    0.01138062
     atom    7 type  2   force =     0.00000208   -0.00000408   -0.01596207
     atom    8 type  2   force =    -0.00000365    0.00000408   -0.01597111
     atom    9 type  1   force =    -0.00000190    0.00000313   -0.00006566
     atom   10 type  1   force =     0.00000268   -0.00000241   -0.00006441
     atom   11 type  2   force =     0.00001449   -0.00001884    0.00104839
     atom   12 type  2   force =    -0.00001713    0.00001502    0.00104642

     Total force =     0.045236     Total SCF correction =     0.001500

     entering subroutine stress ...

     negative rho (up, down):  4.609E-01 0.000E+00
          total   stress  (Ry/bohr**3)                   (kbar)     P=  -19.12
  -0.00014877   0.00000486   0.00000000        -21.88      0.72      0.00
   0.00000486  -0.00015221  -0.00000000          0.72    -22.39     -0.00
   0.00000000  -0.00000000  -0.00008885          0.00     -0.00    -13.07

 !ASE

     Writing output data file calc.save

     General routines

     Parallel routines

   This run was terminated on:   3: 1: 5  19Dec2018

   JOB DONE.
Job  /afs/slac/g/suncat/bin/suncat-tsmpirun -x LD_LIBRARY_PATH -wdir /scratch/qe530461_sKPKK pw.x -in pw.inp

TID   HOST_NAME   COMMAND_LINE            STATUS            TERMINATION_TIME
00000 suncat2046 pw.x -in pw.inp   Done                     12/19/2018 03:01:05
00001 suncat2046 pw.x -in pw.inp   Done                     12/19/2018 03:01:05
00002 suncat2046 pw.x -in pw.inp   Done                     12/19/2018 03:01:05
00003 suncat2046 pw.x -in pw.inp   Done                     12/19/2018 03:01:05
00004 suncat2046 pw.x -in pw.inp   Done                     12/19/2018 03:01:05
00005 suncat2046 pw.x -in pw.inp   Done                     12/19/2018 03:01:05
00006 suncat2046 pw.x -in pw.inp   Done                     12/19/2018 03:01:05
00007 suncat2046 pw.x -in pw.inp   Done                     12/19/2018 03:01:05
00008 suncat2046 pw.x -in pw.inp   Done                     12/19/2018 03:01:05
00009 suncat2046 pw.x -in pw.inp   Done                     12/19/2018 03:01:05
00010 suncat2046 pw.x -in pw.inp   Done                     12/19/2018 03:01:05
00011 suncat2046 pw.x -in pw.inp   Done                     12/19/2018 03:01:05
00012 suncat2046 pw.x -in pw.inp   Done                     12/19/2018 03:01:05
00013 suncat2046 pw.x -in pw.inp   Done                     12/19/2018 03:01:05
00014 suncat2046 pw.x -in pw.inp   Done                     12/19/2018 03:01:05
00015 suncat2046 pw.x -in pw.inp   Done                     12/19/2018 03:01:05
00016 suncat2045 pw.x -in pw.inp   Done                     12/19/2018 03:01:05
00017 suncat2045 pw.x -in pw.inp   Done                     12/19/2018 03:01:05
00018 suncat2045 pw.x -in pw.inp   Done                     12/19/2018 03:01:05
00019 suncat2045 pw.x -in pw.inp   Done                     12/19/2018 03:01:05
00020 suncat2045 pw.x -in pw.inp   Done                     12/19/2018 03:01:05
00021 suncat2045 pw.x -in pw.inp   Done                     12/19/2018 03:01:05
00022 suncat2045 pw.x -in pw.inp   Done                     12/19/2018 03:01:05
00023 suncat2045 pw.x -in pw.inp   Done                     12/19/2018 03:01:05
00024 suncat2045 pw.x -in pw.inp   Done                     12/19/2018 03:01:05
00025 suncat2045 pw.x -in pw.inp   Done                     12/19/2018 03:01:05
00026 suncat2045 pw.x -in pw.inp   Done                     12/19/2018 03:01:05
00027 suncat2045 pw.x -in pw.inp   Done                     12/19/2018 03:01:05
00028 suncat2045 pw.x -in pw.inp   Done                     12/19/2018 03:01:05
00029 suncat2045 pw.x -in pw.inp   Done                     12/19/2018 03:01:05
00030 suncat2045 pw.x -in pw.inp   Done                     12/19/2018 03:01:05
00031 suncat2045 pw.x -in pw.inp   Done                     12/19/2018 03:01:05