     Program PWSCF v.5.1rc2 (svn rev. 11289) starts on 24Dec2018 at 23:48:48

     Current dimensions of program PWSCF are:
     Max number of different atomic species (ntypx) = 10
     Max number of k-points (npk) =  40000
     Max angular momentum in pseudopotentials (lmaxx) =  3
     Presently stress not available with electric field

     IMPORTANT: XC functional enforced from input :
     Exchange-correlation      = BEEF-VDW ( 1  4 27 13 2)
     Any further DFT definition will be discarded
     Please, verify this is what you really want

     Subspace diagonalization in iterative solution of the eigenvalue problem:
     a serial algorithm will be used

     Found symmetry operation: I + (  0.5000 -0.5000  0.0000)
     This is a supercell, fractional translations are disabled

     bravais-lattice index     =            0
     lattice parameter (alat)  =       1.8897  a.u.
     unit-cell volume          =    7793.2353 (a.u.)^3
     number of atoms/cell      =           12
     number of atomic types    =            2
     number of electrons       =       138.00
     number of Kohn-Sham states=           99
     kinetic-energy cutoff     =      36.7493  Ry
     charge density cutoff     =     367.4932  Ry
     convergence threshold     =      1.0E-06
     mixing beta               =       0.1000
     number of iterations used =           10  plain     mixing
     Exchange-correlation      = BEEF-VDW ( 1  4 27 13 2)
     nstep                     =           50

     celldm(1)=   1.889726  celldm(2)=   0.000000  celldm(3)=   0.000000
     celldm(4)=   0.000000  celldm(5)=   0.000000  celldm(6)=   0.000000

     crystal axes: (cart. coord. in units of alat)
               a(1) = (   6.897631   0.000000   0.000000 )
               a(2) = (   2.187198   6.541673   0.000000 )
               a(3) = (   0.000000   0.000000  25.593660 )

     reciprocal axes: (cart. coord. in units 2 pi/alat)
               b(1) = (  0.144977 -0.048473  0.000000 )
               b(2) = (  0.000000  0.152866  0.000000 )
               b(3) = (  0.000000  0.000000  0.039072 )

     PseudoPot. # 1 for La read from file:
     /afs/slac.stanford.edu/u/if/mamunm/psp/gbrv1.5pbe/La.UPF
     MD5 check sum: 5937b0c7494ba0601a847275249473aa
     Pseudo is Ultrasoft + core correction, Zval = 11.0
     Generated by new atomic code, or converted to UPF format
     Using radial grid of  995 points,  8 beta functions with:
                l(1) =   0
                l(2) =   0
                l(3) =   1
                l(4) =   1
                l(5) =   2
                l(6) =   2
                l(7) =   3
                l(8) =   3
     Q(r) pseudized with  8 coefficients,  rinner =    1.700   1.700   1.700
                                                       1.700   1.700   1.700
                                                       1.700

     PseudoPot. # 2 for Cd read from file:
     /afs/slac.stanford.edu/u/if/mamunm/psp/gbrv1.5pbe/Cd.UPF
     MD5 check sum: 17164a7926edb8e0dc231208abae86a6
     Pseudo is Ultrasoft + core correction, Zval = 12.0
     Generated by new atomic code, or converted to UPF format
     Using radial grid of  889 points,  6 beta functions with:
                l(1) =   0
                l(2) =   0
                l(3) =   1
                l(4) =   1
                l(5) =   2
                l(6) =   2
     Q(r) pseudized with  6 coefficients,  rinner =    1.000   1.000   1.000
                                                       1.000   1.000

     vdW kernel table read from file vdW_kernel_table
     MD5 check sum: 095c7af220d748ca6e76c0b4c6cfb241

     atomic species   valence    mass     pseudopotential
        La1           11.00   138.90547     La( 1.00)
        Cd1           12.00   112.41400     Cd( 1.00)

     No symmetry found

   Cartesian axes

     site n.     atom                  positions (alat units)
         1           La1 tau(   1) = (   0.0000000   0.0000000  10.0000000  )
         2           La1 tau(   2) = (   4.5424148   3.2708363  10.0000000  )
         3           Cd1 tau(   3) = (   3.4488157   0.0000000  10.0000000  )
         4           Cd1 tau(   4) = (   1.0935992   3.2708363  10.0000000  )
         5           La1 tau(   5) = (   6.8976313   4.9667466  12.7968301  )
         6           La1 tau(   6) = (   2.3552165   1.6959102  12.7968301  )
         7           Cd1 tau(   7) = (   3.4488157   4.9667466  12.7968301  )
         8           Cd1 tau(   8) = (   5.8040322   1.6959102  12.7968301  )
         9           La1 tau(   9) = (   4.7104330   3.3918205  15.5936603  )
        10           La1 tau(  10) = (   0.1680182   0.1209841  15.5936603  )
        11           Cd1 tau(  11) = (   1.2616174   3.3918205  15.5936603  )
        12           Cd1 tau(  12) = (   3.6168339   0.1209841  15.5936603  )

     number of k points=    20  Fermi-Dirac smearing, width (Ry)=  0.0110
                       cart. coord. in units 2pi/alat
        k(    1) = (   0.0000000   0.0000000   0.0000000), wk =   0.0555556
        k(    2) = (   0.0000000   0.0254777   0.0000000), wk =   0.1111111
        k(    3) = (   0.0000000   0.0509554   0.0000000), wk =   0.1111111
        k(    4) = (   0.0000000  -0.0764331   0.0000000), wk =   0.0555556
        k(    5) = (   0.0241629  -0.0080788   0.0000000), wk =   0.1111111
        k(    6) = (   0.0241629   0.0173989   0.0000000), wk =   0.1111111
        k(    7) = (   0.0241629   0.0428765   0.0000000), wk =   0.1111111
        k(    8) = (   0.0241629  -0.0845119   0.0000000), wk =   0.1111111
        k(    9) = (   0.0241629  -0.0590342   0.0000000), wk =   0.1111111
        k(   10) = (   0.0241629  -0.0335565   0.0000000), wk =   0.1111111
        k(   11) = (   0.0483258  -0.0161576   0.0000000), wk =   0.1111111
        k(   12) = (   0.0483258   0.0093200   0.0000000), wk =   0.1111111
        k(   13) = (   0.0483258   0.0347977   0.0000000), wk =   0.1111111
        k(   14) = (   0.0483258  -0.0925907   0.0000000), wk =   0.1111111
        k(   15) = (   0.0483258  -0.0671130   0.0000000), wk =   0.1111111
        k(   16) = (   0.0483258  -0.0416353   0.0000000), wk =   0.1111111
        k(   17) = (  -0.0724887   0.0242365   0.0000000), wk =   0.0555556
        k(   18) = (  -0.0724887   0.0497142   0.0000000), wk =   0.1111111
        k(   19) = (  -0.0724887   0.0751918   0.0000000), wk =   0.1111111
        k(   20) = (  -0.0724887  -0.0521966   0.0000000), wk =   0.0555556

     Largest allocated arrays     est. size (Mb)     dimensions
     Largest temporary arrays     est. size (Mb)     dimensions

     Initial potential from superposition of free atoms
     Check: negative starting charge=   -0.556010

     starting charge  134.80734, renormalised to  138.00000

     negative rho (up, down):  5.692E-01 0.000E+00

     *
     * You are using vdW-DF for exchange-correlation in this calculation.
     * Please cite the following three references that made this development
     * possible:
     *
     *   M. Dion, H. Rydberg, E. Schroder, D. C. Langreth, and
     *   B. I. Lundqvist, Phys. Rev. Lett. 92, 246401 (2004).
     *
     *   T. Thonhauser, V. R. Cooper, S. Li, A. Puzder, P. Hyldgaard, and
     *   D. C. Langreth, Phys. Rev. B 76, 125112 (2007).
     *
     *   G. Roman-Perez and J. M. Soler, Phys. Rev. Lett. 103, 096102 (2009).
     *
     *
     * If you are using vdW-DF2, please also cite:
     *
     *   K. Lee, E. D. Murray, L. Kong, B. I. Lundqvist, and
     *   D. C. Langreth, Phys. Rev. B 82, 081101(R) (2010).
     *
     *
     * If you are calculating the stress with vdW-DF, please also cite:
     *
     *   R. Sabatini, E. Kucukbenli, B. Kolb, T. Thonhauser, and
     *   S. de Gironcoli, J. Phys.: Condens. Matter 24, 424209 (2012).
     *

     Carrying out vdW-DF run using the following parameters:

     Nqs =      20    Nr_points =    1024   r_max =   100.000
     q_mesh =
               0.00001000     0.04494208     0.09755937     0.15916263
               0.23128650     0.31572767     0.41458969     0.53033537
               0.66584808     0.82450364     1.01025438     1.22772762
               1.48234092     1.78043706     2.12944203     2.53805004
               3.01644009     3.57652955     4.23227104     5.00000000

     Gradients computed in reciprocal space

     Adding external electric field

     Computed dipole along edir(3) :
        Dipole               -0.0000 Ry au,         -0.0000 Debye
        Dipole field         -0.0000 Ry au

        Potential amp.        0.0000 Ry
        Total length         47.1559 bohr

     Starting wfc are  174 randomized atomic wfcs

     Self-consistent Calculation

     iteration #  1     ecut=    36.75 Ry     beta=0.10
     Davidson diagonalization with overlap
     ethr =  1.00E-02,  avg # of iterations =  1.0

[...]

     total energy              =   -1320.68829240 Ry
     Harris-Foulkes estimate   =   -1321.05500537 Ry
     estimated scf accuracy    <       2.11052806 Ry

[...]

     iteration #  7     ecut=    36.75 Ry     beta=0.10
     Davidson diagonalization with overlap
     c_bands:  1 eigenvalues not converged
     c_bands:  3 eigenvalues not converged
     ethr =  6.19E-05,  avg # of iterations =  8.9

[...]

     End of self-consistent calculation

          k = 0.0000 0.0000 0.0000 ( 29395 PWs)   bands (ev):

   -32.6202 -32.6186 -32.5935 -32.5934 -32.2420 -32.2170 -16.2913 -16.2879
   -16.2838 -16.2696 -16.2530 -16.2128 -16.2041 -16.2040 -16.1692 -16.1370
   -16.0214 -15.9200 -15.9182 -15.8150 -15.7687 -15.7427 -15.7175 -15.6312
    -7.5785  -7.5707  -7.5583  -7.5410  -7.5381  -7.5335  -7.5313  -7.5230
    -7.5167  -7.5154  -7.5017  -7.5011  -7.4867  -7.4743  -7.4654  -7.4619
    -7.4606  -7.4585  -7.4357  -7.4311  -7.4307  -7.4216  -7.4048  -7.4021
    -7.3893  -7.3688  -7.3538  -7.3023  -7.2900  -7.2316  -4.0632  -3.0575
    -2.3673  -2.3182  -2.1746  -1.9757   0.5409   0.5543   0.5874   0.7305
     0.7955   1.0160   1.0807   1.3517   1.4695   1.4965   1.5221   1.6449
     1.7949   1.8079   1.8668   1.9387   1.9519   2.0313   2.0410   2.0863
     2.1607   2.1966   2.2108   2.2208   2.2357   2.2485   2.2557   2.2588
     2.2707   2.2772   2.2905   2.2925   2.3047   2.3138   2.3381   2.3437
     2.3445   2.3487   2.3623

[...]

          k =-0.0725 0.0242 0.0000 ( 29324 PWs)   bands (ev):

[...]

     the Fermi energy is     1.1780 ev

!    total energy              =   -1320.82230194 Ry
     Harris-Foulkes estimate   =   -1320.82233573 Ry
     estimated scf accuracy    <       0.00000037 Ry

     The total energy is the sum of the following terms:

     one-electron contribution =   -5817.24482399 Ry
     hartree contribution      =    2960.10552566 Ry
     xc contribution           =    -548.62689226 Ry
     ewald contribution        =    2085.03407679 Ry
     electric field correction =       0.00000000 Ry
     smearing contrib. (-TS)   =      -0.09018814 Ry

     convergence has been achieved in  18 iterations

 BEEF-vdW xc energy contributions
           1 :   -483.771881318660
           2 :    443.749060941163
           3 :   -374.506968230130
           4 :    293.107845441120
           5 :   -216.396502220923
[...]
     Using radial grid of  995 points,  8 beta functions with:
                l(1) =   0
                l(2) =   0
                l(3) =   1
                l(4) =   1
                l(5) =   2
                l(6) =   2
                l(7) =   3
                l(8) =   3
     Q(r) pseudized with  8 coefficients,  rinner =    1.700   1.700   1.700
                                                       1.700   1.700   1.700
                                                       1.700

     PseudoPot. # 2 for Cd read from file:
     /afs/slac.stanford.edu/u/if/mamunm/psp/gbrv1.5pbe/Cd.UPF
     MD5 check sum: 17164a7926edb8e0dc231208abae86a6
     Pseudo is Ultrasoft + core correction, Zval = 12.0
     Generated by new atomic code, or converted to UPF format
     Using radial grid of  889 points,  6 beta functions with:
                l(1) =   0
                l(2) =   0
                l(3) =   1
                l(4) =   1
                l(5) =   2
                l(6) =   2
     Q(r) pseudized with  6 coefficients,  rinner =    1.000   1.000   1.000
                                                       1.000   1.000

     vdW kernel table read from file vdW_kernel_table
     MD5 check sum: 095c7af220d748ca6e76c0b4c6cfb241

     atomic species   valence    mass     pseudopotential
        La1           11.00   138.90547     La( 1.00)
        Cd1           12.00   112.41400     Cd( 1.00)

     No symmetry found

   Cartesian axes

     site n.     atom                  positions (alat units)
         1           La1 tau(   1) = (   0.0000000   0.0000000  10.0000000  )
         2           La1 tau(   2) = (   4.5424148   3.2708363  10.0000000  )
         3           Cd1 tau(   3) = (   3.4488157   0.0000000  10.0000000  )
         4           Cd1 tau(   4) = (   1.0935992   3.2708363  10.0000000  )
         5           La1 tau(   5) = (   6.8976313   4.9667466  12.7968301  )
         6           La1 tau(   6) = (   2.3552165   1.6959102  12.7968301  )
         7           Cd1 tau(   7) = (   3.4488157   4.9667466  12.7968301  )
         8           Cd1 tau(   8) = (   5.8040322   1.6959102  12.7968301  )
         9           La1 tau(   9) = (   4.6912332   3.3779444  15.4951406  )
        10           La1 tau(  10) = (   0.1487773   0.1071699  15.4951315  )
        11           Cd1 tau(  11) = (   1.2528930   3.3855436  15.5627972  )
        12           Cd1 tau(  12) = (   3.6080464   0.1146736  15.5627908  )

     number of k points=    20  Fermi-Dirac smearing, width (Ry)=  0.0110
                       cart. coord. in units 2pi/alat
        k(    1) = (   0.0000000   0.0000000   0.0000000), wk =   0.0555556
        k(    2) = (   0.0000000   0.0254777   0.0000000), wk =   0.1111111
        k(    3) = (   0.0000000   0.0509554   0.0000000), wk =   0.1111111
        k(    4) = (   0.0000000  -0.0764331   0.0000000), wk =   0.0555556
        k(    5) = (   0.0241629  -0.0080788   0.0000000), wk =   0.1111111
        k(    6) = (   0.0241629   0.0173989   0.0000000), wk =   0.1111111
        k(    7) = (   0.0241629   0.0428765   0.0000000), wk =   0.1111111
        k(    8) = (   0.0241629  -0.0845119   0.0000000), wk =   0.1111111
        k(    9) = (   0.0241629  -0.0590342   0.0000000), wk =   0.1111111
        k(   10) = (   0.0241629  -0.0335565   0.0000000), wk =   0.1111111
        k(   11) = (   0.0483258  -0.0161576   0.0000000), wk =   0.1111111
        k(   12) = (   0.0483258   0.0093200   0.0000000), wk =   0.1111111
        k(   13) = (   0.0483258   0.0347977   0.0000000), wk =   0.1111111
        k(   14) = (   0.0483258  -0.0925907   0.0000000), wk =   0.1111111
        k(   15) = (   0.0483258  -0.0671130   0.0000000), wk =   0.1111111
        k(   16) = (   0.0483258  -0.0416353   0.0000000), wk =   0.1111111
        k(   17) = (  -0.0724887   0.0242365   0.0000000), wk =   0.0555556
        k(   18) = (  -0.0724887   0.0497142   0.0000000), wk =   0.1111111
        k(   19) = (  -0.0724887   0.0751918   0.0000000), wk =   0.1111111
        k(   20) = (  -0.0724887  -0.0521966   0.0000000), wk =   0.0555556

     Largest allocated arrays     est. size (Mb)     dimensions
     Largest temporary arrays     est. size (Mb)     dimensions

     Initial potential from superposition of free atoms
     Check: negative starting charge=   -0.555146

     starting charge  134.80734, renormalised to  138.00000

[...]

     *
     * You are using vdW-DF for exchange-correlation in this calculation.
     * Please cite the following three references that made this development
     * possible:
     *
     *   M. Dion, H. Rydberg, E. Schroder, D. C. Langreth, and
     *   B. I. Lundqvist, Phys. Rev. Lett. 92, 246401 (2004).
     *
     *   T. Thonhauser, V. R. Cooper, S. Li, A. Puzder, P. Hyldgaard, and
     *   D. C. Langreth, Phys. Rev. B 76, 125112 (2007).
     *
     *   G. Roman-Perez and J. M. Soler, Phys. Rev. Lett. 103, 096102 (2009).
     *
     *
     * If you are using vdW-DF2, please also cite:
     *
     *   K. Lee, E. D. Murray, L. Kong, B. I. Lundqvist, and
     *   D. C. Langreth, Phys. Rev. B 82, 081101(R) (2010).
     *
     *
     * If you are calculating the stress with vdW-DF, please also cite:
     *
     *   R. Sabatini, E. Kucukbenli, B. Kolb, T. Thonhauser, and
     *   S. de Gironcoli, J. Phys.: Condens. Matter 24, 424209 (2012).
     *

     Carrying out vdW-DF run using the following parameters:

     Nqs =      20    Nr_points =    1024   r_max =   100.000
     q_mesh =
               0.00001000     0.04494208     0.09755937     0.15916263
               0.23128650     0.31572767     0.41458969     0.53033537
               0.66584808     0.82450364     1.01025438     1.22772762
               1.48234092     1.78043706     2.12944203     2.53805004
               3.01644009     3.57652955     4.23227104     5.00000000

     Gradients computed in reciprocal space

[...]

     Starting wfc are  174 randomized atomic wfcs

     Self-consistent Calculation

[...]

     iteration # 11     ecut=    36.75 Ry     beta=0.10
     Davidson diagonalization with overlap
     c_bands:  2 eigenvalues not converged
     ethr =  1.56E-06,  avg # of iterations =  6.7

[...]

     total energy              =   -1320.82384679 Ry
     Harris-Foulkes estimate   =   -1320.82385649 Ry
     estimated scf accuracy    <       0.00000101 Ry

     iteration # 18     ecut=    36.75 Ry     beta=0.10
     Davidson diagonalization with overlap
     ethr =  7.31E-10,  avg # of iterations =  4.3

[...]

     negative rho (up, down):  4.289E-01 0.000E+00

     Adding external electric field

     Computed dipole along edir(3) :
        Dipole               -0.0198 Ry au,         -0.0502 Debye
        Dipole field         -0.0000 Ry au

        Potential amp.        0.0030 Ry
        Total length         47.1559 bohr

     End of self-consistent calculation

[...]

          k = 0.0483-0.0416 0.0000 ( 29316 PWs)   bands (ev):

[...]

          k =-0.0725-0.0522 0.0000 ( 29218 PWs)   bands (ev):

   -32.6264 -32.6023 -32.5893 -32.5654 -32.2333 -32.2056 -16.3325 -16.3073
   -16.2810 -16.2737 -16.2530 -16.2343 -16.1985 -16.1891 -16.1806 -16.1292
   -16.0173 -15.9277 -15.9001 -15.7737 -15.7633 -15.7474 -15.7193 -15.6331
    -7.5685  -7.5470  -7.5379  -7.5373  -7.5235  -7.5202  -7.5093  -7.5085
    -7.5035  -7.5008  -7.4882  -7.4857  -7.4828  -7.4820  -7.4802  -7.4779
    -7.4749  -7.4535  -7.4294  -7.4215  -7.4114  -7.4069  -7.4035  -7.3986
    -7.3969  -7.3877  -7.3846  -7.3594  -7.3094  -7.2626  -2.7746  -2.6548
    -2.1143  -2.0378  -1.8204  -0.9509  -0.8282  -0.7225  -0.3503  -0.3066
    -0.2389   0.0915   0.2103   0.4104   0.5149   1.1690   1.2198   1.2732
     1.4662   1.5849   1.8831   1.9674   1.9822   2.0892   2.1115   2.1353
     2.2172   2.2195   2.2297   2.2459   2.2488   2.2551   2.2570   2.2778
     2.2800   2.2828   2.2831   2.2840   2.2985   2.3370   2.3374   2.3466
     2.3526   2.3822   2.4178

     the Fermi energy is     1.1639 ev

!    total energy              =   -1320.82381428 Ry
     Harris-Foulkes estimate   =   -1320.82384694 Ry
     estimated scf accuracy    <       0.00000027 Ry

     The total energy is the sum of the following terms:

     one-electron contribution =   -5869.65750793 Ry
     hartree contribution      =    2986.29673628 Ry
     xc contribution           =    -548.67824505 Ry
     ewald contribution        =    2111.30367234 Ry
     electric field correction =       0.00000063 Ry
     smearing contrib. (-TS)   =      -0.08847054 Ry

     convergence has been achieved in  18 iterations

 BEEF-vdW xc energy contributions
           1 :   -483.825508518190
           2 :    443.830586214421
           3 :   -374.617076737027
           4 :    293.214217753344
           5 :   -216.455120448015
           6 :    155.706343175095
           7 :   -114.735417182262
           8 :    90.8601331731407
           9 :   -78.1139353412207
          10 :    70.5962671798294
          11 :   -64.5197312872816
          12 :    58.4349480119666
          13 :   -52.2016248811250
          14 :    45.8199379764451
          15 :   -38.9766181044195
          16 :    31.3939283807991
          17 :   -23.4353302184674
          18 :    16.3096916291437
          19 :   -11.6000769427427
          20 :    10.3754329178297
          21 :   -12.4686177286835
          22 :    16.4124170473749
          23 :   -20.1030922493451
          24 :    21.8002571179570
          25 :   -20.8900098918755
          26 :    18.0189854703755
          27 :   -14.5997927035105
          28 :    12.0266133208728
          29 :   -11.0445737760516
          30 :    11.5574432439503
          31 :   -42.1144039312250
          32 :   -30.3854505870463

     Forces acting on atoms (Ry/au):

     negative rho (up, down):  4.289E-01 0.000E+00
     atom    1 type  1   force =     0.00134907    0.00097199    0.00666737
     atom    2 type  1   force =     0.00135056    0.00097319    0.00666679
     atom    3 type  2   force =     0.00029456    0.00021642    0.00187229
     atom    4 type  2   force =     0.00029931    0.00021219    0.00187673
     atom    5 type  1   force =    -0.00016862   -0.00012152   -0.00298746
     atom    6 type  1   force =    -0.00016924   -0.00012213   -0.00298818
     atom    7 type  2   force =    -0.00010919   -0.00008859   -0.00531031
     atom    8 type  2   force =    -0.00012126   -0.00007601   -0.00531549
     atom    9 type  1   force =    -0.00022367   -0.00015865    0.00058757
     atom   10 type  1   force =    -0.00022285   -0.00016180    0.00058794
     atom   11 type  2   force =    -0.00113813   -0.00082656   -0.00082850
     atom   12 type  2   force =    -0.00114056   -0.00081853   -0.00082876

     Total force =     0.013503     Total SCF correction =     0.001627
     SCF correction compared to forces is large: reduce conv_thr to get better values

     entering subroutine stress ...

     negative rho (up, down):  4.289E-01 0.000E+00
          total   stress  (Ry/bohr**3)                   (kbar)     P=   -5.23
  -0.00004267   0.00000033  -0.00000408         -6.28      0.05     -0.60
   0.00000033  -0.00004290  -0.00000294          0.05     -6.31     -0.43
  -0.00000408  -0.00000294  -0.00002099         -0.60     -0.43     -3.09

 !ASE

     Writing output data file calc.save

     General routines

     Parallel routines

   This run was terminated on:   1:26:32  25Dec2018

   JOB DONE.
Job  /afs/slac/g/suncat/bin/suncat-tsmpirun -x LD_LIBRARY_PATH -wdir /scratch/qe109051_OSPJ7 pw.x -in pw.inp

TID   HOST_NAME   COMMAND_LINE            STATUS            TERMINATION_TIME
00000 suncat0048 pw.x -in pw.inp   Done                     12/25/2018 01:26:32
00001 suncat0048 pw.x -in pw.inp   Done                     12/25/2018 01:26:32
00002 suncat0048 pw.x -in pw.inp   Done                     12/25/2018 01:26:32
00003 suncat0048 pw.x -in pw.inp   Done                     12/25/2018 01:26:32
00004 suncat0048 pw.x -in pw.inp   Done                     12/25/2018 01:26:32
00005 suncat0048 pw.x -in pw.inp   Done                     12/25/2018 01:26:32
00006 suncat0048 pw.x -in pw.inp   Done                     12/25/2018 01:26:32
00007 suncat0048 pw.x -in pw.inp   Done                     12/25/2018 01:26:32
00008 suncat0047 pw.x -in pw.inp   Done                     12/25/2018 01:26:32
00009 suncat0047 pw.x -in pw.inp   Done                     12/25/2018 01:26:32
00010 suncat0047 pw.x -in pw.inp   Done                     12/25/2018 01:26:32
00011 suncat0047 pw.x -in pw.inp   Done                     12/25/2018 01:26:32
00012 suncat0047 pw.x -in pw.inp   Done                     12/25/2018 01:26:32
00013 suncat0047 pw.x -in pw.inp   Done                     12/25/2018 01:26:32
00014 suncat0047 pw.x -in pw.inp   Done                     12/25/2018 01:26:32
00015 suncat0047 pw.x -in pw.inp   Done                     12/25/2018 01:26:32
00016 suncat0193 pw.x -in pw.inp   Done                     12/25/2018 01:26:32
00017 suncat0193 pw.x -in pw.inp   Done                     12/25/2018 01:26:32
00018 suncat0193 pw.x -in pw.inp   Done                     12/25/2018 01:26:32
00019 suncat0193 pw.x -in pw.inp   Done                     12/25/2018 01:26:32
00020 suncat0193 pw.x -in pw.inp   Done                     12/25/2018 01:26:32
00021 suncat0193 pw.x -in pw.inp   Done                     12/25/2018 01:26:32
00022 suncat0193 pw.x -in pw.inp   Done                     12/25/2018 01:26:32
00023 suncat0193 pw.x -in pw.inp   Done                     12/25/2018 01:26:32
00024 suncat0192 pw.x -in pw.inp   Done                     12/25/2018 01:26:32
00025 suncat0192 pw.x -in pw.inp   Done                     12/25/2018 01:26:32
00026 suncat0192 pw.x -in pw.inp   Done                     12/25/2018 01:26:32
00027 suncat0192 pw.x -in pw.inp   Done                     12/25/2018 01:26:32
00028 suncat0192 pw.x -in pw.inp   Done                     12/25/2018 01:26:32
00029 suncat0192 pw.x -in pw.inp   Done                     12/25/2018 01:26:32
00030 suncat0192 pw.x -in pw.inp   Done                     12/25/2018 01:26:32
00031 suncat0192 pw.x -in pw.inp   Done                     12/25/2018 01:26:32
00032 suncat0155 pw.x -in pw.inp   Done                     12/25/2018 01:26:32
00033 suncat0155 pw.x -in pw.inp   Done                     12/25/2018 01:26:32
00034 suncat0155 pw.x -in pw.inp   Done                     12/25/2018 01:26:32
00035 suncat0155 pw.x -in pw.inp   Done                     12/25/2018 01:26:32
00036 suncat0155 pw.x -in pw.inp   Done                     12/25/2018 01:26:32
00037 suncat0155 pw.x -in pw.inp   Done                     12/25/2018 01:26:32
00038 suncat0155 pw.x -in pw.inp   Done                     12/25/2018 01:26:32
00039 suncat0155 pw.x -in pw.inp   Done                     12/25/2018 01:26:32
00040 suncat0154 pw.x -in pw.inp   Done                     12/25/2018 01:26:32
00041 suncat0154 pw.x -in pw.inp   Done                     12/25/2018 01:26:32
00042 suncat0154 pw.x -in pw.inp   Done                     12/25/2018 01:26:32
00043 suncat0154 pw.x -in pw.inp   Done                     12/25/2018 01:26:32
00044 suncat0154 pw.x -in pw.inp   Done                     12/25/2018 01:26:32
00045 suncat0154 pw.x -in pw.inp   Done                     12/25/2018 01:26:32
00046 suncat0154 pw.x -in pw.inp   Done                     12/25/2018 01:26:32
00047 suncat0154 pw.x -in pw.inp   Done                     12/25/2018 01:26:32
00048 suncat0209 pw.x -in pw.inp   Done                     12/25/2018 01:26:32
00049 suncat0209 pw.x -in pw.inp   Done                     12/25/2018 01:26:32
00050 suncat0209 pw.x -in pw.inp   Done                     12/25/2018 01:26:32
00051 suncat0209 pw.x -in pw.inp   Done                     12/25/2018 01:26:32
00052 suncat0209 pw.x -in pw.inp   Done                     12/25/2018 01:26:32
00053 suncat0209 pw.x -in pw.inp   Done                     12/25/2018 01:26:32
00054 suncat0209 pw.x -in pw.inp   Done                     12/25/2018 01:26:32
00055 suncat0209 pw.x -in pw.inp   Done                     12/25/2018 01:26:32
00056 suncat0203 pw.x -in pw.inp   Done                     12/25/2018 01:26:32
00057 suncat0203 pw.x -in pw.inp   Done                     12/25/2018 01:26:32
00058 suncat0203 pw.x -in pw.inp   Done                     12/25/2018 01:26:32
00059 suncat0203 pw.x -in pw.inp   Done                     12/25/2018 01:26:32
00060 suncat0203 pw.x -in pw.inp   Done                     12/25/2018 01:26:32
00061 suncat0203 pw.x -in pw.inp   Done                     12/25/2018 01:26:32
00062 suncat0203 pw.x -in pw.inp   Done                     12/25/2018 01:26:32
00063 suncat0203 pw.x -in pw.inp   Done                     12/25/2018 01:26:32