     Program PWSCF v.5.1rc2 (svn rev. 11289) starts on 18Dec2018 at 20:41:55

     Current dimensions of program PWSCF are:
     Max number of different atomic species (ntypx) = 10
     Max number of k-points (npk) =  40000
     Max angular momentum in pseudopotentials (lmaxx) =  3
     Presently stress not available with electric field

     IMPORTANT: XC functional enforced from input :
     Exchange-correlation      = BEEF-VDW ( 1  4 27 13 2)
     Any further DFT definition will be discarded
     Please, verify this is what you really want

     Subspace diagonalization in iterative solution of the eigenvalue problem:
     a serial algorithm will be used

     Found symmetry operation: I + (  0.5000 -0.5000  0.0000)
     This is a supercell, fractional translations are disabled

     Generating pointlists ...
     new r_m :   0.4125 (alat units)  0.7795 (a.u.) for type    1
     new r_m :   0.4125 (alat units)  0.7795 (a.u.) for type    2

     bravais-lattice index     =            0
     lattice parameter (alat)  =       1.8897  a.u.
     unit-cell volume          =    4336.8320 (a.u.)^3
     number of atoms/cell      =           12
     number of atomic types    =            2
     number of electrons       =       222.00
     number of Kohn-Sham states=          141
     kinetic-energy cutoff     =      36.7493  Ry
     charge density cutoff     =     367.4932  Ry
     convergence threshold     =      1.0E-06
     mixing beta               =       0.1000
     number of iterations used =           10  plain     mixing
     Exchange-correlation      = BEEF-VDW ( 1  4 27 13 2)
     nstep                     =           50

     celldm(1)=   1.889726  celldm(2)=   0.000000  celldm(3)=   0.000000
     celldm(4)=   0.000000  celldm(5)=   0.000000  celldm(6)=   0.000000

     crystal axes: (cart. coord. in units of alat)
               a(1) = (   5.482817   0.000000   0.000000 )
               a(2) = (   2.675930   4.785465   0.000000 )
               a(3) = (   0.000000   0.000000  24.493347 )

     reciprocal axes: (cart. coord. in units 2 pi/alat)
               b(1) = (  0.182388 -0.101988  0.000000 )
               b(2) = (  0.000000  0.208966  0.000000 )
               b(3) = (  0.000000  0.000000  0.040827 )

     PseudoPot. # 1 for Ni read from file:
     /afs/slac.stanford.edu/u/if/mamunm/psp/gbrv1.5pbe/Ni.UPF
     MD5 check sum: 1ee80287db30b12d2bc1f57a5b5d6409
     Pseudo is Ultrasoft + core correction, Zval = 18.0
     Generated by new atomic code, or converted to UPF format
     Using radial grid of  865 points,  6 beta functions with:
                l(1) =   0
                l(2) =   0
                l(3) =   1
                l(4) =   1
                l(5) =   2
                l(6) =   2
     Q(r) pseudized with 10 coefficients,  rinner =    0.980   0.980   0.980
                                                       0.980   0.980

     PseudoPot. # 2 for Ag read from file:
     /afs/slac.stanford.edu/u/if/mamunm/psp/gbrv1.5pbe/Ag.UPF
     MD5 check sum: d66d668201baa78d5eb5b04ef7011058
     Pseudo is Ultrasoft + core correction, Zval = 19.0
     Generated by new atomic code, or converted to UPF format
     Using radial grid of  887 points,  6 beta functions with:
                l(1) =   0
                l(2) =   0
                l(3) =   1
                l(4) =   1
                l(5) =   2
                l(6) =   2
     Q(r) pseudized with  6 coefficients,  rinner =    1.300   1.300   1.300
                                                       1.300   1.300

     vdW kernel table read from file vdW_kernel_table
     MD5 check sum: 095c7af220d748ca6e76c0b4c6cfb241

     atomic species   valence    mass     pseudopotential
        Ni1           18.00    58.69340     Ni( 1.00)
        Ag1           19.00   107.86820     Ag( 1.00)

     Starting magnetic structure
     atomic species   magnetization
        Ni1          0.111
        Ag1          0.105

     No symmetry found

   Cartesian axes

     site n.     atom                  positions (alat units)
         1           Ni1 tau(   1) = (   0.0000000   0.0000000  10.0000000  )
         2           Ni1 tau(   2) = (   4.0793736   2.3927325  10.0000000  )
         3           Ag1 tau(   3) = (   2.7414084   0.0000000  10.0000000  )
         4           Ag1 tau(   4) = (   1.3379652   2.3927325  10.0000000  )
         5           Ni1 tau(   5) = (   5.4828167   3.2159138  12.2466734  )
         6           Ni1 tau(   6) = (   1.4034431   0.8231813  12.2466734  )
         7           Ag1 tau(   7) = (   2.7414084   3.2159138  12.2466734  )
         8           Ag1 tau(   8) = (   4.1448515   0.8231813  12.2466734  )
         9           Ni1 tau(   9) = (   2.8068862   1.6463625  14.4933468  )
        10           Ni1 tau(  10) = (   6.8862598   4.0390950  14.4933468  )
        11           Ag1 tau(  11) = (   5.5482946   1.6463625  14.4933468  )
        12           Ag1 tau(  12) = (   4.1448515   4.0390950  14.4933468  )

     number of k points=    40  Fermi-Dirac smearing, width (Ry)=  0.0110
                       cart. coord. in units 2pi/alat
        k(    1) = (   0.0000000   0.0000000   0.0000000), wk =   0.0277778
        k(    2) = (   0.0000000   0.0348277   0.0000000), wk =   0.0555556
        k(    3) = (   0.0000000   0.0696554   0.0000000), wk =   0.0555556
        k(    4) = (   0.0000000  -0.1044831   0.0000000), wk =   0.0277778
        k(    5) = (   0.0303980  -0.0169979   0.0000000), wk =   0.0555556
        k(    6) = (   0.0303980   0.0178298   0.0000000), wk =   0.0555556
        k(    7) = (   0.0303980   0.0526575   0.0000000), wk =   0.0555556
        k(    8) = (   0.0303980  -0.1214810   0.0000000), wk =   0.0555556
        k(    9) = (   0.0303980  -0.0866533   0.0000000), wk =   0.0555556
        k(   10) = (   0.0303980  -0.0518256   0.0000000), wk =   0.0555556
        k(   11) = (   0.0607960  -0.0339958   0.0000000), wk =   0.0555556
        k(   12) = (   0.0607960   0.0008319   0.0000000), wk =   0.0555556
        k(   13) = (   0.0607960   0.0356595   0.0000000), wk =   0.0555556
        k(   14) = (   0.0607960  -0.1384789   0.0000000), wk =   0.0555556
        k(   15) = (   0.0607960  -0.1036512   0.0000000), wk =   0.0555556
        k(   16) = (   0.0607960  -0.0688235   0.0000000), wk =   0.0555556
        k(   17) = (  -0.0911940   0.0509938   0.0000000), wk =   0.0277778
        k(   18) = (  -0.0911940   0.0858214   0.0000000), wk =   0.0555556
        k(   19) = (  -0.0911940   0.1206491   0.0000000), wk =   0.0555556
        k(   20) = (  -0.0911940  -0.0534893   0.0000000), wk =   0.0277778
        k(   21) = (   0.0000000   0.0000000   0.0000000), wk =   0.0277778
        k(   22) = (   0.0000000   0.0348277   0.0000000), wk =   0.0555556
        k(   23) = (   0.0000000   0.0696554   0.0000000), wk =   0.0555556
        k(   24) = (   0.0000000  -0.1044831   0.0000000), wk =   0.0277778
        k(   25) = (   0.0303980  -0.0169979   0.0000000), wk =   0.0555556
        k(   26) = (   0.0303980   0.0178298   0.0000000), wk =   0.0555556
        k(   27) = (   0.0303980   0.0526575   0.0000000), wk =   0.0555556
        k(   28) = (   0.0303980  -0.1214810   0.0000000), wk =   0.0555556
        k(   29) = (   0.0303980  -0.0866533   0.0000000), wk =   0.0555556
        k(   30) = (   0.0303980  -0.0518256   0.0000000), wk =   0.0555556
        k(   31) = (   0.0607960  -0.0339958   0.0000000), wk =   0.0555556
        k(   32) = (   0.0607960   0.0008319   0.0000000), wk =   0.0555556
        k(   33) = (   0.0607960   0.0356595   0.0000000), wk =   0.0555556
        k(   34) = (   0.0607960  -0.1384789   0.0000000), wk =   0.0555556
        k(   35) = (   0.0607960  -0.1036512   0.0000000), wk =   0.0555556
        k(   36) = (   0.0607960  -0.0688235   0.0000000), wk =   0.0555556
        k(   37) = (  -0.0911940   0.0509938   0.0000000), wk =   0.0277778
        k(   38) = (  -0.0911940   0.0858214   0.0000000), wk =   0.0555556
        k(   39) = (  -0.0911940   0.1206491   0.0000000), wk =   0.0555556
        k(   40) = (  -0.0911940  -0.0534893   0.0000000), wk =   0.0277778

     Largest allocated arrays     est. size (Mb)     dimensions
     Largest temporary arrays     est. size (Mb)     dimensions

     Check: negative/imaginary core charge=   -0.000001    0.000000

     Initial potential from superposition of free atoms
     Check: negative starting charge=(component1):   -0.000930
     Check: negative starting charge=(component2):   -0.000752

     starting charge  206.99972, renormalised to  222.00000

     negative rho (up, down):  9.971E-04 8.062E-04

     *
     * You are using vdW-DF for exchange-correlation in this calculation.
     * Please cite the following three references that made this development
     * possible:
     *
     *   M. Dion, H. Rydberg, E. Schroder, D. C. Langreth, and
     *   B. I. Lundqvist, Phys. Rev. Lett. 92, 246401 (2004).
     *
     *   T. Thonhauser, V. R. Cooper, S. Li, A. Puzder, P. Hyldgaard, and
     *   D. C. Langreth, Phys. Rev. B 76, 125112 (2007).
     *
     *   G. Roman-Perez and J. M. Soler, Phys. Rev. Lett. 103, 096102 (2009).
     *
     *
     * If you are using vdW-DF2, please also cite:
     *
     *   K. Lee, E. D. Murray, L. Kong, B. I. Lundqvist, and
     *   D. C. Langreth, Phys. Rev. B 82, 081101(R) (2010).
     *
     *
     * If you are calculating the stress with vdW-DF, please also cite:
     *
     *   R. Sabatini, E. Kucukbenli, B. Kolb, T. Thonhauser, and
     *   S. de Gironcoli, J. Phys.: Condens. Matter 24, 424209 (2012).
     *

     Carrying out vdW-DF run using the following parameters:

     Nqs =      20    Nr_points =    1024   r_max =   100.000
     q_mesh =
               0.00001000     0.04494208     0.09755937     0.15916263
               0.23128650     0.31572767     0.41458969     0.53033537
               0.66584808     0.82450364     1.01025438     1.22772762
               1.48234092     1.78043706     2.12944203     2.53805004
               3.01644009     3.57652955     4.23227104     5.00000000

     Gradients computed in reciprocal space

     Adding external electric field

     Computed dipole along edir(3) :
        Dipole                0.0000 Ry au,          0.0000 Debye
        Dipole field          0.0000 Ry au

        Potential amp.       -0.0000 Ry
        Total length         45.1286 bohr

[...]

     Starting wfc are  156 randomized atomic wfcs

     Self-consistent Calculation

     iteration #  1     ecut=    36.75 Ry     beta=0.10
     Davidson diagonalization with overlap
     ethr =  1.00E-02,  avg # of iterations =  7.0

[...]

     Magnetic moment per site:
     atom:    1    charge:    9.6121    magn:    1.0309    constr:    0.0000
     atom:    2    charge:    9.6121    magn:    1.0309    constr:    0.0000
     atom:    3    charge:    5.2419    magn:    0.5256    constr:    0.0000
     atom:    4    charge:    5.2419    magn:    0.5256    constr:    0.0000
     atom:    5    charge:    9.6191    magn:    1.0284    constr:    0.0000
     atom:    6    charge:    9.6191    magn:    1.0284    constr:    0.0000
[...]

     PseudoPot. # 2 for Ag read from file:
     /afs/slac.stanford.edu/u/if/mamunm/psp/gbrv1.5pbe/Ag.UPF
     MD5 check sum: d66d668201baa78d5eb5b04ef7011058
     Pseudo is Ultrasoft + core correction, Zval = 19.0
     Generated by new atomic code, or converted to UPF format
     Using radial grid of  887 points,  6 beta functions with:
                l(1) =   0
                l(2) =   0
                l(3) =   1
                l(4) =   1
                l(5) =   2
                l(6) =   2
     Q(r) pseudized with  6 coefficients,  rinner =    1.300   1.300   1.300
                                                       1.300   1.300

     vdW kernel table read from file vdW_kernel_table
     MD5 check sum: 095c7af220d748ca6e76c0b4c6cfb241

     atomic species   valence    mass     pseudopotential
        Ni1           18.00    58.69340     Ni( 1.00)
        Ag1           19.00   107.86820     Ag( 1.00)

     Starting magnetic structure
     atomic species   magnetization
        Ni1          0.111
        Ag1          0.105

     No symmetry found

   Cartesian axes

     site n.     atom                  positions (alat units)
         1           Ni1 tau(   1) = (   0.0000000   0.0000000  10.0000000  )
         2           Ni1 tau(   2) = (   4.0793736   2.3927325  10.0000000  )
         3           Ag1 tau(   3) = (   2.7414084   0.0000000  10.0000000  )
         4           Ag1 tau(   4) = (   1.3379652   2.3927325  10.0000000  )
         5           Ni1 tau(   5) = (   5.4828167   3.2159138  12.2466734  )
         6           Ni1 tau(   6) = (   1.4034431   0.8231813  12.2466734  )
         7           Ag1 tau(   7) = (   2.7414084   3.2159138  12.2466734  )
         8           Ag1 tau(   8) = (   4.1448515   0.8231813  12.2466734  )
         9           Ni1 tau(   9) = (   2.5825161   1.5147565  14.3279852  )
        10           Ni1 tau(  10) = (   6.6620580   3.9075931  14.3280287  )
        11           Ag1 tau(  11) = (   5.3851762   1.5505812  14.6362104  )
        12           Ag1 tau(  12) = (   3.9816386   3.9434687  14.6362112  )

     number of k points=    40  Fermi-Dirac smearing, width (Ry)=  0.0110
                       cart. coord. in units 2pi/alat
        k(    1) = (   0.0000000   0.0000000   0.0000000), wk =   0.0277778
        k(    2) = (   0.0000000   0.0348277   0.0000000), wk =   0.0555556
        k(    3) = (   0.0000000   0.0696554   0.0000000), wk =   0.0555556
        k(    4) = (   0.0000000  -0.1044831   0.0000000), wk =   0.0277778
        k(    5) = (   0.0303980  -0.0169979   0.0000000), wk =   0.0555556
        k(    6) = (   0.0303980   0.0178298   0.0000000), wk =   0.0555556
        k(    7) = (   0.0303980   0.0526575   0.0000000), wk =   0.0555556
        k(    8) = (   0.0303980  -0.1214810   0.0000000), wk =   0.0555556
        k(    9) = (   0.0303980  -0.0866533   0.0000000), wk =   0.0555556
        k(   10) = (   0.0303980  -0.0518256   0.0000000), wk =   0.0555556
        k(   11) = (   0.0607960  -0.0339958   0.0000000), wk =   0.0555556
        k(   12) = (   0.0607960   0.0008319   0.0000000), wk =   0.0555556
        k(   13) = (   0.0607960   0.0356595   0.0000000), wk =   0.0555556
        k(   14) = (   0.0607960  -0.1384789   0.0000000), wk =   0.0555556
        k(   15) = (   0.0607960  -0.1036512   0.0000000), wk =   0.0555556
        k(   16) = (   0.0607960  -0.0688235   0.0000000), wk =   0.0555556
        k(   17) = (  -0.0911940   0.0509938   0.0000000), wk =   0.0277778
        k(   18) = (  -0.0911940   0.0858214   0.0000000), wk =   0.0555556
        k(   19) = (  -0.0911940   0.1206491   0.0000000), wk =   0.0555556
        k(   20) = (  -0.0911940  -0.0534893   0.0000000), wk =   0.0277778
        k(   21) = (   0.0000000   0.0000000   0.0000000), wk =   0.0277778
        k(   22) = (   0.0000000   0.0348277   0.0000000), wk =   0.0555556
        k(   23) = (   0.0000000   0.0696554   0.0000000), wk =   0.0555556
        k(   24) = (   0.0000000  -0.1044831   0.0000000), wk =   0.0277778
        k(   25) = (   0.0303980  -0.0169979   0.0000000), wk =   0.0555556
        k(   26) = (   0.0303980   0.0178298   0.0000000), wk =   0.0555556
        k(   27) = (   0.0303980   0.0526575   0.0000000), wk =   0.0555556
        k(   28) = (   0.0303980  -0.1214810   0.0000000), wk =   0.0555556
        k(   29) = (   0.0303980  -0.0866533   0.0000000), wk =   0.0555556
        k(   30) = (   0.0303980  -0.0518256   0.0000000), wk =   0.0555556
        k(   31) = (   0.0607960  -0.0339958   0.0000000), wk =   0.0555556
        k(   32) = (   0.0607960   0.0008319   0.0000000), wk =   0.0555556
        k(   33) = (   0.0607960   0.0356595   0.0000000), wk =   0.0555556
        k(   34) = (   0.0607960  -0.1384789   0.0000000), wk =   0.0555556
        k(   35) = (   0.0607960  -0.1036512   0.0000000), wk =   0.0555556
        k(   36) = (   0.0607960  -0.0688235   0.0000000), wk =   0.0555556
        k(   37) = (  -0.0911940   0.0509938   0.0000000), wk =   0.0277778
        k(   38) = (  -0.0911940   0.0858214   0.0000000), wk =   0.0555556
        k(   39) = (  -0.0911940   0.1206491   0.0000000), wk =   0.0555556
        k(   40) = (  -0.0911940  -0.0534893   0.0000000), wk =   0.0277778

     Largest allocated arrays     est. size (Mb)     dimensions
     Largest temporary arrays     est. size (Mb)     dimensions

     Check: negative/imaginary core charge=   -0.000001    0.000000

     Initial potential from superposition of free atoms
     Check: negative starting charge=(component1):   -0.000945
     Check: negative starting charge=(component2):   -0.000764

     starting charge  206.99972, renormalised to  222.00000

[...]

     *
     * You are using vdW-DF for exchange-correlation in this calculation.
     * Please cite the following three references that made this development
     * possible:
     *
     *   M. Dion, H. Rydberg, E. Schroder, D. C. Langreth, and
     *   B. I. Lundqvist, Phys. Rev. Lett. 92, 246401 (2004).
     *
     *   T. Thonhauser, V. R. Cooper, S. Li, A. Puzder, P. Hyldgaard, and
     *   D. C. Langreth, Phys. Rev. B 76, 125112 (2007).
     *
     *   G. Roman-Perez and J. M. Soler, Phys. Rev. Lett. 103, 096102 (2009).
     *
     *
     * If you are using vdW-DF2, please also cite:
     *
     *   K. Lee, E. D. Murray, L. Kong, B. I. Lundqvist, and
     *   D. C. Langreth, Phys. Rev. B 82, 081101(R) (2010).
     *
     *
     * If you are calculating the stress with vdW-DF, please also cite:
     *
     *   R. Sabatini, E. Kucukbenli, B. Kolb, T. Thonhauser, and
     *   S. de Gironcoli, J. Phys.: Condens. Matter 24, 424209 (2012).
     *

     Carrying out vdW-DF run using the following parameters:

     Nqs =      20    Nr_points =    1024   r_max =   100.000
     q_mesh =
               0.00001000     0.04494208     0.09755937     0.15916263
               0.23128650     0.31572767     0.41458969     0.53033537
               0.66584808     0.82450364     1.01025438     1.22772762
               1.48234092     1.78043706     2.12944203     2.53805004
               3.01644009     3.57652955     4.23227104     5.00000000

     Gradients computed in reciprocal space

[...]

     Starting wfc are  156 randomized atomic wfcs

     Self-consistent Calculation

[...]

     total energy              =   -3846.19023224 Ry
     Harris-Foulkes estimate   =   -3846.19023165 Ry
     estimated scf accuracy    <       0.00000163 Ry

[...]

     iteration # 33     ecut=    36.75 Ry     beta=0.10
     Davidson diagonalization with overlap
     ethr =  7.35E-10,  avg # of iterations =  2.0

[...]

     negative rho (up, down):  1.059E-03 9.935E-04

[...]

     Adding external electric field

     Computed dipole along edir(3) :
        Dipole                0.0113 Ry au,          0.0287 Debye
        Dipole field          0.0000 Ry au

        Potential amp.       -0.0030 Ry
        Total length         45.1286 bohr

     Magnetic moment per site:
     atom:    1    charge:    9.3568    magn:    0.2904    constr:    0.0000
     atom:    2    charge:    9.3567    magn:    0.2904    constr:    0.0000
     atom:    3    charge:    5.0743    magn:    0.0017    constr:    0.0000
     atom:    4    charge:    5.0743    magn:    0.0017    constr:    0.0000
     atom:    5    charge:    9.3754    magn:    0.3051    constr:    0.0000
     atom:    6    charge:    9.3755    magn:    0.3050    constr:    0.0000
     atom:    7    charge:    5.1011    magn:    0.0021    constr:    0.0000
     atom:    8    charge:    5.1011    magn:    0.0021    constr:    0.0000
     atom:    9    charge:    9.3664    magn:    0.2971    constr:    0.0000
     atom:   10    charge:    9.3665    magn:    0.2971    constr:    0.0000
     atom:   11    charge:    5.0789    magn:    0.0010    constr:    0.0000
     atom:   12    charge:    5.0789    magn:    0.0010    constr:    0.0000

     End of self-consistent calculation

 ------ SPIN UP ------------

[...]

 ------ SPIN DOWN ----------

[...]

          k = 0.0608-0.0688 0.0000 ( 16334 PWs)   bands (ev):

[...]

          k =-0.0912-0.0535 0.0000 ( 16324 PWs)   bands (ev):

  -101.4253-101.4229-101.3450-101.3426-101.2626-101.2602 -91.2155 -91.2054
   -91.0107 -91.0005 -90.9162 -90.9060 -61.9078 -61.9052 -61.8290 -61.7948
   -61.7946 -61.7935 -61.7909 -61.7764 -61.7742 -61.7606 -61.7398 -61.7091
   -61.7064 -61.7055 -61.7003 -61.6979 -61.6044 -61.6017 -54.7768 -54.7156
   -54.7035 -54.6934 -54.6814 -54.6428 -54.5888 -54.5126 -54.5015 -54.5008
   -54.4550 -54.4548 -54.4433 -54.4221 -54.4102 -54.3675 -54.3568 -54.3451
    -5.0785  -4.7975  -4.7306  -4.6037  -4.5238  -4.4835  -4.3340  -4.2790
    -4.1894  -4.0831  -4.0543  -4.0106  -3.9660  -3.8315  -3.6227  -3.4850
    -3.3961  -3.3076  -3.1970  -3.1435  -3.0779  -3.0207  -2.8955  -2.8926
    -2.8749  -2.7266  -2.6734  -2.6301  -2.5489  -2.5303  -2.4214  -2.2977
    -1.8075  -1.4718  -1.3912  -0.9861  -0.8139  -0.7050  -0.5148  -0.4439
    -0.4124  -0.3725  -0.3479  -0.3312  -0.3284  -0.2464  -0.1944  -0.1343
    -0.1037   0.1913   0.2328   0.2602   0.2858   0.3351   0.5175   0.5428
     0.5873   0.6448   0.6593   0.7132   0.7651   0.7885   0.8452   1.1603
     1.4157   1.8997   2.0744   2.1122   2.7385   2.8440   4.1430   4.3836
     4.7764   5.1096   6.3335   6.3870   6.9400   6.9850   7.1638   7.1885
     7.4622   7.6228   8.0076   8.1966   8.2644   8.3423   8.4598   8.5347
     8.5798   8.7454   9.3452   9.3555   9.7745

     the Fermi energy is     0.9008 ev

!    total energy              =   -3846.19023480 Ry
     Harris-Foulkes estimate   =   -3846.19023247 Ry
     estimated scf accuracy    <       0.00000088 Ry

     The total energy is the sum of the following terms:

     one-electron contribution =  -29716.21683913 Ry
     hartree contribution      =   14860.86086097 Ry
     xc contribution           =    -401.18174593 Ry
     ewald contribution        =   11410.43065654 Ry
     electric field correction =       0.00000037 Ry
     smearing contrib. (-TS)   =      -0.08316762 Ry

     total magnetization       =     2.91 Bohr mag/cell
     absolute magnetization    =     3.56 Bohr mag/cell

     convergence has been achieved in  33 iterations

 BEEF-vdW xc energy contributions
           1 :   -350.882978345117
           2 :    317.879795752479
           3 :   -262.591816886672
           4 :    201.373430440814
           5 :   -149.125054366483
           6 :    113.836488218454
           7 :   -95.1385425651960
           8 :    86.8524409125923
           9 :   -81.5508936857920
          10 :    74.4362779527892
          11 :   -64.7401489723903
          12 :    54.5372802116152
          13 :   -46.3446428312747
          14 :    41.2263416812056
          15 :   -38.4181473166093
          16 :    36.2815546086900
          17 :   -33.6120564656177
          18 :    30.3159370165706
          19 :   -27.1381052712250
          20 :    24.8385697720724
          21 :   -23.5375435452993
          22 :    22.6780728321350
          23 :   -21.5349691209025
          24 :    19.7949972100316
          25 :   -17.7620180152221
          26 :    16.0700786695701
          27 :   -15.1768366389484
          28 :    15.0301825201752
          29 :   -15.1408955941928
          30 :    14.9624703105393
          31 :   -31.6755005483253
          32 :   -22.5713065530227

     Forces acting on atoms (Ry/au):

     negative rho (up, down):  1.059E-03 9.935E-04
     atom    1 type  1   force =     0.00955660    0.00560547    0.01471805
     atom    2 type  1   force =     0.00955173    0.00560239    0.01470849
     atom    3 type  2   force =    -0.00869273   -0.00509906   -0.01636925
     atom    4 type  2   force =    -0.00869309   -0.00509849   -0.01636920
     atom    5 type  1   force =    -0.00664306   -0.00389650    0.00582562
     atom    6 type  1   force =    -0.00661480   -0.00387983    0.00585403
     atom    7 type  2   force =     0.00603927    0.00352799   -0.00532263
     atom    8 type  2   force =     0.00602695    0.00354937   -0.00532288
     atom    9 type  1   force =    -0.00049087   -0.00028788   -0.00029170
     atom   10 type  1   force =    -0.00055902   -0.00032791   -0.00033966
     atom   11 type  2   force =     0.00023256    0.00019820    0.00145452
     atom   12 type  2   force =     0.00028647    0.00010626    0.00145462

     Total force =     0.041995     Total SCF correction =     0.002930

     entering subroutine stress ...

     negative rho (up, down):  1.059E-03 9.935E-04
          total   stress  (Ry/bohr**3)                   (kbar)     P=  -34.67
  -0.00025239   0.00000859  -0.00000134        -37.13      1.26     -0.20
   0.00000859  -0.00026200  -0.00000078          1.26    -38.54     -0.12
  -0.00000134  -0.00000078  -0.00019270         -0.20     -0.12    -28.35

 !ASE

     Writing output data file calc.save

     General routines

     Parallel routines

   This run was terminated on:   0:28:21  19Dec2018

   JOB DONE.
Job  /afs/slac/g/suncat/bin/suncat-tsmpirun -x LD_LIBRARY_PATH -wdir /scratch/qe530332_d0KEP pw.x -in pw.inp

TID   HOST_NAME   COMMAND_LINE            STATUS            TERMINATION_TIME
00000 suncat2056 pw.x -in pw.inp   Done                     12/19/2018 00:28:21
00001 suncat2056 pw.x -in pw.inp   Done                     12/19/2018 00:28:21
00002 suncat2056 pw.x -in pw.inp   Done                     12/19/2018 00:28:21
00003 suncat2056 pw.x -in pw.inp   Done                     12/19/2018 00:28:21
00004 suncat2056 pw.x -in pw.inp   Done                     12/19/2018 00:28:21
00005 suncat2056 pw.x -in pw.inp   Done                     12/19/2018 00:28:21
00006 suncat2056 pw.x -in pw.inp   Done                     12/19/2018 00:28:21
00007 suncat2056 pw.x -in pw.inp   Done                     12/19/2018 00:28:21
00008 suncat2056 pw.x -in pw.inp   Done                     12/19/2018 00:28:21
00009 suncat2056 pw.x -in pw.inp   Done                     12/19/2018 00:28:21
00010 suncat2056 pw.x -in pw.inp   Done                     12/19/2018 00:28:21
00011 suncat2056 pw.x -in pw.inp   Done                     12/19/2018 00:28:21
00012 suncat2056 pw.x -in pw.inp   Done                     12/19/2018 00:28:21
00013 suncat2056 pw.x -in pw.inp   Done                     12/19/2018 00:28:21
00014 suncat2056 pw.x -in pw.inp   Done                     12/19/2018 00:28:21
00015 suncat2056 pw.x -in pw.inp   Done                     12/19/2018 00:28:21
00016 suncat2055 pw.x -in pw.inp   Done                     12/19/2018 00:28:21
00017 suncat2055 pw.x -in pw.inp   Done                     12/19/2018 00:28:21
00018 suncat2055 pw.x -in pw.inp   Done                     12/19/2018 00:28:21
00019 suncat2055 pw.x -in pw.inp   Done                     12/19/2018 00:28:21
00020 suncat2055 pw.x -in pw.inp   Done                     12/19/2018 00:28:21
00021 suncat2055 pw.x -in pw.inp   Done                     12/19/2018 00:28:21
00022 suncat2055 pw.x -in pw.inp   Done                     12/19/2018 00:28:21
00023 suncat2055 pw.x -in pw.inp   Done                     12/19/2018 00:28:21
00024 suncat2055 pw.x -in pw.inp   Done                     12/19/2018 00:28:21
00025 suncat2055 pw.x -in pw.inp   Done                     12/19/2018 00:28:21
00026 suncat2055 pw.x -in pw.inp   Done                     12/19/2018 00:28:21
00027 suncat2055 pw.x -in pw.inp   Done                     12/19/2018 00:28:21
00028 suncat2055 pw.x -in pw.inp   Done                     12/19/2018 00:28:21
00029 suncat2055 pw.x -in pw.inp   Done                     12/19/2018 00:28:21
00030 suncat2055 pw.x -in pw.inp   Done                     12/19/2018 00:28:21
00031 suncat2055 pw.x -in pw.inp   Done                     12/19/2018 00:28:21