     Program PWSCF v.5.1rc2 (svn rev. 11289) starts on 18Dec2018 at 21:31:34

     Current dimensions of program PWSCF are:
     Max number of different atomic species (ntypx) = 10
     Max number of k-points (npk) =  40000
     Max angular momentum in pseudopotentials (lmaxx) =  3
     Presently stress not available with electric field

     IMPORTANT: XC functional enforced from input :
     Exchange-correlation      = BEEF-VDW ( 1  4 27 13 2)
     Any further DFT definition will be discarded
     Please, verify this is what you really want

     Subspace diagonalization in iterative solution of the eigenvalue problem:
     a serial algorithm will be used

     Found symmetry operation: I + ( -0.5000  0.0000  0.0000)
     This is a supercell, fractional translations are disabled

     Generating pointlists ...
     new r_m :   0.4125 (alat units)  0.7795 (a.u.) for type    1
     new r_m :   0.4125 (alat units)  0.7795 (a.u.) for type    2

     bravais-lattice index     =            0
     lattice parameter (alat)  =       1.8897  a.u.
     unit-cell volume          =    4027.5282 (a.u.)^3
     number of atoms/cell      =           12
     number of atomic types    =            2
     number of electrons       =       192.00
     number of Kohn-Sham states=          126
     kinetic-energy cutoff     =      36.7493  Ry
     charge density cutoff     =     367.4932  Ry
     convergence threshold     =      1.0E-06
     mixing beta               =       0.1000
     number of iterations used =           10  plain     mixing
     Exchange-correlation      = BEEF-VDW ( 1  4 27 13 2)
     nstep                     =           50

     celldm(1)=   1.889726  celldm(2)=   0.000000  celldm(3)=   0.000000
     celldm(4)=   0.000000  celldm(5)=   0.000000  celldm(6)=   0.000000

     crystal axes: (cart. coord. in units of alat)
               a(1) = (   5.274725   0.000000   0.000000 )
               a(2) = (  -2.637362   4.647955   0.000000 )
               a(3) = (   0.000000   0.000000  24.343344 )

     reciprocal axes: (cart. coord. in units 2 pi/alat)
               b(1) = (  0.189583  0.107574  0.000000 )
               b(2) = (  0.000000  0.215148  0.000000 )
               b(3) = (  0.000000  0.000000  0.041079 )

     PseudoPot. # 1 for Ni read from file:
     /afs/slac.stanford.edu/u/if/mamunm/psp/gbrv1.5pbe/Ni.UPF
     MD5 check sum: 1ee80287db30b12d2bc1f57a5b5d6409
     Pseudo is Ultrasoft + core correction, Zval = 18.0
     Generated by new atomic code, or converted to UPF format
     Using radial grid of  865 points,  6 beta functions with:
                l(1) =   0
                l(2) =   0
                l(3) =   1
                l(4) =   1
                l(5) =   2
                l(6) =   2
     Q(r) pseudized with 10 coefficients,  rinner =    0.980   0.980   0.980
                                                       0.980   0.980

     PseudoPot. # 2 for Mo read from file:
     /afs/slac.stanford.edu/u/if/mamunm/psp/gbrv1.5pbe/Mo.UPF
     MD5 check sum: 30c4dcd161f5d35cd49bb5239c51a633
     Pseudo is Ultrasoft + core correction, Zval = 14.0
     Generated by new atomic code, or converted to UPF format
     Using radial grid of  889 points,  6 beta functions with:
                l(1) =   0
                l(2) =   0
                l(3) =   1
                l(4) =   1
                l(5) =   2
                l(6) =   2
     Q(r) pseudized with  6 coefficients,  rinner =    1.000   1.000   1.000
                                                       1.000   1.000

     vdW kernel table read from file vdW_kernel_table
     MD5 check sum: 095c7af220d748ca6e76c0b4c6cfb241

     atomic species   valence    mass     pseudopotential
        Ni1           18.00    58.69340     Ni( 1.00)
        Mo1           14.00    95.95000     Mo( 1.00)

     Starting magnetic structure
     atomic species   magnetization
        Ni1          0.111
        Mo1          0.143

     No symmetry found

   Cartesian axes

     site n.     atom                  positions (alat units)
         1           Ni1 tau(   1) = (   0.0000000   0.0000000  10.0000000  )
         2           Ni1 tau(   2) = (   2.6373624   0.0000000  10.0000000  )
         3           Mo1 tau(   3) = (   1.3186812   2.3239777  10.0000000  )
         4           Mo1 tau(   4) = (  -1.3186812   2.3239777  10.0000000  )
         5           Ni1 tau(   5) = (   2.6373624   1.4965033  12.1716718  )
         6           Ni1 tau(   6) = (  -0.0000000   1.4965033  12.1716718  )
         7           Mo1 tau(   7) = (  -1.3186812   3.8204810  12.1716718  )
         8           Mo1 tau(   8) = (   1.3186812   3.8204810  12.1716718  )
         9           Ni1 tau(   9) = (   0.0000000   2.9930066  14.3433436  )
        10           Ni1 tau(  10) = (   2.6373624   2.9930066  14.3433436  )
        11           Mo1 tau(  11) = (   3.9560436   0.6690289  14.3433436  )
        12           Mo1 tau(  12) = (   1.3186812   0.6690289  14.3433436  )

     number of k points=    40  Fermi-Dirac smearing, width (Ry)=  0.0110
                       cart. coord. in units 2pi/alat
        k(    1) = (   0.0000000   0.0000000   0.0000000), wk =   0.0277778
        k(    2) = (   0.0000000   0.0358581   0.0000000), wk =   0.0555556
        k(    3) = (   0.0000000   0.0717161   0.0000000), wk =   0.0555556
        k(    4) = (   0.0000000  -0.1075742   0.0000000), wk =   0.0277778
        k(    5) = (   0.0315972   0.0179290   0.0000000), wk =   0.0555556
        k(    6) = (   0.0315972   0.0537871   0.0000000), wk =   0.0555556
        k(    7) = (   0.0315972   0.0896452   0.0000000), wk =   0.0555556
        k(    8) = (   0.0315972  -0.0896452   0.0000000), wk =   0.0555556
        k(    9) = (   0.0315972  -0.0537871   0.0000000), wk =   0.0555556
        k(   10) = (   0.0315972  -0.0179290   0.0000000), wk =   0.0555556
        k(   11) = (   0.0631944   0.0358581   0.0000000), wk =   0.0555556
        k(   12) = (   0.0631944   0.0717161   0.0000000), wk =   0.0555556
        k(   13) = (   0.0631944   0.1075742   0.0000000), wk =   0.0555556
        k(   14) = (   0.0631944  -0.0717161   0.0000000), wk =   0.0555556
        k(   15) = (   0.0631944  -0.0358581   0.0000000), wk =   0.0555556
        k(   16) = (   0.0631944   0.0000000   0.0000000), wk =   0.0555556
        k(   17) = (  -0.0947917  -0.0537871   0.0000000), wk =   0.0277778
        k(   18) = (  -0.0947917  -0.0179290   0.0000000), wk =   0.0555556
        k(   19) = (  -0.0947917   0.0179290   0.0000000), wk =   0.0555556
        k(   20) = (  -0.0947917  -0.1613613   0.0000000), wk =   0.0277778
        k(   21) = (   0.0000000   0.0000000   0.0000000), wk =   0.0277778
        k(   22) = (   0.0000000   0.0358581   0.0000000), wk =   0.0555556
        k(   23) = (   0.0000000   0.0717161   0.0000000), wk =   0.0555556
        k(   24) = (   0.0000000  -0.1075742   0.0000000), wk =   0.0277778
        k(   25) = (   0.0315972   0.0179290   0.0000000), wk =   0.0555556
        k(   26) = (   0.0315972   0.0537871   0.0000000), wk =   0.0555556
        k(   27) = (   0.0315972   0.0896452   0.0000000), wk =   0.0555556
        k(   28) = (   0.0315972  -0.0896452   0.0000000), wk =   0.0555556
        k(   29) = (   0.0315972  -0.0537871   0.0000000), wk =   0.0555556
        k(   30) = (   0.0315972  -0.0179290   0.0000000), wk =   0.0555556
        k(   31) = (   0.0631944   0.0358581   0.0000000), wk =   0.0555556
        k(   32) = (   0.0631944   0.0717161   0.0000000), wk =   0.0555556
        k(   33) = (   0.0631944   0.1075742   0.0000000), wk =   0.0555556
        k(   34) = (   0.0631944  -0.0717161   0.0000000), wk =   0.0555556
        k(   35) = (   0.0631944  -0.0358581   0.0000000), wk =   0.0555556
        k(   36) = (   0.0631944   0.0000000   0.0000000), wk =   0.0555556
        k(   37) = (  -0.0947917  -0.0537871   0.0000000), wk =   0.0277778
        k(   38) = (  -0.0947917  -0.0179290   0.0000000), wk =   0.0555556
        k(   39) = (  -0.0947917   0.0179290   0.0000000), wk =   0.0555556
        k(   40) = (  -0.0947917  -0.1613613   0.0000000), wk =   0.0277778

     Largest allocated arrays     est. size (Mb)     dimensions
     Largest temporary arrays     est. size (Mb)     dimensions

     Check: negative/imaginary core charge=   -0.000001    0.000000

     Initial potential from superposition of free atoms
     Check: negative starting charge=(component1):   -0.001946
     Check: negative starting charge=(component2):   -0.001461

     starting charge  179.99362, renormalised to  192.00000

     negative rho (up, down):  2.075E-03 1.558E-03

     *
     * You are using vdW-DF for exchange-correlation in this calculation.
     * Please cite the following three references that made this development
     * possible:
     *
     *   M. Dion, H. Rydberg, E. Schroder, D. C. Langreth, and
     *   B. I. Lundqvist, Phys. Rev. Lett. 92, 246401 (2004).
     *
     *   T. Thonhauser, V. R. Cooper, S. Li, A. Puzder, P. Hyldgaard, and
     *   D. C. Langreth, Phys. Rev. B 76, 125112 (2007).
     *
     *   G. Roman-Perez and J. M. Soler, Phys. Rev. Lett. 103, 096102 (2009).
     *
     *
     * If you are using vdW-DF2, please also cite:
     *
     *   K. Lee, E. D. Murray, L. Kong, B. I. Lundqvist, and
     *   D. C. Langreth, Phys. Rev. B 82, 081101(R) (2010).
     *
     *
     * If you are calculating the stress with vdW-DF, please also cite:
     *
     *   R. Sabatini, E. Kucukbenli, B. Kolb, T. Thonhauser, and
     *   S. de Gironcoli, J. Phys.: Condens. Matter 24, 424209 (2012).
     *

     Carrying out vdW-DF run using the following parameters:

     Nqs =      20    Nr_points =    1024   r_max =   100.000
     q_mesh =
               0.00001000     0.04494208     0.09755937     0.15916263
               0.23128650     0.31572767     0.41458969     0.53033537
               0.66584808     0.82450364     1.01025438     1.22772762
               1.48234092     1.78043706     2.12944203     2.53805004
               3.01644009     3.57652955     4.23227104     5.00000000

     Gradients computed in reciprocal space

     Adding external electric field

     Computed dipole along edir(3) :
        Dipole               -0.0000 Ry au,         -0.0000 Debye
        Dipole field         -0.0000 Ry au

        Potential amp.        0.0000 Ry
        Total length         44.8522 bohr

[...]

     Starting wfc are  156 randomized atomic wfcs

     Self-consistent Calculation

     iteration #  1     ecut=    36.75 Ry     beta=0.10
     Davidson diagonalization with overlap
     ethr =  1.00E-02,  avg # of iterations =  7.4

[...]

     Magnetic moment per site:
     atom:    1    charge:    9.5382    magn:    1.0155    constr:    0.0000
     atom:    2    charge:    9.5382    magn:    1.0155    constr:    0.0000
     atom:    3    charge:    1.9821    magn:    0.2598    constr:    0.0000
     atom:    4    charge:    1.9821    magn:    0.2598    constr:    0.0000
     atom:    5    charge:    9.5549    magn:    1.0183    constr:    0.0000
     atom:    6    charge:    9.5549    magn:    1.0183    constr:    0.0000
[...]
                l(6) =   2
     Q(r) pseudized with 10 coefficients,  rinner =    0.980   0.980   0.980
                                                       0.980   0.980

     PseudoPot. # 2 for Mo read from file:
     /afs/slac.stanford.edu/u/if/mamunm/psp/gbrv1.5pbe/Mo.UPF
     MD5 check sum: 30c4dcd161f5d35cd49bb5239c51a633
     Pseudo is Ultrasoft + core correction, Zval = 14.0
     Generated by new atomic code, or converted to UPF format
     Using radial grid of  889 points,  6 beta functions with:
                l(1) =   0
                l(2) =   0
                l(3) =   1
                l(4) =   1
                l(5) =   2
                l(6) =   2
     Q(r) pseudized with  6 coefficients,  rinner =    1.000   1.000   1.000
                                                       1.000   1.000

     vdW kernel table read from file vdW_kernel_table
     MD5 check sum: 095c7af220d748ca6e76c0b4c6cfb241

     atomic species   valence    mass     pseudopotential
        Ni1           18.00    58.69340     Ni( 1.00)
        Mo1           14.00    95.95000     Mo( 1.00)

     Starting magnetic structure
     atomic species   magnetization
        Ni1          0.111
        Mo1          0.143

     No symmetry found

   Cartesian axes

     site n.     atom                  positions (alat units)
         1           Ni1 tau(   1) = (   0.0000000   0.0000000  10.0000000  )
         2           Ni1 tau(   2) = (   2.6373624   0.0000000  10.0000000  )
         3           Mo1 tau(   3) = (   1.3186812   2.3239777  10.0000000  )
         4           Mo1 tau(   4) = (  -1.3186812   2.3239777  10.0000000  )
         5           Ni1 tau(   5) = (   2.6373624   1.4965033  12.1716718  )
         6           Ni1 tau(   6) = (  -0.0000000   1.4965033  12.1716718  )
         7           Mo1 tau(   7) = (  -1.3186812   3.8204810  12.1716718  )
         8           Mo1 tau(   8) = (   1.3186812   3.8204810  12.1716718  )
         9           Ni1 tau(   9) = (  -0.0000003   3.0631858  14.2847815  )
        10           Ni1 tau(  10) = (   2.6373624   3.0630082  14.2847075  )
        11           Mo1 tau(  11) = (   3.9560576   0.7473354  14.2665926  )
        12           Mo1 tau(  12) = (   1.3186671   0.7473355  14.2665927  )

     number of k points=    40  Fermi-Dirac smearing, width (Ry)=  0.0110
                       cart. coord. in units 2pi/alat
        k(    1) = (   0.0000000   0.0000000   0.0000000), wk =   0.0277778
        k(    2) = (   0.0000000   0.0358581   0.0000000), wk =   0.0555556
        k(    3) = (   0.0000000   0.0717161   0.0000000), wk =   0.0555556
        k(    4) = (   0.0000000  -0.1075742   0.0000000), wk =   0.0277778
        k(    5) = (   0.0315972   0.0179290   0.0000000), wk =   0.0555556
        k(    6) = (   0.0315972   0.0537871   0.0000000), wk =   0.0555556
        k(    7) = (   0.0315972   0.0896452   0.0000000), wk =   0.0555556
        k(    8) = (   0.0315972  -0.0896452   0.0000000), wk =   0.0555556
        k(    9) = (   0.0315972  -0.0537871   0.0000000), wk =   0.0555556
        k(   10) = (   0.0315972  -0.0179290   0.0000000), wk =   0.0555556
        k(   11) = (   0.0631944   0.0358581   0.0000000), wk =   0.0555556
        k(   12) = (   0.0631944   0.0717161   0.0000000), wk =   0.0555556
        k(   13) = (   0.0631944   0.1075742   0.0000000), wk =   0.0555556
        k(   14) = (   0.0631944  -0.0717161   0.0000000), wk =   0.0555556
        k(   15) = (   0.0631944  -0.0358581   0.0000000), wk =   0.0555556
        k(   16) = (   0.0631944   0.0000000   0.0000000), wk =   0.0555556
        k(   17) = (  -0.0947917  -0.0537871   0.0000000), wk =   0.0277778
        k(   18) = (  -0.0947917  -0.0179290   0.0000000), wk =   0.0555556
        k(   19) = (  -0.0947917   0.0179290   0.0000000), wk =   0.0555556
        k(   20) = (  -0.0947917  -0.1613613   0.0000000), wk =   0.0277778
        k(   21) = (   0.0000000   0.0000000   0.0000000), wk =   0.0277778
        k(   22) = (   0.0000000   0.0358581   0.0000000), wk =   0.0555556
        k(   23) = (   0.0000000   0.0717161   0.0000000), wk =   0.0555556
        k(   24) = (   0.0000000  -0.1075742   0.0000000), wk =   0.0277778
        k(   25) = (   0.0315972   0.0179290   0.0000000), wk =   0.0555556
        k(   26) = (   0.0315972   0.0537871   0.0000000), wk =   0.0555556
        k(   27) = (   0.0315972   0.0896452   0.0000000), wk =   0.0555556
        k(   28) = (   0.0315972  -0.0896452   0.0000000), wk =   0.0555556
        k(   29) = (   0.0315972  -0.0537871   0.0000000), wk =   0.0555556
        k(   30) = (   0.0315972  -0.0179290   0.0000000), wk =   0.0555556
        k(   31) = (   0.0631944   0.0358581   0.0000000), wk =   0.0555556
        k(   32) = (   0.0631944   0.0717161   0.0000000), wk =   0.0555556
        k(   33) = (   0.0631944   0.1075742   0.0000000), wk =   0.0555556
        k(   34) = (   0.0631944  -0.0717161   0.0000000), wk =   0.0555556
        k(   35) = (   0.0631944  -0.0358581   0.0000000), wk =   0.0555556
        k(   36) = (   0.0631944   0.0000000   0.0000000), wk =   0.0555556
        k(   37) = (  -0.0947917  -0.0537871   0.0000000), wk =   0.0277778
        k(   38) = (  -0.0947917  -0.0179290   0.0000000), wk =   0.0555556
        k(   39) = (  -0.0947917   0.0179290   0.0000000), wk =   0.0555556
        k(   40) = (  -0.0947917  -0.1613613   0.0000000), wk =   0.0277778

     Largest allocated arrays     est. size (Mb)     dimensions
     Largest temporary arrays     est. size (Mb)     dimensions

     Check: negative/imaginary core charge=   -0.000001    0.000000

     Initial potential from superposition of free atoms
     Check: negative starting charge=(component1):   -0.002052
     Check: negative starting charge=(component2):   -0.001540

     starting charge  179.99362, renormalised to  192.00000

[...]

     *
     * You are using vdW-DF for exchange-correlation in this calculation.
     * Please cite the following three references that made this development
     * possible:
     *
     *   M. Dion, H. Rydberg, E. Schroder, D. C. Langreth, and
     *   B. I. Lundqvist, Phys. Rev. Lett. 92, 246401 (2004).
     *
     *   T. Thonhauser, V. R. Cooper, S. Li, A. Puzder, P. Hyldgaard, and
     *   D. C. Langreth, Phys. Rev. B 76, 125112 (2007).
     *
     *   G. Roman-Perez and J. M. Soler, Phys. Rev. Lett. 103, 096102 (2009).
     *
     *
     * If you are using vdW-DF2, please also cite:
     *
     *   K. Lee, E. D. Murray, L. Kong, B. I. Lundqvist, and
     *   D. C. Langreth, Phys. Rev. B 82, 081101(R) (2010).
     *
     *
     * If you are calculating the stress with vdW-DF, please also cite:
     *
     *   R. Sabatini, E. Kucukbenli, B. Kolb, T. Thonhauser, and
     *   S. de Gironcoli, J. Phys.: Condens. Matter 24, 424209 (2012).
     *

     Carrying out vdW-DF run using the following parameters:

     Nqs =      20    Nr_points =    1024   r_max =   100.000
     q_mesh =
               0.00001000     0.04494208     0.09755937     0.15916263
               0.23128650     0.31572767     0.41458969     0.53033537
               0.66584808     0.82450364     1.01025438     1.22772762
               1.48234092     1.78043706     2.12944203     2.53805004
               3.01644009     3.57652955     4.23227104     5.00000000

     Gradients computed in reciprocal space

[...]

     Starting wfc are  156 randomized atomic wfcs

     Self-consistent Calculation

[...]

     total energy              =   -2906.21423298 Ry
     Harris-Foulkes estimate   =   -2906.21422880 Ry
     estimated scf accuracy    <       0.00000117 Ry

[...]

     iteration # 35     ecut=    36.75 Ry     beta=0.10
     Davidson diagonalization with overlap
     ethr =  6.08E-10,  avg # of iterations =  2.0

[...]

     negative rho (up, down):  1.900E-03 1.900E-03

[...]

     Adding external electric field

     Computed dipole along edir(3) :
        Dipole                0.0130 Ry au,          0.0329 Debye
        Dipole field          0.0000 Ry au

        Potential amp.       -0.0036 Ry
        Total length         44.8522 bohr

     Magnetic moment per site:
     atom:    1    charge:    9.3361    magn:   -0.0006    constr:    0.0000
     atom:    2    charge:    9.3360    magn:   -0.0006    constr:    0.0000
     atom:    3    charge:    1.8596    magn:    0.0004    constr:    0.0000
     atom:    4    charge:    1.8596    magn:    0.0004    constr:    0.0000
     atom:    5    charge:    9.3357    magn:    0.0023    constr:    0.0000
     atom:    6    charge:    9.3356    magn:    0.0023    constr:    0.0000
     atom:    7    charge:    1.8641    magn:   -0.0001    constr:    0.0000
     atom:    8    charge:    1.8641    magn:   -0.0001    constr:    0.0000
     atom:    9    charge:    9.3392    magn:   -0.0013    constr:    0.0000
     atom:   10    charge:    9.3393    magn:   -0.0013    constr:    0.0000
     atom:   11    charge:    1.8599    magn:    0.0002    constr:    0.0000
     atom:   12    charge:    1.8599    magn:    0.0002    constr:    0.0000

     End of self-consistent calculation

 ------ SPIN UP ------------

[...]

 ------ SPIN DOWN ----------

[...]

          k = 0.0632 0.0000 0.0000 ( 15141 PWs)   bands (ev):

[...]

          k =-0.0948-0.1614 0.0000 ( 15118 PWs)   bands (ev):

  -102.0017-102.0015-101.7421-101.7419-101.6911-101.6910 -62.4402 -62.4400
   -62.3558 -62.3556 -62.3273 -62.3270 -62.2371 -62.2369 -62.1917 -62.1915
   -62.0838 -62.0837 -62.0316 -62.0315 -62.0279 -62.0278 -61.9697 -61.9696
   -59.7464 -59.7464 -59.5986 -59.5986 -59.5757 -59.5757 -34.1562 -34.1562
   -33.8459 -33.8459 -33.8064 -33.8064 -33.6975 -33.6975 -33.6556 -33.6556
   -33.6412 -33.6412 -33.5931 -33.5930 -33.5803 -33.5803 -33.2639 -33.2639
    -3.8407  -3.8406  -2.6495  -2.6495  -2.5279  -2.5279  -2.0838  -2.0837
    -1.8068  -1.8068  -1.5536  -1.5535  -1.3770  -1.3769  -1.2701  -1.2700
    -1.0284  -1.0283  -0.8500  -0.8500  -0.7381  -0.7380  -0.4172  -0.4171
    -0.3324  -0.3322  -0.2676  -0.2676  -0.2041  -0.2041  -0.0880  -0.0880
     0.0469   0.0469   0.1466   0.1467   0.2683   0.2684   0.4979   0.4980
     0.6034   0.6034   0.9537   0.9537   1.2913   1.2913   1.4919   1.4920
     1.6619   1.6620   1.8439   1.8439   1.8919   1.8919   1.9619   1.9619
     2.2226   2.2227   3.0688   3.0688   3.3216   3.3216   3.4831   3.4831
     4.5743   4.5743   5.2175   5.2176   5.8528   5.8530   6.4163   6.4163
     7.5117   7.5117   7.7517   7.7517   8.0794   8.0794

     the Fermi energy is     1.5528 ev

!    total energy              =   -2906.21424647 Ry
     Harris-Foulkes estimate   =   -2906.21423317 Ry
     estimated scf accuracy    <       0.00000083 Ry

     The total energy is the sum of the following terms:

     one-electron contribution =  -24009.74086644 Ry
     hartree contribution      =   12007.08435080 Ry
     xc contribution           =    -340.57562516 Ry
     ewald contribution        =    9437.09570399 Ry
     electric field correction =       0.00000052 Ry
     smearing contrib. (-TS)   =      -0.07781018 Ry

     total magnetization       =     0.02 Bohr mag/cell
     absolute magnetization    =     0.04 Bohr mag/cell

     convergence has been achieved in  35 iterations

 BEEF-vdW xc energy contributions
           1 :   -297.451424612158
           2 :    270.492377420593
           3 :   -224.786702857196
           4 :    173.103120931385
           5 :   -127.588405166773
           6 :    95.4925062788255
           7 :   -77.6312481977142
           8 :    69.8036048161795
           9 :   -66.0094536360706
          10 :    61.5875617716550
          11 :   -54.8383307188278
          12 :    46.7099030448174
          13 :   -39.2467151683839
          14 :    33.9413936029223
          15 :   -30.9275947962781
          16 :    29.2151306665651
          17 :   -27.5520507823254
          18 :    25.2136800064565
          19 :   -22.2679227778631
          20 :    19.2736393594947
          21 :   -16.7576640528713
          22 :    14.8538338440573
          23 :   -13.3162517316242
          24 :    11.8003904765868
          25 :   -10.1597220911024
          26 :    8.52084847887596
          27 :   -7.12172242729446
          28 :    6.06288169064550
          29 :   -5.19173015351328
          30 :    4.20315080232280
          31 :   -27.8655560523288
          32 :   -20.3004838061755

     Forces acting on atoms (Ry/au):

     negative rho (up, down):  1.900E-03 1.900E-03
     atom    1 type  1   force =     0.00000005   -0.00391666    0.01035974
     atom    2 type  1   force =     0.00000004   -0.00395021    0.01032341
     atom    3 type  2   force =    -0.00000220   -0.00374465    0.01274043
     atom    4 type  2   force =     0.00000219   -0.00374466    0.01274045
     atom    5 type  1   force =    -0.00000027    0.00340213   -0.01068059
     atom    6 type  1   force =     0.00000035    0.00345149   -0.01064254
     atom    7 type  2   force =     0.00000241    0.00309518   -0.01376373
     atom    8 type  2   force =    -0.00000245    0.00309517   -0.01376370
     atom    9 type  1   force =     0.00000002    0.00007055    0.00142972
     atom   10 type  1   force =    -0.00000007    0.00015178    0.00146695
     atom   11 type  2   force =     0.00000820    0.00104494   -0.00010505
     atom   12 type  2   force =    -0.00000827    0.00104493   -0.00010510

     Total force =     0.035395     Total SCF correction =     0.002609

     entering subroutine stress ...

     negative rho (up, down):  1.900E-03 1.900E-03
          total   stress  (Ry/bohr**3)                   (kbar)     P=  -47.62
  -0.00036355  -0.00000000   0.00000000        -53.48     -0.00      0.00
  -0.00000000  -0.00036160   0.00001712         -0.00    -53.19      2.52
   0.00000000   0.00001712  -0.00024605          0.00      2.52    -36.20

 !ASE

     Writing output data file calc.save

     General routines

     Parallel routines

   This run was terminated on:  23:25:31  18Dec2018

   JOB DONE.
Job  /afs/slac/g/suncat/bin/suncat-tsmpirun -x LD_LIBRARY_PATH -wdir /scratch/qe530356_e9gNA pw.x -in pw.inp

TID   HOST_NAME   COMMAND_LINE            STATUS            TERMINATION_TIME
00000 suncat2048 pw.x -in pw.inp   Done                     12/18/2018 23:25:31
00001 suncat2048 pw.x -in pw.inp   Done                     12/18/2018 23:25:31
00002 suncat2048 pw.x -in pw.inp   Done                     12/18/2018 23:25:31
00003 suncat2048 pw.x -in pw.inp   Done                     12/18/2018 23:25:31
00004 suncat2048 pw.x -in pw.inp   Done                     12/18/2018 23:25:31
00005 suncat2048 pw.x -in pw.inp   Done                     12/18/2018 23:25:31
00006 suncat2048 pw.x -in pw.inp   Done                     12/18/2018 23:25:31
00007 suncat2048 pw.x -in pw.inp   Done                     12/18/2018 23:25:31
00008 suncat2048 pw.x -in pw.inp   Done                     12/18/2018 23:25:31
00009 suncat2048 pw.x -in pw.inp   Done                     12/18/2018 23:25:31
00010 suncat2048 pw.x -in pw.inp   Done                     12/18/2018 23:25:31
00011 suncat2048 pw.x -in pw.inp   Done                     12/18/2018 23:25:31
00012 suncat2048 pw.x -in pw.inp   Done                     12/18/2018 23:25:31
00013 suncat2048 pw.x -in pw.inp   Done                     12/18/2018 23:25:31
00014 suncat2048 pw.x -in pw.inp   Done                     12/18/2018 23:25:31
00015 suncat2048 pw.x -in pw.inp   Done                     12/18/2018 23:25:31
00016 suncat2047 pw.x -in pw.inp   Done                     12/18/2018 23:25:31
00017 suncat2047 pw.x -in pw.inp   Done                     12/18/2018 23:25:31
00018 suncat2047 pw.x -in pw.inp   Done                     12/18/2018 23:25:31
00019 suncat2047 pw.x -in pw.inp   Done                     12/18/2018 23:25:31
00020 suncat2047 pw.x -in pw.inp   Done                     12/18/2018 23:25:31
00021 suncat2047 pw.x -in pw.inp   Done                     12/18/2018 23:25:31
00022 suncat2047 pw.x -in pw.inp   Done                     12/18/2018 23:25:31
00023 suncat2047 pw.x -in pw.inp   Done                     12/18/2018 23:25:31
00024 suncat2047 pw.x -in pw.inp   Done                     12/18/2018 23:25:31
00025 suncat2047 pw.x -in pw.inp   Done                     12/18/2018 23:25:31
00026 suncat2047 pw.x -in pw.inp   Done                     12/18/2018 23:25:31
00027 suncat2047 pw.x -in pw.inp   Done                     12/18/2018 23:25:31
00028 suncat2047 pw.x -in pw.inp   Done                     12/18/2018 23:25:31
00029 suncat2047 pw.x -in pw.inp   Done                     12/18/2018 23:25:31
00030 suncat2047 pw.x -in pw.inp   Done                     12/18/2018 23:25:31
00031 suncat2047 pw.x -in pw.inp   Done                     12/18/2018 23:25:31