     Program PWSCF v.5.1rc2 (svn rev. 11289) starts on 19Dec2018 at  2: 8: 7

     Current dimensions of program PWSCF are:
     Max number of different atomic species (ntypx) = 10
     Max number of k-points (npk) =  40000
     Max angular momentum in pseudopotentials (lmaxx) =  3
     Presently stress not available with electric field

     IMPORTANT: XC functional enforced from input :
     Exchange-correlation      = BEEF-VDW ( 1  4 27 13 2)
     Any further DFT definition will be discarded
     Please, verify this is what you really want

     Subspace diagonalization in iterative solution of the eigenvalue problem:
     a serial algorithm will be used

     Found symmetry operation: I + ( -0.5000 -0.5000  0.0000)
     This is a supercell, fractional translations are disabled

     bravais-lattice index     =            0
     lattice parameter (alat)  =       1.8897  a.u.
     unit-cell volume          =    5204.2745 (a.u.)^3
     number of atoms/cell      =           12
     number of atomic types    =            2
     number of electrons       =       168.00
     number of Kohn-Sham states=          114
     kinetic-energy cutoff     =      36.7493  Ry
     charge density cutoff     =     367.4932  Ry
     convergence threshold     =      1.0E-06
     mixing beta               =       0.1000
     number of iterations used =           10  plain     mixing
     Exchange-correlation      = BEEF-VDW ( 1  4 27 13 2)
     nstep                     =           50

     celldm(1)=   1.889726  celldm(2)=   0.000000  celldm(3)=   0.000000
     celldm(4)=   0.000000  celldm(5)=   0.000000  celldm(6)=   0.000000

     crystal axes: (cart. coord. in units of alat)
               a(1) = (   5.882892   0.000000   0.000000 )
               a(2) = (   2.610225   5.272110   0.000000 )
               a(3) = (   0.000000   0.000000  24.864988 )

     reciprocal axes: (cart. coord. in units 2 pi/alat)
               b(1) = (  0.169984 -0.084159  0.000000 )
               b(2) = (  0.000000  0.189677  0.000000 )
               b(3) = (  0.000000  0.000000  0.040217 )

     PseudoPot. # 1 for Pt read from file:
     /afs/slac.stanford.edu/u/if/mamunm/psp/gbrv1.5pbe/Pt.UPF
     MD5 check sum: f09d6de1a584b5a045c4fc126da2d0c4
     Pseudo is Ultrasoft + core correction, Zval = 16.0
     Generated by new atomic code, or converted to UPF format
     Using radial grid of  985 points,  6 beta functions with:
                l(1) =   0
                l(2) =   0
                l(3) =   1
                l(4) =   1
                l(5) =   2
                l(6) =   2
     Q(r) pseudized with  8 coefficients,  rinner =    1.300   1.300   1.300
                                                       1.300   1.300

     PseudoPot. # 2 for Hg read from file:
     /afs/slac.stanford.edu/u/if/mamunm/psp/gbrv1.5pbe/Hg.UPF
     MD5 check sum: 8f42caffe07f7fd9c0a564347f8c5498
     Pseudo is Ultrasoft + core correction, Zval = 12.0
     Generated by new atomic code, or converted to UPF format
     Using radial grid of  985 points,  6 beta functions with:
                l(1) =   0
                l(2) =   0
                l(3) =   1
                l(4) =   1
                l(5) =   2
                l(6) =   2
     Q(r) pseudized with  8 coefficients,  rinner =    2.000   2.000   2.000
                                                       2.000   2.000

     vdW kernel table read from file vdW_kernel_table
     MD5 check sum: 095c7af220d748ca6e76c0b4c6cfb241

     atomic species   valence    mass     pseudopotential
        Pt1           16.00   195.08400     Pt( 1.00)
        Hg1           12.00   200.59200     Hg( 1.00)

     No symmetry found

   Cartesian axes

     site n.     atom                  positions (alat units)
         1           Pt1 tau(   1) = (   0.0000000   0.0000000  10.0000000  )
         2           Pt1 tau(   2) = (   4.2465585   2.6360550  10.0000000  )
         3           Hg1 tau(   3) = (   2.9414460   0.0000000  10.0000000  )
         4           Hg1 tau(   4) = (   1.3051125   2.6360550  10.0000000  )
         5           Pt1 tau(   5) = (   5.8828920   3.6518105  12.4324939  )
         6           Pt1 tau(   6) = (   1.6363335   1.0157555  12.4324939  )
         7           Hg1 tau(   7) = (   2.9414460   3.6518105  12.4324939  )
         8           Hg1 tau(   8) = (   4.5777795   1.0157555  12.4324939  )
         9           Pt1 tau(   9) = (   3.2726670   2.0315110  14.8649879  )
        10           Pt1 tau(  10) = (   7.5192255   4.6675660  14.8649879  )
        11           Hg1 tau(  11) = (   6.2141130   2.0315110  14.8649879  )
        12           Hg1 tau(  12) = (   4.5777795   4.6675660  14.8649879  )

     number of k points=    20  Fermi-Dirac smearing, width (Ry)=  0.0110
                       cart. coord. in units 2pi/alat
        k(    1) = (   0.0000000   0.0000000   0.0000000), wk =   0.0555556
        k(    2) = (   0.0000000   0.0316129   0.0000000), wk =   0.1111111
        k(    3) = (   0.0000000   0.0632258   0.0000000), wk =   0.1111111
        k(    4) = (   0.0000000  -0.0948387   0.0000000), wk =   0.0555556
        k(    5) = (   0.0283307  -0.0140266   0.0000000), wk =   0.1111111
        k(    6) = (   0.0283307   0.0175863   0.0000000), wk =   0.1111111
        k(    7) = (   0.0283307   0.0491992   0.0000000), wk =   0.1111111
        k(    8) = (   0.0283307  -0.1088653   0.0000000), wk =   0.1111111
        k(    9) = (   0.0283307  -0.0772524   0.0000000), wk =   0.1111111
        k(   10) = (   0.0283307  -0.0456395   0.0000000), wk =   0.1111111
        k(   11) = (   0.0566615  -0.0280531   0.0000000), wk =   0.1111111
        k(   12) = (   0.0566615   0.0035598   0.0000000), wk =   0.1111111
        k(   13) = (   0.0566615   0.0351727   0.0000000), wk =   0.1111111
        k(   14) = (   0.0566615  -0.1228918   0.0000000), wk =   0.1111111
        k(   15) = (   0.0566615  -0.0912789   0.0000000), wk =   0.1111111
        k(   16) = (   0.0566615  -0.0596660   0.0000000), wk =   0.1111111
        k(   17) = (  -0.0849922   0.0420797   0.0000000), wk =   0.0555556
        k(   18) = (  -0.0849922   0.0736926   0.0000000), wk =   0.1111111
        k(   19) = (  -0.0849922   0.1053055   0.0000000), wk =   0.1111111
        k(   20) = (  -0.0849922  -0.0527590   0.0000000), wk =   0.0555556

     Largest allocated arrays     est. size (Mb)     dimensions
     Largest temporary arrays     est. size (Mb)     dimensions

     Initial potential from superposition of free atoms
     Check: negative starting charge=   -1.106080

     starting charge  164.99958, renormalised to  168.00000

     negative rho (up, down):  1.126E+00 0.000E+00

     *
     * You are using vdW-DF for exchange-correlation in this calculation.
     * Please cite the following three references that made this development
     * possible:
     *
     *   M. Dion, H. Rydberg, E. Schroder, D. C. Langreth, and
     *   B. I. Lundqvist, Phys. Rev. Lett. 92, 246401 (2004).
     *
     *   T. Thonhauser, V. R. Cooper, S. Li, A. Puzder, P. Hyldgaard, and
     *   D. C. Langreth, Phys. Rev. B 76, 125112 (2007).
     *
     *   G. Roman-Perez and J. M. Soler, Phys. Rev. Lett. 103, 096102 (2009).
     *
     *
     * If you are using vdW-DF2, please also cite:
     *
     *   K. Lee, E. D. Murray, L. Kong, B. I. Lundqvist, and
     *   D. C. Langreth, Phys. Rev. B 82, 081101(R) (2010).
     *
     *
     * If you are calculating the stress with vdW-DF, please also cite:
     *
     *   R. Sabatini, E. Kucukbenli, B. Kolb, T. Thonhauser, and
     *   S. de Gironcoli, J. Phys.: Condens. Matter 24, 424209 (2012).
     *

     Carrying out vdW-DF run using the following parameters:

     Nqs =      20    Nr_points =    1024   r_max =   100.000
     q_mesh =
               0.00001000     0.04494208     0.09755937     0.15916263
               0.23128650     0.31572767     0.41458969     0.53033537
               0.66584808     0.82450364     1.01025438     1.22772762
               1.48234092     1.78043706     2.12944203     2.53805004
               3.01644009     3.57652955     4.23227104     5.00000000

     Gradients computed in reciprocal space

     Adding external electric field

     Computed dipole along edir(3) :
        Dipole                0.0000 Ry au,          0.0000 Debye
        Dipole field          0.0000 Ry au

        Potential amp.       -0.0000 Ry
        Total length         45.8133 bohr

     Starting wfc are  126 randomized atomic wfcs

     Self-consistent Calculation

     iteration #  1     ecut=    36.75 Ry     beta=0.10
     Davidson diagonalization with overlap
     ethr =  1.00E-02,  avg # of iterations =  7.8

[...]

     total energy              =   -1928.79170909 Ry
     Harris-Foulkes estimate   =   -1929.32117132 Ry
     estimated scf accuracy    <       3.40951282 Ry

[...]

     End of self-consistent calculation

          k = 0.0000 0.0000 0.0000 ( 19631 PWs)   bands (ev):

   -51.1335 -51.1045 -51.0989 -51.0671 -51.0668 -51.0614 -50.9134 -50.9132
   -50.9003 -50.8989 -50.8948 -50.8934 -50.8477 -50.8477 -50.7667 -50.7655
   -50.7611 -50.7600  -7.7805  -7.1156  -7.0628  -6.9542  -6.9484  -6.9013
    -6.7976  -6.6851  -6.6712  -6.6360  -6.5591  -6.5521  -6.3824  -6.2176
    -6.2023  -6.0954  -6.0391  -6.0065  -5.9300  -5.8630  -5.8483  -5.8096
    -5.7696  -5.6410  -5.6252  -5.5950  -5.5065  -5.4176  -5.4153  -5.3743
    -5.2305  -4.9494  -3.7110  -3.2392  -2.6481  -2.6006  -2.2342  -2.0506
    -1.9609  -1.6791  -1.5846  -1.5613  -1.5315  -1.2479  -1.2452  -0.9521
    -0.9440  -0.7817  -0.7122  -0.6993  -0.4418  -0.4084  -0.3217  -0.2468
    -0.2323  -0.1901   0.0061   0.0340   0.0377   0.0551   0.0674   0.1278
     0.5290   0.9801   0.9980   1.1398   1.3744   1.6239   1.8200   1.9600
     2.0015   2.3933   2.8980   3.0025   3.6333   3.9602   4.0750   4.7633
     4.8965   4.8984   4.9046   5.3270   5.4358   5.5696   5.6460   6.6678
     7.0309   8.0015   8.0815   8.5296   8.6715   8.7531   8.9203   8.9978
     9.8202   9.8455

[...]

          k =-0.0850 0.0421 0.0000 ( 19608 PWs)   bands (ev):

[...]

     the Fermi energy is     0.8741 ev

!    total energy              =   -1928.59121675 Ry
     Harris-Foulkes estimate   =   -1928.59120604 Ry
     estimated scf accuracy    <       0.00000085 Ry

     The total energy is the sum of the following terms:

     one-electron contribution =  -13169.24099913 Ry
     hartree contribution      =    6649.31197722 Ry
     xc contribution           =    -594.59772673 Ry
     ewald contribution        =    5185.96508992 Ry
     electric field correction =       0.00000000 Ry
     smearing contrib. (-TS)   =      -0.02955804 Ry

     convergence has been achieved in  15 iterations

 BEEF-vdW xc energy contributions
           1 :   -526.145137588425
           2 :    487.429323079952
           3 :   -418.926330541917
           4 :    335.106019216829
           5 :   -251.180358391343
           6 :    178.835606418588
           7 :   -123.842698906360
           8 :    85.9970063435940
           9 :   -61.0209598277675
          10 :    43.3745139409168
          11 :   -28.7360972560188
[...]

[...]

     iteration #  9     ecut=    36.75 Ry     beta=0.10
     Davidson diagonalization with overlap
     c_bands:  1 eigenvalues not converged
     ethr =  1.80E-06,  avg # of iterations =  3.9

[...]

     Total force =     0.054231     Total SCF correction =     0.004797

[...]

   This run was terminated on:   2:55: 2  19Dec2018

[...]

     Program PWSCF v.5.1rc2 (svn rev. 11289) starts on 19Dec2018 at  2:55: 9

     Current dimensions of program PWSCF are:
     Max number of different atomic species (ntypx) = 10
     Max number of k-points (npk) =  40000
     Max angular momentum in pseudopotentials (lmaxx) =  3
     Presently stress not available with electric field

     IMPORTANT: XC functional enforced from input :
     Exchange-correlation      = BEEF-VDW ( 1  4 27 13 2)
     Any further DFT definition will be discarded
     Please, verify this is what you really want

     Subspace diagonalization in iterative solution of the eigenvalue problem:
     a serial algorithm will be used

     Found symmetry operation: I + ( -0.5000 -0.5000  0.0000)
     This is a supercell, fractional translations are disabled

     bravais-lattice index     =            0
     lattice parameter (alat)  =       1.8897  a.u.
     unit-cell volume          =    5204.2745 (a.u.)^3
     number of atoms/cell      =           12
     number of atomic types    =            2
     number of electrons       =       168.00
     number of Kohn-Sham states=          114
     kinetic-energy cutoff     =      36.7493  Ry
     charge density cutoff     =     367.4932  Ry
     convergence threshold     =      1.0E-06
     mixing beta               =       0.1000
     number of iterations used =           10  plain     mixing
     Exchange-correlation      = BEEF-VDW ( 1  4 27 13 2)
     nstep                     =           50

     celldm(1)=   1.889726  celldm(2)=   0.000000  celldm(3)=   0.000000
     celldm(4)=   0.000000  celldm(5)=   0.000000  celldm(6)=   0.000000

     crystal axes: (cart. coord. in units of alat)
               a(1) = (   5.882892   0.000000   0.000000 )
               a(2) = (   2.610225   5.272110   0.000000 )
               a(3) = (   0.000000   0.000000  24.864988 )

     reciprocal axes: (cart. coord. in units 2 pi/alat)
               b(1) = (  0.169984 -0.084159  0.000000 )
               b(2) = (  0.000000  0.189677  0.000000 )
               b(3) = (  0.000000  0.000000  0.040217 )

     PseudoPot. # 1 for Pt read from file:
     /afs/slac.stanford.edu/u/if/mamunm/psp/gbrv1.5pbe/Pt.UPF
     MD5 check sum: f09d6de1a584b5a045c4fc126da2d0c4
     Pseudo is Ultrasoft + core correction, Zval = 16.0
     Generated by new atomic code, or converted to UPF format
     Using radial grid of  985 points,  6 beta functions with:
                l(1) =   0
                l(2) =   0
                l(3) =   1
                l(4) =   1
                l(5) =   2
                l(6) =   2
     Q(r) pseudized with  8 coefficients,  rinner =    1.300   1.300   1.300
                                                       1.300   1.300

     PseudoPot. # 2 for Hg read from file:
     /afs/slac.stanford.edu/u/if/mamunm/psp/gbrv1.5pbe/Hg.UPF
     MD5 check sum: 8f42caffe07f7fd9c0a564347f8c5498
     Pseudo is Ultrasoft + core correction, Zval = 12.0
     Generated by new atomic code, or converted to UPF format
     Using radial grid of  985 points,  6 beta functions with:
                l(1) =   0
                l(2) =   0
                l(3) =   1
                l(4) =   1
                l(5) =   2
                l(6) =   2
     Q(r) pseudized with  8 coefficients,  rinner =    2.000   2.000   2.000
                                                       2.000   2.000

     vdW kernel table read from file vdW_kernel_table
     MD5 check sum: 095c7af220d748ca6e76c0b4c6cfb241

     atomic species   valence    mass     pseudopotential
        Pt1           16.00   195.08400     Pt( 1.00)
        Hg1           12.00   200.59200     Hg( 1.00)

     No symmetry found

   Cartesian axes

     site n.     atom                  positions (alat units)
         1           Pt1 tau(   1) = (   0.0000000   0.0000000  10.0000000  )
         2           Pt1 tau(   2) = (   4.2465585   2.6360550  10.0000000  )
         3           Hg1 tau(   3) = (   2.9414460   0.0000000  10.0000000  )
         4           Hg1 tau(   4) = (   1.3051125   2.6360550  10.0000000  )
         5           Pt1 tau(   5) = (   5.8828920   3.6518105  12.4324939  )
         6           Pt1 tau(   6) = (   1.6363335   1.0157555  12.4324939  )
         7           Hg1 tau(   7) = (   2.9414460   3.6518105  12.4324939  )
         8           Hg1 tau(   8) = (   4.5777795   1.0157555  12.4324939  )
         9           Pt1 tau(   9) = (   3.0218514   1.8758089  14.7014852  )
        10           Pt1 tau(  10) = (   7.2683905   4.5118804  14.7014899  )
        11           Hg1 tau(  11) = (   5.9927156   1.8940932  15.1994124  )
        12           Hg1 tau(  12) = (   4.3563650   4.5301304  15.1994030  )

     number of k points=    20  Fermi-Dirac smearing, width (Ry)=  0.0110
                       cart. coord. in units 2pi/alat
        k(    1) = (   0.0000000   0.0000000   0.0000000), wk =   0.0555556
        k(    2) = (   0.0000000   0.0316129   0.0000000), wk =   0.1111111
        k(    3) = (   0.0000000   0.0632258   0.0000000), wk =   0.1111111
        k(    4) = (   0.0000000  -0.0948387   0.0000000), wk =   0.0555556
        k(    5) = (   0.0283307  -0.0140266   0.0000000), wk =   0.1111111
        k(    6) = (   0.0283307   0.0175863   0.0000000), wk =   0.1111111
        k(    7) = (   0.0283307   0.0491992   0.0000000), wk =   0.1111111
        k(    8) = (   0.0283307  -0.1088653   0.0000000), wk =   0.1111111
        k(    9) = (   0.0283307  -0.0772524   0.0000000), wk =   0.1111111
        k(   10) = (   0.0283307  -0.0456395   0.0000000), wk =   0.1111111
        k(   11) = (   0.0566615  -0.0280531   0.0000000), wk =   0.1111111
        k(   12) = (   0.0566615   0.0035598   0.0000000), wk =   0.1111111
        k(   13) = (   0.0566615   0.0351727   0.0000000), wk =   0.1111111
        k(   14) = (   0.0566615  -0.1228918   0.0000000), wk =   0.1111111
        k(   15) = (   0.0566615  -0.0912789   0.0000000), wk =   0.1111111
        k(   16) = (   0.0566615  -0.0596660   0.0000000), wk =   0.1111111
        k(   17) = (  -0.0849922   0.0420797   0.0000000), wk =   0.0555556
        k(   18) = (  -0.0849922   0.0736926   0.0000000), wk =   0.1111111
        k(   19) = (  -0.0849922   0.1053055   0.0000000), wk =   0.1111111
        k(   20) = (  -0.0849922  -0.0527590   0.0000000), wk =   0.0555556

     Largest allocated arrays     est. size (Mb)     dimensions
     Largest temporary arrays     est. size (Mb)     dimensions

     Initial potential from superposition of free atoms
     Check: negative starting charge=   -1.104322

     starting charge  164.99958, renormalised to  168.00000

[...]

     *
     * You are using vdW-DF for exchange-correlation in this calculation.
     * Please cite the following three references that made this development
     * possible:
     *
     *   M. Dion, H. Rydberg, E. Schroder, D. C. Langreth, and
     *   B. I. Lundqvist, Phys. Rev. Lett. 92, 246401 (2004).
     *
     *   T. Thonhauser, V. R. Cooper, S. Li, A. Puzder, P. Hyldgaard, and
     *   D. C. Langreth, Phys. Rev. B 76, 125112 (2007).
     *
     *   G. Roman-Perez and J. M. Soler, Phys. Rev. Lett. 103, 096102 (2009).
     *
     *
     * If you are using vdW-DF2, please also cite:
     *
     *   K. Lee, E. D. Murray, L. Kong, B. I. Lundqvist, and
     *   D. C. Langreth, Phys. Rev. B 82, 081101(R) (2010).
     *
     *
     * If you are calculating the stress with vdW-DF, please also cite:
     *
     *   R. Sabatini, E. Kucukbenli, B. Kolb, T. Thonhauser, and
     *   S. de Gironcoli, J. Phys.: Condens. Matter 24, 424209 (2012).
     *

     Carrying out vdW-DF run using the following parameters:

     Nqs =      20    Nr_points =    1024   r_max =   100.000
     q_mesh =
               0.00001000     0.04494208     0.09755937     0.15916263
               0.23128650     0.31572767     0.41458969     0.53033537
               0.66584808     0.82450364     1.01025438     1.22772762
               1.48234092     1.78043706     2.12944203     2.53805004
               3.01644009     3.57652955     4.23227104     5.00000000

     Gradients computed in reciprocal space

[...]

     Starting wfc are  126 randomized atomic wfcs

     Self-consistent Calculation

[...]

     total energy              =   -1928.61455639 Ry
     Harris-Foulkes estimate   =   -1928.61455093 Ry
     estimated scf accuracy    <       0.00000342 Ry

     iteration # 15     ecut=    36.75 Ry     beta=0.10
     Davidson diagonalization with overlap
     ethr =  2.03E-09,  avg # of iterations =  2.0

[...]

     negative rho (up, down):  1.070E+00 0.000E+00

     Adding external electric field

     Computed dipole along edir(3) :
        Dipole                0.0599 Ry au,          0.1522 Debye
        Dipole field          0.0001 Ry au

        Potential amp.       -0.0132 Ry
        Total length         45.8133 bohr

     End of self-consistent calculation

[...]

          k = 0.0567-0.0597 0.0000 ( 19556 PWs)   bands (ev):

[...]

          k =-0.0850-0.0528 0.0000 ( 19602 PWs)   bands (ev):

   -51.0003 -50.9944 -50.9521 -50.9190 -50.8976 -50.8913 -50.8857 -50.8587
   -50.8536 -50.8535 -50.8290 -50.8160 -50.8102 -50.8067 -50.8014 -50.7632
   -50.6787 -50.6732  -6.9909  -6.6713  -6.6304  -6.5267  -6.5239  -6.4386
    -6.3366  -6.3020  -6.2057  -6.2046  -6.0831  -6.0030  -5.9774  -5.8984
    -5.8597  -5.8063  -5.7289  -5.6947  -5.6669  -5.6584  -5.5689  -5.5581
    -5.4797  -5.3603  -5.3154  -5.2945  -5.2183  -5.1888  -5.1607  -5.1195
    -4.9257  -4.8089  -3.7504  -3.4008  -3.1905  -2.7149  -2.6613  -2.5699
    -2.3676  -2.2769  -2.1708  -2.1674  -1.9268  -1.8562  -1.8283  -1.8169
    -1.7016  -1.5498  -1.3879  -1.0538  -1.0161  -0.9301  -0.8367  -0.8162
    -0.6965  -0.5158  -0.3404  -0.2379  -0.1753  -0.1694  -0.0936  -0.0258
     0.0955   0.2866   0.5640   0.7978   0.8668   1.5535   1.8541   2.2133
     2.3013   3.5915   3.6773   4.2278   5.6328   5.8361   6.1357   6.2042
     6.3185   6.7103   6.8210   6.8572   6.9321   7.0054   7.0526   7.1373
     8.0242   8.0767   8.1263   8.1977   8.2879   8.3571   8.4466   8.5835
     8.6567   8.8973

     the Fermi energy is     0.9621 ev

!    total energy              =   -1928.61457449 Ry
     Harris-Foulkes estimate   =   -1928.61455739 Ry
     estimated scf accuracy    <       0.00000089 Ry

     The total energy is the sum of the following terms:

     one-electron contribution =  -13061.29486198 Ry
     hartree contribution      =    6596.05826711 Ry
     xc contribution           =    -594.52622467 Ry
     ewald contribution        =    5131.17929338 Ry
     electric field correction =       0.00000866 Ry
     smearing contrib. (-TS)   =      -0.03105699 Ry

     convergence has been achieved in  15 iterations

 BEEF-vdW xc energy contributions
           1 :   -526.064360861247
           2 :    487.279030305466
           3 :   -418.690837035355
           4 :    334.836486117736
           5 :   -250.960413060769
           6 :    178.726117202166
           7 :   -123.841668298761
           8 :    86.0401191885412
           9 :   -61.0228512925846
          10 :    43.2849360090431
          11 :   -28.5749057573474
          12 :    15.0866163858013
          13 :   -3.21129019973682
          14 :   -5.66795656283239
          15 :    10.5250413973899
          16 :   -11.5014384642420
          17 :    9.89452026856088
          18 :   -7.50497782705781
          19 :    5.80132586601007
          20 :   -5.37763222654598
          21 :    5.93990345437180
          22 :   -6.73904678513634
          23 :    7.13383844960276
          24 :   -6.95512373352494
          25 :    6.50475420591420
          26 :   -6.25901118343245
          27 :    6.49975241902530
          28 :   -7.11242028401318
          29 :    7.66108066993490
          30 :   -7.67518031124337
          31 :   -45.4025391992470
          32 :   -33.4618807713848

     Forces acting on atoms (Ry/au):

     negative rho (up, down):  1.070E+00 0.000E+00
     atom    1 type  1   force =     0.00509937    0.00316486    0.02208948
     atom    2 type  1   force =     0.00509905    0.00316486    0.02209004
     atom    3 type  2   force =    -0.00284039   -0.00176327   -0.02512820
     atom    4 type  2   force =    -0.00283867   -0.00176283   -0.02512787
     atom    5 type  1   force =    -0.01061706   -0.00659076    0.00548469
     atom    6 type  1   force =    -0.01061750   -0.00659130    0.00548565
     atom    7 type  2   force =     0.00838182    0.00520465   -0.00257310
     atom    8 type  2   force =     0.00838101    0.00520320   -0.00257500
     atom    9 type  1   force =     0.00013290    0.00008283   -0.00021795
     atom   10 type  1   force =     0.00013485    0.00008339   -0.00021818
     atom   11 type  2   force =    -0.00015695   -0.00009922    0.00034527
     atom   12 type  2   force =    -0.00015843   -0.00009642    0.00034517

     Total force =     0.053982     Total SCF correction =     0.005615
     SCF correction compared to forces is large: reduce conv_thr to get better values

     entering subroutine stress ...

     negative rho (up, down):  1.070E+00 0.000E+00
          total   stress  (Ry/bohr**3)                   (kbar)     P=  -14.24
  -0.00015182  -0.00001412  -0.00000462        -22.33     -2.08     -0.68
  -0.00001412  -0.00013783  -0.00000287         -2.08    -20.28     -0.42
  -0.00000462  -0.00000287  -0.00000081         -0.68     -0.42     -0.12

 !ASE

     Writing output data file calc.save

     General routines

     Parallel routines

   This run was terminated on:   2:59:15  19Dec2018

   JOB DONE.
Job  /afs/slac/g/suncat/bin/suncat-tsmpirun -x LD_LIBRARY_PATH -wdir /scratch/qe530439_X26EO pw.x -in pw.inp

TID   HOST_NAME   COMMAND_LINE            STATUS            TERMINATION_TIME
00000 suncat2048 pw.x -in pw.inp   Done                     12/19/2018 02:59:15
00001 suncat2048 pw.x -in pw.inp   Done                     12/19/2018 02:59:15
00002 suncat2048 pw.x -in pw.inp   Done                     12/19/2018 02:59:15
00003 suncat2048 pw.x -in pw.inp   Done                     12/19/2018 02:59:15
00004 suncat2048 pw.x -in pw.inp   Done                     12/19/2018 02:59:15
00005 suncat2048 pw.x -in pw.inp   Done                     12/19/2018 02:59:15
00006 suncat2048 pw.x -in pw.inp   Done                     12/19/2018 02:59:15
00007 suncat2048 pw.x -in pw.inp   Done                     12/19/2018 02:59:15
00008 suncat2048 pw.x -in pw.inp   Done                     12/19/2018 02:59:15
00009 suncat2048 pw.x -in pw.inp   Done                     12/19/2018 02:59:15
00010 suncat2048 pw.x -in pw.inp   Done                     12/19/2018 02:59:15
00011 suncat2048 pw.x -in pw.inp   Done                     12/19/2018 02:59:15
00012 suncat2048 pw.x -in pw.inp   Done                     12/19/2018 02:59:15
00013 suncat2048 pw.x -in pw.inp   Done                     12/19/2018 02:59:15
00014 suncat2048 pw.x -in pw.inp   Done                     12/19/2018 02:59:15
00015 suncat2048 pw.x -in pw.inp   Done                     12/19/2018 02:59:15
00016 suncat2047 pw.x -in pw.inp   Done                     12/19/2018 02:59:15
00017 suncat2047 pw.x -in pw.inp   Done                     12/19/2018 02:59:15
00018 suncat2047 pw.x -in pw.inp   Done                     12/19/2018 02:59:15
00019 suncat2047 pw.x -in pw.inp   Done                     12/19/2018 02:59:15
00020 suncat2047 pw.x -in pw.inp   Done                     12/19/2018 02:59:15
00021 suncat2047 pw.x -in pw.inp   Done                     12/19/2018 02:59:15
00022 suncat2047 pw.x -in pw.inp   Done                     12/19/2018 02:59:15
00023 suncat2047 pw.x -in pw.inp   Done                     12/19/2018 02:59:15
00024 suncat2047 pw.x -in pw.inp   Done                     12/19/2018 02:59:15
00025 suncat2047 pw.x -in pw.inp   Done                     12/19/2018 02:59:15
00026 suncat2047 pw.x -in pw.inp   Done                     12/19/2018 02:59:15
00027 suncat2047 pw.x -in pw.inp   Done                     12/19/2018 02:59:15
00028 suncat2047 pw.x -in pw.inp   Done                     12/19/2018 02:59:15
00029 suncat2047 pw.x -in pw.inp   Done                     12/19/2018 02:59:15
00030 suncat2047 pw.x -in pw.inp   Done                     12/19/2018 02:59:15
00031 suncat2047 pw.x -in pw.inp   Done                     12/19/2018 02:59:15