     Program PWSCF v.5.1rc2 (svn rev. 11289) starts on 18Dec2018 at 18:56:42

     Current dimensions of program PWSCF are:
     Max number of different atomic species (ntypx) = 10
     Max number of k-points (npk) =  40000
     Max angular momentum in pseudopotentials (lmaxx) =  3
     Presently stress not available with electric field

     IMPORTANT: XC functional enforced from input :
     Exchange-correlation      = BEEF-VDW ( 1  4 27 13 2)
     Any further DFT definition will be discarded
     Please, verify this is what you really want

     Subspace diagonalization in iterative solution of the eigenvalue problem:
     a serial algorithm will be used

     Found symmetry operation: I + ( -0.5000  0.0000  0.0000)
     This is a supercell, fractional translations are disabled

     bravais-lattice index     =            0
     lattice parameter (alat)  =       1.8897  a.u.
     unit-cell volume          =    5691.3495 (a.u.)^3
     number of atoms/cell      =           12
     number of atomic types    =            2
     number of electrons       =       144.00
     number of Kohn-Sham states=          102
     kinetic-energy cutoff     =      36.7493  Ry
     charge density cutoff     =     367.4932  Ry
     convergence threshold     =      1.0E-06
     mixing beta               =       0.1000
     number of iterations used =           10  plain     mixing
     Exchange-correlation      = BEEF-VDW ( 1  4 27 13 2)
     nstep                     =           50

     celldm(1)=   1.889726  celldm(2)=   0.000000  celldm(3)=   0.000000
     celldm(4)=   0.000000  celldm(5)=   0.000000  celldm(6)=   0.000000

     crystal axes: (cart. coord. in units of alat)
               a(1) = (   6.219350   0.000000   0.000000 )
               a(2) = (  -3.109675   5.405345   0.000000 )
               a(3) = (   0.000000   0.000000  25.087087 )

     reciprocal axes: (cart. coord. in units 2 pi/alat)
               b(1) = (  0.160788  0.092501  0.000000 )
               b(2) = (  0.000000  0.185002  0.000000 )
               b(3) = (  0.000000  0.000000  0.039861 )

     PseudoPot. # 1 for Cd read from file:
     /afs/slac.stanford.edu/u/if/mamunm/psp/gbrv1.5pbe/Cd.UPF
     MD5 check sum: 17164a7926edb8e0dc231208abae86a6
     Pseudo is Ultrasoft + core correction, Zval = 12.0
     Generated by new atomic code, or converted to UPF format
     Using radial grid of  889 points,  6 beta functions with:
                l(1) =   0
                l(2) =   0
                l(3) =   1
                l(4) =   1
                l(5) =   2
                l(6) =   2
     Q(r) pseudized with  6 coefficients,  rinner =    1.000   1.000   1.000
                                                       1.000   1.000

     PseudoPot. # 2 for Hf read from file:
     /afs/slac.stanford.edu/u/if/mamunm/psp/gbrv1.5pbe/Hf.UPF
     MD5 check sum: 8ee9378dfe14276e333edf04c5e4aa26
     Pseudo is Ultrasoft + core correction, Zval = 12.0
     Generated by new atomic code, or converted to UPF format
     Using radial grid of  921 points,  8 beta functions with:
                l(1) =   0
                l(2) =   0
                l(3) =   0
                l(4) =   1
                l(5) =   1
                l(6) =   2
                l(7) =   2
                l(8) =   3
     Q(r) pseudized with  6 coefficients,  rinner =    1.200   1.200   1.200
                                                       1.200   1.200   1.200
                                                       1.200

     vdW kernel table read from file vdW_kernel_table
     MD5 check sum: 095c7af220d748ca6e76c0b4c6cfb241

     atomic species   valence    mass     pseudopotential
        Cd1           12.00   112.41400     Cd( 1.00)
        Hf1           12.00   178.49000     Hf( 1.00)

     No symmetry found

   Cartesian axes

     site n.     atom                  positions (alat units)
         1           Cd1 tau(   1) = (   0.0000000   0.0000000  10.0000000  )
         2           Cd1 tau(   2) = (   0.0000000   5.4053447  10.0000000  )
         3           Hf1 tau(   3) = (   1.5548376   2.7026724  10.0000000  )
         4           Hf1 tau(   4) = (  -1.5548376   2.7026724  10.0000000  )
         5           Cd1 tau(   5) = (   3.1096752   1.7889849  12.5435434  )
         6           Cd1 tau(   6) = (   0.0000000   1.7889849  12.5435434  )
         7           Hf1 tau(   7) = (  -1.5548376   4.4916572  12.5435434  )
         8           Hf1 tau(   8) = (   1.5548376   4.4916572  12.5435434  )
         9           Cd1 tau(   9) = (   0.0000000   3.5779697  15.0870868  )
        10           Cd1 tau(  10) = (   3.1096752   3.5779697  15.0870868  )
        11           Hf1 tau(  11) = (   4.6645128   0.8752974  15.0870868  )
        12           Hf1 tau(  12) = (   1.5548376   0.8752974  15.0870868  )

     number of k points=    20  Fermi-Dirac smearing, width (Ry)=  0.0110
                       cart. coord. in units 2pi/alat
        k(    1) = (   0.0000000   0.0000000   0.0000000), wk =   0.0555556
        k(    2) = (   0.0000000   0.0308337   0.0000000), wk =   0.1111111
        k(    3) = (   0.0000000   0.0616674   0.0000000), wk =   0.1111111
        k(    4) = (   0.0000000  -0.0925010   0.0000000), wk =   0.0555556
        k(    5) = (   0.0267981   0.0154168   0.0000000), wk =   0.1111111
        k(    6) = (   0.0267981   0.0462505   0.0000000), wk =   0.1111111
        k(    7) = (   0.0267981   0.0770842   0.0000000), wk =   0.1111111
        k(    8) = (   0.0267981  -0.0770842   0.0000000), wk =   0.1111111
        k(    9) = (   0.0267981  -0.0462505   0.0000000), wk =   0.1111111
        k(   10) = (   0.0267981  -0.0154168   0.0000000), wk =   0.1111111
        k(   11) = (   0.0535962   0.0308337   0.0000000), wk =   0.1111111
        k(   12) = (   0.0535962   0.0616674   0.0000000), wk =   0.1111111
        k(   13) = (   0.0535962   0.0925010   0.0000000), wk =   0.1111111
        k(   14) = (   0.0535962  -0.0616674   0.0000000), wk =   0.1111111
        k(   15) = (   0.0535962  -0.0308337   0.0000000), wk =   0.1111111
        k(   16) = (   0.0535962   0.0000000   0.0000000), wk =   0.1111111
        k(   17) = (  -0.0803942  -0.0462505   0.0000000), wk =   0.0555556
        k(   18) = (  -0.0803942  -0.0154168   0.0000000), wk =   0.1111111
        k(   19) = (  -0.0803942   0.0154168   0.0000000), wk =   0.1111111
        k(   20) = (  -0.0803942  -0.1387516   0.0000000), wk =   0.0555556

     Largest allocated arrays     est. size (Mb)     dimensions
     Largest temporary arrays     est. size (Mb)     dimensions

     Check: negative/imaginary core charge=   -0.000002    0.000000

     Initial potential from superposition of free atoms
     Check: negative starting charge=   -0.770646

     starting charge  128.99974, renormalised to  144.00000

     negative rho (up, down):  8.603E-01 0.000E+00

     *
     * You are using vdW-DF for exchange-correlation in this calculation.
     * Please cite the following three references that made this development
     * possible:
     *
     *   M. Dion, H. Rydberg, E. Schroder, D. C. Langreth, and
     *   B. I. Lundqvist, Phys. Rev. Lett. 92, 246401 (2004).
     *
     *   T. Thonhauser, V. R. Cooper, S. Li, A. Puzder, P. Hyldgaard, and
     *   D. C. Langreth, Phys. Rev. B 76, 125112 (2007).
     *
     *   G. Roman-Perez and J. M. Soler, Phys. Rev. Lett. 103, 096102 (2009).
     *
     *
     * If you are using vdW-DF2, please also cite:
     *
     *   K. Lee, E. D. Murray, L. Kong, B. I. Lundqvist, and
     *   D. C. Langreth, Phys. Rev. B 82, 081101(R) (2010).
     *
     *
     * If you are calculating the stress with vdW-DF, please also cite:
     *
     *   R. Sabatini, E. Kucukbenli, B. Kolb, T. Thonhauser, and
     *   S. de Gironcoli, J. Phys.: Condens. Matter 24, 424209 (2012).
     *

     Carrying out vdW-DF run using the following parameters:

     Nqs =      20    Nr_points =    1024   r_max =   100.000
     q_mesh =
               0.00001000     0.04494208     0.09755937     0.15916263
               0.23128650     0.31572767     0.41458969     0.53033537
               0.66584808     0.82450364     1.01025438     1.22772762
               1.48234092     1.78043706     2.12944203     2.53805004
               3.01644009     3.57652955     4.23227104     5.00000000

     Gradients computed in reciprocal space

     Adding external electric field

     Computed dipole along edir(3) :
        Dipole               -0.0000 Ry au,         -0.0000 Debye
        Dipole field         -0.0000 Ry au

        Potential amp.        0.0000 Ry
        Total length         46.2225 bohr

     Starting wfc are  132 randomized atomic wfcs

     Self-consistent Calculation

     iteration #  1     ecut=    36.75 Ry     beta=0.10
     Davidson diagonalization with overlap
     ethr =  1.00E-02,  avg # of iterations =  8.0

[...]

     total energy              =   -1658.05618950 Ry
     Harris-Foulkes estimate   =   -1667.53013749 Ry
     estimated scf accuracy    <      56.11285130 Ry

[...]

     End of self-consistent calculation

          k = 0.0000 0.0000 0.0000 ( 21459 PWs)   bands (ev):

   -61.8790 -61.8788 -61.8552 -61.8550 -61.3883 -61.3638 -30.5359 -30.5285
   -30.4866 -30.4784 -30.4444 -30.4437 -30.4161 -30.3796 -30.3642 -30.3301
   -30.0784 -30.0783 -30.0248 -29.9810 -29.9805 -29.7943 -29.7460 -29.6036
    -8.0112  -7.9850  -7.9122  -7.8741  -7.8506  -7.8327  -7.8237  -7.7631
    -7.7573  -7.7024  -7.6860  -7.6492  -7.5828  -7.4959  -7.4880  -7.4713
    -7.3949  -7.3873  -7.3756  -7.3594  -7.3245  -7.2986  -7.2976  -7.2646
    -7.2506  -7.2245  -7.1636  -7.1345  -7.0867  -6.8578  -6.3711  -4.7920
    -2.9733  -2.2214  -1.4363  -1.2920  -0.9336  -0.8674  -0.5045  -0.3028
    -0.2624   0.1581   0.4180   0.5082   0.8376   0.9063   1.1138   1.2410
     1.2787   1.3375   1.5293   1.7978   1.9181   1.9748   2.4849   2.5578
     2.6766   2.7584   3.0179   3.0280   3.1778   3.7727   3.8532   4.0814
     4.1249   4.3652   4.4305   4.5443   4.5577   4.6473   4.7128   4.7346
     4.7913   5.2135   5.2950   5.3261   5.7371   5.7929

[...]

          k =-0.0804-0.0463 0.0000 ( 21398 PWs)   bands (ev):

[...]

     the Fermi energy is     1.1694 ev

!    total energy              =   -1659.69292164 Ry
     Harris-Foulkes estimate   =   -1659.69291616 Ry
     estimated scf accuracy    <       0.00000074 Ry

     The total energy is the sum of the following terms:

     one-electron contribution =   -8786.64612353 Ry
     hartree contribution      =    4432.20392448 Ry
     xc contribution           =    -708.66598428 Ry
     ewald contribution        =    3403.49542942 Ry
     electric field correction =       0.00000002 Ry
     smearing contrib. (-TS)   =      -0.08016774 Ry

     convergence has been achieved in  18 iterations

 BEEF-vdW xc energy contributions
           1 :   -634.179861097345
           2 :    586.663789693657
           3 :   -503.747771250930
           4 :    404.646400116784
           5 :   -308.535682341505
           6 :    228.588195210415
           7 :   -169.616070026384
           8 :    129.506911355864
           9 :   -102.857477512382
[...]
00030 suncat0079 pw.x -in pw.inp   Done                     12/18/2018 19:16:04
00031 suncat0079 pw.x -in pw.inp   Done                     12/18/2018 19:16:04

[...]

   This run was terminated on:  19:36:53  18Dec2018

[...]

     Program PWSCF v.5.1rc2 (svn rev. 11289) starts on 18Dec2018 at 19:57: 1

[...]

   This run was terminated on:  20:16:17  18Dec2018

[...]

     Program PWSCF v.5.1rc2 (svn rev. 11289) starts on 18Dec2018 at 20:35:12

     Current dimensions of program PWSCF are:
     Max number of different atomic species (ntypx) = 10
     Max number of k-points (npk) =  40000
     Max angular momentum in pseudopotentials (lmaxx) =  3
     Presently stress not available with electric field

     IMPORTANT: XC functional enforced from input :
     Exchange-correlation      = BEEF-VDW ( 1  4 27 13 2)
     Any further DFT definition will be discarded
     Please, verify this is what you really want

     Subspace diagonalization in iterative solution of the eigenvalue problem:
     a serial algorithm will be used

     Found symmetry operation: I + ( -0.5000  0.0000  0.0000)
     This is a supercell, fractional translations are disabled

     bravais-lattice index     =            0
     lattice parameter (alat)  =       1.8897  a.u.
     unit-cell volume          =    5691.3495 (a.u.)^3
     number of atoms/cell      =           12
     number of atomic types    =            2
     number of electrons       =       144.00
     number of Kohn-Sham states=          102
     kinetic-energy cutoff     =      36.7493  Ry
     charge density cutoff     =     367.4932  Ry
     convergence threshold     =      1.0E-06
     mixing beta               =       0.1000
     number of iterations used =           10  plain     mixing
     Exchange-correlation      = BEEF-VDW ( 1  4 27 13 2)
     nstep                     =           50

     celldm(1)=   1.889726  celldm(2)=   0.000000  celldm(3)=   0.000000
     celldm(4)=   0.000000  celldm(5)=   0.000000  celldm(6)=   0.000000

     crystal axes: (cart. coord. in units of alat)
               a(1) = (   6.219350   0.000000   0.000000 )
               a(2) = (  -3.109675   5.405345   0.000000 )
               a(3) = (   0.000000   0.000000  25.087087 )

     reciprocal axes: (cart. coord. in units 2 pi/alat)
               b(1) = (  0.160788  0.092501  0.000000 )
               b(2) = (  0.000000  0.185002  0.000000 )
               b(3) = (  0.000000  0.000000  0.039861 )

     PseudoPot. # 1 for Cd read from file:
     /afs/slac.stanford.edu/u/if/mamunm/psp/gbrv1.5pbe/Cd.UPF
     MD5 check sum: 17164a7926edb8e0dc231208abae86a6
     Pseudo is Ultrasoft + core correction, Zval = 12.0
     Generated by new atomic code, or converted to UPF format
     Using radial grid of  889 points,  6 beta functions with:
                l(1) =   0
                l(2) =   0
                l(3) =   1
                l(4) =   1
                l(5) =   2
                l(6) =   2
     Q(r) pseudized with  6 coefficients,  rinner =    1.000   1.000   1.000
                                                       1.000   1.000

     PseudoPot. # 2 for Hf read from file:
     /afs/slac.stanford.edu/u/if/mamunm/psp/gbrv1.5pbe/Hf.UPF
     MD5 check sum: 8ee9378dfe14276e333edf04c5e4aa26
     Pseudo is Ultrasoft + core correction, Zval = 12.0
     Generated by new atomic code, or converted to UPF format
     Using radial grid of  921 points,  8 beta functions with:
                l(1) =   0
                l(2) =   0
                l(3) =   0
                l(4) =   1
                l(5) =   1
                l(6) =   2
                l(7) =   2
                l(8) =   3
     Q(r) pseudized with  6 coefficients,  rinner =    1.200   1.200   1.200
                                                       1.200   1.200   1.200
                                                       1.200

     vdW kernel table read from file vdW_kernel_table
     MD5 check sum: 095c7af220d748ca6e76c0b4c6cfb241

     atomic species   valence    mass     pseudopotential
        Cd1           12.00   112.41400     Cd( 1.00)
        Hf1           12.00   178.49000     Hf( 1.00)

     No symmetry found

   Cartesian axes

     site n.     atom                  positions (alat units)
         1           Cd1 tau(   1) = (   0.0000000   0.0000000  10.0000000  )
         2           Cd1 tau(   2) = (   0.0000000   5.4053447  10.0000000  )
         3           Hf1 tau(   3) = (   1.5548376   2.7026724  10.0000000  )
         4           Hf1 tau(   4) = (  -1.5548376   2.7026724  10.0000000  )
         5           Cd1 tau(   5) = (   3.1096752   1.7889849  12.5435434  )
         6           Cd1 tau(   6) = (   0.0000000   1.7889849  12.5435434  )
         7           Hf1 tau(   7) = (  -1.5548376   4.4916572  12.5435434  )
         8           Hf1 tau(   8) = (   1.5548376   4.4916572  12.5435434  )
         9           Cd1 tau(   9) = (   0.0000032   3.5581029  15.2370330  )
        10           Cd1 tau(  10) = (   3.1096529   3.5580867  15.2370414  )
        11           Hf1 tau(  11) = (   4.6645107   0.8550576  15.0021876  )
        12           Hf1 tau(  12) = (   1.5548350   0.8550555  15.0021862  )

     number of k points=    20  Fermi-Dirac smearing, width (Ry)=  0.0110
                       cart. coord. in units 2pi/alat
        k(    1) = (   0.0000000   0.0000000   0.0000000), wk =   0.0555556
        k(    2) = (   0.0000000   0.0308337   0.0000000), wk =   0.1111111
        k(    3) = (   0.0000000   0.0616674   0.0000000), wk =   0.1111111
        k(    4) = (   0.0000000  -0.0925010   0.0000000), wk =   0.0555556
        k(    5) = (   0.0267981   0.0154168   0.0000000), wk =   0.1111111
        k(    6) = (   0.0267981   0.0462505   0.0000000), wk =   0.1111111
        k(    7) = (   0.0267981   0.0770842   0.0000000), wk =   0.1111111
        k(    8) = (   0.0267981  -0.0770842   0.0000000), wk =   0.1111111
        k(    9) = (   0.0267981  -0.0462505   0.0000000), wk =   0.1111111
        k(   10) = (   0.0267981  -0.0154168   0.0000000), wk =   0.1111111
        k(   11) = (   0.0535962   0.0308337   0.0000000), wk =   0.1111111
        k(   12) = (   0.0535962   0.0616674   0.0000000), wk =   0.1111111
        k(   13) = (   0.0535962   0.0925010   0.0000000), wk =   0.1111111
        k(   14) = (   0.0535962  -0.0616674   0.0000000), wk =   0.1111111
        k(   15) = (   0.0535962  -0.0308337   0.0000000), wk =   0.1111111
        k(   16) = (   0.0535962   0.0000000   0.0000000), wk =   0.1111111
        k(   17) = (  -0.0803942  -0.0462505   0.0000000), wk =   0.0555556
        k(   18) = (  -0.0803942  -0.0154168   0.0000000), wk =   0.1111111
        k(   19) = (  -0.0803942   0.0154168   0.0000000), wk =   0.1111111
        k(   20) = (  -0.0803942  -0.1387516   0.0000000), wk =   0.0555556

     Largest allocated arrays     est. size (Mb)     dimensions
     Largest temporary arrays     est. size (Mb)     dimensions

     Check: negative/imaginary core charge=   -0.000002    0.000000

     Initial potential from superposition of free atoms
     Check: negative starting charge=   -0.772038

     starting charge  128.99974, renormalised to  144.00000

[...]

     *
     * You are using vdW-DF for exchange-correlation in this calculation.
     * Please cite the following three references that made this development
     * possible:
     *
     *   M. Dion, H. Rydberg, E. Schroder, D. C. Langreth, and
     *   B. I. Lundqvist, Phys. Rev. Lett. 92, 246401 (2004).
     *
     *   T. Thonhauser, V. R. Cooper, S. Li, A. Puzder, P. Hyldgaard, and
     *   D. C. Langreth, Phys. Rev. B 76, 125112 (2007).
     *
     *   G. Roman-Perez and J. M. Soler, Phys. Rev. Lett. 103, 096102 (2009).
     *
     *
     * If you are using vdW-DF2, please also cite:
     *
     *   K. Lee, E. D. Murray, L. Kong, B. I. Lundqvist, and
     *   D. C. Langreth, Phys. Rev. B 82, 081101(R) (2010).
     *
     *
     * If you are calculating the stress with vdW-DF, please also cite:
     *
     *   R. Sabatini, E. Kucukbenli, B. Kolb, T. Thonhauser, and
     *   S. de Gironcoli, J. Phys.: Condens. Matter 24, 424209 (2012).
     *

     Carrying out vdW-DF run using the following parameters:

     Nqs =      20    Nr_points =    1024   r_max =   100.000
     q_mesh =
               0.00001000     0.04494208     0.09755937     0.15916263
               0.23128650     0.31572767     0.41458969     0.53033537
               0.66584808     0.82450364     1.01025438     1.22772762
               1.48234092     1.78043706     2.12944203     2.53805004
               3.01644009     3.57652955     4.23227104     5.00000000

     Gradients computed in reciprocal space

[...]

     Starting wfc are  132 randomized atomic wfcs

     Self-consistent Calculation

[...]

     total energy              =   -1659.69903668 Ry
     Harris-Foulkes estimate   =   -1659.69903591 Ry
     estimated scf accuracy    <       0.00000217 Ry

     iteration # 19     ecut=    36.75 Ry     beta=0.10
     Davidson diagonalization with overlap
     ethr =  1.51E-09,  avg # of iterations =  2.5

[...]

     negative rho (up, down):  8.127E-01 0.000E+00

     Adding external electric field

     Computed dipole along edir(3) :
        Dipole               -0.0375 Ry au,         -0.0954 Debye
        Dipole field         -0.0001 Ry au

        Potential amp.        0.0077 Ry
        Total length         46.2225 bohr

     End of self-consistent calculation

[...]

          k = 0.0536 0.0000 0.0000 ( 21409 PWs)   bands (ev):

[...]

          k =-0.0804-0.1388 0.0000 ( 21398 PWs)   bands (ev):

   -61.9057 -61.9057 -61.8135 -61.8135 -61.4039 -61.4039 -30.5460 -30.5459
   -30.4580 -30.4580 -30.4170 -30.4170 -30.3316 -30.3316 -30.2549 -30.2549
   -30.1898 -30.1897 -30.0808 -30.0808 -29.8773 -29.8773 -29.7742 -29.7742
    -7.7825  -7.7825  -7.7516  -7.7515  -7.6815  -7.6815  -7.6228  -7.6228
    -7.5753  -7.5753  -7.5572  -7.5572  -7.5293  -7.5293  -7.4988  -7.4988
    -7.4798  -7.4798  -7.4599  -7.4599  -7.4479  -7.4479  -7.4085  -7.4085
    -7.3632  -7.3632  -7.3485  -7.3485  -7.2404  -7.2404  -4.7896  -4.7896
    -3.4661  -3.4661  -2.3744  -2.3743  -1.1880  -1.1880  -0.5529  -0.5529
     0.3926   0.3926   0.6853   0.6853   1.0553   1.0553   1.1679   1.1679
     1.3781   1.3781   1.6601   1.6601   1.8642   1.8642   2.1502   2.1502
     2.6269   2.6269   3.0221   3.0221   3.4616   3.4616   3.6008   3.6008
     3.9761   3.9761   4.1369   4.1369   4.4278   4.4278   4.7414   4.7414
     5.4674   5.4674   5.8038   5.8038   6.0868   6.0868

     the Fermi energy is     1.1331 ev

!    total energy              =   -1659.69904155 Ry
     Harris-Foulkes estimate   =   -1659.69903722 Ry
     estimated scf accuracy    <       0.00000078 Ry

     The total energy is the sum of the following terms:

     one-electron contribution =   -8743.41179959 Ry
     hartree contribution      =    4410.53202451 Ry
     xc contribution           =    -708.67270542 Ry
     ewald contribution        =    3381.93470931 Ry
     electric field correction =       0.00000311 Ry
     smearing contrib. (-TS)   =      -0.08127346 Ry

     convergence has been achieved in  19 iterations

 BEEF-vdW xc energy contributions
           1 :   -634.182806355896
           2 :    586.649617339553
           3 :   -503.713543594576
           4 :    404.604985569644
           5 :   -308.503967008903
           6 :    228.573201180329
           7 :   -169.608482288075
           8 :    129.486767193382
           9 :   -102.809209612168
          10 :    84.4204064627055
          11 :   -71.2139545578964
          12 :    61.9347822399455
          13 :   -55.8867414927317
          14 :    51.7957980962778
          15 :   -47.6649569005035
          16 :    41.5842494062340
          17 :   -32.8154442522152
          18 :    22.3279317233419
          19 :   -12.4020882331192
          20 :    5.51937154494340
          21 :   -3.18403405321010
          22 :    5.28713718850906
          23 :   -10.2697663912429
          24 :    15.8863379681727
          25 :   -20.1200608315773
          26 :    21.8167487331314
          27 :   -20.8435494178925
          28 :    17.8391941803638
          29 :   -13.7928174725027
          30 :    9.68285817933054
          31 :   -49.3860088573797
          32 :   -35.7771803741664

     Forces acting on atoms (Ry/au):

     negative rho (up, down):  8.127E-01 0.000E+00
     atom    1 type  1   force =     0.00000046    0.00105467   -0.01507682
     atom    2 type  1   force =    -0.00000042    0.00105156   -0.01507759
     atom    3 type  2   force =     0.00000024    0.00404672    0.01565338
     atom    4 type  2   force =    -0.00000113    0.00404689    0.01565384
     atom    5 type  1   force =     0.00000241    0.00433246   -0.00383086
     atom    6 type  1   force =     0.00000023    0.00432736   -0.00382606
     atom    7 type  2   force =     0.00000100   -0.00853476    0.00157125
     atom    8 type  2   force =    -0.00000173   -0.00853393    0.00157131
     atom    9 type  1   force =    -0.00000271    0.00018444    0.00097045
     atom   10 type  1   force =     0.00000332    0.00018797    0.00097362
     atom   11 type  2   force =    -0.00000112   -0.00108082    0.00070841
     atom   12 type  2   force =    -0.00000054   -0.00108256    0.00070906

     Total force =     0.034676     Total SCF correction =     0.003370

     entering subroutine stress ...

     negative rho (up, down):  8.127E-01 0.000E+00
          total   stress  (Ry/bohr**3)                   (kbar)     P=  -10.18
  -0.00010347   0.00000000   0.00000000        -15.22      0.00      0.00
   0.00000000  -0.00007917  -0.00000918          0.00    -11.65     -1.35
   0.00000000  -0.00000918  -0.00002497          0.00     -1.35     -3.67

 !ASE

     Writing output data file calc.save

     General routines

     Parallel routines

   This run was terminated on:  20:54: 1  18Dec2018

   JOB DONE.
Job  /afs/slac/g/suncat/bin/suncat-tsmpirun -x LD_LIBRARY_PATH -wdir /scratch/qe529640_I18eK pw.x -in pw.inp

TID   HOST_NAME   COMMAND_LINE            STATUS            TERMINATION_TIME
00000 suncat0082 pw.x -in pw.inp   Done                     12/18/2018 20:54:01
00001 suncat0082 pw.x -in pw.inp   Done                     12/18/2018 20:54:01
00002 suncat0082 pw.x -in pw.inp   Done                     12/18/2018 20:54:01
00003 suncat0082 pw.x -in pw.inp   Done                     12/18/2018 20:54:01
00004 suncat0082 pw.x -in pw.inp   Done                     12/18/2018 20:54:01
00005 suncat0082 pw.x -in pw.inp   Done                     12/18/2018 20:54:01
00006 suncat0082 pw.x -in pw.inp   Done                     12/18/2018 20:54:01
00007 suncat0082 pw.x -in pw.inp   Done                     12/18/2018 20:54:01
00008 suncat0081 pw.x -in pw.inp   Done                     12/18/2018 20:54:01
00009 suncat0081 pw.x -in pw.inp   Done                     12/18/2018 20:54:01
00010 suncat0081 pw.x -in pw.inp   Done                     12/18/2018 20:54:01
00011 suncat0081 pw.x -in pw.inp   Done                     12/18/2018 20:54:01
00012 suncat0081 pw.x -in pw.inp   Done                     12/18/2018 20:54:01
00013 suncat0081 pw.x -in pw.inp   Done                     12/18/2018 20:54:01
00014 suncat0081 pw.x -in pw.inp   Done                     12/18/2018 20:54:01
00015 suncat0081 pw.x -in pw.inp   Done                     12/18/2018 20:54:01
00016 suncat0080 pw.x -in pw.inp   Done                     12/18/2018 20:54:01
00017 suncat0080 pw.x -in pw.inp   Done                     12/18/2018 20:54:01
00018 suncat0080 pw.x -in pw.inp   Done                     12/18/2018 20:54:01
00019 suncat0080 pw.x -in pw.inp   Done                     12/18/2018 20:54:01
00020 suncat0080 pw.x -in pw.inp   Done                     12/18/2018 20:54:01
00021 suncat0080 pw.x -in pw.inp   Done                     12/18/2018 20:54:01
00022 suncat0080 pw.x -in pw.inp   Done                     12/18/2018 20:54:01
00023 suncat0080 pw.x -in pw.inp   Done                     12/18/2018 20:54:01
00024 suncat0079 pw.x -in pw.inp   Done                     12/18/2018 20:54:01
00025 suncat0079 pw.x -in pw.inp   Done                     12/18/2018 20:54:01
00026 suncat0079 pw.x -in pw.inp   Done                     12/18/2018 20:54:01
00027 suncat0079 pw.x -in pw.inp   Done                     12/18/2018 20:54:01
00028 suncat0079 pw.x -in pw.inp   Done                     12/18/2018 20:54:01
00029 suncat0079 pw.x -in pw.inp   Done                     12/18/2018 20:54:01
00030 suncat0079 pw.x -in pw.inp   Done                     12/18/2018 20:54:01
00031 suncat0079 pw.x -in pw.inp   Done                     12/18/2018 20:54:01