     Program PWSCF v.5.1rc2 (svn rev. 11289) starts on 25Dec2018 at  6:19:22

     Current dimensions of program PWSCF are:
     Max number of different atomic species (ntypx) = 10
     Max number of k-points (npk) =  40000
     Max angular momentum in pseudopotentials (lmaxx) =  3
     Presently stress not available with electric field

     IMPORTANT: XC functional enforced from input :
     Exchange-correlation      = BEEF-VDW ( 1  4 27 13 2)
     Any further DFT definition will be discarded
     Please, verify this is what you really want

     Subspace diagonalization in iterative solution of the eigenvalue problem:
     a serial algorithm will be used

     Found symmetry operation: I + ( -0.5000  0.5000  0.0000)
     This is a supercell, fractional translations are disabled

     bravais-lattice index     =            0
     lattice parameter (alat)  =       1.8897  a.u.
     unit-cell volume          =    5995.2150 (a.u.)^3
     number of atoms/cell      =           12
     number of atomic types    =            2
     number of electrons       =       204.00
     number of Kohn-Sham states=          132
     kinetic-energy cutoff     =      36.7493  Ry
     charge density cutoff     =     367.4932  Ry
     convergence threshold     =      1.0E-06
     mixing beta               =       0.1000
     number of iterations used =           10  plain     mixing
     Exchange-correlation      = BEEF-VDW ( 1  4 27 13 2)
     nstep                     =           50

     celldm(1)=   1.889726  celldm(2)=   0.000000  celldm(3)=   0.000000
     celldm(4)=   0.000000  celldm(5)=   0.000000  celldm(6)=   0.000000

     crystal axes: (cart. coord. in units of alat)
               a(1) = (   6.255825   0.000000   0.000000 )
               a(2) = (   2.706414   5.640095   0.000000 )
               a(3) = (   0.000000   0.000000  25.178921 )

     reciprocal axes: (cart. coord. in units 2 pi/alat)
               b(1) = (  0.159851 -0.076705  0.000000 )
               b(2) = (  0.000000  0.177302  0.000000 )
               b(3) = (  0.000000  0.000000  0.039716 )

     PseudoPot. # 1 for Zn read from file:
     /afs/slac.stanford.edu/u/if/mamunm/psp/gbrv1.5pbe/Zn.UPF
     MD5 check sum: df62231357ef9e81f77b2b3087fa5675
     Pseudo is Ultrasoft, Zval = 20.0
     Generated by new atomic code, or converted to UPF format
     Using radial grid of  943 points,  6 beta functions with:
                l(1) =   0
                l(2) =   0
                l(3) =   1
                l(4) =   1
                l(5) =   2
                l(6) =   2
     Q(r) pseudized with  8 coefficients,  rinner =    1.100   1.100   1.100
                                                       1.100   1.100

     PseudoPot. # 2 for Sn read from file:
     /afs/slac.stanford.edu/u/if/mamunm/psp/gbrv1.5pbe/Sn.UPF
     MD5 check sum: 469debedee59599fedebd795477fea03
     Pseudo is Ultrasoft + core correction, Zval = 14.0
     Generated by new atomic code, or converted to UPF format
     Using radial grid of  891 points,  6 beta functions with:
                l(1) =   0
                l(2) =   0
                l(3) =   1
                l(4) =   1
                l(5) =   2
                l(6) =   2
     Q(r) pseudized with  8 coefficients,  rinner =    1.350   1.350   1.350
                                                       1.350   1.350

     vdW kernel table read from file vdW_kernel_table
     MD5 check sum: 095c7af220d748ca6e76c0b4c6cfb241

     atomic species   valence    mass     pseudopotential
        Zn1           20.00    65.38000     Zn( 1.00)
        Sn1           14.00   118.71000     Sn( 1.00)

     No symmetry found

   Cartesian axes

     site n.     atom                  positions (alat units)
         1           Zn1 tau(   1) = (   0.0000000   0.0000000  10.0000000  )
         2           Zn1 tau(   2) = (   4.4811197   2.8200475  10.0000000  )
         3           Sn1 tau(   3) = (   3.1279126   0.0000000  10.0000000  )
         4           Sn1 tau(   4) = (   1.3532071   2.8200475  10.0000000  )
         5           Zn1 tau(   5) = (   6.2558253   3.9369010  12.5894607  )
         6           Zn1 tau(   6) = (   1.7747056   1.1168535  12.5894607  )
         7           Sn1 tau(   7) = (   3.1279126   3.9369010  12.5894607  )
         8           Sn1 tau(   8) = (   4.9026182   1.1168535  12.5894607  )
         9           Zn1 tau(   9) = (   3.5494112   2.2337069  15.1789213  )
        10           Zn1 tau(  10) = (   8.0305309   5.0537545  15.1789213  )
        11           Sn1 tau(  11) = (   6.6773238   2.2337069  15.1789213  )
        12           Sn1 tau(  12) = (   4.9026182   5.0537545  15.1789213  )

     number of k points=    20  Fermi-Dirac smearing, width (Ry)=  0.0110
                       cart. coord. in units 2pi/alat
        k(    1) = (   0.0000000   0.0000000   0.0000000), wk =   0.0555556
        k(    2) = (   0.0000000   0.0295503   0.0000000), wk =   0.1111111
        k(    3) = (   0.0000000   0.0591007   0.0000000), wk =   0.1111111
        k(    4) = (   0.0000000  -0.0886510   0.0000000), wk =   0.0555556
        k(    5) = (   0.0266418  -0.0127842   0.0000000), wk =   0.1111111
        k(    6) = (   0.0266418   0.0167662   0.0000000), wk =   0.1111111
        k(    7) = (   0.0266418   0.0463165   0.0000000), wk =   0.1111111
        k(    8) = (   0.0266418  -0.1014351   0.0000000), wk =   0.1111111
        k(    9) = (   0.0266418  -0.0718848   0.0000000), wk =   0.1111111
        k(   10) = (   0.0266418  -0.0423345   0.0000000), wk =   0.1111111
        k(   11) = (   0.0532837  -0.0255683   0.0000000), wk =   0.1111111
        k(   12) = (   0.0532837   0.0039820   0.0000000), wk =   0.1111111
        k(   13) = (   0.0532837   0.0335324   0.0000000), wk =   0.1111111
        k(   14) = (   0.0532837  -0.1142193   0.0000000), wk =   0.1111111
        k(   15) = (   0.0532837  -0.0846690   0.0000000), wk =   0.1111111
        k(   16) = (   0.0532837  -0.0551186   0.0000000), wk =   0.1111111
        k(   17) = (  -0.0799255   0.0383525   0.0000000), wk =   0.0555556
        k(   18) = (  -0.0799255   0.0679028   0.0000000), wk =   0.1111111
        k(   19) = (  -0.0799255   0.0974531   0.0000000), wk =   0.1111111
        k(   20) = (  -0.0799255  -0.0502985   0.0000000), wk =   0.0555556

     Largest allocated arrays     est. size (Mb)     dimensions
     Largest temporary arrays     est. size (Mb)     dimensions

     Initial potential from superposition of free atoms
     Check: negative starting charge=   -0.001238

     starting charge  197.99888, renormalised to  204.00000

     negative rho (up, down):  1.275E-03 0.000E+00

     *
     * You are using vdW-DF for exchange-correlation in this calculation.
     * Please cite the following three references that made this development
     * possible:
     *
     *   M. Dion, H. Rydberg, E. Schroder, D. C. Langreth, and
     *   B. I. Lundqvist, Phys. Rev. Lett. 92, 246401 (2004).
     *
     *   T. Thonhauser, V. R. Cooper, S. Li, A. Puzder, P. Hyldgaard, and
     *   D. C. Langreth, Phys. Rev. B 76, 125112 (2007).
     *
     *   G. Roman-Perez and J. M. Soler, Phys. Rev. Lett. 103, 096102 (2009).
     *
     *
     * If you are using vdW-DF2, please also cite:
     *
     *   K. Lee, E. D. Murray, L. Kong, B. I. Lundqvist, and
     *   D. C. Langreth, Phys. Rev. B 82, 081101(R) (2010).
     *
     *
     * If you are calculating the stress with vdW-DF, please also cite:
     *
     *   R. Sabatini, E. Kucukbenli, B. Kolb, T. Thonhauser, and
     *   S. de Gironcoli, J. Phys.: Condens. Matter 24, 424209 (2012).
     *

     Carrying out vdW-DF run using the following parameters:

     Nqs =      20    Nr_points =    1024   r_max =   100.000
     q_mesh =
               0.00001000     0.04494208     0.09755937     0.15916263
               0.23128650     0.31572767     0.41458969     0.53033537
               0.66584808     0.82450364     1.01025438     1.22772762
               1.48234092     1.78043706     2.12944203     2.53805004
               3.01644009     3.57652955     4.23227104     5.00000000

     Gradients computed in reciprocal space

     Adding external electric field

     Computed dipole along edir(3) :
        Dipole               -0.0000 Ry au,         -0.0000 Debye
        Dipole field         -0.0000 Ry au

        Potential amp.        0.0000 Ry
        Total length         46.3917 bohr

     Starting wfc are  132 randomized atomic wfcs

     Self-consistent Calculation

     iteration #  1     ecut=    36.75 Ry     beta=0.10
     Davidson diagonalization with overlap
     ethr =  1.00E-02,  avg # of iterations =  7.6

[...]

     total energy              =   -3716.53522419 Ry
     Harris-Foulkes estimate   =   -3750.50858007 Ry
     estimated scf accuracy    <     187.87669701 Ry

[...]

     End of self-consistent calculation

          k = 0.0000 0.0000 0.0000 ( 22585 PWs)   bands (ev):

  -126.0985-126.0984-125.9289-125.9288-125.9286-125.9286 -80.2840 -80.2838
   -80.2801 -80.2793 -80.2733 -80.2731 -80.1192 -80.1191 -80.1189 -80.1188
   -80.1090 -80.1087 -80.1082 -80.1080 -80.1056 -80.1053 -80.1053 -80.1051
   -21.6515 -21.6365 -21.6129 -21.5968 -21.5861 -21.5858 -21.5837 -21.5819
   -21.5733 -21.5714 -21.5691 -21.5600 -21.5529 -21.5502 -21.5490 -21.5477
   -21.5449 -21.5408 -21.5356 -21.5261 -21.5257 -21.5253 -21.5202 -21.5168
   -21.5156 -21.5004 -21.4939 -21.4811 -21.4797 -21.4437  -9.5992  -8.3969
    -7.6327  -7.4938  -7.2533  -7.1456  -7.1125  -7.0336  -7.0120  -7.0004
    -6.9581  -6.9389  -6.9347  -6.9322  -6.9318  -6.9160  -6.8987  -6.8753
    -6.8727  -6.8388  -6.8310  -6.8079  -6.8043  -6.7860  -6.7753  -6.7683
    -6.7651  -6.7649  -6.7565  -6.7485  -6.7170  -6.6846  -5.9588  -5.3790
    -5.2319  -4.4378  -3.6694  -3.4516  -3.1803  -3.0409  -2.6307  -2.5980
    -2.1077  -1.6746  -1.6481  -1.5776  -1.3257  -0.3582  -0.2471  -0.1156
    -0.0276   0.0956   1.2626   1.8477   2.7479   2.7801   3.3182   3.7278
     3.8010   3.8206   3.9220   4.3350   4.4630   4.7613   4.8843   5.0834
     5.9441   5.9501   6.3808   6.4352   6.4733   6.6340   6.8128   6.8867
     6.8966   6.9205   7.1674   7.5542

[...]

          k =-0.0799 0.0384 0.0000 ( 22546 PWs)   bands (ev):

[...]

     the Fermi energy is     0.3363 ev

!    total energy              =   -3740.71723998 Ry
     Harris-Foulkes estimate   =   -3740.71723765 Ry
     estimated scf accuracy    <       0.00000091 Ry

     The total energy is the sum of the following terms:

     one-electron contribution =  -19197.32851156 Ry
     hartree contribution      =    9619.16651931 Ry
     xc contribution           =    -527.09795805 Ry
     ewald contribution        =    6364.57668427 Ry
     electric field correction =       0.00000001 Ry
     smearing contrib. (-TS)   =      -0.03397396 Ry

     convergence has been achieved in  15 iterations

 BEEF-vdW xc energy contributions
           1 :   -465.745370827996
           2 :    424.026678121798
           3 :   -353.786565530051
           4 :    275.166532296223
           5 :   -206.493641519438
           6 :    157.545418343645
           7 :   -127.819830834563
[...]
     Using radial grid of  943 points,  6 beta functions with:
                l(1) =   0
                l(2) =   0
                l(3) =   1
                l(4) =   1
                l(5) =   2
                l(6) =   2
     Q(r) pseudized with  8 coefficients,  rinner =    1.100   1.100   1.100
                                                       1.100   1.100

     PseudoPot. # 2 for Sn read from file:
     /afs/slac.stanford.edu/u/if/mamunm/psp/gbrv1.5pbe/Sn.UPF
     MD5 check sum: 469debedee59599fedebd795477fea03
     Pseudo is Ultrasoft + core correction, Zval = 14.0
     Generated by new atomic code, or converted to UPF format
     Using radial grid of  891 points,  6 beta functions with:
                l(1) =   0
                l(2) =   0
                l(3) =   1
                l(4) =   1
                l(5) =   2
                l(6) =   2
     Q(r) pseudized with  8 coefficients,  rinner =    1.350   1.350   1.350
                                                       1.350   1.350

     vdW kernel table read from file vdW_kernel_table
     MD5 check sum: 095c7af220d748ca6e76c0b4c6cfb241

     atomic species   valence    mass     pseudopotential
        Zn1           20.00    65.38000     Zn( 1.00)
        Sn1           14.00   118.71000     Sn( 1.00)

     No symmetry found

   Cartesian axes

     site n.     atom                  positions (alat units)
         1           Zn1 tau(   1) = (   0.0000000   0.0000000  10.0000000  )
         2           Zn1 tau(   2) = (   4.4811197   2.8200475  10.0000000  )
         3           Sn1 tau(   3) = (   3.1279126   0.0000000  10.0000000  )
         4           Sn1 tau(   4) = (   1.3532071   2.8200475  10.0000000  )
         5           Zn1 tau(   5) = (   6.2558253   3.9369010  12.5894607  )
         6           Zn1 tau(   6) = (   1.7747056   1.1168535  12.5894607  )
         7           Sn1 tau(   7) = (   3.1279126   3.9369010  12.5894607  )
         8           Sn1 tau(   8) = (   4.9026182   1.1168535  12.5894607  )
         9           Zn1 tau(   9) = (   3.5350086   2.2246343  15.1676486  )
        10           Zn1 tau(  10) = (   8.0160345   5.0446239  15.1676910  )
        11           Sn1 tau(  11) = (   6.6970942   2.2459454  15.1175891  )
        12           Sn1 tau(  12) = (   4.9222264   5.0663093  15.1175834  )

     number of k points=    20  Fermi-Dirac smearing, width (Ry)=  0.0110
                       cart. coord. in units 2pi/alat
        k(    1) = (   0.0000000   0.0000000   0.0000000), wk =   0.0555556
        k(    2) = (   0.0000000   0.0295503   0.0000000), wk =   0.1111111
        k(    3) = (   0.0000000   0.0591007   0.0000000), wk =   0.1111111
        k(    4) = (   0.0000000  -0.0886510   0.0000000), wk =   0.0555556
        k(    5) = (   0.0266418  -0.0127842   0.0000000), wk =   0.1111111
        k(    6) = (   0.0266418   0.0167662   0.0000000), wk =   0.1111111
        k(    7) = (   0.0266418   0.0463165   0.0000000), wk =   0.1111111
        k(    8) = (   0.0266418  -0.1014351   0.0000000), wk =   0.1111111
        k(    9) = (   0.0266418  -0.0718848   0.0000000), wk =   0.1111111
        k(   10) = (   0.0266418  -0.0423345   0.0000000), wk =   0.1111111
        k(   11) = (   0.0532837  -0.0255683   0.0000000), wk =   0.1111111
        k(   12) = (   0.0532837   0.0039820   0.0000000), wk =   0.1111111
        k(   13) = (   0.0532837   0.0335324   0.0000000), wk =   0.1111111
        k(   14) = (   0.0532837  -0.1142193   0.0000000), wk =   0.1111111
        k(   15) = (   0.0532837  -0.0846690   0.0000000), wk =   0.1111111
        k(   16) = (   0.0532837  -0.0551186   0.0000000), wk =   0.1111111
        k(   17) = (  -0.0799255   0.0383525   0.0000000), wk =   0.0555556
        k(   18) = (  -0.0799255   0.0679028   0.0000000), wk =   0.1111111
        k(   19) = (  -0.0799255   0.0974531   0.0000000), wk =   0.1111111
        k(   20) = (  -0.0799255  -0.0502985   0.0000000), wk =   0.0555556

     Largest allocated arrays     est. size (Mb)     dimensions
     Largest temporary arrays     est. size (Mb)     dimensions

     Initial potential from superposition of free atoms
     Check: negative starting charge=   -0.001235

     starting charge  197.99888, renormalised to  204.00000

[...]

     *
     * You are using vdW-DF for exchange-correlation in this calculation.
     * Please cite the following three references that made this development
     * possible:
     *
     *   M. Dion, H. Rydberg, E. Schroder, D. C. Langreth, and
     *   B. I. Lundqvist, Phys. Rev. Lett. 92, 246401 (2004).
     *
     *   T. Thonhauser, V. R. Cooper, S. Li, A. Puzder, P. Hyldgaard, and
     *   D. C. Langreth, Phys. Rev. B 76, 125112 (2007).
     *
     *   G. Roman-Perez and J. M. Soler, Phys. Rev. Lett. 103, 096102 (2009).
     *
     *
     * If you are using vdW-DF2, please also cite:
     *
     *   K. Lee, E. D. Murray, L. Kong, B. I. Lundqvist, and
     *   D. C. Langreth, Phys. Rev. B 82, 081101(R) (2010).
     *
     *
     * If you are calculating the stress with vdW-DF, please also cite:
     *
     *   R. Sabatini, E. Kucukbenli, B. Kolb, T. Thonhauser, and
     *   S. de Gironcoli, J. Phys.: Condens. Matter 24, 424209 (2012).
     *

     Carrying out vdW-DF run using the following parameters:

     Nqs =      20    Nr_points =    1024   r_max =   100.000
     q_mesh =
               0.00001000     0.04494208     0.09755937     0.15916263
               0.23128650     0.31572767     0.41458969     0.53033537
               0.66584808     0.82450364     1.01025438     1.22772762
               1.48234092     1.78043706     2.12944203     2.53805004
               3.01644009     3.57652955     4.23227104     5.00000000

     Gradients computed in reciprocal space

[...]

     Starting wfc are  132 randomized atomic wfcs

     Self-consistent Calculation

[...]

     total energy              =   -3740.71764834 Ry
     Harris-Foulkes estimate   =   -3740.71764734 Ry
     estimated scf accuracy    <       0.00000118 Ry

     iteration # 16     ecut=    36.75 Ry     beta=0.10
     Davidson diagonalization with overlap
     ethr =  5.78E-10,  avg # of iterations =  2.0

[...]

     negative rho (up, down):  8.782E-04 0.000E+00

     Adding external electric field

     Computed dipole along edir(3) :
        Dipole               -0.0054 Ry au,         -0.0136 Debye
        Dipole field         -0.0000 Ry au

        Potential amp.        0.0010 Ry
        Total length         46.3917 bohr

     End of self-consistent calculation

[...]

          k = 0.0533-0.0551 0.0000 ( 22572 PWs)   bands (ev):

[...]

          k =-0.0799-0.0503 0.0000 ( 22508 PWs)   bands (ev):

  -126.1243-126.1242-125.9367-125.9367-125.9361-125.9361 -80.3095 -80.3092
   -80.3057 -80.3046 -80.2994 -80.2993 -80.1271 -80.1269 -80.1266 -80.1265
   -80.1172 -80.1162 -80.1161 -80.1151 -80.1133 -80.1130 -80.1130 -80.1128
   -21.6592 -21.6409 -21.6279 -21.6032 -21.6012 -21.5909 -21.5859 -21.5838
   -21.5828 -21.5775 -21.5742 -21.5737 -21.5569 -21.5558 -21.5538 -21.5524
   -21.5484 -21.5479 -21.5391 -21.5376 -21.5341 -21.5302 -21.5284 -21.5251
   -21.5102 -21.5098 -21.5092 -21.4972 -21.4862 -21.4520  -8.6600  -8.3575
    -7.5038  -7.3013  -7.2472  -7.1560  -7.1431  -7.1028  -7.0865  -7.0504
    -7.0321  -7.0037  -6.9769  -6.9636  -6.9533  -6.9514  -6.9502  -6.9429
    -6.8810  -6.8733  -6.8576  -6.8501  -6.8389  -6.8276  -6.8212  -6.8109
    -6.7897  -6.7835  -6.7830  -6.7632  -6.7612  -6.7291  -6.7125  -6.5136
    -5.4407  -5.4310  -4.8578  -4.1565  -4.1324  -3.7167  -3.5487  -1.5928
    -0.8193  -0.2315   0.1008   0.1229   0.1472   0.3952   0.9565   1.6906
     1.7272   2.0242   2.1170   2.4159   2.6038   2.9178   3.0661   3.3900
     3.5844   3.9324   3.9594   4.4393   4.5147   4.5577   4.6407   4.8413
     4.9897   4.9910   5.0579   5.2053   5.2945   5.3337   5.7228   5.8084
     5.9771   5.9779   6.1957   6.2004

     the Fermi energy is     0.3254 ev

!    total energy              =   -3740.71765047 Ry
     Harris-Foulkes estimate   =   -3740.71764852 Ry
     estimated scf accuracy    <       0.00000025 Ry

     The total energy is the sum of the following terms:

     one-electron contribution =  -19274.27564526 Ry
     hartree contribution      =    9657.58075647 Ry
     xc contribution           =    -527.12232975 Ry
     ewald contribution        =    6403.13361850 Ry
     electric field correction =       0.00000006 Ry
     smearing contrib. (-TS)   =      -0.03405050 Ry

     convergence has been achieved in  16 iterations

 BEEF-vdW xc energy contributions
           1 :   -465.771467915395
           2 :    424.069899762678
           3 :   -353.850232045312
           4 :    275.236569780565
           5 :   -206.547928930984
           6 :    157.569309651937
           7 :   -127.815975453497
           8 :    109.861373747504
           9 :   -95.1777611131668
          10 :    78.9556210804167
          11 :   -61.5239452967033
          12 :    46.3428786821757
          13 :   -36.5603346627128
          14 :    32.5888527168724
          15 :   -32.0408490950482
          16 :    31.5866434908912
          17 :   -29.1398471269832
          18 :    24.8549743525114
          19 :   -20.4902736255526
          20 :    17.8500845330050
          21 :   -17.5096601841740
          22 :    18.6161098024637
          23 :   -19.6936618430344
          24 :    19.7107329886754
          25 :   -18.6331001133213
          26 :    17.1924569569680
          27 :   -16.2012421507725
          28 :    15.9867167271904
          29 :   -16.3069230069785
          30 :    16.6823558057270
          31 :   -38.3137768970995
          32 :   -26.9985420331468

     Forces acting on atoms (Ry/au):

     negative rho (up, down):  8.782E-04 0.000E+00
     atom    1 type  1   force =     0.00086013    0.00054091    0.00002233
     atom    2 type  1   force =     0.00086167    0.00054142    0.00002365
     atom    3 type  2   force =    -0.00126327   -0.00079460    0.00317469
     atom    4 type  2   force =    -0.00126517   -0.00079212    0.00317377
     atom    5 type  1   force =     0.00049114    0.00030933   -0.00299251
     atom    6 type  1   force =     0.00049821    0.00031170   -0.00299661
     atom    7 type  2   force =    -0.00089283   -0.00054720   -0.00181359
     atom    8 type  2   force =    -0.00087940   -0.00056963   -0.00181402
     atom    9 type  1   force =     0.00106174    0.00066861    0.00051764
     atom   10 type  1   force =     0.00105332    0.00066137    0.00051088
     atom   11 type  2   force =    -0.00026554   -0.00015893    0.00109719
     atom   12 type  2   force =    -0.00026001   -0.00017084    0.00109658

     Total force =     0.007766     Total SCF correction =     0.002659
     SCF correction compared to forces is large: reduce conv_thr to get better values

     entering subroutine stress ...

     negative rho (up, down):  8.782E-04 0.000E+00
          total   stress  (Ry/bohr**3)                   (kbar)     P=   -9.24
  -0.00007851  -0.00000593   0.00000175        -11.55     -0.87      0.26
  -0.00000593  -0.00007282   0.00000110         -0.87    -10.71      0.16
   0.00000175   0.00000110  -0.00003721          0.26      0.16     -5.47

 !ASE

     Writing output data file calc.save

     General routines

     Parallel routines

   This run was terminated on:   7:36:17  25Dec2018

   JOB DONE.
Job  /afs/slac/g/suncat/bin/suncat-tsmpirun -x LD_LIBRARY_PATH -wdir /scratch/qe109244_iHQtp pw.x -in pw.inp

TID   HOST_NAME   COMMAND_LINE            STATUS            TERMINATION_TIME
00000 suncat0042 pw.x -in pw.inp   Done                     12/25/2018 07:36:17
00001 suncat0042 pw.x -in pw.inp   Done                     12/25/2018 07:36:17
00002 suncat0042 pw.x -in pw.inp   Done                     12/25/2018 07:36:17
00003 suncat0042 pw.x -in pw.inp   Done                     12/25/2018 07:36:17
00004 suncat0042 pw.x -in pw.inp   Done                     12/25/2018 07:36:17
00005 suncat0042 pw.x -in pw.inp   Done                     12/25/2018 07:36:17
00006 suncat0042 pw.x -in pw.inp   Done                     12/25/2018 07:36:17
00007 suncat0042 pw.x -in pw.inp   Done                     12/25/2018 07:36:17
00008 suncat0020 pw.x -in pw.inp   Done                     12/25/2018 07:36:17
00009 suncat0020 pw.x -in pw.inp   Done                     12/25/2018 07:36:17
00010 suncat0020 pw.x -in pw.inp   Done                     12/25/2018 07:36:17
00011 suncat0020 pw.x -in pw.inp   Done                     12/25/2018 07:36:17
00012 suncat0020 pw.x -in pw.inp   Done                     12/25/2018 07:36:17
00013 suncat0020 pw.x -in pw.inp   Done                     12/25/2018 07:36:17
00014 suncat0020 pw.x -in pw.inp   Done                     12/25/2018 07:36:17
00015 suncat0020 pw.x -in pw.inp   Done                     12/25/2018 07:36:17
00016 suncat0196 pw.x -in pw.inp   Done                     12/25/2018 07:36:17
00017 suncat0196 pw.x -in pw.inp   Done                     12/25/2018 07:36:17
00018 suncat0196 pw.x -in pw.inp   Done                     12/25/2018 07:36:17
00019 suncat0196 pw.x -in pw.inp   Done                     12/25/2018 07:36:17
00020 suncat0196 pw.x -in pw.inp   Done                     12/25/2018 07:36:17
00021 suncat0196 pw.x -in pw.inp   Done                     12/25/2018 07:36:17
00022 suncat0196 pw.x -in pw.inp   Done                     12/25/2018 07:36:17
00023 suncat0196 pw.x -in pw.inp   Done                     12/25/2018 07:36:17
00024 suncat0194 pw.x -in pw.inp   Done                     12/25/2018 07:36:17
00025 suncat0194 pw.x -in pw.inp   Done                     12/25/2018 07:36:17
00026 suncat0194 pw.x -in pw.inp   Done                     12/25/2018 07:36:17
00027 suncat0194 pw.x -in pw.inp   Done                     12/25/2018 07:36:17
00028 suncat0194 pw.x -in pw.inp   Done                     12/25/2018 07:36:17
00029 suncat0194 pw.x -in pw.inp   Done                     12/25/2018 07:36:17
00030 suncat0194 pw.x -in pw.inp   Done                     12/25/2018 07:36:17
00031 suncat0194 pw.x -in pw.inp   Done                     12/25/2018 07:36:17
00032 suncat0121 pw.x -in pw.inp   Done                     12/25/2018 07:36:17
00033 suncat0121 pw.x -in pw.inp   Done                     12/25/2018 07:36:17
00034 suncat0121 pw.x -in pw.inp   Done                     12/25/2018 07:36:17
00035 suncat0121 pw.x -in pw.inp   Done                     12/25/2018 07:36:17
00036 suncat0121 pw.x -in pw.inp   Done                     12/25/2018 07:36:17
00037 suncat0121 pw.x -in pw.inp   Done                     12/25/2018 07:36:17
00038 suncat0121 pw.x -in pw.inp   Done                     12/25/2018 07:36:17
00039 suncat0121 pw.x -in pw.inp   Done                     12/25/2018 07:36:17
00040 suncat0115 pw.x -in pw.inp   Done                     12/25/2018 07:36:17
00041 suncat0115 pw.x -in pw.inp   Done                     12/25/2018 07:36:17
00042 suncat0115 pw.x -in pw.inp   Done                     12/25/2018 07:36:17
00043 suncat0115 pw.x -in pw.inp   Done                     12/25/2018 07:36:17
00044 suncat0115 pw.x -in pw.inp   Done                     12/25/2018 07:36:17
00045 suncat0115 pw.x -in pw.inp   Done                     12/25/2018 07:36:17
00046 suncat0115 pw.x -in pw.inp   Done                     12/25/2018 07:36:17
00047 suncat0115 pw.x -in pw.inp   Done                     12/25/2018 07:36:17
00048 suncat0228 pw.x -in pw.inp   Done                     12/25/2018 07:36:17
00049 suncat0228 pw.x -in pw.inp   Done                     12/25/2018 07:36:17
00050 suncat0228 pw.x -in pw.inp   Done                     12/25/2018 07:36:17
00051 suncat0228 pw.x -in pw.inp   Done                     12/25/2018 07:36:17
00052 suncat0228 pw.x -in pw.inp   Done                     12/25/2018 07:36:17
00053 suncat0228 pw.x -in pw.inp   Done                     12/25/2018 07:36:17
00054 suncat0228 pw.x -in pw.inp   Done                     12/25/2018 07:36:17
00055 suncat0228 pw.x -in pw.inp   Done                     12/25/2018 07:36:17
00056 suncat0227 pw.x -in pw.inp   Done                     12/25/2018 07:36:17
00057 suncat0227 pw.x -in pw.inp   Done                     12/25/2018 07:36:17
00058 suncat0227 pw.x -in pw.inp   Done                     12/25/2018 07:36:17
00059 suncat0227 pw.x -in pw.inp   Done                     12/25/2018 07:36:17
00060 suncat0227 pw.x -in pw.inp   Done                     12/25/2018 07:36:17
00061 suncat0227 pw.x -in pw.inp   Done                     12/25/2018 07:36:17
00062 suncat0227 pw.x -in pw.inp   Done                     12/25/2018 07:36:17
00063 suncat0227 pw.x -in pw.inp   Done                     12/25/2018 07:36:17