     Program PWSCF v.5.1rc2 (svn rev. 11289) starts on 19Dec2018 at  5:45:22

     Current dimensions of program PWSCF are:
     Max number of different atomic species (ntypx) = 10
     Max number of k-points (npk) =  40000
     Max angular momentum in pseudopotentials (lmaxx) =  3
     Presently stress not available with electric field

     IMPORTANT: XC functional enforced from input :
     Exchange-correlation      = BEEF-VDW ( 1  4 27 13 2)
     Any further DFT definition will be discarded
     Please, verify this is what you really want

     Subspace diagonalization in iterative solution of the eigenvalue problem:
     a serial algorithm will be used

     Found symmetry operation: I + ( -0.5000 -0.5000  0.0000)
     This is a supercell, fractional translations are disabled

     Generating pointlists ...
     new r_m :   0.4125 (alat units)  0.7795 (a.u.) for type    1
     new r_m :   0.4125 (alat units)  0.7795 (a.u.) for type    2

     bravais-lattice index     =            0
     lattice parameter (alat)  =       1.8897  a.u.
     unit-cell volume          =    3859.3817 (a.u.)^3
     number of atoms/cell      =           12
     number of atomic types    =            2
     number of electrons       =       198.00
     number of Kohn-Sham states=          129
     kinetic-energy cutoff     =      36.7493  Ry
     charge density cutoff     =     367.4932  Ry
     convergence threshold     =      1.0E-06
     mixing beta               =       0.1000
     number of iterations used =           10  plain     mixing
     Exchange-correlation      = BEEF-VDW ( 1  4 27 13 2)
     nstep                     =           50

     celldm(1)=   1.889726  celldm(2)=   0.000000  celldm(3)=   0.000000
     celldm(4)=   0.000000  celldm(5)=   0.000000  celldm(6)=   0.000000

     crystal axes: (cart. coord. in units of alat)
               a(1) = (   5.207476   0.000000   0.000000 )
               a(2) = (   2.573792   4.526964   0.000000 )
               a(3) = (   0.000000   0.000000  24.259778 )

     reciprocal axes: (cart. coord. in units 2 pi/alat)
               b(1) = (  0.192032 -0.109179  0.000000 )
               b(2) = (  0.000000  0.220899  0.000000 )
               b(3) = (  0.000000  0.000000  0.041220 )

     PseudoPot. # 1 for Co read from file:
     /afs/slac.stanford.edu/u/if/mamunm/psp/gbrv1.5pbe/Co.UPF
     MD5 check sum: 5f91765df6ddd3222702df6e7b74a16d
     Pseudo is Ultrasoft + core correction, Zval = 17.0
     Generated by new atomic code, or converted to UPF format
     Using radial grid of  863 points,  6 beta functions with:
                l(1) =   0
                l(2) =   0
                l(3) =   1
                l(4) =   1
                l(5) =   2
                l(6) =   2
     Q(r) pseudized with  8 coefficients,  rinner =    1.200   1.200   1.200
                                                       1.200   1.200

     PseudoPot. # 2 for Os read from file:
     /afs/slac.stanford.edu/u/if/mamunm/psp/gbrv1.5pbe/Os.UPF
     MD5 check sum: a3fb40a04f0c37c25c34bbc47164c9a8
     Pseudo is Ultrasoft + core correction, Zval = 16.0
     Generated by new atomic code, or converted to UPF format
     Using radial grid of  983 points,  8 beta functions with:
                l(1) =   0
                l(2) =   0
                l(3) =   1
                l(4) =   1
                l(5) =   2
                l(6) =   2
                l(7) =   3
                l(8) =   3
     Q(r) pseudized with  8 coefficients,  rinner =    1.150   1.150   1.150
                                                       1.150   1.150   1.150
                                                       1.150

     vdW kernel table read from file vdW_kernel_table
     MD5 check sum: 095c7af220d748ca6e76c0b4c6cfb241

     atomic species   valence    mass     pseudopotential
        Co1           17.00    58.93319     Co( 1.00)
        Os1           16.00   190.23000     Os( 1.00)

     Starting magnetic structure
     atomic species   magnetization
        Co1          0.118
        Os1          0.125

     No symmetry found

   Cartesian axes

     site n.     atom                  positions (alat units)
         1           Co1 tau(   1) = (   0.0000000   0.0000000  10.0000000  )
         2           Co1 tau(   2) = (   3.8906343   2.2634818  10.0000000  )
         3           Os1 tau(   3) = (   2.6037381   0.0000000  10.0000000  )
         4           Os1 tau(   4) = (   1.2868962   2.2634818  10.0000000  )
         5           Co1 tau(   5) = (   5.2074762   3.0295902  12.1298892  )
         6           Co1 tau(   6) = (   1.3168418   0.7661084  12.1298892  )
         7           Os1 tau(   7) = (   2.6037381   3.0295902  12.1298892  )
         8           Os1 tau(   8) = (   3.9205799   0.7661084  12.1298892  )
         9           Co1 tau(   9) = (   2.6336837   1.5322168  14.2597784  )
        10           Co1 tau(  10) = (   6.5243180   3.7956986  14.2597784  )
        11           Os1 tau(  11) = (   5.2374218   1.5322168  14.2597784  )
        12           Os1 tau(  12) = (   3.9205799   3.7956986  14.2597784  )

     number of k points=    40  Fermi-Dirac smearing, width (Ry)=  0.0110
                       cart. coord. in units 2pi/alat
        k(    1) = (   0.0000000   0.0000000   0.0000000), wk =   0.0277778
        k(    2) = (   0.0000000   0.0368164   0.0000000), wk =   0.0555556
        k(    3) = (   0.0000000   0.0736329   0.0000000), wk =   0.0555556
        k(    4) = (   0.0000000  -0.1104493   0.0000000), wk =   0.0277778
        k(    5) = (   0.0320053  -0.0181965   0.0000000), wk =   0.0555556
        k(    6) = (   0.0320053   0.0186199   0.0000000), wk =   0.0555556
        k(    7) = (   0.0320053   0.0554364   0.0000000), wk =   0.0555556
        k(    8) = (   0.0320053  -0.1286458   0.0000000), wk =   0.0555556
        k(    9) = (   0.0320053  -0.0918294   0.0000000), wk =   0.0555556
        k(   10) = (   0.0320053  -0.0550129   0.0000000), wk =   0.0555556
        k(   11) = (   0.0640105  -0.0363930   0.0000000), wk =   0.0555556
        k(   12) = (   0.0640105   0.0004234   0.0000000), wk =   0.0555556
        k(   13) = (   0.0640105   0.0372399   0.0000000), wk =   0.0555556
        k(   14) = (   0.0640105  -0.1468423   0.0000000), wk =   0.0555556
        k(   15) = (   0.0640105  -0.1100259   0.0000000), wk =   0.0555556
        k(   16) = (   0.0640105  -0.0732094   0.0000000), wk =   0.0555556
        k(   17) = (  -0.0960158   0.0545895   0.0000000), wk =   0.0277778
        k(   18) = (  -0.0960158   0.0914060   0.0000000), wk =   0.0555556
        k(   19) = (  -0.0960158   0.1282224   0.0000000), wk =   0.0555556
        k(   20) = (  -0.0960158  -0.0558598   0.0000000), wk =   0.0277778
        k(   21) = (   0.0000000   0.0000000   0.0000000), wk =   0.0277778
        k(   22) = (   0.0000000   0.0368164   0.0000000), wk =   0.0555556
        k(   23) = (   0.0000000   0.0736329   0.0000000), wk =   0.0555556
        k(   24) = (   0.0000000  -0.1104493   0.0000000), wk =   0.0277778
        k(   25) = (   0.0320053  -0.0181965   0.0000000), wk =   0.0555556
        k(   26) = (   0.0320053   0.0186199   0.0000000), wk =   0.0555556
        k(   27) = (   0.0320053   0.0554364   0.0000000), wk =   0.0555556
        k(   28) = (   0.0320053  -0.1286458   0.0000000), wk =   0.0555556
        k(   29) = (   0.0320053  -0.0918294   0.0000000), wk =   0.0555556
        k(   30) = (   0.0320053  -0.0550129   0.0000000), wk =   0.0555556
        k(   31) = (   0.0640105  -0.0363930   0.0000000), wk =   0.0555556
        k(   32) = (   0.0640105   0.0004234   0.0000000), wk =   0.0555556
        k(   33) = (   0.0640105   0.0372399   0.0000000), wk =   0.0555556
        k(   34) = (   0.0640105  -0.1468423   0.0000000), wk =   0.0555556
        k(   35) = (   0.0640105  -0.1100259   0.0000000), wk =   0.0555556
        k(   36) = (   0.0640105  -0.0732094   0.0000000), wk =   0.0555556
        k(   37) = (  -0.0960158   0.0545895   0.0000000), wk =   0.0277778
        k(   38) = (  -0.0960158   0.0914060   0.0000000), wk =   0.0555556
        k(   39) = (  -0.0960158   0.1282224   0.0000000), wk =   0.0555556
        k(   40) = (  -0.0960158  -0.0558598   0.0000000), wk =   0.0277778

     Largest allocated arrays     est. size (Mb)     dimensions
     Largest temporary arrays     est. size (Mb)     dimensions

     Check: negative/imaginary core charge=   -0.000003    0.000000

     Initial potential from superposition of free atoms
     Check: negative starting charge=(component1):   -0.421385
     Check: negative starting charge=(component2):   -0.327735

     starting charge  188.99974, renormalised to  198.00000

     negative rho (up, down):  4.415E-01 3.433E-01

     *
     * You are using vdW-DF for exchange-correlation in this calculation.
     * Please cite the following three references that made this development
     * possible:
     *
     *   M. Dion, H. Rydberg, E. Schroder, D. C. Langreth, and
     *   B. I. Lundqvist, Phys. Rev. Lett. 92, 246401 (2004).
     *
     *   T. Thonhauser, V. R. Cooper, S. Li, A. Puzder, P. Hyldgaard, and
     *   D. C. Langreth, Phys. Rev. B 76, 125112 (2007).
     *
     *   G. Roman-Perez and J. M. Soler, Phys. Rev. Lett. 103, 096102 (2009).
     *
     *
     * If you are using vdW-DF2, please also cite:
     *
     *   K. Lee, E. D. Murray, L. Kong, B. I. Lundqvist, and
     *   D. C. Langreth, Phys. Rev. B 82, 081101(R) (2010).
     *
     *
     * If you are calculating the stress with vdW-DF, please also cite:
     *
     *   R. Sabatini, E. Kucukbenli, B. Kolb, T. Thonhauser, and
     *   S. de Gironcoli, J. Phys.: Condens. Matter 24, 424209 (2012).
     *

     Carrying out vdW-DF run using the following parameters:

     Nqs =      20    Nr_points =    1024   r_max =   100.000
     q_mesh =
               0.00001000     0.04494208     0.09755937     0.15916263
               0.23128650     0.31572767     0.41458969     0.53033537
               0.66584808     0.82450364     1.01025438     1.22772762
               1.48234092     1.78043706     2.12944203     2.53805004
               3.01644009     3.57652955     4.23227104     5.00000000

     Gradients computed in reciprocal space

     Adding external electric field

     Computed dipole along edir(3) :
        Dipole                0.0000 Ry au,          0.0000 Debye
        Dipole field          0.0000 Ry au

        Potential amp.       -0.0000 Ry
        Total length         44.6982 bohr

[...]

     Starting wfc are  156 randomized atomic wfcs

     Self-consistent Calculation

     iteration #  1     ecut=    36.75 Ry     beta=0.10
     Davidson diagonalization with overlap
     ethr =  1.00E-02,  avg # of iterations =  7.5

[...]

     Magnetic moment per site:
     atom:    1    charge:    8.3661    magn:    0.9581    constr:    0.0000
     atom:    2    charge:    8.3661    magn:    0.9581    constr:    0.0000
     atom:    3    charge:    2.2714    magn:    0.2582    constr:    0.0000
     atom:    4    charge:    2.2714    magn:    0.2582    constr:    0.0000
[...]
     MD5 check sum: a3fb40a04f0c37c25c34bbc47164c9a8
     Pseudo is Ultrasoft + core correction, Zval = 16.0
     Generated by new atomic code, or converted to UPF format
     Using radial grid of  983 points,  8 beta functions with:
                l(1) =   0
                l(2) =   0
                l(3) =   1
                l(4) =   1
                l(5) =   2
                l(6) =   2
                l(7) =   3
                l(8) =   3
     Q(r) pseudized with  8 coefficients,  rinner =    1.150   1.150   1.150
                                                       1.150   1.150   1.150
                                                       1.150

     vdW kernel table read from file vdW_kernel_table
     MD5 check sum: 095c7af220d748ca6e76c0b4c6cfb241

     atomic species   valence    mass     pseudopotential
        Co1           17.00    58.93319     Co( 1.00)
        Os1           16.00   190.23000     Os( 1.00)

     Starting magnetic structure
     atomic species   magnetization
        Co1          0.118
        Os1          0.125

     No symmetry found

   Cartesian axes

     site n.     atom                  positions (alat units)
         1           Co1 tau(   1) = (   0.0000000   0.0000000  10.0000000  )
         2           Co1 tau(   2) = (   3.8906343   2.2634818  10.0000000  )
         3           Os1 tau(   3) = (   2.6037381   0.0000000  10.0000000  )
         4           Os1 tau(   4) = (   1.2868962   2.2634818  10.0000000  )
         5           Co1 tau(   5) = (   5.2074762   3.0295902  12.1298892  )
         6           Co1 tau(   6) = (   1.3168418   0.7661084  12.1298892  )
         7           Os1 tau(   7) = (   2.6037381   3.0295902  12.1298892  )
         8           Os1 tau(   8) = (   3.9205799   0.7661084  12.1298892  )
         9           Co1 tau(   9) = (   2.6278645   1.5288317  14.1745111  )
        10           Co1 tau(  10) = (   6.5186327   3.7923911  14.1745529  )
        11           Os1 tau(  11) = (   5.2208954   1.5226270  14.2057576  )
        12           Os1 tau(  12) = (   3.9040753   3.7860717  14.2057575  )

     number of k points=    40  Fermi-Dirac smearing, width (Ry)=  0.0110
                       cart. coord. in units 2pi/alat
        k(    1) = (   0.0000000   0.0000000   0.0000000), wk =   0.0277778
        k(    2) = (   0.0000000   0.0368164   0.0000000), wk =   0.0555556
        k(    3) = (   0.0000000   0.0736329   0.0000000), wk =   0.0555556
        k(    4) = (   0.0000000  -0.1104493   0.0000000), wk =   0.0277778
        k(    5) = (   0.0320053  -0.0181965   0.0000000), wk =   0.0555556
        k(    6) = (   0.0320053   0.0186199   0.0000000), wk =   0.0555556
        k(    7) = (   0.0320053   0.0554364   0.0000000), wk =   0.0555556
        k(    8) = (   0.0320053  -0.1286458   0.0000000), wk =   0.0555556
        k(    9) = (   0.0320053  -0.0918294   0.0000000), wk =   0.0555556
        k(   10) = (   0.0320053  -0.0550129   0.0000000), wk =   0.0555556
        k(   11) = (   0.0640105  -0.0363930   0.0000000), wk =   0.0555556
        k(   12) = (   0.0640105   0.0004234   0.0000000), wk =   0.0555556
        k(   13) = (   0.0640105   0.0372399   0.0000000), wk =   0.0555556
        k(   14) = (   0.0640105  -0.1468423   0.0000000), wk =   0.0555556
        k(   15) = (   0.0640105  -0.1100259   0.0000000), wk =   0.0555556
        k(   16) = (   0.0640105  -0.0732094   0.0000000), wk =   0.0555556
        k(   17) = (  -0.0960158   0.0545895   0.0000000), wk =   0.0277778
        k(   18) = (  -0.0960158   0.0914060   0.0000000), wk =   0.0555556
        k(   19) = (  -0.0960158   0.1282224   0.0000000), wk =   0.0555556
        k(   20) = (  -0.0960158  -0.0558598   0.0000000), wk =   0.0277778
        k(   21) = (   0.0000000   0.0000000   0.0000000), wk =   0.0277778
        k(   22) = (   0.0000000   0.0368164   0.0000000), wk =   0.0555556
        k(   23) = (   0.0000000   0.0736329   0.0000000), wk =   0.0555556
        k(   24) = (   0.0000000  -0.1104493   0.0000000), wk =   0.0277778
        k(   25) = (   0.0320053  -0.0181965   0.0000000), wk =   0.0555556
        k(   26) = (   0.0320053   0.0186199   0.0000000), wk =   0.0555556
        k(   27) = (   0.0320053   0.0554364   0.0000000), wk =   0.0555556
        k(   28) = (   0.0320053  -0.1286458   0.0000000), wk =   0.0555556
        k(   29) = (   0.0320053  -0.0918294   0.0000000), wk =   0.0555556
        k(   30) = (   0.0320053  -0.0550129   0.0000000), wk =   0.0555556
        k(   31) = (   0.0640105  -0.0363930   0.0000000), wk =   0.0555556
        k(   32) = (   0.0640105   0.0004234   0.0000000), wk =   0.0555556
        k(   33) = (   0.0640105   0.0372399   0.0000000), wk =   0.0555556
        k(   34) = (   0.0640105  -0.1468423   0.0000000), wk =   0.0555556
        k(   35) = (   0.0640105  -0.1100259   0.0000000), wk =   0.0555556
        k(   36) = (   0.0640105  -0.0732094   0.0000000), wk =   0.0555556
        k(   37) = (  -0.0960158   0.0545895   0.0000000), wk =   0.0277778
        k(   38) = (  -0.0960158   0.0914060   0.0000000), wk =   0.0555556
        k(   39) = (  -0.0960158   0.1282224   0.0000000), wk =   0.0555556
        k(   40) = (  -0.0960158  -0.0558598   0.0000000), wk =   0.0277778

     Largest allocated arrays     est. size (Mb)     dimensions
     Largest temporary arrays     est. size (Mb)     dimensions

     Check: negative/imaginary core charge=   -0.000003    0.000000

     Initial potential from superposition of free atoms
     Check: negative starting charge=(component1):   -0.421229
     Check: negative starting charge=(component2):   -0.327613

     starting charge  188.99974, renormalised to  198.00000

[...]

     *
     * You are using vdW-DF for exchange-correlation in this calculation.
     * Please cite the following three references that made this development
     * possible:
     *
     *   M. Dion, H. Rydberg, E. Schroder, D. C. Langreth, and
     *   B. I. Lundqvist, Phys. Rev. Lett. 92, 246401 (2004).
     *
     *   T. Thonhauser, V. R. Cooper, S. Li, A. Puzder, P. Hyldgaard, and
     *   D. C. Langreth, Phys. Rev. B 76, 125112 (2007).
     *
     *   G. Roman-Perez and J. M. Soler, Phys. Rev. Lett. 103, 096102 (2009).
     *
     *
     * If you are using vdW-DF2, please also cite:
     *
     *   K. Lee, E. D. Murray, L. Kong, B. I. Lundqvist, and
     *   D. C. Langreth, Phys. Rev. B 82, 081101(R) (2010).
     *
     *
     * If you are calculating the stress with vdW-DF, please also cite:
     *
     *   R. Sabatini, E. Kucukbenli, B. Kolb, T. Thonhauser, and
     *   S. de Gironcoli, J. Phys.: Condens. Matter 24, 424209 (2012).
     *

     Carrying out vdW-DF run using the following parameters:

     Nqs =      20    Nr_points =    1024   r_max =   100.000
     q_mesh =
               0.00001000     0.04494208     0.09755937     0.15916263
               0.23128650     0.31572767     0.41458969     0.53033537
               0.66584808     0.82450364     1.01025438     1.22772762
               1.48234092     1.78043706     2.12944203     2.53805004
               3.01644009     3.57652955     4.23227104     5.00000000

     Gradients computed in reciprocal space

[...]

     Starting wfc are  156 randomized atomic wfcs

     Self-consistent Calculation

[...]

     total energy              =   -2995.67813799 Ry
     Harris-Foulkes estimate   =   -2995.67813792 Ry
     estimated scf accuracy    <       0.00000343 Ry

[...]

     iteration # 45     ecut=    36.75 Ry     beta=0.10
     Davidson diagonalization with overlap
     ethr =  5.89E-10,  avg # of iterations =  1.0

[...]

     negative rho (up, down):  3.734E-01 3.811E-01

[...]

     Adding external electric field

     Computed dipole along edir(3) :
        Dipole                0.0051 Ry au,          0.0129 Debye
        Dipole field          0.0000 Ry au

        Potential amp.       -0.0015 Ry
        Total length         44.6982 bohr

     Magnetic moment per site:
     atom:    1    charge:    8.2719    magn:    0.6400    constr:    0.0000
     atom:    2    charge:    8.2720    magn:    0.6399    constr:    0.0000
     atom:    3    charge:    2.1741    magn:    0.0040    constr:    0.0000
     atom:    4    charge:    2.1741    magn:    0.0040    constr:    0.0000
     atom:    5    charge:    8.2792    magn:    0.4583    constr:    0.0000
     atom:    6    charge:    8.2793    magn:    0.4584    constr:    0.0000
     atom:    7    charge:    2.1870    magn:   -0.0013    constr:    0.0000
     atom:    8    charge:    2.1870    magn:   -0.0013    constr:    0.0000
     atom:    9    charge:    8.2854    magn:    0.5152    constr:    0.0000
     atom:   10    charge:    8.2854    magn:    0.5152    constr:    0.0000
     atom:   11    charge:    2.1828    magn:    0.0015    constr:    0.0000
     atom:   12    charge:    2.1828    magn:    0.0015    constr:    0.0000

     End of self-consistent calculation

 ------ SPIN UP ------------

[...]

 ------ SPIN DOWN ----------

[...]

          k = 0.0640-0.0732 0.0000 ( 14515 PWs)   bands (ev):

[...]

          k =-0.0960-0.0559 0.0000 ( 14446 PWs)   bands (ev):

   -92.7612 -92.7517 -92.4515 -92.4421 -92.2972 -92.2877 -85.1178 -85.0686
   -84.5927 -84.5432 -84.5213 -84.4717 -56.1760 -56.1655 -56.1252 -56.0218
   -56.0125 -56.0023 -55.8776 -55.8678 -55.7967 -55.7359 -55.7262 -55.7024
   -55.6940 -55.6925 -55.6471 -55.5449 -55.5443 -55.5350 -44.7186 -44.5865
   -44.5001 -44.3803 -44.2981 -44.2812 -44.2220 -43.9677 -43.8384 -43.8126
   -43.7598 -43.7562 -43.7337 -43.6767 -43.6764 -43.6030 -43.5340 -43.4748
    -5.7153  -4.9056  -4.0998  -3.9951  -3.2309  -3.2269  -3.2143  -3.0450
    -2.9517  -2.6961  -2.2461  -2.1386  -2.0229  -1.9666  -1.9144  -1.7488
    -1.6490  -1.1928  -0.9490  -0.7425  -0.5683  -0.4578  -0.3898  -0.3689
    -0.1314  -0.0230   0.0736   0.1056   0.2412   0.2795   0.4659   0.4735
     0.4742   0.5454   0.5836   0.5915   0.5980   0.6111   0.6582   0.8259
     1.1089   1.2137   1.2996   1.4353   1.4762   1.4813   1.5793   1.5887
     1.7541   1.8914   1.8919   2.0866   2.1451   2.3898   2.3985   2.5279
     2.5755   2.6769   2.8605   2.9855   3.0216   3.4077   3.6732   3.9533
     3.9818   4.6424   4.6731   5.2643   6.6384   7.1825   7.3327   7.4020
     7.7554   8.1627   8.1830   8.2356   8.7349   8.8445   8.8850   8.9159
     9.9395

     the Fermi energy is     1.9415 ev

!    total energy              =   -2995.67813831 Ry
     Harris-Foulkes estimate   =   -2995.67813823 Ry
     estimated scf accuracy    <       0.00000098 Ry

     The total energy is the sum of the following terms:

     one-electron contribution =  -26298.15286957 Ry
     hartree contribution      =   13143.74829225 Ry
     xc contribution           =    -434.63262806 Ry
     ewald contribution        =   10593.45037638 Ry
     electric field correction =       0.00000008 Ry
     smearing contrib. (-TS)   =      -0.09130940 Ry

     total magnetization       =     5.80 Bohr mag/cell
     absolute magnetization    =     6.81 Bohr mag/cell

     convergence has been achieved in  45 iterations

 BEEF-vdW xc energy contributions
           1 :   -381.792575589894
           2 :    350.352479236214
           3 :   -295.775236669939
           4 :    231.249687977804
           5 :   -169.962793714343
           6 :    120.924423496601
           7 :   -87.1142325172043
           8 :    66.2612436128111
           9 :   -53.4160874000333
          10 :    43.8054934283211
          11 :   -34.6783422168039
          12 :    25.5954685407715
          13 :   -17.5234746894668
          14 :    11.5589727971265
          15 :   -8.08056747404999
          16 :    6.63628589522909
          17 :   -6.38697355017348
          18 :    6.63840974300319
          19 :   -7.09438583332644
          20 :    7.72993729955954
          21 :   -8.48992503766260
          22 :    9.09421928924439
          23 :   -9.12333141121030
          24 :    8.30190074108083
          25 :   -6.75197368486511
          26 :    4.99373239559327
          27 :   -3.67219105567352
          28 :    3.17442373688596
          29 :   -3.39768460808085
          30 :    3.81839804963613
          31 :   -34.3796270452299
          32 :   -25.2044840667538

     Forces acting on atoms (Ry/au):

     negative rho (up, down):  3.734E-01 3.811E-01
     atom    1 type  1   force =    -0.00073651   -0.00042835    0.01229656
     atom    2 type  1   force =    -0.00071542   -0.00041633    0.01230841
     atom    3 type  2   force =     0.00401666    0.00234870    0.01484648
     atom    4 type  2   force =     0.00402717    0.00233098    0.01484647
     atom    5 type  1   force =     0.00125593    0.00073069   -0.01081480
     atom    6 type  1   force =     0.00121686    0.00070794   -0.01084296
     atom    7 type  2   force =    -0.00315884   -0.00186452   -0.01703797
     atom    8 type  2   force =    -0.00318206   -0.00182444   -0.01703794
     atom    9 type  1   force =    -0.00079796   -0.00046434    0.00049437
     atom   10 type  1   force =    -0.00084901   -0.00049395    0.00045801
     atom   11 type  2   force =    -0.00053483   -0.00031935    0.00024167
     atom   12 type  2   force =    -0.00054201   -0.00030704    0.00024171

     Total force =     0.040466     Total SCF correction =     0.004792
     SCF correction compared to forces is large: reduce conv_thr to get better values

     entering subroutine stress ...

     negative rho (up, down):  3.734E-01 3.811E-01
          total   stress  (Ry/bohr**3)                   (kbar)     P=  -25.74
  -0.00020893   0.00002027  -0.00000959        -30.73      2.98     -1.41
   0.00002027  -0.00023197  -0.00000558          2.98    -34.12     -0.82
  -0.00000959  -0.00000558  -0.00008405         -1.41     -0.82    -12.36

 !ASE

     Writing output data file calc.save

     General routines

     Parallel routines

   This run was terminated on:  10:38: 8  19Dec2018

   JOB DONE.
Job  /afs/slac/g/suncat/bin/suncat-tsmpirun -x LD_LIBRARY_PATH -wdir /scratch/qe529688_SqciL pw.x -in pw.inp

TID   HOST_NAME   COMMAND_LINE            STATUS            TERMINATION_TIME
00000 suncat0080 pw.x -in pw.inp   Done                     12/19/2018 10:38:08
00001 suncat0080 pw.x -in pw.inp   Done                     12/19/2018 10:38:08
00002 suncat0080 pw.x -in pw.inp   Done                     12/19/2018 10:38:08
00003 suncat0080 pw.x -in pw.inp   Done                     12/19/2018 10:38:08
00004 suncat0080 pw.x -in pw.inp   Done                     12/19/2018 10:38:08
00005 suncat0080 pw.x -in pw.inp   Done                     12/19/2018 10:38:08
00006 suncat0080 pw.x -in pw.inp   Done                     12/19/2018 10:38:08
00007 suncat0080 pw.x -in pw.inp   Done                     12/19/2018 10:38:08
00008 suncat0016 pw.x -in pw.inp   Done                     12/19/2018 10:38:08
00009 suncat0016 pw.x -in pw.inp   Done                     12/19/2018 10:38:08
00010 suncat0016 pw.x -in pw.inp   Done                     12/19/2018 10:38:08
00011 suncat0016 pw.x -in pw.inp   Done                     12/19/2018 10:38:08
00012 suncat0016 pw.x -in pw.inp   Done                     12/19/2018 10:38:08
00013 suncat0016 pw.x -in pw.inp   Done                     12/19/2018 10:38:08
00014 suncat0016 pw.x -in pw.inp   Done                     12/19/2018 10:38:08
00015 suncat0016 pw.x -in pw.inp   Done                     12/19/2018 10:38:08
00016 suncat0015 pw.x -in pw.inp   Done                     12/19/2018 10:38:08
00017 suncat0015 pw.x -in pw.inp   Done                     12/19/2018 10:38:08
00018 suncat0015 pw.x -in pw.inp   Done                     12/19/2018 10:38:08
00019 suncat0015 pw.x -in pw.inp   Done                     12/19/2018 10:38:08
00020 suncat0015 pw.x -in pw.inp   Done                     12/19/2018 10:38:08
00021 suncat0015 pw.x -in pw.inp   Done                     12/19/2018 10:38:08
00022 suncat0015 pw.x -in pw.inp   Done                     12/19/2018 10:38:08
00023 suncat0015 pw.x -in pw.inp   Done                     12/19/2018 10:38:08
00024 suncat0014 pw.x -in pw.inp   Done                     12/19/2018 10:38:08
00025 suncat0014 pw.x -in pw.inp   Done                     12/19/2018 10:38:08
00026 suncat0014 pw.x -in pw.inp   Done                     12/19/2018 10:38:08
00027 suncat0014 pw.x -in pw.inp   Done                     12/19/2018 10:38:08
00028 suncat0014 pw.x -in pw.inp   Done                     12/19/2018 10:38:08
00029 suncat0014 pw.x -in pw.inp   Done                     12/19/2018 10:38:08
00030 suncat0014 pw.x -in pw.inp   Done                     12/19/2018 10:38:08
00031 suncat0014 pw.x -in pw.inp   Done                     12/19/2018 10:38:08