     Program PWSCF v.5.1rc2 (svn rev. 11289) starts on 19Dec2018 at  7:25:14

     Current dimensions of program PWSCF are:
     Max number of different atomic species (ntypx) = 10
     Max number of k-points (npk) =  40000
     Max angular momentum in pseudopotentials (lmaxx) =  3
     Presently stress not available with electric field

     IMPORTANT: XC functional enforced from input :
     Exchange-correlation      = BEEF-VDW ( 1  4 27 13 2)
     Any further DFT definition will be discarded
     Please, verify this is what you really want

     Subspace diagonalization in iterative solution of the eigenvalue problem:
     a serial algorithm will be used

     Found symmetry operation: I + (  0.5000 -0.5000  0.0000)
     This is a supercell, fractional translations are disabled

     Generating pointlists ...
     new r_m :   0.4125 (alat units)  0.7795 (a.u.) for type    1
     new r_m :   0.4125 (alat units)  0.7795 (a.u.) for type    2

     bravais-lattice index     =            0
     lattice parameter (alat)  =       1.8897  a.u.
     unit-cell volume          =    4835.1568 (a.u.)^3
     number of atoms/cell      =           12
     number of atomic types    =            2
     number of electrons       =       174.00
     number of Kohn-Sham states=          117
     kinetic-energy cutoff     =      36.7493  Ry
     charge density cutoff     =     367.4932  Ry
     convergence threshold     =      1.0E-06
     mixing beta               =       0.1000
     number of iterations used =           10  plain     mixing
     Exchange-correlation      = BEEF-VDW ( 1  4 27 13 2)
     nstep                     =           50

     celldm(1)=   1.889726  celldm(2)=   0.000000  celldm(3)=   0.000000
     celldm(4)=   0.000000  celldm(5)=   0.000000  celldm(6)=   0.000000

     crystal axes: (cart. coord. in units of alat)
               a(1) = (   5.751551   0.000000   0.000000 )
               a(2) = (   2.772632   5.039132   0.000000 )
               a(3) = (   0.000000   0.000000  24.721409 )

     reciprocal axes: (cart. coord. in units 2 pi/alat)
               b(1) = (  0.173866 -0.095665  0.000000 )
               b(2) = (  0.000000  0.198447  0.000000 )
               b(3) = (  0.000000  0.000000  0.040451 )

     PseudoPot. # 1 for Fe read from file:
     /afs/slac.stanford.edu/u/if/mamunm/psp/gbrv1.5pbe/Fe.UPF
     MD5 check sum: a130daea23fe5165f5d574ae7f82ed95
     Pseudo is Ultrasoft + core correction, Zval = 16.0
     Generated by new atomic code, or converted to UPF format
     Using radial grid of  861 points,  6 beta functions with:
                l(1) =   0
                l(2) =   0
                l(3) =   1
                l(4) =   1
                l(5) =   2
                l(6) =   2
     Q(r) pseudized with  8 coefficients,  rinner =    1.000   1.000   1.000
                                                       1.000   1.000

     PseudoPot. # 2 for In read from file:
     /afs/slac.stanford.edu/u/if/mamunm/psp/gbrv1.5pbe/In.UPF
     MD5 check sum: 90777abd96fbb83f2e67db2a40c566b9
     Pseudo is Ultrasoft + core correction, Zval = 13.0
     Generated by new atomic code, or converted to UPF format
     Using radial grid of  889 points,  6 beta functions with:
                l(1) =   0
                l(2) =   0
                l(3) =   1
                l(4) =   1
                l(5) =   2
                l(6) =   2
     Q(r) pseudized with  6 coefficients,  rinner =    1.400   1.400   1.400
                                                       1.400   1.400

     vdW kernel table read from file vdW_kernel_table
     MD5 check sum: 095c7af220d748ca6e76c0b4c6cfb241

     atomic species   valence    mass     pseudopotential
        Fe1           16.00    55.84500     Fe( 1.00)
        In1           13.00   114.81800     In( 1.00)

     Starting magnetic structure
     atomic species   magnetization
        Fe1          0.125
        In1          0.154

     No symmetry found

   Cartesian axes

     site n.     atom                  positions (alat units)
         1           Fe1 tau(   1) = (   0.0000000   0.0000000  10.0000000  )
         2           Fe1 tau(   2) = (   4.2620914   2.5195662  10.0000000  )
         3           In1 tau(   3) = (   2.8757756   0.0000000  10.0000000  )
         4           In1 tau(   4) = (   1.3863158   2.5195662  10.0000000  )
         5           Fe1 tau(   5) = (   5.7515512   3.4000711  12.3607043  )
         6           Fe1 tau(   6) = (   1.4894598   0.8805049  12.3607043  )
         7           In1 tau(   7) = (   2.8757756   3.4000711  12.3607043  )
         8           In1 tau(   8) = (   4.3652353   0.8805049  12.3607043  )
         9           Fe1 tau(   9) = (   2.9789195   1.7610098  14.7214086  )
        10           Fe1 tau(  10) = (   7.2410109   4.2805760  14.7214086  )
        11           In1 tau(  11) = (   5.8546951   1.7610098  14.7214086  )
        12           In1 tau(  12) = (   4.3652353   4.2805760  14.7214086  )

     number of k points=    40  Fermi-Dirac smearing, width (Ry)=  0.0110
                       cart. coord. in units 2pi/alat
        k(    1) = (   0.0000000   0.0000000   0.0000000), wk =   0.0277778
        k(    2) = (   0.0000000   0.0330745   0.0000000), wk =   0.0555556
        k(    3) = (   0.0000000   0.0661490   0.0000000), wk =   0.0555556
        k(    4) = (   0.0000000  -0.0992234   0.0000000), wk =   0.0277778
        k(    5) = (   0.0289777  -0.0159441   0.0000000), wk =   0.0555556
        k(    6) = (   0.0289777   0.0171304   0.0000000), wk =   0.0555556
        k(    7) = (   0.0289777   0.0502048   0.0000000), wk =   0.0555556
        k(    8) = (   0.0289777  -0.1151675   0.0000000), wk =   0.0555556
        k(    9) = (   0.0289777  -0.0820931   0.0000000), wk =   0.0555556
        k(   10) = (   0.0289777  -0.0490186   0.0000000), wk =   0.0555556
        k(   11) = (   0.0579554  -0.0318882   0.0000000), wk =   0.0555556
        k(   12) = (   0.0579554   0.0011863   0.0000000), wk =   0.0555556
        k(   13) = (   0.0579554   0.0342607   0.0000000), wk =   0.0555556
        k(   14) = (   0.0579554  -0.1311116   0.0000000), wk =   0.0555556
        k(   15) = (   0.0579554  -0.0980372   0.0000000), wk =   0.0555556
        k(   16) = (   0.0579554  -0.0649627   0.0000000), wk =   0.0555556
        k(   17) = (  -0.0869331   0.0478323   0.0000000), wk =   0.0277778
        k(   18) = (  -0.0869331   0.0809068   0.0000000), wk =   0.0555556
        k(   19) = (  -0.0869331   0.1139813   0.0000000), wk =   0.0555556
        k(   20) = (  -0.0869331  -0.0513911   0.0000000), wk =   0.0277778
        k(   21) = (   0.0000000   0.0000000   0.0000000), wk =   0.0277778
        k(   22) = (   0.0000000   0.0330745   0.0000000), wk =   0.0555556
        k(   23) = (   0.0000000   0.0661490   0.0000000), wk =   0.0555556
        k(   24) = (   0.0000000  -0.0992234   0.0000000), wk =   0.0277778
        k(   25) = (   0.0289777  -0.0159441   0.0000000), wk =   0.0555556
        k(   26) = (   0.0289777   0.0171304   0.0000000), wk =   0.0555556
        k(   27) = (   0.0289777   0.0502048   0.0000000), wk =   0.0555556
        k(   28) = (   0.0289777  -0.1151675   0.0000000), wk =   0.0555556
        k(   29) = (   0.0289777  -0.0820931   0.0000000), wk =   0.0555556
        k(   30) = (   0.0289777  -0.0490186   0.0000000), wk =   0.0555556
        k(   31) = (   0.0579554  -0.0318882   0.0000000), wk =   0.0555556
        k(   32) = (   0.0579554   0.0011863   0.0000000), wk =   0.0555556
        k(   33) = (   0.0579554   0.0342607   0.0000000), wk =   0.0555556
        k(   34) = (   0.0579554  -0.1311116   0.0000000), wk =   0.0555556
        k(   35) = (   0.0579554  -0.0980372   0.0000000), wk =   0.0555556
        k(   36) = (   0.0579554  -0.0649627   0.0000000), wk =   0.0555556
        k(   37) = (  -0.0869331   0.0478323   0.0000000), wk =   0.0277778
        k(   38) = (  -0.0869331   0.0809068   0.0000000), wk =   0.0555556
        k(   39) = (  -0.0869331   0.1139813   0.0000000), wk =   0.0555556
        k(   40) = (  -0.0869331  -0.0513911   0.0000000), wk =   0.0277778

     Largest allocated arrays     est. size (Mb)     dimensions
     Largest temporary arrays     est. size (Mb)     dimensions

     Check: negative/imaginary core charge=   -0.000004    0.000000

     Initial potential from superposition of free atoms
     Check: negative starting charge=(component1):   -0.000129

     starting charge  158.99996, renormalised to  174.00000

     negative rho (up, down):  1.409E-04 1.076E-04

     *
     * You are using vdW-DF for exchange-correlation in this calculation.
     * Please cite the following three references that made this development
     * possible:
     *
     *   M. Dion, H. Rydberg, E. Schroder, D. C. Langreth, and
     *   B. I. Lundqvist, Phys. Rev. Lett. 92, 246401 (2004).
     *
     *   T. Thonhauser, V. R. Cooper, S. Li, A. Puzder, P. Hyldgaard, and
     *   D. C. Langreth, Phys. Rev. B 76, 125112 (2007).
     *
     *   G. Roman-Perez and J. M. Soler, Phys. Rev. Lett. 103, 096102 (2009).
     *
     *
     * If you are using vdW-DF2, please also cite:
     *
     *   K. Lee, E. D. Murray, L. Kong, B. I. Lundqvist, and
     *   D. C. Langreth, Phys. Rev. B 82, 081101(R) (2010).
     *
     *
     * If you are calculating the stress with vdW-DF, please also cite:
     *
     *   R. Sabatini, E. Kucukbenli, B. Kolb, T. Thonhauser, and
     *   S. de Gironcoli, J. Phys.: Condens. Matter 24, 424209 (2012).
     *

     Carrying out vdW-DF run using the following parameters:

     Nqs =      20    Nr_points =    1024   r_max =   100.000
     q_mesh =
               0.00001000     0.04494208     0.09755937     0.15916263
               0.23128650     0.31572767     0.41458969     0.53033537
               0.66584808     0.82450364     1.01025438     1.22772762
               1.48234092     1.78043706     2.12944203     2.53805004
               3.01644009     3.57652955     4.23227104     5.00000000

     Gradients computed in reciprocal space

     Adding external electric field

     Computed dipole along edir(3) :
        Dipole               -0.0000 Ry au,         -0.0000 Debye
        Dipole field         -0.0000 Ry au

        Potential amp.        0.0000 Ry
        Total length         45.5488 bohr

[...]

     Starting wfc are  132 randomized atomic wfcs

     Self-consistent Calculation

     iteration #  1     ecut=    36.75 Ry     beta=0.10
     Davidson diagonalization with overlap
     ethr =  1.00E-02,  avg # of iterations =  8.2

[...]

     Magnetic moment per site:
     atom:    1    charge:    7.3217    magn:    0.8719    constr:    0.0000
     atom:    2    charge:    7.3217    magn:    0.8719    constr:    0.0000
     atom:    3    charge:    3.2632    magn:    0.4651    constr:    0.0000
     atom:    4    charge:    3.2632    magn:    0.4651    constr:    0.0000
     atom:    5    charge:    7.3234    magn:    0.8717    constr:    0.0000
     atom:    6    charge:    7.3235    magn:    0.8717    constr:    0.0000
     atom:    7    charge:    3.2626    magn:    0.4653    constr:    0.0000
[...]
                l(1) =   0
                l(2) =   0
                l(3) =   1
                l(4) =   1
                l(5) =   2
                l(6) =   2
     Q(r) pseudized with  8 coefficients,  rinner =    1.000   1.000   1.000
                                                       1.000   1.000

     PseudoPot. # 2 for In read from file:
     /afs/slac.stanford.edu/u/if/mamunm/psp/gbrv1.5pbe/In.UPF
     MD5 check sum: 90777abd96fbb83f2e67db2a40c566b9
     Pseudo is Ultrasoft + core correction, Zval = 13.0
     Generated by new atomic code, or converted to UPF format
     Using radial grid of  889 points,  6 beta functions with:
                l(1) =   0
                l(2) =   0
                l(3) =   1
                l(4) =   1
                l(5) =   2
                l(6) =   2
     Q(r) pseudized with  6 coefficients,  rinner =    1.400   1.400   1.400
                                                       1.400   1.400

     vdW kernel table read from file vdW_kernel_table
     MD5 check sum: 095c7af220d748ca6e76c0b4c6cfb241

     atomic species   valence    mass     pseudopotential
        Fe1           16.00    55.84500     Fe( 1.00)
        In1           13.00   114.81800     In( 1.00)

     Starting magnetic structure
     atomic species   magnetization
        Fe1          0.125
        In1          0.154

     No symmetry found

   Cartesian axes

     site n.     atom                  positions (alat units)
         1           Fe1 tau(   1) = (   0.0000000   0.0000000  10.0000000  )
         2           Fe1 tau(   2) = (   4.2620914   2.5195662  10.0000000  )
         3           In1 tau(   3) = (   2.8757756   0.0000000  10.0000000  )
         4           In1 tau(   4) = (   1.3863158   2.5195662  10.0000000  )
         5           Fe1 tau(   5) = (   5.7515512   3.4000711  12.3607043  )
         6           Fe1 tau(   6) = (   1.4894598   0.8805049  12.3607043  )
         7           In1 tau(   7) = (   2.8757756   3.4000711  12.3607043  )
         8           In1 tau(   8) = (   4.3652353   0.8805049  12.3607043  )
         9           Fe1 tau(   9) = (   2.6577534   1.5711482  14.4946960  )
        10           Fe1 tau(  10) = (   6.9197953   4.0906889  14.4945951  )
        11           In1 tau(  11) = (   5.6196213   1.6219923  15.0783880  )
        12           In1 tau(  12) = (   4.1301175   4.1416364  15.0783831  )

     number of k points=    40  Fermi-Dirac smearing, width (Ry)=  0.0110
                       cart. coord. in units 2pi/alat
        k(    1) = (   0.0000000   0.0000000   0.0000000), wk =   0.0277778
        k(    2) = (   0.0000000   0.0330745   0.0000000), wk =   0.0555556
        k(    3) = (   0.0000000   0.0661490   0.0000000), wk =   0.0555556
        k(    4) = (   0.0000000  -0.0992234   0.0000000), wk =   0.0277778
        k(    5) = (   0.0289777  -0.0159441   0.0000000), wk =   0.0555556
        k(    6) = (   0.0289777   0.0171304   0.0000000), wk =   0.0555556
        k(    7) = (   0.0289777   0.0502048   0.0000000), wk =   0.0555556
        k(    8) = (   0.0289777  -0.1151675   0.0000000), wk =   0.0555556
        k(    9) = (   0.0289777  -0.0820931   0.0000000), wk =   0.0555556
        k(   10) = (   0.0289777  -0.0490186   0.0000000), wk =   0.0555556
        k(   11) = (   0.0579554  -0.0318882   0.0000000), wk =   0.0555556
        k(   12) = (   0.0579554   0.0011863   0.0000000), wk =   0.0555556
        k(   13) = (   0.0579554   0.0342607   0.0000000), wk =   0.0555556
        k(   14) = (   0.0579554  -0.1311116   0.0000000), wk =   0.0555556
        k(   15) = (   0.0579554  -0.0980372   0.0000000), wk =   0.0555556
        k(   16) = (   0.0579554  -0.0649627   0.0000000), wk =   0.0555556
        k(   17) = (  -0.0869331   0.0478323   0.0000000), wk =   0.0277778
        k(   18) = (  -0.0869331   0.0809068   0.0000000), wk =   0.0555556
        k(   19) = (  -0.0869331   0.1139813   0.0000000), wk =   0.0555556
        k(   20) = (  -0.0869331  -0.0513911   0.0000000), wk =   0.0277778
        k(   21) = (   0.0000000   0.0000000   0.0000000), wk =   0.0277778
        k(   22) = (   0.0000000   0.0330745   0.0000000), wk =   0.0555556
        k(   23) = (   0.0000000   0.0661490   0.0000000), wk =   0.0555556
        k(   24) = (   0.0000000  -0.0992234   0.0000000), wk =   0.0277778
        k(   25) = (   0.0289777  -0.0159441   0.0000000), wk =   0.0555556
        k(   26) = (   0.0289777   0.0171304   0.0000000), wk =   0.0555556
        k(   27) = (   0.0289777   0.0502048   0.0000000), wk =   0.0555556
        k(   28) = (   0.0289777  -0.1151675   0.0000000), wk =   0.0555556
        k(   29) = (   0.0289777  -0.0820931   0.0000000), wk =   0.0555556
        k(   30) = (   0.0289777  -0.0490186   0.0000000), wk =   0.0555556
        k(   31) = (   0.0579554  -0.0318882   0.0000000), wk =   0.0555556
        k(   32) = (   0.0579554   0.0011863   0.0000000), wk =   0.0555556
        k(   33) = (   0.0579554   0.0342607   0.0000000), wk =   0.0555556
        k(   34) = (   0.0579554  -0.1311116   0.0000000), wk =   0.0555556
        k(   35) = (   0.0579554  -0.0980372   0.0000000), wk =   0.0555556
        k(   36) = (   0.0579554  -0.0649627   0.0000000), wk =   0.0555556
        k(   37) = (  -0.0869331   0.0478323   0.0000000), wk =   0.0277778
        k(   38) = (  -0.0869331   0.0809068   0.0000000), wk =   0.0555556
        k(   39) = (  -0.0869331   0.1139813   0.0000000), wk =   0.0555556
        k(   40) = (  -0.0869331  -0.0513911   0.0000000), wk =   0.0277778

     Largest allocated arrays     est. size (Mb)     dimensions
     Largest temporary arrays     est. size (Mb)     dimensions

     Check: negative/imaginary core charge=   -0.000004    0.000000

     Initial potential from superposition of free atoms
     Check: negative starting charge=(component1):   -0.000128

     starting charge  158.99996, renormalised to  174.00000

[...]

     *
     * You are using vdW-DF for exchange-correlation in this calculation.
     * Please cite the following three references that made this development
     * possible:
     *
     *   M. Dion, H. Rydberg, E. Schroder, D. C. Langreth, and
     *   B. I. Lundqvist, Phys. Rev. Lett. 92, 246401 (2004).
     *
     *   T. Thonhauser, V. R. Cooper, S. Li, A. Puzder, P. Hyldgaard, and
     *   D. C. Langreth, Phys. Rev. B 76, 125112 (2007).
     *
     *   G. Roman-Perez and J. M. Soler, Phys. Rev. Lett. 103, 096102 (2009).
     *
     *
     * If you are using vdW-DF2, please also cite:
     *
     *   K. Lee, E. D. Murray, L. Kong, B. I. Lundqvist, and
     *   D. C. Langreth, Phys. Rev. B 82, 081101(R) (2010).
     *
     *
     * If you are calculating the stress with vdW-DF, please also cite:
     *
     *   R. Sabatini, E. Kucukbenli, B. Kolb, T. Thonhauser, and
     *   S. de Gironcoli, J. Phys.: Condens. Matter 24, 424209 (2012).
     *

     Carrying out vdW-DF run using the following parameters:

     Nqs =      20    Nr_points =    1024   r_max =   100.000
     q_mesh =
               0.00001000     0.04494208     0.09755937     0.15916263
               0.23128650     0.31572767     0.41458969     0.53033537
               0.66584808     0.82450364     1.01025438     1.22772762
               1.48234092     1.78043706     2.12944203     2.53805004
               3.01644009     3.57652955     4.23227104     5.00000000

     Gradients computed in reciprocal space

[...]

     Starting wfc are  132 randomized atomic wfcs

     Self-consistent Calculation

[...]

     total energy              =   -2316.44683561 Ry
     Harris-Foulkes estimate   =   -2316.44683205 Ry
     estimated scf accuracy    <       0.00000145 Ry

[...]

     iteration # 32     ecut=    36.75 Ry     beta=0.10
     Davidson diagonalization with overlap
     ethr =  8.35E-10,  avg # of iterations =  2.0

[...]

     negative rho (up, down):  3.974E-04 1.174E-03

[...]

     Adding external electric field

     Computed dipole along edir(3) :
        Dipole                0.0529 Ry au,          0.1346 Debye
        Dipole field          0.0001 Ry au

        Potential amp.       -0.0125 Ry
        Total length         45.5488 bohr

     Magnetic moment per site:
     atom:    1    charge:    7.1036    magn:    1.3039    constr:    0.0000
     atom:    2    charge:    7.1036    magn:    1.3039    constr:    0.0000
     atom:    3    charge:    3.0724    magn:   -0.0038    constr:    0.0000
     atom:    4    charge:    3.0724    magn:   -0.0038    constr:    0.0000
     atom:    5    charge:    7.0960    magn:    1.2628    constr:    0.0000
     atom:    6    charge:    7.0960    magn:    1.2628    constr:    0.0000
     atom:    7    charge:    3.0747    magn:   -0.0033    constr:    0.0000
     atom:    8    charge:    3.0747    magn:   -0.0033    constr:    0.0000
     atom:    9    charge:    7.0983    magn:    1.2919    constr:    0.0000
     atom:   10    charge:    7.0983    magn:    1.2919    constr:    0.0000
     atom:   11    charge:    3.0700    magn:   -0.0036    constr:    0.0000
     atom:   12    charge:    3.0700    magn:   -0.0036    constr:    0.0000

     End of self-consistent calculation

 ------ SPIN UP ------------

[...]

 ------ SPIN DOWN ----------

[...]

          k = 0.0580-0.0650 0.0000 ( 18186 PWs)   bands (ev):

[...]

          k =-0.0869-0.0514 0.0000 ( 18124 PWs)   bands (ev):

   -84.5501 -84.5465 -84.5322 -84.5286 -84.4695 -84.4659 -50.7125 -50.7078
   -50.6969 -50.6926 -50.6730 -50.6617 -50.6568 -50.6360 -50.6316 -50.6285
   -50.6242 -50.6240 -50.6229 -50.5741 -50.5702 -50.5254 -50.5216 -50.5214
   -14.4499 -14.2353 -14.2244 -14.2082 -14.1452 -14.0761 -14.0218 -14.0111
   -13.9700 -13.9617 -13.9292 -13.9053 -13.8841 -13.8322 -13.7646 -13.7592
   -13.7530 -13.7233 -13.7082 -13.7028 -13.6658 -13.6638 -13.6551 -13.6162
   -13.5910 -13.5584 -13.5508 -13.5465 -13.4059 -13.3530  -7.4261  -6.5394
    -5.2518  -4.2517  -4.0555  -3.5467  -2.6752  -2.5695  -2.0441  -1.9122
    -1.2181  -0.9978  -0.6951  -0.5976  -0.4162  -0.2319  -0.1240  -0.1076
     0.0356   0.1115   0.1936   0.3373   0.6181   0.9001   1.1574   1.3392
     1.3451   1.3523   1.4468   1.6074   1.6204   1.6325   1.6914   1.7084
     1.7752   1.8580   2.0651   2.0960   2.1824   2.2897   2.4645   2.5001
     2.8121   2.8669   4.1860   4.4560   4.5667   5.0299   5.0403   5.1740
     5.5145   5.5785   5.8164   5.9272   5.9486   6.2966   6.3741   6.3812
     6.4233   6.8088   7.0203   7.2817   7.3718

     the Fermi energy is     0.9265 ev

!    total energy              =   -2316.44684750 Ry
     Harris-Foulkes estimate   =   -2316.44683546 Ry
     estimated scf accuracy    <       0.00000065 Ry

     The total energy is the sum of the following terms:

     one-electron contribution =  -15998.64469627 Ry
     hartree contribution      =    8039.48893316 Ry
     xc contribution           =    -416.86772617 Ry
     ewald contribution        =    6059.64284267 Ry
     electric field correction =       0.00000728 Ry
     smearing contrib. (-TS)   =      -0.06620818 Ry

     total magnetization       =    15.83 Bohr mag/cell
     absolute magnetization    =    18.09 Bohr mag/cell

     convergence has been achieved in  32 iterations

 BEEF-vdW xc energy contributions
           1 :   -365.135124645503
           2 :    332.312231851936
           3 :   -277.218917539853
           4 :    215.792914184168
           5 :   -162.284392749877
           6 :    124.028640459649
           7 :   -100.366691479957
           8 :    85.4378562840423
           9 :   -72.6714096015072
          10 :    58.3255967983800
          11 :   -42.5112017906117
          12 :    27.7957964471539
          13 :   -16.8089416534436
          14 :    10.4592654928475
          15 :   -7.64396627532568
          16 :    6.22327385114619
          17 :   -4.38031823987149
          18 :    1.48085547121570
          19 :    1.91896246646809
          20 :   -4.72526028599958
          21 :    6.10408284348978
          22 :   -5.97072933034735
          23 :    4.96203744380068
          24 :   -4.00593205300345
          25 :    3.77768018295683
          26 :   -4.36492436074525
          27 :    5.29964901604120
          28 :   -5.91202509562049
          29 :    5.76668638896706
          30 :   -4.91975012487472
          31 :   -32.6384955851228
          32 :   -23.4568918624533

     Forces acting on atoms (Ry/au):

     negative rho (up, down):  3.974E-04 1.174E-03
     atom    1 type  1   force =     0.01156266    0.00683522    0.02088040
     atom    2 type  1   force =     0.01156672    0.00683776    0.02089310
     atom    3 type  2   force =    -0.01107755   -0.00655148   -0.03865722
     atom    4 type  2   force =    -0.01108019   -0.00654709   -0.03865735
     atom    5 type  1   force =    -0.01058098   -0.00625517    0.01083158
     atom    6 type  1   force =    -0.01059591   -0.00626385    0.01082762
     atom    7 type  2   force =     0.01017385    0.00601992    0.00832636
     atom    8 type  2   force =     0.01017881    0.00601182    0.00832650
     atom    9 type  1   force =    -0.00046827   -0.00027673   -0.00097114
     atom   10 type  1   force =    -0.00047678   -0.00028196   -0.00096693
     atom   11 type  2   force =     0.00038618    0.00025759   -0.00041655
     atom   12 type  2   force =     0.00041147    0.00021396   -0.00041638

     Total force =     0.074243     Total SCF correction =     0.002368

     entering subroutine stress ...

     negative rho (up, down):  3.974E-04 1.174E-03
          total   stress  (Ry/bohr**3)                   (kbar)     P=  -10.07
  -0.00012119  -0.00001314  -0.00000106        -17.83     -1.93     -0.16
  -0.00001314  -0.00010673  -0.00000063         -1.93    -15.70     -0.09
  -0.00000106  -0.00000063   0.00002250         -0.16     -0.09      3.31

 !ASE

     Writing output data file calc.save

     General routines

     Parallel routines

   This run was terminated on:  17:33:55  19Dec2018

   JOB DONE.
Job  /afs/slac/g/suncat/bin/suncat-tsmpirun -x LD_LIBRARY_PATH -wdir /scratch/qe529923_yz6t8 pw.x -in pw.inp

TID   HOST_NAME   COMMAND_LINE            STATUS            TERMINATION_TIME
00000 suncat1032 pw.x -in pw.inp   Done                     12/19/2018 17:33:55
00001 suncat1032 pw.x -in pw.inp   Done                     12/19/2018 17:33:55
00002 suncat1032 pw.x -in pw.inp   Done                     12/19/2018 17:33:55
00003 suncat1032 pw.x -in pw.inp   Done                     12/19/2018 17:33:55
00004 suncat1032 pw.x -in pw.inp   Done                     12/19/2018 17:33:55
00005 suncat1032 pw.x -in pw.inp   Done                     12/19/2018 17:33:55
00006 suncat1032 pw.x -in pw.inp   Done                     12/19/2018 17:33:55
00007 suncat1032 pw.x -in pw.inp   Done                     12/19/2018 17:33:55
00008 suncat1030 pw.x -in pw.inp   Done                     12/19/2018 17:33:55
00009 suncat1030 pw.x -in pw.inp   Done                     12/19/2018 17:33:55
00010 suncat1030 pw.x -in pw.inp   Done                     12/19/2018 17:33:55
00011 suncat1030 pw.x -in pw.inp   Done                     12/19/2018 17:33:55
00012 suncat1030 pw.x -in pw.inp   Done                     12/19/2018 17:33:55
00013 suncat1030 pw.x -in pw.inp   Done                     12/19/2018 17:33:55
00014 suncat1030 pw.x -in pw.inp   Done                     12/19/2018 17:33:55
00015 suncat1030 pw.x -in pw.inp   Done                     12/19/2018 17:33:55
00016 suncat1030 pw.x -in pw.inp   Done                     12/19/2018 17:33:55
00017 suncat1030 pw.x -in pw.inp   Done                     12/19/2018 17:33:55
00018 suncat1030 pw.x -in pw.inp   Done                     12/19/2018 17:33:55
00019 suncat1030 pw.x -in pw.inp   Done                     12/19/2018 17:33:55
00020 suncat1025 pw.x -in pw.inp   Done                     12/19/2018 17:33:55
00021 suncat1025 pw.x -in pw.inp   Done                     12/19/2018 17:33:55
00022 suncat1025 pw.x -in pw.inp   Done                     12/19/2018 17:33:55
00023 suncat1025 pw.x -in pw.inp   Done                     12/19/2018 17:33:55
00024 suncat1025 pw.x -in pw.inp   Done                     12/19/2018 17:33:55
00025 suncat1025 pw.x -in pw.inp   Done                     12/19/2018 17:33:55
00026 suncat1025 pw.x -in pw.inp   Done                     12/19/2018 17:33:55
00027 suncat1025 pw.x -in pw.inp   Done                     12/19/2018 17:33:55
00028 suncat1025 pw.x -in pw.inp   Done                     12/19/2018 17:33:55
00029 suncat1025 pw.x -in pw.inp   Done                     12/19/2018 17:33:55
00030 suncat1025 pw.x -in pw.inp   Done                     12/19/2018 17:33:55
00031 suncat1025 pw.x -in pw.inp   Done                     12/19/2018 17:33:55