     Program PWSCF v.5.1rc2 (svn rev. 11289) starts on 19Dec2018 at  5:44:51

     Current dimensions of program PWSCF are:
     Max number of different atomic species (ntypx) = 10
     Max number of k-points (npk) =  40000
     Max angular momentum in pseudopotentials (lmaxx) =  3
     Presently stress not available with electric field

     IMPORTANT: XC functional enforced from input :
     Exchange-correlation      = BEEF-VDW ( 1  4 27 13 2)
     Any further DFT definition will be discarded
     Please, verify this is what you really want

     Subspace diagonalization in iterative solution of the eigenvalue problem:
     a serial algorithm will be used

     Found symmetry operation: I + ( -0.5000  0.0000  0.0000)
     This is a supercell, fractional translations are disabled

     Generating pointlists ...
     new r_m :   0.4125 (alat units)  0.7795 (a.u.) for type    1
     new r_m :   0.4125 (alat units)  0.7795 (a.u.) for type    2

     bravais-lattice index     =            0
     lattice parameter (alat)  =       1.8897  a.u.
     unit-cell volume          =    3525.6435 (a.u.)^3
     number of atoms/cell      =           12
     number of atomic types    =            2
     number of electrons       =       210.00
     number of Kohn-Sham states=          135
     kinetic-energy cutoff     =      36.7493  Ry
     charge density cutoff     =     367.4932  Ry
     convergence threshold     =      1.0E-06
     mixing beta               =       0.1000
     number of iterations used =           10  plain     mixing
     Exchange-correlation      = BEEF-VDW ( 1  4 27 13 2)
     nstep                     =           50

     celldm(1)=   1.889726  celldm(2)=   0.000000  celldm(3)=   0.000000
     celldm(4)=   0.000000  celldm(5)=   0.000000  celldm(6)=   0.000000

     crystal axes: (cart. coord. in units of alat)
               a(1) = (   4.948100   0.000000   0.000000 )
               a(2) = (  -2.474050   4.383891   0.000000 )
               a(3) = (   0.000000   0.000000  24.084832 )

     reciprocal axes: (cart. coord. in units 2 pi/alat)
               b(1) = (  0.202098  0.114054  0.000000 )
               b(2) = (  0.000000  0.228108  0.000000 )
               b(3) = (  0.000000  0.000000  0.041520 )

     PseudoPot. # 1 for Co read from file:
     /afs/slac.stanford.edu/u/if/mamunm/psp/gbrv1.5pbe/Co.UPF
     MD5 check sum: 5f91765df6ddd3222702df6e7b74a16d
     Pseudo is Ultrasoft + core correction, Zval = 17.0
     Generated by new atomic code, or converted to UPF format
     Using radial grid of  863 points,  6 beta functions with:
                l(1) =   0
                l(2) =   0
                l(3) =   1
                l(4) =   1
                l(5) =   2
                l(6) =   2
     Q(r) pseudized with  8 coefficients,  rinner =    1.200   1.200   1.200
                                                       1.200   1.200

     PseudoPot. # 2 for Ni read from file:
     /afs/slac.stanford.edu/u/if/mamunm/psp/gbrv1.5pbe/Ni.UPF
     MD5 check sum: 1ee80287db30b12d2bc1f57a5b5d6409
     Pseudo is Ultrasoft + core correction, Zval = 18.0
     Generated by new atomic code, or converted to UPF format
     Using radial grid of  865 points,  6 beta functions with:
                l(1) =   0
                l(2) =   0
                l(3) =   1
                l(4) =   1
                l(5) =   2
                l(6) =   2
     Q(r) pseudized with 10 coefficients,  rinner =    0.980   0.980   0.980
                                                       0.980   0.980

     vdW kernel table read from file vdW_kernel_table
     MD5 check sum: 095c7af220d748ca6e76c0b4c6cfb241

     atomic species   valence    mass     pseudopotential
        Co1           17.00    58.93319     Co( 1.00)
        Ni1           18.00    58.69340     Ni( 1.00)

     Starting magnetic structure
     atomic species   magnetization
        Co1          0.118
        Ni1          0.111

     No symmetry found

   Cartesian axes

     site n.     atom                  positions (alat units)
         1           Co1 tau(   1) = (   0.0000000   0.0000000  10.0000000  )
         2           Co1 tau(   2) = (   2.4740500   0.0000000  10.0000000  )
         3           Ni1 tau(   3) = (   1.2370250   2.1919453  10.0000000  )
         4           Ni1 tau(   4) = (  -1.2370250   2.1919453  10.0000000  )
         5           Co1 tau(   5) = (   2.4740500   1.3962309  12.0424159  )
         6           Co1 tau(   6) = (  -0.0000000   1.3962309  12.0424159  )
         7           Ni1 tau(   7) = (  -1.2370250   3.5881762  12.0424159  )
         8           Ni1 tau(   8) = (   1.2370250   3.5881762  12.0424159  )
         9           Co1 tau(   9) = (   0.0000000   2.7924618  14.0848318  )
        10           Co1 tau(  10) = (   2.4740500   2.7924618  14.0848318  )
        11           Ni1 tau(  11) = (   3.7110750   0.6005165  14.0848318  )
        12           Ni1 tau(  12) = (   1.2370250   0.6005165  14.0848318  )

     number of k points=    40  Fermi-Dirac smearing, width (Ry)=  0.0110
                       cart. coord. in units 2pi/alat
        k(    1) = (   0.0000000   0.0000000   0.0000000), wk =   0.0277778
        k(    2) = (   0.0000000   0.0380180   0.0000000), wk =   0.0555556
        k(    3) = (   0.0000000   0.0760360   0.0000000), wk =   0.0555556
        k(    4) = (   0.0000000  -0.1140539   0.0000000), wk =   0.0277778
        k(    5) = (   0.0336830   0.0190090   0.0000000), wk =   0.0555556
        k(    6) = (   0.0336830   0.0570270   0.0000000), wk =   0.0555556
        k(    7) = (   0.0336830   0.0950450   0.0000000), wk =   0.0555556
        k(    8) = (   0.0336830  -0.0950450   0.0000000), wk =   0.0555556
        k(    9) = (   0.0336830  -0.0570270   0.0000000), wk =   0.0555556
        k(   10) = (   0.0336830  -0.0190090   0.0000000), wk =   0.0555556
        k(   11) = (   0.0673659   0.0380180   0.0000000), wk =   0.0555556
        k(   12) = (   0.0673659   0.0760360   0.0000000), wk =   0.0555556
        k(   13) = (   0.0673659   0.1140539   0.0000000), wk =   0.0555556
        k(   14) = (   0.0673659  -0.0760360   0.0000000), wk =   0.0555556
        k(   15) = (   0.0673659  -0.0380180   0.0000000), wk =   0.0555556
        k(   16) = (   0.0673659   0.0000000   0.0000000), wk =   0.0555556
        k(   17) = (  -0.1010489  -0.0570270   0.0000000), wk =   0.0277778
        k(   18) = (  -0.1010489  -0.0190090   0.0000000), wk =   0.0555556
        k(   19) = (  -0.1010489   0.0190090   0.0000000), wk =   0.0555556
        k(   20) = (  -0.1010489  -0.1710809   0.0000000), wk =   0.0277778
        k(   21) = (   0.0000000   0.0000000   0.0000000), wk =   0.0277778
        k(   22) = (   0.0000000   0.0380180   0.0000000), wk =   0.0555556
        k(   23) = (   0.0000000   0.0760360   0.0000000), wk =   0.0555556
        k(   24) = (   0.0000000  -0.1140539   0.0000000), wk =   0.0277778
        k(   25) = (   0.0336830   0.0190090   0.0000000), wk =   0.0555556
        k(   26) = (   0.0336830   0.0570270   0.0000000), wk =   0.0555556
        k(   27) = (   0.0336830   0.0950450   0.0000000), wk =   0.0555556
        k(   28) = (   0.0336830  -0.0950450   0.0000000), wk =   0.0555556
        k(   29) = (   0.0336830  -0.0570270   0.0000000), wk =   0.0555556
        k(   30) = (   0.0336830  -0.0190090   0.0000000), wk =   0.0555556
        k(   31) = (   0.0673659   0.0380180   0.0000000), wk =   0.0555556
        k(   32) = (   0.0673659   0.0760360   0.0000000), wk =   0.0555556
        k(   33) = (   0.0673659   0.1140539   0.0000000), wk =   0.0555556
        k(   34) = (   0.0673659  -0.0760360   0.0000000), wk =   0.0555556
        k(   35) = (   0.0673659  -0.0380180   0.0000000), wk =   0.0555556
        k(   36) = (   0.0673659   0.0000000   0.0000000), wk =   0.0555556
        k(   37) = (  -0.1010489  -0.0570270   0.0000000), wk =   0.0277778
        k(   38) = (  -0.1010489  -0.0190090   0.0000000), wk =   0.0555556
        k(   39) = (  -0.1010489   0.0190090   0.0000000), wk =   0.0555556
        k(   40) = (  -0.1010489  -0.1710809   0.0000000), wk =   0.0277778

     Largest allocated arrays     est. size (Mb)     dimensions
     Largest temporary arrays     est. size (Mb)     dimensions

     Check: negative/imaginary core charge=   -0.000005    0.000000

     Initial potential from superposition of free atoms
     Check: negative starting charge=(component1):   -0.000342
     Check: negative starting charge=(component2):   -0.000273

     starting charge  191.99996, renormalised to  210.00000

     negative rho (up, down):  3.737E-04 2.984E-04

     *
     * You are using vdW-DF for exchange-correlation in this calculation.
     * Please cite the following three references that made this development
     * possible:
     *
     *   M. Dion, H. Rydberg, E. Schroder, D. C. Langreth, and
     *   B. I. Lundqvist, Phys. Rev. Lett. 92, 246401 (2004).
     *
     *   T. Thonhauser, V. R. Cooper, S. Li, A. Puzder, P. Hyldgaard, and
     *   D. C. Langreth, Phys. Rev. B 76, 125112 (2007).
     *
     *   G. Roman-Perez and J. M. Soler, Phys. Rev. Lett. 103, 096102 (2009).
     *
     *
     * If you are using vdW-DF2, please also cite:
     *
     *   K. Lee, E. D. Murray, L. Kong, B. I. Lundqvist, and
     *   D. C. Langreth, Phys. Rev. B 82, 081101(R) (2010).
     *
     *
     * If you are calculating the stress with vdW-DF, please also cite:
     *
     *   R. Sabatini, E. Kucukbenli, B. Kolb, T. Thonhauser, and
     *   S. de Gironcoli, J. Phys.: Condens. Matter 24, 424209 (2012).
     *

     Carrying out vdW-DF run using the following parameters:

     Nqs =      20    Nr_points =    1024   r_max =   100.000
     q_mesh =
               0.00001000     0.04494208     0.09755937     0.15916263
               0.23128650     0.31572767     0.41458969     0.53033537
               0.66584808     0.82450364     1.01025438     1.22772762
               1.48234092     1.78043706     2.12944203     2.53805004
               3.01644009     3.57652955     4.23227104     5.00000000

     Gradients computed in reciprocal space

     Adding external electric field

     Computed dipole along edir(3) :
        Dipole               -0.0000 Ry au,         -0.0000 Debye
        Dipole field         -0.0000 Ry au

        Potential amp.        0.0000 Ry
        Total length         44.3759 bohr

[...]

     Starting wfc are  156 randomized atomic wfcs

     Self-consistent Calculation

     iteration #  1     ecut=    36.75 Ry     beta=0.10
     Davidson diagonalization with overlap
     ethr =  1.00E-02,  avg # of iterations =  7.1

[...]

     Magnetic moment per site:
     atom:    1    charge:    8.6378    magn:    0.9665    constr:    0.0000
     atom:    2    charge:    8.6378    magn:    0.9665    constr:    0.0000
     atom:    3    charge:    9.7477    magn:    1.0335    constr:    0.0000
     atom:    4    charge:    9.7477    magn:    1.0335    constr:    0.0000
     atom:    5    charge:    8.6439    magn:    0.9663    constr:    0.0000
     atom:    6    charge:    8.6439    magn:    0.9663    constr:    0.0000
[...]
     Generated by new atomic code, or converted to UPF format
     Using radial grid of  865 points,  6 beta functions with:
                l(1) =   0
                l(2) =   0
                l(3) =   1
                l(4) =   1
                l(5) =   2
                l(6) =   2
     Q(r) pseudized with 10 coefficients,  rinner =    0.980   0.980   0.980
                                                       0.980   0.980

     vdW kernel table read from file vdW_kernel_table
     MD5 check sum: 095c7af220d748ca6e76c0b4c6cfb241

     atomic species   valence    mass     pseudopotential
        Co1           17.00    58.93319     Co( 1.00)
        Ni1           18.00    58.69340     Ni( 1.00)

     Starting magnetic structure
     atomic species   magnetization
        Co1          0.118
        Ni1          0.111

     No symmetry found

   Cartesian axes

     site n.     atom                  positions (alat units)
         1           Co1 tau(   1) = (   0.0000000   0.0000000  10.0000000  )
         2           Co1 tau(   2) = (   2.4740500   0.0000000  10.0000000  )
         3           Ni1 tau(   3) = (   1.2370250   2.1919453  10.0000000  )
         4           Ni1 tau(   4) = (  -1.2370250   2.1919453  10.0000000  )
         5           Co1 tau(   5) = (   2.4740500   1.3962309  12.0424159  )
         6           Co1 tau(   6) = (  -0.0000000   1.3962309  12.0424159  )
         7           Ni1 tau(   7) = (  -1.2370250   3.5881762  12.0424159  )
         8           Ni1 tau(   8) = (   1.2370250   3.5881762  12.0424159  )
         9           Co1 tau(   9) = (   0.0000007   2.8068774  14.0451847  )
        10           Co1 tau(  10) = (   2.4740503   2.8067364  14.0447613  )
        11           Ni1 tau(  11) = (   3.7109223   0.6295614  14.0543129  )
        12           Ni1 tau(  12) = (   1.2371697   0.6295473  14.0543358  )

     number of k points=    40  Fermi-Dirac smearing, width (Ry)=  0.0110
                       cart. coord. in units 2pi/alat
        k(    1) = (   0.0000000   0.0000000   0.0000000), wk =   0.0277778
        k(    2) = (   0.0000000   0.0380180   0.0000000), wk =   0.0555556
        k(    3) = (   0.0000000   0.0760360   0.0000000), wk =   0.0555556
        k(    4) = (   0.0000000  -0.1140539   0.0000000), wk =   0.0277778
        k(    5) = (   0.0336830   0.0190090   0.0000000), wk =   0.0555556
        k(    6) = (   0.0336830   0.0570270   0.0000000), wk =   0.0555556
        k(    7) = (   0.0336830   0.0950450   0.0000000), wk =   0.0555556
        k(    8) = (   0.0336830  -0.0950450   0.0000000), wk =   0.0555556
        k(    9) = (   0.0336830  -0.0570270   0.0000000), wk =   0.0555556
        k(   10) = (   0.0336830  -0.0190090   0.0000000), wk =   0.0555556
        k(   11) = (   0.0673659   0.0380180   0.0000000), wk =   0.0555556
        k(   12) = (   0.0673659   0.0760360   0.0000000), wk =   0.0555556
        k(   13) = (   0.0673659   0.1140539   0.0000000), wk =   0.0555556
        k(   14) = (   0.0673659  -0.0760360   0.0000000), wk =   0.0555556
        k(   15) = (   0.0673659  -0.0380180   0.0000000), wk =   0.0555556
        k(   16) = (   0.0673659   0.0000000   0.0000000), wk =   0.0555556
        k(   17) = (  -0.1010489  -0.0570270   0.0000000), wk =   0.0277778
        k(   18) = (  -0.1010489  -0.0190090   0.0000000), wk =   0.0555556
        k(   19) = (  -0.1010489   0.0190090   0.0000000), wk =   0.0555556
        k(   20) = (  -0.1010489  -0.1710809   0.0000000), wk =   0.0277778
        k(   21) = (   0.0000000   0.0000000   0.0000000), wk =   0.0277778
        k(   22) = (   0.0000000   0.0380180   0.0000000), wk =   0.0555556
        k(   23) = (   0.0000000   0.0760360   0.0000000), wk =   0.0555556
        k(   24) = (   0.0000000  -0.1140539   0.0000000), wk =   0.0277778
        k(   25) = (   0.0336830   0.0190090   0.0000000), wk =   0.0555556
        k(   26) = (   0.0336830   0.0570270   0.0000000), wk =   0.0555556
        k(   27) = (   0.0336830   0.0950450   0.0000000), wk =   0.0555556
        k(   28) = (   0.0336830  -0.0950450   0.0000000), wk =   0.0555556
        k(   29) = (   0.0336830  -0.0570270   0.0000000), wk =   0.0555556
        k(   30) = (   0.0336830  -0.0190090   0.0000000), wk =   0.0555556
        k(   31) = (   0.0673659   0.0380180   0.0000000), wk =   0.0555556
        k(   32) = (   0.0673659   0.0760360   0.0000000), wk =   0.0555556
        k(   33) = (   0.0673659   0.1140539   0.0000000), wk =   0.0555556
        k(   34) = (   0.0673659  -0.0760360   0.0000000), wk =   0.0555556
        k(   35) = (   0.0673659  -0.0380180   0.0000000), wk =   0.0555556
        k(   36) = (   0.0673659   0.0000000   0.0000000), wk =   0.0555556
        k(   37) = (  -0.1010489  -0.0570270   0.0000000), wk =   0.0277778
        k(   38) = (  -0.1010489  -0.0190090   0.0000000), wk =   0.0555556
        k(   39) = (  -0.1010489   0.0190090   0.0000000), wk =   0.0555556
        k(   40) = (  -0.1010489  -0.1710809   0.0000000), wk =   0.0277778

     Largest allocated arrays     est. size (Mb)     dimensions
     Largest temporary arrays     est. size (Mb)     dimensions

     Check: negative/imaginary core charge=   -0.000005    0.000000

     Initial potential from superposition of free atoms
     Check: negative starting charge=(component1):   -0.000341
     Check: negative starting charge=(component2):   -0.000272

     starting charge  191.99996, renormalised to  210.00000

[...]

     *
     * You are using vdW-DF for exchange-correlation in this calculation.
     * Please cite the following three references that made this development
     * possible:
     *
     *   M. Dion, H. Rydberg, E. Schroder, D. C. Langreth, and
     *   B. I. Lundqvist, Phys. Rev. Lett. 92, 246401 (2004).
     *
     *   T. Thonhauser, V. R. Cooper, S. Li, A. Puzder, P. Hyldgaard, and
     *   D. C. Langreth, Phys. Rev. B 76, 125112 (2007).
     *
     *   G. Roman-Perez and J. M. Soler, Phys. Rev. Lett. 103, 096102 (2009).
     *
     *
     * If you are using vdW-DF2, please also cite:
     *
     *   K. Lee, E. D. Murray, L. Kong, B. I. Lundqvist, and
     *   D. C. Langreth, Phys. Rev. B 82, 081101(R) (2010).
     *
     *
     * If you are calculating the stress with vdW-DF, please also cite:
     *
     *   R. Sabatini, E. Kucukbenli, B. Kolb, T. Thonhauser, and
     *   S. de Gironcoli, J. Phys.: Condens. Matter 24, 424209 (2012).
     *

     Carrying out vdW-DF run using the following parameters:

     Nqs =      20    Nr_points =    1024   r_max =   100.000
     q_mesh =
               0.00001000     0.04494208     0.09755937     0.15916263
               0.23128650     0.31572767     0.41458969     0.53033537
               0.66584808     0.82450364     1.01025438     1.22772762
               1.48234092     1.78043706     2.12944203     2.53805004
               3.01644009     3.57652955     4.23227104     5.00000000

     Gradients computed in reciprocal space

[...]

     Starting wfc are  156 randomized atomic wfcs

     Self-consistent Calculation

[...]

     iteration # 31     ecut=    36.75 Ry     beta=0.10
     Davidson diagonalization with overlap
     c_bands:  1 eigenvalues not converged
     ethr =  1.11E-06,  avg # of iterations =  2.7

[...]

     total energy              =   -3863.65120172 Ry
     Harris-Foulkes estimate   =   -3863.65120174 Ry
     estimated scf accuracy    <       0.00000148 Ry

[...]

     iteration # 47     ecut=    36.75 Ry     beta=0.10
     Davidson diagonalization with overlap
     ethr =  7.04E-10,  avg # of iterations =  1.0

[...]

     negative rho (up, down):  8.403E-04 6.034E-04

[...]

     Adding external electric field

     Computed dipole along edir(3) :
        Dipole                0.0028 Ry au,          0.0072 Debye
        Dipole field          0.0000 Ry au

        Potential amp.       -0.0009 Ry
        Total length         44.3759 bohr

     Magnetic moment per site:
     atom:    1    charge:    8.2919    magn:    1.0222    constr:    0.0000
     atom:    2    charge:    8.2919    magn:    1.0222    constr:    0.0000
     atom:    3    charge:    9.3500    magn:    0.4573    constr:    0.0000
     atom:    4    charge:    9.3500    magn:    0.4574    constr:    0.0000
     atom:    5    charge:    8.2907    magn:    1.0390    constr:    0.0000
     atom:    6    charge:    8.2907    magn:    1.0390    constr:    0.0000
     atom:    7    charge:    9.3500    magn:    0.4921    constr:    0.0000
     atom:    8    charge:    9.3499    magn:    0.4922    constr:    0.0000
     atom:    9    charge:    8.2871    magn:    1.0204    constr:    0.0000
     atom:   10    charge:    8.2873    magn:    1.0203    constr:    0.0000
     atom:   11    charge:    9.3468    magn:    0.4599    constr:    0.0000
     atom:   12    charge:    9.3467    magn:    0.4600    constr:    0.0000

     End of self-consistent calculation

 ------ SPIN UP ------------

[...]

 ------ SPIN DOWN ----------

[...]

          k = 0.0674 0.0000 0.0000 ( 13231 PWs)   bands (ev):

[...]

          k =-0.1010-0.1711 0.0000 ( 13324 PWs)   bands (ev):

  -102.3098-102.3096-102.0430-102.0427-102.0243-102.0242 -93.4195 -93.4194
   -93.2011 -93.2007 -93.1874 -93.1873 -62.7201 -62.7199 -62.7078 -62.7076
   -62.6998 -62.6996 -62.4801 -62.4798 -62.4696 -62.4693 -62.4655 -62.4655
   -62.4507 -62.4506 -62.3719 -62.3716 -62.3476 -62.3476 -56.7971 -56.7969
   -56.7707 -56.7706 -56.7639 -56.7638 -56.5646 -56.5642 -56.5620 -56.5617
   -56.5523 -56.5523 -56.5487 -56.5486 -56.5313 -56.5310 -56.5082 -56.5082
    -5.5988  -5.5986  -3.8138  -3.8137  -3.0707  -3.0707  -2.6116  -2.6114
    -2.5293  -2.5290  -2.0649  -2.0647  -1.9076  -1.9074  -1.6872  -1.6870
    -1.4749  -1.4748  -1.4029  -1.4029  -1.3606  -1.3604  -1.0079  -1.0076
    -0.9556  -0.9556  -0.9097  -0.9096  -0.7529  -0.7528  -0.6400  -0.6398
    -0.5164  -0.5163  -0.4427  -0.4424  -0.3983  -0.3982  -0.2674  -0.2669
     0.0220   0.0222   0.1780   0.1781   0.4055   0.4057   0.4852   0.4854
     0.5446   0.5447   0.6371   0.6374   0.7655   0.7655   0.8000   0.8001
     1.0569   1.0571   1.1477   1.1477   1.3584   1.3585   1.4406   1.4406
     2.5746   2.5748   2.7831   2.7831   3.5720   3.5720   4.6433   4.6436
     5.7063   5.7065   6.7999   6.7999   7.3018   7.3018   7.5411   7.5412
     8.5184   8.5185   8.5708   8.5708   9.1028   9.1029   9.4876

     the Fermi energy is     0.7031 ev

!    total energy              =   -3863.65120160 Ry
     Harris-Foulkes estimate   =   -3863.65120179 Ry
     estimated scf accuracy    <       0.00000089 Ry

     The total energy is the sum of the following terms:

     one-electron contribution =  -33330.59803764 Ry
     hartree contribution      =   16672.57861035 Ry
     xc contribution           =    -423.26826585 Ry
     ewald contribution        =   13217.72125005 Ry
     electric field correction =       0.00000003 Ry
     smearing contrib. (-TS)   =      -0.08475853 Ry

     total magnetization       =    15.00 Bohr mag/cell
     absolute magnetization    =    17.14 Bohr mag/cell

     convergence has been achieved in  47 iterations

 BEEF-vdW xc energy contributions
           1 :   -372.921056443795
           2 :    338.067560903325
           3 :   -279.134644966521
           4 :    212.643386605718
           5 :   -153.782053440483
           6 :    110.883281720090
           7 :   -83.9322613215209
           8 :    67.1584673430249
           9 :   -53.6942123563260
          10 :    39.4978138671767
          11 :   -24.6581247732763
          12 :    11.9548312616496
          13 :   -4.13841845662239
          14 :    1.82304519833372
          15 :   -3.17576524564379
          16 :    5.25099159993897
          17 :   -5.84693884549358
          18 :    4.60419463250332
          19 :   -2.76868701021874
          20 :    1.96589423212663
          21 :   -2.93787913936450
          22 :    5.07128479947971
          23 :   -6.93025475579873
          24 :    7.30207946528412
          25 :   -5.99778624468178
          26 :    3.88804035552971
          27 :   -2.23468638792525
          28 :    1.82759127837744
          29 :   -2.52480807146839
          30 :    3.45605274205980
          31 :   -31.1621158302838
          32 :   -21.6927126551062

     Forces acting on atoms (Ry/au):

     negative rho (up, down):  8.403E-04 6.034E-04
     atom    1 type  1   force =    -0.00002157    0.00252101    0.00718351
     atom    2 type  1   force =     0.00002194    0.00247875    0.00745469
     atom    3 type  2   force =    -0.00000733   -0.00510310    0.00453793
     atom    4 type  2   force =     0.00000599   -0.00513217    0.00450597
     atom    5 type  1   force =    -0.00003187    0.00067944   -0.00733657
     atom    6 type  1   force =     0.00003235    0.00075264   -0.00718191
     atom    7 type  2   force =     0.00007616    0.00092832   -0.00569237
     atom    8 type  2   force =    -0.00007698    0.00087390   -0.00571805
     atom    9 type  1   force =     0.00002226   -0.00020695   -0.00005258
     atom   10 type  1   force =    -0.00002171   -0.00015152    0.00009199
     atom   11 type  2   force =     0.00007478    0.00116534    0.00109492
     atom   12 type  2   force =    -0.00007403    0.00119435    0.00111247

     Total force =     0.019785     Total SCF correction =     0.003848
     SCF correction compared to forces is large: reduce conv_thr to get better values

     entering subroutine stress ...

     negative rho (up, down):  8.403E-04 6.034E-04
          total   stress  (Ry/bohr**3)                   (kbar)     P=  -48.02
  -0.00032788   0.00000000   0.00000000        -48.23      0.00      0.00
   0.00000000  -0.00037399   0.00000765          0.00    -55.02      1.12
   0.00000000   0.00000765  -0.00027744          0.00      1.12    -40.81

 !ASE

     Writing output data file calc.save

     General routines

     Parallel routines

   This run was terminated on:  14:17:41  19Dec2018

   JOB DONE.
Job  /afs/slac/g/suncat/bin/suncat-tsmpirun -x LD_LIBRARY_PATH -wdir /scratch/qe529687_8aw6r pw.x -in pw.inp

TID   HOST_NAME   COMMAND_LINE            STATUS            TERMINATION_TIME
00000 suncat0032 pw.x -in pw.inp   Done                     12/19/2018 14:17:41
00001 suncat0032 pw.x -in pw.inp   Done                     12/19/2018 14:17:41
00002 suncat0032 pw.x -in pw.inp   Done                     12/19/2018 14:17:41
00003 suncat0032 pw.x -in pw.inp   Done                     12/19/2018 14:17:41
00004 suncat0032 pw.x -in pw.inp   Done                     12/19/2018 14:17:41
00005 suncat0032 pw.x -in pw.inp   Done                     12/19/2018 14:17:41
00006 suncat0032 pw.x -in pw.inp   Done                     12/19/2018 14:17:41
00007 suncat0032 pw.x -in pw.inp   Done                     12/19/2018 14:17:41
00008 suncat0031 pw.x -in pw.inp   Done                     12/19/2018 14:17:41
00009 suncat0031 pw.x -in pw.inp   Done                     12/19/2018 14:17:41
00010 suncat0031 pw.x -in pw.inp   Done                     12/19/2018 14:17:41
00011 suncat0031 pw.x -in pw.inp   Done                     12/19/2018 14:17:41
00012 suncat0031 pw.x -in pw.inp   Done                     12/19/2018 14:17:41
00013 suncat0031 pw.x -in pw.inp   Done                     12/19/2018 14:17:41
00014 suncat0031 pw.x -in pw.inp   Done                     12/19/2018 14:17:41
00015 suncat0031 pw.x -in pw.inp   Done                     12/19/2018 14:17:41
00016 suncat0030 pw.x -in pw.inp   Done                     12/19/2018 14:17:41
00017 suncat0030 pw.x -in pw.inp   Done                     12/19/2018 14:17:41
00018 suncat0030 pw.x -in pw.inp   Done                     12/19/2018 14:17:41
00019 suncat0030 pw.x -in pw.inp   Done                     12/19/2018 14:17:41
00020 suncat0030 pw.x -in pw.inp   Done                     12/19/2018 14:17:41
00021 suncat0030 pw.x -in pw.inp   Done                     12/19/2018 14:17:41
00022 suncat0030 pw.x -in pw.inp   Done                     12/19/2018 14:17:41
00023 suncat0030 pw.x -in pw.inp   Done                     12/19/2018 14:17:41
00024 suncat0029 pw.x -in pw.inp   Done                     12/19/2018 14:17:41
00025 suncat0029 pw.x -in pw.inp   Done                     12/19/2018 14:17:41
00026 suncat0029 pw.x -in pw.inp   Done                     12/19/2018 14:17:41
00027 suncat0029 pw.x -in pw.inp   Done                     12/19/2018 14:17:41
00028 suncat0029 pw.x -in pw.inp   Done                     12/19/2018 14:17:41
00029 suncat0029 pw.x -in pw.inp   Done                     12/19/2018 14:17:41
00030 suncat0029 pw.x -in pw.inp   Done                     12/19/2018 14:17:41
00031 suncat0029 pw.x -in pw.inp   Done                     12/19/2018 14:17:41