     Program PWSCF v.5.1rc2 (svn rev. 11289) starts on 29Dec2018 at 22:54:55

     Current dimensions of program PWSCF are:
     Max number of different atomic species (ntypx) = 10
     Max number of k-points (npk) =  40000
     Max angular momentum in pseudopotentials (lmaxx) =  3
     Presently stress not available with electric field

     IMPORTANT: XC functional enforced from input :
     Exchange-correlation      = BEEF-VDW ( 1  4 27 13 2)
     Any further DFT definition will be discarded
     Please, verify this is what you really want

     Subspace diagonalization in iterative solution of the eigenvalue problem:
     a serial algorithm will be used

     Found symmetry operation: I + ( -0.5000  0.0000  0.0000)
     This is a supercell, fractional translations are disabled

     bravais-lattice index     =            0
     lattice parameter (alat)  =       1.8897  a.u.
     unit-cell volume          =    4283.7095 (a.u.)^3
     number of atoms/cell      =           12
     number of atomic types    =            2
     number of electrons       =       210.00
     number of Kohn-Sham states=          135
     kinetic-energy cutoff     =      36.7493  Ry
     charge density cutoff     =     367.4932  Ry
     convergence threshold     =      1.0E-06
     mixing beta               =       0.1000
     number of iterations used =           10  plain     mixing
     Exchange-correlation      = BEEF-VDW ( 1  4 27 13 2)
     nstep                     =           50

     celldm(1)=   1.889726  celldm(2)=   0.000000  celldm(3)=   0.000000
     celldm(4)=   0.000000  celldm(5)=   0.000000  celldm(6)=   0.000000

     crystal axes: (cart. coord. in units of alat)
               a(1) = (   5.253998   0.000000   0.000000 )
               a(2) = (  -2.626999   4.941447   0.000000 )
               a(3) = (   0.000000   0.000000  24.450029 )

     reciprocal axes: (cart. coord. in units 2 pi/alat)
               b(1) = (  0.190331  0.101185  0.000000 )
               b(2) = (  0.000000  0.202370  0.000000 )
               b(3) = (  0.000000  0.000000  0.040900 )

     PseudoPot. # 1 for Zn read from file:
     /afs/slac.stanford.edu/u/if/mamunm/psp/gbrv1.5pbe/Zn.UPF
     MD5 check sum: df62231357ef9e81f77b2b3087fa5675
     Pseudo is Ultrasoft, Zval = 20.0
     Generated by new atomic code, or converted to UPF format
     Using radial grid of  943 points,  6 beta functions with:
                l(1) =   0
                l(2) =   0
                l(3) =   1
                l(4) =   1
                l(5) =   2
                l(6) =   2
     Q(r) pseudized with  8 coefficients,  rinner =    1.100   1.100   1.100
                                                       1.100   1.100

     PseudoPot. # 2 for Tc read from file:
     /afs/slac.stanford.edu/u/if/mamunm/psp/gbrv1.5pbe/Tc.UPF
     MD5 check sum: 9eb49e5b028550b2339a02317eb7b844
     Pseudo is Ultrasoft + core correction, Zval = 15.0
     Generated by new atomic code, or converted to UPF format
     Using radial grid of  965 points,  6 beta functions with:
                l(1) =   0
                l(2) =   0
                l(3) =   1
                l(4) =   1
                l(5) =   2
                l(6) =   2
     Q(r) pseudized with  8 coefficients,  rinner =    1.300   1.300   1.300
                                                       1.300   1.300

     vdW kernel table read from file vdW_kernel_table
     MD5 check sum: 095c7af220d748ca6e76c0b4c6cfb241

     atomic species   valence    mass     pseudopotential
        Zn1           20.00    65.38000     Zn( 1.00)
        Tc1           15.00    97.90721     Tc( 1.00)

     No symmetry found

   Cartesian axes

     site n.     atom                  positions (alat units)
         1           Zn1 tau(   1) = (   0.0000000   0.0000000  10.0000000  )
         2           Zn1 tau(   2) = (   2.6269988   0.0000000  10.0000000  )
         3           Tc1 tau(   3) = (   1.3134994   2.4707236  10.0000000  )
         4           Tc1 tau(   4) = (  -1.3134994   2.4707236  10.0000000  )
         5           Zn1 tau(   5) = (   2.6269988   1.3965793  12.2250144  )
         6           Zn1 tau(   6) = (   0.0000000   1.3965793  12.2250144  )
         7           Tc1 tau(   7) = (  -1.3134994   3.8673029  12.2250144  )
         8           Tc1 tau(   8) = (   1.3134994   3.8673029  12.2250144  )
         9           Zn1 tau(   9) = (   0.0000000   2.7931586  14.4500288  )
        10           Zn1 tau(  10) = (   2.6269988   2.7931586  14.4500288  )
        11           Tc1 tau(  11) = (   3.9404982   0.3224349  14.4500288  )
        12           Tc1 tau(  12) = (   1.3134994   0.3224349  14.4500288  )

     number of k points=    20  Fermi-Dirac smearing, width (Ry)=  0.0110
                       cart. coord. in units 2pi/alat
        k(    1) = (   0.0000000   0.0000000   0.0000000), wk =   0.0555556
        k(    2) = (   0.0000000   0.0337283   0.0000000), wk =   0.1111111
        k(    3) = (   0.0000000   0.0674566   0.0000000), wk =   0.1111111
        k(    4) = (   0.0000000  -0.1011849   0.0000000), wk =   0.0555556
        k(    5) = (   0.0317219   0.0168642   0.0000000), wk =   0.1111111
        k(    6) = (   0.0317219   0.0505925   0.0000000), wk =   0.1111111
        k(    7) = (   0.0317219   0.0843208   0.0000000), wk =   0.1111111
        k(    8) = (   0.0317219  -0.0843208   0.0000000), wk =   0.1111111
        k(    9) = (   0.0317219  -0.0505925   0.0000000), wk =   0.1111111
        k(   10) = (   0.0317219  -0.0168642   0.0000000), wk =   0.1111111
        k(   11) = (   0.0634438   0.0337283   0.0000000), wk =   0.1111111
        k(   12) = (   0.0634438   0.0674566   0.0000000), wk =   0.1111111
        k(   13) = (   0.0634438   0.1011849   0.0000000), wk =   0.1111111
        k(   14) = (   0.0634438  -0.0674566   0.0000000), wk =   0.1111111
        k(   15) = (   0.0634438  -0.0337283   0.0000000), wk =   0.1111111
        k(   16) = (   0.0634438  -0.0000000   0.0000000), wk =   0.1111111
        k(   17) = (  -0.0951656  -0.0505925   0.0000000), wk =   0.0555556
        k(   18) = (  -0.0951656  -0.0168642   0.0000000), wk =   0.1111111
        k(   19) = (  -0.0951656   0.0168642   0.0000000), wk =   0.1111111
        k(   20) = (  -0.0951656  -0.1517774   0.0000000), wk =   0.0555556

     Largest allocated arrays     est. size (Mb)     dimensions
     Largest temporary arrays     est. size (Mb)     dimensions

     Check: negative/imaginary core charge=   -0.000016    0.000000

     Initial potential from superposition of free atoms
     Check: negative starting charge=   -0.754360

     starting charge  203.99899, renormalised to  210.00000

     negative rho (up, down):  7.766E-01 0.000E+00

     *
     * You are using vdW-DF for exchange-correlation in this calculation.
     * Please cite the following three references that made this development
     * possible:
     *
     *   M. Dion, H. Rydberg, E. Schroder, D. C. Langreth, and
     *   B. I. Lundqvist, Phys. Rev. Lett. 92, 246401 (2004).
     *
     *   T. Thonhauser, V. R. Cooper, S. Li, A. Puzder, P. Hyldgaard, and
     *   D. C. Langreth, Phys. Rev. B 76, 125112 (2007).
     *
     *   G. Roman-Perez and J. M. Soler, Phys. Rev. Lett. 103, 096102 (2009).
     *
     *
     * If you are using vdW-DF2, please also cite:
     *
     *   K. Lee, E. D. Murray, L. Kong, B. I. Lundqvist, and
     *   D. C. Langreth, Phys. Rev. B 82, 081101(R) (2010).
     *
     *
     * If you are calculating the stress with vdW-DF, please also cite:
     *
     *   R. Sabatini, E. Kucukbenli, B. Kolb, T. Thonhauser, and
     *   S. de Gironcoli, J. Phys.: Condens. Matter 24, 424209 (2012).
     *

     Carrying out vdW-DF run using the following parameters:

     Nqs =      20    Nr_points =    1024   r_max =   100.000
     q_mesh =
               0.00001000     0.04494208     0.09755937     0.15916263
               0.23128650     0.31572767     0.41458969     0.53033537
               0.66584808     0.82450364     1.01025438     1.22772762
               1.48234092     1.78043706     2.12944203     2.53805004
               3.01644009     3.57652955     4.23227104     5.00000000

     Gradients computed in reciprocal space

     Adding external electric field

     Computed dipole along edir(3) :
        Dipole                0.0000 Ry au,          0.0000 Debye
        Dipole field          0.0000 Ry au

        Potential amp.       -0.0000 Ry
        Total length         45.0488 bohr

     Starting wfc are  156 randomized atomic wfcs

     Self-consistent Calculation

     iteration #  1     ecut=    36.75 Ry     beta=0.10
     Davidson diagonalization with overlap
     ethr =  1.00E-02,  avg # of iterations =  7.7

[...]

     total energy              =   -3793.95848625 Ry
     Harris-Foulkes estimate   =   -3842.33055565 Ry
     estimated scf accuracy    <     265.37334815 Ry

[...]

     End of self-consistent calculation

          k = 0.0000 0.0000 0.0000 ( 16127 PWs)   bands (ev):

  -124.9954-124.9938-124.7806-124.7800-124.7790-124.7784 -79.1922 -79.1907
   -79.1889 -79.1692 -79.1429 -79.1411 -78.9830 -78.9824 -78.9608 -78.9602
   -78.9601 -78.9595 -78.9590 -78.9583 -78.9325 -78.9319 -78.9308 -78.9303
   -65.8646 -65.7546 -65.4668 -65.4627 -65.3559 -65.3521 -38.2361 -38.1039
   -37.9911 -37.9560 -37.9491 -37.8384 -37.7331 -37.4798 -37.4678 -37.4103
   -37.3753 -37.3636 -37.3297 -37.3070 -37.2568 -37.1651 -37.0529 -37.0497
    -7.2134  -6.5210  -6.5082  -6.3772  -6.3729  -6.3467  -6.2810  -6.2371
    -6.1968  -6.1813  -6.1370  -6.1114  -5.9684  -5.9606  -5.8967  -5.7936
    -5.7831  -5.7715  -5.7711  -5.7277  -5.7231  -5.6673  -5.6477  -5.6272
    -5.5531  -5.4444  -5.4432  -5.4253  -5.4113  -5.3664  -5.1741  -4.9952
    -3.5135  -3.0368  -2.8166  -2.3397  -2.0710  -2.0403  -1.8584  -1.6989
    -1.4150  -0.9501  -0.6831  -0.6549  -0.6015  -0.4982  -0.1041  -0.0664
     0.3285   0.5764   1.0001   1.1211   1.1400   1.4365   1.6419   1.7014
     1.7294   1.7452   1.7815   2.0434   2.3212   2.4496   2.5320   2.6632
     2.7104   2.7462   2.8118   3.3015   3.3536   3.3833   3.4296   4.3635
     4.7439   4.9974   5.2707   5.4318   5.5071   5.8745   6.1238   6.3314
     6.8043   6.8535   6.9592   7.7858   8.8520   8.9912   9.2699

[...]

          k =-0.0952-0.0506 0.0000 ( 16086 PWs)   bands (ev):

[...]

     the Fermi energy is     1.3761 ev

!    total energy              =   -3828.16332234 Ry
     Harris-Foulkes estimate   =   -3828.16331831 Ry
     estimated scf accuracy    <       0.00000028 Ry

     The total energy is the sum of the following terms:

     one-electron contribution =  -27420.20872248 Ry
     hartree contribution      =   13701.37426913 Ry
     xc contribution           =    -459.11627801 Ry
     ewald contribution        =   10349.85433895 Ry
     electric field correction =       0.00000002 Ry
     smearing contrib. (-TS)   =      -0.06692996 Ry

     convergence has been achieved in  20 iterations

 BEEF-vdW xc energy contributions
           1 :   -405.588602163638
           2 :    369.950241582162
           3 :   -308.677189082484
           4 :    237.245747116403
[...]
     Using radial grid of  943 points,  6 beta functions with:
                l(1) =   0
                l(2) =   0
                l(3) =   1
                l(4) =   1
                l(5) =   2
                l(6) =   2
     Q(r) pseudized with  8 coefficients,  rinner =    1.100   1.100   1.100
                                                       1.100   1.100

     PseudoPot. # 2 for Tc read from file:
     /afs/slac.stanford.edu/u/if/mamunm/psp/gbrv1.5pbe/Tc.UPF
     MD5 check sum: 9eb49e5b028550b2339a02317eb7b844
     Pseudo is Ultrasoft + core correction, Zval = 15.0
     Generated by new atomic code, or converted to UPF format
     Using radial grid of  965 points,  6 beta functions with:
                l(1) =   0
                l(2) =   0
                l(3) =   1
                l(4) =   1
                l(5) =   2
                l(6) =   2
     Q(r) pseudized with  8 coefficients,  rinner =    1.300   1.300   1.300
                                                       1.300   1.300

     vdW kernel table read from file vdW_kernel_table
     MD5 check sum: 095c7af220d748ca6e76c0b4c6cfb241

     atomic species   valence    mass     pseudopotential
        Zn1           20.00    65.38000     Zn( 1.00)
        Tc1           15.00    97.90721     Tc( 1.00)

     No symmetry found

   Cartesian axes

     site n.     atom                  positions (alat units)
         1           Zn1 tau(   1) = (   0.0000000   0.0000000  10.0000000  )
         2           Zn1 tau(   2) = (   2.6269988   0.0000000  10.0000000  )
         3           Tc1 tau(   3) = (   1.3134994   2.4707236  10.0000000  )
         4           Tc1 tau(   4) = (  -1.3134994   2.4707236  10.0000000  )
         5           Zn1 tau(   5) = (   2.6269988   1.3965793  12.2250144  )
         6           Zn1 tau(   6) = (   0.0000000   1.3965793  12.2250144  )
         7           Tc1 tau(   7) = (  -1.3134994   3.8673029  12.2250144  )
         8           Tc1 tau(   8) = (   1.3134994   3.8673029  12.2250144  )
         9           Zn1 tau(   9) = (   0.0000380   2.5809013  14.6592521  )
        10           Zn1 tau(  10) = (   2.6270818   2.5809025  14.6592470  )
        11           Tc1 tau(  11) = (   3.9404317   0.0709182  14.3083087  )
        12           Tc1 tau(  12) = (   1.3134336   0.0708550  14.3083073  )

     number of k points=    20  Fermi-Dirac smearing, width (Ry)=  0.0110
                       cart. coord. in units 2pi/alat
        k(    1) = (   0.0000000   0.0000000   0.0000000), wk =   0.0555556
        k(    2) = (   0.0000000   0.0337283   0.0000000), wk =   0.1111111
        k(    3) = (   0.0000000   0.0674566   0.0000000), wk =   0.1111111
        k(    4) = (   0.0000000  -0.1011849   0.0000000), wk =   0.0555556
        k(    5) = (   0.0317219   0.0168642   0.0000000), wk =   0.1111111
        k(    6) = (   0.0317219   0.0505925   0.0000000), wk =   0.1111111
        k(    7) = (   0.0317219   0.0843208   0.0000000), wk =   0.1111111
        k(    8) = (   0.0317219  -0.0843208   0.0000000), wk =   0.1111111
        k(    9) = (   0.0317219  -0.0505925   0.0000000), wk =   0.1111111
        k(   10) = (   0.0317219  -0.0168642   0.0000000), wk =   0.1111111
        k(   11) = (   0.0634438   0.0337283   0.0000000), wk =   0.1111111
        k(   12) = (   0.0634438   0.0674566   0.0000000), wk =   0.1111111
        k(   13) = (   0.0634438   0.1011849   0.0000000), wk =   0.1111111
        k(   14) = (   0.0634438  -0.0674566   0.0000000), wk =   0.1111111
        k(   15) = (   0.0634438  -0.0337283   0.0000000), wk =   0.1111111
        k(   16) = (   0.0634438  -0.0000000   0.0000000), wk =   0.1111111
        k(   17) = (  -0.0951656  -0.0505925   0.0000000), wk =   0.0555556
        k(   18) = (  -0.0951656  -0.0168642   0.0000000), wk =   0.1111111
        k(   19) = (  -0.0951656   0.0168642   0.0000000), wk =   0.1111111
        k(   20) = (  -0.0951656  -0.1517774   0.0000000), wk =   0.0555556

     Largest allocated arrays     est. size (Mb)     dimensions
     Largest temporary arrays     est. size (Mb)     dimensions

     Check: negative/imaginary core charge=   -0.000016    0.000000

     Initial potential from superposition of free atoms
     Check: negative starting charge=   -0.754787

     starting charge  203.99899, renormalised to  210.00000

[...]

     *
     * You are using vdW-DF for exchange-correlation in this calculation.
     * Please cite the following three references that made this development
     * possible:
     *
     *   M. Dion, H. Rydberg, E. Schroder, D. C. Langreth, and
     *   B. I. Lundqvist, Phys. Rev. Lett. 92, 246401 (2004).
     *
     *   T. Thonhauser, V. R. Cooper, S. Li, A. Puzder, P. Hyldgaard, and
     *   D. C. Langreth, Phys. Rev. B 76, 125112 (2007).
     *
     *   G. Roman-Perez and J. M. Soler, Phys. Rev. Lett. 103, 096102 (2009).
     *
     *
     * If you are using vdW-DF2, please also cite:
     *
     *   K. Lee, E. D. Murray, L. Kong, B. I. Lundqvist, and
     *   D. C. Langreth, Phys. Rev. B 82, 081101(R) (2010).
     *
     *
     * If you are calculating the stress with vdW-DF, please also cite:
     *
     *   R. Sabatini, E. Kucukbenli, B. Kolb, T. Thonhauser, and
     *   S. de Gironcoli, J. Phys.: Condens. Matter 24, 424209 (2012).
     *

     Carrying out vdW-DF run using the following parameters:

     Nqs =      20    Nr_points =    1024   r_max =   100.000
     q_mesh =
               0.00001000     0.04494208     0.09755937     0.15916263
               0.23128650     0.31572767     0.41458969     0.53033537
               0.66584808     0.82450364     1.01025438     1.22772762
               1.48234092     1.78043706     2.12944203     2.53805004
               3.01644009     3.57652955     4.23227104     5.00000000

     Gradients computed in reciprocal space

[...]

     Starting wfc are  156 randomized atomic wfcs

     Self-consistent Calculation

[...]

     total energy              =   -3828.18683699 Ry
     Harris-Foulkes estimate   =   -3828.18683630 Ry
     estimated scf accuracy    <       0.00000115 Ry

     iteration # 23     ecut=    36.75 Ry     beta=0.10
     Davidson diagonalization with overlap
     ethr =  5.46E-10,  avg # of iterations =  2.0

[...]

     negative rho (up, down):  7.852E-01 0.000E+00

     Adding external electric field

     Computed dipole along edir(3) :
        Dipole                0.0429 Ry au,          0.1091 Debye
        Dipole field          0.0001 Ry au

        Potential amp.       -0.0113 Ry
        Total length         45.0488 bohr

     End of self-consistent calculation

[...]

          k = 0.0634-0.0000 0.0000 ( 16077 PWs)   bands (ev):

[...]

          k =-0.0952-0.1518 0.0000 ( 16086 PWs)   bands (ev):

  -124.9804-124.9804-124.7334-124.7334-124.6943-124.6943 -79.1722 -79.1722
   -79.1670 -79.1670 -79.1303 -79.1303 -78.9259 -78.9259 -78.9137 -78.9137
   -78.8861 -78.8861 -78.8837 -78.8837 -78.8792 -78.8792 -78.8447 -78.8447
   -65.7809 -65.7808 -65.4296 -65.4296 -65.3208 -65.3207 -38.3062 -38.3061
   -37.7790 -37.7789 -37.7150 -37.7150 -37.4685 -37.4685 -37.4583 -37.4583
   -37.4475 -37.4473 -37.3379 -37.3378 -37.3047 -37.3046 -37.0441 -37.0441
    -6.2302  -6.2302  -6.1390  -6.1390  -6.0706  -6.0706  -6.0401  -6.0401
    -6.0058  -6.0058  -5.7803  -5.7803  -5.7544  -5.7544  -5.7102  -5.7102
    -5.6789  -5.6789  -5.6552  -5.6552  -5.6299  -5.6299  -5.6237  -5.6237
    -5.5751  -5.5751  -5.5372  -5.5372  -5.5210  -5.5210  -5.0326  -5.0326
    -3.7812  -3.7812  -2.7266  -2.7266  -1.9840  -1.9839  -1.6919  -1.6918
    -0.9615  -0.9614  -0.6147  -0.6147  -0.2478  -0.2477  -0.0635  -0.0635
     0.0678   0.0679   0.4005   0.4006   0.4729   0.4729   0.7478   0.7478
     0.8895   0.8896   1.3505   1.3505   1.8803   1.8803   2.3490   2.3490
     2.6015   2.6015   2.8555   2.8555   3.7279   3.7280   4.6333   4.6333
     5.4095   5.4096   6.6190   6.6190   7.0819   7.0819   7.2050   7.2050
     7.6427   7.6427   8.0630   8.0631   8.2927   8.2927   8.4886

     the Fermi energy is     1.4204 ev

!    total energy              =   -3828.18683906 Ry
     Harris-Foulkes estimate   =   -3828.18683673 Ry
     estimated scf accuracy    <       0.00000022 Ry

     The total energy is the sum of the following terms:

     one-electron contribution =  -27195.07209401 Ry
     hartree contribution      =   13589.09753654 Ry
     xc contribution           =    -459.21321239 Ry
     ewald contribution        =   10237.06038665 Ry
     electric field correction =       0.00000540 Ry
     smearing contrib. (-TS)   =      -0.05946125 Ry

     convergence has been achieved in  23 iterations

 BEEF-vdW xc energy contributions
           1 :   -405.686757891385
           2 :    370.055558883077
           3 :   -308.794612298775
           4 :    237.368112862257
           5 :   -170.482535370411
           6 :    117.058770750719
           7 :   -78.6917759747852
           8 :    51.6357579072135
           9 :   -30.6655297036034
          10 :    12.3853906879662
          11 :    3.57787792007161
          12 :   -15.6032314053471
          13 :    22.0773992183323
          14 :   -22.8848854495470
          15 :    19.5383584839226
          16 :   -14.2158180012080
          17 :    8.60471687852942
          18 :   -3.40155617186116
          19 :   -1.35851602716605
          20 :    5.59435467499327
          21 :   -8.75883600044142
          22 :    10.0207577408197
          23 :   -8.84891040486173
          24 :    5.47629722898671
          25 :  -0.865221436904221
          26 :   -3.80236344093066
          27 :    7.71417415648341
          28 :   -10.6775919314196
          29 :    12.8927284567060
          30 :   -14.4915802750470
          31 :   -34.3910831491280
          32 :   -24.3050373206805

     Forces acting on atoms (Ry/au):

     negative rho (up, down):  7.852E-01 0.000E+00
     atom    1 type  1   force =     0.00001525    0.00257623   -0.01976844
     atom    2 type  1   force =    -0.00000369    0.00257613   -0.01976863
     atom    3 type  2   force =     0.00001066    0.00338638    0.02728856
     atom    4 type  2   force =     0.00001072    0.00338544    0.02729059
     atom    5 type  1   force =    -0.00002268    0.00756522   -0.00053161
     atom    6 type  1   force =     0.00005341    0.00756559   -0.00053145
     atom    7 type  2   force =     0.00002298   -0.01324599   -0.00456205
     atom    8 type  2   force =     0.00002316   -0.01323880   -0.00454905
     atom    9 type  1   force =    -0.00001117   -0.00099043   -0.00125938
     atom   10 type  1   force =    -0.00003712   -0.00099110   -0.00125897
     atom   11 type  2   force =    -0.00003063    0.00069637   -0.00117279
     atom   12 type  2   force =    -0.00003087    0.00071496   -0.00117677

     Total force =     0.053136     Total SCF correction =     0.002703

     entering subroutine stress ...

     negative rho (up, down):  7.852E-01 0.000E+00
          total   stress  (Ry/bohr**3)                   (kbar)     P=  -19.69
  -0.00013699  -0.00000000   0.00000000        -20.15     -0.00      0.00
  -0.00000000  -0.00021229  -0.00001064         -0.00    -31.23     -1.56
   0.00000000  -0.00001064  -0.00005232          0.00     -1.56     -7.70

 !ASE

     Writing output data file calc.save

     General routines

     Parallel routines

   This run was terminated on:   3:50:12  30Dec2018

   JOB DONE.
Job  /afs/slac/g/suncat/bin/suncat-tsmpirun -x LD_LIBRARY_PATH -wdir /scratch/qe387741_MIqtX pw.x -in pw.inp

TID   HOST_NAME   COMMAND_LINE            STATUS            TERMINATION_TIME
00000 suncat0056 pw.x -in pw.inp   Done                     12/30/2018 03:50:12
00001 suncat0056 pw.x -in pw.inp   Done                     12/30/2018 03:50:12
00002 suncat0056 pw.x -in pw.inp   Done                     12/30/2018 03:50:12
00003 suncat0056 pw.x -in pw.inp   Done                     12/30/2018 03:50:12
00004 suncat0056 pw.x -in pw.inp   Done                     12/30/2018 03:50:12
00005 suncat0056 pw.x -in pw.inp   Done                     12/30/2018 03:50:12
00006 suncat0056 pw.x -in pw.inp   Done                     12/30/2018 03:50:12
00007 suncat0056 pw.x -in pw.inp   Done                     12/30/2018 03:50:12
00008 suncat0052 pw.x -in pw.inp   Done                     12/30/2018 03:50:12
00009 suncat0052 pw.x -in pw.inp   Done                     12/30/2018 03:50:12
00010 suncat0052 pw.x -in pw.inp   Done                     12/30/2018 03:50:12
00011 suncat0052 pw.x -in pw.inp   Done                     12/30/2018 03:50:12
00012 suncat0052 pw.x -in pw.inp   Done                     12/30/2018 03:50:12
00013 suncat0052 pw.x -in pw.inp   Done                     12/30/2018 03:50:12
00014 suncat0052 pw.x -in pw.inp   Done                     12/30/2018 03:50:12
00015 suncat0052 pw.x -in pw.inp   Done                     12/30/2018 03:50:12
00016 suncat0048 pw.x -in pw.inp   Done                     12/30/2018 03:50:12
00017 suncat0048 pw.x -in pw.inp   Done                     12/30/2018 03:50:12
00018 suncat0048 pw.x -in pw.inp   Done                     12/30/2018 03:50:12
00019 suncat0048 pw.x -in pw.inp   Done                     12/30/2018 03:50:12
00020 suncat0048 pw.x -in pw.inp   Done                     12/30/2018 03:50:12
00021 suncat0048 pw.x -in pw.inp   Done                     12/30/2018 03:50:12
00022 suncat0048 pw.x -in pw.inp   Done                     12/30/2018 03:50:12
00023 suncat0048 pw.x -in pw.inp   Done                     12/30/2018 03:50:12
00024 suncat0047 pw.x -in pw.inp   Done                     12/30/2018 03:50:12
00025 suncat0047 pw.x -in pw.inp   Done                     12/30/2018 03:50:12
00026 suncat0047 pw.x -in pw.inp   Done                     12/30/2018 03:50:12
00027 suncat0047 pw.x -in pw.inp   Done                     12/30/2018 03:50:12
00028 suncat0047 pw.x -in pw.inp   Done                     12/30/2018 03:50:12
00029 suncat0047 pw.x -in pw.inp   Done                     12/30/2018 03:50:12
00030 suncat0047 pw.x -in pw.inp   Done                     12/30/2018 03:50:12
00031 suncat0047 pw.x -in pw.inp   Done                     12/30/2018 03:50:12
00032 suncat0041 pw.x -in pw.inp   Done                     12/30/2018 03:50:12
00033 suncat0041 pw.x -in pw.inp   Done                     12/30/2018 03:50:12
00034 suncat0041 pw.x -in pw.inp   Done                     12/30/2018 03:50:12
00035 suncat0041 pw.x -in pw.inp   Done                     12/30/2018 03:50:12
00036 suncat0041 pw.x -in pw.inp   Done                     12/30/2018 03:50:12
00037 suncat0041 pw.x -in pw.inp   Done                     12/30/2018 03:50:12
00038 suncat0041 pw.x -in pw.inp   Done                     12/30/2018 03:50:12
00039 suncat0041 pw.x -in pw.inp   Done                     12/30/2018 03:50:12
00040 suncat0039 pw.x -in pw.inp   Done                     12/30/2018 03:50:12
00041 suncat0039 pw.x -in pw.inp   Done                     12/30/2018 03:50:12
00042 suncat0039 pw.x -in pw.inp   Done                     12/30/2018 03:50:12
00043 suncat0039 pw.x -in pw.inp   Done                     12/30/2018 03:50:12
00044 suncat0039 pw.x -in pw.inp   Done                     12/30/2018 03:50:12
00045 suncat0039 pw.x -in pw.inp   Done                     12/30/2018 03:50:12
00046 suncat0039 pw.x -in pw.inp   Done                     12/30/2018 03:50:12
00047 suncat0039 pw.x -in pw.inp   Done                     12/30/2018 03:50:12
00048 suncat0207 pw.x -in pw.inp   Done                     12/30/2018 03:50:12
00049 suncat0207 pw.x -in pw.inp   Done                     12/30/2018 03:50:12
00050 suncat0207 pw.x -in pw.inp   Done                     12/30/2018 03:50:12
00051 suncat0207 pw.x -in pw.inp   Done                     12/30/2018 03:50:12
00052 suncat0207 pw.x -in pw.inp   Done                     12/30/2018 03:50:12
00053 suncat0207 pw.x -in pw.inp   Done                     12/30/2018 03:50:12
00054 suncat0207 pw.x -in pw.inp   Done                     12/30/2018 03:50:12
00055 suncat0207 pw.x -in pw.inp   Done                     12/30/2018 03:50:12
00056 suncat0206 pw.x -in pw.inp   Done                     12/30/2018 03:50:12
00057 suncat0206 pw.x -in pw.inp   Done                     12/30/2018 03:50:12
00058 suncat0206 pw.x -in pw.inp   Done                     12/30/2018 03:50:12
00059 suncat0206 pw.x -in pw.inp   Done                     12/30/2018 03:50:12
00060 suncat0206 pw.x -in pw.inp   Done                     12/30/2018 03:50:12
00061 suncat0206 pw.x -in pw.inp   Done                     12/30/2018 03:50:12
00062 suncat0206 pw.x -in pw.inp   Done                     12/30/2018 03:50:12
00063 suncat0206 pw.x -in pw.inp   Done                     12/30/2018 03:50:12