     Program PWSCF v.5.1rc2 (svn rev. 11289) starts on 25Dec2018 at  4:37:32

     Current dimensions of program PWSCF are:
     Max number of different atomic species (ntypx) = 10
     Max number of k-points (npk) =  40000
     Max angular momentum in pseudopotentials (lmaxx) =  3
     Presently stress not available with electric field

     IMPORTANT: XC functional enforced from input :
     Exchange-correlation      = BEEF-VDW ( 1  4 27 13 2)
     Any further DFT definition will be discarded
     Please, verify this is what you really want

     Subspace diagonalization in iterative solution of the eigenvalue problem:
     a serial algorithm will be used

     Found symmetry operation: I + ( -0.5000  0.5000  0.0000)
     This is a supercell, fractional translations are disabled

     bravais-lattice index     =            0
     lattice parameter (alat)  =       1.8897  a.u.
     unit-cell volume          =    5500.4328 (a.u.)^3
     number of atoms/cell      =           12
     number of atomic types    =            2
     number of electrons       =       192.00
     number of Kohn-Sham states=          126
     kinetic-energy cutoff     =      36.7493  Ry
     charge density cutoff     =     367.4932  Ry
     convergence threshold     =      1.0E-06
     mixing beta               =       0.1000
     number of iterations used =           10  plain     mixing
     Exchange-correlation      = BEEF-VDW ( 1  4 27 13 2)
     nstep                     =           50

     celldm(1)=   1.889726  celldm(2)=   0.000000  celldm(3)=   0.000000
     celldm(4)=   0.000000  celldm(5)=   0.000000  celldm(6)=   0.000000

     crystal axes: (cart. coord. in units of alat)
               a(1) = (   6.100475   0.000000   0.000000 )
               a(2) = (   2.944418   5.342864   0.000000 )
               a(3) = (   0.000000   0.000000  25.007053 )

     reciprocal axes: (cart. coord. in units 2 pi/alat)
               b(1) = (  0.163922 -0.090336  0.000000 )
               b(2) = (  0.000000  0.187166  0.000000 )
               b(3) = (  0.000000  0.000000  0.039989 )

     PseudoPot. # 1 for Zn read from file:
     /afs/slac.stanford.edu/u/if/mamunm/psp/gbrv1.5pbe/Zn.UPF
     MD5 check sum: df62231357ef9e81f77b2b3087fa5675
     Pseudo is Ultrasoft, Zval = 20.0
     Generated by new atomic code, or converted to UPF format
     Using radial grid of  943 points,  6 beta functions with:
                l(1) =   0
                l(2) =   0
                l(3) =   1
                l(4) =   1
                l(5) =   2
                l(6) =   2
     Q(r) pseudized with  8 coefficients,  rinner =    1.100   1.100   1.100
                                                       1.100   1.100

     PseudoPot. # 2 for Cd read from file:
     /afs/slac.stanford.edu/u/if/mamunm/psp/gbrv1.5pbe/Cd.UPF
     MD5 check sum: 17164a7926edb8e0dc231208abae86a6
     Pseudo is Ultrasoft + core correction, Zval = 12.0
     Generated by new atomic code, or converted to UPF format
     Using radial grid of  889 points,  6 beta functions with:
                l(1) =   0
                l(2) =   0
                l(3) =   1
                l(4) =   1
                l(5) =   2
                l(6) =   2
     Q(r) pseudized with  6 coefficients,  rinner =    1.000   1.000   1.000
                                                       1.000   1.000

     vdW kernel table read from file vdW_kernel_table
     MD5 check sum: 095c7af220d748ca6e76c0b4c6cfb241

     atomic species   valence    mass     pseudopotential
        Zn1           20.00    65.38000     Zn( 1.00)
        Cd1           12.00   112.41400     Cd( 1.00)

     No symmetry found

   Cartesian axes

     site n.     atom                  positions (alat units)
         1           Zn1 tau(   1) = (   0.0000000   0.0000000  10.0000000  )
         2           Zn1 tau(   2) = (   4.5224466   2.6714319  10.0000000  )
         3           Cd1 tau(   3) = (   3.0502374   0.0000000  10.0000000  )
         4           Cd1 tau(   4) = (   1.4722092   2.6714319  10.0000000  )
         5           Zn1 tau(   5) = (   6.1004748   3.6035810  12.5035267  )
         6           Zn1 tau(   6) = (   1.5780282   0.9321492  12.5035267  )
         7           Cd1 tau(   7) = (   3.0502374   3.6035810  12.5035267  )
         8           Cd1 tau(   8) = (   4.6282656   0.9321492  12.5035267  )
         9           Zn1 tau(   9) = (   3.1560564   1.8642983  15.0070535  )
        10           Zn1 tau(  10) = (   7.6785030   4.5357302  15.0070535  )
        11           Cd1 tau(  11) = (   6.2062938   1.8642983  15.0070535  )
        12           Cd1 tau(  12) = (   4.6282656   4.5357302  15.0070535  )

     number of k points=    20  Fermi-Dirac smearing, width (Ry)=  0.0110
                       cart. coord. in units 2pi/alat
        k(    1) = (   0.0000000   0.0000000   0.0000000), wk =   0.0555556
        k(    2) = (   0.0000000   0.0311943   0.0000000), wk =   0.1111111
        k(    3) = (   0.0000000   0.0623885   0.0000000), wk =   0.1111111
        k(    4) = (   0.0000000  -0.0935828   0.0000000), wk =   0.0555556
        k(    5) = (   0.0273203  -0.0150560   0.0000000), wk =   0.1111111
        k(    6) = (   0.0273203   0.0161382   0.0000000), wk =   0.1111111
        k(    7) = (   0.0273203   0.0473325   0.0000000), wk =   0.1111111
        k(    8) = (   0.0273203  -0.1086388   0.0000000), wk =   0.1111111
        k(    9) = (   0.0273203  -0.0774445   0.0000000), wk =   0.1111111
        k(   10) = (   0.0273203  -0.0462503   0.0000000), wk =   0.1111111
        k(   11) = (   0.0546406  -0.0301121   0.0000000), wk =   0.1111111
        k(   12) = (   0.0546406   0.0010822   0.0000000), wk =   0.1111111
        k(   13) = (   0.0546406   0.0322765   0.0000000), wk =   0.1111111
        k(   14) = (   0.0546406  -0.1236948   0.0000000), wk =   0.1111111
        k(   15) = (   0.0546406  -0.0925006   0.0000000), wk =   0.1111111
        k(   16) = (   0.0546406  -0.0613063   0.0000000), wk =   0.1111111
        k(   17) = (  -0.0819608   0.0451681   0.0000000), wk =   0.0555556
        k(   18) = (  -0.0819608   0.0763624   0.0000000), wk =   0.1111111
        k(   19) = (  -0.0819608   0.1075566   0.0000000), wk =   0.1111111
        k(   20) = (  -0.0819608  -0.0484147   0.0000000), wk =   0.0555556

     Largest allocated arrays     est. size (Mb)     dimensions
     Largest temporary arrays     est. size (Mb)     dimensions

     Initial potential from superposition of free atoms
     Check: negative starting charge=   -0.133660

     starting charge  188.99891, renormalised to  192.00000

     negative rho (up, down):  1.358E-01 0.000E+00

     *
     * You are using vdW-DF for exchange-correlation in this calculation.
     * Please cite the following three references that made this development
     * possible:
     *
     *   M. Dion, H. Rydberg, E. Schroder, D. C. Langreth, and
     *   B. I. Lundqvist, Phys. Rev. Lett. 92, 246401 (2004).
     *
     *   T. Thonhauser, V. R. Cooper, S. Li, A. Puzder, P. Hyldgaard, and
     *   D. C. Langreth, Phys. Rev. B 76, 125112 (2007).
     *
     *   G. Roman-Perez and J. M. Soler, Phys. Rev. Lett. 103, 096102 (2009).
     *
     *
     * If you are using vdW-DF2, please also cite:
     *
     *   K. Lee, E. D. Murray, L. Kong, B. I. Lundqvist, and
     *   D. C. Langreth, Phys. Rev. B 82, 081101(R) (2010).
     *
     *
     * If you are calculating the stress with vdW-DF, please also cite:
     *
     *   R. Sabatini, E. Kucukbenli, B. Kolb, T. Thonhauser, and
     *   S. de Gironcoli, J. Phys.: Condens. Matter 24, 424209 (2012).
     *

     Carrying out vdW-DF run using the following parameters:

     Nqs =      20    Nr_points =    1024   r_max =   100.000
     q_mesh =
               0.00001000     0.04494208     0.09755937     0.15916263
               0.23128650     0.31572767     0.41458969     0.53033537
               0.66584808     0.82450364     1.01025438     1.22772762
               1.48234092     1.78043706     2.12944203     2.53805004
               3.01644009     3.57652955     4.23227104     5.00000000

     Gradients computed in reciprocal space

     Adding external electric field

     Computed dipole along edir(3) :
        Dipole               -0.0000 Ry au,         -0.0000 Debye
        Dipole field         -0.0000 Ry au

        Potential amp.        0.0000 Ry
        Total length         46.0751 bohr

     Starting wfc are  132 randomized atomic wfcs

     Self-consistent Calculation

     iteration #  1     ecut=    36.75 Ry     beta=0.10
     Davidson diagonalization with overlap
     ethr =  1.00E-02,  avg # of iterations =  8.1

[...]

     total energy              =   -3472.94956675 Ry
     Harris-Foulkes estimate   =   -3474.97052192 Ry
     estimated scf accuracy    <      11.18981251 Ry

[...]

     End of self-consistent calculation

          k = 0.0000 0.0000 0.0000 ( 20683 PWs)   bands (ev):

  -126.3392-126.3391-126.1746-126.1745-126.1745-126.1745 -80.5251 -80.5249
   -80.5174 -80.5160 -80.5158 -80.5153 -80.3669 -80.3669 -80.3668 -80.3666
   -80.3513 -80.3512 -80.3510 -80.3510 -80.3499 -80.3499 -80.3479 -80.3478
    -9.3383  -9.2702  -9.2113  -9.1562  -9.1234  -9.1158  -9.0631  -9.0065
    -8.9933  -8.9780  -8.9718  -8.8707  -8.8034  -8.7614  -8.6978  -8.6909
    -8.6891  -8.6793  -8.6459  -8.6421  -8.6231  -8.5921  -8.5265  -8.4781
    -8.4758  -8.4466  -8.4374  -8.3919  -8.3109  -8.1471  -7.9584  -7.3821
    -7.2997  -7.2974  -7.2665  -7.2640  -7.2529  -7.2241  -7.1817  -7.1362
    -7.1311  -7.1307  -7.1018  -7.0721  -7.0693  -7.0453  -7.0397  -7.0366
    -7.0315  -7.0235  -7.0116  -7.0045  -6.9732  -6.9602  -6.9598  -6.9363
    -6.9296  -6.9025  -6.8994  -6.8528  -6.8341  -6.2061  -3.6196  -2.1388
    -2.0307  -1.8736  -1.8012  -1.6451  -1.6391  -0.7807  -0.7760  -0.6640
    -0.5611  -0.3822   0.0984   0.1791   1.2967   1.6617   1.7335   1.7867
     2.0968   2.2761   2.3876   3.5301   4.1102   4.8405   4.9313   5.0199
     5.0640   5.1033   5.2593   5.3817   5.5407   6.6555   7.0500   7.1547
     7.4415   7.5395   7.7300   7.7339   7.8122   7.9834

[...]

          k =-0.0820 0.0452 0.0000 ( 20696 PWs)   bands (ev):

[...]

     the Fermi energy is     0.2145 ev

!    total energy              =   -3473.07708325 Ry
     Harris-Foulkes estimate   =   -3473.07708646 Ry
     estimated scf accuracy    <       0.00000031 Ry

     The total energy is the sum of the following terms:

     one-electron contribution =  -18547.27019450 Ry
     hartree contribution      =    9308.26204465 Ry
     xc contribution           =    -504.96941513 Ry
     ewald contribution        =    6270.92908994 Ry
     electric field correction =       0.00000000 Ry
     smearing contrib. (-TS)   =      -0.02860822 Ry

     convergence has been achieved in  14 iterations

 BEEF-vdW xc energy contributions
           1 :   -445.687308364717
           2 :    405.496906656938
           3 :   -338.031015845373
           4 :    262.871582509530
           5 :   -197.555714518685
           6 :    151.064994091923
           7 :   -122.453575687497
           8 :    104.461414589666
[...]
     Pseudo is Ultrasoft, Zval = 20.0
     Generated by new atomic code, or converted to UPF format
     Using radial grid of  943 points,  6 beta functions with:
                l(1) =   0
                l(2) =   0
                l(3) =   1
                l(4) =   1
                l(5) =   2
                l(6) =   2
     Q(r) pseudized with  8 coefficients,  rinner =    1.100   1.100   1.100
                                                       1.100   1.100

     PseudoPot. # 2 for Cd read from file:
     /afs/slac.stanford.edu/u/if/mamunm/psp/gbrv1.5pbe/Cd.UPF
     MD5 check sum: 17164a7926edb8e0dc231208abae86a6
     Pseudo is Ultrasoft + core correction, Zval = 12.0
     Generated by new atomic code, or converted to UPF format
     Using radial grid of  889 points,  6 beta functions with:
                l(1) =   0
                l(2) =   0
                l(3) =   1
                l(4) =   1
                l(5) =   2
                l(6) =   2
     Q(r) pseudized with  6 coefficients,  rinner =    1.000   1.000   1.000
                                                       1.000   1.000

     vdW kernel table read from file vdW_kernel_table
     MD5 check sum: 095c7af220d748ca6e76c0b4c6cfb241

     atomic species   valence    mass     pseudopotential
        Zn1           20.00    65.38000     Zn( 1.00)
        Cd1           12.00   112.41400     Cd( 1.00)

     No symmetry found

   Cartesian axes

     site n.     atom                  positions (alat units)
         1           Zn1 tau(   1) = (   0.0000000   0.0000000  10.0000000  )
         2           Zn1 tau(   2) = (   4.5224466   2.6714319  10.0000000  )
         3           Cd1 tau(   3) = (   3.0502374   0.0000000  10.0000000  )
         4           Cd1 tau(   4) = (   1.4722092   2.6714319  10.0000000  )
         5           Zn1 tau(   5) = (   6.1004748   3.6035810  12.5035267  )
         6           Zn1 tau(   6) = (   1.5780282   0.9321492  12.5035267  )
         7           Cd1 tau(   7) = (   3.0502374   3.6035810  12.5035267  )
         8           Cd1 tau(   8) = (   4.6282656   0.9321492  12.5035267  )
         9           Zn1 tau(   9) = (   3.1380925   1.8536981  15.0180763  )
        10           Zn1 tau(  10) = (   7.6604895   4.5251209  15.0180539  )
        11           Cd1 tau(  11) = (   6.2118816   1.8675931  15.2824757  )
        12           Cd1 tau(  12) = (   4.6338616   4.5390590  15.2824249  )

     number of k points=    20  Fermi-Dirac smearing, width (Ry)=  0.0110
                       cart. coord. in units 2pi/alat
        k(    1) = (   0.0000000   0.0000000   0.0000000), wk =   0.0555556
        k(    2) = (   0.0000000   0.0311943   0.0000000), wk =   0.1111111
        k(    3) = (   0.0000000   0.0623885   0.0000000), wk =   0.1111111
        k(    4) = (   0.0000000  -0.0935828   0.0000000), wk =   0.0555556
        k(    5) = (   0.0273203  -0.0150560   0.0000000), wk =   0.1111111
        k(    6) = (   0.0273203   0.0161382   0.0000000), wk =   0.1111111
        k(    7) = (   0.0273203   0.0473325   0.0000000), wk =   0.1111111
        k(    8) = (   0.0273203  -0.1086388   0.0000000), wk =   0.1111111
        k(    9) = (   0.0273203  -0.0774445   0.0000000), wk =   0.1111111
        k(   10) = (   0.0273203  -0.0462503   0.0000000), wk =   0.1111111
        k(   11) = (   0.0546406  -0.0301121   0.0000000), wk =   0.1111111
        k(   12) = (   0.0546406   0.0010822   0.0000000), wk =   0.1111111
        k(   13) = (   0.0546406   0.0322765   0.0000000), wk =   0.1111111
        k(   14) = (   0.0546406  -0.1236948   0.0000000), wk =   0.1111111
        k(   15) = (   0.0546406  -0.0925006   0.0000000), wk =   0.1111111
        k(   16) = (   0.0546406  -0.0613063   0.0000000), wk =   0.1111111
        k(   17) = (  -0.0819608   0.0451681   0.0000000), wk =   0.0555556
        k(   18) = (  -0.0819608   0.0763624   0.0000000), wk =   0.1111111
        k(   19) = (  -0.0819608   0.1075566   0.0000000), wk =   0.1111111
        k(   20) = (  -0.0819608  -0.0484147   0.0000000), wk =   0.0555556

     Largest allocated arrays     est. size (Mb)     dimensions
     Largest temporary arrays     est. size (Mb)     dimensions

     Initial potential from superposition of free atoms
     Check: negative starting charge=   -0.131604

     starting charge  188.99891, renormalised to  192.00000

[...]

     *
     * You are using vdW-DF for exchange-correlation in this calculation.
     * Please cite the following three references that made this development
     * possible:
     *
     *   M. Dion, H. Rydberg, E. Schroder, D. C. Langreth, and
     *   B. I. Lundqvist, Phys. Rev. Lett. 92, 246401 (2004).
     *
     *   T. Thonhauser, V. R. Cooper, S. Li, A. Puzder, P. Hyldgaard, and
     *   D. C. Langreth, Phys. Rev. B 76, 125112 (2007).
     *
     *   G. Roman-Perez and J. M. Soler, Phys. Rev. Lett. 103, 096102 (2009).
     *
     *
     * If you are using vdW-DF2, please also cite:
     *
     *   K. Lee, E. D. Murray, L. Kong, B. I. Lundqvist, and
     *   D. C. Langreth, Phys. Rev. B 82, 081101(R) (2010).
     *
     *
     * If you are calculating the stress with vdW-DF, please also cite:
     *
     *   R. Sabatini, E. Kucukbenli, B. Kolb, T. Thonhauser, and
     *   S. de Gironcoli, J. Phys.: Condens. Matter 24, 424209 (2012).
     *

     Carrying out vdW-DF run using the following parameters:

     Nqs =      20    Nr_points =    1024   r_max =   100.000
     q_mesh =
               0.00001000     0.04494208     0.09755937     0.15916263
               0.23128650     0.31572767     0.41458969     0.53033537
               0.66584808     0.82450364     1.01025438     1.22772762
               1.48234092     1.78043706     2.12944203     2.53805004
               3.01644009     3.57652955     4.23227104     5.00000000

     Gradients computed in reciprocal space

[...]

     Starting wfc are  132 randomized atomic wfcs

     Self-consistent Calculation

[...]

     total energy              =   -3473.08153399 Ry
     Harris-Foulkes estimate   =   -3473.08153661 Ry
     estimated scf accuracy    <       0.00000395 Ry

     iteration # 14     ecut=    36.75 Ry     beta=0.10
     Davidson diagonalization with overlap
     ethr =  2.06E-09,  avg # of iterations =  3.3

[...]

     negative rho (up, down):  1.358E-01 0.000E+00

     Adding external electric field

     Computed dipole along edir(3) :
        Dipole                0.0140 Ry au,          0.0357 Debye
        Dipole field          0.0000 Ry au

        Potential amp.       -0.0030 Ry
        Total length         46.0751 bohr

     End of self-consistent calculation

[...]

          k = 0.0546-0.0613 0.0000 ( 20694 PWs)   bands (ev):

[...]

          k =-0.0820-0.0484 0.0000 ( 20716 PWs)   bands (ev):

  -126.2663-126.2662-126.1503-126.1502-126.1326-126.1325 -80.4523 -80.4522
   -80.4444 -80.4439 -80.4439 -80.4422 -80.3429 -80.3427 -80.3266 -80.3266
   -80.3258 -80.3237 -80.3236 -80.3235 -80.3095 -80.3095 -80.3087 -80.3065
    -9.2544  -9.1258  -9.0882  -9.0555  -8.9962  -8.9295  -8.9079  -8.9023
    -8.8930  -8.8696  -8.8116  -8.7735  -8.6901  -8.6734  -8.6370  -8.6016
    -8.5943  -8.5654  -8.5648  -8.5442  -8.5432  -8.5233  -8.4896  -8.4262
    -8.4088  -8.3909  -8.3238  -8.3118  -8.2283  -8.1114  -7.3457  -7.2909
    -7.2455  -7.2402  -7.2287  -7.2146  -7.2109  -7.1949  -7.1948  -7.1449
    -7.1169  -7.0904  -7.0757  -7.0663  -7.0640  -7.0558  -7.0512  -7.0430
    -7.0215  -7.0193  -7.0165  -6.9933  -6.9863  -6.9564  -6.9396  -6.9256
    -6.9091  -6.8950  -6.8513  -6.8182  -6.2409  -6.1319  -4.7532  -4.5597
    -3.5410  -3.0185  -2.4904  -2.3104  -2.0511  -1.6167  -0.1325   0.5527
     0.8256   0.8732   2.0285   2.6487   2.7569   2.9491   3.3108   3.3268
     3.4135   3.6791   3.8864   4.4234   4.4589   4.5798   4.8155   4.8326
     5.3778   5.4394   5.6791   5.6870   5.8803   5.9762   5.9909   6.1092
     6.2097   6.2671   6.3550   6.4269   6.4278   6.5805

     the Fermi energy is     0.2484 ev

!    total energy              =   -3473.08153134 Ry
     Harris-Foulkes estimate   =   -3473.08153478 Ry
     estimated scf accuracy    <       0.00000079 Ry

     The total energy is the sum of the following terms:

     one-electron contribution =  -18287.36011902 Ry
     hartree contribution      =    9178.62793094 Ry
     xc contribution           =    -504.90003496 Ry
     ewald contribution        =    6140.57957435 Ry
     electric field correction =       0.00000045 Ry
     smearing contrib. (-TS)   =      -0.02888310 Ry

     convergence has been achieved in  14 iterations

 BEEF-vdW xc energy contributions
           1 :   -445.608013398479
           2 :    405.347770805674
           3 :   -337.803598889284
           4 :    262.629097513797
           5 :   -197.384967791647
           6 :    151.010160011958
           7 :   -122.483799780450
           8 :    104.495937818798
           9 :   -89.2710423701985
          10 :    72.9492757003036
          11 :   -56.4038970930111
          12 :    42.8793179216115
          13 :   -34.6990510132666
          14 :    31.4154568495706
          15 :   -30.3492198017261
          16 :    28.6640075165807
          17 :   -25.2243293084171
          18 :    20.9466620034403
          19 :   -17.6455794902818
          20 :    16.4518446140476
          21 :   -17.0164636135354
          22 :    17.9513423105582
          23 :   -17.9832699043189
          24 :    16.8476956171095
          25 :   -15.2896694460460
          26 :    14.3044867056282
          27 :   -14.3114883051846
          28 :    14.9077561534064
          29 :   -15.3121948073410
          30 :    15.0542143452002
          31 :   -37.1105417264024
          32 :   -26.1345855150392

     Forces acting on atoms (Ry/au):

     negative rho (up, down):  1.358E-01 0.000E+00
     atom    1 type  1   force =     0.00237797    0.00140661   -0.00226704
     atom    2 type  1   force =     0.00238264    0.00140584   -0.00227002
     atom    3 type  2   force =    -0.00249749   -0.00147660   -0.01068474
     atom    4 type  2   force =    -0.00250052   -0.00147847   -0.01068258
     atom    5 type  1   force =    -0.00207203   -0.00122346    0.00551036
     atom    6 type  1   force =    -0.00207465   -0.00122544    0.00551251
     atom    7 type  2   force =     0.00352893    0.00208454    0.00773261
     atom    8 type  2   force =     0.00353024    0.00208359    0.00773388
     atom    9 type  1   force =    -0.00031750   -0.00018639    0.00002127
     atom   10 type  1   force =    -0.00031723   -0.00018673    0.00001951
     atom   11 type  2   force =    -0.00101945   -0.00060057   -0.00031266
     atom   12 type  2   force =    -0.00102092   -0.00060291   -0.00031311

     Total force =     0.022351     Total SCF correction =     0.003194
     SCF correction compared to forces is large: reduce conv_thr to get better values

     entering subroutine stress ...

     negative rho (up, down):  1.358E-01 0.000E+00
          total   stress  (Ry/bohr**3)                   (kbar)     P=  -13.44
  -0.00013015  -0.00001004  -0.00000239        -19.15     -1.48     -0.35
  -0.00001004  -0.00011908  -0.00000141         -1.48    -17.52     -0.21
  -0.00000239  -0.00000141  -0.00002492         -0.35     -0.21     -3.67

 !ASE

     Writing output data file calc.save

     General routines

     Parallel routines

   This run was terminated on:   6:42:27  25Dec2018

   JOB DONE.
Job  /afs/slac/g/suncat/bin/suncat-tsmpirun -x LD_LIBRARY_PATH -wdir /scratch/qe109205_EzZrX pw.x -in pw.inp

TID   HOST_NAME   COMMAND_LINE            STATUS            TERMINATION_TIME
00000 suncat0169 pw.x -in pw.inp   Done                     12/25/2018 06:42:27
00001 suncat0169 pw.x -in pw.inp   Done                     12/25/2018 06:42:27
00002 suncat0169 pw.x -in pw.inp   Done                     12/25/2018 06:42:27
00003 suncat0169 pw.x -in pw.inp   Done                     12/25/2018 06:42:27
00004 suncat0169 pw.x -in pw.inp   Done                     12/25/2018 06:42:27
00005 suncat0169 pw.x -in pw.inp   Done                     12/25/2018 06:42:27
00006 suncat0169 pw.x -in pw.inp   Done                     12/25/2018 06:42:27
00007 suncat0169 pw.x -in pw.inp   Done                     12/25/2018 06:42:27
00008 suncat0168 pw.x -in pw.inp   Done                     12/25/2018 06:42:27
00009 suncat0168 pw.x -in pw.inp   Done                     12/25/2018 06:42:27
00010 suncat0168 pw.x -in pw.inp   Done                     12/25/2018 06:42:27
00011 suncat0168 pw.x -in pw.inp   Done                     12/25/2018 06:42:27
00012 suncat0168 pw.x -in pw.inp   Done                     12/25/2018 06:42:27
00013 suncat0168 pw.x -in pw.inp   Done                     12/25/2018 06:42:27
00014 suncat0168 pw.x -in pw.inp   Done                     12/25/2018 06:42:27
00015 suncat0168 pw.x -in pw.inp   Done                     12/25/2018 06:42:27
00016 suncat0110 pw.x -in pw.inp   Done                     12/25/2018 06:42:27
00017 suncat0110 pw.x -in pw.inp   Done                     12/25/2018 06:42:27
00018 suncat0110 pw.x -in pw.inp   Done                     12/25/2018 06:42:27
00019 suncat0110 pw.x -in pw.inp   Done                     12/25/2018 06:42:27
00020 suncat0110 pw.x -in pw.inp   Done                     12/25/2018 06:42:27
00021 suncat0110 pw.x -in pw.inp   Done                     12/25/2018 06:42:27
00022 suncat0110 pw.x -in pw.inp   Done                     12/25/2018 06:42:27
00023 suncat0110 pw.x -in pw.inp   Done                     12/25/2018 06:42:27
00024 suncat0109 pw.x -in pw.inp   Done                     12/25/2018 06:42:27
00025 suncat0109 pw.x -in pw.inp   Done                     12/25/2018 06:42:27
00026 suncat0109 pw.x -in pw.inp   Done                     12/25/2018 06:42:27
00027 suncat0109 pw.x -in pw.inp   Done                     12/25/2018 06:42:27
00028 suncat0109 pw.x -in pw.inp   Done                     12/25/2018 06:42:27
00029 suncat0109 pw.x -in pw.inp   Done                     12/25/2018 06:42:27
00030 suncat0109 pw.x -in pw.inp   Done                     12/25/2018 06:42:27
00031 suncat0109 pw.x -in pw.inp   Done                     12/25/2018 06:42:27
00032 suncat0277 pw.x -in pw.inp   Done                     12/25/2018 06:42:27
00033 suncat0277 pw.x -in pw.inp   Done                     12/25/2018 06:42:27
00034 suncat0277 pw.x -in pw.inp   Done                     12/25/2018 06:42:27
00035 suncat0277 pw.x -in pw.inp   Done                     12/25/2018 06:42:27
00036 suncat0277 pw.x -in pw.inp   Done                     12/25/2018 06:42:27
00037 suncat0277 pw.x -in pw.inp   Done                     12/25/2018 06:42:27
00038 suncat0277 pw.x -in pw.inp   Done                     12/25/2018 06:42:27
00039 suncat0277 pw.x -in pw.inp   Done                     12/25/2018 06:42:27
00040 suncat0276 pw.x -in pw.inp   Done                     12/25/2018 06:42:27
00041 suncat0276 pw.x -in pw.inp   Done                     12/25/2018 06:42:27
00042 suncat0276 pw.x -in pw.inp   Done                     12/25/2018 06:42:27
00043 suncat0276 pw.x -in pw.inp   Done                     12/25/2018 06:42:27
00044 suncat0276 pw.x -in pw.inp   Done                     12/25/2018 06:42:27
00045 suncat0276 pw.x -in pw.inp   Done                     12/25/2018 06:42:27
00046 suncat0276 pw.x -in pw.inp   Done                     12/25/2018 06:42:27
00047 suncat0276 pw.x -in pw.inp   Done                     12/25/2018 06:42:27
00048 suncat0274 pw.x -in pw.inp   Done                     12/25/2018 06:42:27
00049 suncat0274 pw.x -in pw.inp   Done                     12/25/2018 06:42:27
00050 suncat0274 pw.x -in pw.inp   Done                     12/25/2018 06:42:27
00051 suncat0274 pw.x -in pw.inp   Done                     12/25/2018 06:42:27
00052 suncat0274 pw.x -in pw.inp   Done                     12/25/2018 06:42:27
00053 suncat0274 pw.x -in pw.inp   Done                     12/25/2018 06:42:27
00054 suncat0274 pw.x -in pw.inp   Done                     12/25/2018 06:42:27
00055 suncat0274 pw.x -in pw.inp   Done                     12/25/2018 06:42:27
00056 suncat0273 pw.x -in pw.inp   Done                     12/25/2018 06:42:27
00057 suncat0273 pw.x -in pw.inp   Done                     12/25/2018 06:42:27
00058 suncat0273 pw.x -in pw.inp   Done                     12/25/2018 06:42:27
00059 suncat0273 pw.x -in pw.inp   Done                     12/25/2018 06:42:27
00060 suncat0273 pw.x -in pw.inp   Done                     12/25/2018 06:42:27
00061 suncat0273 pw.x -in pw.inp   Done                     12/25/2018 06:42:27
00062 suncat0273 pw.x -in pw.inp   Done                     12/25/2018 06:42:27
00063 suncat0273 pw.x -in pw.inp   Done                     12/25/2018 06:42:27