     Program PWSCF v.5.1rc2 (svn rev. 11289) starts on 18Dec2018 at 16:49:45

     Current dimensions of program PWSCF are:
     Max number of different atomic species (ntypx) = 10
     Max number of k-points (npk) =  40000
     Max angular momentum in pseudopotentials (lmaxx) =  3
     Presently stress not available with electric field

     IMPORTANT: XC functional enforced from input :
     Exchange-correlation      = BEEF-VDW ( 1  4 27 13 2)
     Any further DFT definition will be discarded
     Please, verify this is what you really want

     Subspace diagonalization in iterative solution of the eigenvalue problem:
     a serial algorithm will be used

     Found symmetry operation: I + ( -0.5000  0.0000  0.0000)
     This is a supercell, fractional translations are disabled

     bravais-lattice index     =            0
     lattice parameter (alat)  =       1.8897  a.u.
     unit-cell volume          =    5391.6665 (a.u.)^3
     number of atoms/cell      =           12
     number of atomic types    =            2
     number of electrons       =       186.00
     number of Kohn-Sham states=          123
     kinetic-energy cutoff     =      36.7493  Ry
     charge density cutoff     =     367.4932  Ry
     convergence threshold     =      1.0E-06
     mixing beta               =       0.1000
     number of iterations used =           10  plain     mixing
     Exchange-correlation      = BEEF-VDW ( 1  4 27 13 2)
     nstep                     =           50

     celldm(1)=   1.889726  celldm(2)=   0.000000  celldm(3)=   0.000000
     celldm(4)=   0.000000  celldm(5)=   0.000000  celldm(6)=   0.000000

     crystal axes: (cart. coord. in units of alat)
               a(1) = (   6.016366   0.000000   0.000000 )
               a(2) = (  -3.008183   5.319974   0.000000 )
               a(3) = (   0.000000   0.000000  24.962191 )

     reciprocal axes: (cart. coord. in units 2 pi/alat)
               b(1) = (  0.166213  0.093985  0.000000 )
               b(2) = (  0.000000  0.187971  0.000000 )
               b(3) = (  0.000000  0.000000  0.040061 )

     PseudoPot. # 1 for Ag read from file:
     /afs/slac.stanford.edu/u/if/mamunm/psp/gbrv1.5pbe/Ag.UPF
     MD5 check sum: d66d668201baa78d5eb5b04ef7011058
     Pseudo is Ultrasoft + core correction, Zval = 19.0
     Generated by new atomic code, or converted to UPF format
     Using radial grid of  887 points,  6 beta functions with:
                l(1) =   0
                l(2) =   0
                l(3) =   1
                l(4) =   1
                l(5) =   2
                l(6) =   2
     Q(r) pseudized with  6 coefficients,  rinner =    1.300   1.300   1.300
                                                       1.300   1.300

     PseudoPot. # 2 for Hf read from file:
     /afs/slac.stanford.edu/u/if/mamunm/psp/gbrv1.5pbe/Hf.UPF
     MD5 check sum: 8ee9378dfe14276e333edf04c5e4aa26
     Pseudo is Ultrasoft + core correction, Zval = 12.0
     Generated by new atomic code, or converted to UPF format
     Using radial grid of  921 points,  8 beta functions with:
                l(1) =   0
                l(2) =   0
                l(3) =   0
                l(4) =   1
                l(5) =   1
                l(6) =   2
                l(7) =   2
                l(8) =   3
     Q(r) pseudized with  6 coefficients,  rinner =    1.200   1.200   1.200
                                                       1.200   1.200   1.200
                                                       1.200

     vdW kernel table read from file vdW_kernel_table
     MD5 check sum: 095c7af220d748ca6e76c0b4c6cfb241

     atomic species   valence    mass     pseudopotential
        Ag1           19.00   107.86820     Ag( 1.00)
        Hf1           12.00   178.49000     Hf( 1.00)

     No symmetry found

   Cartesian axes

     site n.     atom                  positions (alat units)
         1           Ag1 tau(   1) = (   0.0000000   0.0000000  10.0000000  )
         2           Ag1 tau(   2) = (   3.0081830   0.0000000  10.0000000  )
         3           Hf1 tau(   3) = (   1.5040915   2.6599868  10.0000000  )
         4           Hf1 tau(   4) = (  -1.5040915   2.6599868  10.0000000  )
         5           Ag1 tau(   5) = (   3.0081830   1.7009793  12.4810954  )
         6           Ag1 tau(   6) = (   0.0000000   1.7009793  12.4810954  )
         7           Hf1 tau(   7) = (  -1.5040915   4.3609661  12.4810954  )
         8           Hf1 tau(   8) = (   1.5040915   4.3609661  12.4810954  )
         9           Ag1 tau(   9) = (   0.0000000   3.4019586  14.9621908  )
        10           Ag1 tau(  10) = (   3.0081830   3.4019586  14.9621908  )
        11           Hf1 tau(  11) = (   4.5122745   0.7419718  14.9621908  )
        12           Hf1 tau(  12) = (   1.5040915   0.7419718  14.9621908  )

     number of k points=    20  Fermi-Dirac smearing, width (Ry)=  0.0110
                       cart. coord. in units 2pi/alat
        k(    1) = (   0.0000000   0.0000000   0.0000000), wk =   0.0555556
        k(    2) = (   0.0000000   0.0313285   0.0000000), wk =   0.1111111
        k(    3) = (   0.0000000   0.0626570   0.0000000), wk =   0.1111111
        k(    4) = (   0.0000000  -0.0939854   0.0000000), wk =   0.0555556
        k(    5) = (   0.0277022   0.0156642   0.0000000), wk =   0.1111111
        k(    6) = (   0.0277022   0.0469927   0.0000000), wk =   0.1111111
        k(    7) = (   0.0277022   0.0783212   0.0000000), wk =   0.1111111
        k(    8) = (   0.0277022  -0.0783212   0.0000000), wk =   0.1111111
        k(    9) = (   0.0277022  -0.0469927   0.0000000), wk =   0.1111111
        k(   10) = (   0.0277022  -0.0156642   0.0000000), wk =   0.1111111
        k(   11) = (   0.0554044   0.0313285   0.0000000), wk =   0.1111111
        k(   12) = (   0.0554044   0.0626570   0.0000000), wk =   0.1111111
        k(   13) = (   0.0554044   0.0939854   0.0000000), wk =   0.1111111
        k(   14) = (   0.0554044  -0.0626570   0.0000000), wk =   0.1111111
        k(   15) = (   0.0554044  -0.0313285   0.0000000), wk =   0.1111111
        k(   16) = (   0.0554044   0.0000000   0.0000000), wk =   0.1111111
        k(   17) = (  -0.0831066  -0.0469927   0.0000000), wk =   0.0555556
        k(   18) = (  -0.0831066  -0.0156642   0.0000000), wk =   0.1111111
        k(   19) = (  -0.0831066   0.0156642   0.0000000), wk =   0.1111111
        k(   20) = (  -0.0831066  -0.1409781   0.0000000), wk =   0.0555556

     Largest allocated arrays     est. size (Mb)     dimensions
     Largest temporary arrays     est. size (Mb)     dimensions

     Check: negative/imaginary core charge=   -0.000003    0.000000

     Initial potential from superposition of free atoms
     Check: negative starting charge=   -0.648072

     starting charge  170.99970, renormalised to  186.00000

     negative rho (up, down):  7.049E-01 0.000E+00

     *
     * You are using vdW-DF for exchange-correlation in this calculation.
     * Please cite the following three references that made this development
     * possible:
     *
     *   M. Dion, H. Rydberg, E. Schroder, D. C. Langreth, and
     *   B. I. Lundqvist, Phys. Rev. Lett. 92, 246401 (2004).
     *
     *   T. Thonhauser, V. R. Cooper, S. Li, A. Puzder, P. Hyldgaard, and
     *   D. C. Langreth, Phys. Rev. B 76, 125112 (2007).
     *
     *   G. Roman-Perez and J. M. Soler, Phys. Rev. Lett. 103, 096102 (2009).
     *
     *
     * If you are using vdW-DF2, please also cite:
     *
     *   K. Lee, E. D. Murray, L. Kong, B. I. Lundqvist, and
     *   D. C. Langreth, Phys. Rev. B 82, 081101(R) (2010).
     *
     *
     * If you are calculating the stress with vdW-DF, please also cite:
     *
     *   R. Sabatini, E. Kucukbenli, B. Kolb, T. Thonhauser, and
     *   S. de Gironcoli, J. Phys.: Condens. Matter 24, 424209 (2012).
     *

     Carrying out vdW-DF run using the following parameters:

     Nqs =      20    Nr_points =    1024   r_max =   100.000
     q_mesh =
               0.00001000     0.04494208     0.09755937     0.15916263
               0.23128650     0.31572767     0.41458969     0.53033537
               0.66584808     0.82450364     1.01025438     1.22772762
               1.48234092     1.78043706     2.12944203     2.53805004
               3.01644009     3.57652955     4.23227104     5.00000000

     Gradients computed in reciprocal space

     Adding external electric field

     Computed dipole along edir(3) :
        Dipole                0.0000 Ry au,          0.0000 Debye
        Dipole field          0.0000 Ry au

        Potential amp.       -0.0000 Ry
        Total length         45.9924 bohr

     Starting wfc are  156 randomized atomic wfcs

     Self-consistent Calculation

     iteration #  1     ecut=    36.75 Ry     beta=0.10
     Davidson diagonalization with overlap
     ethr =  1.00E-02,  avg # of iterations =  7.5

[...]

     total energy              =   -2684.46727403 Ry
     Harris-Foulkes estimate   =   -2786.50083858 Ry
     estimated scf accuracy    <     571.76665010 Ry

[...]

     End of self-consistent calculation

          k = 0.0000 0.0000 0.0000 ( 20227 PWs)   bands (ev):

   -90.8416 -90.8385 -90.7399 -90.7391 -90.7369 -90.7360 -61.2420 -61.2414
   -61.2052 -61.2047 -60.8131 -60.7754 -54.3270 -54.3227 -54.3166 -54.3074
   -54.3031 -54.2667 -54.2578 -54.2561 -54.2534 -54.2517 -54.2228 -54.2220
   -54.1741 -54.1728 -54.1721 -54.1720 -54.1700 -54.1680 -29.9128 -29.9009
   -29.8986 -29.8890 -29.8417 -29.8249 -29.8193 -29.7650 -29.7533 -29.6958
   -29.6128 -29.4862 -29.4132 -29.2688 -29.2674 -29.1875 -29.1215 -28.9702
    -5.2004  -4.1299  -4.1237  -4.1027  -4.0538  -3.9738  -3.8236  -3.8231
    -3.7951  -3.7373  -3.7346  -3.6987  -3.5671  -3.3696  -3.3329  -3.2797
    -3.1302  -3.0116  -2.9885  -2.9713  -2.9405  -2.8319  -2.8066  -2.7350
    -2.6852  -2.6521  -2.6152  -2.5913  -2.4869  -2.4243  -2.2886  -1.8915
    -0.8337   0.1154   0.2432   0.2698   0.3941   0.5923   0.8673   1.0820
     1.1020   1.2120   1.2692   1.5850   1.9091   1.9590   2.1290   2.3669
     2.3969   2.6645   2.8115   2.9657   3.0221   3.0511   3.5237   3.7710
     4.0649   4.1510   4.4413   4.4733   4.5070   5.0171   5.1037   5.1458
     5.2571   5.3559   5.4365   5.5206   5.5948   5.6279   5.7627   5.8253
     5.9217   5.9516   6.6724

[...]

          k =-0.0831-0.0470 0.0000 ( 20316 PWs)   bands (ev):

[...]

     the Fermi energy is     1.7599 ev

!    total energy              =   -2743.10641964 Ry
     Harris-Foulkes estimate   =   -2743.10641847 Ry
     estimated scf accuracy    <       0.00000073 Ry

     The total energy is the sum of the following terms:

     one-electron contribution =  -16269.84593662 Ry
     hartree contribution      =    8121.52564983 Ry
     xc contribution           =    -644.12053091 Ry
     ewald contribution        =    6049.40641808 Ry
     electric field correction =       0.00000005 Ry
     smearing contrib. (-TS)   =      -0.07202008 Ry

     convergence has been achieved in  19 iterations

 BEEF-vdW xc energy contributions
           1 :   -575.890307803468
           2 :    531.935638316438
           3 :   -455.222427324707
[...]

[...]

   This run was terminated on:  19: 5:27  18Dec2018

[...]

     Program PWSCF v.5.1rc2 (svn rev. 11289) starts on 18Dec2018 at 19: 5:34

[...]

     Program PWSCF v.5.1rc2 (svn rev. 11289) starts on 18Dec2018 at 19:51:31

     Current dimensions of program PWSCF are:
     Max number of different atomic species (ntypx) = 10
     Max number of k-points (npk) =  40000
     Max angular momentum in pseudopotentials (lmaxx) =  3
     Presently stress not available with electric field

     IMPORTANT: XC functional enforced from input :
     Exchange-correlation      = BEEF-VDW ( 1  4 27 13 2)
     Any further DFT definition will be discarded
     Please, verify this is what you really want

     Subspace diagonalization in iterative solution of the eigenvalue problem:
     a serial algorithm will be used

     Found symmetry operation: I + ( -0.5000  0.0000  0.0000)
     This is a supercell, fractional translations are disabled

     bravais-lattice index     =            0
     lattice parameter (alat)  =       1.8897  a.u.
     unit-cell volume          =    5391.6665 (a.u.)^3
     number of atoms/cell      =           12
     number of atomic types    =            2
     number of electrons       =       186.00
     number of Kohn-Sham states=          123
     kinetic-energy cutoff     =      36.7493  Ry
     charge density cutoff     =     367.4932  Ry
     convergence threshold     =      1.0E-06
     mixing beta               =       0.1000
     number of iterations used =           10  plain     mixing
     Exchange-correlation      = BEEF-VDW ( 1  4 27 13 2)
     nstep                     =           50

     celldm(1)=   1.889726  celldm(2)=   0.000000  celldm(3)=   0.000000
     celldm(4)=   0.000000  celldm(5)=   0.000000  celldm(6)=   0.000000

     crystal axes: (cart. coord. in units of alat)
               a(1) = (   6.016366   0.000000   0.000000 )
               a(2) = (  -3.008183   5.319974   0.000000 )
               a(3) = (   0.000000   0.000000  24.962191 )

     reciprocal axes: (cart. coord. in units 2 pi/alat)
               b(1) = (  0.166213  0.093985  0.000000 )
               b(2) = (  0.000000  0.187971  0.000000 )
               b(3) = (  0.000000  0.000000  0.040061 )

     PseudoPot. # 1 for Ag read from file:
     /afs/slac.stanford.edu/u/if/mamunm/psp/gbrv1.5pbe/Ag.UPF
     MD5 check sum: d66d668201baa78d5eb5b04ef7011058
     Pseudo is Ultrasoft + core correction, Zval = 19.0
     Generated by new atomic code, or converted to UPF format
     Using radial grid of  887 points,  6 beta functions with:
                l(1) =   0
                l(2) =   0
                l(3) =   1
                l(4) =   1
                l(5) =   2
                l(6) =   2
     Q(r) pseudized with  6 coefficients,  rinner =    1.300   1.300   1.300
                                                       1.300   1.300

     PseudoPot. # 2 for Hf read from file:
     /afs/slac.stanford.edu/u/if/mamunm/psp/gbrv1.5pbe/Hf.UPF
     MD5 check sum: 8ee9378dfe14276e333edf04c5e4aa26
     Pseudo is Ultrasoft + core correction, Zval = 12.0
     Generated by new atomic code, or converted to UPF format
     Using radial grid of  921 points,  8 beta functions with:
                l(1) =   0
                l(2) =   0
                l(3) =   0
                l(4) =   1
                l(5) =   1
                l(6) =   2
                l(7) =   2
                l(8) =   3
     Q(r) pseudized with  6 coefficients,  rinner =    1.200   1.200   1.200
                                                       1.200   1.200   1.200
                                                       1.200

     vdW kernel table read from file vdW_kernel_table
     MD5 check sum: 095c7af220d748ca6e76c0b4c6cfb241

     atomic species   valence    mass     pseudopotential
        Ag1           19.00   107.86820     Ag( 1.00)
        Hf1           12.00   178.49000     Hf( 1.00)

     No symmetry found

   Cartesian axes

     site n.     atom                  positions (alat units)
         1           Ag1 tau(   1) = (   0.0000000   0.0000000  10.0000000  )
         2           Ag1 tau(   2) = (   3.0081830   0.0000000  10.0000000  )
         3           Hf1 tau(   3) = (   1.5040915   2.6599868  10.0000000  )
         4           Hf1 tau(   4) = (  -1.5040915   2.6599868  10.0000000  )
         5           Ag1 tau(   5) = (   3.0081830   1.7009793  12.4810954  )
         6           Ag1 tau(   6) = (   0.0000000   1.7009793  12.4810954  )
         7           Hf1 tau(   7) = (  -1.5040915   4.3609661  12.4810954  )
         8           Hf1 tau(   8) = (   1.5040915   4.3609661  12.4810954  )
         9           Ag1 tau(   9) = (   0.0000035   3.4886659  15.0061479  )
        10           Ag1 tau(  10) = (   3.0081772   3.4886631  15.0061464  )
        11           Hf1 tau(  11) = (   4.5122717   0.8295712  14.8509347  )
        12           Hf1 tau(  12) = (   1.5040918   0.8295604  14.8509198  )

     number of k points=    20  Fermi-Dirac smearing, width (Ry)=  0.0110
                       cart. coord. in units 2pi/alat
        k(    1) = (   0.0000000   0.0000000   0.0000000), wk =   0.0555556
        k(    2) = (   0.0000000   0.0313285   0.0000000), wk =   0.1111111
        k(    3) = (   0.0000000   0.0626570   0.0000000), wk =   0.1111111
        k(    4) = (   0.0000000  -0.0939854   0.0000000), wk =   0.0555556
        k(    5) = (   0.0277022   0.0156642   0.0000000), wk =   0.1111111
        k(    6) = (   0.0277022   0.0469927   0.0000000), wk =   0.1111111
        k(    7) = (   0.0277022   0.0783212   0.0000000), wk =   0.1111111
        k(    8) = (   0.0277022  -0.0783212   0.0000000), wk =   0.1111111
        k(    9) = (   0.0277022  -0.0469927   0.0000000), wk =   0.1111111
        k(   10) = (   0.0277022  -0.0156642   0.0000000), wk =   0.1111111
        k(   11) = (   0.0554044   0.0313285   0.0000000), wk =   0.1111111
        k(   12) = (   0.0554044   0.0626570   0.0000000), wk =   0.1111111
        k(   13) = (   0.0554044   0.0939854   0.0000000), wk =   0.1111111
        k(   14) = (   0.0554044  -0.0626570   0.0000000), wk =   0.1111111
        k(   15) = (   0.0554044  -0.0313285   0.0000000), wk =   0.1111111
        k(   16) = (   0.0554044   0.0000000   0.0000000), wk =   0.1111111
        k(   17) = (  -0.0831066  -0.0469927   0.0000000), wk =   0.0555556
        k(   18) = (  -0.0831066  -0.0156642   0.0000000), wk =   0.1111111
        k(   19) = (  -0.0831066   0.0156642   0.0000000), wk =   0.1111111
        k(   20) = (  -0.0831066  -0.1409781   0.0000000), wk =   0.0555556

     Largest allocated arrays     est. size (Mb)     dimensions
     Largest temporary arrays     est. size (Mb)     dimensions

     Check: negative/imaginary core charge=   -0.000003    0.000000

     Initial potential from superposition of free atoms
     Check: negative starting charge=   -0.649495

     starting charge  170.99970, renormalised to  186.00000

[...]

     *
     * You are using vdW-DF for exchange-correlation in this calculation.
     * Please cite the following three references that made this development
     * possible:
     *
     *   M. Dion, H. Rydberg, E. Schroder, D. C. Langreth, and
     *   B. I. Lundqvist, Phys. Rev. Lett. 92, 246401 (2004).
     *
     *   T. Thonhauser, V. R. Cooper, S. Li, A. Puzder, P. Hyldgaard, and
     *   D. C. Langreth, Phys. Rev. B 76, 125112 (2007).
     *
     *   G. Roman-Perez and J. M. Soler, Phys. Rev. Lett. 103, 096102 (2009).
     *
     *
     * If you are using vdW-DF2, please also cite:
     *
     *   K. Lee, E. D. Murray, L. Kong, B. I. Lundqvist, and
     *   D. C. Langreth, Phys. Rev. B 82, 081101(R) (2010).
     *
     *
     * If you are calculating the stress with vdW-DF, please also cite:
     *
     *   R. Sabatini, E. Kucukbenli, B. Kolb, T. Thonhauser, and
     *   S. de Gironcoli, J. Phys.: Condens. Matter 24, 424209 (2012).
     *

     Carrying out vdW-DF run using the following parameters:

     Nqs =      20    Nr_points =    1024   r_max =   100.000
     q_mesh =
               0.00001000     0.04494208     0.09755937     0.15916263
               0.23128650     0.31572767     0.41458969     0.53033537
               0.66584808     0.82450364     1.01025438     1.22772762
               1.48234092     1.78043706     2.12944203     2.53805004
               3.01644009     3.57652955     4.23227104     5.00000000

     Gradients computed in reciprocal space

[...]

     Starting wfc are  156 randomized atomic wfcs

     Self-consistent Calculation

[...]

     total energy              =   -2743.11078592 Ry
     Harris-Foulkes estimate   =   -2743.11078559 Ry
     estimated scf accuracy    <       0.00000241 Ry

     iteration # 21     ecut=    36.75 Ry     beta=0.10
     Davidson diagonalization with overlap
     ethr =  1.29E-09,  avg # of iterations =  2.0

[...]

     negative rho (up, down):  6.845E-01 0.000E+00

     Adding external electric field

     Computed dipole along edir(3) :
        Dipole               -0.0161 Ry au,         -0.0408 Debye
        Dipole field         -0.0000 Ry au

        Potential amp.        0.0034 Ry
        Total length         45.9924 bohr

     End of self-consistent calculation

[...]

          k = 0.0554 0.0000 0.0000 ( 20273 PWs)   bands (ev):

[...]

          k =-0.0831-0.1410 0.0000 ( 20316 PWs)   bands (ev):

   -90.9459 -90.9459 -90.7536 -90.7536 -90.7321 -90.7321 -61.2375 -61.2375
   -61.1788 -61.1788 -60.7909 -60.7909 -54.4335 -54.4335 -54.4058 -54.4058
   -54.3980 -54.3980 -54.2699 -54.2699 -54.2506 -54.2506 -54.2133 -54.2133
   -54.1938 -54.1938 -54.1879 -54.1879 -54.1648 -54.1647 -29.8844 -29.8844
   -29.8324 -29.8324 -29.7880 -29.7880 -29.7149 -29.7149 -29.6075 -29.6075
   -29.5699 -29.5699 -29.4469 -29.4469 -29.3043 -29.3043 -29.1423 -29.1423
    -3.9660  -3.9660  -3.7708  -3.7708  -3.6579  -3.6579  -3.5902  -3.5902
    -3.4230  -3.4230  -3.3535  -3.3535  -3.3214  -3.3214  -3.1529  -3.1529
    -3.0844  -3.0844  -3.0402  -3.0402  -2.9600  -2.9600  -2.9185  -2.9185
    -2.8519  -2.8519  -2.8339  -2.8339  -2.7129  -2.7129  -2.5964  -2.5964
    -1.7255  -1.7255  -0.6735  -0.6735   0.2484   0.2484   0.6001   0.6001
     1.3635   1.3635   1.7290   1.7290   2.0875   2.0875   2.1475   2.1475
     2.5649   2.5649   2.7508   2.7508   2.9212   2.9212   3.0706   3.0707
     3.5215   3.5215   4.1490   4.1490   4.6251   4.6251   4.7057   4.7057
     5.1162   5.1163   5.1569   5.1569   5.8003   5.8004   6.0093   6.0093
     6.4481   6.4482   6.9312

     the Fermi energy is     1.7436 ev

!    total energy              =   -2743.11078718 Ry
     Harris-Foulkes estimate   =   -2743.11078624 Ry
     estimated scf accuracy    <       0.00000056 Ry

     The total energy is the sum of the following terms:

     one-electron contribution =  -16304.44826626 Ry
     hartree contribution      =    8138.68687805 Ry
     xc contribution           =    -644.18380267 Ry
     ewald contribution        =    6066.90540376 Ry
     electric field correction =       0.00000060 Ry
     smearing contrib. (-TS)   =      -0.07100066 Ry

     convergence has been achieved in  21 iterations

 BEEF-vdW xc energy contributions
           1 :   -575.955007003287
           2 :    532.024130878200
           3 :   -455.337972679890
           4 :    363.661934391060
           5 :   -274.836878808384
           6 :    201.288229311486
           7 :   -147.764026664094
           8 :    112.484548965323
           9 :   -90.3298114961818
          10 :    76.0436782090012
          11 :   -66.0529363959668
          12 :    58.5850033200326
          13 :   -52.7698695888640
          14 :    47.7062296686453
          15 :   -42.1862099658941
          16 :    35.1198165279933
          17 :   -26.2189909694722
          18 :    16.3562626656195
          19 :   -7.30064791422762
          20 :   0.942139815817768
          21 :    1.56005524367799
          22 :  -0.265760026083171
          23 :   -3.63206939506142
          24 :    8.34540209997476
          25 :   -12.1705775335812
          26 :    13.9929365849661
          27 :   -13.4699700247460
          28 :    10.9241465607114
          29 :   -7.09477381016393
          30 :    2.89009571161580
          31 :   -45.6623992123129
          32 :   -33.0287827567448

     Forces acting on atoms (Ry/au):

     negative rho (up, down):  6.845E-01 0.000E+00
     atom    1 type  1   force =    -0.00000003   -0.00263795   -0.00466311
     atom    2 type  1   force =     0.00000010   -0.00263805   -0.00466297
     atom    3 type  2   force =     0.00000002   -0.00029625    0.01610933
     atom    4 type  2   force =     0.00000007   -0.00029563    0.01611000
     atom    5 type  1   force =     0.00000051    0.00557419   -0.00883025
     atom    6 type  1   force =    -0.00000062    0.00557427   -0.00882998
     atom    7 type  2   force =    -0.00000001   -0.00266003   -0.00245404
     atom    8 type  2   force =     0.00000003   -0.00265858   -0.00245251
     atom    9 type  1   force =    -0.00000063    0.00051891   -0.00036771
     atom   10 type  1   force =     0.00000061    0.00051931   -0.00036737
     atom   11 type  2   force =     0.00000065   -0.00050038    0.00020345
     atom   12 type  2   force =    -0.00000070   -0.00049981    0.00020514

     Total force =     0.028675     Total SCF correction =     0.002338

     entering subroutine stress ...

     negative rho (up, down):  6.845E-01 0.000E+00
          total   stress  (Ry/bohr**3)                   (kbar)     P=  -11.39
  -0.00008089  -0.00000000   0.00000000        -11.90     -0.00      0.00
  -0.00000000  -0.00010254   0.00000416         -0.00    -15.08      0.61
   0.00000000   0.00000416  -0.00004888          0.00      0.61     -7.19

 !ASE

     Writing output data file calc.save

     General routines

     Parallel routines

   This run was terminated on:  20:14:23  18Dec2018

   JOB DONE.
Job  /afs/slac/g/suncat/bin/suncat-tsmpirun -x LD_LIBRARY_PATH -wdir /scratch/qe529550_NXq90 pw.x -in pw.inp

TID   HOST_NAME   COMMAND_LINE            STATUS            TERMINATION_TIME
00000 suncat0183 pw.x -in pw.inp   Done                     12/18/2018 20:14:23
00001 suncat0183 pw.x -in pw.inp   Done                     12/18/2018 20:14:23
00002 suncat0183 pw.x -in pw.inp   Done                     12/18/2018 20:14:23
00003 suncat0183 pw.x -in pw.inp   Done                     12/18/2018 20:14:23
00004 suncat0183 pw.x -in pw.inp   Done                     12/18/2018 20:14:23
00005 suncat0183 pw.x -in pw.inp   Done                     12/18/2018 20:14:23
00006 suncat0183 pw.x -in pw.inp   Done                     12/18/2018 20:14:23
00007 suncat0183 pw.x -in pw.inp   Done                     12/18/2018 20:14:23
00008 suncat0182 pw.x -in pw.inp   Done                     12/18/2018 20:14:23
00009 suncat0182 pw.x -in pw.inp   Done                     12/18/2018 20:14:23
00010 suncat0182 pw.x -in pw.inp   Done                     12/18/2018 20:14:23
00011 suncat0182 pw.x -in pw.inp   Done                     12/18/2018 20:14:23
00012 suncat0182 pw.x -in pw.inp   Done                     12/18/2018 20:14:23
00013 suncat0182 pw.x -in pw.inp   Done                     12/18/2018 20:14:23
00014 suncat0182 pw.x -in pw.inp   Done                     12/18/2018 20:14:23
00015 suncat0182 pw.x -in pw.inp   Done                     12/18/2018 20:14:23
00016 suncat0181 pw.x -in pw.inp   Done                     12/18/2018 20:14:23
00017 suncat0181 pw.x -in pw.inp   Done                     12/18/2018 20:14:23
00018 suncat0181 pw.x -in pw.inp   Done                     12/18/2018 20:14:23
00019 suncat0181 pw.x -in pw.inp   Done                     12/18/2018 20:14:23
00020 suncat0181 pw.x -in pw.inp   Done                     12/18/2018 20:14:23
00021 suncat0181 pw.x -in pw.inp   Done                     12/18/2018 20:14:23
00022 suncat0181 pw.x -in pw.inp   Done                     12/18/2018 20:14:23
00023 suncat0181 pw.x -in pw.inp   Done                     12/18/2018 20:14:23
00024 suncat0180 pw.x -in pw.inp   Done                     12/18/2018 20:14:23
00025 suncat0180 pw.x -in pw.inp   Done                     12/18/2018 20:14:23
00026 suncat0180 pw.x -in pw.inp   Done                     12/18/2018 20:14:23
00027 suncat0180 pw.x -in pw.inp   Done                     12/18/2018 20:14:23
00028 suncat0180 pw.x -in pw.inp   Done                     12/18/2018 20:14:23
00029 suncat0180 pw.x -in pw.inp   Done                     12/18/2018 20:14:23
00030 suncat0180 pw.x -in pw.inp   Done                     12/18/2018 20:14:23
00031 suncat0180 pw.x -in pw.inp   Done                     12/18/2018 20:14:23