     Program PWSCF v.5.1rc2 (svn rev. 11289) starts on 18Dec2018 at 22: 2: 4

     Current dimensions of program PWSCF are:
     Max number of different atomic species (ntypx) = 10
     Max number of k-points (npk) =  40000
     Max angular momentum in pseudopotentials (lmaxx) =  3
     Presently stress not available with electric field

     IMPORTANT: XC functional enforced from input :
     Exchange-correlation      = BEEF-VDW ( 1  4 27 13 2)
     Any further DFT definition will be discarded
     Please, verify this is what you really want

     Subspace diagonalization in iterative solution of the eigenvalue problem:
     a serial algorithm will be used

     Found symmetry operation: I + ( -0.5000  0.5000  0.0000)
     This is a supercell, fractional translations are disabled

     Generating pointlists ...
     new r_m :   0.4125 (alat units)  0.7795 (a.u.) for type    1
     new r_m :   0.4125 (alat units)  0.7795 (a.u.) for type    2

     bravais-lattice index     =            0
     lattice parameter (alat)  =       1.8897  a.u.
     unit-cell volume          =    4095.0525 (a.u.)^3
     number of atoms/cell      =           12
     number of atomic types    =            2
     number of electrons       =       204.00
     number of Kohn-Sham states=          132
     kinetic-energy cutoff     =      36.7493  Ry
     charge density cutoff     =     367.4932  Ry
     convergence threshold     =      1.0E-06
     mixing beta               =       0.1000
     number of iterations used =           10  plain     mixing
     Exchange-correlation      = BEEF-VDW ( 1  4 27 13 2)
     nstep                     =           50

     celldm(1)=   1.889726  celldm(2)=   0.000000  celldm(3)=   0.000000
     celldm(4)=   0.000000  celldm(5)=   0.000000  celldm(6)=   0.000000

     crystal axes: (cart. coord. in units of alat)
               a(1) = (   5.305451   0.000000   0.000000 )
               a(2) = (   2.474366   4.693114   0.000000 )
               a(3) = (   0.000000   0.000000  24.371343 )

     reciprocal axes: (cart. coord. in units 2 pi/alat)
               b(1) = (  0.188485 -0.099376  0.000000 )
               b(2) = (  0.000000  0.213078  0.000000 )
               b(3) = (  0.000000  0.000000  0.041032 )

     PseudoPot. # 1 for Ni read from file:
     /afs/slac.stanford.edu/u/if/mamunm/psp/gbrv1.5pbe/Ni.UPF
     MD5 check sum: 1ee80287db30b12d2bc1f57a5b5d6409
     Pseudo is Ultrasoft + core correction, Zval = 18.0
     Generated by new atomic code, or converted to UPF format
     Using radial grid of  865 points,  6 beta functions with:
                l(1) =   0
                l(2) =   0
                l(3) =   1
                l(4) =   1
                l(5) =   2
                l(6) =   2
     Q(r) pseudized with 10 coefficients,  rinner =    0.980   0.980   0.980
                                                       0.980   0.980

     PseudoPot. # 2 for Pd read from file:
     /afs/slac.stanford.edu/u/if/mamunm/psp/gbrv1.5pbe/Pd.UPF
     MD5 check sum: 2d733d2bc2cbfd217af676df1668a4bc
     Pseudo is Ultrasoft + core correction, Zval = 16.0
     Generated by new atomic code, or converted to UPF format
     Using radial grid of  887 points,  6 beta functions with:
                l(1) =   0
                l(2) =   0
                l(3) =   1
                l(4) =   1
                l(5) =   2
                l(6) =   2
     Q(r) pseudized with  8 coefficients,  rinner =    1.130   1.130   1.130
                                                       1.130   1.130

     vdW kernel table read from file vdW_kernel_table
     MD5 check sum: 095c7af220d748ca6e76c0b4c6cfb241

     atomic species   valence    mass     pseudopotential
        Ni1           18.00    58.69340     Ni( 1.00)
        Pd1           16.00   106.42000     Pd( 1.00)

     Starting magnetic structure
     atomic species   magnetization
        Ni1          0.111
        Pd1          0.125

     No symmetry found

   Cartesian axes

     site n.     atom                  positions (alat units)
         1           Ni1 tau(   1) = (   0.0000000   0.0000000  10.0000000  )
         2           Ni1 tau(   2) = (   3.8899083   2.3465571  10.0000000  )
         3           Pd1 tau(   3) = (   2.6527254   0.0000000  10.0000000  )
         4           Pd1 tau(   4) = (   1.2371829   2.3465571  10.0000000  )
         5           Ni1 tau(   5) = (   5.3054507   3.2004722  12.1856714  )
         6           Ni1 tau(   6) = (   1.4155424   0.8539150  12.1856714  )
         7           Pd1 tau(   7) = (   2.6527254   3.2004722  12.1856714  )
         8           Pd1 tau(   8) = (   4.0682678   0.8539150  12.1856714  )
         9           Ni1 tau(   9) = (   2.8310849   1.7078301  14.3713428  )
        10           Ni1 tau(  10) = (   6.7209932   4.0543872  14.3713428  )
        11           Pd1 tau(  11) = (   5.4838103   1.7078301  14.3713428  )
        12           Pd1 tau(  12) = (   4.0682678   4.0543872  14.3713428  )

     number of k points=    40  Fermi-Dirac smearing, width (Ry)=  0.0110
                       cart. coord. in units 2pi/alat
        k(    1) = (   0.0000000   0.0000000   0.0000000), wk =   0.0277778
        k(    2) = (   0.0000000   0.0355130   0.0000000), wk =   0.0555556
        k(    3) = (   0.0000000   0.0710260   0.0000000), wk =   0.0555556
        k(    4) = (   0.0000000  -0.1065391   0.0000000), wk =   0.0277778
        k(    5) = (   0.0314142  -0.0165626   0.0000000), wk =   0.0555556
        k(    6) = (   0.0314142   0.0189504   0.0000000), wk =   0.0555556
        k(    7) = (   0.0314142   0.0544634   0.0000000), wk =   0.0555556
        k(    8) = (   0.0314142  -0.1231017   0.0000000), wk =   0.0555556
        k(    9) = (   0.0314142  -0.0875887   0.0000000), wk =   0.0555556
        k(   10) = (   0.0314142  -0.0520756   0.0000000), wk =   0.0555556
        k(   11) = (   0.0628285  -0.0331253   0.0000000), wk =   0.0555556
        k(   12) = (   0.0628285   0.0023878   0.0000000), wk =   0.0555556
        k(   13) = (   0.0628285   0.0379008   0.0000000), wk =   0.0555556
        k(   14) = (   0.0628285  -0.1396643   0.0000000), wk =   0.0555556
        k(   15) = (   0.0628285  -0.1041513   0.0000000), wk =   0.0555556
        k(   16) = (   0.0628285  -0.0686383   0.0000000), wk =   0.0555556
        k(   17) = (  -0.0942427   0.0496879   0.0000000), wk =   0.0277778
        k(   18) = (  -0.0942427   0.0852009   0.0000000), wk =   0.0555556
        k(   19) = (  -0.0942427   0.1207139   0.0000000), wk =   0.0555556
        k(   20) = (  -0.0942427  -0.0568512   0.0000000), wk =   0.0277778
        k(   21) = (   0.0000000   0.0000000   0.0000000), wk =   0.0277778
        k(   22) = (   0.0000000   0.0355130   0.0000000), wk =   0.0555556
        k(   23) = (   0.0000000   0.0710260   0.0000000), wk =   0.0555556
        k(   24) = (   0.0000000  -0.1065391   0.0000000), wk =   0.0277778
        k(   25) = (   0.0314142  -0.0165626   0.0000000), wk =   0.0555556
        k(   26) = (   0.0314142   0.0189504   0.0000000), wk =   0.0555556
        k(   27) = (   0.0314142   0.0544634   0.0000000), wk =   0.0555556
        k(   28) = (   0.0314142  -0.1231017   0.0000000), wk =   0.0555556
        k(   29) = (   0.0314142  -0.0875887   0.0000000), wk =   0.0555556
        k(   30) = (   0.0314142  -0.0520756   0.0000000), wk =   0.0555556
        k(   31) = (   0.0628285  -0.0331253   0.0000000), wk =   0.0555556
        k(   32) = (   0.0628285   0.0023878   0.0000000), wk =   0.0555556
        k(   33) = (   0.0628285   0.0379008   0.0000000), wk =   0.0555556
        k(   34) = (   0.0628285  -0.1396643   0.0000000), wk =   0.0555556
        k(   35) = (   0.0628285  -0.1041513   0.0000000), wk =   0.0555556
        k(   36) = (   0.0628285  -0.0686383   0.0000000), wk =   0.0555556
        k(   37) = (  -0.0942427   0.0496879   0.0000000), wk =   0.0277778
        k(   38) = (  -0.0942427   0.0852009   0.0000000), wk =   0.0555556
        k(   39) = (  -0.0942427   0.1207139   0.0000000), wk =   0.0555556
        k(   40) = (  -0.0942427  -0.0568512   0.0000000), wk =   0.0277778

     Largest allocated arrays     est. size (Mb)     dimensions
     Largest temporary arrays     est. size (Mb)     dimensions

     Initial potential from superposition of free atoms
     Check: negative starting charge=(component1):   -0.254490
     Check: negative starting charge=(component2):   -0.197941

     starting charge  188.99996, renormalised to  204.00000

     negative rho (up, down):  2.747E-01 2.137E-01

     *
     * You are using vdW-DF for exchange-correlation in this calculation.
     * Please cite the following three references that made this development
     * possible:
     *
     *   M. Dion, H. Rydberg, E. Schroder, D. C. Langreth, and
     *   B. I. Lundqvist, Phys. Rev. Lett. 92, 246401 (2004).
     *
     *   T. Thonhauser, V. R. Cooper, S. Li, A. Puzder, P. Hyldgaard, and
     *   D. C. Langreth, Phys. Rev. B 76, 125112 (2007).
     *
     *   G. Roman-Perez and J. M. Soler, Phys. Rev. Lett. 103, 096102 (2009).
     *
     *
     * If you are using vdW-DF2, please also cite:
     *
     *   K. Lee, E. D. Murray, L. Kong, B. I. Lundqvist, and
     *   D. C. Langreth, Phys. Rev. B 82, 081101(R) (2010).
     *
     *
     * If you are calculating the stress with vdW-DF, please also cite:
     *
     *   R. Sabatini, E. Kucukbenli, B. Kolb, T. Thonhauser, and
     *   S. de Gironcoli, J. Phys.: Condens. Matter 24, 424209 (2012).
     *

     Carrying out vdW-DF run using the following parameters:

     Nqs =      20    Nr_points =    1024   r_max =   100.000
     q_mesh =
               0.00001000     0.04494208     0.09755937     0.15916263
               0.23128650     0.31572767     0.41458969     0.53033537
               0.66584808     0.82450364     1.01025438     1.22772762
               1.48234092     1.78043706     2.12944203     2.53805004
               3.01644009     3.57652955     4.23227104     5.00000000

     Gradients computed in reciprocal space

     Adding external electric field

     Computed dipole along edir(3) :
        Dipole               -0.0000 Ry au,         -0.0000 Debye
        Dipole field         -0.0000 Ry au

        Potential amp.        0.0000 Ry
        Total length         44.9038 bohr

[...]

     Starting wfc are  150 randomized atomic wfcs

     Self-consistent Calculation

     iteration #  1     ecut=    36.75 Ry     beta=0.10
     Davidson diagonalization with overlap
     ethr =  1.00E-02,  avg # of iterations =  6.9

[...]

     Magnetic moment per site:
     atom:    1    charge:    9.6295    magn:    1.0223    constr:    0.0000
     atom:    2    charge:    9.6295    magn:    1.0223    constr:    0.0000
     atom:    3    charge:    3.4423    magn:    0.4082    constr:    0.0000
     atom:    4    charge:    3.4423    magn:    0.4082    constr:    0.0000
     atom:    5    charge:    9.6185    magn:    1.0194    constr:    0.0000
     atom:    6    charge:    9.6185    magn:    1.0194    constr:    0.0000
     atom:    7    charge:    3.4444    magn:    0.4065    constr:    0.0000
[...]
                l(6) =   2
     Q(r) pseudized with 10 coefficients,  rinner =    0.980   0.980   0.980
                                                       0.980   0.980

     PseudoPot. # 2 for Pd read from file:
     /afs/slac.stanford.edu/u/if/mamunm/psp/gbrv1.5pbe/Pd.UPF
     MD5 check sum: 2d733d2bc2cbfd217af676df1668a4bc
     Pseudo is Ultrasoft + core correction, Zval = 16.0
     Generated by new atomic code, or converted to UPF format
     Using radial grid of  887 points,  6 beta functions with:
                l(1) =   0
                l(2) =   0
                l(3) =   1
                l(4) =   1
                l(5) =   2
                l(6) =   2
     Q(r) pseudized with  8 coefficients,  rinner =    1.130   1.130   1.130
                                                       1.130   1.130

     vdW kernel table read from file vdW_kernel_table
     MD5 check sum: 095c7af220d748ca6e76c0b4c6cfb241

     atomic species   valence    mass     pseudopotential
        Ni1           18.00    58.69340     Ni( 1.00)
        Pd1           16.00   106.42000     Pd( 1.00)

     Starting magnetic structure
     atomic species   magnetization
        Ni1          0.111
        Pd1          0.125

     No symmetry found

   Cartesian axes

     site n.     atom                  positions (alat units)
         1           Ni1 tau(   1) = (   0.0000000   0.0000000  10.0000000  )
         2           Ni1 tau(   2) = (   3.8899083   2.3465571  10.0000000  )
         3           Pd1 tau(   3) = (   2.6527254   0.0000000  10.0000000  )
         4           Pd1 tau(   4) = (   1.2371829   2.3465571  10.0000000  )
         5           Ni1 tau(   5) = (   5.3054507   3.2004722  12.1856714  )
         6           Ni1 tau(   6) = (   1.4155424   0.8539150  12.1856714  )
         7           Pd1 tau(   7) = (   2.6527254   3.2004722  12.1856714  )
         8           Pd1 tau(   8) = (   4.0682678   0.8539150  12.1856714  )
         9           Ni1 tau(   9) = (   2.8164288   1.6989886  14.2971774  )
        10           Ni1 tau(  10) = (   6.7063527   4.0455563  14.2972281  )
        11           Pd1 tau(  11) = (   5.5065559   1.7216091  14.3996647  )
        12           Pd1 tau(  12) = (   4.0910643   4.0680813  14.3996641  )

     number of k points=    40  Fermi-Dirac smearing, width (Ry)=  0.0110
                       cart. coord. in units 2pi/alat
        k(    1) = (   0.0000000   0.0000000   0.0000000), wk =   0.0277778
        k(    2) = (   0.0000000   0.0355130   0.0000000), wk =   0.0555556
        k(    3) = (   0.0000000   0.0710260   0.0000000), wk =   0.0555556
        k(    4) = (   0.0000000  -0.1065391   0.0000000), wk =   0.0277778
        k(    5) = (   0.0314142  -0.0165626   0.0000000), wk =   0.0555556
        k(    6) = (   0.0314142   0.0189504   0.0000000), wk =   0.0555556
        k(    7) = (   0.0314142   0.0544634   0.0000000), wk =   0.0555556
        k(    8) = (   0.0314142  -0.1231017   0.0000000), wk =   0.0555556
        k(    9) = (   0.0314142  -0.0875887   0.0000000), wk =   0.0555556
        k(   10) = (   0.0314142  -0.0520756   0.0000000), wk =   0.0555556
        k(   11) = (   0.0628285  -0.0331253   0.0000000), wk =   0.0555556
        k(   12) = (   0.0628285   0.0023878   0.0000000), wk =   0.0555556
        k(   13) = (   0.0628285   0.0379008   0.0000000), wk =   0.0555556
        k(   14) = (   0.0628285  -0.1396643   0.0000000), wk =   0.0555556
        k(   15) = (   0.0628285  -0.1041513   0.0000000), wk =   0.0555556
        k(   16) = (   0.0628285  -0.0686383   0.0000000), wk =   0.0555556
        k(   17) = (  -0.0942427   0.0496879   0.0000000), wk =   0.0277778
        k(   18) = (  -0.0942427   0.0852009   0.0000000), wk =   0.0555556
        k(   19) = (  -0.0942427   0.1207139   0.0000000), wk =   0.0555556
        k(   20) = (  -0.0942427  -0.0568512   0.0000000), wk =   0.0277778
        k(   21) = (   0.0000000   0.0000000   0.0000000), wk =   0.0277778
        k(   22) = (   0.0000000   0.0355130   0.0000000), wk =   0.0555556
        k(   23) = (   0.0000000   0.0710260   0.0000000), wk =   0.0555556
        k(   24) = (   0.0000000  -0.1065391   0.0000000), wk =   0.0277778
        k(   25) = (   0.0314142  -0.0165626   0.0000000), wk =   0.0555556
        k(   26) = (   0.0314142   0.0189504   0.0000000), wk =   0.0555556
        k(   27) = (   0.0314142   0.0544634   0.0000000), wk =   0.0555556
        k(   28) = (   0.0314142  -0.1231017   0.0000000), wk =   0.0555556
        k(   29) = (   0.0314142  -0.0875887   0.0000000), wk =   0.0555556
        k(   30) = (   0.0314142  -0.0520756   0.0000000), wk =   0.0555556
        k(   31) = (   0.0628285  -0.0331253   0.0000000), wk =   0.0555556
        k(   32) = (   0.0628285   0.0023878   0.0000000), wk =   0.0555556
        k(   33) = (   0.0628285   0.0379008   0.0000000), wk =   0.0555556
        k(   34) = (   0.0628285  -0.1396643   0.0000000), wk =   0.0555556
        k(   35) = (   0.0628285  -0.1041513   0.0000000), wk =   0.0555556
        k(   36) = (   0.0628285  -0.0686383   0.0000000), wk =   0.0555556
        k(   37) = (  -0.0942427   0.0496879   0.0000000), wk =   0.0277778
        k(   38) = (  -0.0942427   0.0852009   0.0000000), wk =   0.0555556
        k(   39) = (  -0.0942427   0.1207139   0.0000000), wk =   0.0555556
        k(   40) = (  -0.0942427  -0.0568512   0.0000000), wk =   0.0277778

     Largest allocated arrays     est. size (Mb)     dimensions
     Largest temporary arrays     est. size (Mb)     dimensions

     Initial potential from superposition of free atoms
     Check: negative starting charge=(component1):   -0.255009
     Check: negative starting charge=(component2):   -0.198345

     starting charge  188.99996, renormalised to  204.00000

[...]

     *
     * You are using vdW-DF for exchange-correlation in this calculation.
     * Please cite the following three references that made this development
     * possible:
     *
     *   M. Dion, H. Rydberg, E. Schroder, D. C. Langreth, and
     *   B. I. Lundqvist, Phys. Rev. Lett. 92, 246401 (2004).
     *
     *   T. Thonhauser, V. R. Cooper, S. Li, A. Puzder, P. Hyldgaard, and
     *   D. C. Langreth, Phys. Rev. B 76, 125112 (2007).
     *
     *   G. Roman-Perez and J. M. Soler, Phys. Rev. Lett. 103, 096102 (2009).
     *
     *
     * If you are using vdW-DF2, please also cite:
     *
     *   K. Lee, E. D. Murray, L. Kong, B. I. Lundqvist, and
     *   D. C. Langreth, Phys. Rev. B 82, 081101(R) (2010).
     *
     *
     * If you are calculating the stress with vdW-DF, please also cite:
     *
     *   R. Sabatini, E. Kucukbenli, B. Kolb, T. Thonhauser, and
     *   S. de Gironcoli, J. Phys.: Condens. Matter 24, 424209 (2012).
     *

     Carrying out vdW-DF run using the following parameters:

     Nqs =      20    Nr_points =    1024   r_max =   100.000
     q_mesh =
               0.00001000     0.04494208     0.09755937     0.15916263
               0.23128650     0.31572767     0.41458969     0.53033537
               0.66584808     0.82450364     1.01025438     1.22772762
               1.48234092     1.78043706     2.12944203     2.53805004
               3.01644009     3.57652955     4.23227104     5.00000000

     Gradients computed in reciprocal space

[...]

     Starting wfc are  150 randomized atomic wfcs

     Self-consistent Calculation

[...]

     total energy              =   -3265.17117287 Ry
     Harris-Foulkes estimate   =   -3265.17117177 Ry
     estimated scf accuracy    <       0.00000159 Ry

[...]

     iteration # 36     ecut=    36.75 Ry     beta=0.10
     Davidson diagonalization with overlap
     ethr =  7.81E-10,  avg # of iterations =  1.1

[...]

     negative rho (up, down):  2.383E-01 2.355E-01

[...]

     Adding external electric field

     Computed dipole along edir(3) :
        Dipole               -0.0028 Ry au,         -0.0072 Debye
        Dipole field         -0.0000 Ry au

        Potential amp.        0.0008 Ry
        Total length         44.9038 bohr

     Magnetic moment per site:
     atom:    1    charge:    9.3562    magn:    0.4905    constr:    0.0000
     atom:    2    charge:    9.3560    magn:    0.4906    constr:    0.0000
     atom:    3    charge:    3.3067    magn:    0.0502    constr:    0.0000
     atom:    4    charge:    3.3067    magn:    0.0502    constr:    0.0000
     atom:    5    charge:    9.3491    magn:    0.5185    constr:    0.0000
     atom:    6    charge:    9.3492    magn:    0.5184    constr:    0.0000
     atom:    7    charge:    3.3054    magn:    0.0628    constr:    0.0000
     atom:    8    charge:    3.3054    magn:    0.0628    constr:    0.0000
     atom:    9    charge:    9.3589    magn:    0.4938    constr:    0.0000
     atom:   10    charge:    9.3588    magn:    0.4939    constr:    0.0000
     atom:   11    charge:    3.3034    magn:    0.0493    constr:    0.0000
     atom:   12    charge:    3.3034    magn:    0.0493    constr:    0.0000

     End of self-consistent calculation

 ------ SPIN UP ------------

[...]

 ------ SPIN DOWN ----------

[...]

          k = 0.0628-0.0686 0.0000 ( 15421 PWs)   bands (ev):

[...]

          k =-0.0942-0.0569 0.0000 ( 15394 PWs)   bands (ev):

  -101.7745-101.7716-101.6248-101.6219-101.5876-101.5847 -62.1950 -62.1857
   -62.1818 -62.1727 -62.1690 -62.1553 -62.0770 -62.0666 -62.0627 -62.0440
   -62.0374 -62.0370 -62.0331 -62.0044 -61.9676 -61.9641 -61.9196 -61.9162
   -49.4152 -49.3246 -49.3025 -49.3025 -49.2802 -49.1930 -49.1157 -49.0862
   -49.0292 -49.0075 -48.9984 -48.9768 -48.8942 -48.8701 -48.8646 -48.8493
   -48.8317 -48.8109  -4.4976  -4.3504  -3.5812  -3.5063  -3.2356  -3.1859
    -3.1421  -3.0819  -2.9041  -2.8226  -2.6166  -2.5881  -2.5759  -2.4554
    -2.4059  -2.3265  -1.9810  -1.8509  -1.7741  -1.6553  -1.6173  -1.5701
    -1.3687  -1.2508  -1.2433  -1.1787  -1.1041  -0.9005  -0.8496  -0.7721
    -0.7481  -0.6879  -0.6559  -0.6084  -0.5612  -0.5294  -0.4990  -0.4734
    -0.4588  -0.4110  -0.3717  -0.3505  -0.2650  -0.2312  -0.1444  -0.1241
    -0.0344   0.0983   0.1084   0.1633   0.2586   0.3037   0.3261   0.3556
     0.4912   0.5054   0.6724   0.7155   0.7281   0.8298   0.8616   0.8875
     0.8885   0.9179   2.1486   2.5483   2.8769   3.0688   3.3090   3.8822
     4.9481   4.9799   5.5980   5.8855   6.8002   6.8245   7.3581   7.3924
     7.5309   7.5372   8.2058   8.4833   8.5846   8.6387   9.0629   9.1218
     9.1485   9.5823   9.7115   9.7400

     the Fermi energy is     0.7680 ev

!    total energy              =   -3265.17117632 Ry
     Harris-Foulkes estimate   =   -3265.17117292 Ry
     estimated scf accuracy    <       0.00000083 Ry

     The total energy is the sum of the following terms:

     one-electron contribution =  -26516.73720910 Ry
     hartree contribution      =   13287.94383410 Ry
     xc contribution           =    -415.69960137 Ry
     ewald contribution        =   10379.43649463 Ry
     electric field correction =       0.00000002 Ry
     smearing contrib. (-TS)   =      -0.11469459 Ry

     total magnetization       =     6.48 Bohr mag/cell
     absolute magnetization    =     7.27 Bohr mag/cell

     convergence has been achieved in  36 iterations

 BEEF-vdW xc energy contributions
           1 :   -364.263334432011
           2 :    331.380925645632
           3 :   -275.798947525082
           4 :    213.200625916355
           5 :   -158.202005374472
           6 :    119.185625403456
           7 :   -96.7066270729156
           8 :    85.5619832745770
           9 :   -78.8468009011642
          10 :    71.6154117956639
          11 :   -62.4638656186581
          12 :    52.7837673623393
          13 :   -44.7624408542337
          14 :    39.6055831948102
          15 :   -36.9518766035185
          16 :    35.4645824944130
          17 :   -33.8842691920103
          18 :    31.7262446421379
          19 :   -29.2718234688354
          20 :    27.0531666477807
          21 :   -25.3386375763982
          22 :    23.9887874831617
          23 :   -22.6983980122468
          24 :    21.3249114745432
          25 :   -20.0041350617175
          26 :    18.9764199443846
          27 :   -18.3154067868534
          28 :    17.8111398057595
          29 :   -17.1201870314854
          30 :    16.0516171920007
          31 :   -32.6026793744103
          32 :   -23.4293059615473

     Forces acting on atoms (Ry/au):

     negative rho (up, down):  2.383E-01 2.355E-01
     atom    1 type  1   force =     0.00641539    0.00386999    0.01062922
     atom    2 type  1   force =     0.00644018    0.00388504    0.01063018
     atom    3 type  2   force =    -0.00882089   -0.00532647   -0.00640853
     atom    4 type  2   force =    -0.00882556   -0.00531866   -0.00640847
     atom    5 type  1   force =    -0.00167437   -0.00101010    0.00088636
     atom    6 type  1   force =    -0.00163330   -0.00098528    0.00092878
     atom    7 type  2   force =     0.00496150    0.00298598   -0.00508244
     atom    8 type  2   force =     0.00495537    0.00299632   -0.00508243
     atom    9 type  1   force =    -0.00012710   -0.00007658    0.00039302
     atom   10 type  1   force =    -0.00013788   -0.00008327    0.00034512
     atom   11 type  2   force =    -0.00076573   -0.00048656   -0.00041542
     atom   12 type  2   force =    -0.00078761   -0.00045041   -0.00041539

     Total force =     0.027628     Total SCF correction =     0.002623

     entering subroutine stress ...

     negative rho (up, down):  2.383E-01 2.355E-01
          total   stress  (Ry/bohr**3)                   (kbar)     P=  -38.26
  -0.00028395   0.00000172   0.00000210        -41.77      0.25      0.31
   0.00000172  -0.00028577   0.00000127          0.25    -42.04      0.19
   0.00000210   0.00000127  -0.00021060          0.31      0.19    -30.98

 !ASE

     Writing output data file calc.save

     General routines

     Parallel routines

   This run was terminated on:  23:20:30  18Dec2018

   JOB DONE.
Job  /afs/slac/g/suncat/bin/suncat-tsmpirun -x LD_LIBRARY_PATH -wdir /scratch/qe530371_n7ibH pw.x -in pw.inp

TID   HOST_NAME   COMMAND_LINE            STATUS            TERMINATION_TIME
00000 suncat2058 pw.x -in pw.inp   Done                     12/18/2018 23:20:30
00001 suncat2058 pw.x -in pw.inp   Done                     12/18/2018 23:20:30
00002 suncat2058 pw.x -in pw.inp   Done                     12/18/2018 23:20:30
00003 suncat2058 pw.x -in pw.inp   Done                     12/18/2018 23:20:30
00004 suncat2058 pw.x -in pw.inp   Done                     12/18/2018 23:20:30
00005 suncat2058 pw.x -in pw.inp   Done                     12/18/2018 23:20:30
00006 suncat2058 pw.x -in pw.inp   Done                     12/18/2018 23:20:30
00007 suncat2058 pw.x -in pw.inp   Done                     12/18/2018 23:20:30
00008 suncat2058 pw.x -in pw.inp   Done                     12/18/2018 23:20:30
00009 suncat2058 pw.x -in pw.inp   Done                     12/18/2018 23:20:30
00010 suncat2058 pw.x -in pw.inp   Done                     12/18/2018 23:20:30
00011 suncat2058 pw.x -in pw.inp   Done                     12/18/2018 23:20:30
00012 suncat2058 pw.x -in pw.inp   Done                     12/18/2018 23:20:30
00013 suncat2058 pw.x -in pw.inp   Done                     12/18/2018 23:20:30
00014 suncat2058 pw.x -in pw.inp   Done                     12/18/2018 23:20:30
00015 suncat2058 pw.x -in pw.inp   Done                     12/18/2018 23:20:30
00016 suncat2057 pw.x -in pw.inp   Done                     12/18/2018 23:20:30
00017 suncat2057 pw.x -in pw.inp   Done                     12/18/2018 23:20:30
00018 suncat2057 pw.x -in pw.inp   Done                     12/18/2018 23:20:30
00019 suncat2057 pw.x -in pw.inp   Done                     12/18/2018 23:20:30
00020 suncat2057 pw.x -in pw.inp   Done                     12/18/2018 23:20:30
00021 suncat2057 pw.x -in pw.inp   Done                     12/18/2018 23:20:30
00022 suncat2057 pw.x -in pw.inp   Done                     12/18/2018 23:20:30
00023 suncat2057 pw.x -in pw.inp   Done                     12/18/2018 23:20:30
00024 suncat2057 pw.x -in pw.inp   Done                     12/18/2018 23:20:30
00025 suncat2057 pw.x -in pw.inp   Done                     12/18/2018 23:20:30
00026 suncat2057 pw.x -in pw.inp   Done                     12/18/2018 23:20:30
00027 suncat2057 pw.x -in pw.inp   Done                     12/18/2018 23:20:30
00028 suncat2057 pw.x -in pw.inp   Done                     12/18/2018 23:20:30
00029 suncat2057 pw.x -in pw.inp   Done                     12/18/2018 23:20:30
00030 suncat2057 pw.x -in pw.inp   Done                     12/18/2018 23:20:30
00031 suncat2057 pw.x -in pw.inp   Done                     12/18/2018 23:20:30