     Program PWSCF v.5.1rc2 (svn rev. 11289) starts on 19Dec2018 at  3:24:24

     Current dimensions of program PWSCF are:
     Max number of different atomic species (ntypx) = 10
     Max number of k-points (npk) =  40000
     Max angular momentum in pseudopotentials (lmaxx) =  3
     Presently stress not available with electric field

     IMPORTANT: XC functional enforced from input :
     Exchange-correlation      = BEEF-VDW ( 1  4 27 13 2)
     Any further DFT definition will be discarded
     Please, verify this is what you really want

     Subspace diagonalization in iterative solution of the eigenvalue problem:
     a serial algorithm will be used

     Found symmetry operation: I + ( -0.5000 -0.5000  0.0000)
     This is a supercell, fractional translations are disabled

     bravais-lattice index     =            0
     lattice parameter (alat)  =       1.8897  a.u.
     unit-cell volume          =    5081.9431 (a.u.)^3
     number of atoms/cell      =           12
     number of atomic types    =            2
     number of electrons       =       174.00
     number of Kohn-Sham states=          117
     kinetic-energy cutoff     =      36.7493  Ry
     charge density cutoff     =     367.4932  Ry
     convergence threshold     =      1.0E-06
     mixing beta               =       0.1000
     number of iterations used =           10  plain     mixing
     Exchange-correlation      = BEEF-VDW ( 1  4 27 13 2)
     nstep                     =           50

     celldm(1)=   1.889726  celldm(2)=   0.000000  celldm(3)=   0.000000
     celldm(4)=   0.000000  celldm(5)=   0.000000  celldm(6)=   0.000000

     crystal axes: (cart. coord. in units of alat)
               a(1) = (   5.693813   0.000000   0.000000 )
               a(2) = (   1.906330   5.365204   0.000000 )
               a(3) = (   0.000000   0.000000  24.651522 )

     reciprocal axes: (cart. coord. in units 2 pi/alat)
               b(1) = (  0.175629 -0.062403  0.000000 )
               b(2) = (  0.000000  0.186386  0.000000 )
               b(3) = (  0.000000  0.000000  0.040565 )

     PseudoPot. # 1 for Rh read from file:
     /afs/slac.stanford.edu/u/if/mamunm/psp/gbrv1.5pbe/Rh.UPF
     MD5 check sum: 761627e959a2e3a1f56b0b5fe687810e
     Pseudo is Ultrasoft + core correction, Zval = 15.0
     Generated by new atomic code, or converted to UPF format
     Using radial grid of  969 points,  7 beta functions with:
                l(1) =   0
                l(2) =   0
                l(3) =   1
                l(4) =   1
                l(5) =   2
                l(6) =   2
                l(7) =   2
     Q(r) pseudized with  8 coefficients,  rinner =    1.200   1.200   1.200
                                                       1.200   1.200

     PseudoPot. # 2 for Sn read from file:
     /afs/slac.stanford.edu/u/if/mamunm/psp/gbrv1.5pbe/Sn.UPF
     MD5 check sum: 469debedee59599fedebd795477fea03
     Pseudo is Ultrasoft + core correction, Zval = 14.0
     Generated by new atomic code, or converted to UPF format
     Using radial grid of  891 points,  6 beta functions with:
                l(1) =   0
                l(2) =   0
                l(3) =   1
                l(4) =   1
                l(5) =   2
                l(6) =   2
     Q(r) pseudized with  8 coefficients,  rinner =    1.350   1.350   1.350
                                                       1.350   1.350

     vdW kernel table read from file vdW_kernel_table
     MD5 check sum: 095c7af220d748ca6e76c0b4c6cfb241

     atomic species   valence    mass     pseudopotential
        Rh1           15.00   102.90550     Rh( 1.00)
        Sn1           14.00   118.71000     Sn( 1.00)

     No symmetry found

   Cartesian axes

     site n.     atom                  positions (alat units)
         1           Rh1 tau(   1) = (   0.0000000   0.0000000  10.0000000  )
         2           Rh1 tau(   2) = (   3.8000714   2.6826020  10.0000000  )
         3           Sn1 tau(   3) = (   2.8469065   0.0000000  10.0000000  )
         4           Sn1 tau(   4) = (   0.9531648   2.6826020  10.0000000  )
         5           Rh1 tau(   5) = (   5.6938131   4.0194599  12.3257611  )
         6           Rh1 tau(   6) = (   1.8937417   1.3368579  12.3257611  )
         7           Sn1 tau(   7) = (   2.8469065   4.0194599  12.3257611  )
         8           Sn1 tau(   8) = (   4.7406483   1.3368579  12.3257611  )
         9           Rh1 tau(   9) = (   3.7874835   2.6737158  14.6515222  )
        10           Rh1 tau(  10) = (   7.5875548   5.3563178  14.6515222  )
        11           Sn1 tau(  11) = (   6.6343900   2.6737158  14.6515222  )
        12           Sn1 tau(  12) = (   4.7406483   5.3563178  14.6515222  )

     number of k points=    20  Fermi-Dirac smearing, width (Ry)=  0.0110
                       cart. coord. in units 2pi/alat
        k(    1) = (   0.0000000   0.0000000   0.0000000), wk =   0.0555556
        k(    2) = (   0.0000000   0.0310644   0.0000000), wk =   0.1111111
        k(    3) = (   0.0000000   0.0621287   0.0000000), wk =   0.1111111
        k(    4) = (   0.0000000  -0.0931931   0.0000000), wk =   0.0555556
        k(    5) = (   0.0292715  -0.0104006   0.0000000), wk =   0.1111111
        k(    6) = (   0.0292715   0.0206638   0.0000000), wk =   0.1111111
        k(    7) = (   0.0292715   0.0517282   0.0000000), wk =   0.1111111
        k(    8) = (   0.0292715  -0.1035937   0.0000000), wk =   0.1111111
        k(    9) = (   0.0292715  -0.0725293   0.0000000), wk =   0.1111111
        k(   10) = (   0.0292715  -0.0414649   0.0000000), wk =   0.1111111
        k(   11) = (   0.0585431  -0.0208011   0.0000000), wk =   0.1111111
        k(   12) = (   0.0585431   0.0102632   0.0000000), wk =   0.1111111
        k(   13) = (   0.0585431   0.0413276   0.0000000), wk =   0.1111111
        k(   14) = (   0.0585431  -0.1139942   0.0000000), wk =   0.1111111
        k(   15) = (   0.0585431  -0.0829299   0.0000000), wk =   0.1111111
        k(   16) = (   0.0585431  -0.0518655   0.0000000), wk =   0.1111111
        k(   17) = (  -0.0878146   0.0312017   0.0000000), wk =   0.0555556
        k(   18) = (  -0.0878146   0.0622661   0.0000000), wk =   0.1111111
        k(   19) = (  -0.0878146   0.0933305   0.0000000), wk =   0.1111111
        k(   20) = (  -0.0878146  -0.0619914   0.0000000), wk =   0.0555556

     Largest allocated arrays     est. size (Mb)     dimensions
     Largest temporary arrays     est. size (Mb)     dimensions

     Initial potential from superposition of free atoms
     Check: negative starting charge=   -0.324102

     starting charge  164.99914, renormalised to  174.00000

     negative rho (up, down):  3.418E-01 0.000E+00

     *
     * You are using vdW-DF for exchange-correlation in this calculation.
     * Please cite the following three references that made this development
     * possible:
     *
     *   M. Dion, H. Rydberg, E. Schroder, D. C. Langreth, and
     *   B. I. Lundqvist, Phys. Rev. Lett. 92, 246401 (2004).
     *
     *   T. Thonhauser, V. R. Cooper, S. Li, A. Puzder, P. Hyldgaard, and
     *   D. C. Langreth, Phys. Rev. B 76, 125112 (2007).
     *
     *   G. Roman-Perez and J. M. Soler, Phys. Rev. Lett. 103, 096102 (2009).
     *
     *
     * If you are using vdW-DF2, please also cite:
     *
     *   K. Lee, E. D. Murray, L. Kong, B. I. Lundqvist, and
     *   D. C. Langreth, Phys. Rev. B 82, 081101(R) (2010).
     *
     *
     * If you are calculating the stress with vdW-DF, please also cite:
     *
     *   R. Sabatini, E. Kucukbenli, B. Kolb, T. Thonhauser, and
     *   S. de Gironcoli, J. Phys.: Condens. Matter 24, 424209 (2012).
     *

     Carrying out vdW-DF run using the following parameters:

     Nqs =      20    Nr_points =    1024   r_max =   100.000
     q_mesh =
               0.00001000     0.04494208     0.09755937     0.15916263
               0.23128650     0.31572767     0.41458969     0.53033537
               0.66584808     0.82450364     1.01025438     1.22772762
               1.48234092     1.78043706     2.12944203     2.53805004
               3.01644009     3.57652955     4.23227104     5.00000000

     Gradients computed in reciprocal space

     Adding external electric field

     Computed dipole along edir(3) :
        Dipole               -0.0000 Ry au,         -0.0000 Debye
        Dipole field         -0.0000 Ry au

        Potential amp.        0.0000 Ry
        Total length         45.4200 bohr

     Starting wfc are  126 randomized atomic wfcs

     Self-consistent Calculation

     iteration #  1     ecut=    36.75 Ry     beta=0.10
     Davidson diagonalization with overlap
     ethr =  1.00E-02,  avg # of iterations =  7.5

[...]

     total energy              =   -1998.54363471 Ry
     Harris-Foulkes estimate   =   -2000.81661267 Ry
     estimated scf accuracy    <      13.66505715 Ry

[...]

     End of self-consistent calculation

          k = 0.0000 0.0000 0.0000 ( 19071 PWs)   bands (ev):

   -44.9803 -44.9342 -44.9110 -44.9066 -44.8953 -44.8921 -44.7096 -44.7085
   -44.7058 -44.7040 -44.6577 -44.6572 -44.6130 -44.6130 -44.4517 -44.4510
   -44.4477 -44.4468 -20.9248 -20.8777 -20.8545 -20.8459 -20.8309 -20.8175
   -20.8145 -20.8092 -20.7914 -20.7505 -20.6864 -20.6831 -20.6432 -20.6379
   -20.5884 -20.5859 -20.5838 -20.5826 -20.5825 -20.5798 -20.5562 -20.5536
   -20.5503 -20.5499 -20.5350 -20.5228 -20.5216 -20.5202 -20.4674 -20.4591
    -9.3933  -7.7157  -6.3316  -6.2210  -5.6478  -5.6475  -2.9006  -2.8371
    -2.2796  -2.1325  -2.0515  -1.9301  -1.9212  -1.5704  -1.5703  -1.4185
    -1.3654  -0.9871  -0.9806  -0.7848  -0.6907  -0.6398  -0.5511  -0.5231
    -0.3446  -0.2929  -0.2587  -0.1081  -0.0968  -0.0299   0.0138   0.0302
     0.0606   0.0807   0.1505   0.1952   0.2565   0.4836   0.7115   0.9985
     1.2058   1.4210   1.5028   1.7754   2.8360   2.8452   3.2348   3.3251
     4.0434   4.6678   4.8246   4.8447   4.9989   5.0710   5.1228   5.3513
     5.8003   6.1512   6.4402   6.7888   6.8645   7.0080   7.0966   7.5114
     7.8539   8.1396   8.3898   8.7354   9.2476

[...]

          k =-0.0878 0.0312 0.0000 ( 19144 PWs)   bands (ev):

[...]

     the Fermi energy is     1.2562 ev

!    total energy              =   -1997.70924969 Ry
     Harris-Foulkes estimate   =   -1997.70924942 Ry
     estimated scf accuracy    <       0.00000062 Ry

     The total energy is the sum of the following terms:

     one-electron contribution =  -14774.94127678 Ry
     hartree contribution      =    7441.29067003 Ry
     xc contribution           =    -454.04479014 Ry
     ewald contribution        =    5790.03718424 Ry
     electric field correction =       0.00000000 Ry
     smearing contrib. (-TS)   =      -0.05103703 Ry

     convergence has been achieved in  16 iterations

 BEEF-vdW xc energy contributions
           1 :   -397.647694353915
           2 :    364.772722552291
           3 :   -308.577333594067
           4 :    244.062175143474
           5 :   -185.778568654138
           6 :    142.873601171933
           7 :   -117.025927688689
           8 :    103.731806657761
           9 :   -95.8732310236219
[...]
     ethr =  4.94E-06,  avg # of iterations =  5.5

[...]

   This run was terminated on:   3:35:55  19Dec2018

[...]

     Program PWSCF v.5.1rc2 (svn rev. 11289) starts on 19Dec2018 at  3:42: 1

[...]

     Program PWSCF v.5.1rc2 (svn rev. 11289) starts on 19Dec2018 at  3:48:16

     Current dimensions of program PWSCF are:
     Max number of different atomic species (ntypx) = 10
     Max number of k-points (npk) =  40000
     Max angular momentum in pseudopotentials (lmaxx) =  3
     Presently stress not available with electric field

     IMPORTANT: XC functional enforced from input :
     Exchange-correlation      = BEEF-VDW ( 1  4 27 13 2)
     Any further DFT definition will be discarded
     Please, verify this is what you really want

     Subspace diagonalization in iterative solution of the eigenvalue problem:
     a serial algorithm will be used

     Found symmetry operation: I + ( -0.5000 -0.5000  0.0000)
     This is a supercell, fractional translations are disabled

     bravais-lattice index     =            0
     lattice parameter (alat)  =       1.8897  a.u.
     unit-cell volume          =    5081.9431 (a.u.)^3
     number of atoms/cell      =           12
     number of atomic types    =            2
     number of electrons       =       174.00
     number of Kohn-Sham states=          117
     kinetic-energy cutoff     =      36.7493  Ry
     charge density cutoff     =     367.4932  Ry
     convergence threshold     =      1.0E-06
     mixing beta               =       0.1000
     number of iterations used =           10  plain     mixing
     Exchange-correlation      = BEEF-VDW ( 1  4 27 13 2)
     nstep                     =           50

     celldm(1)=   1.889726  celldm(2)=   0.000000  celldm(3)=   0.000000
     celldm(4)=   0.000000  celldm(5)=   0.000000  celldm(6)=   0.000000

     crystal axes: (cart. coord. in units of alat)
               a(1) = (   5.693813   0.000000   0.000000 )
               a(2) = (   1.906330   5.365204   0.000000 )
               a(3) = (   0.000000   0.000000  24.651522 )

     reciprocal axes: (cart. coord. in units 2 pi/alat)
               b(1) = (  0.175629 -0.062403  0.000000 )
               b(2) = (  0.000000  0.186386  0.000000 )
               b(3) = (  0.000000  0.000000  0.040565 )

     PseudoPot. # 1 for Rh read from file:
     /afs/slac.stanford.edu/u/if/mamunm/psp/gbrv1.5pbe/Rh.UPF
     MD5 check sum: 761627e959a2e3a1f56b0b5fe687810e
     Pseudo is Ultrasoft + core correction, Zval = 15.0
     Generated by new atomic code, or converted to UPF format
     Using radial grid of  969 points,  7 beta functions with:
                l(1) =   0
                l(2) =   0
                l(3) =   1
                l(4) =   1
                l(5) =   2
                l(6) =   2
                l(7) =   2
     Q(r) pseudized with  8 coefficients,  rinner =    1.200   1.200   1.200
                                                       1.200   1.200

     PseudoPot. # 2 for Sn read from file:
     /afs/slac.stanford.edu/u/if/mamunm/psp/gbrv1.5pbe/Sn.UPF
     MD5 check sum: 469debedee59599fedebd795477fea03
     Pseudo is Ultrasoft + core correction, Zval = 14.0
     Generated by new atomic code, or converted to UPF format
     Using radial grid of  891 points,  6 beta functions with:
                l(1) =   0
                l(2) =   0
                l(3) =   1
                l(4) =   1
                l(5) =   2
                l(6) =   2
     Q(r) pseudized with  8 coefficients,  rinner =    1.350   1.350   1.350
                                                       1.350   1.350

     vdW kernel table read from file vdW_kernel_table
     MD5 check sum: 095c7af220d748ca6e76c0b4c6cfb241

     atomic species   valence    mass     pseudopotential
        Rh1           15.00   102.90550     Rh( 1.00)
        Sn1           14.00   118.71000     Sn( 1.00)

     No symmetry found

   Cartesian axes

     site n.     atom                  positions (alat units)
         1           Rh1 tau(   1) = (   0.0000000   0.0000000  10.0000000  )
         2           Rh1 tau(   2) = (   3.8000714   2.6826020  10.0000000  )
         3           Sn1 tau(   3) = (   2.8469065   0.0000000  10.0000000  )
         4           Sn1 tau(   4) = (   0.9531648   2.6826020  10.0000000  )
         5           Rh1 tau(   5) = (   5.6938131   4.0194599  12.3257611  )
         6           Rh1 tau(   6) = (   1.8937417   1.3368579  12.3257611  )
         7           Sn1 tau(   7) = (   2.8469065   4.0194599  12.3257611  )
         8           Sn1 tau(   8) = (   4.7406483   1.3368579  12.3257611  )
         9           Rh1 tau(   9) = (   3.7889444   2.6747438  14.4382713  )
        10           Rh1 tau(  10) = (   7.5890101   5.3573455  14.4382744  )
        11           Sn1 tau(  11) = (   6.6359806   2.6748317  14.8533809  )
        12           Sn1 tau(  12) = (   4.7422200   5.3574420  14.8533636  )

     number of k points=    20  Fermi-Dirac smearing, width (Ry)=  0.0110
                       cart. coord. in units 2pi/alat
        k(    1) = (   0.0000000   0.0000000   0.0000000), wk =   0.0555556
        k(    2) = (   0.0000000   0.0310644   0.0000000), wk =   0.1111111
        k(    3) = (   0.0000000   0.0621287   0.0000000), wk =   0.1111111
        k(    4) = (   0.0000000  -0.0931931   0.0000000), wk =   0.0555556
        k(    5) = (   0.0292715  -0.0104006   0.0000000), wk =   0.1111111
        k(    6) = (   0.0292715   0.0206638   0.0000000), wk =   0.1111111
        k(    7) = (   0.0292715   0.0517282   0.0000000), wk =   0.1111111
        k(    8) = (   0.0292715  -0.1035937   0.0000000), wk =   0.1111111
        k(    9) = (   0.0292715  -0.0725293   0.0000000), wk =   0.1111111
        k(   10) = (   0.0292715  -0.0414649   0.0000000), wk =   0.1111111
        k(   11) = (   0.0585431  -0.0208011   0.0000000), wk =   0.1111111
        k(   12) = (   0.0585431   0.0102632   0.0000000), wk =   0.1111111
        k(   13) = (   0.0585431   0.0413276   0.0000000), wk =   0.1111111
        k(   14) = (   0.0585431  -0.1139942   0.0000000), wk =   0.1111111
        k(   15) = (   0.0585431  -0.0829299   0.0000000), wk =   0.1111111
        k(   16) = (   0.0585431  -0.0518655   0.0000000), wk =   0.1111111
        k(   17) = (  -0.0878146   0.0312017   0.0000000), wk =   0.0555556
        k(   18) = (  -0.0878146   0.0622661   0.0000000), wk =   0.1111111
        k(   19) = (  -0.0878146   0.0933305   0.0000000), wk =   0.1111111
        k(   20) = (  -0.0878146  -0.0619914   0.0000000), wk =   0.0555556

     Largest allocated arrays     est. size (Mb)     dimensions
     Largest temporary arrays     est. size (Mb)     dimensions

     Initial potential from superposition of free atoms
     Check: negative starting charge=   -0.325889

     starting charge  164.99914, renormalised to  174.00000

[...]

     *
     * You are using vdW-DF for exchange-correlation in this calculation.
     * Please cite the following three references that made this development
     * possible:
     *
     *   M. Dion, H. Rydberg, E. Schroder, D. C. Langreth, and
     *   B. I. Lundqvist, Phys. Rev. Lett. 92, 246401 (2004).
     *
     *   T. Thonhauser, V. R. Cooper, S. Li, A. Puzder, P. Hyldgaard, and
     *   D. C. Langreth, Phys. Rev. B 76, 125112 (2007).
     *
     *   G. Roman-Perez and J. M. Soler, Phys. Rev. Lett. 103, 096102 (2009).
     *
     *
     * If you are using vdW-DF2, please also cite:
     *
     *   K. Lee, E. D. Murray, L. Kong, B. I. Lundqvist, and
     *   D. C. Langreth, Phys. Rev. B 82, 081101(R) (2010).
     *
     *
     * If you are calculating the stress with vdW-DF, please also cite:
     *
     *   R. Sabatini, E. Kucukbenli, B. Kolb, T. Thonhauser, and
     *   S. de Gironcoli, J. Phys.: Condens. Matter 24, 424209 (2012).
     *

     Carrying out vdW-DF run using the following parameters:

     Nqs =      20    Nr_points =    1024   r_max =   100.000
     q_mesh =
               0.00001000     0.04494208     0.09755937     0.15916263
               0.23128650     0.31572767     0.41458969     0.53033537
               0.66584808     0.82450364     1.01025438     1.22772762
               1.48234092     1.78043706     2.12944203     2.53805004
               3.01644009     3.57652955     4.23227104     5.00000000

     Gradients computed in reciprocal space

[...]

     Starting wfc are  126 randomized atomic wfcs

     Self-consistent Calculation

[...]

     iteration #  9     ecut=    36.75 Ry     beta=0.10
     Davidson diagonalization with overlap
     c_bands:  1 eigenvalues not converged
     ethr =  8.25E-06,  avg # of iterations =  4.0

[...]

     total energy              =   -1997.74072922 Ry
     Harris-Foulkes estimate   =   -1997.74072939 Ry
     estimated scf accuracy    <       0.00000147 Ry

     iteration # 18     ecut=    36.75 Ry     beta=0.10
     Davidson diagonalization with overlap
     ethr =  8.47E-10,  avg # of iterations =  1.0

[...]

     negative rho (up, down):  3.286E-01 0.000E+00

     Adding external electric field

     Computed dipole along edir(3) :
        Dipole                0.0904 Ry au,          0.2297 Debye
        Dipole field          0.0002 Ry au

        Potential amp.       -0.0203 Ry
        Total length         45.4200 bohr

     End of self-consistent calculation

[...]

          k = 0.0585-0.0519 0.0000 ( 19128 PWs)   bands (ev):

[...]

          k =-0.0878-0.0620 0.0000 ( 19060 PWs)   bands (ev):

   -44.8167 -44.7932 -44.7916 -44.7708 -44.7584 -44.7457 -44.7008 -44.7006
   -44.6665 -44.6569 -44.6538 -44.6208 -44.6064 -44.5616 -44.5533 -44.5500
   -44.4003 -44.3964 -20.7610 -20.7010 -20.6986 -20.6704 -20.6691 -20.6598
   -20.6541 -20.6408 -20.6393 -20.5938 -20.5754 -20.5668 -20.5587 -20.5329
   -20.4991 -20.4960 -20.4945 -20.4739 -20.4734 -20.4732 -20.4685 -20.4545
   -20.4501 -20.4431 -20.4382 -20.4253 -20.4192 -20.3919 -20.3890 -20.3482
    -7.6891  -7.3393  -6.5955  -6.5685  -5.2832  -4.3927  -4.1266  -3.5560
    -3.4958  -3.1918  -3.1250  -2.9937  -2.3034  -2.0898  -1.9429  -1.5592
    -1.3933  -1.3467  -1.3433  -1.3381  -1.0288  -1.0210  -0.9324  -0.8793
    -0.8567  -0.4638  -0.4505  -0.3904   0.0393   0.1282   0.1321   0.1538
     0.2920   0.6134   0.6242   0.7491   0.8434   1.0038   1.2986   1.5192
     1.5766   2.1801   2.6054   2.6511   3.1024   3.8056   4.9479   5.1083
     5.2332   5.5649   5.7767   6.2257   6.3673   6.4320   6.5877   6.8625
     6.8911   7.1833   7.4573   7.5052   7.6654   7.7335   7.7967   7.9204
     8.2191   8.2419   8.2435   8.2576   8.3418

     the Fermi energy is     1.3386 ev

!    total energy              =   -1997.74072866 Ry
     Harris-Foulkes estimate   =   -1997.74072737 Ry
     estimated scf accuracy    <       0.00000067 Ry

     The total energy is the sum of the following terms:

     one-electron contribution =  -14789.01695357 Ry
     hartree contribution      =    7448.82793695 Ry
     xc contribution           =    -454.01296054 Ry
     ewald contribution        =    5796.50804312 Ry
     electric field correction =       0.00002020 Ry
     smearing contrib. (-TS)   =      -0.04681482 Ry

     convergence has been achieved in  18 iterations

 BEEF-vdW xc energy contributions
           1 :   -397.621432313602
           2 :    364.747580741355
           3 :   -308.543441073278
           4 :    244.000576754681
           5 :   -185.676111000386
           6 :    142.735524841861
           7 :   -116.874108442294
           8 :    103.590804523417
           9 :   -95.7565777466265
          10 :    87.4800741870378
          11 :   -76.4277038446578
          12 :    63.8023661464920
          13 :   -52.5106746908700
          14 :    44.8800823385506
          15 :   -41.2641979512795
          16 :    40.1184250997641
          17 :   -39.1977599848512
          18 :    36.9538870934485
          19 :   -33.2697467353980
          20 :    29.2087194625112
          21 :   -26.0987617554115
          22 :    24.6172797196121
          23 :   -24.4420093056786
          24 :    24.5945247233123
          25 :   -24.1521705998418
          26 :    22.8175314588478
          27 :   -21.0016453137982
          28 :    19.4364741079531
          29 :   -18.6374225594045
          30 :    18.5882314684296
          31 :   -36.5438442644251
          32 :   -27.0336759279442

     Forces acting on atoms (Ry/au):

     negative rho (up, down):  3.286E-01 0.000E+00
     atom    1 type  1   force =    -0.00003910   -0.00002729    0.04430785
     atom    2 type  1   force =    -0.00003910   -0.00002746    0.04430870
     atom    3 type  2   force =    -0.00025564   -0.00018272   -0.02921110
     atom    4 type  2   force =    -0.00025610   -0.00018056   -0.02921333
     atom    5 type  1   force =    -0.00018581   -0.00013121    0.00228230
     atom    6 type  1   force =    -0.00018711   -0.00013180    0.00228152
     atom    7 type  2   force =     0.00022175    0.00015582   -0.01942867
     atom    8 type  2   force =     0.00022196    0.00015658   -0.01942691
     atom    9 type  1   force =     0.00013976    0.00009929    0.00029452
     atom   10 type  1   force =     0.00013929    0.00009867    0.00029629
     atom   11 type  2   force =     0.00011911    0.00008536    0.00175490
     atom   12 type  2   force =     0.00012099    0.00008531    0.00175394

     Total force =     0.080033     Total SCF correction =     0.004076

     entering subroutine stress ...

     negative rho (up, down):  3.286E-01 0.000E+00
          total   stress  (Ry/bohr**3)                   (kbar)     P=  -29.71
  -0.00026311  -0.00002745   0.00000095        -38.70     -4.04      0.14
  -0.00002745  -0.00024361   0.00000067         -4.04    -35.84      0.10
   0.00000095   0.00000067  -0.00009919          0.14      0.10    -14.59

 !ASE

     Writing output data file calc.save

     General routines

     Parallel routines

   This run was terminated on:   3:54:30  19Dec2018

   JOB DONE.
Job  /afs/slac/g/suncat/bin/suncat-tsmpirun -x LD_LIBRARY_PATH -wdir /scratch/qe530490_Z1rP5 pw.x -in pw.inp

TID   HOST_NAME   COMMAND_LINE            STATUS            TERMINATION_TIME
00000 suncat2056 pw.x -in pw.inp   Done                     12/19/2018 03:54:30
00001 suncat2056 pw.x -in pw.inp   Done                     12/19/2018 03:54:30
00002 suncat2056 pw.x -in pw.inp   Done                     12/19/2018 03:54:30
00003 suncat2056 pw.x -in pw.inp   Done                     12/19/2018 03:54:30
00004 suncat2056 pw.x -in pw.inp   Done                     12/19/2018 03:54:30
00005 suncat2056 pw.x -in pw.inp   Done                     12/19/2018 03:54:30
00006 suncat2056 pw.x -in pw.inp   Done                     12/19/2018 03:54:30
00007 suncat2056 pw.x -in pw.inp   Done                     12/19/2018 03:54:30
00008 suncat2056 pw.x -in pw.inp   Done                     12/19/2018 03:54:30
00009 suncat2056 pw.x -in pw.inp   Done                     12/19/2018 03:54:30
00010 suncat2056 pw.x -in pw.inp   Done                     12/19/2018 03:54:30
00011 suncat2056 pw.x -in pw.inp   Done                     12/19/2018 03:54:30
00012 suncat2056 pw.x -in pw.inp   Done                     12/19/2018 03:54:30
00013 suncat2056 pw.x -in pw.inp   Done                     12/19/2018 03:54:30
00014 suncat2056 pw.x -in pw.inp   Done                     12/19/2018 03:54:30
00015 suncat2056 pw.x -in pw.inp   Done                     12/19/2018 03:54:30
00016 suncat2055 pw.x -in pw.inp   Done                     12/19/2018 03:54:30
00017 suncat2055 pw.x -in pw.inp   Done                     12/19/2018 03:54:30
00018 suncat2055 pw.x -in pw.inp   Done                     12/19/2018 03:54:30
00019 suncat2055 pw.x -in pw.inp   Done                     12/19/2018 03:54:30
00020 suncat2055 pw.x -in pw.inp   Done                     12/19/2018 03:54:30
00021 suncat2055 pw.x -in pw.inp   Done                     12/19/2018 03:54:30
00022 suncat2055 pw.x -in pw.inp   Done                     12/19/2018 03:54:30
00023 suncat2055 pw.x -in pw.inp   Done                     12/19/2018 03:54:30
00024 suncat2055 pw.x -in pw.inp   Done                     12/19/2018 03:54:30
00025 suncat2055 pw.x -in pw.inp   Done                     12/19/2018 03:54:30
00026 suncat2055 pw.x -in pw.inp   Done                     12/19/2018 03:54:30
00027 suncat2055 pw.x -in pw.inp   Done                     12/19/2018 03:54:30
00028 suncat2055 pw.x -in pw.inp   Done                     12/19/2018 03:54:30
00029 suncat2055 pw.x -in pw.inp   Done                     12/19/2018 03:54:30
00030 suncat2055 pw.x -in pw.inp   Done                     12/19/2018 03:54:30
00031 suncat2055 pw.x -in pw.inp   Done                     12/19/2018 03:54:30