     Program PWSCF v.5.1rc2 (svn rev. 11289) starts on 24Dec2018 at 15:59:11

     Current dimensions of program PWSCF are:
     Max number of different atomic species (ntypx) = 10
     Max number of k-points (npk) =  40000
     Max angular momentum in pseudopotentials (lmaxx) =  3
     Presently stress not available with electric field

     IMPORTANT: XC functional enforced from input :
     Exchange-correlation      = BEEF-VDW ( 1  4 27 13 2)
     Any further DFT definition will be discarded
     Please, verify this is what you really want

     Subspace diagonalization in iterative solution of the eigenvalue problem:
     a serial algorithm will be used

     Found symmetry operation: I + ( -0.5000  0.0000  0.0000)
     This is a supercell, fractional translations are disabled

     Generating pointlists ...
     new r_m :   0.4125 (alat units)  0.7795 (a.u.) for type    1
     new r_m :   0.4125 (alat units)  0.7795 (a.u.) for type    2

     bravais-lattice index     =            0
     lattice parameter (alat)  =       1.8897  a.u.
     unit-cell volume          =    3947.4227 (a.u.)^3
     number of atoms/cell      =           12
     number of atomic types    =            2
     number of electrons       =       216.00
     number of Kohn-Sham states=          138
     kinetic-energy cutoff     =      36.7493  Ry
     charge density cutoff     =     367.4932  Ry
     convergence threshold     =      1.0E-06
     mixing beta               =       0.1000
     number of iterations used =           10  plain     mixing
     Exchange-correlation      = BEEF-VDW ( 1  4 27 13 2)
     nstep                     =           50

     celldm(1)=   1.889726  celldm(2)=   0.000000  celldm(3)=   0.000000
     celldm(4)=   0.000000  celldm(5)=   0.000000  celldm(6)=   0.000000

     crystal axes: (cart. coord. in units of alat)
               a(1) = (   5.152683   0.000000   0.000000 )
               a(2) = (  -2.576342   4.672025   0.000000 )
               a(3) = (   0.000000   0.000000  24.298443 )

     reciprocal axes: (cart. coord. in units 2 pi/alat)
               b(1) = (  0.194074  0.107020  0.000000 )
               b(2) = (  0.000000  0.214040  0.000000 )
               b(3) = (  0.000000  0.000000  0.041155 )

     PseudoPot. # 1 for Fe read from file:
     /afs/slac.stanford.edu/u/if/mamunm/psp/gbrv1.5pbe/Fe.UPF
     MD5 check sum: a130daea23fe5165f5d574ae7f82ed95
     Pseudo is Ultrasoft + core correction, Zval = 16.0
     Generated by new atomic code, or converted to UPF format
     Using radial grid of  861 points,  6 beta functions with:
                l(1) =   0
                l(2) =   0
                l(3) =   1
                l(4) =   1
                l(5) =   2
                l(6) =   2
     Q(r) pseudized with  8 coefficients,  rinner =    1.000   1.000   1.000
                                                       1.000   1.000

     PseudoPot. # 2 for Zn read from file:
     /afs/slac.stanford.edu/u/if/mamunm/psp/gbrv1.5pbe/Zn.UPF
     MD5 check sum: df62231357ef9e81f77b2b3087fa5675
     Pseudo is Ultrasoft, Zval = 20.0
     Generated by new atomic code, or converted to UPF format
     Using radial grid of  943 points,  6 beta functions with:
                l(1) =   0
                l(2) =   0
                l(3) =   1
                l(4) =   1
                l(5) =   2
                l(6) =   2
     Q(r) pseudized with  8 coefficients,  rinner =    1.100   1.100   1.100
                                                       1.100   1.100

     vdW kernel table read from file vdW_kernel_table
     MD5 check sum: 095c7af220d748ca6e76c0b4c6cfb241

     atomic species   valence    mass     pseudopotential
        Fe1           16.00    55.84500     Fe( 1.00)
        Zn1           20.00    65.38000     Zn( 1.00)

     Starting magnetic structure
     atomic species   magnetization
        Fe1          0.125
        Zn1          0.100

     No symmetry found

   Cartesian axes

     site n.     atom                  positions (alat units)
         1           Fe1 tau(   1) = (   0.0000000   0.0000000  10.0000000  )
         2           Fe1 tau(   2) = (   2.5763417   0.0000000  10.0000000  )
         3           Zn1 tau(   3) = (   1.2881709   2.3360123  10.0000000  )
         4           Zn1 tau(   4) = (  -1.2881709   2.3360123  10.0000000  )
         5           Fe1 tau(   5) = (   2.5763417   1.4206981  12.1492216  )
         6           Fe1 tau(   6) = (  -0.0000000   1.4206981  12.1492216  )
         7           Zn1 tau(   7) = (  -1.2881709   3.7567104  12.1492216  )
         8           Zn1 tau(   8) = (   1.2881709   3.7567104  12.1492216  )
         9           Fe1 tau(   9) = (   0.0000000   2.8413962  14.2984432  )
        10           Fe1 tau(  10) = (   2.5763417   2.8413962  14.2984432  )
        11           Zn1 tau(  11) = (   3.8645126   0.5053839  14.2984432  )
        12           Zn1 tau(  12) = (   1.2881709   0.5053839  14.2984432  )

     number of k points=    40  Fermi-Dirac smearing, width (Ry)=  0.0110
                       cart. coord. in units 2pi/alat
        k(    1) = (   0.0000000   0.0000000   0.0000000), wk =   0.0277778
        k(    2) = (   0.0000000   0.0356733   0.0000000), wk =   0.0555556
        k(    3) = (   0.0000000   0.0713467   0.0000000), wk =   0.0555556
        k(    4) = (   0.0000000  -0.1070200   0.0000000), wk =   0.0277778
        k(    5) = (   0.0323456   0.0178367   0.0000000), wk =   0.0555556
        k(    6) = (   0.0323456   0.0535100   0.0000000), wk =   0.0555556
        k(    7) = (   0.0323456   0.0891833   0.0000000), wk =   0.0555556
        k(    8) = (   0.0323456  -0.0891833   0.0000000), wk =   0.0555556
        k(    9) = (   0.0323456  -0.0535100   0.0000000), wk =   0.0555556
        k(   10) = (   0.0323456  -0.0178367   0.0000000), wk =   0.0555556
        k(   11) = (   0.0646912   0.0356733   0.0000000), wk =   0.0555556
        k(   12) = (   0.0646912   0.0713467   0.0000000), wk =   0.0555556
        k(   13) = (   0.0646912   0.1070200   0.0000000), wk =   0.0555556
        k(   14) = (   0.0646912  -0.0713467   0.0000000), wk =   0.0555556
        k(   15) = (   0.0646912  -0.0356733   0.0000000), wk =   0.0555556
        k(   16) = (   0.0646912   0.0000000   0.0000000), wk =   0.0555556
        k(   17) = (  -0.0970368  -0.0535100   0.0000000), wk =   0.0277778
        k(   18) = (  -0.0970368  -0.0178367   0.0000000), wk =   0.0555556
        k(   19) = (  -0.0970368   0.0178367   0.0000000), wk =   0.0555556
        k(   20) = (  -0.0970368  -0.1605300   0.0000000), wk =   0.0277778
        k(   21) = (   0.0000000   0.0000000   0.0000000), wk =   0.0277778
        k(   22) = (   0.0000000   0.0356733   0.0000000), wk =   0.0555556
        k(   23) = (   0.0000000   0.0713467   0.0000000), wk =   0.0555556
        k(   24) = (   0.0000000  -0.1070200   0.0000000), wk =   0.0277778
        k(   25) = (   0.0323456   0.0178367   0.0000000), wk =   0.0555556
        k(   26) = (   0.0323456   0.0535100   0.0000000), wk =   0.0555556
        k(   27) = (   0.0323456   0.0891833   0.0000000), wk =   0.0555556
        k(   28) = (   0.0323456  -0.0891833   0.0000000), wk =   0.0555556
        k(   29) = (   0.0323456  -0.0535100   0.0000000), wk =   0.0555556
        k(   30) = (   0.0323456  -0.0178367   0.0000000), wk =   0.0555556
        k(   31) = (   0.0646912   0.0356733   0.0000000), wk =   0.0555556
        k(   32) = (   0.0646912   0.0713467   0.0000000), wk =   0.0555556
        k(   33) = (   0.0646912   0.1070200   0.0000000), wk =   0.0555556
        k(   34) = (   0.0646912  -0.0713467   0.0000000), wk =   0.0555556
        k(   35) = (   0.0646912  -0.0356733   0.0000000), wk =   0.0555556
        k(   36) = (   0.0646912   0.0000000   0.0000000), wk =   0.0555556
        k(   37) = (  -0.0970368  -0.0535100   0.0000000), wk =   0.0277778
        k(   38) = (  -0.0970368  -0.0178367   0.0000000), wk =   0.0555556
        k(   39) = (  -0.0970368   0.0178367   0.0000000), wk =   0.0555556
        k(   40) = (  -0.0970368  -0.1605300   0.0000000), wk =   0.0277778

     Largest allocated arrays     est. size (Mb)     dimensions
     Largest temporary arrays     est. size (Mb)     dimensions

     Check: negative/imaginary core charge=   -0.000005    0.000000

     Initial potential from superposition of free atoms
     Check: negative starting charge=(component1):   -0.000337
     Check: negative starting charge=(component2):   -0.000275

     starting charge  209.99912, renormalised to  216.00000

     negative rho (up, down):  3.461E-04 2.824E-04

     *
     * You are using vdW-DF for exchange-correlation in this calculation.
     * Please cite the following three references that made this development
     * possible:
     *
     *   M. Dion, H. Rydberg, E. Schroder, D. C. Langreth, and
     *   B. I. Lundqvist, Phys. Rev. Lett. 92, 246401 (2004).
     *
     *   T. Thonhauser, V. R. Cooper, S. Li, A. Puzder, P. Hyldgaard, and
     *   D. C. Langreth, Phys. Rev. B 76, 125112 (2007).
     *
     *   G. Roman-Perez and J. M. Soler, Phys. Rev. Lett. 103, 096102 (2009).
     *
     *
     * If you are using vdW-DF2, please also cite:
     *
     *   K. Lee, E. D. Murray, L. Kong, B. I. Lundqvist, and
     *   D. C. Langreth, Phys. Rev. B 82, 081101(R) (2010).
     *
     *
     * If you are calculating the stress with vdW-DF, please also cite:
     *
     *   R. Sabatini, E. Kucukbenli, B. Kolb, T. Thonhauser, and
     *   S. de Gironcoli, J. Phys.: Condens. Matter 24, 424209 (2012).
     *

     Carrying out vdW-DF run using the following parameters:

     Nqs =      20    Nr_points =    1024   r_max =   100.000
     q_mesh =
               0.00001000     0.04494208     0.09755937     0.15916263
               0.23128650     0.31572767     0.41458969     0.53033537
               0.66584808     0.82450364     1.01025438     1.22772762
               1.48234092     1.78043706     2.12944203     2.53805004
               3.01644009     3.57652955     4.23227104     5.00000000

     Gradients computed in reciprocal space

     Adding external electric field

     Computed dipole along edir(3) :
        Dipole               -0.0000 Ry au,         -0.0000 Debye
        Dipole field         -0.0000 Ry au

        Potential amp.        0.0000 Ry
        Total length         44.7695 bohr

[...]

     Starting wfc are  156 randomized atomic wfcs

     Self-consistent Calculation

     iteration #  1     ecut=    36.75 Ry     beta=0.10
     Davidson diagonalization with overlap
     ethr =  1.00E-02,  avg # of iterations =  7.5

[...]

     Magnetic moment per site:
     atom:    1    charge:    7.3133    magn:    0.8191    constr:    0.0000
     atom:    2    charge:    7.3133    magn:    0.8191    constr:    0.0000
     atom:    3    charge:   11.6001    magn:    1.2088    constr:    0.0000
     atom:    4    charge:   11.6001    magn:    1.2088    constr:    0.0000
     atom:    5    charge:    7.3200    magn:    0.8207    constr:    0.0000
     atom:    6    charge:    7.3200    magn:    0.8207    constr:    0.0000
[...]
        k(    8) = (   0.0323456  -0.0891833   0.0000000), wk =   0.0555556
        k(    9) = (   0.0323456  -0.0535100   0.0000000), wk =   0.0555556
        k(   10) = (   0.0323456  -0.0178367   0.0000000), wk =   0.0555556
        k(   11) = (   0.0646912   0.0356733   0.0000000), wk =   0.0555556
        k(   12) = (   0.0646912   0.0713467   0.0000000), wk =   0.0555556
        k(   13) = (   0.0646912   0.1070200   0.0000000), wk =   0.0555556
        k(   14) = (   0.0646912  -0.0713467   0.0000000), wk =   0.0555556
        k(   15) = (   0.0646912  -0.0356733   0.0000000), wk =   0.0555556
        k(   16) = (   0.0646912   0.0000000   0.0000000), wk =   0.0555556
        k(   17) = (  -0.0970368  -0.0535100   0.0000000), wk =   0.0277778
        k(   18) = (  -0.0970368  -0.0178367   0.0000000), wk =   0.0555556
        k(   19) = (  -0.0970368   0.0178367   0.0000000), wk =   0.0555556
        k(   20) = (  -0.0970368  -0.1605300   0.0000000), wk =   0.0277778
        k(   21) = (   0.0000000   0.0000000   0.0000000), wk =   0.0277778
        k(   22) = (   0.0000000   0.0356733   0.0000000), wk =   0.0555556
        k(   23) = (   0.0000000   0.0713467   0.0000000), wk =   0.0555556
        k(   24) = (   0.0000000  -0.1070200   0.0000000), wk =   0.0277778
        k(   25) = (   0.0323456   0.0178367   0.0000000), wk =   0.0555556
        k(   26) = (   0.0323456   0.0535100   0.0000000), wk =   0.0555556
        k(   27) = (   0.0323456   0.0891833   0.0000000), wk =   0.0555556
        k(   28) = (   0.0323456  -0.0891833   0.0000000), wk =   0.0555556
        k(   29) = (   0.0323456  -0.0535100   0.0000000), wk =   0.0555556
        k(   30) = (   0.0323456  -0.0178367   0.0000000), wk =   0.0555556
        k(   31) = (   0.0646912   0.0356733   0.0000000), wk =   0.0555556
        k(   32) = (   0.0646912   0.0713467   0.0000000), wk =   0.0555556
        k(   33) = (   0.0646912   0.1070200   0.0000000), wk =   0.0555556
        k(   34) = (   0.0646912  -0.0713467   0.0000000), wk =   0.0555556
        k(   35) = (   0.0646912  -0.0356733   0.0000000), wk =   0.0555556
        k(   36) = (   0.0646912   0.0000000   0.0000000), wk =   0.0555556
        k(   37) = (  -0.0970368  -0.0535100   0.0000000), wk =   0.0277778
        k(   38) = (  -0.0970368  -0.0178367   0.0000000), wk =   0.0555556
        k(   39) = (  -0.0970368   0.0178367   0.0000000), wk =   0.0555556
        k(   40) = (  -0.0970368  -0.1605300   0.0000000), wk =   0.0277778

     Largest allocated arrays     est. size (Mb)     dimensions
     Largest temporary arrays     est. size (Mb)     dimensions

     Check: negative/imaginary core charge=   -0.000005    0.000000

     Initial potential from superposition of free atoms
     Check: negative starting charge=(component1):   -0.000325
     Check: negative starting charge=(component2):   -0.000265

     starting charge  209.99912, renormalised to  216.00000

[...]

     *
     * You are using vdW-DF for exchange-correlation in this calculation.
     * Please cite the following three references that made this development
     * possible:
     *
     *   M. Dion, H. Rydberg, E. Schroder, D. C. Langreth, and
     *   B. I. Lundqvist, Phys. Rev. Lett. 92, 246401 (2004).
     *
     *   T. Thonhauser, V. R. Cooper, S. Li, A. Puzder, P. Hyldgaard, and
     *   D. C. Langreth, Phys. Rev. B 76, 125112 (2007).
     *
     *   G. Roman-Perez and J. M. Soler, Phys. Rev. Lett. 103, 096102 (2009).
     *
     *
     * If you are using vdW-DF2, please also cite:
     *
     *   K. Lee, E. D. Murray, L. Kong, B. I. Lundqvist, and
     *   D. C. Langreth, Phys. Rev. B 82, 081101(R) (2010).
     *
     *
     * If you are calculating the stress with vdW-DF, please also cite:
     *
     *   R. Sabatini, E. Kucukbenli, B. Kolb, T. Thonhauser, and
     *   S. de Gironcoli, J. Phys.: Condens. Matter 24, 424209 (2012).
     *

     Carrying out vdW-DF run using the following parameters:

     Nqs =      20    Nr_points =    1024   r_max =   100.000
     q_mesh =
               0.00001000     0.04494208     0.09755937     0.15916263
               0.23128650     0.31572767     0.41458969     0.53033537
               0.66584808     0.82450364     1.01025438     1.22772762
               1.48234092     1.78043706     2.12944203     2.53805004
               3.01644009     3.57652955     4.23227104     5.00000000

     Gradients computed in reciprocal space

[...]

     Starting wfc are  156 randomized atomic wfcs

     Self-consistent Calculation

[...]

     iteration # 18     ecut=    36.75 Ry     beta=0.10
     Davidson diagonalization with overlap
     c_bands:  1 eigenvalues not converged
     c_bands:  1 eigenvalues not converged
     ethr =  1.62E-06,  avg # of iterations =  2.6

[...]

     total energy              =   -4284.59503513 Ry
     Harris-Foulkes estimate   =   -4284.59503231 Ry
     estimated scf accuracy    <       0.00000102 Ry

[...]

     iteration # 28     ecut=    36.75 Ry     beta=0.10
     Davidson diagonalization with overlap
     ethr =  4.73E-10,  avg # of iterations =  2.0

[...]

     negative rho (up, down):  4.317E-04 1.000E-03

[...]

     Adding external electric field

     Computed dipole along edir(3) :
        Dipole               -0.0112 Ry au,         -0.0284 Debye
        Dipole field         -0.0000 Ry au

        Potential amp.        0.0032 Ry
        Total length         44.7695 bohr

     Magnetic moment per site:
     atom:    1    charge:    7.0891    magn:    1.2728    constr:    0.0000
     atom:    2    charge:    7.0892    magn:    1.2728    constr:    0.0000
     atom:    3    charge:   11.6783    magn:    0.0088    constr:    0.0000
     atom:    4    charge:   11.6783    magn:    0.0088    constr:    0.0000
     atom:    5    charge:    7.0907    magn:    1.1811    constr:    0.0000
     atom:    6    charge:    7.0908    magn:    1.1811    constr:    0.0000
     atom:    7    charge:   11.6829    magn:    0.0097    constr:    0.0000
     atom:    8    charge:   11.6829    magn:    0.0097    constr:    0.0000
     atom:    9    charge:    7.0905    magn:    1.2496    constr:    0.0000
     atom:   10    charge:    7.0907    magn:    1.2494    constr:    0.0000
     atom:   11    charge:   11.6853    magn:    0.0072    constr:    0.0000
     atom:   12    charge:   11.6853    magn:    0.0072    constr:    0.0000

     End of self-consistent calculation

 ------ SPIN UP ------------

[...]

 ------ SPIN DOWN ----------

[...]

          k = 0.0647 0.0000 0.0000 ( 14793 PWs)   bands (ev):

[...]

          k =-0.0970-0.1605 0.0000 ( 14840 PWs)   bands (ev):

  -125.7389-125.7389-125.5241-125.5241-125.4217-125.4217 -84.7235 -84.7234
   -84.6856 -84.6855 -84.6461 -84.6457 -79.9285 -79.9285 -79.9244 -79.9244
   -79.8829 -79.8829 -79.7125 -79.7125 -79.7100 -79.7100 -79.6705 -79.6705
   -79.6137 -79.6136 -79.6041 -79.6040 -79.5710 -79.5710 -50.8917 -50.8916
   -50.8658 -50.8657 -50.8443 -50.8442 -50.8058 -50.8057 -50.8032 -50.8028
   -50.7731 -50.7729 -50.7447 -50.7447 -50.7098 -50.7094 -50.6845 -50.6844
    -7.0723  -7.0723  -6.9317  -6.9316  -6.8693  -6.8693  -6.8267  -6.8267
    -6.7710  -6.7709  -6.6349  -6.6348  -6.5261  -6.5261  -6.4895  -6.4894
    -6.4299  -6.4290  -6.4224  -6.4222  -6.3886  -6.3883  -6.3750  -6.3744
    -6.2967  -6.2965  -6.2924  -6.2920  -6.2678  -6.2677  -5.9919  -5.9914
    -4.5258  -4.5247  -3.0126  -3.0121  -1.8530  -1.8527  -0.9586  -0.9584
    -0.2690  -0.2688  -0.1742  -0.1741   0.0475   0.0477   0.2729   0.2730
     0.4125   0.4128   0.5729   0.5731   0.6570   0.6573   0.9325   0.9326
     1.0159   1.0159   1.2302   1.2303   1.6220   1.6222   1.8478   1.8478
     2.0460   2.0460   2.1616   2.1617   2.5983   2.5985   3.3936   3.3940
     4.0869   4.0871   5.8143   5.8144   6.4972   6.4972   6.5879   6.5881
     6.9155   6.9156   7.0456   7.0459   7.3581   7.3587   7.8787   7.8788
     8.1496   8.1497

     the Fermi energy is     0.7410 ev

!    total energy              =   -4284.59504558 Ry
     Harris-Foulkes estimate   =   -4284.59503516 Ry
     estimated scf accuracy    <       0.00000065 Ry

     The total energy is the sum of the following terms:

     one-electron contribution =  -31616.68513045 Ry
     hartree contribution      =   15799.01706271 Ry
     xc contribution           =    -442.39332396 Ry
     ewald contribution        =   11975.52533301 Ry
     electric field correction =       0.00000040 Ry
     smearing contrib. (-TS)   =      -0.05898728 Ry

     total magnetization       =    14.94 Bohr mag/cell
     absolute magnetization    =    17.25 Bohr mag/cell

     convergence has been achieved in  28 iterations

 BEEF-vdW xc energy contributions
           1 :   -390.758833811941
           2 :    353.971526843755
           3 :   -292.296336140727
           4 :    223.708931211205
           5 :   -164.219440436746
           6 :    121.927173479999
           7 :   -95.8747917357625
           8 :    79.3975979515176
           9 :   -65.3628271741141
          10 :    50.1209588111178
          11 :   -34.3414140480658
          12 :    21.0089165225887
          13 :   -12.4912862022650
          14 :    8.73727471827232
          15 :   -7.54353603439432
          16 :    6.26980081542928
          17 :   -3.56025093815146
          18 :  -0.112112497460373
          19 :    3.22506695354201
          20 :   -4.55072645279171
          21 :    4.04155741986466
          22 :   -2.74046971043271
          23 :    1.93619998674950
          24 :   -2.27818956717294
          25 :    3.46040908792878
          26 :   -4.60308240978924
          27 :    4.95095561534623
          28 :   -4.36996489082225
          29 :    3.34071155067915
          30 :   -2.54770978769062
          31 :   -31.8801677761252
          32 :   -22.0952104882554

     Forces acting on atoms (Ry/au):

     negative rho (up, down):  4.317E-04 1.000E-03
     atom    1 type  1   force =    -0.00001223    0.00658558    0.01586796
     atom    2 type  1   force =    -0.00001224    0.00659246    0.01586295
     atom    3 type  2   force =    -0.00000192   -0.00482892   -0.02144788
     atom    4 type  2   force =    -0.00002223   -0.00482887   -0.02144785
     atom    5 type  1   force =     0.00003609   -0.00862507    0.00292821
     atom    6 type  1   force =     0.00003620   -0.00857454    0.00301348
     atom    7 type  2   force =     0.00007600    0.00787662    0.00426606
     atom    8 type  2   force =    -0.00013353    0.00787653    0.00426608
     atom    9 type  1   force =     0.00001908   -0.00030755   -0.00108722
     atom   10 type  1   force =     0.00001928   -0.00019712   -0.00110814
     atom   11 type  2   force =     0.00015764   -0.00078481   -0.00055671
     atom   12 type  2   force =    -0.00016216   -0.00078431   -0.00055693

     Total force =     0.043445     Total SCF correction =     0.001255

     entering subroutine stress ...

     negative rho (up, down):  4.317E-04 1.000E-03
          total   stress  (Ry/bohr**3)                   (kbar)     P=  -14.02
  -0.00010725  -0.00000001   0.00000000        -15.78     -0.00      0.00
  -0.00000001  -0.00014982  -0.00000599         -0.00    -22.04     -0.88
   0.00000000  -0.00000599  -0.00002879          0.00     -0.88     -4.23

 !ASE

     Writing output data file calc.save

     General routines

     Parallel routines

   This run was terminated on:  22:19:43  24Dec2018

   JOB DONE.
Job  /afs/slac/g/suncat/bin/suncat-tsmpirun -x LD_LIBRARY_PATH -wdir /scratch/qe108956_1Q1hY pw.x -in pw.inp

TID   HOST_NAME   COMMAND_LINE            STATUS            TERMINATION_TIME
00000 suncat0169 pw.x -in pw.inp   Done                     12/24/2018 22:19:43
00001 suncat0169 pw.x -in pw.inp   Done                     12/24/2018 22:19:43
00002 suncat0169 pw.x -in pw.inp   Done                     12/24/2018 22:19:43
00003 suncat0169 pw.x -in pw.inp   Done                     12/24/2018 22:19:43
00004 suncat0169 pw.x -in pw.inp   Done                     12/24/2018 22:19:43
00005 suncat0169 pw.x -in pw.inp   Done                     12/24/2018 22:19:43
00006 suncat0169 pw.x -in pw.inp   Done                     12/24/2018 22:19:43
00007 suncat0169 pw.x -in pw.inp   Done                     12/24/2018 22:19:43
00008 suncat0168 pw.x -in pw.inp   Done                     12/24/2018 22:19:43
00009 suncat0168 pw.x -in pw.inp   Done                     12/24/2018 22:19:43
00010 suncat0168 pw.x -in pw.inp   Done                     12/24/2018 22:19:43
00011 suncat0168 pw.x -in pw.inp   Done                     12/24/2018 22:19:43
00012 suncat0168 pw.x -in pw.inp   Done                     12/24/2018 22:19:43
00013 suncat0168 pw.x -in pw.inp   Done                     12/24/2018 22:19:43
00014 suncat0168 pw.x -in pw.inp   Done                     12/24/2018 22:19:43
00015 suncat0168 pw.x -in pw.inp   Done                     12/24/2018 22:19:43
00016 suncat0110 pw.x -in pw.inp   Done                     12/24/2018 22:19:43
00017 suncat0110 pw.x -in pw.inp   Done                     12/24/2018 22:19:43
00018 suncat0110 pw.x -in pw.inp   Done                     12/24/2018 22:19:43
00019 suncat0110 pw.x -in pw.inp   Done                     12/24/2018 22:19:43
00020 suncat0110 pw.x -in pw.inp   Done                     12/24/2018 22:19:43
00021 suncat0110 pw.x -in pw.inp   Done                     12/24/2018 22:19:43
00022 suncat0110 pw.x -in pw.inp   Done                     12/24/2018 22:19:43
00023 suncat0110 pw.x -in pw.inp   Done                     12/24/2018 22:19:43
00024 suncat0109 pw.x -in pw.inp   Done                     12/24/2018 22:19:43
00025 suncat0109 pw.x -in pw.inp   Done                     12/24/2018 22:19:43
00026 suncat0109 pw.x -in pw.inp   Done                     12/24/2018 22:19:43
00027 suncat0109 pw.x -in pw.inp   Done                     12/24/2018 22:19:43
00028 suncat0109 pw.x -in pw.inp   Done                     12/24/2018 22:19:43
00029 suncat0109 pw.x -in pw.inp   Done                     12/24/2018 22:19:43
00030 suncat0109 pw.x -in pw.inp   Done                     12/24/2018 22:19:43
00031 suncat0109 pw.x -in pw.inp   Done                     12/24/2018 22:19:43
00032 suncat0277 pw.x -in pw.inp   Done                     12/24/2018 22:19:43
00033 suncat0277 pw.x -in pw.inp   Done                     12/24/2018 22:19:43
00034 suncat0277 pw.x -in pw.inp   Done                     12/24/2018 22:19:43
00035 suncat0277 pw.x -in pw.inp   Done                     12/24/2018 22:19:43
00036 suncat0277 pw.x -in pw.inp   Done                     12/24/2018 22:19:43
00037 suncat0277 pw.x -in pw.inp   Done                     12/24/2018 22:19:43
00038 suncat0277 pw.x -in pw.inp   Done                     12/24/2018 22:19:43
00039 suncat0277 pw.x -in pw.inp   Done                     12/24/2018 22:19:43
00040 suncat0276 pw.x -in pw.inp   Done                     12/24/2018 22:19:43
00041 suncat0276 pw.x -in pw.inp   Done                     12/24/2018 22:19:43
00042 suncat0276 pw.x -in pw.inp   Done                     12/24/2018 22:19:43
00043 suncat0276 pw.x -in pw.inp   Done                     12/24/2018 22:19:43
00044 suncat0276 pw.x -in pw.inp   Done                     12/24/2018 22:19:43
00045 suncat0276 pw.x -in pw.inp   Done                     12/24/2018 22:19:43
00046 suncat0276 pw.x -in pw.inp   Done                     12/24/2018 22:19:43
00047 suncat0276 pw.x -in pw.inp   Done                     12/24/2018 22:19:43
00048 suncat0274 pw.x -in pw.inp   Done                     12/24/2018 22:19:43
00049 suncat0274 pw.x -in pw.inp   Done                     12/24/2018 22:19:43
00050 suncat0274 pw.x -in pw.inp   Done                     12/24/2018 22:19:43
00051 suncat0274 pw.x -in pw.inp   Done                     12/24/2018 22:19:43
00052 suncat0274 pw.x -in pw.inp   Done                     12/24/2018 22:19:43
00053 suncat0274 pw.x -in pw.inp   Done                     12/24/2018 22:19:43
00054 suncat0274 pw.x -in pw.inp   Done                     12/24/2018 22:19:43
00055 suncat0274 pw.x -in pw.inp   Done                     12/24/2018 22:19:43
00056 suncat0273 pw.x -in pw.inp   Done                     12/24/2018 22:19:43
00057 suncat0273 pw.x -in pw.inp   Done                     12/24/2018 22:19:43
00058 suncat0273 pw.x -in pw.inp   Done                     12/24/2018 22:19:43
00059 suncat0273 pw.x -in pw.inp   Done                     12/24/2018 22:19:43
00060 suncat0273 pw.x -in pw.inp   Done                     12/24/2018 22:19:43
00061 suncat0273 pw.x -in pw.inp   Done                     12/24/2018 22:19:43
00062 suncat0273 pw.x -in pw.inp   Done                     12/24/2018 22:19:43
00063 suncat0273 pw.x -in pw.inp   Done                     12/24/2018 22:19:43