     Program PWSCF v.5.1rc2 (svn rev. ) starts on 25Oct2017 at  7:12:37

     Current dimensions of program PWSCF are:
     Max number of different atomic species (ntypx) = 10
     Max number of k-points (npk) =  40000
     Max angular momentum in pseudopotentials (lmaxx) =  3

     IMPORTANT: XC functional enforced from input :
     Exchange-correlation      = BEEF-VDW ( 1  4 27 13 2)
     Any further DFT definition will be discarded
     Please, verify this is what you really want

     Subspace diagonalization in iterative solution of the eigenvalue problem:
     a serial algorithm will be used

     bravais-lattice index     =            0
     lattice parameter (alat)  =       1.8897  a.u.
     unit-cell volume          =     510.9247 (a.u.)^3
     number of atoms/cell      =            4
     number of atomic types    =            2
     number of electrons       =        53.00
     number of Kohn-Sham states=           46
     kinetic-energy cutoff     =      58.7989  Ry
     charge density cutoff     =     587.9892  Ry
     convergence threshold     =      7.3E-09
     mixing beta               =       0.1000
     number of iterations used =           10  local-TF  mixing
     Exchange-correlation      = BEEF-VDW ( 1  4 27 13 2)
     nstep                     =           50

     celldm(1)=   1.889726  celldm(2)=   0.000000  celldm(3)=   0.000000
     celldm(4)=   0.000000  celldm(5)=   0.000000  celldm(6)=   0.000000

     crystal axes: (cart. coord. in units of alat)
               a(1) = (   4.230452   0.000000   0.000000 )
               a(2) = (   0.000000   4.230452   0.000000 )
               a(3) = (   0.000000   0.000000   4.230452 )

     reciprocal axes: (cart. coord. in units 2 pi/alat)
               b(1) = (  0.236381  0.000000  0.000000 )
               b(2) = (  0.000000  0.236381  0.000000 )
               b(3) = (  0.000000  0.000000  0.236381 )

     PseudoPot. # 1 for W  read from file:
     /home/vossj/suncat/psp/gbrv1.5pbe/W.UPF
     MD5 check sum: 9c083fa34c2a2ea0f02f1f893e16e1c8
     Pseudo is Ultrasoft + core correction, Zval = 14.0
     Generated by new atomic code, or converted to UPF format
     Using radial grid of  923 points,  8 beta functions with:
                l(1) =   0
                l(2) =   0
                l(3) =   0
                l(4) =   1
                l(5) =   1
                l(6) =   2
                l(7) =   2
                l(8) =   3
     Q(r) pseudized with  6 coefficients,  rinner =    1.350   1.350   1.350
                                                       1.350   1.350   1.350
                                                       1.350

     PseudoPot. # 2 for Y  read from file:
     /home/vossj/suncat/psp/gbrv1.5pbe/Y.UPF
     MD5 check sum: d034151ed7554c50b6e82763ed42c788
     Pseudo is Ultrasoft + core correction, Zval = 11.0
     Generated by new atomic code, or converted to UPF format
     Using radial grid of  885 points,  6 beta functions with:
                l(1) =   0
                l(2) =   0
                l(3) =   1
                l(4) =   1
                l(5) =   2
                l(6) =   2
     Q(r) pseudized with  8 coefficients,  rinner =    1.200   1.200   1.200
                                                       1.200   1.200

     vdW kernel table read from file vdW_kernel_table
     MD5 check sum: 095c7af220d748ca6e76c0b4c6cfb241

     atomic species   valence    mass     pseudopotential
        W1            14.00   183.84000     W ( 1.00)
        Y1            11.00    88.90584     Y ( 1.00)

     48 Sym. Ops., with inversion, found (32 have fractional translation)

   Cartesian axes

     site n.     atom                  positions (alat units)
         1           W1  tau(   1) = (   0.0000000   0.0000000   0.0000000  )
         2           W1  tau(   2) = (   0.0000000   2.1152259   2.1152259  )
         3           W1  tau(   3) = (   2.1152259   0.0000000   2.1152259  )
         4           Y1  tau(   4) = (   2.1152259   2.1152259   0.0000000  )

     number of k points=    84  Fermi-Dirac smearing, width (Ry)=  0.0073
                       cart. coord. in units 2pi/alat
        k(    1) = (   0.0000000   0.0000000   0.0000000), wk =   0.0011574
        k(    2) = (   0.0000000   0.0000000   0.0196984), wk =   0.0069444
        k(    3) = (   0.0000000   0.0000000   0.0393969), wk =   0.0069444
        k(    4) = (   0.0000000   0.0000000   0.0590953), wk =   0.0069444
        k(    5) = (   0.0000000   0.0000000   0.0787938), wk =   0.0069444
        k(    6) = (   0.0000000   0.0000000   0.0984922), wk =   0.0069444
        k(    7) = (   0.0000000   0.0000000  -0.1181907), wk =   0.0034722
        k(    8) = (   0.0000000   0.0196984   0.0196984), wk =   0.0138889
        k(    9) = (   0.0000000   0.0196984   0.0393969), wk =   0.0277778
        k(   10) = (   0.0000000   0.0196984   0.0590953), wk =   0.0277778
        k(   11) = (   0.0000000   0.0196984   0.0787938), wk =   0.0277778
        k(   12) = (   0.0000000   0.0196984   0.0984922), wk =   0.0277778
        k(   13) = (   0.0000000   0.0196984  -0.1181907), wk =   0.0138889
        k(   14) = (   0.0000000   0.0393969   0.0393969), wk =   0.0138889
        k(   15) = (   0.0000000   0.0393969   0.0590953), wk =   0.0277778
        k(   16) = (   0.0000000   0.0393969   0.0787938), wk =   0.0277778
        k(   17) = (   0.0000000   0.0393969   0.0984922), wk =   0.0277778
        k(   18) = (   0.0000000   0.0393969  -0.1181907), wk =   0.0138889
        k(   19) = (   0.0000000   0.0590953   0.0590953), wk =   0.0138889
        k(   20) = (   0.0000000   0.0590953   0.0787938), wk =   0.0277778
        k(   21) = (   0.0000000   0.0590953   0.0984922), wk =   0.0277778
        k(   22) = (   0.0000000   0.0590953  -0.1181907), wk =   0.0138889
        k(   23) = (   0.0000000   0.0787938   0.0787938), wk =   0.0138889
        k(   24) = (   0.0000000   0.0787938   0.0984922), wk =   0.0277778
        k(   25) = (   0.0000000   0.0787938  -0.1181907), wk =   0.0138889
        k(   26) = (   0.0000000   0.0984922   0.0984922), wk =   0.0138889
        k(   27) = (   0.0000000   0.0984922  -0.1181907), wk =   0.0138889
        k(   28) = (   0.0000000  -0.1181907  -0.1181907), wk =   0.0034722
        k(   29) = (   0.0196984   0.0196984   0.0196984), wk =   0.0092593
        k(   30) = (   0.0196984   0.0196984   0.0393969), wk =   0.0277778
        k(   31) = (   0.0196984   0.0196984   0.0590953), wk =   0.0277778
        k(   32) = (   0.0196984   0.0196984   0.0787938), wk =   0.0277778
        k(   33) = (   0.0196984   0.0196984   0.0984922), wk =   0.0277778
        k(   34) = (   0.0196984   0.0196984  -0.1181907), wk =   0.0138889
        k(   35) = (   0.0196984   0.0393969   0.0393969), wk =   0.0277778
        k(   36) = (   0.0196984   0.0393969   0.0590953), wk =   0.0555556
        k(   37) = (   0.0196984   0.0393969   0.0787938), wk =   0.0555556
        k(   38) = (   0.0196984   0.0393969   0.0984922), wk =   0.0555556
        k(   39) = (   0.0196984   0.0393969  -0.1181907), wk =   0.0277778
        k(   40) = (   0.0196984   0.0590953   0.0590953), wk =   0.0277778
        k(   41) = (   0.0196984   0.0590953   0.0787938), wk =   0.0555556
        k(   42) = (   0.0196984   0.0590953   0.0984922), wk =   0.0555556
        k(   43) = (   0.0196984   0.0590953  -0.1181907), wk =   0.0277778
        k(   44) = (   0.0196984   0.0787938   0.0787938), wk =   0.0277778
        k(   45) = (   0.0196984   0.0787938   0.0984922), wk =   0.0555556
        k(   46) = (   0.0196984   0.0787938  -0.1181907), wk =   0.0277778
        k(   47) = (   0.0196984   0.0984922   0.0984922), wk =   0.0277778
        k(   48) = (   0.0196984   0.0984922  -0.1181907), wk =   0.0277778
        k(   49) = (   0.0196984  -0.1181907  -0.1181907), wk =   0.0069444
        k(   50) = (   0.0393969   0.0393969   0.0393969), wk =   0.0092593
        k(   51) = (   0.0393969   0.0393969   0.0590953), wk =   0.0277778
        k(   52) = (   0.0393969   0.0393969   0.0787938), wk =   0.0277778
        k(   53) = (   0.0393969   0.0393969   0.0984922), wk =   0.0277778
        k(   54) = (   0.0393969   0.0393969  -0.1181907), wk =   0.0138889
        k(   55) = (   0.0393969   0.0590953   0.0590953), wk =   0.0277778
        k(   56) = (   0.0393969   0.0590953   0.0787938), wk =   0.0555556
        k(   57) = (   0.0393969   0.0590953   0.0984922), wk =   0.0555556
        k(   58) = (   0.0393969   0.0590953  -0.1181907), wk =   0.0277778
        k(   59) = (   0.0393969   0.0787938   0.0787938), wk =   0.0277778
        k(   60) = (   0.0393969   0.0787938   0.0984922), wk =   0.0555556
[...]
        k(   70) = (   0.0590953   0.0787938   0.0984922), wk =   0.0555556
        k(   71) = (   0.0590953   0.0787938  -0.1181907), wk =   0.0277778
        k(   72) = (   0.0590953   0.0984922   0.0984922), wk =   0.0277778
        k(   73) = (   0.0590953   0.0984922  -0.1181907), wk =   0.0277778
        k(   74) = (   0.0590953  -0.1181907  -0.1181907), wk =   0.0069444
        k(   75) = (   0.0787938   0.0787938   0.0787938), wk =   0.0092593
        k(   76) = (   0.0787938   0.0787938   0.0984922), wk =   0.0277778
        k(   77) = (   0.0787938   0.0787938  -0.1181907), wk =   0.0138889
        k(   78) = (   0.0787938   0.0984922   0.0984922), wk =   0.0277778
        k(   79) = (   0.0787938   0.0984922  -0.1181907), wk =   0.0277778
        k(   80) = (   0.0787938  -0.1181907  -0.1181907), wk =   0.0069444
        k(   81) = (   0.0984922   0.0984922   0.0984922), wk =   0.0092593
        k(   82) = (   0.0984922   0.0984922  -0.1181907), wk =   0.0138889
        k(   83) = (   0.0984922  -0.1181907  -0.1181907), wk =   0.0069444
        k(   84) = (  -0.1181907  -0.1181907  -0.1181907), wk =   0.0011574

     Largest allocated arrays     est. size (Mb)     dimensions
     Largest temporary arrays     est. size (Mb)     dimensions

     Initial potential from superposition of free atoms
     Check: negative starting charge=   -0.186317

     starting charge   52.69451, renormalised to   53.00000

     negative rho (up, down):  1.874E-01 0.000E+00

     *
     * You are using vdW-DF for exchange-correlation in this calculation.
     * Please cite the following three references that made this development
     * possible:
     *
     *   M. Dion, H. Rydberg, E. Schroder, D. C. Langreth, and
     *   B. I. Lundqvist, Phys. Rev. Lett. 92, 246401 (2004).
     *
     *   T. Thonhauser, V. R. Cooper, S. Li, A. Puzder, P. Hyldgaard, and
     *   D. C. Langreth, Phys. Rev. B 76, 125112 (2007).
     *
     *   G. Roman-Perez and J. M. Soler, Phys. Rev. Lett. 103, 096102 (2009).
     *
     *
     * If you are using vdW-DF2, please also cite:
     *
     *   K. Lee, E. D. Murray, L. Kong, B. I. Lundqvist, and
     *   D. C. Langreth, Phys. Rev. B 82, 081101(R) (2010).
     *
     *
     * If you are calculating the stress with vdW-DF, please also cite:
     *
     *   R. Sabatini, E. Kucukbenli, B. Kolb, T. Thonhauser, and
     *   S. de Gironcoli, J. Phys.: Condens. Matter 24, 424209 (2012).
     *

     Carrying out vdW-DF run using the following parameters:

     Nqs =      20    Nr_points =    1024   r_max =   100.000
     q_mesh =
               0.00001000     0.04494208     0.09755937     0.15916263
               0.23128650     0.31572767     0.41458969     0.53033537
               0.66584808     0.82450364     1.01025438     1.22772762
               1.48234092     1.78043706     2.12944203     2.53805004
               3.01644009     3.57652955     4.23227104     5.00000000

     Gradients computed in reciprocal space

     Starting wfc are   52 randomized atomic wfcs

     Self-consistent Calculation

     iteration #  1     ecut=    58.80 Ry     beta=0.10
     Davidson diagonalization with overlap
     ethr =  1.00E-02,  avg # of iterations =  4.6

     Threshold (ethr) on eigenvalues was too large:
     Diagonalizing with lowered threshold

     Davidson diagonalization with overlap
     ethr =  3.97E-04,  avg # of iterations =  1.8

[...]

     total energy              =    -574.96932577 Ry
     Harris-Foulkes estimate   =    -574.97805378 Ry
     estimated scf accuracy    <       0.21432166 Ry

[...]

     total energy              =    -574.93065758 Ry
     Harris-Foulkes estimate   =    -574.93065637 Ry
     estimated scf accuracy    <       0.00000015 Ry

     iteration # 11     ecut=    58.80 Ry     beta=0.10
     Davidson diagonalization with overlap
     ethr =  2.80E-10,  avg # of iterations =  2.3

     negative rho (up, down):  2.042E-01 0.000E+00

     End of self-consistent calculation

          k = 0.0000 0.0000 0.0000 (  3887 PWs)   bands (ev):

   -56.5972 -56.5437 -56.5437 -23.4616 -20.8709 -20.8709 -20.8709 -20.5988
   -20.5988 -20.5988 -20.4038 -20.4038 -20.4038  -3.5747  -3.5747  -3.5747
    10.0999  13.3176  13.3176  13.5270  14.2014  14.2014  14.2014  17.7438
    17.7438  17.7438  20.1802  20.1802  20.7737  20.7737  20.7737  21.5948
    22.2532  22.2532  22.2532  23.9988  23.9988  25.4251  25.4251  25.4251
    27.8241  27.8241  27.8241  29.1550  29.1550  29.7531

[...]

          k = 0.0985-0.1182-0.1182 (  3900 PWs)   bands (ev):

[...]

          k =-0.1182-0.1182-0.1182 (  3912 PWs)   bands (ev):

   -56.5613 -56.5613 -56.5613 -23.4538 -20.9955 -20.8480 -20.8480 -20.8480
   -20.4406 -20.4406 -20.4406 -20.4052 -20.4052  -3.6239  -3.6239  -3.6239
    12.9388  12.9388  12.9388  14.1526  16.9125  16.9125  16.9125  17.6097
    17.6097  17.6097  17.8013  18.2484  18.2484  19.0499  19.0499  19.0499
    21.6602  21.6602  21.6602  23.4713  23.4713  23.4713  24.4156  24.4156
    27.7867  27.7867  27.7867  29.3986  29.3986  29.3986

     the Fermi energy is    17.7243 ev

!    total energy              =    -574.93066297 Ry
     Harris-Foulkes estimate   =    -574.93065760 Ry
     estimated scf accuracy    <          5.4E-09 Ry

     The total energy is the sum of the following terms:

     one-electron contribution =     -80.37430289 Ry
     hartree contribution      =      66.23372092 Ry
     xc contribution           =    -156.12568034 Ry
     ewald contribution        =    -404.65088237 Ry
     smearing contrib. (-TS)   =      -0.01351829 Ry

     convergence has been achieved in  11 iterations

     Forces acting on atoms (Ry/au):

     negative rho (up, down):  2.042E-01 0.000E+00
     atom    1 type  1   force =     0.00000000    0.00000000   -0.00000000
     atom    2 type  1   force =     0.00000000    0.00000000    0.00000000
     atom    3 type  1   force =     0.00000000    0.00000000    0.00000000
     atom    4 type  2   force =     0.00000000    0.00000000    0.00000000

     Total force =     0.000000     Total SCF correction =     0.000000
 !ASE

     General routines

     Parallel routines

   This run was terminated on:   7:13:37  25Oct2017

   JOB DONE.