     Program PWSCF v.5.1rc2 (svn rev. 11289) starts on  2Jan2019 at  9:54:37

     Current dimensions of program PWSCF are:
     Max number of different atomic species (ntypx) = 10
     Max number of k-points (npk) =  40000
     Max angular momentum in pseudopotentials (lmaxx) =  3
     Presently stress not available with electric field

     IMPORTANT: XC functional enforced from input :
     Exchange-correlation      = BEEF-VDW ( 1  4 27 13 2)
     Any further DFT definition will be discarded
     Please, verify this is what you really want

     Subspace diagonalization in iterative solution of the eigenvalue problem:
     a serial algorithm will be used

     bravais-lattice index     =            0
     lattice parameter (alat)  =       1.8897  a.u.
     unit-cell volume          =    4549.6294 (a.u.)^3
     number of atoms/cell      =           12
     number of atomic types    =            2
     number of electrons       =       171.00
     number of Kohn-Sham states=          115
     kinetic-energy cutoff     =      36.7493  Ry
     charge density cutoff     =     367.4932  Ry
     convergence threshold     =      1.0E-06
     mixing beta               =       0.1000
     number of iterations used =           10  plain     mixing
     Exchange-correlation      = BEEF-VDW ( 1  4 27 13 2)
     nstep                     =           50

     celldm(1)=   1.889726  celldm(2)=   0.000000  celldm(3)=   0.000000
     celldm(4)=   0.000000  celldm(5)=   0.000000  celldm(6)=   0.000000

     crystal axes: (cart. coord. in units of alat)
               a(1) = (   5.626160   0.000000   0.000000 )
               a(2) = (  -2.813080   4.872398   0.000000 )
               a(3) = (   0.000000   0.000000  24.593741 )

     reciprocal axes: (cart. coord. in units 2 pi/alat)
               b(1) = (  0.177741  0.102619  0.000000 )
               b(2) = (  0.000000  0.205238  0.000000 )
               b(3) = (  0.000000  0.000000  0.040661 )

     PseudoPot. # 1 for W  read from file:
     /afs/slac.stanford.edu/u/if/mamunm/psp/gbrv1.5pbe/W.UPF
     MD5 check sum: 9c083fa34c2a2ea0f02f1f893e16e1c8
     Pseudo is Ultrasoft + core correction, Zval = 14.0
     Generated by new atomic code, or converted to UPF format
     Using radial grid of  923 points,  8 beta functions with:
                l(1) =   0
                l(2) =   0
                l(3) =   0
                l(4) =   1
                l(5) =   1
                l(6) =   2
                l(7) =   2
                l(8) =   3
     Q(r) pseudized with  6 coefficients,  rinner =    1.350   1.350   1.350
                                                       1.350   1.350   1.350
                                                       1.350

     PseudoPot. # 2 for Rh read from file:
     /afs/slac.stanford.edu/u/if/mamunm/psp/gbrv1.5pbe/Rh.UPF
     MD5 check sum: 761627e959a2e3a1f56b0b5fe687810e
     Pseudo is Ultrasoft + core correction, Zval = 15.0
     Generated by new atomic code, or converted to UPF format
     Using radial grid of  969 points,  7 beta functions with:
                l(1) =   0
                l(2) =   0
                l(3) =   1
                l(4) =   1
                l(5) =   2
                l(6) =   2
                l(7) =   2
     Q(r) pseudized with  8 coefficients,  rinner =    1.200   1.200   1.200
                                                       1.200   1.200

     vdW kernel table read from file vdW_kernel_table
     MD5 check sum: 095c7af220d748ca6e76c0b4c6cfb241

     atomic species   valence    mass     pseudopotential
        W1            14.00   183.84000     W ( 1.00)
        Rh1           15.00   102.90550     Rh( 1.00)

     No symmetry found

   Cartesian axes

     site n.     atom                  positions (alat units)
         1           W1  tau(   1) = (   0.0000000   0.0000000  10.0000000  )
         2           W1  tau(   2) = (  -1.4065401   2.4361989  10.0000000  )
         3           W1  tau(   3) = (   1.4065401   2.4361989  10.0000000  )
         4           Rh1 tau(   4) = (   2.8130801   0.0000000  10.0000000  )
         5           W1  tau(   5) = (   2.8130801   1.6241326  12.2968703  )
         6           W1  tau(   6) = (   1.4065401   4.0603314  12.2968703  )
         7           W1  tau(   7) = (  -1.4065401   4.0603314  12.2968703  )
         8           Rh1 tau(   8) = (   0.0000000   1.6241326  12.2968703  )
         9           W1  tau(   9) = (  -0.0000000   3.2482652  14.5937406  )
        10           W1  tau(  10) = (   1.4065401   0.8120663  14.5937406  )
        11           W1  tau(  11) = (   4.2196202   0.8120663  14.5937406  )
        12           Rh1 tau(  12) = (   2.8130801   3.2482652  14.5937406  )

     number of k points=    20  Fermi-Dirac smearing, width (Ry)=  0.0110
                       cart. coord. in units 2pi/alat
        k(    1) = (   0.0000000   0.0000000   0.0000000), wk =   0.0555556
        k(    2) = (   0.0000000   0.0342063   0.0000000), wk =   0.1111111
        k(    3) = (   0.0000000   0.0684126   0.0000000), wk =   0.1111111
        k(    4) = (   0.0000000  -0.1026189   0.0000000), wk =   0.0555556
        k(    5) = (   0.0296235   0.0171031   0.0000000), wk =   0.1111111
        k(    6) = (   0.0296235   0.0513094   0.0000000), wk =   0.1111111
        k(    7) = (   0.0296235   0.0855157   0.0000000), wk =   0.1111111
        k(    8) = (   0.0296235  -0.0855157   0.0000000), wk =   0.1111111
        k(    9) = (   0.0296235  -0.0513094   0.0000000), wk =   0.1111111
        k(   10) = (   0.0296235  -0.0171031   0.0000000), wk =   0.1111111
        k(   11) = (   0.0592470   0.0342063   0.0000000), wk =   0.1111111
        k(   12) = (   0.0592470   0.0684126   0.0000000), wk =   0.1111111
        k(   13) = (   0.0592470   0.1026189   0.0000000), wk =   0.1111111
        k(   14) = (   0.0592470  -0.0684126   0.0000000), wk =   0.1111111
        k(   15) = (   0.0592470  -0.0342063   0.0000000), wk =   0.1111111
        k(   16) = (   0.0592470   0.0000000   0.0000000), wk =   0.1111111
        k(   17) = (  -0.0888706  -0.0513094   0.0000000), wk =   0.0555556
        k(   18) = (  -0.0888706  -0.0171031   0.0000000), wk =   0.1111111
        k(   19) = (  -0.0888706   0.0171031   0.0000000), wk =   0.1111111
        k(   20) = (  -0.0888706  -0.1539283   0.0000000), wk =   0.0555556

     Largest allocated arrays     est. size (Mb)     dimensions
     Largest temporary arrays     est. size (Mb)     dimensions

     Initial potential from superposition of free atoms
     Check: negative starting charge=   -0.733309

     starting charge  168.59664, renormalised to  171.00000

     negative rho (up, down):  7.438E-01 0.000E+00

     *
     * You are using vdW-DF for exchange-correlation in this calculation.
     * Please cite the following three references that made this development
     * possible:
     *
     *   M. Dion, H. Rydberg, E. Schroder, D. C. Langreth, and
     *   B. I. Lundqvist, Phys. Rev. Lett. 92, 246401 (2004).
     *
     *   T. Thonhauser, V. R. Cooper, S. Li, A. Puzder, P. Hyldgaard, and
     *   D. C. Langreth, Phys. Rev. B 76, 125112 (2007).
     *
     *   G. Roman-Perez and J. M. Soler, Phys. Rev. Lett. 103, 096102 (2009).
     *
     *
     * If you are using vdW-DF2, please also cite:
     *
     *   K. Lee, E. D. Murray, L. Kong, B. I. Lundqvist, and
     *   D. C. Langreth, Phys. Rev. B 82, 081101(R) (2010).
     *
     *
     * If you are calculating the stress with vdW-DF, please also cite:
     *
     *   R. Sabatini, E. Kucukbenli, B. Kolb, T. Thonhauser, and
     *   S. de Gironcoli, J. Phys.: Condens. Matter 24, 424209 (2012).
     *

     Carrying out vdW-DF run using the following parameters:

     Nqs =      20    Nr_points =    1024   r_max =   100.000
     q_mesh =
               0.00001000     0.04494208     0.09755937     0.15916263
               0.23128650     0.31572767     0.41458969     0.53033537
               0.66584808     0.82450364     1.01025438     1.22772762
               1.48234092     1.78043706     2.12944203     2.53805004
               3.01644009     3.57652955     4.23227104     5.00000000

     Gradients computed in reciprocal space

     Adding external electric field

     Computed dipole along edir(3) :
        Dipole                0.0000 Ry au,          0.0000 Debye
        Dipole field          0.0000 Ry au

        Potential amp.       -0.0000 Ry
        Total length         45.3135 bohr

     Starting wfc are  153 randomized atomic wfcs

     Self-consistent Calculation

     iteration #  1     ecut=    36.75 Ry     beta=0.10
     Davidson diagonalization with overlap
     ethr =  1.00E-02,  avg # of iterations =  2.0

[...]

     total energy              =   -1960.33976355 Ry
     Harris-Foulkes estimate   =   -1960.66371862 Ry
     estimated scf accuracy    <       2.12817647 Ry

[...]

     End of self-consistent calculation

          k = 0.0000 0.0000 0.0000 ( 17099 PWs)   bands (ev):

   -72.0110 -72.0007 -71.9433 -71.9433 -71.9407 -71.9406 -71.9212 -71.8675
   -71.8675 -44.4391 -44.4121 -44.4121 -44.1299 -44.1299 -44.1292 -44.1292
   -44.1273 -44.1243 -36.6113 -36.4404 -36.4368 -36.3616 -36.3550 -36.3550
   -36.3035 -36.3035 -36.2059 -36.2059 -36.1985 -36.0949 -36.0949 -36.0121
   -36.0121 -35.8841 -35.8013 -35.7719 -35.7692 -35.7692 -35.6813 -35.6257
   -35.6257 -35.5885 -35.5885 -35.5814 -35.5814  -5.6526  -3.9443  -3.3551
    -2.9552  -2.9552  -2.7604  -2.7558  -2.7558  -2.3911  -2.1057  -2.1057
    -2.0938  -2.0613  -2.0613  -1.7503  -0.7962  -0.7962  -0.4195  -0.1535
    -0.1535   0.1636   0.1683   0.5494   0.9255   0.9255   1.1733   1.1733
     1.2645   1.3735   1.3735   1.3771   1.3771   1.7450   1.7450   1.7707
     2.1322   2.4939   2.4939   2.6237   2.6409   2.6409   2.9135   3.1875
     3.1875   3.8307   4.0051   4.2025   4.2708   4.2708   4.7861   4.7861
     4.8057   4.8057   5.3587   5.3587   5.5718   5.5718   5.8054   5.8054
     5.8775   5.8776   6.1872   6.1872   6.3209   6.3536   6.5963   6.7724
     6.8105   6.8105   7.0502

[...]

          k =-0.0889-0.0513 0.0000 ( 17144 PWs)   bands (ev):

[...]

     the Fermi energy is     2.3323 ev

!    total energy              =   -1960.26172424 Ry
     Harris-Foulkes estimate   =   -1960.26780358 Ry
     estimated scf accuracy    <       0.00000070 Ry

     The total energy is the sum of the following terms:

     one-electron contribution =  -15711.83849813 Ry
     hartree contribution      =    7853.29625017 Ry
     xc contribution           =    -475.67364968 Ry
     ewald contribution        =    6374.03630387 Ry
     electric field correction =       0.00000000 Ry
     smearing contrib. (-TS)   =      -0.08213047 Ry

     convergence has been achieved in  15 iterations

 BEEF-vdW xc energy contributions
           1 :   -417.631439044094
           2 :    386.010291963092
           3 :   -330.408275324280
           4 :    263.231834726290
           5 :   -197.418147132129
           6 :    142.599900792851
           7 :   -102.984001518686
           8 :    77.4657643099805
           9 :   -61.5554509418156
          10 :    50.0355644135449
[...]
     Pseudo is Ultrasoft + core correction, Zval = 14.0
     Generated by new atomic code, or converted to UPF format
     Using radial grid of  923 points,  8 beta functions with:
                l(1) =   0
                l(2) =   0
                l(3) =   0
                l(4) =   1
                l(5) =   1
                l(6) =   2
                l(7) =   2
                l(8) =   3
     Q(r) pseudized with  6 coefficients,  rinner =    1.350   1.350   1.350
                                                       1.350   1.350   1.350
                                                       1.350

     PseudoPot. # 2 for Rh read from file:
     /afs/slac.stanford.edu/u/if/mamunm/psp/gbrv1.5pbe/Rh.UPF
     MD5 check sum: 761627e959a2e3a1f56b0b5fe687810e
     Pseudo is Ultrasoft + core correction, Zval = 15.0
     Generated by new atomic code, or converted to UPF format
     Using radial grid of  969 points,  7 beta functions with:
                l(1) =   0
                l(2) =   0
                l(3) =   1
                l(4) =   1
                l(5) =   2
                l(6) =   2
                l(7) =   2
     Q(r) pseudized with  8 coefficients,  rinner =    1.200   1.200   1.200
                                                       1.200   1.200

     vdW kernel table read from file vdW_kernel_table
     MD5 check sum: 095c7af220d748ca6e76c0b4c6cfb241

     atomic species   valence    mass     pseudopotential
        W1            14.00   183.84000     W ( 1.00)
        Rh1           15.00   102.90550     Rh( 1.00)

     No symmetry found

   Cartesian axes

     site n.     atom                  positions (alat units)
         1           W1  tau(   1) = (   0.0000000   0.0000000  10.0000000  )
         2           W1  tau(   2) = (  -1.4065401   2.4361989  10.0000000  )
         3           W1  tau(   3) = (   1.4065401   2.4361989  10.0000000  )
         4           Rh1 tau(   4) = (   2.8130801   0.0000000  10.0000000  )
         5           W1  tau(   5) = (   2.8130801   1.6241326  12.2968703  )
         6           W1  tau(   6) = (   1.4065401   4.0603314  12.2968703  )
         7           W1  tau(   7) = (  -1.4065401   4.0603314  12.2968703  )
         8           Rh1 tau(   8) = (   0.0000000   1.6241326  12.2968703  )
         9           W1  tau(   9) = (   0.0000114   3.2417614  14.4828551  )
        10           W1  tau(  10) = (   1.4009168   0.8153287  14.4828545  )
        11           W1  tau(  11) = (   4.2252480   0.8153163  14.4828493  )
        12           Rh1 tau(  12) = (   2.8130795   3.2482626  14.5801096  )

     number of k points=    20  Fermi-Dirac smearing, width (Ry)=  0.0110
                       cart. coord. in units 2pi/alat
        k(    1) = (   0.0000000   0.0000000   0.0000000), wk =   0.0555556
        k(    2) = (   0.0000000   0.0342063   0.0000000), wk =   0.1111111
        k(    3) = (   0.0000000   0.0684126   0.0000000), wk =   0.1111111
        k(    4) = (   0.0000000  -0.1026189   0.0000000), wk =   0.0555556
        k(    5) = (   0.0296235   0.0171031   0.0000000), wk =   0.1111111
        k(    6) = (   0.0296235   0.0513094   0.0000000), wk =   0.1111111
        k(    7) = (   0.0296235   0.0855157   0.0000000), wk =   0.1111111
        k(    8) = (   0.0296235  -0.0855157   0.0000000), wk =   0.1111111
        k(    9) = (   0.0296235  -0.0513094   0.0000000), wk =   0.1111111
        k(   10) = (   0.0296235  -0.0171031   0.0000000), wk =   0.1111111
        k(   11) = (   0.0592470   0.0342063   0.0000000), wk =   0.1111111
        k(   12) = (   0.0592470   0.0684126   0.0000000), wk =   0.1111111
        k(   13) = (   0.0592470   0.1026189   0.0000000), wk =   0.1111111
        k(   14) = (   0.0592470  -0.0684126   0.0000000), wk =   0.1111111
        k(   15) = (   0.0592470  -0.0342063   0.0000000), wk =   0.1111111
        k(   16) = (   0.0592470   0.0000000   0.0000000), wk =   0.1111111
        k(   17) = (  -0.0888706  -0.0513094   0.0000000), wk =   0.0555556
        k(   18) = (  -0.0888706  -0.0171031   0.0000000), wk =   0.1111111
        k(   19) = (  -0.0888706   0.0171031   0.0000000), wk =   0.1111111
        k(   20) = (  -0.0888706  -0.1539283   0.0000000), wk =   0.0555556

     Largest allocated arrays     est. size (Mb)     dimensions
     Largest temporary arrays     est. size (Mb)     dimensions

     Initial potential from superposition of free atoms
     Check: negative starting charge=   -0.731799

     starting charge  168.59664, renormalised to  171.00000

[...]

     *
     * You are using vdW-DF for exchange-correlation in this calculation.
     * Please cite the following three references that made this development
     * possible:
     *
     *   M. Dion, H. Rydberg, E. Schroder, D. C. Langreth, and
     *   B. I. Lundqvist, Phys. Rev. Lett. 92, 246401 (2004).
     *
     *   T. Thonhauser, V. R. Cooper, S. Li, A. Puzder, P. Hyldgaard, and
     *   D. C. Langreth, Phys. Rev. B 76, 125112 (2007).
     *
     *   G. Roman-Perez and J. M. Soler, Phys. Rev. Lett. 103, 096102 (2009).
     *
     *
     * If you are using vdW-DF2, please also cite:
     *
     *   K. Lee, E. D. Murray, L. Kong, B. I. Lundqvist, and
     *   D. C. Langreth, Phys. Rev. B 82, 081101(R) (2010).
     *
     *
     * If you are calculating the stress with vdW-DF, please also cite:
     *
     *   R. Sabatini, E. Kucukbenli, B. Kolb, T. Thonhauser, and
     *   S. de Gironcoli, J. Phys.: Condens. Matter 24, 424209 (2012).
     *

     Carrying out vdW-DF run using the following parameters:

     Nqs =      20    Nr_points =    1024   r_max =   100.000
     q_mesh =
               0.00001000     0.04494208     0.09755937     0.15916263
               0.23128650     0.31572767     0.41458969     0.53033537
               0.66584808     0.82450364     1.01025438     1.22772762
               1.48234092     1.78043706     2.12944203     2.53805004
               3.01644009     3.57652955     4.23227104     5.00000000

     Gradients computed in reciprocal space

[...]

     Starting wfc are  153 randomized atomic wfcs

     Self-consistent Calculation

[...]

     total energy              =   -1960.27962575 Ry
     Harris-Foulkes estimate   =   -1960.27962563 Ry
     estimated scf accuracy    <       0.00000442 Ry

     iteration # 15     ecut=    36.75 Ry     beta=0.10
     Davidson diagonalization with overlap
     ethr =  2.59E-09,  avg # of iterations =  1.0

[...]

     negative rho (up, down):  7.670E-01 0.000E+00

     Adding external electric field

     Computed dipole along edir(3) :
        Dipole                0.0207 Ry au,          0.0527 Debye
        Dipole field          0.0001 Ry au

        Potential amp.       -0.0052 Ry
        Total length         45.3135 bohr

     End of self-consistent calculation

[...]

          k = 0.0592 0.0000 0.0000 ( 17102 PWs)   bands (ev):

[...]

          k =-0.0889-0.1539 0.0000 ( 17144 PWs)   bands (ev):

   -71.9992 -71.9788 -71.9578 -71.8830 -71.8622 -71.8336 -71.8254 -71.8159
   -71.7994 -44.5156 -44.4799 -44.4772 -44.1198 -44.1189 -44.1170 -44.1017
   -44.0989 -44.0817 -36.4476 -36.3997 -36.3296 -36.2573 -36.2465 -36.2064
   -36.1905 -36.1739 -36.1095 -36.0993 -36.0612 -36.0229 -35.9915 -35.9807
   -35.9673 -35.9542 -35.9490 -35.8809 -35.8195 -35.8081 -35.7887 -35.6565
   -35.6522 -35.6368 -35.5985 -35.5763 -35.5118  -3.9251  -3.7458  -2.4485
    -2.4360  -2.0864  -2.0787  -1.9747  -1.8307  -1.7176  -1.6336  -1.4593
    -1.2046  -1.0177  -1.0021  -0.8800  -0.7187  -0.6259  -0.4606  -0.4420
    -0.3028  -0.2729   0.1230   0.1626   0.1707   0.2868   0.3890   0.7112
     0.8051   0.8921   0.9242   1.1217   1.1241   1.1728   1.2076   1.2662
     1.2958   1.4768   1.6339   1.7061   1.8486   2.3124   2.3130   2.5119
     2.6682   2.8932   2.9904   3.1409   3.3443   3.3779   3.6168   3.6808
     4.0073   4.0648   4.2399   4.3718   4.6142   4.7741   4.7742   4.9331
     5.2405   5.2903   5.7243   6.0060   6.2156   6.2503   6.7283   7.2115
     7.2668   7.5043   7.8280

     the Fermi energy is     2.3407 ev

!    total energy              =   -1960.27962671 Ry
     Harris-Foulkes estimate   =   -1960.27962571 Ry
     estimated scf accuracy    <       0.00000065 Ry

     The total energy is the sum of the following terms:

     one-electron contribution =  -15904.61094032 Ry
     hartree contribution      =    7949.86629760 Ry
     xc contribution           =    -475.91734302 Ry
     ewald contribution        =    6470.45971632 Ry
     electric field correction =       0.00000119 Ry
     smearing contrib. (-TS)   =      -0.07735849 Ry

     convergence has been achieved in  15 iterations

 BEEF-vdW xc energy contributions
           1 :   -418.072295586119
           2 :    386.523324873201
           3 :   -331.016697765601
           4 :    263.887303853724
           5 :   -198.018857036309
           6 :    143.042654032237
           7 :   -103.222856165308
           8 :    77.5432141526739
           9 :   -61.5857889057654
          10 :    50.1475989067248
          11 :   -39.4298961238679
          12 :    28.0360994202580
          13 :   -16.6744189625157
          14 :    7.02812588317460
          15 :  -0.497155575297995
          16 :   -2.59979132709958
          17 :    3.10907365385856
          18 :   -2.52696065591414
          19 :    2.24314485805979
          20 :   -2.94639718329489
          21 :    4.45986049186735
          22 :   -6.02898203265170
          23 :    6.85439583954735
          24 :   -6.56410717550585
          25 :    5.39004959220625
          26 :   -3.99634028495217
          27 :    3.09154958085361
          28 :   -3.05322063575903
          29 :    3.76179126604160
          30 :   -4.71074493497815
          31 :   -38.4402579725483
          32 :   -28.8432826693880

     Forces acting on atoms (Ry/au):

     negative rho (up, down):  7.670E-01 0.000E+00
     atom    1 type  1   force =    -0.00000088    0.00303390    0.02951774
     atom    2 type  1   force =     0.00262683   -0.00151767    0.02951730
     atom    3 type  1   force =    -0.00262701   -0.00151695    0.02951881
     atom    4 type  2   force =     0.00000023    0.00000015   -0.00310080
     atom    5 type  1   force =    -0.00000021    0.00411157   -0.01949927
     atom    6 type  1   force =     0.00356091   -0.00205609   -0.01949881
     atom    7 type  1   force =    -0.00356107   -0.00205575   -0.01949681
     atom    8 type  2   force =     0.00000075    0.00000060   -0.02711627
     atom    9 type  1   force =    -0.00000411    0.00073926    0.00015219
     atom   10 type  1   force =     0.00063702   -0.00037387    0.00015227
     atom   11 type  1   force =    -0.00063596   -0.00036853    0.00015290
     atom   12 type  2   force =     0.00000350    0.00000339   -0.00029925

     Total force =     0.067672     Total SCF correction =     0.002285

     entering subroutine stress ...

     negative rho (up, down):  7.670E-01 0.000E+00
          total   stress  (Ry/bohr**3)                   (kbar)     P=  -38.41
  -0.00030248   0.00000000  -0.00000000        -44.50      0.00     -0.00
   0.00000000  -0.00030248  -0.00000000          0.00    -44.50     -0.00
  -0.00000000  -0.00000000  -0.00017828         -0.00     -0.00    -26.23

 !ASE

     Writing output data file calc.save

     General routines

     Parallel routines

   This run was terminated on:  10:51:38   2Jan2019

   JOB DONE.
Job  /afs/slac/g/suncat/bin/suncat-tsmpirun -x LD_LIBRARY_PATH -wdir /scratch/qe649378_SrsTn pw.x -in pw.inp

TID   HOST_NAME   COMMAND_LINE            STATUS            TERMINATION_TIME
00000 suncat0097 pw.x -in pw.inp   Done                     01/02/2019 10:51:38
00001 suncat0097 pw.x -in pw.inp   Done                     01/02/2019 10:51:38
00002 suncat0097 pw.x -in pw.inp   Done                     01/02/2019 10:51:38
00003 suncat0097 pw.x -in pw.inp   Done                     01/02/2019 10:51:38
00004 suncat0097 pw.x -in pw.inp   Done                     01/02/2019 10:51:38
00005 suncat0097 pw.x -in pw.inp   Done                     01/02/2019 10:51:38
00006 suncat0097 pw.x -in pw.inp   Done                     01/02/2019 10:51:38
00007 suncat0097 pw.x -in pw.inp   Done                     01/02/2019 10:51:38
00008 suncat0094 pw.x -in pw.inp   Done                     01/02/2019 10:51:38
00009 suncat0094 pw.x -in pw.inp   Done                     01/02/2019 10:51:38
00010 suncat0094 pw.x -in pw.inp   Done                     01/02/2019 10:51:38
00011 suncat0094 pw.x -in pw.inp   Done                     01/02/2019 10:51:38
00012 suncat0094 pw.x -in pw.inp   Done                     01/02/2019 10:51:38
00013 suncat0094 pw.x -in pw.inp   Done                     01/02/2019 10:51:38
00014 suncat0094 pw.x -in pw.inp   Done                     01/02/2019 10:51:38
00015 suncat0094 pw.x -in pw.inp   Done                     01/02/2019 10:51:38
00016 suncat0093 pw.x -in pw.inp   Done                     01/02/2019 10:51:38
00017 suncat0093 pw.x -in pw.inp   Done                     01/02/2019 10:51:38
00018 suncat0093 pw.x -in pw.inp   Done                     01/02/2019 10:51:38
00019 suncat0093 pw.x -in pw.inp   Done                     01/02/2019 10:51:38
00020 suncat0093 pw.x -in pw.inp   Done                     01/02/2019 10:51:38
00021 suncat0093 pw.x -in pw.inp   Done                     01/02/2019 10:51:38
00022 suncat0093 pw.x -in pw.inp   Done                     01/02/2019 10:51:38
00023 suncat0093 pw.x -in pw.inp   Done                     01/02/2019 10:51:38
00024 suncat0091 pw.x -in pw.inp   Done                     01/02/2019 10:51:38
00025 suncat0091 pw.x -in pw.inp   Done                     01/02/2019 10:51:38
00026 suncat0091 pw.x -in pw.inp   Done                     01/02/2019 10:51:38
00027 suncat0091 pw.x -in pw.inp   Done                     01/02/2019 10:51:38
00028 suncat0091 pw.x -in pw.inp   Done                     01/02/2019 10:51:38
00029 suncat0091 pw.x -in pw.inp   Done                     01/02/2019 10:51:38
00030 suncat0091 pw.x -in pw.inp   Done                     01/02/2019 10:51:38
00031 suncat0091 pw.x -in pw.inp   Done                     01/02/2019 10:51:38
00032 suncat0029 pw.x -in pw.inp   Done                     01/02/2019 10:51:38
00033 suncat0029 pw.x -in pw.inp   Done                     01/02/2019 10:51:38
00034 suncat0029 pw.x -in pw.inp   Done                     01/02/2019 10:51:38
00035 suncat0029 pw.x -in pw.inp   Done                     01/02/2019 10:51:38
00036 suncat0029 pw.x -in pw.inp   Done                     01/02/2019 10:51:38
00037 suncat0029 pw.x -in pw.inp   Done                     01/02/2019 10:51:38
00038 suncat0029 pw.x -in pw.inp   Done                     01/02/2019 10:51:38
00039 suncat0029 pw.x -in pw.inp   Done                     01/02/2019 10:51:38
00040 suncat0019 pw.x -in pw.inp   Done                     01/02/2019 10:51:38
00041 suncat0019 pw.x -in pw.inp   Done                     01/02/2019 10:51:38
00042 suncat0019 pw.x -in pw.inp   Done                     01/02/2019 10:51:38
00043 suncat0019 pw.x -in pw.inp   Done                     01/02/2019 10:51:38
00044 suncat0019 pw.x -in pw.inp   Done                     01/02/2019 10:51:38
00045 suncat0019 pw.x -in pw.inp   Done                     01/02/2019 10:51:38
00046 suncat0019 pw.x -in pw.inp   Done                     01/02/2019 10:51:38
00047 suncat0019 pw.x -in pw.inp   Done                     01/02/2019 10:51:38
00048 suncat0018 pw.x -in pw.inp   Done                     01/02/2019 10:51:38
00049 suncat0018 pw.x -in pw.inp   Done                     01/02/2019 10:51:38
00050 suncat0018 pw.x -in pw.inp   Done                     01/02/2019 10:51:38
00051 suncat0018 pw.x -in pw.inp   Done                     01/02/2019 10:51:38
00052 suncat0018 pw.x -in pw.inp   Done                     01/02/2019 10:51:38
00053 suncat0018 pw.x -in pw.inp   Done                     01/02/2019 10:51:38
00054 suncat0018 pw.x -in pw.inp   Done                     01/02/2019 10:51:38
00055 suncat0018 pw.x -in pw.inp   Done                     01/02/2019 10:51:38
00056 suncat0001 pw.x -in pw.inp   Done                     01/02/2019 10:51:38
00057 suncat0001 pw.x -in pw.inp   Done                     01/02/2019 10:51:38
00058 suncat0001 pw.x -in pw.inp   Done                     01/02/2019 10:51:38
00059 suncat0001 pw.x -in pw.inp   Done                     01/02/2019 10:51:38
00060 suncat0001 pw.x -in pw.inp   Done                     01/02/2019 10:51:38
00061 suncat0001 pw.x -in pw.inp   Done                     01/02/2019 10:51:38
00062 suncat0001 pw.x -in pw.inp   Done                     01/02/2019 10:51:38
00063 suncat0001 pw.x -in pw.inp   Done                     01/02/2019 10:51:38