     Program PWSCF v.5.1rc2 (svn rev. 11289) starts on 26Dec2018 at  4:29:58

     Current dimensions of program PWSCF are:
     Max number of different atomic species (ntypx) = 10
     Max number of k-points (npk) =  40000
     Max angular momentum in pseudopotentials (lmaxx) =  3
     Presently stress not available with electric field

     IMPORTANT: XC functional enforced from input :
     Exchange-correlation      = BEEF-VDW ( 1  4 27 13 2)
     Any further DFT definition will be discarded
     Please, verify this is what you really want

     Subspace diagonalization in iterative solution of the eigenvalue problem:
     a serial algorithm will be used

     bravais-lattice index     =            0
     lattice parameter (alat)  =       1.8897  a.u.
     unit-cell volume          =    4591.4295 (a.u.)^3
     number of atoms/cell      =           12
     number of atomic types    =            2
     number of electrons       =       213.00
     number of Kohn-Sham states=          136
     kinetic-energy cutoff     =      36.7493  Ry
     charge density cutoff     =     367.4932  Ry
     convergence threshold     =      1.0E-06
     mixing beta               =       0.1000
     number of iterations used =           10  plain     mixing
     Exchange-correlation      = BEEF-VDW ( 1  4 27 13 2)
     nstep                     =           50

     celldm(1)=   1.889726  celldm(2)=   0.000000  celldm(3)=   0.000000
     celldm(4)=   0.000000  celldm(5)=   0.000000  celldm(6)=   0.000000

     crystal axes: (cart. coord. in units of alat)
               a(1) = (   5.649736   0.000000   0.000000 )
               a(2) = (  -2.824868   4.892815   0.000000 )
               a(3) = (   0.000000   0.000000  24.612990 )

     reciprocal axes: (cart. coord. in units 2 pi/alat)
               b(1) = (  0.176999  0.102191  0.000000 )
               b(2) = (  0.000000  0.204381  0.000000 )
               b(3) = (  0.000000  0.000000  0.040629 )

     PseudoPot. # 1 for Ga read from file:
     /afs/slac.stanford.edu/u/if/mamunm/psp/gbrv1.5pbe/Ga.UPF
     MD5 check sum: ccd671392a58a050fbb373893b4fcd66
     Pseudo is Ultrasoft + core correction, Zval = 19.0
     Generated by new atomic code, or converted to UPF format
     Using radial grid of  871 points,  6 beta functions with:
                l(1) =   0
                l(2) =   0
                l(3) =   1
                l(4) =   1
                l(5) =   2
                l(6) =   2
     Q(r) pseudized with  8 coefficients,  rinner =    1.250   1.250   1.250
                                                       1.250   1.250

     PseudoPot. # 2 for W  read from file:
     /afs/slac.stanford.edu/u/if/mamunm/psp/gbrv1.5pbe/W.UPF
     MD5 check sum: 9c083fa34c2a2ea0f02f1f893e16e1c8
     Pseudo is Ultrasoft + core correction, Zval = 14.0
     Generated by new atomic code, or converted to UPF format
     Using radial grid of  923 points,  8 beta functions with:
                l(1) =   0
                l(2) =   0
                l(3) =   0
                l(4) =   1
                l(5) =   1
                l(6) =   2
                l(7) =   2
                l(8) =   3
     Q(r) pseudized with  6 coefficients,  rinner =    1.350   1.350   1.350
                                                       1.350   1.350   1.350
                                                       1.350

     vdW kernel table read from file vdW_kernel_table
     MD5 check sum: 095c7af220d748ca6e76c0b4c6cfb241

     atomic species   valence    mass     pseudopotential
        Ga1           19.00    69.72300     Ga( 1.00)
        W1            14.00   183.84000     W ( 1.00)

     No symmetry found

   Cartesian axes

     site n.     atom                  positions (alat units)
         1           Ga1 tau(   1) = (   0.0000000   0.0000000  10.0000000  )
         2           Ga1 tau(   2) = (  -1.4124340   2.4464074  10.0000000  )
         3           Ga1 tau(   3) = (   1.4124340   2.4464074  10.0000000  )
         4           W1  tau(   4) = (   2.8248680   0.0000000  10.0000000  )
         5           Ga1 tau(   5) = (   2.8248680   1.6309383  12.3064951  )
         6           Ga1 tau(   6) = (   1.4124340   4.0773457  12.3064951  )
         7           Ga1 tau(   7) = (  -1.4124340   4.0773457  12.3064951  )
         8           W1  tau(   8) = (   0.0000000   1.6309383  12.3064951  )
         9           Ga1 tau(   9) = (  -0.0000000   3.2618766  14.6129901  )
        10           Ga1 tau(  10) = (   1.4124340   0.8154691  14.6129901  )
        11           Ga1 tau(  11) = (   4.2373020   0.8154691  14.6129901  )
        12           W1  tau(  12) = (   2.8248680   3.2618766  14.6129901  )

     number of k points=    20  Fermi-Dirac smearing, width (Ry)=  0.0110
                       cart. coord. in units 2pi/alat
        k(    1) = (   0.0000000   0.0000000   0.0000000), wk =   0.0555556
        k(    2) = (   0.0000000   0.0340636   0.0000000), wk =   0.1111111
        k(    3) = (   0.0000000   0.0681271   0.0000000), wk =   0.1111111
        k(    4) = (   0.0000000  -0.1021907   0.0000000), wk =   0.0555556
        k(    5) = (   0.0294999   0.0170318   0.0000000), wk =   0.1111111
        k(    6) = (   0.0294999   0.0510953   0.0000000), wk =   0.1111111
        k(    7) = (   0.0294999   0.0851589   0.0000000), wk =   0.1111111
        k(    8) = (   0.0294999  -0.0851589   0.0000000), wk =   0.1111111
        k(    9) = (   0.0294999  -0.0510953   0.0000000), wk =   0.1111111
        k(   10) = (   0.0294999  -0.0170318   0.0000000), wk =   0.1111111
        k(   11) = (   0.0589998   0.0340636   0.0000000), wk =   0.1111111
        k(   12) = (   0.0589998   0.0681271   0.0000000), wk =   0.1111111
        k(   13) = (   0.0589998   0.1021907   0.0000000), wk =   0.1111111
        k(   14) = (   0.0589998  -0.0681271   0.0000000), wk =   0.1111111
        k(   15) = (   0.0589998  -0.0340636   0.0000000), wk =   0.1111111
        k(   16) = (   0.0589998   0.0000000   0.0000000), wk =   0.1111111
        k(   17) = (  -0.0884997  -0.0510953   0.0000000), wk =   0.0555556
        k(   18) = (  -0.0884997  -0.0170318   0.0000000), wk =   0.1111111
        k(   19) = (  -0.0884997   0.0170318   0.0000000), wk =   0.1111111
        k(   20) = (  -0.0884997  -0.1532860   0.0000000), wk =   0.0555556

     Largest allocated arrays     est. size (Mb)     dimensions
     Largest temporary arrays     est. size (Mb)     dimensions

     Initial potential from superposition of free atoms
     Check: negative starting charge=   -0.193995

     starting charge  203.69897, renormalised to  213.00000

     negative rho (up, down):  2.029E-01 0.000E+00

     *
     * You are using vdW-DF for exchange-correlation in this calculation.
     * Please cite the following three references that made this development
     * possible:
     *
     *   M. Dion, H. Rydberg, E. Schroder, D. C. Langreth, and
     *   B. I. Lundqvist, Phys. Rev. Lett. 92, 246401 (2004).
     *
     *   T. Thonhauser, V. R. Cooper, S. Li, A. Puzder, P. Hyldgaard, and
     *   D. C. Langreth, Phys. Rev. B 76, 125112 (2007).
     *
     *   G. Roman-Perez and J. M. Soler, Phys. Rev. Lett. 103, 096102 (2009).
     *
     *
     * If you are using vdW-DF2, please also cite:
     *
     *   K. Lee, E. D. Murray, L. Kong, B. I. Lundqvist, and
     *   D. C. Langreth, Phys. Rev. B 82, 081101(R) (2010).
     *
     *
     * If you are calculating the stress with vdW-DF, please also cite:
     *
     *   R. Sabatini, E. Kucukbenli, B. Kolb, T. Thonhauser, and
     *   S. de Gironcoli, J. Phys.: Condens. Matter 24, 424209 (2012).
     *

     Carrying out vdW-DF run using the following parameters:

     Nqs =      20    Nr_points =    1024   r_max =   100.000
     q_mesh =
               0.00001000     0.04494208     0.09755937     0.15916263
               0.23128650     0.31572767     0.41458969     0.53033537
               0.66584808     0.82450364     1.01025438     1.22772762
               1.48234092     1.78043706     2.12944203     2.53805004
               3.01644009     3.57652955     4.23227104     5.00000000

     Gradients computed in reciprocal space

     Adding external electric field

     Computed dipole along edir(3) :
        Dipole               -0.0000 Ry au,         -0.0000 Debye
        Dipole field         -0.0000 Ry au

        Potential amp.        0.0000 Ry
        Total length         45.3490 bohr

     Starting wfc are  147 randomized atomic wfcs

     Self-consistent Calculation

     iteration #  1     ecut=    36.75 Ry     beta=0.10
     Davidson diagonalization with overlap
     ethr =  1.00E-02,  avg # of iterations =  7.3

[...]

     total energy              =   -4231.38747181 Ry
     Harris-Foulkes estimate   =   -4242.37321398 Ry
     estimated scf accuracy    <      61.39263001 Ry

[...]

     End of self-consistent calculation

          k = 0.0000 0.0000 0.0000 ( 17303 PWs)   bands (ev):

   -93.9917 -93.9885 -93.9874 -93.9252 -93.9234 -93.9220 -93.9169 -93.9146
   -93.9138 -93.7775 -93.7773 -93.7747 -93.7746 -93.7745 -93.7745 -93.7404
   -93.7403 -93.7384 -93.7384 -93.7382 -93.7382 -93.6945 -93.6945 -93.6944
   -93.6944 -93.6928 -93.6927 -73.7145 -73.7144 -73.5498 -37.7762 -37.7762
   -37.7761 -37.7761 -37.7605 -37.7603 -37.6692 -37.6692 -37.6316 -14.5711
   -14.5176 -14.5168 -14.5097 -14.4085 -14.3893 -14.3891 -14.3393 -14.3392
   -14.3390 -14.3366 -14.2872 -14.2575 -14.2565 -14.2497 -14.2497 -14.2316
   -14.2307 -14.2220 -14.2082 -14.2079 -14.1769 -14.1456 -14.1210 -14.1185
   -14.1184 -14.0701 -14.0527 -14.0526 -14.0290 -14.0290 -14.0141 -14.0141
   -14.0111 -14.0111 -14.0023 -13.9908 -13.9906 -13.9846 -13.9846 -13.9480
   -13.9402 -13.9401 -13.8425 -13.8422 -10.3354  -8.4445  -6.1865  -5.0759
    -5.0758  -4.1724  -4.1723  -3.5181  -3.3096  -3.3096  -2.7682  -2.0387
    -1.9415  -1.9415  -1.2367  -0.2519  -0.2519  -0.1726   0.0751   0.0751
     0.5666   0.5666   0.7027   0.7027   1.1161   1.5123   1.6948   1.6948
     2.2259   2.9942   2.9943   3.0028   3.0028   3.0185   3.4709   3.7883
     3.7884   4.3640   4.9262   5.4778   5.8960   5.8960   5.9171   6.3894
     6.4313   6.4313   6.5667   6.6757   6.8803   8.0797   8.2607   8.3623

[...]

          k =-0.0885-0.0511 0.0000 ( 17288 PWs)   bands (ev):

[...]

     the Fermi energy is     1.0038 ev

!    total energy              =   -4230.33164289 Ry
     Harris-Foulkes estimate   =   -4230.33163811 Ry
     estimated scf accuracy    <       0.00000079 Ry

     The total energy is the sum of the following terms:

     one-electron contribution =  -26835.91639466 Ry
     hartree contribution      =   13418.77918682 Ry
     xc contribution           =    -575.55795983 Ry
     ewald contribution        =    9762.40480216 Ry
     electric field correction =       0.00000000 Ry
     smearing contrib. (-TS)   =      -0.04127739 Ry

     convergence has been achieved in  16 iterations

 BEEF-vdW xc energy contributions
           1 :   -512.370460114861
           2 :    467.658378097981
           3 :   -391.786706133767
           4 :    305.525753963152
           5 :   -227.925642599349
[...]
                l(1) =   0
                l(2) =   0
                l(3) =   1
                l(4) =   1
                l(5) =   2
                l(6) =   2
     Q(r) pseudized with  8 coefficients,  rinner =    1.250   1.250   1.250
                                                       1.250   1.250

     PseudoPot. # 2 for W  read from file:
     /afs/slac.stanford.edu/u/if/mamunm/psp/gbrv1.5pbe/W.UPF
     MD5 check sum: 9c083fa34c2a2ea0f02f1f893e16e1c8
     Pseudo is Ultrasoft + core correction, Zval = 14.0
     Generated by new atomic code, or converted to UPF format
     Using radial grid of  923 points,  8 beta functions with:
                l(1) =   0
                l(2) =   0
                l(3) =   0
                l(4) =   1
                l(5) =   1
                l(6) =   2
                l(7) =   2
                l(8) =   3
     Q(r) pseudized with  6 coefficients,  rinner =    1.350   1.350   1.350
                                                       1.350   1.350   1.350
                                                       1.350

     vdW kernel table read from file vdW_kernel_table
     MD5 check sum: 095c7af220d748ca6e76c0b4c6cfb241

     atomic species   valence    mass     pseudopotential
        Ga1           19.00    69.72300     Ga( 1.00)
        W1            14.00   183.84000     W ( 1.00)

     No symmetry found

   Cartesian axes

     site n.     atom                  positions (alat units)
         1           Ga1 tau(   1) = (   0.0000000   0.0000000  10.0000000  )
         2           Ga1 tau(   2) = (  -1.4124340   2.4464074  10.0000000  )
         3           Ga1 tau(   3) = (   1.4124340   2.4464074  10.0000000  )
         4           W1  tau(   4) = (   2.8248680   0.0000000  10.0000000  )
         5           Ga1 tau(   5) = (   2.8248680   1.6309383  12.3064951  )
         6           Ga1 tau(   6) = (   1.4124340   4.0773457  12.3064951  )
         7           Ga1 tau(   7) = (  -1.4124340   4.0773457  12.3064951  )
         8           W1  tau(   8) = (   0.0000000   1.6309383  12.3064951  )
         9           Ga1 tau(   9) = (  -0.0000263   3.2307717  14.8236037  )
        10           Ga1 tau(  10) = (   1.3854891   0.8310574  14.8235318  )
        11           Ga1 tau(  11) = (   4.2642514   0.8310791  14.8235762  )
        12           W1  tau(  12) = (   2.8248380   3.2619205  14.3835197  )

     number of k points=    20  Fermi-Dirac smearing, width (Ry)=  0.0110
                       cart. coord. in units 2pi/alat
        k(    1) = (   0.0000000   0.0000000   0.0000000), wk =   0.0555556
        k(    2) = (   0.0000000   0.0340636   0.0000000), wk =   0.1111111
        k(    3) = (   0.0000000   0.0681271   0.0000000), wk =   0.1111111
        k(    4) = (   0.0000000  -0.1021907   0.0000000), wk =   0.0555556
        k(    5) = (   0.0294999   0.0170318   0.0000000), wk =   0.1111111
        k(    6) = (   0.0294999   0.0510953   0.0000000), wk =   0.1111111
        k(    7) = (   0.0294999   0.0851589   0.0000000), wk =   0.1111111
        k(    8) = (   0.0294999  -0.0851589   0.0000000), wk =   0.1111111
        k(    9) = (   0.0294999  -0.0510953   0.0000000), wk =   0.1111111
        k(   10) = (   0.0294999  -0.0170318   0.0000000), wk =   0.1111111
        k(   11) = (   0.0589998   0.0340636   0.0000000), wk =   0.1111111
        k(   12) = (   0.0589998   0.0681271   0.0000000), wk =   0.1111111
        k(   13) = (   0.0589998   0.1021907   0.0000000), wk =   0.1111111
        k(   14) = (   0.0589998  -0.0681271   0.0000000), wk =   0.1111111
        k(   15) = (   0.0589998  -0.0340636   0.0000000), wk =   0.1111111
        k(   16) = (   0.0589998   0.0000000   0.0000000), wk =   0.1111111
        k(   17) = (  -0.0884997  -0.0510953   0.0000000), wk =   0.0555556
        k(   18) = (  -0.0884997  -0.0170318   0.0000000), wk =   0.1111111
        k(   19) = (  -0.0884997   0.0170318   0.0000000), wk =   0.1111111
        k(   20) = (  -0.0884997  -0.1532860   0.0000000), wk =   0.0555556

     Largest allocated arrays     est. size (Mb)     dimensions
     Largest temporary arrays     est. size (Mb)     dimensions

     Initial potential from superposition of free atoms
     Check: negative starting charge=   -0.193339

     starting charge  203.69897, renormalised to  213.00000

[...]

     *
     * You are using vdW-DF for exchange-correlation in this calculation.
     * Please cite the following three references that made this development
     * possible:
     *
     *   M. Dion, H. Rydberg, E. Schroder, D. C. Langreth, and
     *   B. I. Lundqvist, Phys. Rev. Lett. 92, 246401 (2004).
     *
     *   T. Thonhauser, V. R. Cooper, S. Li, A. Puzder, P. Hyldgaard, and
     *   D. C. Langreth, Phys. Rev. B 76, 125112 (2007).
     *
     *   G. Roman-Perez and J. M. Soler, Phys. Rev. Lett. 103, 096102 (2009).
     *
     *
     * If you are using vdW-DF2, please also cite:
     *
     *   K. Lee, E. D. Murray, L. Kong, B. I. Lundqvist, and
     *   D. C. Langreth, Phys. Rev. B 82, 081101(R) (2010).
     *
     *
     * If you are calculating the stress with vdW-DF, please also cite:
     *
     *   R. Sabatini, E. Kucukbenli, B. Kolb, T. Thonhauser, and
     *   S. de Gironcoli, J. Phys.: Condens. Matter 24, 424209 (2012).
     *

     Carrying out vdW-DF run using the following parameters:

     Nqs =      20    Nr_points =    1024   r_max =   100.000
     q_mesh =
               0.00001000     0.04494208     0.09755937     0.15916263
               0.23128650     0.31572767     0.41458969     0.53033537
               0.66584808     0.82450364     1.01025438     1.22772762
               1.48234092     1.78043706     2.12944203     2.53805004
               3.01644009     3.57652955     4.23227104     5.00000000

     Gradients computed in reciprocal space

[...]

     Starting wfc are  147 randomized atomic wfcs

     Self-consistent Calculation

[...]

     total energy              =   -4230.39379238 Ry
     Harris-Foulkes estimate   =   -4230.39379119 Ry
     estimated scf accuracy    <       0.00000159 Ry

     iteration # 17     ecut=    36.75 Ry     beta=0.10
     Davidson diagonalization with overlap
     ethr =  7.48E-10,  avg # of iterations =  2.0

[...]

     negative rho (up, down):  2.003E-01 0.000E+00

     Adding external electric field

     Computed dipole along edir(3) :
        Dipole                0.1033 Ry au,          0.2627 Debye
        Dipole field          0.0003 Ry au

        Potential amp.       -0.0257 Ry
        Total length         45.3490 bohr

     End of self-consistent calculation

[...]

          k = 0.0590 0.0000 0.0000 ( 17290 PWs)   bands (ev):

[...]

          k =-0.0885-0.1533 0.0000 ( 17288 PWs)   bands (ev):

   -93.8449 -93.8437 -93.8427 -93.7996 -93.7987 -93.7982 -93.7764 -93.7759
   -93.7753 -93.7748 -93.7746 -93.7739 -93.7631 -93.7625 -93.7619 -93.7198
   -93.7194 -93.7184 -93.6296 -93.6286 -93.6276 -93.5917 -93.5910 -93.5904
   -93.5487 -93.5481 -93.5474 -73.6504 -73.6303 -73.4760 -37.7669 -37.7667
   -37.6969 -37.6782 -37.6778 -37.6505 -37.5820 -37.5819 -37.5418 -14.3633
   -14.3013 -14.2902 -14.2775 -14.2562 -14.2305 -14.2205 -14.2077 -14.1983
   -14.1954 -14.1882 -14.1738 -14.1677 -14.1621 -14.1463 -14.1287 -14.1167
   -14.1155 -14.1086 -14.0998 -14.0947 -14.0873 -14.0756 -14.0752 -14.0692
   -14.0684 -14.0616 -14.0193 -14.0165 -14.0099 -14.0094 -13.9934 -13.9673
   -13.9492 -13.9441 -13.9241 -13.9216 -13.9177 -13.9078 -13.9013 -13.9009
   -13.8637 -13.8504 -13.8387 -13.7740  -8.5622  -8.2512  -6.7378  -6.6683
    -5.6420  -5.2306  -4.6252  -3.8353  -3.6649  -2.8794  -2.0386  -1.8649
    -1.5996  -1.1301  -0.9884  -0.9371  -0.8400  -0.2181  -0.0057   0.5460
     0.7865   1.2142   1.5321   1.6825   1.7944   1.9824   2.2090   2.2443
     2.5627   2.6462   3.5620   3.6286   3.8249   3.8917   4.0085   4.5737
     4.7750   4.9231   5.1037   5.2796   5.5472   6.0098   6.0883   6.1376
     6.4330   6.6826   6.9588   6.9760   7.2621   7.3388   7.6540   7.6788

     the Fermi energy is     1.1436 ev

!    total energy              =   -4230.39379636 Ry
     Harris-Foulkes estimate   =   -4230.39379185 Ry
     estimated scf accuracy    <       0.00000036 Ry

     The total energy is the sum of the following terms:

     one-electron contribution =  -26398.32033665 Ry
     hartree contribution      =   13200.63390289 Ry
     xc contribution           =    -575.51934486 Ry
     ewald contribution        =    9542.85193893 Ry
     electric field correction =       0.00002923 Ry
     smearing contrib. (-TS)   =      -0.03998589 Ry

     convergence has been achieved in  17 iterations

 BEEF-vdW xc energy contributions
           1 :   -512.961513383268
           2 :    468.208484492860
           3 :   -392.280881200052
           4 :    305.983391315579
           5 :   -228.383912746790
           6 :    169.910213898680
           7 :   -130.602597691042
           8 :    103.563677533427
           9 :   -80.8853390349229
          10 :    58.3744784169584
          11 :   -36.7090971441711
          12 :    19.1796367221400
          13 :   -8.23019711176948
          14 :    3.34623390652496
          15 :   -1.48533182880567
          16 :  -0.688385498615162
          17 :    4.63441716990815
          18 :   -9.37884685613085
          19 :    12.7558928944682
          20 :   -13.3255415696149
          21 :    11.4936747589828
          22 :   -9.11357496926894
          23 :    8.03174644778483
          24 :   -8.76965421669684
          25 :    10.3117452078255
          26 :   -11.0574985812548
          27 :    10.1186915017001
          28 :   -7.95686474580589
          29 :    5.93476303775071
          30 :   -5.21096227066857
          31 :   -39.6273016590565
          32 :   -27.7550399053192

     Forces acting on atoms (Ry/au):

     negative rho (up, down):  2.003E-01 0.000E+00
     atom    1 type  1   force =    -0.00000228    0.00741213   -0.03303159
     atom    2 type  1   force =     0.00641640   -0.00370121   -0.03303538
     atom    3 type  1   force =    -0.00641419   -0.00370653   -0.03303104
     atom    4 type  2   force =    -0.00000061   -0.00000142    0.10348693
     atom    5 type  1   force =    -0.00000063   -0.01663519   -0.00762138
     atom    6 type  1   force =    -0.01441123    0.00831893   -0.00762002
     atom    7 type  1   force =     0.01441059    0.00832145   -0.00762213
     atom    8 type  2   force =    -0.00000140    0.00000088    0.01805765
     atom    9 type  1   force =     0.00000024    0.00024927   -0.00003073
     atom   10 type  1   force =     0.00021970   -0.00012610   -0.00002723
     atom   11 type  1   force =    -0.00021729   -0.00013009   -0.00003147
     atom   12 type  2   force =     0.00000070   -0.00000211    0.00050638

     Total force =     0.124415     Total SCF correction =     0.004187

     entering subroutine stress ...

     negative rho (up, down):  2.003E-01 0.000E+00
          total   stress  (Ry/bohr**3)                   (kbar)     P=  -26.57
  -0.00025847  -0.00000000   0.00000000        -38.02     -0.00      0.00
  -0.00000000  -0.00025848  -0.00000000         -0.00    -38.02     -0.00
   0.00000000  -0.00000000  -0.00002487          0.00     -0.00     -3.66

 !ASE

     Writing output data file calc.save

     General routines

     Parallel routines

   This run was terminated on:   6:39:40  26Dec2018

   JOB DONE.
Job  /afs/slac/g/suncat/bin/suncat-tsmpirun -x LD_LIBRARY_PATH -wdir /scratch/qe109716_g2BCn pw.x -in pw.inp

TID   HOST_NAME   COMMAND_LINE            STATUS            TERMINATION_TIME
00000 suncat0169 pw.x -in pw.inp   Done                     12/26/2018 06:39:40
00001 suncat0169 pw.x -in pw.inp   Done                     12/26/2018 06:39:40
00002 suncat0169 pw.x -in pw.inp   Done                     12/26/2018 06:39:40
00003 suncat0169 pw.x -in pw.inp   Done                     12/26/2018 06:39:40
00004 suncat0169 pw.x -in pw.inp   Done                     12/26/2018 06:39:40
00005 suncat0169 pw.x -in pw.inp   Done                     12/26/2018 06:39:40
00006 suncat0169 pw.x -in pw.inp   Done                     12/26/2018 06:39:40
00007 suncat0169 pw.x -in pw.inp   Done                     12/26/2018 06:39:40
00008 suncat0168 pw.x -in pw.inp   Done                     12/26/2018 06:39:40
00009 suncat0168 pw.x -in pw.inp   Done                     12/26/2018 06:39:40
00010 suncat0168 pw.x -in pw.inp   Done                     12/26/2018 06:39:40
00011 suncat0168 pw.x -in pw.inp   Done                     12/26/2018 06:39:40
00012 suncat0168 pw.x -in pw.inp   Done                     12/26/2018 06:39:40
00013 suncat0168 pw.x -in pw.inp   Done                     12/26/2018 06:39:40
00014 suncat0168 pw.x -in pw.inp   Done                     12/26/2018 06:39:40
00015 suncat0168 pw.x -in pw.inp   Done                     12/26/2018 06:39:40
00016 suncat0161 pw.x -in pw.inp   Done                     12/26/2018 06:39:40
00017 suncat0161 pw.x -in pw.inp   Done                     12/26/2018 06:39:40
00018 suncat0161 pw.x -in pw.inp   Done                     12/26/2018 06:39:40
00019 suncat0161 pw.x -in pw.inp   Done                     12/26/2018 06:39:40
00020 suncat0161 pw.x -in pw.inp   Done                     12/26/2018 06:39:40
00021 suncat0161 pw.x -in pw.inp   Done                     12/26/2018 06:39:40
00022 suncat0161 pw.x -in pw.inp   Done                     12/26/2018 06:39:40
00023 suncat0161 pw.x -in pw.inp   Done                     12/26/2018 06:39:40
00024 suncat0159 pw.x -in pw.inp   Done                     12/26/2018 06:39:40
00025 suncat0159 pw.x -in pw.inp   Done                     12/26/2018 06:39:40
00026 suncat0159 pw.x -in pw.inp   Done                     12/26/2018 06:39:40
00027 suncat0159 pw.x -in pw.inp   Done                     12/26/2018 06:39:40
00028 suncat0159 pw.x -in pw.inp   Done                     12/26/2018 06:39:40
00029 suncat0159 pw.x -in pw.inp   Done                     12/26/2018 06:39:40
00030 suncat0159 pw.x -in pw.inp   Done                     12/26/2018 06:39:40
00031 suncat0159 pw.x -in pw.inp   Done                     12/26/2018 06:39:40
00032 suncat0156 pw.x -in pw.inp   Done                     12/26/2018 06:39:40
00033 suncat0156 pw.x -in pw.inp   Done                     12/26/2018 06:39:40
00034 suncat0156 pw.x -in pw.inp   Done                     12/26/2018 06:39:40
00035 suncat0156 pw.x -in pw.inp   Done                     12/26/2018 06:39:40
00036 suncat0156 pw.x -in pw.inp   Done                     12/26/2018 06:39:40
00037 suncat0156 pw.x -in pw.inp   Done                     12/26/2018 06:39:40
00038 suncat0156 pw.x -in pw.inp   Done                     12/26/2018 06:39:40
00039 suncat0156 pw.x -in pw.inp   Done                     12/26/2018 06:39:40
00040 suncat0153 pw.x -in pw.inp   Done                     12/26/2018 06:39:40
00041 suncat0153 pw.x -in pw.inp   Done                     12/26/2018 06:39:40
00042 suncat0153 pw.x -in pw.inp   Done                     12/26/2018 06:39:40
00043 suncat0153 pw.x -in pw.inp   Done                     12/26/2018 06:39:40
00044 suncat0153 pw.x -in pw.inp   Done                     12/26/2018 06:39:40
00045 suncat0153 pw.x -in pw.inp   Done                     12/26/2018 06:39:40
00046 suncat0153 pw.x -in pw.inp   Done                     12/26/2018 06:39:40
00047 suncat0153 pw.x -in pw.inp   Done                     12/26/2018 06:39:40
00048 suncat0114 pw.x -in pw.inp   Done                     12/26/2018 06:39:40
00049 suncat0114 pw.x -in pw.inp   Done                     12/26/2018 06:39:40
00050 suncat0114 pw.x -in pw.inp   Done                     12/26/2018 06:39:40
00051 suncat0114 pw.x -in pw.inp   Done                     12/26/2018 06:39:40
00052 suncat0114 pw.x -in pw.inp   Done                     12/26/2018 06:39:40
00053 suncat0114 pw.x -in pw.inp   Done                     12/26/2018 06:39:40
00054 suncat0114 pw.x -in pw.inp   Done                     12/26/2018 06:39:40
00055 suncat0114 pw.x -in pw.inp   Done                     12/26/2018 06:39:40
00056 suncat0267 pw.x -in pw.inp   Done                     12/26/2018 06:39:40
00057 suncat0267 pw.x -in pw.inp   Done                     12/26/2018 06:39:40
00058 suncat0267 pw.x -in pw.inp   Done                     12/26/2018 06:39:40
00059 suncat0267 pw.x -in pw.inp   Done                     12/26/2018 06:39:40
00060 suncat0267 pw.x -in pw.inp   Done                     12/26/2018 06:39:40
00061 suncat0267 pw.x -in pw.inp   Done                     12/26/2018 06:39:40
00062 suncat0267 pw.x -in pw.inp   Done                     12/26/2018 06:39:40
00063 suncat0267 pw.x -in pw.inp   Done                     12/26/2018 06:39:40