     Program PWSCF v.5.1rc2 (svn rev. 11289) starts on  2Jan2019 at 11:14:42

     Current dimensions of program PWSCF are:
     Max number of different atomic species (ntypx) = 10
     Max number of k-points (npk) =  40000
     Max angular momentum in pseudopotentials (lmaxx) =  3
     Presently stress not available with electric field

     IMPORTANT: XC functional enforced from input :
     Exchange-correlation      = BEEF-VDW ( 1  4 27 13 2)
     Any further DFT definition will be discarded
     Please, verify this is what you really want

     Subspace diagonalization in iterative solution of the eigenvalue problem:
     a serial algorithm will be used

     bravais-lattice index     =            0
     lattice parameter (alat)  =       1.8897  a.u.
     unit-cell volume          =    6721.4296 (a.u.)^3
     number of atoms/cell      =           12
     number of atomic types    =            2
     number of electrons       =       156.00
     number of Kohn-Sham states=          108
     kinetic-energy cutoff     =      36.7493  Ry
     charge density cutoff     =     367.4932  Ry
     convergence threshold     =      1.0E-06
     mixing beta               =       0.1000
     number of iterations used =           10  plain     mixing
     Exchange-correlation      = BEEF-VDW ( 1  4 27 13 2)
     nstep                     =           50

     celldm(1)=   1.889726  celldm(2)=   0.000000  celldm(3)=   0.000000
     celldm(4)=   0.000000  celldm(5)=   0.000000  celldm(6)=   0.000000

     crystal axes: (cart. coord. in units of alat)
               a(1) = (   6.717762   0.000000   0.000000 )
               a(2) = (  -3.358881   5.817753   0.000000 )
               a(3) = (   0.000000   0.000000  25.485030 )

     reciprocal axes: (cart. coord. in units 2 pi/alat)
               b(1) = (  0.148859  0.085944  0.000000 )
               b(2) = (  0.000000  0.171888  0.000000 )
               b(3) = (  0.000000  0.000000  0.039239 )

     PseudoPot. # 1 for Y  read from file:
     /afs/slac.stanford.edu/u/if/mamunm/psp/gbrv1.5pbe/Y.UPF
     MD5 check sum: d034151ed7554c50b6e82763ed42c788
     Pseudo is Ultrasoft + core correction, Zval = 11.0
     Generated by new atomic code, or converted to UPF format
     Using radial grid of  885 points,  6 beta functions with:
                l(1) =   0
                l(2) =   0
                l(3) =   1
                l(4) =   1
                l(5) =   2
                l(6) =   2
     Q(r) pseudized with  8 coefficients,  rinner =    1.200   1.200   1.200
                                                       1.200   1.200

     PseudoPot. # 2 for Ga read from file:
     /afs/slac.stanford.edu/u/if/mamunm/psp/gbrv1.5pbe/Ga.UPF
     MD5 check sum: ccd671392a58a050fbb373893b4fcd66
     Pseudo is Ultrasoft + core correction, Zval = 19.0
     Generated by new atomic code, or converted to UPF format
     Using radial grid of  871 points,  6 beta functions with:
                l(1) =   0
                l(2) =   0
                l(3) =   1
                l(4) =   1
                l(5) =   2
                l(6) =   2
     Q(r) pseudized with  8 coefficients,  rinner =    1.250   1.250   1.250
                                                       1.250   1.250

     vdW kernel table read from file vdW_kernel_table
     MD5 check sum: 095c7af220d748ca6e76c0b4c6cfb241

     atomic species   valence    mass     pseudopotential
        Y1            11.00    88.90584     Y ( 1.00)
        Ga1           19.00    69.72300     Ga( 1.00)

     No symmetry found

   Cartesian axes

     site n.     atom                  positions (alat units)
         1           Y1  tau(   1) = (   0.0000000   0.0000000  10.0000000  )
         2           Y1  tau(   2) = (  -1.6794406   2.9088764  10.0000000  )
         3           Y1  tau(   3) = (   1.6794406   2.9088764  10.0000000  )
         4           Ga1 tau(   4) = (   3.3588812   0.0000000  10.0000000  )
         5           Y1  tau(   5) = (   3.3588812   1.9392510  12.7425150  )
         6           Y1  tau(   6) = (   1.6794406   4.8481274  12.7425150  )
         7           Y1  tau(   7) = (  -1.6794406   4.8481274  12.7425150  )
         8           Ga1 tau(   8) = (   0.0000000   1.9392510  12.7425150  )
         9           Y1  tau(   9) = (  -0.0000000   3.8785019  15.4850300  )
        10           Y1  tau(  10) = (   1.6794406   0.9696255  15.4850300  )
        11           Y1  tau(  11) = (   5.0383218   0.9696255  15.4850300  )
        12           Ga1 tau(  12) = (   3.3588812   3.8785019  15.4850300  )

     number of k points=    20  Fermi-Dirac smearing, width (Ry)=  0.0110
                       cart. coord. in units 2pi/alat
        k(    1) = (   0.0000000   0.0000000   0.0000000), wk =   0.0555556
        k(    2) = (   0.0000000   0.0286479   0.0000000), wk =   0.1111111
        k(    3) = (   0.0000000   0.0572959   0.0000000), wk =   0.1111111
        k(    4) = (   0.0000000  -0.0859438   0.0000000), wk =   0.0555556
        k(    5) = (   0.0248098   0.0143240   0.0000000), wk =   0.1111111
        k(    6) = (   0.0248098   0.0429719   0.0000000), wk =   0.1111111
        k(    7) = (   0.0248098   0.0716199   0.0000000), wk =   0.1111111
        k(    8) = (   0.0248098  -0.0716199   0.0000000), wk =   0.1111111
        k(    9) = (   0.0248098  -0.0429719   0.0000000), wk =   0.1111111
        k(   10) = (   0.0248098  -0.0143240   0.0000000), wk =   0.1111111
        k(   11) = (   0.0496197   0.0286479   0.0000000), wk =   0.1111111
        k(   12) = (   0.0496197   0.0572959   0.0000000), wk =   0.1111111
        k(   13) = (   0.0496197   0.0859438   0.0000000), wk =   0.1111111
        k(   14) = (   0.0496197  -0.0572959   0.0000000), wk =   0.1111111
        k(   15) = (   0.0496197  -0.0286479   0.0000000), wk =   0.1111111
        k(   16) = (   0.0496197   0.0000000   0.0000000), wk =   0.1111111
        k(   17) = (  -0.0744295  -0.0429719   0.0000000), wk =   0.0555556
        k(   18) = (  -0.0744295  -0.0143240   0.0000000), wk =   0.1111111
        k(   19) = (  -0.0744295   0.0143240   0.0000000), wk =   0.1111111
        k(   20) = (  -0.0744295  -0.1289158   0.0000000), wk =   0.0555556

     Largest allocated arrays     est. size (Mb)     dimensions
     Largest temporary arrays     est. size (Mb)     dimensions

     Initial potential from superposition of free atoms
     Check: negative starting charge=   -0.000759

     starting charge  152.95977, renormalised to  156.00000

     negative rho (up, down):  7.746E-04 0.000E+00

     *
     * You are using vdW-DF for exchange-correlation in this calculation.
     * Please cite the following three references that made this development
     * possible:
     *
     *   M. Dion, H. Rydberg, E. Schroder, D. C. Langreth, and
     *   B. I. Lundqvist, Phys. Rev. Lett. 92, 246401 (2004).
     *
     *   T. Thonhauser, V. R. Cooper, S. Li, A. Puzder, P. Hyldgaard, and
     *   D. C. Langreth, Phys. Rev. B 76, 125112 (2007).
     *
     *   G. Roman-Perez and J. M. Soler, Phys. Rev. Lett. 103, 096102 (2009).
     *
     *
     * If you are using vdW-DF2, please also cite:
     *
     *   K. Lee, E. D. Murray, L. Kong, B. I. Lundqvist, and
     *   D. C. Langreth, Phys. Rev. B 82, 081101(R) (2010).
     *
     *
     * If you are calculating the stress with vdW-DF, please also cite:
     *
     *   R. Sabatini, E. Kucukbenli, B. Kolb, T. Thonhauser, and
     *   S. de Gironcoli, J. Phys.: Condens. Matter 24, 424209 (2012).
     *

     Carrying out vdW-DF run using the following parameters:

     Nqs =      20    Nr_points =    1024   r_max =   100.000
     q_mesh =
               0.00001000     0.04494208     0.09755937     0.15916263
               0.23128650     0.31572767     0.41458969     0.53033537
               0.66584808     0.82450364     1.01025438     1.22772762
               1.48234092     1.78043706     2.12944203     2.53805004
               3.01644009     3.57652955     4.23227104     5.00000000

     Gradients computed in reciprocal space

     Adding external electric field

     Computed dipole along edir(3) :
        Dipole                0.0000 Ry au,          0.0000 Debye
        Dipole field          0.0000 Ry au

        Potential amp.       -0.0000 Ry
        Total length         46.9557 bohr

     Starting wfc are  153 randomized atomic wfcs

     Self-consistent Calculation

     iteration #  1     ecut=    36.75 Ry     beta=0.10
     Davidson diagonalization with overlap
     ethr =  1.00E-02,  avg # of iterations =  2.0

[...]

     total energy              =   -2093.28556942 Ry
     Harris-Foulkes estimate   =   -2094.13759044 Ry
     estimated scf accuracy    <       4.97614256 Ry

[...]

     End of self-consistent calculation

          k = 0.0000 0.0000 0.0000 ( 25341 PWs)   bands (ev):

   -93.0723 -93.0722 -93.0530 -93.0530 -93.0526 -93.0526 -92.9344 -92.9327
   -92.9327 -42.2425 -42.2406 -42.1727 -42.1727 -42.1722 -42.1722 -41.7218
   -41.6531 -41.6531 -22.5228 -22.4934 -22.3700 -22.3298 -22.3298 -22.2920
   -22.2920 -22.2820 -22.2568 -22.2568 -22.1937 -22.1937 -22.0509 -21.9738
   -21.9628 -21.8439 -21.8439 -21.8245 -21.8245 -21.7564 -21.7563 -21.6364
   -21.5864 -21.5863 -21.4644 -21.3800 -21.3800 -13.3827 -13.3811 -13.3744
   -13.3744 -13.3722 -13.3722 -13.3675 -13.3675 -13.3670 -13.3670 -13.2516
   -13.2509 -13.2509 -13.2440 -13.2440  -5.4666  -4.7584  -4.5468  -1.6360
    -1.4741  -1.0525  -0.2660  -0.2660  -0.0258  -0.0258   0.0397   0.1636
     0.1636   0.2344   0.6756   0.6756   0.8359   0.8359   0.9477   1.1058
     1.3704   1.4008   1.4008   1.5193   1.5193   1.8581   1.9837   2.0667
     2.0667   2.4574   2.4574   2.4765   2.7100   3.0888   3.7200   3.8727
     3.9507   3.9612   3.9612   4.0956   4.0956   4.1281   4.1281   4.1576
     4.2409   4.2499   4.2591   4.2591

[...]

          k =-0.0744-0.0430 0.0000 ( 25314 PWs)   bands (ev):

[...]

     the Fermi energy is     1.0324 ev

!    total energy              =   -2093.11914422 Ry
     Harris-Foulkes estimate   =   -2093.11914009 Ry
     estimated scf accuracy    <       0.00000058 Ry

     The total energy is the sum of the following terms:

     one-electron contribution =   -9730.33701852 Ry
     hartree contribution      =    4863.78674001 Ry
     xc contribution           =    -403.73462175 Ry
     ewald contribution        =    3177.25812262 Ry
     electric field correction =       0.00000000 Ry
     smearing contrib. (-TS)   =      -0.09236658 Ry

     convergence has been achieved in  16 iterations

 BEEF-vdW xc energy contributions
           1 :   -355.578953423669
           2 :    320.948438939364
           3 :   -261.667748012826
           4 :    192.988757568969
           5 :   -129.024960693543
           6 :    78.1570545452681
           7 :   -42.1533217923920
           8 :    18.4604313119697
           9 :   -3.55339562933034
          10 :   -4.78866051914235
          11 :    7.22509918741486
          12 :   -4.12583227725105
          13 :   -2.98801483144695
          14 :    11.0722662444405
          15 :   -16.5762241815160
          16 :    17.0998317202835
[...]
               b(3) = (  0.000000  0.000000  0.039239 )

     PseudoPot. # 1 for Y  read from file:
     /afs/slac.stanford.edu/u/if/mamunm/psp/gbrv1.5pbe/Y.UPF
     MD5 check sum: d034151ed7554c50b6e82763ed42c788
     Pseudo is Ultrasoft + core correction, Zval = 11.0
     Generated by new atomic code, or converted to UPF format
     Using radial grid of  885 points,  6 beta functions with:
                l(1) =   0
                l(2) =   0
                l(3) =   1
                l(4) =   1
                l(5) =   2
                l(6) =   2
     Q(r) pseudized with  8 coefficients,  rinner =    1.200   1.200   1.200
                                                       1.200   1.200

     PseudoPot. # 2 for Ga read from file:
     /afs/slac.stanford.edu/u/if/mamunm/psp/gbrv1.5pbe/Ga.UPF
     MD5 check sum: ccd671392a58a050fbb373893b4fcd66
     Pseudo is Ultrasoft + core correction, Zval = 19.0
     Generated by new atomic code, or converted to UPF format
     Using radial grid of  871 points,  6 beta functions with:
                l(1) =   0
                l(2) =   0
                l(3) =   1
                l(4) =   1
                l(5) =   2
                l(6) =   2
     Q(r) pseudized with  8 coefficients,  rinner =    1.250   1.250   1.250
                                                       1.250   1.250

     vdW kernel table read from file vdW_kernel_table
     MD5 check sum: 095c7af220d748ca6e76c0b4c6cfb241

     atomic species   valence    mass     pseudopotential
        Y1            11.00    88.90584     Y ( 1.00)
        Ga1           19.00    69.72300     Ga( 1.00)

     No symmetry found

   Cartesian axes

     site n.     atom                  positions (alat units)
         1           Y1  tau(   1) = (   0.0000000   0.0000000  10.0000000  )
         2           Y1  tau(   2) = (  -1.6794406   2.9088764  10.0000000  )
         3           Y1  tau(   3) = (   1.6794406   2.9088764  10.0000000  )
         4           Ga1 tau(   4) = (   3.3588812   0.0000000  10.0000000  )
         5           Y1  tau(   5) = (   3.3588812   1.9392510  12.7425150  )
         6           Y1  tau(   6) = (   1.6794406   4.8481274  12.7425150  )
         7           Y1  tau(   7) = (  -1.6794406   4.8481274  12.7425150  )
         8           Ga1 tau(   8) = (   0.0000000   1.9392510  12.7425150  )
         9           Y1  tau(   9) = (   0.0000008   3.8433331  15.5413585  )
        10           Y1  tau(  10) = (   1.6489613   0.9872244  15.5413380  )
        11           Y1  tau(  11) = (   5.0687811   0.9872302  15.5413586  )
        12           Ga1 tau(  12) = (   3.3588974   3.8785419  15.2062424  )

     number of k points=    20  Fermi-Dirac smearing, width (Ry)=  0.0110
                       cart. coord. in units 2pi/alat
        k(    1) = (   0.0000000   0.0000000   0.0000000), wk =   0.0555556
        k(    2) = (   0.0000000   0.0286479   0.0000000), wk =   0.1111111
        k(    3) = (   0.0000000   0.0572959   0.0000000), wk =   0.1111111
        k(    4) = (   0.0000000  -0.0859438   0.0000000), wk =   0.0555556
        k(    5) = (   0.0248098   0.0143240   0.0000000), wk =   0.1111111
        k(    6) = (   0.0248098   0.0429719   0.0000000), wk =   0.1111111
        k(    7) = (   0.0248098   0.0716199   0.0000000), wk =   0.1111111
        k(    8) = (   0.0248098  -0.0716199   0.0000000), wk =   0.1111111
        k(    9) = (   0.0248098  -0.0429719   0.0000000), wk =   0.1111111
        k(   10) = (   0.0248098  -0.0143240   0.0000000), wk =   0.1111111
        k(   11) = (   0.0496197   0.0286479   0.0000000), wk =   0.1111111
        k(   12) = (   0.0496197   0.0572959   0.0000000), wk =   0.1111111
        k(   13) = (   0.0496197   0.0859438   0.0000000), wk =   0.1111111
        k(   14) = (   0.0496197  -0.0572959   0.0000000), wk =   0.1111111
        k(   15) = (   0.0496197  -0.0286479   0.0000000), wk =   0.1111111
        k(   16) = (   0.0496197   0.0000000   0.0000000), wk =   0.1111111
        k(   17) = (  -0.0744295  -0.0429719   0.0000000), wk =   0.0555556
        k(   18) = (  -0.0744295  -0.0143240   0.0000000), wk =   0.1111111
        k(   19) = (  -0.0744295   0.0143240   0.0000000), wk =   0.1111111
        k(   20) = (  -0.0744295  -0.1289158   0.0000000), wk =   0.0555556

     Largest allocated arrays     est. size (Mb)     dimensions
     Largest temporary arrays     est. size (Mb)     dimensions

     Initial potential from superposition of free atoms
     Check: negative starting charge=   -0.000734

     starting charge  152.95977, renormalised to  156.00000

[...]

     *
     * You are using vdW-DF for exchange-correlation in this calculation.
     * Please cite the following three references that made this development
     * possible:
     *
     *   M. Dion, H. Rydberg, E. Schroder, D. C. Langreth, and
     *   B. I. Lundqvist, Phys. Rev. Lett. 92, 246401 (2004).
     *
     *   T. Thonhauser, V. R. Cooper, S. Li, A. Puzder, P. Hyldgaard, and
     *   D. C. Langreth, Phys. Rev. B 76, 125112 (2007).
     *
     *   G. Roman-Perez and J. M. Soler, Phys. Rev. Lett. 103, 096102 (2009).
     *
     *
     * If you are using vdW-DF2, please also cite:
     *
     *   K. Lee, E. D. Murray, L. Kong, B. I. Lundqvist, and
     *   D. C. Langreth, Phys. Rev. B 82, 081101(R) (2010).
     *
     *
     * If you are calculating the stress with vdW-DF, please also cite:
     *
     *   R. Sabatini, E. Kucukbenli, B. Kolb, T. Thonhauser, and
     *   S. de Gironcoli, J. Phys.: Condens. Matter 24, 424209 (2012).
     *

     Carrying out vdW-DF run using the following parameters:

     Nqs =      20    Nr_points =    1024   r_max =   100.000
     q_mesh =
               0.00001000     0.04494208     0.09755937     0.15916263
               0.23128650     0.31572767     0.41458969     0.53033537
               0.66584808     0.82450364     1.01025438     1.22772762
               1.48234092     1.78043706     2.12944203     2.53805004
               3.01644009     3.57652955     4.23227104     5.00000000

     Gradients computed in reciprocal space

[...]

     Starting wfc are  153 randomized atomic wfcs

     Self-consistent Calculation

[...]

     total energy              =   -2093.12881642 Ry
     Harris-Foulkes estimate   =   -2093.12881715 Ry
     estimated scf accuracy    <       0.00000337 Ry

     iteration # 17     ecut=    36.75 Ry     beta=0.10
     Davidson diagonalization with overlap
     ethr =  2.16E-09,  avg # of iterations =  2.0

[...]

     negative rho (up, down):  3.540E-04 0.000E+00

     Adding external electric field

     Computed dipole along edir(3) :
        Dipole                0.0469 Ry au,          0.1193 Debye
        Dipole field          0.0001 Ry au

        Potential amp.       -0.0082 Ry
        Total length         46.9557 bohr

     End of self-consistent calculation

[...]

          k = 0.0496 0.0000 0.0000 ( 25288 PWs)   bands (ev):

[...]

          k =-0.0744-0.1289 0.0000 ( 25314 PWs)   bands (ev):

   -93.0427 -93.0267 -93.0199 -93.0199 -93.0062 -93.0062 -92.9047 -92.9041
   -92.9041 -42.2323 -42.2054 -42.1837 -42.1795 -42.1566 -42.1334 -41.6574
   -41.6345 -41.6113 -22.3845 -22.3405 -22.2963 -22.2813 -22.2485 -22.2247
   -22.2043 -22.1934 -22.1871 -22.1723 -22.1312 -22.1184 -22.1003 -22.0848
   -22.0682 -22.0678 -21.8627 -21.8497 -21.8138 -21.6368 -21.6267 -21.5846
   -21.5773 -21.5767 -21.5674 -21.5395 -21.3599 -13.3558 -13.3520 -13.3519
   -13.3346 -13.3324 -13.3306 -13.3270 -13.3269 -13.3188 -13.3166 -13.2216
   -13.2191 -13.2190 -13.2139 -13.2132  -4.7606  -4.6343  -4.3354  -1.9799
    -1.4438  -1.2056  -0.9905  -0.3076  -0.1210  -0.0446   0.0768   0.1950
     0.2515   0.3870   0.6987   0.8247   0.9107   1.0609   1.1310   1.4364
     1.5321   1.5589   1.5836   1.7494   1.7513   1.7725   1.8430   2.2141
     2.3317   2.4477   2.4824   2.7121   2.8245   2.8670   3.3918   3.4579
     3.5156   3.6096   3.7380   3.8806   3.8959   3.9319   3.9900   4.0896
     4.1457   4.1928   4.2187   4.4528

     the Fermi energy is     1.0736 ev

!    total energy              =   -2093.12881843 Ry
     Harris-Foulkes estimate   =   -2093.12881771 Ry
     estimated scf accuracy    <       0.00000086 Ry

     The total energy is the sum of the following terms:

     one-electron contribution =   -9807.43225058 Ry
     hartree contribution      =    4902.46692209 Ry
     xc contribution           =    -403.73395350 Ry
     ewald contribution        =    3215.65989240 Ry
     electric field correction =       0.00000412 Ry
     smearing contrib. (-TS)   =      -0.08943297 Ry

     convergence has been achieved in  17 iterations

 BEEF-vdW xc energy contributions
           1 :   -355.580111339376
           2 :    320.955168659286
           3 :   -261.681509106615
           4 :    193.003592792686
           5 :   -129.026077880641
           6 :    78.1258424704907
           7 :   -42.0789637458182
           8 :    18.3492563401835
           9 :   -3.42630705528916
          10 :   -4.90957939236182
          11 :    7.32950056007934
          12 :   -4.21707280109769
          13 :   -2.90108666235386
          14 :    10.9846810175769
          15 :   -16.4898434099199
          16 :    17.0199151212604
          17 :   -12.4352986377218
          18 :    4.68608461061592
          19 :    3.42707056241460
          20 :   -9.68124453908808
          21 :    13.1902743200762
          22 :   -14.2326140639544
          23 :    13.5279548160901
          24 :   -11.6048920712665
          25 :    8.67576329641230
          26 :   -4.96417751467573
          27 :    1.07082057801023
          28 :    2.02602990175353
          29 :   -3.40274317907961
          30 :    2.74279614238100
          31 :   -31.0140836751901
          32 :   -21.2096619542554

     Forces acting on atoms (Ry/au):

     negative rho (up, down):  3.540E-04 0.000E+00
     atom    1 type  1   force =    -0.00000195    0.01721072   -0.00990627
     atom    2 type  1   force =     0.01490148   -0.00860528   -0.00990263
     atom    3 type  1   force =    -0.01490212   -0.00860501   -0.00990367
     atom    4 type  2   force =     0.00000417    0.00000030    0.02207725
     atom    5 type  1   force =     0.00000149   -0.00152052    0.00358460
     atom    6 type  1   force =    -0.00132124    0.00076186    0.00358625
     atom    7 type  1   force =     0.00132161    0.00075999    0.00358245
     atom    8 type  2   force =     0.00000743   -0.00000240    0.00054751
     atom    9 type  1   force =    -0.00000163   -0.00056366   -0.00101238
     atom   10 type  1   force =    -0.00049197    0.00028062   -0.00101312
     atom   11 type  1   force =     0.00048843    0.00028335   -0.00101369
     atom   12 type  2   force =    -0.00000570    0.00000002   -0.00062629

     Total force =     0.041477     Total SCF correction =     0.003387

     entering subroutine stress ...

     negative rho (up, down):  3.540E-04 0.000E+00
          total   stress  (Ry/bohr**3)                   (kbar)     P=   -3.78
  -0.00003890   0.00000000  -0.00000000         -5.72      0.00     -0.00
   0.00000000  -0.00003890  -0.00000000          0.00     -5.72     -0.00
  -0.00000000  -0.00000000   0.00000074         -0.00     -0.00      0.11

 !ASE

     Writing output data file calc.save

     General routines

     Parallel routines

   This run was terminated on:  12:28:40   2Jan2019

   JOB DONE.
Job  /afs/slac/g/suncat/bin/suncat-tsmpirun -x LD_LIBRARY_PATH -wdir /scratch/qe649416_jOnRW pw.x -in pw.inp

TID   HOST_NAME   COMMAND_LINE            STATUS            TERMINATION_TIME
00000 suncat0182 pw.x -in pw.inp   Done                     01/02/2019 12:28:40
00001 suncat0182 pw.x -in pw.inp   Done                     01/02/2019 12:28:40
00002 suncat0182 pw.x -in pw.inp   Done                     01/02/2019 12:28:40
00003 suncat0182 pw.x -in pw.inp   Done                     01/02/2019 12:28:40
00004 suncat0182 pw.x -in pw.inp   Done                     01/02/2019 12:28:40
00005 suncat0182 pw.x -in pw.inp   Done                     01/02/2019 12:28:40
00006 suncat0182 pw.x -in pw.inp   Done                     01/02/2019 12:28:40
00007 suncat0182 pw.x -in pw.inp   Done                     01/02/2019 12:28:40
00008 suncat0181 pw.x -in pw.inp   Done                     01/02/2019 12:28:40
00009 suncat0181 pw.x -in pw.inp   Done                     01/02/2019 12:28:40
00010 suncat0181 pw.x -in pw.inp   Done                     01/02/2019 12:28:40
00011 suncat0181 pw.x -in pw.inp   Done                     01/02/2019 12:28:40
00012 suncat0181 pw.x -in pw.inp   Done                     01/02/2019 12:28:40
00013 suncat0181 pw.x -in pw.inp   Done                     01/02/2019 12:28:40
00014 suncat0181 pw.x -in pw.inp   Done                     01/02/2019 12:28:40
00015 suncat0181 pw.x -in pw.inp   Done                     01/02/2019 12:28:40
00016 suncat0132 pw.x -in pw.inp   Done                     01/02/2019 12:28:40
00017 suncat0132 pw.x -in pw.inp   Done                     01/02/2019 12:28:40
00018 suncat0132 pw.x -in pw.inp   Done                     01/02/2019 12:28:40
00019 suncat0132 pw.x -in pw.inp   Done                     01/02/2019 12:28:40
00020 suncat0132 pw.x -in pw.inp   Done                     01/02/2019 12:28:40
00021 suncat0132 pw.x -in pw.inp   Done                     01/02/2019 12:28:40
00022 suncat0132 pw.x -in pw.inp   Done                     01/02/2019 12:28:40
00023 suncat0132 pw.x -in pw.inp   Done                     01/02/2019 12:28:40
00024 suncat0131 pw.x -in pw.inp   Done                     01/02/2019 12:28:40
00025 suncat0131 pw.x -in pw.inp   Done                     01/02/2019 12:28:40
00026 suncat0131 pw.x -in pw.inp   Done                     01/02/2019 12:28:40
00027 suncat0131 pw.x -in pw.inp   Done                     01/02/2019 12:28:40
00028 suncat0131 pw.x -in pw.inp   Done                     01/02/2019 12:28:40
00029 suncat0131 pw.x -in pw.inp   Done                     01/02/2019 12:28:40
00030 suncat0131 pw.x -in pw.inp   Done                     01/02/2019 12:28:40
00031 suncat0131 pw.x -in pw.inp   Done                     01/02/2019 12:28:40
00032 suncat0130 pw.x -in pw.inp   Done                     01/02/2019 12:28:40
00033 suncat0130 pw.x -in pw.inp   Done                     01/02/2019 12:28:40
00034 suncat0130 pw.x -in pw.inp   Done                     01/02/2019 12:28:40
00035 suncat0130 pw.x -in pw.inp   Done                     01/02/2019 12:28:40
00036 suncat0130 pw.x -in pw.inp   Done                     01/02/2019 12:28:40
00037 suncat0130 pw.x -in pw.inp   Done                     01/02/2019 12:28:40
00038 suncat0130 pw.x -in pw.inp   Done                     01/02/2019 12:28:40
00039 suncat0130 pw.x -in pw.inp   Done                     01/02/2019 12:28:40
00040 suncat0124 pw.x -in pw.inp   Done                     01/02/2019 12:28:40
00041 suncat0124 pw.x -in pw.inp   Done                     01/02/2019 12:28:40
00042 suncat0124 pw.x -in pw.inp   Done                     01/02/2019 12:28:40
00043 suncat0124 pw.x -in pw.inp   Done                     01/02/2019 12:28:40
00044 suncat0124 pw.x -in pw.inp   Done                     01/02/2019 12:28:40
00045 suncat0124 pw.x -in pw.inp   Done                     01/02/2019 12:28:40
00046 suncat0124 pw.x -in pw.inp   Done                     01/02/2019 12:28:40
00047 suncat0124 pw.x -in pw.inp   Done                     01/02/2019 12:28:40
00048 suncat0280 pw.x -in pw.inp   Done                     01/02/2019 12:28:40
00049 suncat0280 pw.x -in pw.inp   Done                     01/02/2019 12:28:40
00050 suncat0280 pw.x -in pw.inp   Done                     01/02/2019 12:28:40
00051 suncat0280 pw.x -in pw.inp   Done                     01/02/2019 12:28:40
00052 suncat0280 pw.x -in pw.inp   Done                     01/02/2019 12:28:40
00053 suncat0280 pw.x -in pw.inp   Done                     01/02/2019 12:28:40
00054 suncat0280 pw.x -in pw.inp   Done                     01/02/2019 12:28:40
00055 suncat0280 pw.x -in pw.inp   Done                     01/02/2019 12:28:40
00056 suncat0279 pw.x -in pw.inp   Done                     01/02/2019 12:28:40
00057 suncat0279 pw.x -in pw.inp   Done                     01/02/2019 12:28:40
00058 suncat0279 pw.x -in pw.inp   Done                     01/02/2019 12:28:40
00059 suncat0279 pw.x -in pw.inp   Done                     01/02/2019 12:28:40
00060 suncat0279 pw.x -in pw.inp   Done                     01/02/2019 12:28:40
00061 suncat0279 pw.x -in pw.inp   Done                     01/02/2019 12:28:40
00062 suncat0279 pw.x -in pw.inp   Done                     01/02/2019 12:28:40
00063 suncat0279 pw.x -in pw.inp   Done                     01/02/2019 12:28:40