     Program PWSCF v.5.1rc2 (svn rev. 11289) starts on 28Dec2018 at  3:44:23

     Current dimensions of program PWSCF are:
     Max number of different atomic species (ntypx) = 10
     Max number of k-points (npk) =  40000
     Max angular momentum in pseudopotentials (lmaxx) =  3
     Presently stress not available with electric field

     IMPORTANT: XC functional enforced from input :
     Exchange-correlation      = BEEF-VDW ( 1  4 27 13 2)
     Any further DFT definition will be discarded
     Please, verify this is what you really want

     Subspace diagonalization in iterative solution of the eigenvalue problem:
     a serial algorithm will be used

     bravais-lattice index     =            0
     lattice parameter (alat)  =       1.8897  a.u.
     unit-cell volume          =    7223.5129 (a.u.)^3
     number of atoms/cell      =           12
     number of atomic types    =            2
     number of electrons       =       135.00
     number of Kohn-Sham states=           97
     kinetic-energy cutoff     =      36.7493  Ry
     charge density cutoff     =     367.4932  Ry
     convergence threshold     =      1.0E-06
     mixing beta               =       0.1000
     number of iterations used =           10  plain     mixing
     Exchange-correlation      = BEEF-VDW ( 1  4 27 13 2)
     nstep                     =           50

     celldm(1)=   1.889726  celldm(2)=   0.000000  celldm(3)=   0.000000
     celldm(4)=   0.000000  celldm(5)=   0.000000  celldm(6)=   0.000000

     crystal axes: (cart. coord. in units of alat)
               a(1) = (   6.939538   0.000000   0.000000 )
               a(2) = (  -3.469769   6.009817   0.000000 )
               a(3) = (   0.000000   0.000000  25.666109 )

     reciprocal axes: (cart. coord. in units 2 pi/alat)
               b(1) = (  0.144102  0.083197  0.000000 )
               b(2) = (  0.000000  0.166394  0.000000 )
               b(3) = (  0.000000  0.000000  0.038962 )

     PseudoPot. # 1 for Y  read from file:
     /afs/slac.stanford.edu/u/if/mamunm/psp/gbrv1.5pbe/Y.UPF
     MD5 check sum: d034151ed7554c50b6e82763ed42c788
     Pseudo is Ultrasoft + core correction, Zval = 11.0
     Generated by new atomic code, or converted to UPF format
     Using radial grid of  885 points,  6 beta functions with:
                l(1) =   0
                l(2) =   0
                l(3) =   1
                l(4) =   1
                l(5) =   2
                l(6) =   2
     Q(r) pseudized with  8 coefficients,  rinner =    1.200   1.200   1.200
                                                       1.200   1.200

     PseudoPot. # 2 for Zr read from file:
     /afs/slac.stanford.edu/u/if/mamunm/psp/gbrv1.5pbe/Zr.UPF
     MD5 check sum: 5db81b1e868ab7776c4564c113de050b
     Pseudo is Ultrasoft + core correction, Zval = 12.0
     Generated by new atomic code, or converted to UPF format
     Using radial grid of  887 points,  6 beta functions with:
                l(1) =   0
                l(2) =   0
                l(3) =   1
                l(4) =   1
                l(5) =   2
                l(6) =   2
     Q(r) pseudized with  6 coefficients,  rinner =    1.200   1.200   1.200
                                                       1.200   1.200

     vdW kernel table read from file vdW_kernel_table
     MD5 check sum: 095c7af220d748ca6e76c0b4c6cfb241

     atomic species   valence    mass     pseudopotential
        Y1            11.00    88.90584     Y ( 1.00)
        Zr1           12.00    91.22400     Zr( 1.00)

     No symmetry found

   Cartesian axes

     site n.     atom                  positions (alat units)
         1           Y1  tau(   1) = (   0.0000000   0.0000000  10.0000000  )
         2           Y1  tau(   2) = (  -1.7348846   3.0049083  10.0000000  )
         3           Y1  tau(   3) = (   1.7348846   3.0049083  10.0000000  )
         4           Zr1 tau(   4) = (   3.4697692   0.0000000  10.0000000  )
         5           Y1  tau(   5) = (   3.4697692   2.0032722  12.8330547  )
         6           Y1  tau(   6) = (   1.7348846   5.0081805  12.8330547  )
         7           Y1  tau(   7) = (  -1.7348846   5.0081805  12.8330547  )
         8           Zr1 tau(   8) = (   0.0000000   2.0032722  12.8330547  )
         9           Y1  tau(   9) = (  -0.0000000   4.0065444  15.6661094  )
        10           Y1  tau(  10) = (   1.7348846   1.0016361  15.6661094  )
        11           Y1  tau(  11) = (   5.2046539   1.0016361  15.6661094  )
        12           Zr1 tau(  12) = (   3.4697692   4.0065444  15.6661094  )

     number of k points=    20  Fermi-Dirac smearing, width (Ry)=  0.0110
                       cart. coord. in units 2pi/alat
        k(    1) = (   0.0000000   0.0000000   0.0000000), wk =   0.0555556
        k(    2) = (   0.0000000   0.0277324   0.0000000), wk =   0.1111111
        k(    3) = (   0.0000000   0.0554648   0.0000000), wk =   0.1111111
        k(    4) = (   0.0000000  -0.0831972   0.0000000), wk =   0.0555556
        k(    5) = (   0.0240170   0.0138662   0.0000000), wk =   0.1111111
        k(    6) = (   0.0240170   0.0415986   0.0000000), wk =   0.1111111
        k(    7) = (   0.0240170   0.0693310   0.0000000), wk =   0.1111111
        k(    8) = (   0.0240170  -0.0693310   0.0000000), wk =   0.1111111
        k(    9) = (   0.0240170  -0.0415986   0.0000000), wk =   0.1111111
        k(   10) = (   0.0240170  -0.0138662   0.0000000), wk =   0.1111111
        k(   11) = (   0.0480339   0.0277324   0.0000000), wk =   0.1111111
        k(   12) = (   0.0480339   0.0554648   0.0000000), wk =   0.1111111
        k(   13) = (   0.0480339   0.0831972   0.0000000), wk =   0.1111111
        k(   14) = (   0.0480339  -0.0554648   0.0000000), wk =   0.1111111
        k(   15) = (   0.0480339  -0.0277324   0.0000000), wk =   0.1111111
        k(   16) = (   0.0480339   0.0000000   0.0000000), wk =   0.1111111
        k(   17) = (  -0.0720509  -0.0415986   0.0000000), wk =   0.0555556
        k(   18) = (  -0.0720509  -0.0138662   0.0000000), wk =   0.1111111
        k(   19) = (  -0.0720509   0.0138662   0.0000000), wk =   0.1111111
        k(   20) = (  -0.0720509  -0.1247958   0.0000000), wk =   0.0555556

     Largest allocated arrays     est. size (Mb)     dimensions
     Largest temporary arrays     est. size (Mb)     dimensions

     Initial potential from superposition of free atoms
     Check: negative starting charge=   -0.182297

     starting charge  134.95333, renormalised to  135.00000

     negative rho (up, down):  1.824E-01 0.000E+00

     *
     * You are using vdW-DF for exchange-correlation in this calculation.
     * Please cite the following three references that made this development
     * possible:
     *
     *   M. Dion, H. Rydberg, E. Schroder, D. C. Langreth, and
     *   B. I. Lundqvist, Phys. Rev. Lett. 92, 246401 (2004).
     *
     *   T. Thonhauser, V. R. Cooper, S. Li, A. Puzder, P. Hyldgaard, and
     *   D. C. Langreth, Phys. Rev. B 76, 125112 (2007).
     *
     *   G. Roman-Perez and J. M. Soler, Phys. Rev. Lett. 103, 096102 (2009).
     *
     *
     * If you are using vdW-DF2, please also cite:
     *
     *   K. Lee, E. D. Murray, L. Kong, B. I. Lundqvist, and
     *   D. C. Langreth, Phys. Rev. B 82, 081101(R) (2010).
     *
     *
     * If you are calculating the stress with vdW-DF, please also cite:
     *
     *   R. Sabatini, E. Kucukbenli, B. Kolb, T. Thonhauser, and
     *   S. de Gironcoli, J. Phys.: Condens. Matter 24, 424209 (2012).
     *

     Carrying out vdW-DF run using the following parameters:

     Nqs =      20    Nr_points =    1024   r_max =   100.000
     q_mesh =
               0.00001000     0.04494208     0.09755937     0.15916263
               0.23128650     0.31572767     0.41458969     0.53033537
               0.66584808     0.82450364     1.01025438     1.22772762
               1.48234092     1.78043706     2.12944203     2.53805004
               3.01644009     3.57652955     4.23227104     5.00000000

     Gradients computed in reciprocal space

     Adding external electric field

     Computed dipole along edir(3) :
        Dipole                0.0000 Ry au,          0.0000 Debye
        Dipole field          0.0000 Ry au

        Potential amp.       -0.0000 Ry
        Total length         47.2894 bohr

     Starting wfc are  156 randomized atomic wfcs

     Self-consistent Calculation

     iteration #  1     ecut=    36.75 Ry     beta=0.10
     Davidson diagonalization with overlap
     ethr =  1.00E-02,  avg # of iterations =  2.0

[...]

     total energy              =   -1141.73147126 Ry
     Harris-Foulkes estimate   =   -1142.82313424 Ry
     estimated scf accuracy    <       6.16971277 Ry

[...]

     End of self-consistent calculation

          k = 0.0000 0.0000 0.0000 ( 27273 PWs)   bands (ev):

   -48.3721 -48.3721 -48.0791 -42.0255 -42.0247 -41.9783 -41.9782 -41.9781
   -41.9780 -41.4476 -41.4008 -41.4006 -26.3808 -26.3779 -26.2937 -26.2937
   -26.2928 -26.2928 -26.0317 -26.0244 -26.0243 -22.2575 -22.2446 -22.0765
   -22.0475 -22.0475 -22.0321 -22.0244 -22.0244 -21.9935 -21.9935 -21.9687
   -21.9686 -21.7741 -21.7683 -21.7263 -21.7263 -21.7231 -21.7230 -21.6875
   -21.4713 -21.4712 -21.3781 -21.3398 -21.3397 -21.2349 -21.1757 -21.1756
    -3.2902  -2.3551  -1.3408  -0.7006  -0.6245  -0.6215  -0.6215  -0.5671
    -0.5670  -0.2749  -0.2367  -0.2367   0.1765   0.1765   0.2091   0.6760
     0.6760   0.7659   1.2307   1.3126   1.6401   1.6401   1.6702   1.8004
     1.9498   1.9498   1.9511   2.1911   2.3758   2.3758   2.4453   2.5728
     2.6604   2.6604   2.6858   2.6858   2.7791   2.7791   2.7898   2.7898
     2.9199   2.9200   3.2463   3.5877   3.5877   3.7860   4.1959   4.2304
     4.2304

[...]

          k =-0.0721-0.0416 0.0000 ( 27150 PWs)   bands (ev):

[...]

     the Fermi energy is     1.1179 ev

!    total energy              =   -1142.31577229 Ry
     Harris-Foulkes estimate   =   -1142.31577089 Ry
     estimated scf accuracy    <       0.00000060 Ry

     The total energy is the sum of the following terms:

     one-electron contribution =   -6016.37933786 Ry
     hartree contribution      =    3000.14390347 Ry
     xc contribution           =    -309.23982067 Ry
     ewald contribution        =    2183.28957119 Ry
     electric field correction =       0.00000000 Ry
     smearing contrib. (-TS)   =      -0.13008842 Ry

     convergence has been achieved in  19 iterations

 BEEF-vdW xc energy contributions
           1 :   -268.858101503342
           2 :    241.878799897854
           3 :   -195.474063478221
           4 :    141.233664207224
           5 :   -90.0277582702849
           6 :    48.6104788004466
           7 :   -18.9328017047385
           8 :  -0.280707460865074
           9 :    11.2456017876294
          10 :   -15.6140643995783
          11 :    14.3274659152603
          12 :   -8.39992509817489
          13 :  -0.295289645844377
          14 :    8.98302781154155
          15 :   -14.8047939964045
          16 :    15.9673888988534
          17 :   -12.4598754862607
          18 :    5.88607156969448
          19 :    1.43346954713240
[...]
               b(1) = (  0.144102  0.083197  0.000000 )
               b(2) = (  0.000000  0.166394  0.000000 )
               b(3) = (  0.000000  0.000000  0.038962 )

     PseudoPot. # 1 for Y  read from file:
     /afs/slac.stanford.edu/u/if/mamunm/psp/gbrv1.5pbe/Y.UPF
     MD5 check sum: d034151ed7554c50b6e82763ed42c788
     Pseudo is Ultrasoft + core correction, Zval = 11.0
     Generated by new atomic code, or converted to UPF format
     Using radial grid of  885 points,  6 beta functions with:
                l(1) =   0
                l(2) =   0
                l(3) =   1
                l(4) =   1
                l(5) =   2
                l(6) =   2
     Q(r) pseudized with  8 coefficients,  rinner =    1.200   1.200   1.200
                                                       1.200   1.200

     PseudoPot. # 2 for Zr read from file:
     /afs/slac.stanford.edu/u/if/mamunm/psp/gbrv1.5pbe/Zr.UPF
     MD5 check sum: 5db81b1e868ab7776c4564c113de050b
     Pseudo is Ultrasoft + core correction, Zval = 12.0
     Generated by new atomic code, or converted to UPF format
     Using radial grid of  887 points,  6 beta functions with:
                l(1) =   0
                l(2) =   0
                l(3) =   1
                l(4) =   1
                l(5) =   2
                l(6) =   2
     Q(r) pseudized with  6 coefficients,  rinner =    1.200   1.200   1.200
                                                       1.200   1.200

     vdW kernel table read from file vdW_kernel_table
     MD5 check sum: 095c7af220d748ca6e76c0b4c6cfb241

     atomic species   valence    mass     pseudopotential
        Y1            11.00    88.90584     Y ( 1.00)
        Zr1           12.00    91.22400     Zr( 1.00)

     No symmetry found

   Cartesian axes

     site n.     atom                  positions (alat units)
         1           Y1  tau(   1) = (   0.0000000   0.0000000  10.0000000  )
         2           Y1  tau(   2) = (  -1.7348846   3.0049083  10.0000000  )
         3           Y1  tau(   3) = (   1.7348846   3.0049083  10.0000000  )
         4           Zr1 tau(   4) = (   3.4697692   0.0000000  10.0000000  )
         5           Y1  tau(   5) = (   3.4697692   2.0032722  12.8330547  )
         6           Y1  tau(   6) = (   1.7348846   5.0081805  12.8330547  )
         7           Y1  tau(   7) = (  -1.7348846   5.0081805  12.8330547  )
         8           Zr1 tau(   8) = (   0.0000000   2.0032722  12.8330547  )
         9           Y1  tau(   9) = (   0.0000247   3.9816282  15.6314575  )
        10           Y1  tau(  10) = (   1.7134175   1.0142404  15.6314597  )
        11           Y1  tau(  11) = (   5.2261605   1.0142128  15.6314148  )
        12           Zr1 tau(  12) = (   3.4697520   4.0066013  15.4142603  )

     number of k points=    20  Fermi-Dirac smearing, width (Ry)=  0.0110
                       cart. coord. in units 2pi/alat
        k(    1) = (   0.0000000   0.0000000   0.0000000), wk =   0.0555556
        k(    2) = (   0.0000000   0.0277324   0.0000000), wk =   0.1111111
        k(    3) = (   0.0000000   0.0554648   0.0000000), wk =   0.1111111
        k(    4) = (   0.0000000  -0.0831972   0.0000000), wk =   0.0555556
        k(    5) = (   0.0240170   0.0138662   0.0000000), wk =   0.1111111
        k(    6) = (   0.0240170   0.0415986   0.0000000), wk =   0.1111111
        k(    7) = (   0.0240170   0.0693310   0.0000000), wk =   0.1111111
        k(    8) = (   0.0240170  -0.0693310   0.0000000), wk =   0.1111111
        k(    9) = (   0.0240170  -0.0415986   0.0000000), wk =   0.1111111
        k(   10) = (   0.0240170  -0.0138662   0.0000000), wk =   0.1111111
        k(   11) = (   0.0480339   0.0277324   0.0000000), wk =   0.1111111
        k(   12) = (   0.0480339   0.0554648   0.0000000), wk =   0.1111111
        k(   13) = (   0.0480339   0.0831972   0.0000000), wk =   0.1111111
        k(   14) = (   0.0480339  -0.0554648   0.0000000), wk =   0.1111111
        k(   15) = (   0.0480339  -0.0277324   0.0000000), wk =   0.1111111
        k(   16) = (   0.0480339   0.0000000   0.0000000), wk =   0.1111111
        k(   17) = (  -0.0720509  -0.0415986   0.0000000), wk =   0.0555556
        k(   18) = (  -0.0720509  -0.0138662   0.0000000), wk =   0.1111111
        k(   19) = (  -0.0720509   0.0138662   0.0000000), wk =   0.1111111
        k(   20) = (  -0.0720509  -0.1247958   0.0000000), wk =   0.0555556

     Largest allocated arrays     est. size (Mb)     dimensions
     Largest temporary arrays     est. size (Mb)     dimensions

     Initial potential from superposition of free atoms
     Check: negative starting charge=   -0.182252

     starting charge  134.95333, renormalised to  135.00000

[...]

     *
     * You are using vdW-DF for exchange-correlation in this calculation.
     * Please cite the following three references that made this development
     * possible:
     *
     *   M. Dion, H. Rydberg, E. Schroder, D. C. Langreth, and
     *   B. I. Lundqvist, Phys. Rev. Lett. 92, 246401 (2004).
     *
     *   T. Thonhauser, V. R. Cooper, S. Li, A. Puzder, P. Hyldgaard, and
     *   D. C. Langreth, Phys. Rev. B 76, 125112 (2007).
     *
     *   G. Roman-Perez and J. M. Soler, Phys. Rev. Lett. 103, 096102 (2009).
     *
     *
     * If you are using vdW-DF2, please also cite:
     *
     *   K. Lee, E. D. Murray, L. Kong, B. I. Lundqvist, and
     *   D. C. Langreth, Phys. Rev. B 82, 081101(R) (2010).
     *
     *
     * If you are calculating the stress with vdW-DF, please also cite:
     *
     *   R. Sabatini, E. Kucukbenli, B. Kolb, T. Thonhauser, and
     *   S. de Gironcoli, J. Phys.: Condens. Matter 24, 424209 (2012).
     *

     Carrying out vdW-DF run using the following parameters:

     Nqs =      20    Nr_points =    1024   r_max =   100.000
     q_mesh =
               0.00001000     0.04494208     0.09755937     0.15916263
               0.23128650     0.31572767     0.41458969     0.53033537
               0.66584808     0.82450364     1.01025438     1.22772762
               1.48234092     1.78043706     2.12944203     2.53805004
               3.01644009     3.57652955     4.23227104     5.00000000

     Gradients computed in reciprocal space

[...]

     Starting wfc are  156 randomized atomic wfcs

     Self-consistent Calculation

[...]

     total energy              =   -1142.32692113 Ry
     Harris-Foulkes estimate   =   -1142.32692157 Ry
     estimated scf accuracy    <       0.00000251 Ry

     iteration # 18     ecut=    36.75 Ry     beta=0.10
     Davidson diagonalization with overlap
     ethr =  1.86E-09,  avg # of iterations =  2.0

[...]

     negative rho (up, down):  1.846E-01 0.000E+00

     Adding external electric field

     Computed dipole along edir(3) :
        Dipole                0.0115 Ry au,          0.0292 Debye
        Dipole field          0.0000 Ry au

        Potential amp.       -0.0019 Ry
        Total length         47.2894 bohr

     End of self-consistent calculation

[...]

          k = 0.0480 0.0000 0.0000 ( 27187 PWs)   bands (ev):

[...]

          k =-0.0721-0.1248 0.0000 ( 27150 PWs)   bands (ev):

   -48.3908 -48.2041 -48.0462 -42.0209 -42.0051 -41.9958 -41.9894 -41.9787
   -41.9634 -41.3479 -41.3321 -41.3163 -26.4023 -26.3079 -26.3046 -26.1977
   -26.1571 -26.1538 -26.0029 -25.9925 -25.9894 -22.1510 -22.1267 -22.0529
   -22.0331 -22.0191 -22.0004 -21.9927 -21.9752 -21.9537 -21.9479 -21.9472
   -21.9137 -21.9121 -21.9033 -21.8973 -21.8746 -21.7483 -21.7247 -21.4964
   -21.3281 -21.3184 -21.2868 -21.2801 -21.2788 -21.2723 -21.2610 -21.1123
    -2.0352  -2.0010  -1.1730  -1.1476  -0.3782  -0.2708  -0.2333  -0.1664
     0.0029   0.0349   0.6129   0.6748   0.6788   0.7235   0.8018   0.8563
     0.9135   0.9329   0.9982   1.0658   1.0848   1.1622   1.1790   1.2623
     1.2785   1.4430   1.4625   1.5191   1.6878   1.7243   1.8540   1.9435
     1.9895   2.1944   2.3372   2.4671   2.5211   2.6538   3.0018   3.1384
     3.1717   3.2443   3.3872   3.4297   3.5368   3.6860   3.7534   3.8019
     3.8415

     the Fermi energy is     1.1157 ev

!    total energy              =   -1142.32692295 Ry
     Harris-Foulkes estimate   =   -1142.32692123 Ry
     estimated scf accuracy    <       0.00000076 Ry

     The total energy is the sum of the following terms:

     one-electron contribution =   -6095.49623596 Ry
     hartree contribution      =    3039.84851980 Ry
     xc contribution           =    -309.33710689 Ry
     ewald contribution        =    2222.78605403 Ry
     electric field correction =       0.00000023 Ry
     smearing contrib. (-TS)   =      -0.12815417 Ry

     convergence has been achieved in  18 iterations

 BEEF-vdW xc energy contributions
           1 :   -269.061321025786
           2 :    242.114728321752
           3 :   -195.736061995142
           4 :    141.472783449926
           5 :   -90.1896024695395
           6 :    48.6807554802870
           7 :   -18.9528622503957
           8 :  -0.242191385936849
           9 :    11.1426604613295
          10 :   -15.4557853085189
          11 :    14.1678902563137
          12 :   -8.29497613112574
          13 :  -0.329774205106673
          14 :    8.98109078008281
          15 :   -14.8233596611471
          16 :    16.0449678671070
          17 :   -12.5911145166263
          18 :    6.02870626367877
          19 :    1.32626961871642
          20 :   -7.44634265273555
          21 :    11.2212467864985
          22 :   -12.4785221413131
          23 :    11.6065767789786
          24 :   -9.15943956578707
          25 :    5.69193712644255
          26 :   -1.81279544173287
          27 :   -1.74260328445683
          28 :    4.20345721628337
          29 :   -5.03002447700214
          30 :    4.18253724827133
          31 :   -26.6267583018480
          32 :   -18.5569476948882

     Forces acting on atoms (Ry/au):

     negative rho (up, down):  1.846E-01 0.000E+00
     atom    1 type  1   force =     0.00000325    0.00732543    0.00068071
     atom    2 type  1   force =     0.00635364   -0.00368794    0.00069745
     atom    3 type  1   force =    -0.00635179   -0.00369137    0.00070041
     atom    4 type  2   force =    -0.00000434   -0.00001842    0.02273030
     atom    5 type  1   force =    -0.00000392   -0.00142400   -0.00787821
     atom    6 type  1   force =    -0.00122973    0.00069128   -0.00786941
     atom    7 type  1   force =     0.00123000    0.00069290   -0.00786686
     atom    8 type  2   force =     0.00000259   -0.00001386    0.00129772
     atom    9 type  1   force =    -0.00000570   -0.00000343   -0.00084095
     atom   10 type  1   force =    -0.00007578    0.00007242   -0.00084984
     atom   11 type  1   force =     0.00007752    0.00007617   -0.00084844
     atom   12 type  2   force =     0.00000425   -0.00001918    0.00004712

     Total force =     0.029588     Total SCF correction =     0.002286

     entering subroutine stress ...

     negative rho (up, down):  1.846E-01 0.000E+00
          total   stress  (Ry/bohr**3)                   (kbar)     P=   -3.79
  -0.00002695  -0.00000000  -0.00000000         -3.96     -0.00     -0.00
  -0.00000000  -0.00002696  -0.00000001         -0.00     -3.97     -0.00
  -0.00000000  -0.00000001  -0.00002338         -0.00     -0.00     -3.44

 !ASE

     Writing output data file calc.save

     General routines

     Parallel routines

   This run was terminated on:   4:48:48  28Dec2018

   JOB DONE.
Job  /afs/slac/g/suncat/bin/suncat-tsmpirun -x LD_LIBRARY_PATH -wdir /scratch/qe111445_6Zhtx pw.x -in pw.inp

TID   HOST_NAME   COMMAND_LINE            STATUS            TERMINATION_TIME
00000 suncat0081 pw.x -in pw.inp   Done                     12/28/2018 04:48:48
00001 suncat0081 pw.x -in pw.inp   Done                     12/28/2018 04:48:48
00002 suncat0081 pw.x -in pw.inp   Done                     12/28/2018 04:48:48
00003 suncat0081 pw.x -in pw.inp   Done                     12/28/2018 04:48:48
00004 suncat0081 pw.x -in pw.inp   Done                     12/28/2018 04:48:48
00005 suncat0081 pw.x -in pw.inp   Done                     12/28/2018 04:48:48
00006 suncat0081 pw.x -in pw.inp   Done                     12/28/2018 04:48:48
00007 suncat0081 pw.x -in pw.inp   Done                     12/28/2018 04:48:48
00008 suncat0079 pw.x -in pw.inp   Done                     12/28/2018 04:48:48
00009 suncat0079 pw.x -in pw.inp   Done                     12/28/2018 04:48:48
00010 suncat0079 pw.x -in pw.inp   Done                     12/28/2018 04:48:48
00011 suncat0079 pw.x -in pw.inp   Done                     12/28/2018 04:48:48
00012 suncat0079 pw.x -in pw.inp   Done                     12/28/2018 04:48:48
00013 suncat0079 pw.x -in pw.inp   Done                     12/28/2018 04:48:48
00014 suncat0079 pw.x -in pw.inp   Done                     12/28/2018 04:48:48
00015 suncat0079 pw.x -in pw.inp   Done                     12/28/2018 04:48:48
00016 suncat0076 pw.x -in pw.inp   Done                     12/28/2018 04:48:48
00017 suncat0076 pw.x -in pw.inp   Done                     12/28/2018 04:48:48
00018 suncat0076 pw.x -in pw.inp   Done                     12/28/2018 04:48:48
00019 suncat0076 pw.x -in pw.inp   Done                     12/28/2018 04:48:48
00020 suncat0076 pw.x -in pw.inp   Done                     12/28/2018 04:48:48
00021 suncat0076 pw.x -in pw.inp   Done                     12/28/2018 04:48:48
00022 suncat0076 pw.x -in pw.inp   Done                     12/28/2018 04:48:48
00023 suncat0076 pw.x -in pw.inp   Done                     12/28/2018 04:48:48
00024 suncat0075 pw.x -in pw.inp   Done                     12/28/2018 04:48:48
00025 suncat0075 pw.x -in pw.inp   Done                     12/28/2018 04:48:48
00026 suncat0075 pw.x -in pw.inp   Done                     12/28/2018 04:48:48
00027 suncat0075 pw.x -in pw.inp   Done                     12/28/2018 04:48:48
00028 suncat0075 pw.x -in pw.inp   Done                     12/28/2018 04:48:48
00029 suncat0075 pw.x -in pw.inp   Done                     12/28/2018 04:48:48
00030 suncat0075 pw.x -in pw.inp   Done                     12/28/2018 04:48:48
00031 suncat0075 pw.x -in pw.inp   Done                     12/28/2018 04:48:48
00032 suncat0074 pw.x -in pw.inp   Done                     12/28/2018 04:48:48
00033 suncat0074 pw.x -in pw.inp   Done                     12/28/2018 04:48:48
00034 suncat0074 pw.x -in pw.inp   Done                     12/28/2018 04:48:48
00035 suncat0074 pw.x -in pw.inp   Done                     12/28/2018 04:48:48
00036 suncat0074 pw.x -in pw.inp   Done                     12/28/2018 04:48:48
00037 suncat0074 pw.x -in pw.inp   Done                     12/28/2018 04:48:48
00038 suncat0074 pw.x -in pw.inp   Done                     12/28/2018 04:48:48
00039 suncat0074 pw.x -in pw.inp   Done                     12/28/2018 04:48:48
00040 suncat0073 pw.x -in pw.inp   Done                     12/28/2018 04:48:48
00041 suncat0073 pw.x -in pw.inp   Done                     12/28/2018 04:48:48
00042 suncat0073 pw.x -in pw.inp   Done                     12/28/2018 04:48:48
00043 suncat0073 pw.x -in pw.inp   Done                     12/28/2018 04:48:48
00044 suncat0073 pw.x -in pw.inp   Done                     12/28/2018 04:48:48
00045 suncat0073 pw.x -in pw.inp   Done                     12/28/2018 04:48:48
00046 suncat0073 pw.x -in pw.inp   Done                     12/28/2018 04:48:48
00047 suncat0073 pw.x -in pw.inp   Done                     12/28/2018 04:48:48
00048 suncat0065 pw.x -in pw.inp   Done                     12/28/2018 04:48:48
00049 suncat0065 pw.x -in pw.inp   Done                     12/28/2018 04:48:48
00050 suncat0065 pw.x -in pw.inp   Done                     12/28/2018 04:48:48
00051 suncat0065 pw.x -in pw.inp   Done                     12/28/2018 04:48:48
00052 suncat0065 pw.x -in pw.inp   Done                     12/28/2018 04:48:48
00053 suncat0065 pw.x -in pw.inp   Done                     12/28/2018 04:48:48
00054 suncat0065 pw.x -in pw.inp   Done                     12/28/2018 04:48:48
00055 suncat0065 pw.x -in pw.inp   Done                     12/28/2018 04:48:48
00056 suncat0064 pw.x -in pw.inp   Done                     12/28/2018 04:48:48
00057 suncat0064 pw.x -in pw.inp   Done                     12/28/2018 04:48:48
00058 suncat0064 pw.x -in pw.inp   Done                     12/28/2018 04:48:48
00059 suncat0064 pw.x -in pw.inp   Done                     12/28/2018 04:48:48
00060 suncat0064 pw.x -in pw.inp   Done                     12/28/2018 04:48:48
00061 suncat0064 pw.x -in pw.inp   Done                     12/28/2018 04:48:48
00062 suncat0064 pw.x -in pw.inp   Done                     12/28/2018 04:48:48
00063 suncat0064 pw.x -in pw.inp   Done                     12/28/2018 04:48:48