     Program PWSCF v.5.1rc2 (svn rev. 11289) starts on  2Jan2019 at 11:54:27

     Current dimensions of program PWSCF are:
     Max number of different atomic species (ntypx) = 10
     Max number of k-points (npk) =  40000
     Max angular momentum in pseudopotentials (lmaxx) =  3
     Presently stress not available with electric field

     IMPORTANT: XC functional enforced from input :
     Exchange-correlation      = BEEF-VDW ( 1  4 27 13 2)
     Any further DFT definition will be discarded
     Please, verify this is what you really want

     Subspace diagonalization in iterative solution of the eigenvalue problem:
     a serial algorithm will be used

     bravais-lattice index     =            0
     lattice parameter (alat)  =       1.8897  a.u.
     unit-cell volume          =    7117.5745 (a.u.)^3
     number of atoms/cell      =           12
     number of atomic types    =            2
     number of electrons       =       138.00
     number of Kohn-Sham states=           99
     kinetic-energy cutoff     =      36.7493  Ry
     charge density cutoff     =     367.4932  Ry
     convergence threshold     =      1.0E-06
     mixing beta               =       0.1000
     number of iterations used =           10  plain     mixing
     Exchange-correlation      = BEEF-VDW ( 1  4 27 13 2)
     nstep                     =           50

     celldm(1)=   1.889726  celldm(2)=   0.000000  celldm(3)=   0.000000
     celldm(4)=   0.000000  celldm(5)=   0.000000  celldm(6)=   0.000000

     crystal axes: (cart. coord. in units of alat)
               a(1) = (   6.893512   0.000000   0.000000 )
               a(2) = (  -3.446756   5.969957   0.000000 )
               a(3) = (   0.000000   0.000000  25.628529 )

     reciprocal axes: (cart. coord. in units 2 pi/alat)
               b(1) = (  0.145064  0.083753  0.000000 )
               b(2) = (  0.000000  0.167505  0.000000 )
               b(3) = (  0.000000  0.000000  0.039019 )

     PseudoPot. # 1 for Y  read from file:
     /afs/slac.stanford.edu/u/if/mamunm/psp/gbrv1.5pbe/Y.UPF
     MD5 check sum: d034151ed7554c50b6e82763ed42c788
     Pseudo is Ultrasoft + core correction, Zval = 11.0
     Generated by new atomic code, or converted to UPF format
     Using radial grid of  885 points,  6 beta functions with:
                l(1) =   0
                l(2) =   0
                l(3) =   1
                l(4) =   1
                l(5) =   2
                l(6) =   2
     Q(r) pseudized with  8 coefficients,  rinner =    1.200   1.200   1.200
                                                       1.200   1.200

     PseudoPot. # 2 for In read from file:
     /afs/slac.stanford.edu/u/if/mamunm/psp/gbrv1.5pbe/In.UPF
     MD5 check sum: 90777abd96fbb83f2e67db2a40c566b9
     Pseudo is Ultrasoft + core correction, Zval = 13.0
     Generated by new atomic code, or converted to UPF format
     Using radial grid of  889 points,  6 beta functions with:
                l(1) =   0
                l(2) =   0
                l(3) =   1
                l(4) =   1
                l(5) =   2
                l(6) =   2
     Q(r) pseudized with  6 coefficients,  rinner =    1.400   1.400   1.400
                                                       1.400   1.400

     vdW kernel table read from file vdW_kernel_table
     MD5 check sum: 095c7af220d748ca6e76c0b4c6cfb241

     atomic species   valence    mass     pseudopotential
        Y1            11.00    88.90584     Y ( 1.00)
        In1           13.00   114.81800     In( 1.00)

     No symmetry found

   Cartesian axes

     site n.     atom                  positions (alat units)
         1           Y1  tau(   1) = (   0.0000000   0.0000000  10.0000000  )
         2           Y1  tau(   2) = (  -1.7233781   2.9849784  10.0000000  )
         3           Y1  tau(   3) = (   1.7233781   2.9849784  10.0000000  )
         4           In1 tau(   4) = (   3.4467561   0.0000000  10.0000000  )
         5           Y1  tau(   5) = (   3.4467561   1.9899856  12.8142646  )
         6           Y1  tau(   6) = (   1.7233781   4.9749640  12.8142646  )
         7           Y1  tau(   7) = (  -1.7233781   4.9749640  12.8142646  )
         8           In1 tau(   8) = (   0.0000000   1.9899856  12.8142646  )
         9           Y1  tau(   9) = (  -0.0000000   3.9799712  15.6285292  )
        10           Y1  tau(  10) = (   1.7233781   0.9949928  15.6285292  )
        11           Y1  tau(  11) = (   5.1701342   0.9949928  15.6285292  )
        12           In1 tau(  12) = (   3.4467561   3.9799712  15.6285292  )

     number of k points=    20  Fermi-Dirac smearing, width (Ry)=  0.0110
                       cart. coord. in units 2pi/alat
        k(    1) = (   0.0000000   0.0000000   0.0000000), wk =   0.0555556
        k(    2) = (   0.0000000   0.0279176   0.0000000), wk =   0.1111111
        k(    3) = (   0.0000000   0.0558351   0.0000000), wk =   0.1111111
        k(    4) = (   0.0000000  -0.0837527   0.0000000), wk =   0.0555556
        k(    5) = (   0.0241773   0.0139588   0.0000000), wk =   0.1111111
        k(    6) = (   0.0241773   0.0418764   0.0000000), wk =   0.1111111
        k(    7) = (   0.0241773   0.0697939   0.0000000), wk =   0.1111111
        k(    8) = (   0.0241773  -0.0697939   0.0000000), wk =   0.1111111
        k(    9) = (   0.0241773  -0.0418764   0.0000000), wk =   0.1111111
        k(   10) = (   0.0241773  -0.0139588   0.0000000), wk =   0.1111111
        k(   11) = (   0.0483546   0.0279176   0.0000000), wk =   0.1111111
        k(   12) = (   0.0483546   0.0558351   0.0000000), wk =   0.1111111
        k(   13) = (   0.0483546   0.0837527   0.0000000), wk =   0.1111111
        k(   14) = (   0.0483546  -0.0558351   0.0000000), wk =   0.1111111
        k(   15) = (   0.0483546  -0.0279176   0.0000000), wk =   0.1111111
        k(   16) = (   0.0483546   0.0000000   0.0000000), wk =   0.1111111
        k(   17) = (  -0.0725320  -0.0418764   0.0000000), wk =   0.0555556
        k(   18) = (  -0.0725320  -0.0139588   0.0000000), wk =   0.1111111
        k(   19) = (  -0.0725320   0.0139588   0.0000000), wk =   0.1111111
        k(   20) = (  -0.0725320  -0.1256291   0.0000000), wk =   0.0555556

     Largest allocated arrays     est. size (Mb)     dimensions
     Largest temporary arrays     est. size (Mb)     dimensions

     Initial potential from superposition of free atoms
     Check: negative starting charge=   -0.000524

     starting charge  133.45978, renormalised to  138.00000

     negative rho (up, down):  5.420E-04 0.000E+00

     *
     * You are using vdW-DF for exchange-correlation in this calculation.
     * Please cite the following three references that made this development
     * possible:
     *
     *   M. Dion, H. Rydberg, E. Schroder, D. C. Langreth, and
     *   B. I. Lundqvist, Phys. Rev. Lett. 92, 246401 (2004).
     *
     *   T. Thonhauser, V. R. Cooper, S. Li, A. Puzder, P. Hyldgaard, and
     *   D. C. Langreth, Phys. Rev. B 76, 125112 (2007).
     *
     *   G. Roman-Perez and J. M. Soler, Phys. Rev. Lett. 103, 096102 (2009).
     *
     *
     * If you are using vdW-DF2, please also cite:
     *
     *   K. Lee, E. D. Murray, L. Kong, B. I. Lundqvist, and
     *   D. C. Langreth, Phys. Rev. B 82, 081101(R) (2010).
     *
     *
     * If you are calculating the stress with vdW-DF, please also cite:
     *
     *   R. Sabatini, E. Kucukbenli, B. Kolb, T. Thonhauser, and
     *   S. de Gironcoli, J. Phys.: Condens. Matter 24, 424209 (2012).
     *

     Carrying out vdW-DF run using the following parameters:

     Nqs =      20    Nr_points =    1024   r_max =   100.000
     q_mesh =
               0.00001000     0.04494208     0.09755937     0.15916263
               0.23128650     0.31572767     0.41458969     0.53033537
               0.66584808     0.82450364     1.01025438     1.22772762
               1.48234092     1.78043706     2.12944203     2.53805004
               3.01644009     3.57652955     4.23227104     5.00000000

     Gradients computed in reciprocal space

     Adding external electric field

     Computed dipole along edir(3) :
        Dipole                0.0000 Ry au,          0.0000 Debye
        Dipole field          0.0000 Ry au

        Potential amp.       -0.0000 Ry
        Total length         47.2201 bohr

     Starting wfc are  144 randomized atomic wfcs

     Self-consistent Calculation

     iteration #  1     ecut=    36.75 Ry     beta=0.10
     Davidson diagonalization with overlap
     ethr =  1.00E-02,  avg # of iterations =  2.2

[...]

     total energy              =   -1248.06836252 Ry
     Harris-Foulkes estimate   =   -1248.67327481 Ry
     estimated scf accuracy    <       3.88717522 Ry

[...]

     iteration #  9     ecut=    36.75 Ry     beta=0.10
     Davidson diagonalization with overlap
     c_bands:  3 eigenvalues not converged
     ethr =  1.50E-05,  avg # of iterations =  2.2

[...]

     End of self-consistent calculation

          k = 0.0000 0.0000 0.0000 ( 26793 PWs)   bands (ev):

   -42.3579 -42.3568 -42.3073 -42.3073 -42.3071 -42.3071 -41.8567 -41.8064
   -41.8063 -22.5292 -22.5105 -22.4438 -22.3996 -22.3996 -22.3875 -22.3738
   -22.3738 -22.3589 -22.3588 -22.3200 -22.3200 -22.1253 -22.1180 -22.1001
   -21.9957 -21.9957 -21.9871 -21.9871 -21.8845 -21.8845 -21.7793 -21.7387
   -21.7387 -21.6415 -21.5629 -21.5629 -13.1675 -13.1641 -13.1566 -13.1566
   -13.1540 -13.1540 -13.1486 -13.1486 -13.1458 -13.1458 -13.0544 -13.0544
   -13.0521 -13.0367 -13.0367  -5.1473  -4.3453  -4.0221  -1.3985  -1.3535
    -1.0334  -0.2763  -0.2763  -0.0884  -0.0884   0.1111   0.1987   0.1987
     0.3475   0.7479   0.7479   0.8115   0.8115   0.9147   1.1332   1.3513
     1.3707   1.3707   1.5055   1.5055   1.7837   1.9884   1.9884   2.1002
     2.2266   2.3679   2.3679   2.6596   2.9492   3.7986   3.7986   3.9338
     3.9338   3.9364   3.9685   3.9710   3.9710   3.9952   4.0514   4.0514
     4.0635   4.1616   4.2298

[...]

          k =-0.0725-0.0419 0.0000 ( 26738 PWs)   bands (ev):

[...]

     the Fermi energy is     1.0302 ev

!    total energy              =   -1247.70728749 Ry
     Harris-Foulkes estimate   =   -1247.70728555 Ry
     estimated scf accuracy    <       0.00000016 Ry

     The total energy is the sum of the following terms:

     one-electron contribution =   -6433.84550959 Ry
     hartree contribution      =    3232.21907537 Ry
     xc contribution           =    -371.77641041 Ry
     ewald contribution        =    2325.79248021 Ry
     electric field correction =       0.00000000 Ry
     smearing contrib. (-TS)   =      -0.09692307 Ry

     convergence has been achieved in  18 iterations

 BEEF-vdW xc energy contributions
           1 :   -324.867939772053
           2 :    293.666262119214
           3 :   -240.071869581558
           4 :    177.587802264148
           5 :   -118.848248584910
           6 :    71.6309625379979
           7 :   -38.0085696171497
           8 :    16.1411477700668
           9 :   -2.98628430339051
          10 :   -3.75669371366763
          11 :    5.21900265446328
          12 :   -2.14582375150411
          13 :   -4.06831776485308
[...]
               b(1) = (  0.145064  0.083753  0.000000 )
               b(2) = (  0.000000  0.167505  0.000000 )
               b(3) = (  0.000000  0.000000  0.039019 )

     PseudoPot. # 1 for Y  read from file:
     /afs/slac.stanford.edu/u/if/mamunm/psp/gbrv1.5pbe/Y.UPF
     MD5 check sum: d034151ed7554c50b6e82763ed42c788
     Pseudo is Ultrasoft + core correction, Zval = 11.0
     Generated by new atomic code, or converted to UPF format
     Using radial grid of  885 points,  6 beta functions with:
                l(1) =   0
                l(2) =   0
                l(3) =   1
                l(4) =   1
                l(5) =   2
                l(6) =   2
     Q(r) pseudized with  8 coefficients,  rinner =    1.200   1.200   1.200
                                                       1.200   1.200

     PseudoPot. # 2 for In read from file:
     /afs/slac.stanford.edu/u/if/mamunm/psp/gbrv1.5pbe/In.UPF
     MD5 check sum: 90777abd96fbb83f2e67db2a40c566b9
     Pseudo is Ultrasoft + core correction, Zval = 13.0
     Generated by new atomic code, or converted to UPF format
     Using radial grid of  889 points,  6 beta functions with:
                l(1) =   0
                l(2) =   0
                l(3) =   1
                l(4) =   1
                l(5) =   2
                l(6) =   2
     Q(r) pseudized with  6 coefficients,  rinner =    1.400   1.400   1.400
                                                       1.400   1.400

     vdW kernel table read from file vdW_kernel_table
     MD5 check sum: 095c7af220d748ca6e76c0b4c6cfb241

     atomic species   valence    mass     pseudopotential
        Y1            11.00    88.90584     Y ( 1.00)
        In1           13.00   114.81800     In( 1.00)

     No symmetry found

   Cartesian axes

     site n.     atom                  positions (alat units)
         1           Y1  tau(   1) = (   0.0000000   0.0000000  10.0000000  )
         2           Y1  tau(   2) = (  -1.7233781   2.9849784  10.0000000  )
         3           Y1  tau(   3) = (   1.7233781   2.9849784  10.0000000  )
         4           In1 tau(   4) = (   3.4467561   0.0000000  10.0000000  )
         5           Y1  tau(   5) = (   3.4467561   1.9899856  12.8142646  )
         6           Y1  tau(   6) = (   1.7233781   4.9749640  12.8142646  )
         7           Y1  tau(   7) = (  -1.7233781   4.9749640  12.8142646  )
         8           In1 tau(   8) = (   0.0000000   1.9899856  12.8142646  )
         9           Y1  tau(   9) = (  -0.0000222   3.9493670  15.6694226  )
        10           Y1  tau(  10) = (   1.6968874   1.0103126  15.6693950  )
        11           Y1  tau(  11) = (   5.1966139   1.0103145  15.6693994  )
        12           In1 tau(  12) = (   3.4467475   3.9799910  15.4998061  )

     number of k points=    20  Fermi-Dirac smearing, width (Ry)=  0.0110
                       cart. coord. in units 2pi/alat
        k(    1) = (   0.0000000   0.0000000   0.0000000), wk =   0.0555556
        k(    2) = (   0.0000000   0.0279176   0.0000000), wk =   0.1111111
        k(    3) = (   0.0000000   0.0558351   0.0000000), wk =   0.1111111
        k(    4) = (   0.0000000  -0.0837527   0.0000000), wk =   0.0555556
        k(    5) = (   0.0241773   0.0139588   0.0000000), wk =   0.1111111
        k(    6) = (   0.0241773   0.0418764   0.0000000), wk =   0.1111111
        k(    7) = (   0.0241773   0.0697939   0.0000000), wk =   0.1111111
        k(    8) = (   0.0241773  -0.0697939   0.0000000), wk =   0.1111111
        k(    9) = (   0.0241773  -0.0418764   0.0000000), wk =   0.1111111
        k(   10) = (   0.0241773  -0.0139588   0.0000000), wk =   0.1111111
        k(   11) = (   0.0483546   0.0279176   0.0000000), wk =   0.1111111
        k(   12) = (   0.0483546   0.0558351   0.0000000), wk =   0.1111111
        k(   13) = (   0.0483546   0.0837527   0.0000000), wk =   0.1111111
        k(   14) = (   0.0483546  -0.0558351   0.0000000), wk =   0.1111111
        k(   15) = (   0.0483546  -0.0279176   0.0000000), wk =   0.1111111
        k(   16) = (   0.0483546   0.0000000   0.0000000), wk =   0.1111111
        k(   17) = (  -0.0725320  -0.0418764   0.0000000), wk =   0.0555556
        k(   18) = (  -0.0725320  -0.0139588   0.0000000), wk =   0.1111111
        k(   19) = (  -0.0725320   0.0139588   0.0000000), wk =   0.1111111
        k(   20) = (  -0.0725320  -0.1256291   0.0000000), wk =   0.0555556

     Largest allocated arrays     est. size (Mb)     dimensions
     Largest temporary arrays     est. size (Mb)     dimensions

     Initial potential from superposition of free atoms
     Check: negative starting charge=   -0.000525

     starting charge  133.45978, renormalised to  138.00000

[...]

     *
     * You are using vdW-DF for exchange-correlation in this calculation.
     * Please cite the following three references that made this development
     * possible:
     *
     *   M. Dion, H. Rydberg, E. Schroder, D. C. Langreth, and
     *   B. I. Lundqvist, Phys. Rev. Lett. 92, 246401 (2004).
     *
     *   T. Thonhauser, V. R. Cooper, S. Li, A. Puzder, P. Hyldgaard, and
     *   D. C. Langreth, Phys. Rev. B 76, 125112 (2007).
     *
     *   G. Roman-Perez and J. M. Soler, Phys. Rev. Lett. 103, 096102 (2009).
     *
     *
     * If you are using vdW-DF2, please also cite:
     *
     *   K. Lee, E. D. Murray, L. Kong, B. I. Lundqvist, and
     *   D. C. Langreth, Phys. Rev. B 82, 081101(R) (2010).
     *
     *
     * If you are calculating the stress with vdW-DF, please also cite:
     *
     *   R. Sabatini, E. Kucukbenli, B. Kolb, T. Thonhauser, and
     *   S. de Gironcoli, J. Phys.: Condens. Matter 24, 424209 (2012).
     *

     Carrying out vdW-DF run using the following parameters:

     Nqs =      20    Nr_points =    1024   r_max =   100.000
     q_mesh =
               0.00001000     0.04494208     0.09755937     0.15916263
               0.23128650     0.31572767     0.41458969     0.53033537
               0.66584808     0.82450364     1.01025438     1.22772762
               1.48234092     1.78043706     2.12944203     2.53805004
               3.01644009     3.57652955     4.23227104     5.00000000

     Gradients computed in reciprocal space

[...]

     Starting wfc are  144 randomized atomic wfcs

     Self-consistent Calculation

[...]

     total energy              =   -1247.71021975 Ry
     Harris-Foulkes estimate   =   -1247.71021750 Ry
     estimated scf accuracy    <       0.00000468 Ry

     iteration # 17     ecut=    36.75 Ry     beta=0.10
     Davidson diagonalization with overlap
     ethr =  3.39E-09,  avg # of iterations =  2.4

[...]

     negative rho (up, down):  4.178E-04 0.000E+00

     Adding external electric field

     Computed dipole along edir(3) :
        Dipole                0.0266 Ry au,          0.0676 Debye
        Dipole field          0.0000 Ry au

        Potential amp.       -0.0044 Ry
        Total length         47.2201 bohr

     End of self-consistent calculation

[...]

          k = 0.0484 0.0000 0.0000 ( 26815 PWs)   bands (ev):

[...]

          k =-0.0725-0.1256 0.0000 ( 26738 PWs)   bands (ev):

   -42.3517 -42.3327 -42.3173 -42.3167 -42.3007 -42.2838 -41.8264 -41.8096
   -41.7927 -22.4362 -22.4092 -22.3916 -22.3835 -22.3635 -22.3430 -22.3312
   -22.3163 -22.2865 -22.2791 -22.2473 -22.2436 -22.2278 -22.2037 -22.1976
   -22.1824 -22.0109 -21.9868 -21.9700 -21.7918 -21.7877 -21.7553 -21.7505
   -21.7456 -21.7310 -21.7154 -21.5665 -13.1568 -13.1482 -13.1479 -13.1374
   -13.1337 -13.1300 -13.1264 -13.1252 -13.1198 -13.1172 -13.0318 -13.0267
   -13.0248 -13.0138 -13.0125  -4.3519  -4.1864  -3.8493  -2.0159  -1.4412
    -1.2295  -1.0494  -0.2716  -0.1819  -0.0924   0.0791   0.2425   0.3018
     0.3653   0.7356   0.8256   0.8593   1.0365   1.1194   1.3565   1.4858
     1.5224   1.5303   1.6807   1.7062   1.7478   1.7605   2.1385   2.2328
     2.3681   2.3842   2.5833   2.7169   2.7458   3.2918   3.3564   3.4316
     3.4960   3.6905   3.7425   3.7662   3.8158   3.8765   3.8917   3.9497
     3.9909   4.0854   4.2379

     the Fermi energy is     1.0535 ev

!    total energy              =   -1247.71022151 Ry
     Harris-Foulkes estimate   =   -1247.71022047 Ry
     estimated scf accuracy    <       0.00000039 Ry

     The total energy is the sum of the following terms:

     one-electron contribution =   -6439.87589006 Ry
     hartree contribution      =    3235.30572034 Ry
     xc contribution           =    -371.76855472 Ry
     ewald contribution        =    2328.72376997 Ry
     electric field correction =       0.00000125 Ry
     smearing contrib. (-TS)   =      -0.09526829 Ry

     convergence has been achieved in  17 iterations

 BEEF-vdW xc energy contributions
           1 :   -324.861032099994
           2 :    293.660388424967
           3 :   -240.068634323890
           4 :    177.587160222887
           5 :   -118.844858607748
           6 :    71.6146110306095
           7 :   -37.9712126560513
           8 :    16.0844361385375
           9 :   -2.92207575735034
          10 :   -3.81390393248154
          11 :    5.26172270081315
          12 :   -2.17750449716539
          13 :   -4.03716914352572
          14 :    10.9738640566014
          15 :   -15.8333994800118
          16 :    16.5705631441946
          17 :   -12.7645133469513
          18 :    5.66613364109742
          19 :    2.52087200774253
          20 :   -9.62330567899704
          21 :    14.2169839152302
          22 :   -15.8469551924382
          23 :    14.8372591854924
          24 :   -11.9420170998762
          25 :    8.05320341660752
          26 :   -4.03986125333410
          27 :   0.661969853517292
          28 :    1.52160397257887
          29 :   -2.26312939314096
          30 :    1.68781040300331
          31 :   -30.5051758364746
          32 :   -21.3017278540140

     Forces acting on atoms (Ry/au):

     negative rho (up, down):  4.178E-04 0.000E+00
     atom    1 type  1   force =     0.00000669    0.01024363   -0.00557683
     atom    2 type  1   force =     0.00886834   -0.00512024   -0.00557285
     atom    3 type  1   force =    -0.00886557   -0.00512425   -0.00557912
     atom    4 type  2   force =     0.00000493   -0.00000282    0.01196323
     atom    5 type  1   force =    -0.00000113   -0.00174801    0.00175767
     atom    6 type  1   force =    -0.00151169    0.00087397    0.00176038
     atom    7 type  1   force =     0.00151058    0.00087401    0.00175684
     atom    8 type  2   force =    -0.00000200    0.00000163    0.00082553
     atom    9 type  1   force =    -0.00000537    0.00069444   -0.00042813
     atom   10 type  1   force =     0.00060107   -0.00034981   -0.00043237
     atom   11 type  1   force =    -0.00060012   -0.00034329   -0.00042344
     atom   12 type  2   force =    -0.00000574    0.00000075   -0.00005090

     Total force =     0.023920     Total SCF correction =     0.001585

     entering subroutine stress ...

     negative rho (up, down):  4.178E-04 0.000E+00
          total   stress  (Ry/bohr**3)                   (kbar)     P=   -4.01
  -0.00004100   0.00000000   0.00000000         -6.03      0.00      0.00
   0.00000000  -0.00004100  -0.00000000          0.00     -6.03     -0.00
   0.00000000  -0.00000000   0.00000024          0.00     -0.00      0.03

 !ASE

     Writing output data file calc.save

     General routines

     Parallel routines

   This run was terminated on:  13: 8:41   2Jan2019

   JOB DONE.
Job  /afs/slac/g/suncat/bin/suncat-tsmpirun -x LD_LIBRARY_PATH -wdir /scratch/qe649420_bzW3w pw.x -in pw.inp

TID   HOST_NAME   COMMAND_LINE            STATUS            TERMINATION_TIME
00000 suncat0078 pw.x -in pw.inp   Done                     01/02/2019 13:08:41
00001 suncat0078 pw.x -in pw.inp   Done                     01/02/2019 13:08:41
00002 suncat0078 pw.x -in pw.inp   Done                     01/02/2019 13:08:41
00003 suncat0078 pw.x -in pw.inp   Done                     01/02/2019 13:08:41
00004 suncat0078 pw.x -in pw.inp   Done                     01/02/2019 13:08:41
00005 suncat0078 pw.x -in pw.inp   Done                     01/02/2019 13:08:41
00006 suncat0078 pw.x -in pw.inp   Done                     01/02/2019 13:08:41
00007 suncat0078 pw.x -in pw.inp   Done                     01/02/2019 13:08:41
00008 suncat0077 pw.x -in pw.inp   Done                     01/02/2019 13:08:41
00009 suncat0077 pw.x -in pw.inp   Done                     01/02/2019 13:08:41
00010 suncat0077 pw.x -in pw.inp   Done                     01/02/2019 13:08:41
00011 suncat0077 pw.x -in pw.inp   Done                     01/02/2019 13:08:41
00012 suncat0077 pw.x -in pw.inp   Done                     01/02/2019 13:08:41
00013 suncat0077 pw.x -in pw.inp   Done                     01/02/2019 13:08:41
00014 suncat0077 pw.x -in pw.inp   Done                     01/02/2019 13:08:41
00015 suncat0077 pw.x -in pw.inp   Done                     01/02/2019 13:08:41
00016 suncat0076 pw.x -in pw.inp   Done                     01/02/2019 13:08:41
00017 suncat0076 pw.x -in pw.inp   Done                     01/02/2019 13:08:41
00018 suncat0076 pw.x -in pw.inp   Done                     01/02/2019 13:08:41
00019 suncat0076 pw.x -in pw.inp   Done                     01/02/2019 13:08:41
00020 suncat0076 pw.x -in pw.inp   Done                     01/02/2019 13:08:41
00021 suncat0076 pw.x -in pw.inp   Done                     01/02/2019 13:08:41
00022 suncat0076 pw.x -in pw.inp   Done                     01/02/2019 13:08:41
00023 suncat0076 pw.x -in pw.inp   Done                     01/02/2019 13:08:41
00024 suncat0074 pw.x -in pw.inp   Done                     01/02/2019 13:08:41
00025 suncat0074 pw.x -in pw.inp   Done                     01/02/2019 13:08:41
00026 suncat0074 pw.x -in pw.inp   Done                     01/02/2019 13:08:41
00027 suncat0074 pw.x -in pw.inp   Done                     01/02/2019 13:08:41
00028 suncat0074 pw.x -in pw.inp   Done                     01/02/2019 13:08:41
00029 suncat0074 pw.x -in pw.inp   Done                     01/02/2019 13:08:41
00030 suncat0074 pw.x -in pw.inp   Done                     01/02/2019 13:08:41
00031 suncat0074 pw.x -in pw.inp   Done                     01/02/2019 13:08:41
00032 suncat0073 pw.x -in pw.inp   Done                     01/02/2019 13:08:41
00033 suncat0073 pw.x -in pw.inp   Done                     01/02/2019 13:08:41
00034 suncat0073 pw.x -in pw.inp   Done                     01/02/2019 13:08:41
00035 suncat0073 pw.x -in pw.inp   Done                     01/02/2019 13:08:41
00036 suncat0073 pw.x -in pw.inp   Done                     01/02/2019 13:08:41
00037 suncat0073 pw.x -in pw.inp   Done                     01/02/2019 13:08:41
00038 suncat0073 pw.x -in pw.inp   Done                     01/02/2019 13:08:41
00039 suncat0073 pw.x -in pw.inp   Done                     01/02/2019 13:08:41
00040 suncat0069 pw.x -in pw.inp   Done                     01/02/2019 13:08:41
00041 suncat0069 pw.x -in pw.inp   Done                     01/02/2019 13:08:41
00042 suncat0069 pw.x -in pw.inp   Done                     01/02/2019 13:08:41
00043 suncat0069 pw.x -in pw.inp   Done                     01/02/2019 13:08:41
00044 suncat0069 pw.x -in pw.inp   Done                     01/02/2019 13:08:41
00045 suncat0069 pw.x -in pw.inp   Done                     01/02/2019 13:08:41
00046 suncat0069 pw.x -in pw.inp   Done                     01/02/2019 13:08:41
00047 suncat0069 pw.x -in pw.inp   Done                     01/02/2019 13:08:41
00048 suncat0217 pw.x -in pw.inp   Done                     01/02/2019 13:08:41
00049 suncat0217 pw.x -in pw.inp   Done                     01/02/2019 13:08:41
00050 suncat0217 pw.x -in pw.inp   Done                     01/02/2019 13:08:41
00051 suncat0217 pw.x -in pw.inp   Done                     01/02/2019 13:08:41
00052 suncat0217 pw.x -in pw.inp   Done                     01/02/2019 13:08:41
00053 suncat0217 pw.x -in pw.inp   Done                     01/02/2019 13:08:41
00054 suncat0217 pw.x -in pw.inp   Done                     01/02/2019 13:08:41
00055 suncat0217 pw.x -in pw.inp   Done                     01/02/2019 13:08:41
00056 suncat0216 pw.x -in pw.inp   Done                     01/02/2019 13:08:41
00057 suncat0216 pw.x -in pw.inp   Done                     01/02/2019 13:08:41
00058 suncat0216 pw.x -in pw.inp   Done                     01/02/2019 13:08:41
00059 suncat0216 pw.x -in pw.inp   Done                     01/02/2019 13:08:41
00060 suncat0216 pw.x -in pw.inp   Done                     01/02/2019 13:08:41
00061 suncat0216 pw.x -in pw.inp   Done                     01/02/2019 13:08:41
00062 suncat0216 pw.x -in pw.inp   Done                     01/02/2019 13:08:41
00063 suncat0216 pw.x -in pw.inp   Done                     01/02/2019 13:08:41