     Program PWSCF v.5.1rc2 (svn rev. 11289) starts on  2Jan2019 at 10: 3:14

     Current dimensions of program PWSCF are:
     Max number of different atomic species (ntypx) = 10
     Max number of k-points (npk) =  40000
     Max angular momentum in pseudopotentials (lmaxx) =  3
     Presently stress not available with electric field

     IMPORTANT: XC functional enforced from input :
     Exchange-correlation      = BEEF-VDW ( 1  4 27 13 2)
     Any further DFT definition will be discarded
     Please, verify this is what you really want

     Subspace diagonalization in iterative solution of the eigenvalue problem:
     a serial algorithm will be used

     bravais-lattice index     =            0
     lattice parameter (alat)  =       1.8897  a.u.
     unit-cell volume          =    4559.7304 (a.u.)^3
     number of atoms/cell      =           12
     number of atomic types    =            2
     number of electrons       =       174.00
     number of Kohn-Sham states=          117
     kinetic-energy cutoff     =      36.7493  Ry
     charge density cutoff     =     367.4932  Ry
     convergence threshold     =      1.0E-06
     mixing beta               =       0.1000
     number of iterations used =           10  plain     mixing
     Exchange-correlation      = BEEF-VDW ( 1  4 27 13 2)
     nstep                     =           50

     celldm(1)=   1.889726  celldm(2)=   0.000000  celldm(3)=   0.000000
     celldm(4)=   0.000000  celldm(5)=   0.000000  celldm(6)=   0.000000

     crystal axes: (cart. coord. in units of alat)
               a(1) = (   5.631869   0.000000   0.000000 )
               a(2) = (  -2.815934   4.877341   0.000000 )
               a(3) = (   0.000000   0.000000  24.598402 )

     reciprocal axes: (cart. coord. in units 2 pi/alat)
               b(1) = (  0.177561  0.102515  0.000000 )
               b(2) = (  0.000000  0.205030  0.000000 )
               b(3) = (  0.000000  0.000000  0.040653 )

     PseudoPot. # 1 for W  read from file:
     /afs/slac.stanford.edu/u/if/mamunm/psp/gbrv1.5pbe/W.UPF
     MD5 check sum: 9c083fa34c2a2ea0f02f1f893e16e1c8
     Pseudo is Ultrasoft + core correction, Zval = 14.0
     Generated by new atomic code, or converted to UPF format
     Using radial grid of  923 points,  8 beta functions with:
                l(1) =   0
                l(2) =   0
                l(3) =   0
                l(4) =   1
                l(5) =   1
                l(6) =   2
                l(7) =   2
                l(8) =   3
     Q(r) pseudized with  6 coefficients,  rinner =    1.350   1.350   1.350
                                                       1.350   1.350   1.350
                                                       1.350

     PseudoPot. # 2 for Ru read from file:
     /afs/slac.stanford.edu/u/if/mamunm/psp/gbrv1.5pbe/Ru.UPF
     MD5 check sum: 7158a806dd851261a58e6920c40ebe78
     Pseudo is Ultrasoft + core correction, Zval = 16.0
     Generated by new atomic code, or converted to UPF format
     Using radial grid of  967 points,  6 beta functions with:
                l(1) =   0
                l(2) =   0
                l(3) =   1
                l(4) =   1
                l(5) =   2
                l(6) =   2
     Q(r) pseudized with  8 coefficients,  rinner =    1.300   1.300   1.300
                                                       1.300   1.300

     vdW kernel table read from file vdW_kernel_table
     MD5 check sum: 095c7af220d748ca6e76c0b4c6cfb241

     atomic species   valence    mass     pseudopotential
        W1            14.00   183.84000     W ( 1.00)
        Ru1           16.00   101.07000     Ru( 1.00)

     No symmetry found

   Cartesian axes

     site n.     atom                  positions (alat units)
         1           W1  tau(   1) = (   0.0000000   0.0000000  10.0000000  )
         2           W1  tau(   2) = (  -1.4079672   2.4386707  10.0000000  )
         3           W1  tau(   3) = (   1.4079672   2.4386707  10.0000000  )
         4           Ru1 tau(   4) = (   2.8159344   0.0000000  10.0000000  )
         5           W1  tau(   5) = (   2.8159344   1.6257805  12.2992008  )
         6           W1  tau(   6) = (   1.4079672   4.0644511  12.2992008  )
         7           W1  tau(   7) = (  -1.4079672   4.0644511  12.2992008  )
         8           Ru1 tau(   8) = (   0.0000000   1.6257805  12.2992008  )
         9           W1  tau(   9) = (  -0.0000000   3.2515609  14.5984015  )
        10           W1  tau(  10) = (   1.4079672   0.8128902  14.5984015  )
        11           W1  tau(  11) = (   4.2239015   0.8128902  14.5984015  )
        12           Ru1 tau(  12) = (   2.8159344   3.2515609  14.5984015  )

     number of k points=    20  Fermi-Dirac smearing, width (Ry)=  0.0110
                       cart. coord. in units 2pi/alat
        k(    1) = (   0.0000000   0.0000000   0.0000000), wk =   0.0555556
        k(    2) = (   0.0000000   0.0341716   0.0000000), wk =   0.1111111
        k(    3) = (   0.0000000   0.0683432   0.0000000), wk =   0.1111111
        k(    4) = (   0.0000000  -0.1025149   0.0000000), wk =   0.0555556
        k(    5) = (   0.0295935   0.0170858   0.0000000), wk =   0.1111111
        k(    6) = (   0.0295935   0.0512574   0.0000000), wk =   0.1111111
        k(    7) = (   0.0295935   0.0854291   0.0000000), wk =   0.1111111
        k(    8) = (   0.0295935  -0.0854291   0.0000000), wk =   0.1111111
        k(    9) = (   0.0295935  -0.0512574   0.0000000), wk =   0.1111111
        k(   10) = (   0.0295935  -0.0170858   0.0000000), wk =   0.1111111
        k(   11) = (   0.0591870   0.0341716   0.0000000), wk =   0.1111111
        k(   12) = (   0.0591870   0.0683432   0.0000000), wk =   0.1111111
        k(   13) = (   0.0591870   0.1025149   0.0000000), wk =   0.1111111
        k(   14) = (   0.0591870  -0.0683432   0.0000000), wk =   0.1111111
        k(   15) = (   0.0591870  -0.0341716   0.0000000), wk =   0.1111111
        k(   16) = (   0.0591870   0.0000000   0.0000000), wk =   0.1111111
        k(   17) = (  -0.0887805  -0.0512574   0.0000000), wk =   0.0555556
        k(   18) = (  -0.0887805  -0.0170858   0.0000000), wk =   0.1111111
        k(   19) = (  -0.0887805   0.0170858   0.0000000), wk =   0.1111111
        k(   20) = (  -0.0887805  -0.1537723   0.0000000), wk =   0.0555556

     Largest allocated arrays     est. size (Mb)     dimensions
     Largest temporary arrays     est. size (Mb)     dimensions

     Initial potential from superposition of free atoms
     Check: negative starting charge=   -0.789507

     starting charge  170.09689, renormalised to  174.00000

     negative rho (up, down):  8.076E-01 0.000E+00

     *
     * You are using vdW-DF for exchange-correlation in this calculation.
     * Please cite the following three references that made this development
     * possible:
     *
     *   M. Dion, H. Rydberg, E. Schroder, D. C. Langreth, and
     *   B. I. Lundqvist, Phys. Rev. Lett. 92, 246401 (2004).
     *
     *   T. Thonhauser, V. R. Cooper, S. Li, A. Puzder, P. Hyldgaard, and
     *   D. C. Langreth, Phys. Rev. B 76, 125112 (2007).
     *
     *   G. Roman-Perez and J. M. Soler, Phys. Rev. Lett. 103, 096102 (2009).
     *
     *
     * If you are using vdW-DF2, please also cite:
     *
     *   K. Lee, E. D. Murray, L. Kong, B. I. Lundqvist, and
     *   D. C. Langreth, Phys. Rev. B 82, 081101(R) (2010).
     *
     *
     * If you are calculating the stress with vdW-DF, please also cite:
     *
     *   R. Sabatini, E. Kucukbenli, B. Kolb, T. Thonhauser, and
     *   S. de Gironcoli, J. Phys.: Condens. Matter 24, 424209 (2012).
     *

     Carrying out vdW-DF run using the following parameters:

     Nqs =      20    Nr_points =    1024   r_max =   100.000
     q_mesh =
               0.00001000     0.04494208     0.09755937     0.15916263
               0.23128650     0.31572767     0.41458969     0.53033537
               0.66584808     0.82450364     1.01025438     1.22772762
               1.48234092     1.78043706     2.12944203     2.53805004
               3.01644009     3.57652955     4.23227104     5.00000000

     Gradients computed in reciprocal space

     Adding external electric field

     Computed dipole along edir(3) :
        Dipole                0.0000 Ry au,          0.0000 Debye
        Dipole field          0.0000 Ry au

        Potential amp.       -0.0000 Ry
        Total length         45.3221 bohr

     Starting wfc are  156 randomized atomic wfcs

     Self-consistent Calculation

     iteration #  1     ecut=    36.75 Ry     beta=0.10
     Davidson diagonalization with overlap
     ethr =  1.00E-02,  avg # of iterations =  2.0

[...]

     total energy              =   -2029.12840567 Ry
     Harris-Foulkes estimate   =   -2029.66791446 Ry
     estimated scf accuracy    <       3.43743149 Ry

[...]

     End of self-consistent calculation

          k = 0.0000 0.0000 0.0000 ( 17147 PWs)   bands (ev):

   -71.8694 -71.8582 -71.8010 -71.8010 -71.7983 -71.7983 -71.7805 -71.7272
   -71.7272 -70.3315 -70.1049 -70.1046 -40.3212 -40.2997 -40.2997 -40.1191
   -40.1084 -40.0560 -40.0560 -40.0530 -40.0530 -36.4772 -36.3040 -36.2905
   -36.2090 -36.2090 -36.2024 -36.1352 -36.1352 -36.0622 -36.0414 -36.0414
   -35.9594 -35.9594 -35.8680 -35.8679 -35.7399 -35.6499 -35.6386 -35.6306
   -35.6306 -35.5409 -35.4952 -35.4952 -35.4558 -35.4558 -35.4478 -35.4478
    -5.4848  -3.7804  -3.1669  -2.7195  -2.7195  -2.5881  -2.5151  -2.5151
    -2.1644  -1.8295  -1.8207  -1.8207  -1.7752  -1.7752  -1.5462  -0.4152
    -0.4152  -0.2612   0.4730   0.4730   0.6004   0.6261   0.9404   1.3832
     1.3832   1.5515   1.5965   1.5965   1.6428   1.6428   1.8085   1.8085
     1.9311   1.9676   1.9676   2.2541   2.8685   3.0209   3.0209   3.0381
     3.1443   3.1443   3.6320   3.6320   4.1264   4.3267   4.3435   4.4622
     4.4622   4.9521   4.9521   5.0401   5.0401   5.7044   5.7044   5.8816
     5.8816   6.2555   6.2555   6.3237   6.3237   6.4742   6.5757   6.5757
     6.6020   6.6951   6.8558   6.9723   6.9723

[...]

          k =-0.0888-0.0513 0.0000 ( 17168 PWs)   bands (ev):

[...]

     the Fermi energy is     2.4182 ev

!    total energy              =   -2028.92813096 Ry
     Harris-Foulkes estimate   =   -2028.92813208 Ry
     estimated scf accuracy    <       0.00000014 Ry

     The total energy is the sum of the following terms:

     one-electron contribution =  -16265.13559718 Ry
     hartree contribution      =    8119.92050823 Ry
     xc contribution           =    -463.14788968 Ry
     ewald contribution        =    6579.51462716 Ry
     electric field correction =       0.00000000 Ry
     smearing contrib. (-TS)   =      -0.07977949 Ry

     convergence has been achieved in  16 iterations

 BEEF-vdW xc energy contributions
           1 :   -406.417358226466
           2 :    375.633310789496
           3 :   -321.495620965004
           4 :    256.075297752154
           5 :   -191.974218487196
           6 :    138.599248194455
           7 :   -100.089656121405
           8 :    75.4071102606422
           9 :   -60.1872335911020
          10 :    49.3147498601945
[...]
     Pseudo is Ultrasoft + core correction, Zval = 14.0
     Generated by new atomic code, or converted to UPF format
     Using radial grid of  923 points,  8 beta functions with:
                l(1) =   0
                l(2) =   0
                l(3) =   0
                l(4) =   1
                l(5) =   1
                l(6) =   2
                l(7) =   2
                l(8) =   3
     Q(r) pseudized with  6 coefficients,  rinner =    1.350   1.350   1.350
                                                       1.350   1.350   1.350
                                                       1.350

     PseudoPot. # 2 for Ru read from file:
     /afs/slac.stanford.edu/u/if/mamunm/psp/gbrv1.5pbe/Ru.UPF
     MD5 check sum: 7158a806dd851261a58e6920c40ebe78
     Pseudo is Ultrasoft + core correction, Zval = 16.0
     Generated by new atomic code, or converted to UPF format
     Using radial grid of  967 points,  6 beta functions with:
                l(1) =   0
                l(2) =   0
                l(3) =   1
                l(4) =   1
                l(5) =   2
                l(6) =   2
     Q(r) pseudized with  8 coefficients,  rinner =    1.300   1.300   1.300
                                                       1.300   1.300

     vdW kernel table read from file vdW_kernel_table
     MD5 check sum: 095c7af220d748ca6e76c0b4c6cfb241

     atomic species   valence    mass     pseudopotential
        W1            14.00   183.84000     W ( 1.00)
        Ru1           16.00   101.07000     Ru( 1.00)

     No symmetry found

   Cartesian axes

     site n.     atom                  positions (alat units)
         1           W1  tau(   1) = (   0.0000000   0.0000000  10.0000000  )
         2           W1  tau(   2) = (  -1.4079672   2.4386707  10.0000000  )
         3           W1  tau(   3) = (   1.4079672   2.4386707  10.0000000  )
         4           Ru1 tau(   4) = (   2.8159344   0.0000000  10.0000000  )
         5           W1  tau(   5) = (   2.8159344   1.6257805  12.2992008  )
         6           W1  tau(   6) = (   1.4079672   4.0644511  12.2992008  )
         7           W1  tau(   7) = (  -1.4079672   4.0644511  12.2992008  )
         8           Ru1 tau(   8) = (   0.0000000   1.6257805  12.2992008  )
         9           W1  tau(   9) = (  -0.0000019   3.2412054  14.5015355  )
        10           W1  tau(  10) = (   1.3989987   0.8180674  14.5015356  )
        11           W1  tau(  11) = (   4.2328688   0.8180675  14.5015363  )
        12           Ru1 tau(  12) = (   2.8159348   3.2515605  14.5630204  )

     number of k points=    20  Fermi-Dirac smearing, width (Ry)=  0.0110
                       cart. coord. in units 2pi/alat
        k(    1) = (   0.0000000   0.0000000   0.0000000), wk =   0.0555556
        k(    2) = (   0.0000000   0.0341716   0.0000000), wk =   0.1111111
        k(    3) = (   0.0000000   0.0683432   0.0000000), wk =   0.1111111
        k(    4) = (   0.0000000  -0.1025149   0.0000000), wk =   0.0555556
        k(    5) = (   0.0295935   0.0170858   0.0000000), wk =   0.1111111
        k(    6) = (   0.0295935   0.0512574   0.0000000), wk =   0.1111111
        k(    7) = (   0.0295935   0.0854291   0.0000000), wk =   0.1111111
        k(    8) = (   0.0295935  -0.0854291   0.0000000), wk =   0.1111111
        k(    9) = (   0.0295935  -0.0512574   0.0000000), wk =   0.1111111
        k(   10) = (   0.0295935  -0.0170858   0.0000000), wk =   0.1111111
        k(   11) = (   0.0591870   0.0341716   0.0000000), wk =   0.1111111
        k(   12) = (   0.0591870   0.0683432   0.0000000), wk =   0.1111111
        k(   13) = (   0.0591870   0.1025149   0.0000000), wk =   0.1111111
        k(   14) = (   0.0591870  -0.0683432   0.0000000), wk =   0.1111111
        k(   15) = (   0.0591870  -0.0341716   0.0000000), wk =   0.1111111
        k(   16) = (   0.0591870   0.0000000   0.0000000), wk =   0.1111111
        k(   17) = (  -0.0887805  -0.0512574   0.0000000), wk =   0.0555556
        k(   18) = (  -0.0887805  -0.0170858   0.0000000), wk =   0.1111111
        k(   19) = (  -0.0887805   0.0170858   0.0000000), wk =   0.1111111
        k(   20) = (  -0.0887805  -0.1537723   0.0000000), wk =   0.0555556

     Largest allocated arrays     est. size (Mb)     dimensions
     Largest temporary arrays     est. size (Mb)     dimensions

     Initial potential from superposition of free atoms
     Check: negative starting charge=   -0.789987

     starting charge  170.09689, renormalised to  174.00000

[...]

     *
     * You are using vdW-DF for exchange-correlation in this calculation.
     * Please cite the following three references that made this development
     * possible:
     *
     *   M. Dion, H. Rydberg, E. Schroder, D. C. Langreth, and
     *   B. I. Lundqvist, Phys. Rev. Lett. 92, 246401 (2004).
     *
     *   T. Thonhauser, V. R. Cooper, S. Li, A. Puzder, P. Hyldgaard, and
     *   D. C. Langreth, Phys. Rev. B 76, 125112 (2007).
     *
     *   G. Roman-Perez and J. M. Soler, Phys. Rev. Lett. 103, 096102 (2009).
     *
     *
     * If you are using vdW-DF2, please also cite:
     *
     *   K. Lee, E. D. Murray, L. Kong, B. I. Lundqvist, and
     *   D. C. Langreth, Phys. Rev. B 82, 081101(R) (2010).
     *
     *
     * If you are calculating the stress with vdW-DF, please also cite:
     *
     *   R. Sabatini, E. Kucukbenli, B. Kolb, T. Thonhauser, and
     *   S. de Gironcoli, J. Phys.: Condens. Matter 24, 424209 (2012).
     *

     Carrying out vdW-DF run using the following parameters:

     Nqs =      20    Nr_points =    1024   r_max =   100.000
     q_mesh =
               0.00001000     0.04494208     0.09755937     0.15916263
               0.23128650     0.31572767     0.41458969     0.53033537
               0.66584808     0.82450364     1.01025438     1.22772762
               1.48234092     1.78043706     2.12944203     2.53805004
               3.01644009     3.57652955     4.23227104     5.00000000

     Gradients computed in reciprocal space

[...]

     Starting wfc are  156 randomized atomic wfcs

     Self-consistent Calculation

[...]

     total energy              =   -2028.94278131 Ry
     Harris-Foulkes estimate   =   -2028.94278140 Ry
     estimated scf accuracy    <       0.00000121 Ry

     iteration # 16     ecut=    36.75 Ry     beta=0.10
     Davidson diagonalization with overlap
     ethr =  6.96E-10,  avg # of iterations =  2.0

[...]

     negative rho (up, down):  8.224E-01 0.000E+00

     Adding external electric field

     Computed dipole along edir(3) :
        Dipole                0.0216 Ry au,          0.0549 Debye
        Dipole field          0.0001 Ry au

        Potential amp.       -0.0054 Ry
        Total length         45.3221 bohr

     End of self-consistent calculation

[...]

          k = 0.0592 0.0000 0.0000 ( 17138 PWs)   bands (ev):

[...]

          k =-0.0888-0.1538 0.0000 ( 17168 PWs)   bands (ev):

   -71.8436 -71.8236 -71.8027 -71.7228 -71.7040 -71.6756 -71.6649 -71.6546
   -71.6374 -70.3194 -70.0947 -70.0324 -40.3206 -40.2922 -40.2825 -40.1023
   -40.0389 -40.0369 -40.0280 -39.9887 -39.9788 -36.2833 -36.2390 -36.1594
   -36.1031 -36.0821 -36.0386 -36.0162 -36.0072 -35.9366 -35.9319 -35.9002
   -35.8563 -35.8273 -35.8203 -35.8069 -35.7963 -35.7852 -35.7278 -35.6608
   -35.6592 -35.6304 -35.5059 -35.5002 -35.4854 -35.4550 -35.4251 -35.3697
    -3.7332  -3.5209  -2.2354  -2.1742  -1.7302  -1.7287  -1.6930  -1.5972
    -1.4865  -1.3127  -0.9950  -0.7517  -0.7355  -0.5613  -0.4873  -0.4605
    -0.2091  -0.0464  -0.0154   0.0274   0.0850   0.5116   0.6019   0.7932
     0.8211   0.8788   0.9974   1.1323   1.1497   1.2378   1.3473   1.3780
     1.4746   1.5110   1.5671   1.6408   1.7642   1.9150   2.0581   2.2248
     2.6617   2.6639   2.8803   3.0817   3.2540   3.3798   3.4470   3.6691
     3.6788   3.8544   4.0461   4.1449   4.2083   4.4022   4.5421   4.7886
     4.9142   5.1380   5.2431   5.4595   5.8115   6.0705   6.2729   6.3792
     6.4496   7.2770   7.3233   7.6785   7.7688

     the Fermi energy is     2.4279 ev

!    total energy              =   -2028.94278022 Ry
     Harris-Foulkes estimate   =   -2028.94278093 Ry
     estimated scf accuracy    <       0.00000078 Ry

     The total energy is the sum of the following terms:

     one-electron contribution =  -16452.29710830 Ry
     hartree contribution      =    8213.80587630 Ry
     xc contribution           =    -463.38271582 Ry
     ewald contribution        =    6673.00742474 Ry
     electric field correction =       0.00000129 Ry
     smearing contrib. (-TS)   =      -0.07625843 Ry

     convergence has been achieved in  16 iterations

 BEEF-vdW xc energy contributions
           1 :   -406.842558354311
           2 :    376.124854598810
           3 :   -322.073438868435
           4 :    256.692183140200
           5 :   -192.533844444964
           6 :    139.005848913465
           7 :   -100.302998693273
           8 :    75.4708006680917
           9 :   -60.2117760533125
          10 :    49.4227052529151
          11 :   -39.3364308793837
          12 :    28.5219855839092
          13 :   -17.6287618095890
          14 :    8.30729273591533
          15 :   -1.97848058768216
          16 :  -0.974606531414679
          17 :    1.33008882914902
          18 :  -0.554667472826395
          19 :   6.510194295202609E-002
          20 :  -0.615152434014931
          21 :    2.08749525753325
          22 :   -3.74079777080289
          23 :    4.72925016316577
          24 :   -4.59797201345975
          25 :    3.50602586119408
          26 :   -2.09553395466742
          27 :    1.11430345750068
          28 :   -1.01528996265506
          29 :    1.74684172126979
          30 :   -2.82653300990876
          31 :   -37.6731970051054
          32 :   -28.3146990109836

     Forces acting on atoms (Ry/au):

     negative rho (up, down):  8.224E-01 0.000E+00
     atom    1 type  1   force =    -0.00000002    0.00635912    0.02803559
     atom    2 type  1   force =     0.00550726   -0.00317942    0.02803544
     atom    3 type  1   force =    -0.00550750   -0.00317938    0.02803525
     atom    4 type  2   force =    -0.00000004   -0.00000025    0.00245245
     atom    5 type  1   force =     0.00000011    0.00427670   -0.02031093
     atom    6 type  1   force =     0.00370401   -0.00213845   -0.02031094
     atom    7 type  1   force =    -0.00370374   -0.00213851   -0.02031163
     atom    8 type  2   force =    -0.00000025    0.00000002   -0.02563033
     atom    9 type  1   force =     0.00000043    0.00043455    0.00008141
     atom   10 type  1   force =     0.00037625   -0.00021702    0.00008122
     atom   11 type  1   force =    -0.00037611   -0.00021764    0.00008124
     atom   12 type  2   force =    -0.00000039    0.00000029   -0.00023876

     Total force =     0.066598     Total SCF correction =     0.004267

     entering subroutine stress ...

     negative rho (up, down):  8.224E-01 0.000E+00
          total   stress  (Ry/bohr**3)                   (kbar)     P=  -37.47
  -0.00031017  -0.00000000   0.00000000        -45.63     -0.00      0.00
  -0.00000000  -0.00031017   0.00000000         -0.00    -45.63      0.00
   0.00000000   0.00000000  -0.00014387          0.00      0.00    -21.16

 !ASE

     Writing output data file calc.save

     General routines

     Parallel routines

   This run was terminated on:  10:44:53   2Jan2019

   JOB DONE.
Job  /afs/slac/g/suncat/bin/suncat-tsmpirun -x LD_LIBRARY_PATH -wdir /scratch/qe649380_RP4Zc pw.x -in pw.inp

TID   HOST_NAME   COMMAND_LINE            STATUS            TERMINATION_TIME
00000 suncat0165 pw.x -in pw.inp   Done                     01/02/2019 10:44:53
00001 suncat0165 pw.x -in pw.inp   Done                     01/02/2019 10:44:53
00002 suncat0165 pw.x -in pw.inp   Done                     01/02/2019 10:44:53
00003 suncat0165 pw.x -in pw.inp   Done                     01/02/2019 10:44:53
00004 suncat0165 pw.x -in pw.inp   Done                     01/02/2019 10:44:53
00005 suncat0165 pw.x -in pw.inp   Done                     01/02/2019 10:44:53
00006 suncat0165 pw.x -in pw.inp   Done                     01/02/2019 10:44:53
00007 suncat0165 pw.x -in pw.inp   Done                     01/02/2019 10:44:53
00008 suncat0164 pw.x -in pw.inp   Done                     01/02/2019 10:44:53
00009 suncat0164 pw.x -in pw.inp   Done                     01/02/2019 10:44:53
00010 suncat0164 pw.x -in pw.inp   Done                     01/02/2019 10:44:53
00011 suncat0164 pw.x -in pw.inp   Done                     01/02/2019 10:44:53
00012 suncat0164 pw.x -in pw.inp   Done                     01/02/2019 10:44:53
00013 suncat0164 pw.x -in pw.inp   Done                     01/02/2019 10:44:53
00014 suncat0164 pw.x -in pw.inp   Done                     01/02/2019 10:44:53
00015 suncat0164 pw.x -in pw.inp   Done                     01/02/2019 10:44:53
00016 suncat0159 pw.x -in pw.inp   Done                     01/02/2019 10:44:53
00017 suncat0159 pw.x -in pw.inp   Done                     01/02/2019 10:44:53
00018 suncat0159 pw.x -in pw.inp   Done                     01/02/2019 10:44:53
00019 suncat0159 pw.x -in pw.inp   Done                     01/02/2019 10:44:53
00020 suncat0159 pw.x -in pw.inp   Done                     01/02/2019 10:44:53
00021 suncat0159 pw.x -in pw.inp   Done                     01/02/2019 10:44:53
00022 suncat0159 pw.x -in pw.inp   Done                     01/02/2019 10:44:53
00023 suncat0159 pw.x -in pw.inp   Done                     01/02/2019 10:44:53
00024 suncat0155 pw.x -in pw.inp   Done                     01/02/2019 10:44:53
00025 suncat0155 pw.x -in pw.inp   Done                     01/02/2019 10:44:53
00026 suncat0155 pw.x -in pw.inp   Done                     01/02/2019 10:44:53
00027 suncat0155 pw.x -in pw.inp   Done                     01/02/2019 10:44:53
00028 suncat0155 pw.x -in pw.inp   Done                     01/02/2019 10:44:53
00029 suncat0155 pw.x -in pw.inp   Done                     01/02/2019 10:44:53
00030 suncat0155 pw.x -in pw.inp   Done                     01/02/2019 10:44:53
00031 suncat0155 pw.x -in pw.inp   Done                     01/02/2019 10:44:53
00032 suncat0106 pw.x -in pw.inp   Done                     01/02/2019 10:44:53
00033 suncat0106 pw.x -in pw.inp   Done                     01/02/2019 10:44:53
00034 suncat0106 pw.x -in pw.inp   Done                     01/02/2019 10:44:53
00035 suncat0106 pw.x -in pw.inp   Done                     01/02/2019 10:44:53
00036 suncat0106 pw.x -in pw.inp   Done                     01/02/2019 10:44:53
00037 suncat0106 pw.x -in pw.inp   Done                     01/02/2019 10:44:53
00038 suncat0106 pw.x -in pw.inp   Done                     01/02/2019 10:44:53
00039 suncat0106 pw.x -in pw.inp   Done                     01/02/2019 10:44:53
00040 suncat0105 pw.x -in pw.inp   Done                     01/02/2019 10:44:53
00041 suncat0105 pw.x -in pw.inp   Done                     01/02/2019 10:44:53
00042 suncat0105 pw.x -in pw.inp   Done                     01/02/2019 10:44:53
00043 suncat0105 pw.x -in pw.inp   Done                     01/02/2019 10:44:53
00044 suncat0105 pw.x -in pw.inp   Done                     01/02/2019 10:44:53
00045 suncat0105 pw.x -in pw.inp   Done                     01/02/2019 10:44:53
00046 suncat0105 pw.x -in pw.inp   Done                     01/02/2019 10:44:53
00047 suncat0105 pw.x -in pw.inp   Done                     01/02/2019 10:44:53
00048 suncat0277 pw.x -in pw.inp   Done                     01/02/2019 10:44:53
00049 suncat0277 pw.x -in pw.inp   Done                     01/02/2019 10:44:53
00050 suncat0277 pw.x -in pw.inp   Done                     01/02/2019 10:44:53
00051 suncat0277 pw.x -in pw.inp   Done                     01/02/2019 10:44:53
00052 suncat0277 pw.x -in pw.inp   Done                     01/02/2019 10:44:53
00053 suncat0277 pw.x -in pw.inp   Done                     01/02/2019 10:44:53
00054 suncat0277 pw.x -in pw.inp   Done                     01/02/2019 10:44:53
00055 suncat0277 pw.x -in pw.inp   Done                     01/02/2019 10:44:53
00056 suncat0276 pw.x -in pw.inp   Done                     01/02/2019 10:44:53
00057 suncat0276 pw.x -in pw.inp   Done                     01/02/2019 10:44:53
00058 suncat0276 pw.x -in pw.inp   Done                     01/02/2019 10:44:53
00059 suncat0276 pw.x -in pw.inp   Done                     01/02/2019 10:44:53
00060 suncat0276 pw.x -in pw.inp   Done                     01/02/2019 10:44:53
00061 suncat0276 pw.x -in pw.inp   Done                     01/02/2019 10:44:53
00062 suncat0276 pw.x -in pw.inp   Done                     01/02/2019 10:44:53
00063 suncat0276 pw.x -in pw.inp   Done                     01/02/2019 10:44:53