     Program PWSCF v.5.1rc2 (svn rev. 11289) starts on 28Dec2018 at  1:44:34

     Current dimensions of program PWSCF are:
     Max number of different atomic species (ntypx) = 10
     Max number of k-points (npk) =  40000
     Max angular momentum in pseudopotentials (lmaxx) =  3
     Presently stress not available with electric field

     IMPORTANT: XC functional enforced from input :
     Exchange-correlation      = BEEF-VDW ( 1  4 27 13 2)
     Any further DFT definition will be discarded
     Please, verify this is what you really want

     Subspace diagonalization in iterative solution of the eigenvalue problem:
     a serial algorithm will be used

     bravais-lattice index     =            0
     lattice parameter (alat)  =       1.8897  a.u.
     unit-cell volume          =    4893.9506 (a.u.)^3
     number of atoms/cell      =           12
     number of atomic types    =            2
     number of electrons       =       168.00
     number of Kohn-Sham states=          114
     kinetic-energy cutoff     =      36.7493  Ry
     charge density cutoff     =     367.4932  Ry
     convergence threshold     =      1.0E-06
     mixing beta               =       0.1000
     number of iterations used =           10  plain     mixing
     Exchange-correlation      = BEEF-VDW ( 1  4 27 13 2)
     nstep                     =           50

     celldm(1)=   1.889726  celldm(2)=   0.000000  celldm(3)=   0.000000
     celldm(4)=   0.000000  celldm(5)=   0.000000  celldm(6)=   0.000000

     crystal axes: (cart. coord. in units of alat)
               a(1) = (   5.816797   0.000000   0.000000 )
               a(2) = (  -2.908398   5.037494   0.000000 )
               a(3) = (   0.000000   0.000000  24.749395 )

     reciprocal axes: (cart. coord. in units 2 pi/alat)
               b(1) = (  0.171916  0.099256  0.000000 )
               b(2) = (  0.000000  0.198511  0.000000 )
               b(3) = (  0.000000  0.000000  0.040405 )

     PseudoPot. # 1 for Tc read from file:
     /afs/slac.stanford.edu/u/if/mamunm/psp/gbrv1.5pbe/Tc.UPF
     MD5 check sum: 9eb49e5b028550b2339a02317eb7b844
     Pseudo is Ultrasoft + core correction, Zval = 15.0
     Generated by new atomic code, or converted to UPF format
     Using radial grid of  965 points,  6 beta functions with:
                l(1) =   0
                l(2) =   0
                l(3) =   1
                l(4) =   1
                l(5) =   2
                l(6) =   2
     Q(r) pseudized with  8 coefficients,  rinner =    1.300   1.300   1.300
                                                       1.300   1.300

     PseudoPot. # 2 for Y  read from file:
     /afs/slac.stanford.edu/u/if/mamunm/psp/gbrv1.5pbe/Y.UPF
     MD5 check sum: d034151ed7554c50b6e82763ed42c788
     Pseudo is Ultrasoft + core correction, Zval = 11.0
     Generated by new atomic code, or converted to UPF format
     Using radial grid of  885 points,  6 beta functions with:
                l(1) =   0
                l(2) =   0
                l(3) =   1
                l(4) =   1
                l(5) =   2
                l(6) =   2
     Q(r) pseudized with  8 coefficients,  rinner =    1.200   1.200   1.200
                                                       1.200   1.200

     vdW kernel table read from file vdW_kernel_table
     MD5 check sum: 095c7af220d748ca6e76c0b4c6cfb241

     atomic species   valence    mass     pseudopotential
        Tc1           15.00    97.90721     Tc( 1.00)
        Y1            11.00    88.90584     Y ( 1.00)

     No symmetry found

   Cartesian axes

     site n.     atom                  positions (alat units)
         1           Tc1 tau(   1) = (   0.0000000   0.0000000  10.0000000  )
         2           Tc1 tau(   2) = (  -1.4541992   2.5187469  10.0000000  )
         3           Tc1 tau(   3) = (   1.4541992   2.5187469  10.0000000  )
         4           Y1  tau(   4) = (   2.9083983   0.0000000  10.0000000  )
         5           Tc1 tau(   5) = (   2.9083983   1.6791646  12.3746973  )
         6           Tc1 tau(   6) = (   1.4541992   4.1979114  12.3746973  )
         7           Tc1 tau(   7) = (  -1.4541992   4.1979114  12.3746973  )
         8           Y1  tau(   8) = (   0.0000000   1.6791646  12.3746973  )
         9           Tc1 tau(   9) = (  -0.0000000   3.3583291  14.7493946  )
        10           Tc1 tau(  10) = (   1.4541992   0.8395823  14.7493946  )
        11           Tc1 tau(  11) = (   4.3625975   0.8395823  14.7493946  )
        12           Y1  tau(  12) = (   2.9083983   3.3583291  14.7493946  )

     number of k points=    20  Fermi-Dirac smearing, width (Ry)=  0.0110
                       cart. coord. in units 2pi/alat
        k(    1) = (   0.0000000   0.0000000   0.0000000), wk =   0.0555556
        k(    2) = (   0.0000000   0.0330852   0.0000000), wk =   0.1111111
        k(    3) = (   0.0000000   0.0661705   0.0000000), wk =   0.1111111
        k(    4) = (   0.0000000  -0.0992557   0.0000000), wk =   0.0555556
        k(    5) = (   0.0286527   0.0165426   0.0000000), wk =   0.1111111
        k(    6) = (   0.0286527   0.0496279   0.0000000), wk =   0.1111111
        k(    7) = (   0.0286527   0.0827131   0.0000000), wk =   0.1111111
        k(    8) = (   0.0286527  -0.0827131   0.0000000), wk =   0.1111111
        k(    9) = (   0.0286527  -0.0496279   0.0000000), wk =   0.1111111
        k(   10) = (   0.0286527  -0.0165426   0.0000000), wk =   0.1111111
        k(   11) = (   0.0573053   0.0330852   0.0000000), wk =   0.1111111
        k(   12) = (   0.0573053   0.0661705   0.0000000), wk =   0.1111111
        k(   13) = (   0.0573053   0.0992557   0.0000000), wk =   0.1111111
        k(   14) = (   0.0573053  -0.0661705   0.0000000), wk =   0.1111111
        k(   15) = (   0.0573053  -0.0330852   0.0000000), wk =   0.1111111
        k(   16) = (   0.0573053   0.0000000   0.0000000), wk =   0.1111111
        k(   17) = (  -0.0859580  -0.0496279   0.0000000), wk =   0.0555556
        k(   18) = (  -0.0859580  -0.0165426   0.0000000), wk =   0.1111111
        k(   19) = (  -0.0859580   0.0165426   0.0000000), wk =   0.1111111
        k(   20) = (  -0.0859580  -0.1488836   0.0000000), wk =   0.0555556

     Largest allocated arrays     est. size (Mb)     dimensions
     Largest temporary arrays     est. size (Mb)     dimensions

     Check: negative/imaginary core charge=   -0.000018    0.000000

     Initial potential from superposition of free atoms
     Check: negative starting charge=   -1.135569

     starting charge  158.98634, renormalised to  168.00000

     negative rho (up, down):  1.200E+00 0.000E+00

     *
     * You are using vdW-DF for exchange-correlation in this calculation.
     * Please cite the following three references that made this development
     * possible:
     *
     *   M. Dion, H. Rydberg, E. Schroder, D. C. Langreth, and
     *   B. I. Lundqvist, Phys. Rev. Lett. 92, 246401 (2004).
     *
     *   T. Thonhauser, V. R. Cooper, S. Li, A. Puzder, P. Hyldgaard, and
     *   D. C. Langreth, Phys. Rev. B 76, 125112 (2007).
     *
     *   G. Roman-Perez and J. M. Soler, Phys. Rev. Lett. 103, 096102 (2009).
     *
     *
     * If you are using vdW-DF2, please also cite:
     *
     *   K. Lee, E. D. Murray, L. Kong, B. I. Lundqvist, and
     *   D. C. Langreth, Phys. Rev. B 82, 081101(R) (2010).
     *
     *
     * If you are calculating the stress with vdW-DF, please also cite:
     *
     *   R. Sabatini, E. Kucukbenli, B. Kolb, T. Thonhauser, and
     *   S. de Gironcoli, J. Phys.: Condens. Matter 24, 424209 (2012).
     *

     Carrying out vdW-DF run using the following parameters:

     Nqs =      20    Nr_points =    1024   r_max =   100.000
     q_mesh =
               0.00001000     0.04494208     0.09755937     0.15916263
               0.23128650     0.31572767     0.41458969     0.53033537
               0.66584808     0.82450364     1.01025438     1.22772762
               1.48234092     1.78043706     2.12944203     2.53805004
               3.01644009     3.57652955     4.23227104     5.00000000

     Gradients computed in reciprocal space

     Adding external electric field

     Computed dipole along edir(3) :
        Dipole                0.0000 Ry au,          0.0000 Debye
        Dipole field          0.0000 Ry au

        Potential amp.       -0.0000 Ry
        Total length         45.6003 bohr

     Starting wfc are  156 randomized atomic wfcs

     Self-consistent Calculation

     iteration #  1     ecut=    36.75 Ry     beta=0.10
     Davidson diagonalization with overlap
     ethr =  1.00E-02,  avg # of iterations =  3.9

[...]

     total energy              =   -1859.40470752 Ry
     Harris-Foulkes estimate   =   -1861.06773048 Ry
     estimated scf accuracy    <      10.66408532 Ry

[...]

     End of self-consistent calculation

          k = 0.0000 0.0000 0.0000 ( 18463 PWs)   bands (ev):

   -64.7213 -64.6701 -64.6700 -64.5480 -64.5449 -64.4992 -64.4990 -64.4984
   -64.4982 -39.8636 -39.8557 -39.0983 -37.0030 -36.8557 -36.8556 -36.8478
   -36.8295 -36.7748 -36.7577 -36.7576 -36.6130 -36.6130 -36.5893 -36.5808
   -36.5585 -36.5584 -36.5363 -36.5362 -36.5017 -36.5016 -36.4758 -36.4589
   -36.4588 -36.3540 -36.3518 -36.3518 -36.3469 -36.3469 -36.3411 -19.9930
   -19.9568 -19.8819 -19.8819 -19.8726 -19.8726 -19.2671 -19.2078 -19.2078
    -3.3320  -2.1180  -1.9128  -1.7536  -1.7536  -1.7090  -1.5138  -1.5138
    -1.2501  -1.1892  -1.1891  -1.1617  -1.0221  -1.0221  -0.9592  -0.1475
     0.0783   0.0783   0.5293   0.5293   0.8298   0.8364   1.0857   1.1369
     1.4989   1.4989   1.5890   1.5890   1.7002   1.7003   1.8023   1.8024
     1.9466   1.9993   1.9993   2.4149   2.7973   2.7974   2.8956   2.8956
     2.9118   3.0819   3.0819   3.5527   3.6227   3.6227   3.7548   3.7713
     4.3527   4.5434   4.6181   4.6317   4.9223   4.9223   5.3152   5.6852
     5.8216   5.9069   5.9069   5.9223   5.9223   6.5541   6.5541   6.5623
     6.7207   6.7208

[...]

          k =-0.0860-0.0496 0.0000 ( 18372 PWs)   bands (ev):

[...]

     the Fermi energy is     2.0026 ev

!    total energy              =   -1858.24187873 Ry
     Harris-Foulkes estimate   =   -1858.24514163 Ry
     estimated scf accuracy    <       0.00000098 Ry

     The total energy is the sum of the following terms:

     one-electron contribution =  -14161.59225986 Ry
     hartree contribution      =    7080.77555367 Ry
     xc contribution           =    -382.82226552 Ry
     ewald contribution        =    5605.51773962 Ry
     electric field correction =       0.00000001 Ry
     smearing contrib. (-TS)   =      -0.12064664 Ry

     convergence has been achieved in  20 iterations

 BEEF-vdW xc energy contributions
           1 :   -334.835201218738
           2 :    306.061206777480
           3 :   -255.212591756626
           4 :    193.017273205962
           5 :   -130.696035558671
           6 :    76.7459569580990
           7 :   -35.3467008090810
           8 :    6.52406465982961
           9 :    12.3165554628296
          10 :   -24.4421175511945
          11 :    32.2345775168313
          12 :   -36.6020471177866
          13 :    37.3278989322283
[...]
     /afs/slac.stanford.edu/u/if/mamunm/psp/gbrv1.5pbe/Tc.UPF
     MD5 check sum: 9eb49e5b028550b2339a02317eb7b844
     Pseudo is Ultrasoft + core correction, Zval = 15.0
     Generated by new atomic code, or converted to UPF format
     Using radial grid of  965 points,  6 beta functions with:
                l(1) =   0
                l(2) =   0
                l(3) =   1
                l(4) =   1
                l(5) =   2
                l(6) =   2
     Q(r) pseudized with  8 coefficients,  rinner =    1.300   1.300   1.300
                                                       1.300   1.300

     PseudoPot. # 2 for Y  read from file:
     /afs/slac.stanford.edu/u/if/mamunm/psp/gbrv1.5pbe/Y.UPF
     MD5 check sum: d034151ed7554c50b6e82763ed42c788
     Pseudo is Ultrasoft + core correction, Zval = 11.0
     Generated by new atomic code, or converted to UPF format
     Using radial grid of  885 points,  6 beta functions with:
                l(1) =   0
                l(2) =   0
                l(3) =   1
                l(4) =   1
                l(5) =   2
                l(6) =   2
     Q(r) pseudized with  8 coefficients,  rinner =    1.200   1.200   1.200
                                                       1.200   1.200

     vdW kernel table read from file vdW_kernel_table
     MD5 check sum: 095c7af220d748ca6e76c0b4c6cfb241

     atomic species   valence    mass     pseudopotential
        Tc1           15.00    97.90721     Tc( 1.00)
        Y1            11.00    88.90584     Y ( 1.00)

     No symmetry found

   Cartesian axes

     site n.     atom                  positions (alat units)
         1           Tc1 tau(   1) = (   0.0000000   0.0000000  10.0000000  )
         2           Tc1 tau(   2) = (  -1.4541992   2.5187469  10.0000000  )
         3           Tc1 tau(   3) = (   1.4541992   2.5187469  10.0000000  )
         4           Y1  tau(   4) = (   2.9083983   0.0000000  10.0000000  )
         5           Tc1 tau(   5) = (   2.9083983   1.6791646  12.3746973  )
         6           Tc1 tau(   6) = (   1.4541992   4.1979114  12.3746973  )
         7           Tc1 tau(   7) = (  -1.4541992   4.1979114  12.3746973  )
         8           Y1  tau(   8) = (   0.0000000   1.6791646  12.3746973  )
         9           Tc1 tau(   9) = (   0.0000017   3.5502780  14.4180406  )
        10           Tc1 tau(  10) = (   1.6204522   0.7436368  14.4181114  )
        11           Tc1 tau(  11) = (   4.1963677   0.7436771  14.4181087  )
        12           Y1  tau(  12) = (   2.9083788   3.3584450  15.2139559  )

     number of k points=    20  Fermi-Dirac smearing, width (Ry)=  0.0110
                       cart. coord. in units 2pi/alat
        k(    1) = (   0.0000000   0.0000000   0.0000000), wk =   0.0555556
        k(    2) = (   0.0000000   0.0330852   0.0000000), wk =   0.1111111
        k(    3) = (   0.0000000   0.0661705   0.0000000), wk =   0.1111111
        k(    4) = (   0.0000000  -0.0992557   0.0000000), wk =   0.0555556
        k(    5) = (   0.0286527   0.0165426   0.0000000), wk =   0.1111111
        k(    6) = (   0.0286527   0.0496279   0.0000000), wk =   0.1111111
        k(    7) = (   0.0286527   0.0827131   0.0000000), wk =   0.1111111
        k(    8) = (   0.0286527  -0.0827131   0.0000000), wk =   0.1111111
        k(    9) = (   0.0286527  -0.0496279   0.0000000), wk =   0.1111111
        k(   10) = (   0.0286527  -0.0165426   0.0000000), wk =   0.1111111
        k(   11) = (   0.0573053   0.0330852   0.0000000), wk =   0.1111111
        k(   12) = (   0.0573053   0.0661705   0.0000000), wk =   0.1111111
        k(   13) = (   0.0573053   0.0992557   0.0000000), wk =   0.1111111
        k(   14) = (   0.0573053  -0.0661705   0.0000000), wk =   0.1111111
        k(   15) = (   0.0573053  -0.0330852   0.0000000), wk =   0.1111111
        k(   16) = (   0.0573053   0.0000000   0.0000000), wk =   0.1111111
        k(   17) = (  -0.0859580  -0.0496279   0.0000000), wk =   0.0555556
        k(   18) = (  -0.0859580  -0.0165426   0.0000000), wk =   0.1111111
        k(   19) = (  -0.0859580   0.0165426   0.0000000), wk =   0.1111111
        k(   20) = (  -0.0859580  -0.1488836   0.0000000), wk =   0.0555556

     Largest allocated arrays     est. size (Mb)     dimensions
     Largest temporary arrays     est. size (Mb)     dimensions

     Check: negative/imaginary core charge=   -0.000018    0.000000

     Initial potential from superposition of free atoms
     Check: negative starting charge=   -1.132493

     starting charge  158.98634, renormalised to  168.00000

[...]

     *
     * You are using vdW-DF for exchange-correlation in this calculation.
     * Please cite the following three references that made this development
     * possible:
     *
     *   M. Dion, H. Rydberg, E. Schroder, D. C. Langreth, and
     *   B. I. Lundqvist, Phys. Rev. Lett. 92, 246401 (2004).
     *
     *   T. Thonhauser, V. R. Cooper, S. Li, A. Puzder, P. Hyldgaard, and
     *   D. C. Langreth, Phys. Rev. B 76, 125112 (2007).
     *
     *   G. Roman-Perez and J. M. Soler, Phys. Rev. Lett. 103, 096102 (2009).
     *
     *
     * If you are using vdW-DF2, please also cite:
     *
     *   K. Lee, E. D. Murray, L. Kong, B. I. Lundqvist, and
     *   D. C. Langreth, Phys. Rev. B 82, 081101(R) (2010).
     *
     *
     * If you are calculating the stress with vdW-DF, please also cite:
     *
     *   R. Sabatini, E. Kucukbenli, B. Kolb, T. Thonhauser, and
     *   S. de Gironcoli, J. Phys.: Condens. Matter 24, 424209 (2012).
     *

     Carrying out vdW-DF run using the following parameters:

     Nqs =      20    Nr_points =    1024   r_max =   100.000
     q_mesh =
               0.00001000     0.04494208     0.09755937     0.15916263
               0.23128650     0.31572767     0.41458969     0.53033537
               0.66584808     0.82450364     1.01025438     1.22772762
               1.48234092     1.78043706     2.12944203     2.53805004
               3.01644009     3.57652955     4.23227104     5.00000000

     Gradients computed in reciprocal space

[...]

     Starting wfc are  156 randomized atomic wfcs

     Self-consistent Calculation

[...]

     total energy              =   -1858.34968461 Ry
     Harris-Foulkes estimate   =   -1858.34968397 Ry
     estimated scf accuracy    <       0.00000110 Ry

     iteration # 22     ecut=    36.75 Ry     beta=0.10
     Davidson diagonalization with overlap
     ethr =  6.57E-10,  avg # of iterations =  1.0

[...]

     negative rho (up, down):  1.177E+00 0.000E+00

     Adding external electric field

     Computed dipole along edir(3) :
        Dipole                0.3205 Ry au,          0.8147 Debye
        Dipole field          0.0008 Ry au

        Potential amp.       -0.0751 Ry
        Total length         45.6003 bohr

     End of self-consistent calculation

[...]

          k = 0.0573 0.0000 0.0000 ( 18421 PWs)   bands (ev):

[...]

          k =-0.0860-0.1489 0.0000 ( 18372 PWs)   bands (ev):

   -64.5091 -64.4788 -64.4589 -64.3124 -64.2334 -64.2278 -64.1487 -64.1328
   -64.1165 -40.5459 -39.4734 -38.7068 -36.9443 -36.8237 -36.7779 -36.6520
   -36.6295 -36.5978 -36.5224 -36.4910 -36.4539 -36.3547 -36.3173 -36.3084
   -36.2666 -36.2123 -36.1770 -36.1515 -36.1419 -36.1401 -36.1294 -36.0967
   -36.0924 -36.0755 -36.0652 -36.0646 -36.0243 -35.9813 -35.9666 -20.6063
   -20.4779 -20.4645 -19.5870 -19.5369 -19.5009 -18.9015 -18.8770 -18.8375
    -1.9646  -1.6025  -1.3089  -1.0478  -0.8461  -0.8274  -0.7728  -0.6125
    -0.5564  -0.5181  -0.3165  -0.2050  -0.1419  -0.0013   0.0318   0.1433
     0.3216   0.3558   0.4798   0.7120   0.8111   0.8490   0.9399   1.1997
     1.2181   1.2806   1.3674   1.3994   1.5124   1.6435   1.6870   1.7204
     1.8147   2.0367   2.0819   2.1738   2.3808   2.3937   2.4765   2.6703
     2.7530   2.8801   2.9523   3.0179   3.0531   3.1875   3.3772   3.6094
     3.8800   3.9666   4.0556   4.0753   4.5774   4.6636   4.9333   5.2151
     5.6725   5.8631   6.0440   6.1055   6.2131   6.2791   6.3797   6.6101
     6.6225   6.7266

     the Fermi energy is     2.4044 ev

!    total energy              =   -1858.34968740 Ry
     Harris-Foulkes estimate   =   -1858.34968457 Ry
     estimated scf accuracy    <       0.00000027 Ry

     The total energy is the sum of the following terms:

     one-electron contribution =  -14508.05042577 Ry
     hartree contribution      =    7255.25688743 Ry
     xc contribution           =    -383.10357369 Ry
     ewald contribution        =    5777.64698542 Ry
     electric field correction =       0.00026380 Ry
     smearing contrib. (-TS)   =      -0.09982460 Ry

     convergence has been achieved in  22 iterations

 BEEF-vdW xc energy contributions
           1 :   -335.459590519897
           2 :    306.853919169119
           3 :   -256.249227638621
           4 :    194.211234892162
           5 :   -131.804273991619
           6 :    77.4819257333807
           7 :   -35.5471930527339
           8 :    6.25163125262713
           9 :    12.7995937646153
          10 :   -24.7995239868831
          11 :    32.2084726056040
          12 :   -36.1264137839323
          13 :    36.5545136079463
          14 :   -33.1909499320207
          15 :    26.1916646561418
          16 :   -16.5399824740992
          17 :    5.89567762887333
          18 :    3.89553441302650
          19 :   -11.3661743733161
          20 :    15.7851015330260
          21 :   -17.2000278015434
          22 :    16.1941043486721
          23 :   -13.5256310150592
          24 :    9.82212977656758
          25 :   -5.45717286710794
          26 :   0.615656492839946
          27 :    4.52351373371715
          28 :   -9.61770511251149
          29 :    14.1033285126260
          30 :   -17.2924756750462
          31 :   -31.8625760953634
          32 :   -22.9733176064731

     Forces acting on atoms (Ry/au):

     negative rho (up, down):  1.177E+00 0.000E+00
     atom    1 type  1   force =     0.00000034   -0.02995978    0.02118883
     atom    2 type  1   force =    -0.02594432    0.01497532    0.02118877
     atom    3 type  1   force =     0.02594758    0.01497813    0.02120823
     atom    4 type  2   force =     0.00000382    0.00000454   -0.06786320
     atom    5 type  1   force =     0.00000740    0.02240793    0.01713921
     atom    6 type  1   force =     0.01939844   -0.01120289    0.01714098
     atom    7 type  1   force =    -0.01939728   -0.01120735    0.01713668
     atom    8 type  2   force =    -0.00001732   -0.00000123   -0.04701990
     atom    9 type  1   force =     0.00000068    0.00092961    0.00009669
     atom   10 type  1   force =     0.00081284   -0.00045220    0.00010407
     atom   11 type  1   force =    -0.00081379   -0.00045253    0.00010174
     atom   12 type  2   force =     0.00000161   -0.00001956   -0.00042210

     Total force =     0.115093     Total SCF correction =     0.001550

     entering subroutine stress ...

     negative rho (up, down):  1.177E+00 0.000E+00
          total   stress  (Ry/bohr**3)                   (kbar)     P=   -9.09
  -0.00009002  -0.00000000  -0.00000000        -13.24     -0.00     -0.00
  -0.00000000  -0.00009002   0.00000001         -0.00    -13.24      0.00
  -0.00000000   0.00000001  -0.00000538         -0.00      0.00     -0.79

 !ASE

     Writing output data file calc.save

     General routines

     Parallel routines

   This run was terminated on:   4:31:44  28Dec2018

   JOB DONE.
Job  /afs/slac/g/suncat/bin/suncat-tsmpirun -x LD_LIBRARY_PATH -wdir /scratch/qe111097_RpStS pw.x -in pw.inp

TID   HOST_NAME   COMMAND_LINE            STATUS            TERMINATION_TIME
00000 suncat0193 pw.x -in pw.inp   Done                     12/28/2018 04:31:44
00001 suncat0193 pw.x -in pw.inp   Done                     12/28/2018 04:31:44
00002 suncat0193 pw.x -in pw.inp   Done                     12/28/2018 04:31:44
00003 suncat0193 pw.x -in pw.inp   Done                     12/28/2018 04:31:44
00004 suncat0193 pw.x -in pw.inp   Done                     12/28/2018 04:31:44
00005 suncat0193 pw.x -in pw.inp   Done                     12/28/2018 04:31:44
00006 suncat0193 pw.x -in pw.inp   Done                     12/28/2018 04:31:44
00007 suncat0193 pw.x -in pw.inp   Done                     12/28/2018 04:31:44
00008 suncat0192 pw.x -in pw.inp   Done                     12/28/2018 04:31:44
00009 suncat0192 pw.x -in pw.inp   Done                     12/28/2018 04:31:44
00010 suncat0192 pw.x -in pw.inp   Done                     12/28/2018 04:31:44
00011 suncat0192 pw.x -in pw.inp   Done                     12/28/2018 04:31:44
00012 suncat0192 pw.x -in pw.inp   Done                     12/28/2018 04:31:44
00013 suncat0192 pw.x -in pw.inp   Done                     12/28/2018 04:31:44
00014 suncat0192 pw.x -in pw.inp   Done                     12/28/2018 04:31:44
00015 suncat0192 pw.x -in pw.inp   Done                     12/28/2018 04:31:44
00016 suncat0163 pw.x -in pw.inp   Done                     12/28/2018 04:31:44
00017 suncat0163 pw.x -in pw.inp   Done                     12/28/2018 04:31:44
00018 suncat0163 pw.x -in pw.inp   Done                     12/28/2018 04:31:44
00019 suncat0163 pw.x -in pw.inp   Done                     12/28/2018 04:31:44
00020 suncat0163 pw.x -in pw.inp   Done                     12/28/2018 04:31:44
00021 suncat0163 pw.x -in pw.inp   Done                     12/28/2018 04:31:44
00022 suncat0163 pw.x -in pw.inp   Done                     12/28/2018 04:31:44
00023 suncat0163 pw.x -in pw.inp   Done                     12/28/2018 04:31:44
00024 suncat0162 pw.x -in pw.inp   Done                     12/28/2018 04:31:44
00025 suncat0162 pw.x -in pw.inp   Done                     12/28/2018 04:31:44
00026 suncat0162 pw.x -in pw.inp   Done                     12/28/2018 04:31:44
00027 suncat0162 pw.x -in pw.inp   Done                     12/28/2018 04:31:44
00028 suncat0162 pw.x -in pw.inp   Done                     12/28/2018 04:31:44
00029 suncat0162 pw.x -in pw.inp   Done                     12/28/2018 04:31:44
00030 suncat0162 pw.x -in pw.inp   Done                     12/28/2018 04:31:44
00031 suncat0162 pw.x -in pw.inp   Done                     12/28/2018 04:31:44
00032 suncat0159 pw.x -in pw.inp   Done                     12/28/2018 04:31:44
00033 suncat0159 pw.x -in pw.inp   Done                     12/28/2018 04:31:44
00034 suncat0159 pw.x -in pw.inp   Done                     12/28/2018 04:31:44
00035 suncat0159 pw.x -in pw.inp   Done                     12/28/2018 04:31:44
00036 suncat0159 pw.x -in pw.inp   Done                     12/28/2018 04:31:44
00037 suncat0159 pw.x -in pw.inp   Done                     12/28/2018 04:31:44
00038 suncat0159 pw.x -in pw.inp   Done                     12/28/2018 04:31:44
00039 suncat0159 pw.x -in pw.inp   Done                     12/28/2018 04:31:44
00040 suncat0155 pw.x -in pw.inp   Done                     12/28/2018 04:31:44
00041 suncat0155 pw.x -in pw.inp   Done                     12/28/2018 04:31:44
00042 suncat0155 pw.x -in pw.inp   Done                     12/28/2018 04:31:44
00043 suncat0155 pw.x -in pw.inp   Done                     12/28/2018 04:31:44
00044 suncat0155 pw.x -in pw.inp   Done                     12/28/2018 04:31:44
00045 suncat0155 pw.x -in pw.inp   Done                     12/28/2018 04:31:44
00046 suncat0155 pw.x -in pw.inp   Done                     12/28/2018 04:31:44
00047 suncat0155 pw.x -in pw.inp   Done                     12/28/2018 04:31:44
00048 suncat0141 pw.x -in pw.inp   Done                     12/28/2018 04:31:44
00049 suncat0141 pw.x -in pw.inp   Done                     12/28/2018 04:31:44
00050 suncat0141 pw.x -in pw.inp   Done                     12/28/2018 04:31:44
00051 suncat0141 pw.x -in pw.inp   Done                     12/28/2018 04:31:44
00052 suncat0141 pw.x -in pw.inp   Done                     12/28/2018 04:31:44
00053 suncat0141 pw.x -in pw.inp   Done                     12/28/2018 04:31:44
00054 suncat0141 pw.x -in pw.inp   Done                     12/28/2018 04:31:44
00055 suncat0141 pw.x -in pw.inp   Done                     12/28/2018 04:31:44
00056 suncat0140 pw.x -in pw.inp   Done                     12/28/2018 04:31:44
00057 suncat0140 pw.x -in pw.inp   Done                     12/28/2018 04:31:44
00058 suncat0140 pw.x -in pw.inp   Done                     12/28/2018 04:31:44
00059 suncat0140 pw.x -in pw.inp   Done                     12/28/2018 04:31:44
00060 suncat0140 pw.x -in pw.inp   Done                     12/28/2018 04:31:44
00061 suncat0140 pw.x -in pw.inp   Done                     12/28/2018 04:31:44
00062 suncat0140 pw.x -in pw.inp   Done                     12/28/2018 04:31:44
00063 suncat0140 pw.x -in pw.inp   Done                     12/28/2018 04:31:44