     Program PWSCF v.5.1rc2 (svn rev. 11289) starts on 25Dec2018 at 14:17: 6

     Current dimensions of program PWSCF are:
     Max number of different atomic species (ntypx) = 10
     Max number of k-points (npk) =  40000
     Max angular momentum in pseudopotentials (lmaxx) =  3
     Presently stress not available with electric field

     IMPORTANT: XC functional enforced from input :
     Exchange-correlation      = BEEF-VDW ( 1  4 27 13 2)
     Any further DFT definition will be discarded
     Please, verify this is what you really want

     Subspace diagonalization in iterative solution of the eigenvalue problem:
     a serial algorithm will be used

     bravais-lattice index     =            0
     lattice parameter (alat)  =       1.8897  a.u.
     unit-cell volume          =    3843.2502 (a.u.)^3
     number of atoms/cell      =           12
     number of atomic types    =            2
     number of electrons       =       165.00
     number of Kohn-Sham states=          112
     kinetic-energy cutoff     =      36.7493  Ry
     charge density cutoff     =     367.4932  Ry
     convergence threshold     =      1.0E-06
     mixing beta               =       0.1000
     number of iterations used =           10  plain     mixing
     Exchange-correlation      = BEEF-VDW ( 1  4 27 13 2)
     nstep                     =           50

     celldm(1)=   1.889726  celldm(2)=   0.000000  celldm(3)=   0.000000
     celldm(4)=   0.000000  celldm(5)=   0.000000  celldm(6)=   0.000000

     crystal axes: (cart. coord. in units of alat)
               a(1) = (   5.207318   0.000000   0.000000 )
               a(2) = (  -2.603659   4.509670   0.000000 )
               a(3) = (   0.000000   0.000000  24.251757 )

     reciprocal axes: (cart. coord. in units 2 pi/alat)
               b(1) = (  0.192037  0.110873  0.000000 )
               b(2) = (  0.000000  0.221746  0.000000 )
               b(3) = (  0.000000  0.000000  0.041234 )

     PseudoPot. # 1 for Cr read from file:
     /afs/slac.stanford.edu/u/if/mamunm/psp/gbrv1.5pbe/Cr.UPF
     MD5 check sum: 0d52af634a40206e4dee301ad30da4bf
     Pseudo is Ultrasoft + core correction, Zval = 14.0
     Generated by new atomic code, or converted to UPF format
     Using radial grid of  857 points,  6 beta functions with:
                l(1) =   0
                l(2) =   0
                l(3) =   1
                l(4) =   1
                l(5) =   2
                l(6) =   2
     Q(r) pseudized with  8 coefficients,  rinner =    0.950   0.950   0.950
                                                       0.950   0.950

     PseudoPot. # 2 for V  read from file:
     /afs/slac.stanford.edu/u/if/mamunm/psp/gbrv1.5pbe/V.UPF
     MD5 check sum: 22b79981416ebb76fdaf5b1b8640f6fb
     Pseudo is Ultrasoft + core correction, Zval = 13.0
     Generated by new atomic code, or converted to UPF format
     Using radial grid of  853 points,  6 beta functions with:
                l(1) =   0
                l(2) =   0
                l(3) =   1
                l(4) =   1
                l(5) =   2
                l(6) =   2
     Q(r) pseudized with  8 coefficients,  rinner =    1.100   1.100   1.100
                                                       1.100   1.100

     vdW kernel table read from file vdW_kernel_table
     MD5 check sum: 095c7af220d748ca6e76c0b4c6cfb241

     atomic species   valence    mass     pseudopotential
        Cr1           14.00    51.99610     Cr( 1.00)
        V1            13.00    50.94150     V ( 1.00)

     No symmetry found

   Cartesian axes

     site n.     atom                  positions (alat units)
         1           Cr1 tau(   1) = (   0.0000000   0.0000000  10.0000000  )
         2           Cr1 tau(   2) = (  -1.3018295   2.2548349  10.0000000  )
         3           Cr1 tau(   3) = (   1.3018295   2.2548349  10.0000000  )
         4           V1  tau(   4) = (   2.6036590   0.0000000  10.0000000  )
         5           Cr1 tau(   5) = (   2.6036590   1.5032232  12.1258787  )
         6           Cr1 tau(   6) = (   1.3018295   3.7580581  12.1258787  )
         7           Cr1 tau(   7) = (  -1.3018295   3.7580581  12.1258787  )
         8           V1  tau(   8) = (   0.0000000   1.5032232  12.1258787  )
         9           Cr1 tau(   9) = (  -0.0000000   3.0064465  14.2517574  )
        10           Cr1 tau(  10) = (   1.3018295   0.7516116  14.2517574  )
        11           Cr1 tau(  11) = (   3.9054885   0.7516116  14.2517574  )
        12           V1  tau(  12) = (   2.6036590   3.0064465  14.2517574  )

     number of k points=    20  Fermi-Dirac smearing, width (Ry)=  0.0110
                       cart. coord. in units 2pi/alat
        k(    1) = (   0.0000000   0.0000000   0.0000000), wk =   0.0555556
        k(    2) = (   0.0000000   0.0369576   0.0000000), wk =   0.1111111
        k(    3) = (   0.0000000   0.0739152   0.0000000), wk =   0.1111111
        k(    4) = (   0.0000000  -0.1108729   0.0000000), wk =   0.0555556
        k(    5) = (   0.0320062   0.0184788   0.0000000), wk =   0.1111111
        k(    6) = (   0.0320062   0.0554364   0.0000000), wk =   0.1111111
        k(    7) = (   0.0320062   0.0923941   0.0000000), wk =   0.1111111
        k(    8) = (   0.0320062  -0.0923941   0.0000000), wk =   0.1111111
        k(    9) = (   0.0320062  -0.0554364   0.0000000), wk =   0.1111111
        k(   10) = (   0.0320062  -0.0184788   0.0000000), wk =   0.1111111
        k(   11) = (   0.0640125   0.0369576   0.0000000), wk =   0.1111111
        k(   12) = (   0.0640125   0.0739152   0.0000000), wk =   0.1111111
        k(   13) = (   0.0640125   0.1108729   0.0000000), wk =   0.1111111
        k(   14) = (   0.0640125  -0.0739152   0.0000000), wk =   0.1111111
        k(   15) = (   0.0640125  -0.0369576   0.0000000), wk =   0.1111111
        k(   16) = (   0.0640125  -0.0000000   0.0000000), wk =   0.1111111
        k(   17) = (  -0.0960187  -0.0554364   0.0000000), wk =   0.0555556
        k(   18) = (  -0.0960187  -0.0184788   0.0000000), wk =   0.1111111
        k(   19) = (  -0.0960187   0.0184788   0.0000000), wk =   0.1111111
        k(   20) = (  -0.0960187  -0.1663093   0.0000000), wk =   0.0555556

     Largest allocated arrays     est. size (Mb)     dimensions
     Largest temporary arrays     est. size (Mb)     dimensions

     Check: negative/imaginary core charge=   -0.000004    0.000000

     Initial potential from superposition of free atoms
     Check: negative starting charge=   -0.013096

     starting charge  155.99618, renormalised to  165.00000

     negative rho (up, down):  1.385E-02 0.000E+00

     *
     * You are using vdW-DF for exchange-correlation in this calculation.
     * Please cite the following three references that made this development
     * possible:
     *
     *   M. Dion, H. Rydberg, E. Schroder, D. C. Langreth, and
     *   B. I. Lundqvist, Phys. Rev. Lett. 92, 246401 (2004).
     *
     *   T. Thonhauser, V. R. Cooper, S. Li, A. Puzder, P. Hyldgaard, and
     *   D. C. Langreth, Phys. Rev. B 76, 125112 (2007).
     *
     *   G. Roman-Perez and J. M. Soler, Phys. Rev. Lett. 103, 096102 (2009).
     *
     *
     * If you are using vdW-DF2, please also cite:
     *
     *   K. Lee, E. D. Murray, L. Kong, B. I. Lundqvist, and
     *   D. C. Langreth, Phys. Rev. B 82, 081101(R) (2010).
     *
     *
     * If you are calculating the stress with vdW-DF, please also cite:
     *
     *   R. Sabatini, E. Kucukbenli, B. Kolb, T. Thonhauser, and
     *   S. de Gironcoli, J. Phys.: Condens. Matter 24, 424209 (2012).
     *

     Carrying out vdW-DF run using the following parameters:

     Nqs =      20    Nr_points =    1024   r_max =   100.000
     q_mesh =
               0.00001000     0.04494208     0.09755937     0.15916263
               0.23128650     0.31572767     0.41458969     0.53033537
               0.66584808     0.82450364     1.01025438     1.22772762
               1.48234092     1.78043706     2.12944203     2.53805004
               3.01644009     3.57652955     4.23227104     5.00000000

     Gradients computed in reciprocal space

     Adding external electric field

     Computed dipole along edir(3) :
        Dipole                0.0000 Ry au,          0.0000 Debye
        Dipole field          0.0000 Ry au

        Potential amp.       -0.0000 Ry
        Total length         44.6834 bohr

     Starting wfc are  120 randomized atomic wfcs

     Self-consistent Calculation

     iteration #  1     ecut=    36.75 Ry     beta=0.10
     Davidson diagonalization with overlap
     ethr =  1.00E-02,  avg # of iterations =  4.2

[...]

     total energy              =   -2025.02864243 Ry
     Harris-Foulkes estimate   =   -2027.52234781 Ry
     estimated scf accuracy    <      15.35435989 Ry

[...]

     End of self-consistent calculation

          k = 0.0000 0.0000 0.0000 ( 14525 PWs)   bands (ev):

   -70.6352 -70.5590 -70.5590 -70.4824 -70.4749 -70.4121 -70.4120 -70.4102
   -70.4102 -63.1072 -63.0953 -63.0949 -42.2145 -42.0686 -42.0685 -42.0643
   -42.0128 -41.9901 -41.9740 -41.9739 -41.8456 -41.8386 -41.8385 -41.7854
   -41.7854 -41.7788 -41.7788 -41.7730 -41.6977 -41.6865 -41.6865 -41.6756
   -41.6756 -41.5760 -41.5597 -41.5181 -41.5181 -41.5157 -41.5157 -36.9935
   -36.9798 -36.9200 -36.9024 -36.9024 -36.8568 -36.8568 -36.8533 -36.8533
    -5.4750  -3.7956  -2.7375  -2.4410  -2.4410  -2.3704  -2.1626  -2.1626
    -2.0422  -1.6606  -1.6606  -1.6603  -1.6029  -1.6029  -1.5449  -0.7273
    -0.7027  -0.7026   0.1541   0.2492   0.2492   0.2602   0.4781   0.7421
     0.7719   0.7719   0.9033   0.9251   0.9251   0.9647   0.9647   1.0925
     1.0925   1.1266   1.1316   1.1316   1.6333   1.7088   1.7088   1.8434
     1.9549   2.1145   2.1145   2.3247   2.3247   2.7495   2.7495   2.8252
     2.8252   2.9669   3.0984   3.1449   3.1449   3.2068   3.3231   3.3231
     3.3663   3.3681   3.3681   3.5512   3.5909   3.7605   3.7606   3.9079

[...]

          k =-0.0960-0.0554 0.0000 ( 14410 PWs)   bands (ev):

[...]

     the Fermi energy is     1.0434 ev

!    total energy              =   -2023.32932195 Ry
     Harris-Foulkes estimate   =   -2023.32932481 Ry
     estimated scf accuracy    <       0.00000038 Ry

     The total energy is the sum of the following terms:

     one-electron contribution =  -18096.44090293 Ry
     hartree contribution      =    9037.76934034 Ry
     xc contribution           =    -270.28645523 Ry
     ewald contribution        =    7305.77466028 Ry
     electric field correction =       0.00000000 Ry
     smearing contrib. (-TS)   =      -0.14596441 Ry

     convergence has been achieved in  31 iterations

 BEEF-vdW xc energy contributions
           1 :   -233.809900368741
           2 :    210.366133363206
           3 :   -171.308648926714
           4 :    128.544894729948
           5 :   -92.8169760144539
           6 :    69.6949823670844
           7 :   -58.5755839305702
           8 :    54.6546022039930
           9 :   -52.3497750053036
          10 :    48.1801638881421
          11 :   -41.7963506532088
          12 :    35.0797393601854
          13 :   -30.2621005547344
[...]
     /afs/slac.stanford.edu/u/if/mamunm/psp/gbrv1.5pbe/Cr.UPF
     MD5 check sum: 0d52af634a40206e4dee301ad30da4bf
     Pseudo is Ultrasoft + core correction, Zval = 14.0
     Generated by new atomic code, or converted to UPF format
     Using radial grid of  857 points,  6 beta functions with:
                l(1) =   0
                l(2) =   0
                l(3) =   1
                l(4) =   1
                l(5) =   2
                l(6) =   2
     Q(r) pseudized with  8 coefficients,  rinner =    0.950   0.950   0.950
                                                       0.950   0.950

     PseudoPot. # 2 for V  read from file:
     /afs/slac.stanford.edu/u/if/mamunm/psp/gbrv1.5pbe/V.UPF
     MD5 check sum: 22b79981416ebb76fdaf5b1b8640f6fb
     Pseudo is Ultrasoft + core correction, Zval = 13.0
     Generated by new atomic code, or converted to UPF format
     Using radial grid of  853 points,  6 beta functions with:
                l(1) =   0
                l(2) =   0
                l(3) =   1
                l(4) =   1
                l(5) =   2
                l(6) =   2
     Q(r) pseudized with  8 coefficients,  rinner =    1.100   1.100   1.100
                                                       1.100   1.100

     vdW kernel table read from file vdW_kernel_table
     MD5 check sum: 095c7af220d748ca6e76c0b4c6cfb241

     atomic species   valence    mass     pseudopotential
        Cr1           14.00    51.99610     Cr( 1.00)
        V1            13.00    50.94150     V ( 1.00)

     No symmetry found

   Cartesian axes

     site n.     atom                  positions (alat units)
         1           Cr1 tau(   1) = (   0.0000000   0.0000000  10.0000000  )
         2           Cr1 tau(   2) = (  -1.3018295   2.2548349  10.0000000  )
         3           Cr1 tau(   3) = (   1.3018295   2.2548349  10.0000000  )
         4           V1  tau(   4) = (   2.6036590   0.0000000  10.0000000  )
         5           Cr1 tau(   5) = (   2.6036590   1.5032232  12.1258787  )
         6           Cr1 tau(   6) = (   1.3018295   3.7580581  12.1258787  )
         7           Cr1 tau(   7) = (  -1.3018295   3.7580581  12.1258787  )
         8           V1  tau(   8) = (   0.0000000   1.5032232  12.1258787  )
         9           Cr1 tau(   9) = (   0.0000172   3.0480397  14.1985129  )
        10           Cr1 tau(  10) = (   1.3378517   0.7308214  14.1984875  )
        11           Cr1 tau(  11) = (   3.8694907   0.7308109  14.1984996  )
        12           V1  tau(  12) = (   2.6036744   3.0064513  14.3908292  )

     number of k points=    20  Fermi-Dirac smearing, width (Ry)=  0.0110
                       cart. coord. in units 2pi/alat
        k(    1) = (   0.0000000   0.0000000   0.0000000), wk =   0.0555556
        k(    2) = (   0.0000000   0.0369576   0.0000000), wk =   0.1111111
        k(    3) = (   0.0000000   0.0739152   0.0000000), wk =   0.1111111
        k(    4) = (   0.0000000  -0.1108729   0.0000000), wk =   0.0555556
        k(    5) = (   0.0320062   0.0184788   0.0000000), wk =   0.1111111
        k(    6) = (   0.0320062   0.0554364   0.0000000), wk =   0.1111111
        k(    7) = (   0.0320062   0.0923941   0.0000000), wk =   0.1111111
        k(    8) = (   0.0320062  -0.0923941   0.0000000), wk =   0.1111111
        k(    9) = (   0.0320062  -0.0554364   0.0000000), wk =   0.1111111
        k(   10) = (   0.0320062  -0.0184788   0.0000000), wk =   0.1111111
        k(   11) = (   0.0640125   0.0369576   0.0000000), wk =   0.1111111
        k(   12) = (   0.0640125   0.0739152   0.0000000), wk =   0.1111111
        k(   13) = (   0.0640125   0.1108729   0.0000000), wk =   0.1111111
        k(   14) = (   0.0640125  -0.0739152   0.0000000), wk =   0.1111111
        k(   15) = (   0.0640125  -0.0369576   0.0000000), wk =   0.1111111
        k(   16) = (   0.0640125  -0.0000000   0.0000000), wk =   0.1111111
        k(   17) = (  -0.0960187  -0.0554364   0.0000000), wk =   0.0555556
        k(   18) = (  -0.0960187  -0.0184788   0.0000000), wk =   0.1111111
        k(   19) = (  -0.0960187   0.0184788   0.0000000), wk =   0.1111111
        k(   20) = (  -0.0960187  -0.1663093   0.0000000), wk =   0.0555556

     Largest allocated arrays     est. size (Mb)     dimensions
     Largest temporary arrays     est. size (Mb)     dimensions

     Check: negative/imaginary core charge=   -0.000004    0.000000

     Initial potential from superposition of free atoms
     Check: negative starting charge=   -0.011681

     starting charge  155.99618, renormalised to  165.00000

[...]

     *
     * You are using vdW-DF for exchange-correlation in this calculation.
     * Please cite the following three references that made this development
     * possible:
     *
     *   M. Dion, H. Rydberg, E. Schroder, D. C. Langreth, and
     *   B. I. Lundqvist, Phys. Rev. Lett. 92, 246401 (2004).
     *
     *   T. Thonhauser, V. R. Cooper, S. Li, A. Puzder, P. Hyldgaard, and
     *   D. C. Langreth, Phys. Rev. B 76, 125112 (2007).
     *
     *   G. Roman-Perez and J. M. Soler, Phys. Rev. Lett. 103, 096102 (2009).
     *
     *
     * If you are using vdW-DF2, please also cite:
     *
     *   K. Lee, E. D. Murray, L. Kong, B. I. Lundqvist, and
     *   D. C. Langreth, Phys. Rev. B 82, 081101(R) (2010).
     *
     *
     * If you are calculating the stress with vdW-DF, please also cite:
     *
     *   R. Sabatini, E. Kucukbenli, B. Kolb, T. Thonhauser, and
     *   S. de Gironcoli, J. Phys.: Condens. Matter 24, 424209 (2012).
     *

     Carrying out vdW-DF run using the following parameters:

     Nqs =      20    Nr_points =    1024   r_max =   100.000
     q_mesh =
               0.00001000     0.04494208     0.09755937     0.15916263
               0.23128650     0.31572767     0.41458969     0.53033537
               0.66584808     0.82450364     1.01025438     1.22772762
               1.48234092     1.78043706     2.12944203     2.53805004
               3.01644009     3.57652955     4.23227104     5.00000000

     Gradients computed in reciprocal space

[...]

     Starting wfc are  120 randomized atomic wfcs

     Self-consistent Calculation

[...]

     total energy              =   -2023.33258941 Ry
     Harris-Foulkes estimate   =   -2023.33259004 Ry
     estimated scf accuracy    <       0.00000171 Ry

     iteration # 28     ecut=    36.75 Ry     beta=0.10
     Davidson diagonalization with overlap
     ethr =  7.33E-10,  avg # of iterations =  2.0

[...]

     negative rho (up, down):  1.243E-02 0.000E+00

     Adding external electric field

     Computed dipole along edir(3) :
        Dipole                0.0203 Ry au,          0.0516 Debye
        Dipole field          0.0001 Ry au

        Potential amp.       -0.0059 Ry
        Total length         44.6834 bohr

     End of self-consistent calculation

[...]

          k = 0.0640-0.0000 0.0000 ( 14461 PWs)   bands (ev):

[...]

          k =-0.0960-0.1663 0.0000 ( 14410 PWs)   bands (ev):

   -70.5797 -70.5551 -70.5285 -70.4181 -70.4162 -70.3951 -70.3879 -70.3725
   -70.3675 -63.1499 -63.0581 -63.0572 -42.0973 -42.0208 -41.9865 -41.9459
   -41.9216 -41.9144 -41.8778 -41.8605 -41.8601 -41.8494 -41.7647 -41.7532
   -41.7125 -41.7089 -41.6912 -41.6887 -41.6855 -41.6790 -41.6736 -41.6568
   -41.6392 -41.6220 -41.6084 -41.6049 -41.5882 -41.4928 -41.4898 -37.0863
   -36.9496 -36.9006 -36.8873 -36.8753 -36.8716 -36.8618 -36.8365 -36.8227
    -3.6568  -3.6058  -2.2964  -2.2740  -1.6649  -1.6599  -1.6110  -1.5700
    -1.4075  -1.3905  -0.9461  -0.9393  -0.7952  -0.7179  -0.6965  -0.6381
    -0.3484  -0.2563  -0.2496  -0.1842  -0.1430  -0.1372   0.0740   0.2550
     0.3038   0.3777   0.4321   0.4612   0.4952   0.5122   0.6526   0.6548
     0.6699   0.8810   0.9063   0.9186   1.0031   1.1814   1.3375   1.3778
     1.6255   1.7385   1.8031   1.8516   1.9317   2.0306   2.0767   2.1924
     2.2177   2.3295   2.3863   2.4224   2.4915   2.5663   2.5749   2.7287
     2.8472   2.9348   3.0422   3.1004   3.3091   3.4493   3.5330   3.7979

     the Fermi energy is     1.0833 ev

!    total energy              =   -2023.33258681 Ry
     Harris-Foulkes estimate   =   -2023.33258977 Ry
     estimated scf accuracy    <       0.00000022 Ry

     The total energy is the sum of the following terms:

     one-electron contribution =  -18114.49587353 Ry
     hartree contribution      =    9046.96793134 Ry
     xc contribution           =    -270.29741387 Ry
     ewald contribution        =    7314.63588847 Ry
     electric field correction =       0.00000135 Ry
     smearing contrib. (-TS)   =      -0.14312056 Ry

     convergence has been achieved in  28 iterations

 BEEF-vdW xc energy contributions
           1 :   -233.821585201299
           2 :    210.382277285716
           3 :   -171.330945374202
           4 :    128.568712855113
           5 :   -92.8300295322416
           6 :    69.6834197253223
           7 :   -58.5355712085281
           8 :    54.5984115905289
           9 :   -52.2981577503392
          10 :    48.1470000795857
          11 :   -41.7791621672207
          12 :    35.0631829888644
          13 :   -30.2295224168056
          14 :    28.2666567834091
          15 :   -28.4388591225954
          16 :    28.9804108943628
          17 :   -28.3377970560732
          18 :    26.1037461517192
          19 :   -23.1012686249523
          20 :    20.6693532932491
          21 :   -19.7029244426654
          22 :    20.0926444561288
          23 :   -20.8869728420096
          24 :    20.9937311553745
          25 :   -19.9085318786795
          26 :    17.9885100130577
          27 :   -16.1362816424634
          28 :    15.1552516133841
          29 :   -15.2286722211979
          30 :    15.8508213273133
          31 :   -23.3041409313960
          32 :   -16.7595067056093

     Forces acting on atoms (Ry/au):

     negative rho (up, down):  1.243E-02 0.000E+00
     atom    1 type  1   force =    -0.00000016   -0.00839297    0.00384382
     atom    2 type  1   force =    -0.00726232    0.00419360    0.00383811
     atom    3 type  1   force =     0.00726048    0.00419295    0.00383676
     atom    4 type  2   force =    -0.00000096    0.00000073   -0.01388895
     atom    5 type  1   force =    -0.00000031    0.01139648    0.00430952
     atom    6 type  1   force =     0.00986683   -0.00569751    0.00430688
     atom    7 type  1   force =    -0.00986839   -0.00569754    0.00430759
     atom    8 type  2   force =    -0.00000338   -0.00000172   -0.00748688
     atom    9 type  1   force =     0.00000002    0.00072133   -0.00093914
     atom   10 type  1   force =     0.00062670   -0.00035940   -0.00093604
     atom   11 type  1   force =    -0.00062012   -0.00035583   -0.00093260
     atom   12 type  2   force =     0.00000160   -0.00000011   -0.00025906

     Total force =     0.030882     Total SCF correction =     0.002889

     entering subroutine stress ...

     negative rho (up, down):  1.243E-02 0.000E+00
          total   stress  (Ry/bohr**3)                   (kbar)     P=  -26.48
  -0.00026563   0.00000000   0.00000000        -39.08      0.00      0.00
   0.00000000  -0.00026563  -0.00000000          0.00    -39.08     -0.00
   0.00000000  -0.00000000  -0.00000869          0.00     -0.00     -1.28

 !ASE

     Writing output data file calc.save

     General routines

     Parallel routines

   This run was terminated on:  16:48:16  25Dec2018

   JOB DONE.
Job  /afs/slac/g/suncat/bin/suncat-tsmpirun -x LD_LIBRARY_PATH -wdir /scratch/qe109543_4izf1 pw.x -in pw.inp

TID   HOST_NAME   COMMAND_LINE            STATUS            TERMINATION_TIME
00000 suncat0042 pw.x -in pw.inp   Done                     12/25/2018 16:48:16
00001 suncat0042 pw.x -in pw.inp   Done                     12/25/2018 16:48:16
00002 suncat0042 pw.x -in pw.inp   Done                     12/25/2018 16:48:16
00003 suncat0042 pw.x -in pw.inp   Done                     12/25/2018 16:48:16
00004 suncat0042 pw.x -in pw.inp   Done                     12/25/2018 16:48:16
00005 suncat0042 pw.x -in pw.inp   Done                     12/25/2018 16:48:16
00006 suncat0042 pw.x -in pw.inp   Done                     12/25/2018 16:48:16
00007 suncat0042 pw.x -in pw.inp   Done                     12/25/2018 16:48:16
00008 suncat0020 pw.x -in pw.inp   Done                     12/25/2018 16:48:16
00009 suncat0020 pw.x -in pw.inp   Done                     12/25/2018 16:48:16
00010 suncat0020 pw.x -in pw.inp   Done                     12/25/2018 16:48:16
00011 suncat0020 pw.x -in pw.inp   Done                     12/25/2018 16:48:16
00012 suncat0020 pw.x -in pw.inp   Done                     12/25/2018 16:48:16
00013 suncat0020 pw.x -in pw.inp   Done                     12/25/2018 16:48:16
00014 suncat0020 pw.x -in pw.inp   Done                     12/25/2018 16:48:16
00015 suncat0020 pw.x -in pw.inp   Done                     12/25/2018 16:48:16
00016 suncat0196 pw.x -in pw.inp   Done                     12/25/2018 16:48:16
00017 suncat0196 pw.x -in pw.inp   Done                     12/25/2018 16:48:16
00018 suncat0196 pw.x -in pw.inp   Done                     12/25/2018 16:48:16
00019 suncat0196 pw.x -in pw.inp   Done                     12/25/2018 16:48:16
00020 suncat0196 pw.x -in pw.inp   Done                     12/25/2018 16:48:16
00021 suncat0196 pw.x -in pw.inp   Done                     12/25/2018 16:48:16
00022 suncat0196 pw.x -in pw.inp   Done                     12/25/2018 16:48:16
00023 suncat0196 pw.x -in pw.inp   Done                     12/25/2018 16:48:16
00024 suncat0194 pw.x -in pw.inp   Done                     12/25/2018 16:48:16
00025 suncat0194 pw.x -in pw.inp   Done                     12/25/2018 16:48:16
00026 suncat0194 pw.x -in pw.inp   Done                     12/25/2018 16:48:16
00027 suncat0194 pw.x -in pw.inp   Done                     12/25/2018 16:48:16
00028 suncat0194 pw.x -in pw.inp   Done                     12/25/2018 16:48:16
00029 suncat0194 pw.x -in pw.inp   Done                     12/25/2018 16:48:16
00030 suncat0194 pw.x -in pw.inp   Done                     12/25/2018 16:48:16
00031 suncat0194 pw.x -in pw.inp   Done                     12/25/2018 16:48:16
00032 suncat0121 pw.x -in pw.inp   Done                     12/25/2018 16:48:16
00033 suncat0121 pw.x -in pw.inp   Done                     12/25/2018 16:48:16
00034 suncat0121 pw.x -in pw.inp   Done                     12/25/2018 16:48:16
00035 suncat0121 pw.x -in pw.inp   Done                     12/25/2018 16:48:16
00036 suncat0121 pw.x -in pw.inp   Done                     12/25/2018 16:48:16
00037 suncat0121 pw.x -in pw.inp   Done                     12/25/2018 16:48:16
00038 suncat0121 pw.x -in pw.inp   Done                     12/25/2018 16:48:16
00039 suncat0121 pw.x -in pw.inp   Done                     12/25/2018 16:48:16
00040 suncat0115 pw.x -in pw.inp   Done                     12/25/2018 16:48:16
00041 suncat0115 pw.x -in pw.inp   Done                     12/25/2018 16:48:16
00042 suncat0115 pw.x -in pw.inp   Done                     12/25/2018 16:48:16
00043 suncat0115 pw.x -in pw.inp   Done                     12/25/2018 16:48:16
00044 suncat0115 pw.x -in pw.inp   Done                     12/25/2018 16:48:16
00045 suncat0115 pw.x -in pw.inp   Done                     12/25/2018 16:48:16
00046 suncat0115 pw.x -in pw.inp   Done                     12/25/2018 16:48:16
00047 suncat0115 pw.x -in pw.inp   Done                     12/25/2018 16:48:16
00048 suncat0228 pw.x -in pw.inp   Done                     12/25/2018 16:48:16
00049 suncat0228 pw.x -in pw.inp   Done                     12/25/2018 16:48:16
00050 suncat0228 pw.x -in pw.inp   Done                     12/25/2018 16:48:16
00051 suncat0228 pw.x -in pw.inp   Done                     12/25/2018 16:48:16
00052 suncat0228 pw.x -in pw.inp   Done                     12/25/2018 16:48:16
00053 suncat0228 pw.x -in pw.inp   Done                     12/25/2018 16:48:16
00054 suncat0228 pw.x -in pw.inp   Done                     12/25/2018 16:48:16
00055 suncat0228 pw.x -in pw.inp   Done                     12/25/2018 16:48:16
00056 suncat0227 pw.x -in pw.inp   Done                     12/25/2018 16:48:16
00057 suncat0227 pw.x -in pw.inp   Done                     12/25/2018 16:48:16
00058 suncat0227 pw.x -in pw.inp   Done                     12/25/2018 16:48:16
00059 suncat0227 pw.x -in pw.inp   Done                     12/25/2018 16:48:16
00060 suncat0227 pw.x -in pw.inp   Done                     12/25/2018 16:48:16
00061 suncat0227 pw.x -in pw.inp   Done                     12/25/2018 16:48:16
00062 suncat0227 pw.x -in pw.inp   Done                     12/25/2018 16:48:16
00063 suncat0227 pw.x -in pw.inp   Done                     12/25/2018 16:48:16