     Program PWSCF v.5.1rc2 (svn rev. 11289) starts on 27Dec2018 at 14:38:43

     Current dimensions of program PWSCF are:
     Max number of different atomic species (ntypx) = 10
     Max number of k-points (npk) =  40000
     Max angular momentum in pseudopotentials (lmaxx) =  3
     Presently stress not available with electric field

     IMPORTANT: XC functional enforced from input :
     Exchange-correlation      = BEEF-VDW ( 1  4 27 13 2)
     Any further DFT definition will be discarded
     Please, verify this is what you really want

     Subspace diagonalization in iterative solution of the eigenvalue problem:
     a serial algorithm will be used

     bravais-lattice index     =            0
     lattice parameter (alat)  =       1.8897  a.u.
     unit-cell volume          =    4780.7501 (a.u.)^3
     number of atoms/cell      =           12
     number of atomic types    =            2
     number of electrons       =       177.00
     number of Kohn-Sham states=          118
     kinetic-energy cutoff     =      36.7493  Ry
     charge density cutoff     =     367.4932  Ry
     convergence threshold     =      1.0E-06
     mixing beta               =       0.1000
     number of iterations used =           10  plain     mixing
     Exchange-correlation      = BEEF-VDW ( 1  4 27 13 2)
     nstep                     =           50

     celldm(1)=   1.889726  celldm(2)=   0.000000  celldm(3)=   0.000000
     celldm(4)=   0.000000  celldm(5)=   0.000000  celldm(6)=   0.000000

     crystal axes: (cart. coord. in units of alat)
               a(1) = (   5.754999   0.000000   0.000000 )
               a(2) = (  -2.877500   4.983976   0.000000 )
               a(3) = (   0.000000   0.000000  24.698937 )

     reciprocal axes: (cart. coord. in units 2 pi/alat)
               b(1) = (  0.173762  0.100322  0.000000 )
               b(2) = (  0.000000  0.200643  0.000000 )
               b(3) = (  0.000000  0.000000  0.040488 )

     PseudoPot. # 1 for Os read from file:
     /afs/slac.stanford.edu/u/if/mamunm/psp/gbrv1.5pbe/Os.UPF
     MD5 check sum: a3fb40a04f0c37c25c34bbc47164c9a8
     Pseudo is Ultrasoft + core correction, Zval = 16.0
     Generated by new atomic code, or converted to UPF format
     Using radial grid of  983 points,  8 beta functions with:
                l(1) =   0
                l(2) =   0
                l(3) =   1
                l(4) =   1
                l(5) =   2
                l(6) =   2
                l(7) =   3
                l(8) =   3
     Q(r) pseudized with  8 coefficients,  rinner =    1.150   1.150   1.150
                                                       1.150   1.150   1.150
                                                       1.150

     PseudoPot. # 2 for Y  read from file:
     /afs/slac.stanford.edu/u/if/mamunm/psp/gbrv1.5pbe/Y.UPF
     MD5 check sum: d034151ed7554c50b6e82763ed42c788
     Pseudo is Ultrasoft + core correction, Zval = 11.0
     Generated by new atomic code, or converted to UPF format
     Using radial grid of  885 points,  6 beta functions with:
                l(1) =   0
                l(2) =   0
                l(3) =   1
                l(4) =   1
                l(5) =   2
                l(6) =   2
     Q(r) pseudized with  8 coefficients,  rinner =    1.200   1.200   1.200
                                                       1.200   1.200

     vdW kernel table read from file vdW_kernel_table
     MD5 check sum: 095c7af220d748ca6e76c0b4c6cfb241

     atomic species   valence    mass     pseudopotential
        Os1           16.00   190.23000     Os( 1.00)
        Y1            11.00    88.90584     Y ( 1.00)

     No symmetry found

   Cartesian axes

     site n.     atom                  positions (alat units)
         1           Os1 tau(   1) = (   0.0000000   0.0000000  10.0000000  )
         2           Os1 tau(   2) = (  -1.4387498   2.4919878  10.0000000  )
         3           Os1 tau(   3) = (   1.4387498   2.4919878  10.0000000  )
         4           Y1  tau(   4) = (   2.8774996   0.0000000  10.0000000  )
         5           Os1 tau(   5) = (   2.8774996   1.6613252  12.3494686  )
         6           Os1 tau(   6) = (   1.4387498   4.1533130  12.3494686  )
         7           Os1 tau(   7) = (  -1.4387498   4.1533130  12.3494686  )
         8           Y1  tau(   8) = (   0.0000000   1.6613252  12.3494686  )
         9           Os1 tau(   9) = (  -0.0000000   3.3226504  14.6989372  )
        10           Os1 tau(  10) = (   1.4387498   0.8306626  14.6989372  )
        11           Os1 tau(  11) = (   4.3162495   0.8306626  14.6989372  )
        12           Y1  tau(  12) = (   2.8774996   3.3226504  14.6989372  )

     number of k points=    20  Fermi-Dirac smearing, width (Ry)=  0.0110
                       cart. coord. in units 2pi/alat
        k(    1) = (   0.0000000   0.0000000   0.0000000), wk =   0.0555556
        k(    2) = (   0.0000000   0.0334405   0.0000000), wk =   0.1111111
        k(    3) = (   0.0000000   0.0668810   0.0000000), wk =   0.1111111
        k(    4) = (   0.0000000  -0.1003215   0.0000000), wk =   0.0555556
        k(    5) = (   0.0289603   0.0167203   0.0000000), wk =   0.1111111
        k(    6) = (   0.0289603   0.0501608   0.0000000), wk =   0.1111111
        k(    7) = (   0.0289603   0.0836013   0.0000000), wk =   0.1111111
        k(    8) = (   0.0289603  -0.0836013   0.0000000), wk =   0.1111111
        k(    9) = (   0.0289603  -0.0501608   0.0000000), wk =   0.1111111
        k(   10) = (   0.0289603  -0.0167203   0.0000000), wk =   0.1111111
        k(   11) = (   0.0579207   0.0334405   0.0000000), wk =   0.1111111
        k(   12) = (   0.0579207   0.0668810   0.0000000), wk =   0.1111111
        k(   13) = (   0.0579207   0.1003215   0.0000000), wk =   0.1111111
        k(   14) = (   0.0579207  -0.0668810   0.0000000), wk =   0.1111111
        k(   15) = (   0.0579207  -0.0334405   0.0000000), wk =   0.1111111
        k(   16) = (   0.0579207   0.0000000   0.0000000), wk =   0.1111111
        k(   17) = (  -0.0868810  -0.0501608   0.0000000), wk =   0.0555556
        k(   18) = (  -0.0868810  -0.0167203   0.0000000), wk =   0.1111111
        k(   19) = (  -0.0868810   0.0167203   0.0000000), wk =   0.1111111
        k(   20) = (  -0.0868810  -0.1504823   0.0000000), wk =   0.0555556

     Largest allocated arrays     est. size (Mb)     dimensions
     Largest temporary arrays     est. size (Mb)     dimensions

     Initial potential from superposition of free atoms
     Check: negative starting charge=   -1.110724

     starting charge  172.48626, renormalised to  177.00000

     negative rho (up, down):  1.140E+00 0.000E+00

     *
     * You are using vdW-DF for exchange-correlation in this calculation.
     * Please cite the following three references that made this development
     * possible:
     *
     *   M. Dion, H. Rydberg, E. Schroder, D. C. Langreth, and
     *   B. I. Lundqvist, Phys. Rev. Lett. 92, 246401 (2004).
     *
     *   T. Thonhauser, V. R. Cooper, S. Li, A. Puzder, P. Hyldgaard, and
     *   D. C. Langreth, Phys. Rev. B 76, 125112 (2007).
     *
     *   G. Roman-Perez and J. M. Soler, Phys. Rev. Lett. 103, 096102 (2009).
     *
     *
     * If you are using vdW-DF2, please also cite:
     *
     *   K. Lee, E. D. Murray, L. Kong, B. I. Lundqvist, and
     *   D. C. Langreth, Phys. Rev. B 82, 081101(R) (2010).
     *
     *
     * If you are calculating the stress with vdW-DF, please also cite:
     *
     *   R. Sabatini, E. Kucukbenli, B. Kolb, T. Thonhauser, and
     *   S. de Gironcoli, J. Phys.: Condens. Matter 24, 424209 (2012).
     *

     Carrying out vdW-DF run using the following parameters:

     Nqs =      20    Nr_points =    1024   r_max =   100.000
     q_mesh =
               0.00001000     0.04494208     0.09755937     0.15916263
               0.23128650     0.31572767     0.41458969     0.53033537
               0.66584808     0.82450364     1.01025438     1.22772762
               1.48234092     1.78043706     2.12944203     2.53805004
               3.01644009     3.57652955     4.23227104     5.00000000

     Gradients computed in reciprocal space

     Adding external electric field

     Computed dipole along edir(3) :
        Dipole                0.0000 Ry au,          0.0000 Debye
        Dipole field          0.0000 Ry au

        Potential amp.       -0.0000 Ry
        Total length         45.5074 bohr

     Starting wfc are  156 randomized atomic wfcs

     Self-consistent Calculation

     iteration #  1     ecut=    36.75 Ry     beta=0.10
     Davidson diagonalization with overlap
     ethr =  1.00E-02,  avg # of iterations =  3.0

[...]

     total energy              =   -2078.91930572 Ry
     Harris-Foulkes estimate   =   -2079.33168688 Ry
     estimated scf accuracy    <       2.58630556 Ry

[...]

     End of self-consistent calculation

          k = 0.0000 0.0000 0.0000 ( 18043 PWs)   bands (ev):

   -83.6771 -83.6562 -83.6562 -83.4327 -83.4323 -83.4120 -83.4120 -83.4119
   -83.4119 -43.2453 -43.0848 -43.0848 -43.0274 -43.0079 -42.9778 -42.9778
   -42.9503 -42.8186 -42.7760 -42.7760 -42.7600 -42.7600 -42.7497 -42.7229
   -42.7229 -42.6975 -42.6975 -42.6952 -42.6696 -42.6696 -42.5481 -42.5481
   -42.5406 -42.5406 -42.5000 -42.4933 -39.1676 -39.1584 -38.3430 -19.3468
   -19.3014 -19.2205 -19.2205 -19.2089 -19.2089 -18.5585 -18.5296 -18.5296
    -4.9065  -3.4040  -2.9538  -2.4527  -2.4527  -2.1855  -2.1855  -2.1130
    -1.6525  -1.5739  -1.5739  -1.5344  -1.5344  -1.3671  -1.1992  -0.4587
    -0.0732  -0.0732   0.2775   0.2775   0.6397   0.6591   0.9125   0.9782
     1.3596   1.3596   1.3687   1.3687   1.5357   1.5357   1.8138   1.8138
     1.9076   2.0371   2.0371   2.4447   2.8723   2.8783   2.8783   2.9448
     2.9448   3.1794   3.1794   3.6581   3.7380   3.7380   3.7672   4.0081
     4.5653   4.7069   4.9759   5.0470   5.0470   5.0506   6.0230   6.3088
     6.3088   6.3238   6.3238   6.4772   6.7216   6.8785   6.8785   7.0257
     7.0257   7.4212   7.4342   7.4342   7.4906   7.5845

[...]

          k =-0.0869-0.0502 0.0000 ( 17948 PWs)   bands (ev):

[...]

     the Fermi energy is     2.4467 ev

!    total energy              =   -2078.84167387 Ry
     Harris-Foulkes estimate   =   -2078.84166945 Ry
     estimated scf accuracy    <       0.00000063 Ry

     The total energy is the sum of the following terms:

     one-electron contribution =  -16076.72524467 Ry
     hartree contribution      =    8027.67230641 Ry
     xc contribution           =    -433.35179128 Ry
     ewald contribution        =    6403.65058091 Ry
     electric field correction =       0.00000000 Ry
     smearing contrib. (-TS)   =      -0.08752524 Ry

     convergence has been achieved in  16 iterations

 BEEF-vdW xc energy contributions
           1 :   -379.222990188867
           2 :    349.088854743565
           3 :   -296.023984141000
           4 :    231.772704831200
           5 :   -168.791604971541
           6 :    116.787036729496
           7 :   -80.6842009003874
           8 :    60.3671223909099
           9 :   -51.9683950567103
          10 :    50.0259044509883
[...]
     Pseudo is Ultrasoft + core correction, Zval = 16.0
     Generated by new atomic code, or converted to UPF format
     Using radial grid of  983 points,  8 beta functions with:
                l(1) =   0
                l(2) =   0
                l(3) =   1
                l(4) =   1
                l(5) =   2
                l(6) =   2
                l(7) =   3
                l(8) =   3
     Q(r) pseudized with  8 coefficients,  rinner =    1.150   1.150   1.150
                                                       1.150   1.150   1.150
                                                       1.150

     PseudoPot. # 2 for Y  read from file:
     /afs/slac.stanford.edu/u/if/mamunm/psp/gbrv1.5pbe/Y.UPF
     MD5 check sum: d034151ed7554c50b6e82763ed42c788
     Pseudo is Ultrasoft + core correction, Zval = 11.0
     Generated by new atomic code, or converted to UPF format
     Using radial grid of  885 points,  6 beta functions with:
                l(1) =   0
                l(2) =   0
                l(3) =   1
                l(4) =   1
                l(5) =   2
                l(6) =   2
     Q(r) pseudized with  8 coefficients,  rinner =    1.200   1.200   1.200
                                                       1.200   1.200

     vdW kernel table read from file vdW_kernel_table
     MD5 check sum: 095c7af220d748ca6e76c0b4c6cfb241

     atomic species   valence    mass     pseudopotential
        Os1           16.00   190.23000     Os( 1.00)
        Y1            11.00    88.90584     Y ( 1.00)

     No symmetry found

   Cartesian axes

     site n.     atom                  positions (alat units)
         1           Os1 tau(   1) = (   0.0000000   0.0000000  10.0000000  )
         2           Os1 tau(   2) = (  -1.4387498   2.4919878  10.0000000  )
         3           Os1 tau(   3) = (   1.4387498   2.4919878  10.0000000  )
         4           Y1  tau(   4) = (   2.8774996   0.0000000  10.0000000  )
         5           Os1 tau(   5) = (   2.8774996   1.6613252  12.3494686  )
         6           Os1 tau(   6) = (   1.4387498   4.1533130  12.3494686  )
         7           Os1 tau(   7) = (  -1.4387498   4.1533130  12.3494686  )
         8           Y1  tau(   8) = (   0.0000000   1.6613252  12.3494686  )
         9           Os1 tau(   9) = (   0.0000039   3.4431436  14.4856488  )
        10           Os1 tau(  10) = (   1.5431009   0.7704150  14.4856453  )
        11           Os1 tau(  11) = (   4.2119265   0.7704333  14.4856577  )
        12           Y1  tau(  12) = (   2.8775159   3.3226579  15.0186927  )

     number of k points=    20  Fermi-Dirac smearing, width (Ry)=  0.0110
                       cart. coord. in units 2pi/alat
        k(    1) = (   0.0000000   0.0000000   0.0000000), wk =   0.0555556
        k(    2) = (   0.0000000   0.0334405   0.0000000), wk =   0.1111111
        k(    3) = (   0.0000000   0.0668810   0.0000000), wk =   0.1111111
        k(    4) = (   0.0000000  -0.1003215   0.0000000), wk =   0.0555556
        k(    5) = (   0.0289603   0.0167203   0.0000000), wk =   0.1111111
        k(    6) = (   0.0289603   0.0501608   0.0000000), wk =   0.1111111
        k(    7) = (   0.0289603   0.0836013   0.0000000), wk =   0.1111111
        k(    8) = (   0.0289603  -0.0836013   0.0000000), wk =   0.1111111
        k(    9) = (   0.0289603  -0.0501608   0.0000000), wk =   0.1111111
        k(   10) = (   0.0289603  -0.0167203   0.0000000), wk =   0.1111111
        k(   11) = (   0.0579207   0.0334405   0.0000000), wk =   0.1111111
        k(   12) = (   0.0579207   0.0668810   0.0000000), wk =   0.1111111
        k(   13) = (   0.0579207   0.1003215   0.0000000), wk =   0.1111111
        k(   14) = (   0.0579207  -0.0668810   0.0000000), wk =   0.1111111
        k(   15) = (   0.0579207  -0.0334405   0.0000000), wk =   0.1111111
        k(   16) = (   0.0579207   0.0000000   0.0000000), wk =   0.1111111
        k(   17) = (  -0.0868810  -0.0501608   0.0000000), wk =   0.0555556
        k(   18) = (  -0.0868810  -0.0167203   0.0000000), wk =   0.1111111
        k(   19) = (  -0.0868810   0.0167203   0.0000000), wk =   0.1111111
        k(   20) = (  -0.0868810  -0.1504823   0.0000000), wk =   0.0555556

     Largest allocated arrays     est. size (Mb)     dimensions
     Largest temporary arrays     est. size (Mb)     dimensions

     Initial potential from superposition of free atoms
     Check: negative starting charge=   -1.115172

     starting charge  172.48626, renormalised to  177.00000

[...]

     *
     * You are using vdW-DF for exchange-correlation in this calculation.
     * Please cite the following three references that made this development
     * possible:
     *
     *   M. Dion, H. Rydberg, E. Schroder, D. C. Langreth, and
     *   B. I. Lundqvist, Phys. Rev. Lett. 92, 246401 (2004).
     *
     *   T. Thonhauser, V. R. Cooper, S. Li, A. Puzder, P. Hyldgaard, and
     *   D. C. Langreth, Phys. Rev. B 76, 125112 (2007).
     *
     *   G. Roman-Perez and J. M. Soler, Phys. Rev. Lett. 103, 096102 (2009).
     *
     *
     * If you are using vdW-DF2, please also cite:
     *
     *   K. Lee, E. D. Murray, L. Kong, B. I. Lundqvist, and
     *   D. C. Langreth, Phys. Rev. B 82, 081101(R) (2010).
     *
     *
     * If you are calculating the stress with vdW-DF, please also cite:
     *
     *   R. Sabatini, E. Kucukbenli, B. Kolb, T. Thonhauser, and
     *   S. de Gironcoli, J. Phys.: Condens. Matter 24, 424209 (2012).
     *

     Carrying out vdW-DF run using the following parameters:

     Nqs =      20    Nr_points =    1024   r_max =   100.000
     q_mesh =
               0.00001000     0.04494208     0.09755937     0.15916263
               0.23128650     0.31572767     0.41458969     0.53033537
               0.66584808     0.82450364     1.01025438     1.22772762
               1.48234092     1.78043706     2.12944203     2.53805004
               3.01644009     3.57652955     4.23227104     5.00000000

     Gradients computed in reciprocal space

[...]

     Starting wfc are  156 randomized atomic wfcs

     Self-consistent Calculation

[...]

     total energy              =   -2078.90127035 Ry
     Harris-Foulkes estimate   =   -2078.90126837 Ry
     estimated scf accuracy    <       0.00000362 Ry

     iteration # 16     ecut=    36.75 Ry     beta=0.10
     Davidson diagonalization with overlap
     ethr =  2.05E-09,  avg # of iterations =  2.0

[...]

     negative rho (up, down):  1.097E+00 0.000E+00

     Adding external electric field

     Computed dipole along edir(3) :
        Dipole                0.2402 Ry au,          0.6106 Debye
        Dipole field          0.0006 Ry au

        Potential amp.       -0.0575 Ry
        Total length         45.5074 bohr

     End of self-consistent calculation

[...]

          k = 0.0579 0.0000 0.0000 ( 18003 PWs)   bands (ev):

[...]

          k =-0.0869-0.1505 0.0000 ( 17948 PWs)   bands (ev):

   -83.5341 -83.5267 -83.5194 -83.2821 -83.2569 -83.2537 -83.0827 -83.0759
   -83.0690 -43.1254 -43.0400 -42.9813 -42.8811 -42.8119 -42.8094 -42.7892
   -42.7573 -42.7409 -42.6303 -42.6132 -42.5608 -42.5600 -42.5260 -42.5126
   -42.4971 -42.4505 -42.4205 -42.4083 -42.3865 -42.3679 -42.3523 -42.3464
   -42.3168 -42.2912 -42.2522 -42.1813 -39.6304 -38.8042 -37.9822 -19.7578
   -19.6424 -19.6146 -18.9866 -18.9393 -18.8951 -18.2939 -18.2494 -18.2438
    -3.5123  -2.9957  -1.7678  -1.5923  -1.5916  -1.5054  -1.3767  -1.1394
    -1.1255  -1.0215  -0.8070  -0.5713  -0.5625  -0.3786  -0.2638  -0.1131
    -0.0149   0.1022   0.1798   0.3588   0.5405   0.6017   0.8003   0.8200
     0.8774   0.9629   1.0203   1.2394   1.2448   1.3628   1.4495   1.4742
     1.5248   1.7531   1.9300   2.1648   2.1989   2.2136   2.3649   2.3953
     2.5417   2.7597   2.8058   2.9762   3.0387   3.0693   3.2910   3.5158
     3.8279   3.8875   4.1049   4.3015   4.8258   4.8289   5.5186   5.8617
     6.1719   6.2775   6.5999   6.6188   6.6443   6.7600   6.8812   7.1253
     7.1769   7.2291   7.4366   7.7762   7.8237   8.1036

     the Fermi energy is     2.7668 ev

!    total energy              =   -2078.90127537 Ry
     Harris-Foulkes estimate   =   -2078.90127385 Ry
     estimated scf accuracy    <       0.00000100 Ry

     The total energy is the sum of the following terms:

     one-electron contribution =  -16334.84722782 Ry
     hartree contribution      =    8157.78701382 Ry
     xc contribution           =    -433.53776534 Ry
     ewald contribution        =    6531.78471642 Ry
     electric field correction =       0.00015167 Ry
     smearing contrib. (-TS)   =      -0.08816412 Ry

     convergence has been achieved in  16 iterations

 BEEF-vdW xc energy contributions
           1 :   -379.608364219044
           2 :    349.589302231234
           3 :   -296.696530071742
           4 :    232.576649670436
           5 :   -169.588328572600
           6 :    117.399028902673
           7 :   -80.9918795850125
           8 :    60.3786656705382
           9 :   -51.8168334365775
          10 :    49.9022887301763
          11 :   -49.6903694675804
          12 :    48.0777072825941
          13 :   -44.1283037795632
          14 :    38.5201218768134
          15 :   -32.5934308028067
          16 :    27.4808544476198
          17 :   -23.6364251659923
          18 :    20.8325143404013
          19 :   -18.4889410524061
          20 :    16.0859134534933
          21 :   -13.4463691518199
          22 :    10.7818326362936
          23 :   -8.53050602240398
          24 :    7.09759293914794
          25 :   -6.63457528707778
          26 :    6.95197112320113
          27 :   -7.59240503309690
          28 :    8.01714874863700
          29 :   -7.82079884446796
          30 :    6.88116403731794
          31 :   -35.9738858182922
          32 :   -26.8093126294575

     Forces acting on atoms (Ry/au):

     negative rho (up, down):  1.097E+00 0.000E+00
     atom    1 type  1   force =    -0.00000536   -0.02269344    0.02740791
     atom    2 type  1   force =    -0.01965637    0.01134181    0.02740337
     atom    3 type  1   force =     0.01965367    0.01134909    0.02741074
     atom    4 type  2   force =     0.00000515    0.00000211   -0.06092642
     atom    5 type  1   force =     0.00000502    0.02960038    0.00804662
     atom    6 type  1   force =     0.02562427   -0.01480230    0.00805752
     atom    7 type  1   force =    -0.02562758   -0.01481003    0.00805084
     atom    8 type  2   force =    -0.00000445    0.00001200   -0.04614844
     atom    9 type  1   force =     0.00001240    0.00009890   -0.00019481
     atom   10 type  1   force =     0.00009390   -0.00004057   -0.00019920
     atom   11 type  1   force =    -0.00009076   -0.00005299   -0.00020002
     atom   12 type  2   force =    -0.00000988   -0.00000495    0.00129187

     Total force =     0.111645     Total SCF correction =     0.004417

     entering subroutine stress ...

     negative rho (up, down):  1.097E+00 0.000E+00
          total   stress  (Ry/bohr**3)                   (kbar)     P=  -16.46
  -0.00015429   0.00000000  -0.00000000        -22.70      0.00     -0.00
   0.00000000  -0.00015429  -0.00000000          0.00    -22.70     -0.00
  -0.00000000  -0.00000000  -0.00002714         -0.00     -0.00     -3.99

 !ASE

     Writing output data file calc.save

     General routines

     Parallel routines

   This run was terminated on:  16: 0:38  27Dec2018

   JOB DONE.
Job  /afs/slac/g/suncat/bin/suncat-tsmpirun -x LD_LIBRARY_PATH -wdir /scratch/qe110364_7A3ez pw.x -in pw.inp

TID   HOST_NAME   COMMAND_LINE            STATUS            TERMINATION_TIME
00000 suncat0108 pw.x -in pw.inp   Done                     12/27/2018 16:00:38
00001 suncat0108 pw.x -in pw.inp   Done                     12/27/2018 16:00:38
00002 suncat0108 pw.x -in pw.inp   Done                     12/27/2018 16:00:38
00003 suncat0108 pw.x -in pw.inp   Done                     12/27/2018 16:00:38
00004 suncat0108 pw.x -in pw.inp   Done                     12/27/2018 16:00:38
00005 suncat0108 pw.x -in pw.inp   Done                     12/27/2018 16:00:38
00006 suncat0108 pw.x -in pw.inp   Done                     12/27/2018 16:00:38
00007 suncat0108 pw.x -in pw.inp   Done                     12/27/2018 16:00:38
00008 suncat0107 pw.x -in pw.inp   Done                     12/27/2018 16:00:38
00009 suncat0107 pw.x -in pw.inp   Done                     12/27/2018 16:00:38
00010 suncat0107 pw.x -in pw.inp   Done                     12/27/2018 16:00:38
00011 suncat0107 pw.x -in pw.inp   Done                     12/27/2018 16:00:38
00012 suncat0107 pw.x -in pw.inp   Done                     12/27/2018 16:00:38
00013 suncat0107 pw.x -in pw.inp   Done                     12/27/2018 16:00:38
00014 suncat0107 pw.x -in pw.inp   Done                     12/27/2018 16:00:38
00015 suncat0107 pw.x -in pw.inp   Done                     12/27/2018 16:00:38
00016 suncat0106 pw.x -in pw.inp   Done                     12/27/2018 16:00:38
00017 suncat0106 pw.x -in pw.inp   Done                     12/27/2018 16:00:38
00018 suncat0106 pw.x -in pw.inp   Done                     12/27/2018 16:00:38
00019 suncat0106 pw.x -in pw.inp   Done                     12/27/2018 16:00:38
00020 suncat0106 pw.x -in pw.inp   Done                     12/27/2018 16:00:38
00021 suncat0106 pw.x -in pw.inp   Done                     12/27/2018 16:00:38
00022 suncat0106 pw.x -in pw.inp   Done                     12/27/2018 16:00:38
00023 suncat0106 pw.x -in pw.inp   Done                     12/27/2018 16:00:38
00024 suncat0105 pw.x -in pw.inp   Done                     12/27/2018 16:00:38
00025 suncat0105 pw.x -in pw.inp   Done                     12/27/2018 16:00:38
00026 suncat0105 pw.x -in pw.inp   Done                     12/27/2018 16:00:38
00027 suncat0105 pw.x -in pw.inp   Done                     12/27/2018 16:00:38
00028 suncat0105 pw.x -in pw.inp   Done                     12/27/2018 16:00:38
00029 suncat0105 pw.x -in pw.inp   Done                     12/27/2018 16:00:38
00030 suncat0105 pw.x -in pw.inp   Done                     12/27/2018 16:00:38
00031 suncat0105 pw.x -in pw.inp   Done                     12/27/2018 16:00:38
00032 suncat0238 pw.x -in pw.inp   Done                     12/27/2018 16:00:38
00033 suncat0238 pw.x -in pw.inp   Done                     12/27/2018 16:00:38
00034 suncat0238 pw.x -in pw.inp   Done                     12/27/2018 16:00:38
00035 suncat0238 pw.x -in pw.inp   Done                     12/27/2018 16:00:38
00036 suncat0238 pw.x -in pw.inp   Done                     12/27/2018 16:00:38
00037 suncat0238 pw.x -in pw.inp   Done                     12/27/2018 16:00:38
00038 suncat0238 pw.x -in pw.inp   Done                     12/27/2018 16:00:38
00039 suncat0238 pw.x -in pw.inp   Done                     12/27/2018 16:00:38
00040 suncat0237 pw.x -in pw.inp   Done                     12/27/2018 16:00:38
00041 suncat0237 pw.x -in pw.inp   Done                     12/27/2018 16:00:38
00042 suncat0237 pw.x -in pw.inp   Done                     12/27/2018 16:00:38
00043 suncat0237 pw.x -in pw.inp   Done                     12/27/2018 16:00:38
00044 suncat0237 pw.x -in pw.inp   Done                     12/27/2018 16:00:38
00045 suncat0237 pw.x -in pw.inp   Done                     12/27/2018 16:00:38
00046 suncat0237 pw.x -in pw.inp   Done                     12/27/2018 16:00:38
00047 suncat0237 pw.x -in pw.inp   Done                     12/27/2018 16:00:38
00048 suncat0236 pw.x -in pw.inp   Done                     12/27/2018 16:00:38
00049 suncat0236 pw.x -in pw.inp   Done                     12/27/2018 16:00:38
00050 suncat0236 pw.x -in pw.inp   Done                     12/27/2018 16:00:38
00051 suncat0236 pw.x -in pw.inp   Done                     12/27/2018 16:00:38
00052 suncat0236 pw.x -in pw.inp   Done                     12/27/2018 16:00:38
00053 suncat0236 pw.x -in pw.inp   Done                     12/27/2018 16:00:38
00054 suncat0236 pw.x -in pw.inp   Done                     12/27/2018 16:00:38
00055 suncat0236 pw.x -in pw.inp   Done                     12/27/2018 16:00:38
00056 suncat0235 pw.x -in pw.inp   Done                     12/27/2018 16:00:38
00057 suncat0235 pw.x -in pw.inp   Done                     12/27/2018 16:00:38
00058 suncat0235 pw.x -in pw.inp   Done                     12/27/2018 16:00:38
00059 suncat0235 pw.x -in pw.inp   Done                     12/27/2018 16:00:38
00060 suncat0235 pw.x -in pw.inp   Done                     12/27/2018 16:00:38
00061 suncat0235 pw.x -in pw.inp   Done                     12/27/2018 16:00:38
00062 suncat0235 pw.x -in pw.inp   Done                     12/27/2018 16:00:38
00063 suncat0235 pw.x -in pw.inp   Done                     12/27/2018 16:00:38