     Program PWSCF v.5.1rc2 (svn rev. 11289) starts on 27Dec2018 at 12:22:55

     Current dimensions of program PWSCF are:
     Max number of different atomic species (ntypx) = 10
     Max number of k-points (npk) =  40000
     Max angular momentum in pseudopotentials (lmaxx) =  3
     Presently stress not available with electric field

     IMPORTANT: XC functional enforced from input :
     Exchange-correlation      = BEEF-VDW ( 1  4 27 13 2)
     Any further DFT definition will be discarded
     Please, verify this is what you really want

     Subspace diagonalization in iterative solution of the eigenvalue problem:
     a serial algorithm will be used

     Generating pointlists ...
     new r_m :   0.4125 (alat units)  0.7795 (a.u.) for type    1
     new r_m :   0.4125 (alat units)  0.7795 (a.u.) for type    2

     bravais-lattice index     =            0
     lattice parameter (alat)  =       1.8897  a.u.
     unit-cell volume          =    3792.6390 (a.u.)^3
     number of atoms/cell      =           12
     number of atomic types    =            2
     number of electrons       =       204.00
     number of Kohn-Sham states=          132
     kinetic-energy cutoff     =      36.7493  Ry
     charge density cutoff     =     367.4932  Ry
     convergence threshold     =      1.0E-06
     mixing beta               =       0.1000
     number of iterations used =           10  plain     mixing
     Exchange-correlation      = BEEF-VDW ( 1  4 27 13 2)
     nstep                     =           50

     celldm(1)=   1.889726  celldm(2)=   0.000000  celldm(3)=   0.000000
     celldm(4)=   0.000000  celldm(5)=   0.000000  celldm(6)=   0.000000

     crystal axes: (cart. coord. in units of alat)
               a(1) = (   5.175675   0.000000   0.000000 )
               a(2) = (  -2.587837   4.482266   0.000000 )
               a(3) = (   0.000000   0.000000  24.225921 )

     reciprocal axes: (cart. coord. in units 2 pi/alat)
               b(1) = (  0.193212  0.111551  0.000000 )
               b(2) = (  0.000000  0.223101  0.000000 )
               b(3) = (  0.000000  0.000000  0.041278 )

     PseudoPot. # 1 for Ni read from file:
     /afs/slac.stanford.edu/u/if/mamunm/psp/gbrv1.5pbe/Ni.UPF
     MD5 check sum: 1ee80287db30b12d2bc1f57a5b5d6409
     Pseudo is Ultrasoft + core correction, Zval = 18.0
     Generated by new atomic code, or converted to UPF format
     Using radial grid of  865 points,  6 beta functions with:
                l(1) =   0
                l(2) =   0
                l(3) =   1
                l(4) =   1
                l(5) =   2
                l(6) =   2
     Q(r) pseudized with 10 coefficients,  rinner =    0.980   0.980   0.980
                                                       0.980   0.980

     PseudoPot. # 2 for W  read from file:
     /afs/slac.stanford.edu/u/if/mamunm/psp/gbrv1.5pbe/W.UPF
     MD5 check sum: 9c083fa34c2a2ea0f02f1f893e16e1c8
     Pseudo is Ultrasoft + core correction, Zval = 14.0
     Generated by new atomic code, or converted to UPF format
     Using radial grid of  923 points,  8 beta functions with:
                l(1) =   0
                l(2) =   0
                l(3) =   0
                l(4) =   1
                l(5) =   1
                l(6) =   2
                l(7) =   2
                l(8) =   3
     Q(r) pseudized with  6 coefficients,  rinner =    1.350   1.350   1.350
                                                       1.350   1.350   1.350
                                                       1.350

     vdW kernel table read from file vdW_kernel_table
     MD5 check sum: 095c7af220d748ca6e76c0b4c6cfb241

     atomic species   valence    mass     pseudopotential
        Ni1           18.00    58.69340     Ni( 1.00)
        W1            14.00   183.84000     W ( 1.00)

     Starting magnetic structure
     atomic species   magnetization
        Ni1          0.111
        W1           0.143

     No symmetry found

   Cartesian axes

     site n.     atom                  positions (alat units)
         1           Ni1 tau(   1) = (   0.0000000   0.0000000  10.0000000  )
         2           Ni1 tau(   2) = (  -1.2939187   2.2411330  10.0000000  )
         3           Ni1 tau(   3) = (   1.2939187   2.2411330  10.0000000  )
         4           W1  tau(   4) = (   2.5878375   0.0000000  10.0000000  )
         5           Ni1 tau(   5) = (   2.5878375   1.4940887  12.1129604  )
         6           Ni1 tau(   6) = (   1.2939187   3.7352216  12.1129604  )
         7           Ni1 tau(   7) = (  -1.2939187   3.7352216  12.1129604  )
         8           W1  tau(   8) = (   0.0000000   1.4940887  12.1129604  )
         9           Ni1 tau(   9) = (  -0.0000000   2.9881773  14.2259209  )
        10           Ni1 tau(  10) = (   1.2939187   0.7470443  14.2259209  )
        11           Ni1 tau(  11) = (   3.8817562   0.7470443  14.2259209  )
        12           W1  tau(  12) = (   2.5878375   2.9881773  14.2259209  )

     number of k points=    40  Fermi-Dirac smearing, width (Ry)=  0.0110
                       cart. coord. in units 2pi/alat
        k(    1) = (   0.0000000   0.0000000   0.0000000), wk =   0.0277778
        k(    2) = (   0.0000000   0.0371836   0.0000000), wk =   0.0555556
        k(    3) = (   0.0000000   0.0743671   0.0000000), wk =   0.0555556
        k(    4) = (   0.0000000  -0.1115507   0.0000000), wk =   0.0277778
        k(    5) = (   0.0322019   0.0185918   0.0000000), wk =   0.0555556
        k(    6) = (   0.0322019   0.0557754   0.0000000), wk =   0.0555556
        k(    7) = (   0.0322019   0.0929589   0.0000000), wk =   0.0555556
        k(    8) = (   0.0322019  -0.0929589   0.0000000), wk =   0.0555556
        k(    9) = (   0.0322019  -0.0557754   0.0000000), wk =   0.0555556
        k(   10) = (   0.0322019  -0.0185918   0.0000000), wk =   0.0555556
        k(   11) = (   0.0644038   0.0371836   0.0000000), wk =   0.0555556
        k(   12) = (   0.0644038   0.0743671   0.0000000), wk =   0.0555556
        k(   13) = (   0.0644038   0.1115507   0.0000000), wk =   0.0555556
        k(   14) = (   0.0644038  -0.0743671   0.0000000), wk =   0.0555556
        k(   15) = (   0.0644038  -0.0371836   0.0000000), wk =   0.0555556
        k(   16) = (   0.0644038   0.0000000   0.0000000), wk =   0.0555556
        k(   17) = (  -0.0966058  -0.0557754   0.0000000), wk =   0.0277778
        k(   18) = (  -0.0966058  -0.0185918   0.0000000), wk =   0.0555556
        k(   19) = (  -0.0966058   0.0185918   0.0000000), wk =   0.0555556
        k(   20) = (  -0.0966058  -0.1673261   0.0000000), wk =   0.0277778
        k(   21) = (   0.0000000   0.0000000   0.0000000), wk =   0.0277778
        k(   22) = (   0.0000000   0.0371836   0.0000000), wk =   0.0555556
        k(   23) = (   0.0000000   0.0743671   0.0000000), wk =   0.0555556
        k(   24) = (   0.0000000  -0.1115507   0.0000000), wk =   0.0277778
        k(   25) = (   0.0322019   0.0185918   0.0000000), wk =   0.0555556
        k(   26) = (   0.0322019   0.0557754   0.0000000), wk =   0.0555556
        k(   27) = (   0.0322019   0.0929589   0.0000000), wk =   0.0555556
        k(   28) = (   0.0322019  -0.0929589   0.0000000), wk =   0.0555556
        k(   29) = (   0.0322019  -0.0557754   0.0000000), wk =   0.0555556
        k(   30) = (   0.0322019  -0.0185918   0.0000000), wk =   0.0555556
        k(   31) = (   0.0644038   0.0371836   0.0000000), wk =   0.0555556
        k(   32) = (   0.0644038   0.0743671   0.0000000), wk =   0.0555556
        k(   33) = (   0.0644038   0.1115507   0.0000000), wk =   0.0555556
        k(   34) = (   0.0644038  -0.0743671   0.0000000), wk =   0.0555556
        k(   35) = (   0.0644038  -0.0371836   0.0000000), wk =   0.0555556
        k(   36) = (   0.0644038   0.0000000   0.0000000), wk =   0.0555556
        k(   37) = (  -0.0966058  -0.0557754   0.0000000), wk =   0.0277778
        k(   38) = (  -0.0966058  -0.0185918   0.0000000), wk =   0.0555556
        k(   39) = (  -0.0966058   0.0185918   0.0000000), wk =   0.0555556
        k(   40) = (  -0.0966058  -0.1673261   0.0000000), wk =   0.0277778

     Largest allocated arrays     est. size (Mb)     dimensions
     Largest temporary arrays     est. size (Mb)     dimensions

     Check: negative/imaginary core charge=   -0.000001    0.000000

     Initial potential from superposition of free atoms
     Check: negative starting charge=(component1):   -0.112413
     Check: negative starting charge=(component2):   -0.084323

     starting charge  185.69898, renormalised to  204.00000

     negative rho (up, down):  1.235E-01 9.263E-02

     *
     * You are using vdW-DF for exchange-correlation in this calculation.
     * Please cite the following three references that made this development
     * possible:
     *
     *   M. Dion, H. Rydberg, E. Schroder, D. C. Langreth, and
     *   B. I. Lundqvist, Phys. Rev. Lett. 92, 246401 (2004).
     *
     *   T. Thonhauser, V. R. Cooper, S. Li, A. Puzder, P. Hyldgaard, and
     *   D. C. Langreth, Phys. Rev. B 76, 125112 (2007).
     *
     *   G. Roman-Perez and J. M. Soler, Phys. Rev. Lett. 103, 096102 (2009).
     *
     *
     * If you are using vdW-DF2, please also cite:
     *
     *   K. Lee, E. D. Murray, L. Kong, B. I. Lundqvist, and
     *   D. C. Langreth, Phys. Rev. B 82, 081101(R) (2010).
     *
     *
     * If you are calculating the stress with vdW-DF, please also cite:
     *
     *   R. Sabatini, E. Kucukbenli, B. Kolb, T. Thonhauser, and
     *   S. de Gironcoli, J. Phys.: Condens. Matter 24, 424209 (2012).
     *

     Carrying out vdW-DF run using the following parameters:

     Nqs =      20    Nr_points =    1024   r_max =   100.000
     q_mesh =
               0.00001000     0.04494208     0.09755937     0.15916263
               0.23128650     0.31572767     0.41458969     0.53033537
               0.66584808     0.82450364     1.01025438     1.22772762
               1.48234092     1.78043706     2.12944203     2.53805004
               3.01644009     3.57652955     4.23227104     5.00000000

     Gradients computed in reciprocal space

     Adding external electric field

     Computed dipole along edir(3) :
        Dipole                0.0000 Ry au,          0.0000 Debye
        Dipole field          0.0000 Ry au

        Potential amp.       -0.0000 Ry
        Total length         44.6358 bohr

[...]

     Starting wfc are  156 randomized atomic wfcs

     Self-consistent Calculation

     iteration #  1     ecut=    36.75 Ry     beta=0.10
     Davidson diagonalization with overlap
     ethr =  1.00E-02,  avg # of iterations =  8.1

[...]

     Magnetic moment per site:
     atom:    1    charge:    9.7706    magn:    1.0351    constr:    0.0000
     atom:    2    charge:    9.7706    magn:    1.0351    constr:    0.0000
     atom:    3    charge:    9.7706    magn:    1.0351    constr:    0.0000
     atom:    4    charge:    1.7769    magn:    0.2310    constr:    0.0000
     atom:    5    charge:    9.7780    magn:    1.0361    constr:    0.0000
     atom:    6    charge:    9.7780    magn:    1.0361    constr:    0.0000
[...]
        k(    5) = (   0.0322019   0.0185918   0.0000000), wk =   0.0555556
        k(    6) = (   0.0322019   0.0557754   0.0000000), wk =   0.0555556
        k(    7) = (   0.0322019   0.0929589   0.0000000), wk =   0.0555556
        k(    8) = (   0.0322019  -0.0929589   0.0000000), wk =   0.0555556
        k(    9) = (   0.0322019  -0.0557754   0.0000000), wk =   0.0555556
        k(   10) = (   0.0322019  -0.0185918   0.0000000), wk =   0.0555556
        k(   11) = (   0.0644038   0.0371836   0.0000000), wk =   0.0555556
        k(   12) = (   0.0644038   0.0743671   0.0000000), wk =   0.0555556
        k(   13) = (   0.0644038   0.1115507   0.0000000), wk =   0.0555556
        k(   14) = (   0.0644038  -0.0743671   0.0000000), wk =   0.0555556
        k(   15) = (   0.0644038  -0.0371836   0.0000000), wk =   0.0555556
        k(   16) = (   0.0644038   0.0000000   0.0000000), wk =   0.0555556
        k(   17) = (  -0.0966058  -0.0557754   0.0000000), wk =   0.0277778
        k(   18) = (  -0.0966058  -0.0185918   0.0000000), wk =   0.0555556
        k(   19) = (  -0.0966058   0.0185918   0.0000000), wk =   0.0555556
        k(   20) = (  -0.0966058  -0.1673261   0.0000000), wk =   0.0277778
        k(   21) = (   0.0000000   0.0000000   0.0000000), wk =   0.0277778
        k(   22) = (   0.0000000   0.0371836   0.0000000), wk =   0.0555556
        k(   23) = (   0.0000000   0.0743671   0.0000000), wk =   0.0555556
        k(   24) = (   0.0000000  -0.1115507   0.0000000), wk =   0.0277778
        k(   25) = (   0.0322019   0.0185918   0.0000000), wk =   0.0555556
        k(   26) = (   0.0322019   0.0557754   0.0000000), wk =   0.0555556
        k(   27) = (   0.0322019   0.0929589   0.0000000), wk =   0.0555556
        k(   28) = (   0.0322019  -0.0929589   0.0000000), wk =   0.0555556
        k(   29) = (   0.0322019  -0.0557754   0.0000000), wk =   0.0555556
        k(   30) = (   0.0322019  -0.0185918   0.0000000), wk =   0.0555556
        k(   31) = (   0.0644038   0.0371836   0.0000000), wk =   0.0555556
        k(   32) = (   0.0644038   0.0743671   0.0000000), wk =   0.0555556
        k(   33) = (   0.0644038   0.1115507   0.0000000), wk =   0.0555556
        k(   34) = (   0.0644038  -0.0743671   0.0000000), wk =   0.0555556
        k(   35) = (   0.0644038  -0.0371836   0.0000000), wk =   0.0555556
        k(   36) = (   0.0644038   0.0000000   0.0000000), wk =   0.0555556
        k(   37) = (  -0.0966058  -0.0557754   0.0000000), wk =   0.0277778
        k(   38) = (  -0.0966058  -0.0185918   0.0000000), wk =   0.0555556
        k(   39) = (  -0.0966058   0.0185918   0.0000000), wk =   0.0555556
        k(   40) = (  -0.0966058  -0.1673261   0.0000000), wk =   0.0277778

     Largest allocated arrays     est. size (Mb)     dimensions
     Largest temporary arrays     est. size (Mb)     dimensions

     Check: negative/imaginary core charge=   -0.000001    0.000000

     Initial potential from superposition of free atoms
     Check: negative starting charge=(component1):   -0.112032
     Check: negative starting charge=(component2):   -0.084037

     starting charge  185.69898, renormalised to  204.00000

[...]

     *
     * You are using vdW-DF for exchange-correlation in this calculation.
     * Please cite the following three references that made this development
     * possible:
     *
     *   M. Dion, H. Rydberg, E. Schroder, D. C. Langreth, and
     *   B. I. Lundqvist, Phys. Rev. Lett. 92, 246401 (2004).
     *
     *   T. Thonhauser, V. R. Cooper, S. Li, A. Puzder, P. Hyldgaard, and
     *   D. C. Langreth, Phys. Rev. B 76, 125112 (2007).
     *
     *   G. Roman-Perez and J. M. Soler, Phys. Rev. Lett. 103, 096102 (2009).
     *
     *
     * If you are using vdW-DF2, please also cite:
     *
     *   K. Lee, E. D. Murray, L. Kong, B. I. Lundqvist, and
     *   D. C. Langreth, Phys. Rev. B 82, 081101(R) (2010).
     *
     *
     * If you are calculating the stress with vdW-DF, please also cite:
     *
     *   R. Sabatini, E. Kucukbenli, B. Kolb, T. Thonhauser, and
     *   S. de Gironcoli, J. Phys.: Condens. Matter 24, 424209 (2012).
     *

     Carrying out vdW-DF run using the following parameters:

     Nqs =      20    Nr_points =    1024   r_max =   100.000
     q_mesh =
               0.00001000     0.04494208     0.09755937     0.15916263
               0.23128650     0.31572767     0.41458969     0.53033537
               0.66584808     0.82450364     1.01025438     1.22772762
               1.48234092     1.78043706     2.12944203     2.53805004
               3.01644009     3.57652955     4.23227104     5.00000000

     Gradients computed in reciprocal space

[...]

     Starting wfc are  156 randomized atomic wfcs

     Self-consistent Calculation

[...]

     total energy              =   -3580.97212966 Ry
     Harris-Foulkes estimate   =   -3580.97212872 Ry
     estimated scf accuracy    <       0.00000127 Ry

[...]

     iteration # 49     ecut=    36.75 Ry     beta=0.10
     Davidson diagonalization with overlap
     ethr =  6.21E-10,  avg # of iterations =  2.0

[...]

     negative rho (up, down):  1.007E-01 1.007E-01

[...]

     Adding external electric field

     Computed dipole along edir(3) :
        Dipole                0.0043 Ry au,          0.0110 Debye
        Dipole field          0.0000 Ry au

        Potential amp.       -0.0013 Ry
        Total length         44.6358 bohr

     Magnetic moment per site:
     atom:    1    charge:    9.3514    magn:   -0.0002    constr:    0.0000
     atom:    2    charge:    9.3514    magn:   -0.0002    constr:    0.0000
     atom:    3    charge:    9.3514    magn:   -0.0002    constr:    0.0000
     atom:    4    charge:    1.6423    magn:    0.0006    constr:    0.0000
     atom:    5    charge:    9.3540    magn:    0.0029    constr:    0.0000
     atom:    6    charge:    9.3539    magn:    0.0029    constr:    0.0000
     atom:    7    charge:    9.3539    magn:    0.0029    constr:    0.0000
     atom:    8    charge:    1.6493    magn:    0.0000    constr:    0.0000
     atom:    9    charge:    9.3344    magn:    0.0001    constr:    0.0000
     atom:   10    charge:    9.3344    magn:    0.0001    constr:    0.0000
     atom:   11    charge:    9.3344    magn:    0.0001    constr:    0.0000
     atom:   12    charge:    1.6349    magn:    0.0005    constr:    0.0000

     End of self-consistent calculation

 ------ SPIN UP ------------

[...]

 ------ SPIN DOWN ----------

[...]

          k = 0.0644 0.0000 0.0000 ( 14279 PWs)   bands (ev):

[...]

          k =-0.0966-0.1673 0.0000 ( 14214 PWs)   bands (ev):

  -102.6029-102.5996-102.5963-102.2806-102.2773-102.2741-102.2302-102.2270
  -102.2238 -73.9179 -73.7137 -73.7063 -63.1201 -63.1017 -63.0871 -63.0271
   -63.0169 -63.0038 -62.8719 -62.8585 -62.8457 -62.8410 -62.8257 -62.8205
   -62.8127 -62.8045 -62.7855 -62.6482 -62.6275 -62.6076 -62.5837 -62.5621
   -62.5411 -62.4799 -62.4701 -62.4585 -62.4253 -62.4165 -62.4057 -38.0045
   -37.9997 -37.9554 -37.8252 -37.8076 -37.7510 -37.7470 -37.7396 -37.7357
    -5.5740  -5.2555  -3.9647  -3.5139  -3.3441  -3.2429  -3.0536  -2.7696
    -2.6606  -2.5189  -2.4800  -2.1790  -2.1652  -2.1292  -2.0685  -1.8305
    -1.7886  -1.6698  -1.6496  -1.6105  -1.5545  -1.4170  -1.2232  -1.1188
    -1.0379  -1.0097  -1.0052  -0.9635  -0.8754  -0.8676  -0.8500  -0.8273
    -0.7835  -0.7808  -0.7691  -0.6852  -0.6098  -0.5446  -0.5403  -0.5189
    -0.4751  -0.3821  -0.2909  -0.2827  -0.1463  -0.0790   0.1513   0.1989
     0.2559   0.2741   0.4415   0.5424   0.8443   0.9342   1.1793   1.3225
     1.3798   1.4084   1.6021   1.6666   1.7310   1.8627   2.1248   2.5337
     2.8046   2.8470   3.6130   4.2782   5.0257   5.4788   5.6443   5.8727
     6.6641   6.7657   7.2603   7.3277   7.7732   7.8189   8.0341   8.0535
     8.6068   9.0200   9.0748   9.5823

     the Fermi energy is     1.2216 ev

!    total energy              =   -3580.97213248 Ry
     Harris-Foulkes estimate   =   -3580.97213033 Ry
     estimated scf accuracy    <       0.00000091 Ry

     The total energy is the sum of the following terms:

     one-electron contribution =  -29124.56026986 Ry
     hartree contribution      =   14564.38353108 Ry
     xc contribution           =    -458.25142204 Ry
     ewald contribution        =   11437.53330531 Ry
     electric field correction =       0.00000006 Ry
     smearing contrib. (-TS)   =      -0.07727703 Ry

     total magnetization       =     0.05 Bohr mag/cell
     absolute magnetization    =     0.06 Bohr mag/cell

     convergence has been achieved in  49 iterations

 BEEF-vdW xc energy contributions
           1 :   -403.642748625596
           2 :    368.120966396720
           3 :   -307.595825379245
           4 :    238.448878733925
           5 :   -176.245755240305
           6 :    130.277497508032
           7 :   -101.650978619071
           8 :    85.2382722433711
           9 :   -73.8937970235757
          10 :    62.4446079080338
          11 :   -49.5342357312045
          12 :    36.8856182862237
          13 :   -27.0531193561279
          14 :    21.3230216038237
          15 :   -18.9720944268255
          16 :    18.0018351064341
          17 :   -16.5550040074225
          18 :    13.9598362556891
          19 :   -10.8166305591918
          20 :    8.25818793555777
          21 :   -7.02661992372225
          22 :    6.99585575037759
          23 :   -7.37559805819558
          24 :    7.33435982602577
          25 :   -6.55468878107615
          26 :    5.34819763701660
          27 :   -4.32449592017559
          28 :    3.90608338254026
          29 :   -4.05237102143656
          30 :    4.35126057079066
          31 :   -34.3120926070977
          32 :   -24.5121289761821

     Forces acting on atoms (Ry/au):

     negative rho (up, down):  1.007E-01 1.007E-01
     atom    1 type  1   force =     0.00000710    0.00149111    0.00937230
     atom    2 type  1   force =     0.00130946   -0.00072969    0.00935503
     atom    3 type  1   force =    -0.00131128   -0.00073889    0.00935179
     atom    4 type  2   force =     0.00000250    0.00000716    0.00542672
     atom    5 type  1   force =    -0.00000342   -0.00099274   -0.00707358
     atom    6 type  1   force =    -0.00086786    0.00048576   -0.00706186
     atom    7 type  1   force =     0.00086876    0.00049014   -0.00705729
     atom    8 type  2   force =     0.00000104    0.00000153   -0.01278541
     atom    9 type  1   force =    -0.00000751    0.00025174   -0.00006696
     atom   10 type  1   force =     0.00020470   -0.00013568   -0.00005164
     atom   11 type  1   force =    -0.00019862   -0.00012362   -0.00003356
     atom   12 type  2   force =    -0.00000488   -0.00000682    0.00062448

     Total force =     0.024814     Total SCF correction =     0.003591
     SCF correction compared to forces is large: reduce conv_thr to get better values

     entering subroutine stress ...

     negative rho (up, down):  1.007E-01 1.007E-01
          total   stress  (Ry/bohr**3)                   (kbar)     P=  -74.62
  -0.00056896  -0.00000000  -0.00000001        -83.70     -0.00     -0.00
  -0.00000000  -0.00056894  -0.00000001         -0.00    -83.69     -0.00
  -0.00000001  -0.00000001  -0.00038381         -0.00     -0.00    -56.46

 !ASE

     Writing output data file calc.save

     General routines

     Parallel routines

   This run was terminated on:  16:50:18  27Dec2018

   JOB DONE.
Job  /afs/slac/g/suncat/bin/suncat-tsmpirun -x LD_LIBRARY_PATH -wdir /scratch/qe110296_BgQoP pw.x -in pw.inp

TID   HOST_NAME   COMMAND_LINE            STATUS            TERMINATION_TIME
00000 suncat0080 pw.x -in pw.inp   Done                     12/27/2018 16:50:18
00001 suncat0080 pw.x -in pw.inp   Done                     12/27/2018 16:50:18
00002 suncat0080 pw.x -in pw.inp   Done                     12/27/2018 16:50:18
00003 suncat0080 pw.x -in pw.inp   Done                     12/27/2018 16:50:18
00004 suncat0080 pw.x -in pw.inp   Done                     12/27/2018 16:50:18
00005 suncat0080 pw.x -in pw.inp   Done                     12/27/2018 16:50:18
00006 suncat0080 pw.x -in pw.inp   Done                     12/27/2018 16:50:18
00007 suncat0080 pw.x -in pw.inp   Done                     12/27/2018 16:50:18
00008 suncat0078 pw.x -in pw.inp   Done                     12/27/2018 16:50:18
00009 suncat0078 pw.x -in pw.inp   Done                     12/27/2018 16:50:18
00010 suncat0078 pw.x -in pw.inp   Done                     12/27/2018 16:50:18
00011 suncat0078 pw.x -in pw.inp   Done                     12/27/2018 16:50:18
00012 suncat0078 pw.x -in pw.inp   Done                     12/27/2018 16:50:18
00013 suncat0078 pw.x -in pw.inp   Done                     12/27/2018 16:50:18
00014 suncat0078 pw.x -in pw.inp   Done                     12/27/2018 16:50:18
00015 suncat0078 pw.x -in pw.inp   Done                     12/27/2018 16:50:18
00016 suncat0060 pw.x -in pw.inp   Done                     12/27/2018 16:50:18
00017 suncat0060 pw.x -in pw.inp   Done                     12/27/2018 16:50:18
00018 suncat0060 pw.x -in pw.inp   Done                     12/27/2018 16:50:18
00019 suncat0060 pw.x -in pw.inp   Done                     12/27/2018 16:50:18
00020 suncat0060 pw.x -in pw.inp   Done                     12/27/2018 16:50:18
00021 suncat0060 pw.x -in pw.inp   Done                     12/27/2018 16:50:18
00022 suncat0060 pw.x -in pw.inp   Done                     12/27/2018 16:50:18
00023 suncat0060 pw.x -in pw.inp   Done                     12/27/2018 16:50:18
00024 suncat0059 pw.x -in pw.inp   Done                     12/27/2018 16:50:18
00025 suncat0059 pw.x -in pw.inp   Done                     12/27/2018 16:50:18
00026 suncat0059 pw.x -in pw.inp   Done                     12/27/2018 16:50:18
00027 suncat0059 pw.x -in pw.inp   Done                     12/27/2018 16:50:18
00028 suncat0059 pw.x -in pw.inp   Done                     12/27/2018 16:50:18
00029 suncat0059 pw.x -in pw.inp   Done                     12/27/2018 16:50:18
00030 suncat0059 pw.x -in pw.inp   Done                     12/27/2018 16:50:18
00031 suncat0059 pw.x -in pw.inp   Done                     12/27/2018 16:50:18
00032 suncat0058 pw.x -in pw.inp   Done                     12/27/2018 16:50:18
00033 suncat0058 pw.x -in pw.inp   Done                     12/27/2018 16:50:18
00034 suncat0058 pw.x -in pw.inp   Done                     12/27/2018 16:50:18
00035 suncat0058 pw.x -in pw.inp   Done                     12/27/2018 16:50:18
00036 suncat0058 pw.x -in pw.inp   Done                     12/27/2018 16:50:18
00037 suncat0058 pw.x -in pw.inp   Done                     12/27/2018 16:50:18
00038 suncat0058 pw.x -in pw.inp   Done                     12/27/2018 16:50:18
00039 suncat0058 pw.x -in pw.inp   Done                     12/27/2018 16:50:18
00040 suncat0046 pw.x -in pw.inp   Done                     12/27/2018 16:50:18
00041 suncat0046 pw.x -in pw.inp   Done                     12/27/2018 16:50:18
00042 suncat0046 pw.x -in pw.inp   Done                     12/27/2018 16:50:18
00043 suncat0046 pw.x -in pw.inp   Done                     12/27/2018 16:50:18
00044 suncat0046 pw.x -in pw.inp   Done                     12/27/2018 16:50:18
00045 suncat0046 pw.x -in pw.inp   Done                     12/27/2018 16:50:18
00046 suncat0046 pw.x -in pw.inp   Done                     12/27/2018 16:50:18
00047 suncat0046 pw.x -in pw.inp   Done                     12/27/2018 16:50:18
00048 suncat0141 pw.x -in pw.inp   Done                     12/27/2018 16:50:18
00049 suncat0141 pw.x -in pw.inp   Done                     12/27/2018 16:50:18
00050 suncat0141 pw.x -in pw.inp   Done                     12/27/2018 16:50:18
00051 suncat0141 pw.x -in pw.inp   Done                     12/27/2018 16:50:18
00052 suncat0141 pw.x -in pw.inp   Done                     12/27/2018 16:50:18
00053 suncat0141 pw.x -in pw.inp   Done                     12/27/2018 16:50:18
00054 suncat0141 pw.x -in pw.inp   Done                     12/27/2018 16:50:18
00055 suncat0141 pw.x -in pw.inp   Done                     12/27/2018 16:50:18
00056 suncat0140 pw.x -in pw.inp   Done                     12/27/2018 16:50:18
00057 suncat0140 pw.x -in pw.inp   Done                     12/27/2018 16:50:18
00058 suncat0140 pw.x -in pw.inp   Done                     12/27/2018 16:50:18
00059 suncat0140 pw.x -in pw.inp   Done                     12/27/2018 16:50:18
00060 suncat0140 pw.x -in pw.inp   Done                     12/27/2018 16:50:18
00061 suncat0140 pw.x -in pw.inp   Done                     12/27/2018 16:50:18
00062 suncat0140 pw.x -in pw.inp   Done                     12/27/2018 16:50:18
00063 suncat0140 pw.x -in pw.inp   Done                     12/27/2018 16:50:18