     Program PWSCF v.5.1rc2 (svn rev. 11289) starts on  2Jan2019 at 13:55:52

     Current dimensions of program PWSCF are:
     Max number of different atomic species (ntypx) = 10
     Max number of k-points (npk) =  40000
     Max angular momentum in pseudopotentials (lmaxx) =  3
     Presently stress not available with electric field

     IMPORTANT: XC functional enforced from input :
     Exchange-correlation      = BEEF-VDW ( 1  4 27 13 2)
     Any further DFT definition will be discarded
     Please, verify this is what you really want

     Subspace diagonalization in iterative solution of the eigenvalue problem:
     a serial algorithm will be used

     bravais-lattice index     =            0
     lattice parameter (alat)  =       1.8897  a.u.
     unit-cell volume          =    6812.2333 (a.u.)^3
     number of atoms/cell      =           12
     number of atomic types    =            2
     number of electrons       =       138.00
     number of Kohn-Sham states=           99
     kinetic-energy cutoff     =      36.7493  Ry
     charge density cutoff     =     367.4932  Ry
     convergence threshold     =      1.0E-06
     mixing beta               =       0.1000
     number of iterations used =           10  plain     mixing
     Exchange-correlation      = BEEF-VDW ( 1  4 27 13 2)
     nstep                     =           50

     celldm(1)=   1.889726  celldm(2)=   0.000000  celldm(3)=   0.000000
     celldm(4)=   0.000000  celldm(5)=   0.000000  celldm(6)=   0.000000

     crystal axes: (cart. coord. in units of alat)
               a(1) = (   6.758570   0.000000   0.000000 )
               a(2) = (  -3.379285   5.853094   0.000000 )
               a(3) = (   0.000000   0.000000  25.518350 )

     reciprocal axes: (cart. coord. in units 2 pi/alat)
               b(1) = (  0.147960  0.085425  0.000000 )
               b(2) = (  0.000000  0.170850  0.000000 )
               b(3) = (  0.000000  0.000000  0.039187 )

     PseudoPot. # 1 for Y  read from file:
     /afs/slac.stanford.edu/u/if/mamunm/psp/gbrv1.5pbe/Y.UPF
     MD5 check sum: d034151ed7554c50b6e82763ed42c788
     Pseudo is Ultrasoft + core correction, Zval = 11.0
     Generated by new atomic code, or converted to UPF format
     Using radial grid of  885 points,  6 beta functions with:
                l(1) =   0
                l(2) =   0
                l(3) =   1
                l(4) =   1
                l(5) =   2
                l(6) =   2
     Q(r) pseudized with  8 coefficients,  rinner =    1.200   1.200   1.200
                                                       1.200   1.200

     PseudoPot. # 2 for Ta read from file:
     /afs/slac.stanford.edu/u/if/mamunm/psp/gbrv1.5pbe/Ta.UPF
     MD5 check sum: f8bbe9446314a3b8ea5d9f3e3836c939
     Pseudo is Ultrasoft + core correction, Zval = 13.0
     Generated by new atomic code, or converted to UPF format
     Using radial grid of  921 points,  7 beta functions with:
                l(1) =   0
                l(2) =   0
                l(3) =   1
                l(4) =   1
                l(5) =   2
                l(6) =   2
                l(7) =   3
     Q(r) pseudized with  6 coefficients,  rinner =    1.300   1.300   1.300
                                                       1.300   1.300   1.300
                                                       1.300

     vdW kernel table read from file vdW_kernel_table
     MD5 check sum: 095c7af220d748ca6e76c0b4c6cfb241

     atomic species   valence    mass     pseudopotential
        Y1            11.00    88.90584     Y ( 1.00)
        Ta1           13.00   180.94788     Ta( 1.00)

     No symmetry found

   Cartesian axes

     site n.     atom                  positions (alat units)
         1           Y1  tau(   1) = (   0.0000000   0.0000000  10.0000000  )
         2           Y1  tau(   2) = (  -1.6896426   2.9265469  10.0000000  )
         3           Y1  tau(   3) = (   1.6896426   2.9265469  10.0000000  )
         4           Ta1 tau(   4) = (   3.3792852   0.0000000  10.0000000  )
         5           Y1  tau(   5) = (   3.3792852   1.9510312  12.7591748  )
         6           Y1  tau(   6) = (   1.6896426   4.8775781  12.7591748  )
         7           Y1  tau(   7) = (  -1.6896426   4.8775781  12.7591748  )
         8           Ta1 tau(   8) = (   0.0000000   1.9510312  12.7591748  )
         9           Y1  tau(   9) = (  -0.0000000   3.9020625  15.5183497  )
        10           Y1  tau(  10) = (   1.6896426   0.9755156  15.5183497  )
        11           Y1  tau(  11) = (   5.0689279   0.9755156  15.5183497  )
        12           Ta1 tau(  12) = (   3.3792852   3.9020625  15.5183497  )

     number of k points=    20  Fermi-Dirac smearing, width (Ry)=  0.0110
                       cart. coord. in units 2pi/alat
        k(    1) = (   0.0000000   0.0000000   0.0000000), wk =   0.0555556
        k(    2) = (   0.0000000   0.0284750   0.0000000), wk =   0.1111111
        k(    3) = (   0.0000000   0.0569499   0.0000000), wk =   0.1111111
        k(    4) = (   0.0000000  -0.0854249   0.0000000), wk =   0.0555556
        k(    5) = (   0.0246600   0.0142375   0.0000000), wk =   0.1111111
        k(    6) = (   0.0246600   0.0427125   0.0000000), wk =   0.1111111
        k(    7) = (   0.0246600   0.0711874   0.0000000), wk =   0.1111111
        k(    8) = (   0.0246600  -0.0711874   0.0000000), wk =   0.1111111
        k(    9) = (   0.0246600  -0.0427125   0.0000000), wk =   0.1111111
        k(   10) = (   0.0246600  -0.0142375   0.0000000), wk =   0.1111111
        k(   11) = (   0.0493201   0.0284750   0.0000000), wk =   0.1111111
        k(   12) = (   0.0493201   0.0569499   0.0000000), wk =   0.1111111
        k(   13) = (   0.0493201   0.0854249   0.0000000), wk =   0.1111111
        k(   14) = (   0.0493201  -0.0569499   0.0000000), wk =   0.1111111
        k(   15) = (   0.0493201  -0.0284750   0.0000000), wk =   0.1111111
        k(   16) = (   0.0493201   0.0000000   0.0000000), wk =   0.1111111
        k(   17) = (  -0.0739801  -0.0427125   0.0000000), wk =   0.0555556
        k(   18) = (  -0.0739801  -0.0142375   0.0000000), wk =   0.1111111
        k(   19) = (  -0.0739801   0.0142375   0.0000000), wk =   0.1111111
        k(   20) = (  -0.0739801  -0.1281374   0.0000000), wk =   0.0555556

     Largest allocated arrays     est. size (Mb)     dimensions
     Largest temporary arrays     est. size (Mb)     dimensions

     Initial potential from superposition of free atoms
     Check: negative starting charge=   -0.283211

     starting charge  137.95644, renormalised to  138.00000

     negative rho (up, down):  2.833E-01 0.000E+00

     *
     * You are using vdW-DF for exchange-correlation in this calculation.
     * Please cite the following three references that made this development
     * possible:
     *
     *   M. Dion, H. Rydberg, E. Schroder, D. C. Langreth, and
     *   B. I. Lundqvist, Phys. Rev. Lett. 92, 246401 (2004).
     *
     *   T. Thonhauser, V. R. Cooper, S. Li, A. Puzder, P. Hyldgaard, and
     *   D. C. Langreth, Phys. Rev. B 76, 125112 (2007).
     *
     *   G. Roman-Perez and J. M. Soler, Phys. Rev. Lett. 103, 096102 (2009).
     *
     *
     * If you are using vdW-DF2, please also cite:
     *
     *   K. Lee, E. D. Murray, L. Kong, B. I. Lundqvist, and
     *   D. C. Langreth, Phys. Rev. B 82, 081101(R) (2010).
     *
     *
     * If you are calculating the stress with vdW-DF, please also cite:
     *
     *   R. Sabatini, E. Kucukbenli, B. Kolb, T. Thonhauser, and
     *   S. de Gironcoli, J. Phys.: Condens. Matter 24, 424209 (2012).
     *

     Carrying out vdW-DF run using the following parameters:

     Nqs =      20    Nr_points =    1024   r_max =   100.000
     q_mesh =
               0.00001000     0.04494208     0.09755937     0.15916263
               0.23128650     0.31572767     0.41458969     0.53033537
               0.66584808     0.82450364     1.01025438     1.22772762
               1.48234092     1.78043706     2.12944203     2.53805004
               3.01644009     3.57652955     4.23227104     5.00000000

     Gradients computed in reciprocal space

     Adding external electric field

     Computed dipole along edir(3) :
        Dipole                0.0000 Ry au,          0.0000 Debye
        Dipole field          0.0000 Ry au

        Potential amp.       -0.0000 Ry
        Total length         47.0171 bohr

     Starting wfc are  156 randomized atomic wfcs

     Self-consistent Calculation

     iteration #  1     ecut=    36.75 Ry     beta=0.10
     Davidson diagonalization with overlap
     ethr =  1.00E-02,  avg # of iterations =  2.0

[...]

     total energy              =   -1271.85763890 Ry
     Harris-Foulkes estimate   =   -1273.02025987 Ry
     estimated scf accuracy    <       6.55227740 Ry

[...]

     End of self-consistent calculation

          k = 0.0000 0.0000 0.0000 ( 25665 PWs)   bands (ev):

   -67.3387 -67.3386 -67.2334 -41.7598 -41.7584 -41.6938 -41.6938 -41.6935
   -41.6934 -41.1797 -41.1150 -41.1150 -33.6760 -33.6751 -33.6022 -33.6022
   -33.6019 -33.6019 -33.5189 -33.4993 -33.4993 -22.1177 -22.0951 -21.8571
   -21.8302 -21.8302 -21.7943 -21.7943 -21.7738 -21.7388 -21.7388 -21.6904
   -21.6904 -21.5083 -21.4596 -21.4502 -21.4260 -21.4260 -21.4193 -21.4193
   -21.2223 -21.2223 -21.1065 -21.0646 -21.0646 -20.9203 -20.8562 -20.8561
    -3.6942  -2.6995  -1.9026  -0.9498  -0.8935  -0.6566  -0.6566  -0.6267
    -0.6267  -0.5672  -0.2538  -0.2538   0.0616   0.0616   0.1018   0.6637
     0.6637   0.7638   1.2940   1.3030   1.6040   1.6040   1.7637   1.8885
     2.0652   2.0652   2.1114   2.1941   2.4216   2.4216   2.6224   2.7492
     2.7492   2.8201   2.8201   2.8690   2.8797   2.8797   2.9608   2.9608
     3.0602   3.0602   3.5307   3.7098   3.7098   3.7388   4.4350   4.4696
     4.4696   4.4961   4.6288

[...]

          k =-0.0740-0.0427 0.0000 ( 25614 PWs)   bands (ev):

[...]

     the Fermi energy is     1.2475 ev

!    total energy              =   -1272.51264140 Ry
     Harris-Foulkes estimate   =   -1272.51263796 Ry
     estimated scf accuracy    <       0.00000060 Ry

     The total energy is the sum of the following terms:

     one-electron contribution =   -6688.99854364 Ry
     hartree contribution      =    3334.71319654 Ry
     xc contribution           =    -384.85763577 Ry
     ewald contribution        =    2466.75263938 Ry
     electric field correction =       0.00000002 Ry
     smearing contrib. (-TS)   =      -0.12229792 Ry

     convergence has been achieved in  17 iterations

 BEEF-vdW xc energy contributions
           1 :   -336.871183148638
           2 :    305.488069515823
           3 :   -251.036609157199
           4 :    186.497523717926
           5 :   -124.469539593713
           6 :    73.3335796551734
           7 :   -36.1095384432103
           8 :    11.7735761609591
           9 :    2.36970452771345
          10 :   -8.79696268427972
          11 :    9.15575140795835
          12 :   -4.76845240493907
          13 :   -2.55594204749718
          14 :    10.2323585096269
          15 :   -15.4586924629866
          16 :    16.2732178532905
[...]
               b(3) = (  0.000000  0.000000  0.039187 )

     PseudoPot. # 1 for Y  read from file:
     /afs/slac.stanford.edu/u/if/mamunm/psp/gbrv1.5pbe/Y.UPF
     MD5 check sum: d034151ed7554c50b6e82763ed42c788
     Pseudo is Ultrasoft + core correction, Zval = 11.0
     Generated by new atomic code, or converted to UPF format
     Using radial grid of  885 points,  6 beta functions with:
                l(1) =   0
                l(2) =   0
                l(3) =   1
                l(4) =   1
                l(5) =   2
                l(6) =   2
     Q(r) pseudized with  8 coefficients,  rinner =    1.200   1.200   1.200
                                                       1.200   1.200

     PseudoPot. # 2 for Ta read from file:
     /afs/slac.stanford.edu/u/if/mamunm/psp/gbrv1.5pbe/Ta.UPF
     MD5 check sum: f8bbe9446314a3b8ea5d9f3e3836c939
     Pseudo is Ultrasoft + core correction, Zval = 13.0
     Generated by new atomic code, or converted to UPF format
     Using radial grid of  921 points,  7 beta functions with:
                l(1) =   0
                l(2) =   0
                l(3) =   1
                l(4) =   1
                l(5) =   2
                l(6) =   2
                l(7) =   3
     Q(r) pseudized with  6 coefficients,  rinner =    1.300   1.300   1.300
                                                       1.300   1.300   1.300
                                                       1.300

     vdW kernel table read from file vdW_kernel_table
     MD5 check sum: 095c7af220d748ca6e76c0b4c6cfb241

     atomic species   valence    mass     pseudopotential
        Y1            11.00    88.90584     Y ( 1.00)
        Ta1           13.00   180.94788     Ta( 1.00)

     No symmetry found

   Cartesian axes

     site n.     atom                  positions (alat units)
         1           Y1  tau(   1) = (   0.0000000   0.0000000  10.0000000  )
         2           Y1  tau(   2) = (  -1.6896426   2.9265469  10.0000000  )
         3           Y1  tau(   3) = (   1.6896426   2.9265469  10.0000000  )
         4           Ta1 tau(   4) = (   3.3792852   0.0000000  10.0000000  )
         5           Y1  tau(   5) = (   3.3792852   1.9510312  12.7591748  )
         6           Y1  tau(   6) = (   1.6896426   4.8775781  12.7591748  )
         7           Y1  tau(   7) = (  -1.6896426   4.8775781  12.7591748  )
         8           Ta1 tau(   8) = (   0.0000000   1.9510312  12.7591748  )
         9           Y1  tau(   9) = (  -0.0000367   3.8647087  15.4794268  )
        10           Y1  tau(  10) = (   1.6573506   0.9941798  15.4794811  )
        11           Y1  tau(  11) = (   5.1012104   0.9942245  15.4795272  )
        12           Ta1 tau(  12) = (   3.3793407   3.9020217  15.1946235  )

     number of k points=    20  Fermi-Dirac smearing, width (Ry)=  0.0110
                       cart. coord. in units 2pi/alat
        k(    1) = (   0.0000000   0.0000000   0.0000000), wk =   0.0555556
        k(    2) = (   0.0000000   0.0284750   0.0000000), wk =   0.1111111
        k(    3) = (   0.0000000   0.0569499   0.0000000), wk =   0.1111111
        k(    4) = (   0.0000000  -0.0854249   0.0000000), wk =   0.0555556
        k(    5) = (   0.0246600   0.0142375   0.0000000), wk =   0.1111111
        k(    6) = (   0.0246600   0.0427125   0.0000000), wk =   0.1111111
        k(    7) = (   0.0246600   0.0711874   0.0000000), wk =   0.1111111
        k(    8) = (   0.0246600  -0.0711874   0.0000000), wk =   0.1111111
        k(    9) = (   0.0246600  -0.0427125   0.0000000), wk =   0.1111111
        k(   10) = (   0.0246600  -0.0142375   0.0000000), wk =   0.1111111
        k(   11) = (   0.0493201   0.0284750   0.0000000), wk =   0.1111111
        k(   12) = (   0.0493201   0.0569499   0.0000000), wk =   0.1111111
        k(   13) = (   0.0493201   0.0854249   0.0000000), wk =   0.1111111
        k(   14) = (   0.0493201  -0.0569499   0.0000000), wk =   0.1111111
        k(   15) = (   0.0493201  -0.0284750   0.0000000), wk =   0.1111111
        k(   16) = (   0.0493201   0.0000000   0.0000000), wk =   0.1111111
        k(   17) = (  -0.0739801  -0.0427125   0.0000000), wk =   0.0555556
        k(   18) = (  -0.0739801  -0.0142375   0.0000000), wk =   0.1111111
        k(   19) = (  -0.0739801   0.0142375   0.0000000), wk =   0.1111111
        k(   20) = (  -0.0739801  -0.1281374   0.0000000), wk =   0.0555556

     Largest allocated arrays     est. size (Mb)     dimensions
     Largest temporary arrays     est. size (Mb)     dimensions

     Initial potential from superposition of free atoms
     Check: negative starting charge=   -0.283196

     starting charge  137.95644, renormalised to  138.00000

[...]

     *
     * You are using vdW-DF for exchange-correlation in this calculation.
     * Please cite the following three references that made this development
     * possible:
     *
     *   M. Dion, H. Rydberg, E. Schroder, D. C. Langreth, and
     *   B. I. Lundqvist, Phys. Rev. Lett. 92, 246401 (2004).
     *
     *   T. Thonhauser, V. R. Cooper, S. Li, A. Puzder, P. Hyldgaard, and
     *   D. C. Langreth, Phys. Rev. B 76, 125112 (2007).
     *
     *   G. Roman-Perez and J. M. Soler, Phys. Rev. Lett. 103, 096102 (2009).
     *
     *
     * If you are using vdW-DF2, please also cite:
     *
     *   K. Lee, E. D. Murray, L. Kong, B. I. Lundqvist, and
     *   D. C. Langreth, Phys. Rev. B 82, 081101(R) (2010).
     *
     *
     * If you are calculating the stress with vdW-DF, please also cite:
     *
     *   R. Sabatini, E. Kucukbenli, B. Kolb, T. Thonhauser, and
     *   S. de Gironcoli, J. Phys.: Condens. Matter 24, 424209 (2012).
     *

     Carrying out vdW-DF run using the following parameters:

     Nqs =      20    Nr_points =    1024   r_max =   100.000
     q_mesh =
               0.00001000     0.04494208     0.09755937     0.15916263
               0.23128650     0.31572767     0.41458969     0.53033537
               0.66584808     0.82450364     1.01025438     1.22772762
               1.48234092     1.78043706     2.12944203     2.53805004
               3.01644009     3.57652955     4.23227104     5.00000000

     Gradients computed in reciprocal space

[...]

     Starting wfc are  156 randomized atomic wfcs

     Self-consistent Calculation

[...]

     total energy              =   -1272.53116430 Ry
     Harris-Foulkes estimate   =   -1272.53116391 Ry
     estimated scf accuracy    <       0.00000290 Ry

     iteration # 17     ecut=    36.75 Ry     beta=0.10
     Davidson diagonalization with overlap
     ethr =  2.10E-09,  avg # of iterations =  3.0

[...]

     negative rho (up, down):  2.927E-01 0.000E+00

     Adding external electric field

     Computed dipole along edir(3) :
        Dipole                0.0401 Ry au,          0.1020 Debye
        Dipole field          0.0001 Ry au

        Potential amp.       -0.0070 Ry
        Total length         47.0171 bohr

     End of self-consistent calculation

[...]

          k = 0.0493 0.0000 0.0000 ( 25614 PWs)   bands (ev):

[...]

          k =-0.0740-0.1281 0.0000 ( 25614 PWs)   bands (ev):

   -67.3251 -67.1714 -67.1212 -41.7222 -41.7065 -41.7003 -41.6805 -41.6784
   -41.6598 -41.0069 -40.9849 -40.9628 -33.6674 -33.5867 -33.5859 -33.4587
   -33.4416 -33.4408 -33.4345 -33.4305 -33.4298 -21.9457 -21.9256 -21.7993
   -21.7566 -21.7507 -21.7223 -21.7155 -21.6899 -21.6898 -21.6761 -21.6589
   -21.6249 -21.6233 -21.6122 -21.6040 -21.5721 -21.4156 -21.3977 -21.2274
   -21.0258 -20.9941 -20.9515 -20.9459 -20.9405 -20.9257 -20.9118 -20.7311
    -2.4644  -2.2904  -1.5711  -1.1571  -0.6779  -0.2071  -0.2033  -0.1401
    -0.0493  -0.0467   0.5832   0.5848   0.6467   0.6586   0.7862   0.8142
     0.8906   0.9771   1.0084   1.0857   1.1384   1.1727   1.2225   1.2613
     1.3259   1.4583   1.5496   1.6292   1.8005   1.8323   1.9803   2.0260
     2.0937   2.2526   2.3986   2.5267   2.7347   2.8509   3.0984   3.2637
     3.3202   3.4843   3.5514   3.5677   3.7691   3.8739   3.9692   4.0370
     4.1523   4.2488   4.3727

     the Fermi energy is     1.2703 ev

!    total energy              =   -1272.53116638 Ry
     Harris-Foulkes estimate   =   -1272.53116447 Ry
     estimated scf accuracy    <       0.00000078 Ry

     The total energy is the sum of the following terms:

     one-electron contribution =   -6802.36087602 Ry
     hartree contribution      =    3391.74868846 Ry
     xc contribution           =    -384.99723820 Ry
     ewald contribution        =    2523.19666538 Ry
     electric field correction =       0.00000297 Ry
     smearing contrib. (-TS)   =      -0.11840896 Ry

     convergence has been achieved in  17 iterations

 BEEF-vdW xc energy contributions
           1 :   -337.012154867687
           2 :    305.677226529835
           3 :   -251.272360351009
           4 :    186.719003780546
           5 :   -124.595363493353
           6 :    73.3207823822912
           7 :   -35.9899370836143
           8 :    11.6376102250277
           9 :    2.43401927702473
          10 :   -8.76612120488119
          11 :    9.08579058751246
          12 :   -4.75006552766945
          13 :   -2.46804228059614
          14 :    10.0611356861674
          15 :   -15.2863328094602
          16 :    16.1790125105935
          17 :   -12.3901597353034
          18 :    5.27444533672315
          19 :    2.82291575490706
          20 :   -9.62838508957441
          21 :    13.7542446988699
          22 :   -14.9252062973563
          23 :    13.6791859224396
          24 :   -10.8706025995220
          25 :    7.30411012796054
          26 :   -3.63182554858832
          27 :   0.419076277718602
          28 :    1.81318858686581
          29 :   -2.68414990331001
          30 :    2.13277413808885
          31 :   -31.4351029623680
          32 :   -22.0832193610791

     Forces acting on atoms (Ry/au):

     negative rho (up, down):  2.927E-01 0.000E+00
     atom    1 type  1   force =    -0.00000222    0.01429895   -0.00358817
     atom    2 type  1   force =     0.01238062   -0.00715361   -0.00358963
     atom    3 type  1   force =    -0.01238209   -0.00714959   -0.00358635
     atom    4 type  2   force =     0.00000366    0.00000397    0.04148812
     atom    5 type  1   force =     0.00000195   -0.00450892   -0.01105022
     atom    6 type  1   force =    -0.00389658    0.00225721   -0.01104927
     atom    7 type  1   force =     0.00389702    0.00225326   -0.01105129
     atom    8 type  2   force =    -0.00000213   -0.00000200    0.00365095
     atom    9 type  1   force =     0.00000527   -0.00162993   -0.00001566
     atom   10 type  1   force =    -0.00142138    0.00081999   -0.00002271
     atom   11 type  1   force =     0.00142020    0.00081208   -0.00002582
     atom   12 type  2   force =    -0.00000432   -0.00000140   -0.00115992

     Total force =     0.053133     Total SCF correction =     0.001248

     entering subroutine stress ...

     negative rho (up, down):  2.927E-01 0.000E+00
          total   stress  (Ry/bohr**3)                   (kbar)     P=   -6.03
  -0.00004342   0.00000000  -0.00000000         -6.39      0.00     -0.00
   0.00000000  -0.00004342  -0.00000000          0.00     -6.39     -0.00
  -0.00000000  -0.00000000  -0.00003612         -0.00     -0.00     -5.31

 !ASE

     Writing output data file calc.save

     General routines

     Parallel routines

   This run was terminated on:  15:20:47   2Jan2019

   JOB DONE.
Job  /afs/slac/g/suncat/bin/suncat-tsmpirun -x LD_LIBRARY_PATH -wdir /scratch/qe649449_soLKb pw.x -in pw.inp

TID   HOST_NAME   COMMAND_LINE            STATUS            TERMINATION_TIME
00000 suncat0165 pw.x -in pw.inp   Done                     01/02/2019 15:20:47
00001 suncat0165 pw.x -in pw.inp   Done                     01/02/2019 15:20:47
00002 suncat0165 pw.x -in pw.inp   Done                     01/02/2019 15:20:47
00003 suncat0165 pw.x -in pw.inp   Done                     01/02/2019 15:20:47
00004 suncat0165 pw.x -in pw.inp   Done                     01/02/2019 15:20:47
00005 suncat0165 pw.x -in pw.inp   Done                     01/02/2019 15:20:47
00006 suncat0165 pw.x -in pw.inp   Done                     01/02/2019 15:20:47
00007 suncat0165 pw.x -in pw.inp   Done                     01/02/2019 15:20:47
00008 suncat0164 pw.x -in pw.inp   Done                     01/02/2019 15:20:47
00009 suncat0164 pw.x -in pw.inp   Done                     01/02/2019 15:20:47
00010 suncat0164 pw.x -in pw.inp   Done                     01/02/2019 15:20:47
00011 suncat0164 pw.x -in pw.inp   Done                     01/02/2019 15:20:47
00012 suncat0164 pw.x -in pw.inp   Done                     01/02/2019 15:20:47
00013 suncat0164 pw.x -in pw.inp   Done                     01/02/2019 15:20:47
00014 suncat0164 pw.x -in pw.inp   Done                     01/02/2019 15:20:47
00015 suncat0164 pw.x -in pw.inp   Done                     01/02/2019 15:20:47
00016 suncat0159 pw.x -in pw.inp   Done                     01/02/2019 15:20:47
00017 suncat0159 pw.x -in pw.inp   Done                     01/02/2019 15:20:47
00018 suncat0159 pw.x -in pw.inp   Done                     01/02/2019 15:20:47
00019 suncat0159 pw.x -in pw.inp   Done                     01/02/2019 15:20:47
00020 suncat0159 pw.x -in pw.inp   Done                     01/02/2019 15:20:47
00021 suncat0159 pw.x -in pw.inp   Done                     01/02/2019 15:20:47
00022 suncat0159 pw.x -in pw.inp   Done                     01/02/2019 15:20:47
00023 suncat0159 pw.x -in pw.inp   Done                     01/02/2019 15:20:47
00024 suncat0155 pw.x -in pw.inp   Done                     01/02/2019 15:20:47
00025 suncat0155 pw.x -in pw.inp   Done                     01/02/2019 15:20:47
00026 suncat0155 pw.x -in pw.inp   Done                     01/02/2019 15:20:47
00027 suncat0155 pw.x -in pw.inp   Done                     01/02/2019 15:20:47
00028 suncat0155 pw.x -in pw.inp   Done                     01/02/2019 15:20:47
00029 suncat0155 pw.x -in pw.inp   Done                     01/02/2019 15:20:47
00030 suncat0155 pw.x -in pw.inp   Done                     01/02/2019 15:20:47
00031 suncat0155 pw.x -in pw.inp   Done                     01/02/2019 15:20:47
00032 suncat0106 pw.x -in pw.inp   Done                     01/02/2019 15:20:47
00033 suncat0106 pw.x -in pw.inp   Done                     01/02/2019 15:20:47
00034 suncat0106 pw.x -in pw.inp   Done                     01/02/2019 15:20:47
00035 suncat0106 pw.x -in pw.inp   Done                     01/02/2019 15:20:47
00036 suncat0106 pw.x -in pw.inp   Done                     01/02/2019 15:20:47
00037 suncat0106 pw.x -in pw.inp   Done                     01/02/2019 15:20:47
00038 suncat0106 pw.x -in pw.inp   Done                     01/02/2019 15:20:47
00039 suncat0106 pw.x -in pw.inp   Done                     01/02/2019 15:20:47
00040 suncat0105 pw.x -in pw.inp   Done                     01/02/2019 15:20:47
00041 suncat0105 pw.x -in pw.inp   Done                     01/02/2019 15:20:47
00042 suncat0105 pw.x -in pw.inp   Done                     01/02/2019 15:20:47
00043 suncat0105 pw.x -in pw.inp   Done                     01/02/2019 15:20:47
00044 suncat0105 pw.x -in pw.inp   Done                     01/02/2019 15:20:47
00045 suncat0105 pw.x -in pw.inp   Done                     01/02/2019 15:20:47
00046 suncat0105 pw.x -in pw.inp   Done                     01/02/2019 15:20:47
00047 suncat0105 pw.x -in pw.inp   Done                     01/02/2019 15:20:47
00048 suncat0277 pw.x -in pw.inp   Done                     01/02/2019 15:20:47
00049 suncat0277 pw.x -in pw.inp   Done                     01/02/2019 15:20:47
00050 suncat0277 pw.x -in pw.inp   Done                     01/02/2019 15:20:47
00051 suncat0277 pw.x -in pw.inp   Done                     01/02/2019 15:20:47
00052 suncat0277 pw.x -in pw.inp   Done                     01/02/2019 15:20:47
00053 suncat0277 pw.x -in pw.inp   Done                     01/02/2019 15:20:47
00054 suncat0277 pw.x -in pw.inp   Done                     01/02/2019 15:20:47
00055 suncat0277 pw.x -in pw.inp   Done                     01/02/2019 15:20:47
00056 suncat0276 pw.x -in pw.inp   Done                     01/02/2019 15:20:47
00057 suncat0276 pw.x -in pw.inp   Done                     01/02/2019 15:20:47
00058 suncat0276 pw.x -in pw.inp   Done                     01/02/2019 15:20:47
00059 suncat0276 pw.x -in pw.inp   Done                     01/02/2019 15:20:47
00060 suncat0276 pw.x -in pw.inp   Done                     01/02/2019 15:20:47
00061 suncat0276 pw.x -in pw.inp   Done                     01/02/2019 15:20:47
00062 suncat0276 pw.x -in pw.inp   Done                     01/02/2019 15:20:47
00063 suncat0276 pw.x -in pw.inp   Done                     01/02/2019 15:20:47