     Program PWSCF v.5.1rc2 (svn rev. 11289) starts on 27Dec2018 at  7:43:37

     Current dimensions of program PWSCF are:
     Max number of different atomic species (ntypx) = 10
     Max number of k-points (npk) =  40000
     Max angular momentum in pseudopotentials (lmaxx) =  3
     Presently stress not available with electric field

     IMPORTANT: XC functional enforced from input :
     Exchange-correlation      = BEEF-VDW ( 1  4 27 13 2)
     Any further DFT definition will be discarded
     Please, verify this is what you really want

     Subspace diagonalization in iterative solution of the eigenvalue problem:
     a serial algorithm will be used

     bravais-lattice index     =            0
     lattice parameter (alat)  =       1.8897  a.u.
     unit-cell volume          =    5642.0077 (a.u.)^3
     number of atoms/cell      =           12
     number of atomic types    =            2
     number of electrons       =       150.00
     number of Kohn-Sham states=          105
     kinetic-energy cutoff     =      36.7493  Ry
     charge density cutoff     =     367.4932  Ry
     convergence threshold     =      1.0E-06
     mixing beta               =       0.1000
     number of iterations used =           10  plain     mixing
     Exchange-correlation      = BEEF-VDW ( 1  4 27 13 2)
     nstep                     =           50

     celldm(1)=   1.889726  celldm(2)=   0.000000  celldm(3)=   0.000000
     celldm(4)=   0.000000  celldm(5)=   0.000000  celldm(6)=   0.000000

     crystal axes: (cart. coord. in units of alat)
               a(1) = (   6.205854   0.000000   0.000000 )
               a(2) = (  -3.102927   5.374427   0.000000 )
               a(3) = (   0.000000   0.000000  25.067058 )

     reciprocal axes: (cart. coord. in units 2 pi/alat)
               b(1) = (  0.161138  0.093033  0.000000 )
               b(2) = (  0.000000  0.186066  0.000000 )
               b(3) = (  0.000000  0.000000  0.039893 )

     PseudoPot. # 1 for Nb read from file:
     /afs/slac.stanford.edu/u/if/mamunm/psp/gbrv1.5pbe/Nb.UPF
     MD5 check sum: 573aab8a2fa660278ed4a62cd769473f
     Pseudo is Ultrasoft + core correction, Zval = 13.0
     Generated by new atomic code, or converted to UPF format
     Using radial grid of  887 points,  6 beta functions with:
                l(1) =   0
                l(2) =   0
                l(3) =   1
                l(4) =   1
                l(5) =   2
                l(6) =   2
     Q(r) pseudized with  6 coefficients,  rinner =    1.000   1.000   1.000
                                                       1.000   1.000

     PseudoPot. # 2 for Y  read from file:
     /afs/slac.stanford.edu/u/if/mamunm/psp/gbrv1.5pbe/Y.UPF
     MD5 check sum: d034151ed7554c50b6e82763ed42c788
     Pseudo is Ultrasoft + core correction, Zval = 11.0
     Generated by new atomic code, or converted to UPF format
     Using radial grid of  885 points,  6 beta functions with:
                l(1) =   0
                l(2) =   0
                l(3) =   1
                l(4) =   1
                l(5) =   2
                l(6) =   2
     Q(r) pseudized with  8 coefficients,  rinner =    1.200   1.200   1.200
                                                       1.200   1.200

     vdW kernel table read from file vdW_kernel_table
     MD5 check sum: 095c7af220d748ca6e76c0b4c6cfb241

     atomic species   valence    mass     pseudopotential
        Nb1           13.00    92.90637     Nb( 1.00)
        Y1            11.00    88.90584     Y ( 1.00)

     No symmetry found

   Cartesian axes

     site n.     atom                  positions (alat units)
         1           Nb1 tau(   1) = (   0.0000000   0.0000000  10.0000000  )
         2           Nb1 tau(   2) = (  -1.5514634   2.6872135  10.0000000  )
         3           Nb1 tau(   3) = (   1.5514634   2.6872135  10.0000000  )
         4           Y1  tau(   4) = (   3.1029269   0.0000000  10.0000000  )
         5           Nb1 tau(   5) = (   3.1029269   1.7914757  12.5335292  )
         6           Nb1 tau(   6) = (   1.5514634   4.4786892  12.5335292  )
         7           Nb1 tau(   7) = (  -1.5514634   4.4786892  12.5335292  )
         8           Y1  tau(   8) = (   0.0000000   1.7914757  12.5335292  )
         9           Nb1 tau(   9) = (  -0.0000000   3.5829513  15.0670584  )
        10           Nb1 tau(  10) = (   1.5514634   0.8957378  15.0670584  )
        11           Nb1 tau(  11) = (   4.6543903   0.8957378  15.0670584  )
        12           Y1  tau(  12) = (   3.1029269   3.5829513  15.0670584  )

     number of k points=    20  Fermi-Dirac smearing, width (Ry)=  0.0110
                       cart. coord. in units 2pi/alat
        k(    1) = (   0.0000000   0.0000000   0.0000000), wk =   0.0555556
        k(    2) = (   0.0000000   0.0310111   0.0000000), wk =   0.1111111
        k(    3) = (   0.0000000   0.0620221   0.0000000), wk =   0.1111111
        k(    4) = (   0.0000000  -0.0930332   0.0000000), wk =   0.0555556
        k(    5) = (   0.0268564   0.0155055   0.0000000), wk =   0.1111111
        k(    6) = (   0.0268564   0.0465166   0.0000000), wk =   0.1111111
        k(    7) = (   0.0268564   0.0775276   0.0000000), wk =   0.1111111
        k(    8) = (   0.0268564  -0.0775276   0.0000000), wk =   0.1111111
        k(    9) = (   0.0268564  -0.0465166   0.0000000), wk =   0.1111111
        k(   10) = (   0.0268564  -0.0155055   0.0000000), wk =   0.1111111
        k(   11) = (   0.0537127   0.0310111   0.0000000), wk =   0.1111111
        k(   12) = (   0.0537127   0.0620221   0.0000000), wk =   0.1111111
        k(   13) = (   0.0537127   0.0930332   0.0000000), wk =   0.1111111
        k(   14) = (   0.0537127  -0.0620221   0.0000000), wk =   0.1111111
        k(   15) = (   0.0537127  -0.0310111   0.0000000), wk =   0.1111111
        k(   16) = (   0.0537127   0.0000000   0.0000000), wk =   0.1111111
        k(   17) = (  -0.0805691  -0.0465166   0.0000000), wk =   0.0555556
        k(   18) = (  -0.0805691  -0.0155055   0.0000000), wk =   0.1111111
        k(   19) = (  -0.0805691   0.0155055   0.0000000), wk =   0.1111111
        k(   20) = (  -0.0805691  -0.1395498   0.0000000), wk =   0.0555556

     Largest allocated arrays     est. size (Mb)     dimensions
     Largest temporary arrays     est. size (Mb)     dimensions

     Initial potential from superposition of free atoms
     Check: negative starting charge=   -0.004663

     starting charge  149.96199, renormalised to  150.00000

     negative rho (up, down):  4.664E-03 0.000E+00

     *
     * You are using vdW-DF for exchange-correlation in this calculation.
     * Please cite the following three references that made this development
     * possible:
     *
     *   M. Dion, H. Rydberg, E. Schroder, D. C. Langreth, and
     *   B. I. Lundqvist, Phys. Rev. Lett. 92, 246401 (2004).
     *
     *   T. Thonhauser, V. R. Cooper, S. Li, A. Puzder, P. Hyldgaard, and
     *   D. C. Langreth, Phys. Rev. B 76, 125112 (2007).
     *
     *   G. Roman-Perez and J. M. Soler, Phys. Rev. Lett. 103, 096102 (2009).
     *
     *
     * If you are using vdW-DF2, please also cite:
     *
     *   K. Lee, E. D. Murray, L. Kong, B. I. Lundqvist, and
     *   D. C. Langreth, Phys. Rev. B 82, 081101(R) (2010).
     *
     *
     * If you are calculating the stress with vdW-DF, please also cite:
     *
     *   R. Sabatini, E. Kucukbenli, B. Kolb, T. Thonhauser, and
     *   S. de Gironcoli, J. Phys.: Condens. Matter 24, 424209 (2012).
     *

     Carrying out vdW-DF run using the following parameters:

     Nqs =      20    Nr_points =    1024   r_max =   100.000
     q_mesh =
               0.00001000     0.04494208     0.09755937     0.15916263
               0.23128650     0.31572767     0.41458969     0.53033537
               0.66584808     0.82450364     1.01025438     1.22772762
               1.48234092     1.78043706     2.12944203     2.53805004
               3.01644009     3.57652955     4.23227104     5.00000000

     Gradients computed in reciprocal space

     Adding external electric field

     Computed dipole along edir(3) :
        Dipole               -0.0000 Ry au,         -0.0000 Debye
        Dipole field         -0.0000 Ry au

        Potential amp.        0.0000 Ry
        Total length         46.1856 bohr

     Starting wfc are  156 randomized atomic wfcs

     Self-consistent Calculation

     iteration #  1     ecut=    36.75 Ry     beta=0.10
     Davidson diagonalization with overlap
     ethr =  1.00E-02,  avg # of iterations =  2.0

[...]

     total energy              =   -1346.75657394 Ry
     Harris-Foulkes estimate   =   -1348.12285031 Ry
     estimated scf accuracy    <       7.89566450 Ry

[...]

     End of self-consistent calculation

          k = 0.0000 0.0000 0.0000 ( 21247 PWs)   bands (ev):

   -53.5556 -53.5339 -53.4995 -53.4847 -53.4846 -53.4764 -53.4764 -53.4552
   -53.4552 -40.7310 -40.7301 -40.0843 -29.8610 -29.7754 -29.7600 -29.7318
   -29.7318 -29.7194 -29.7191 -29.7191 -29.6520 -29.6520 -29.5893 -29.5250
   -29.5250 -29.4912 -29.4912 -29.4364 -29.3769 -29.3500 -29.3477 -29.3477
   -29.3099 -29.2441 -29.2440 -29.2405 -29.2405 -29.2374 -29.2374 -20.7872
   -20.7609 -20.7296 -20.7296 -20.7229 -20.7229 -20.1665 -20.1388 -20.1388
    -3.4492  -2.2757  -1.6553  -1.3409  -1.3409  -1.2917  -1.1779  -1.1779
    -0.9613  -0.6888  -0.6888  -0.6642  -0.6395  -0.6395  -0.6332   0.2889
     0.4032   0.4032   1.1690   1.2331   1.2331   1.3853   1.6242   1.7799
     1.9456   2.0106   2.0106   2.1663   2.1663   2.3161   2.3161   2.4245
     2.4245   2.4454   2.6260   2.6260   2.7669   2.9720   2.9721   3.1820
     3.2188   3.6411   3.6411   3.8321   3.8790   3.8790   4.0560   4.0561
     4.2463   4.2463   4.7397   5.0974   5.3406   5.3406   5.3605   5.5030
     5.5118

[...]

          k =-0.0806-0.0465 0.0000 ( 21220 PWs)   bands (ev):

[...]

     the Fermi energy is     1.6156 ev

!    total energy              =   -1347.42429689 Ry
     Harris-Foulkes estimate   =   -1347.42429610 Ry
     estimated scf accuracy    <       0.00000098 Ry

     The total energy is the sum of the following terms:

     one-electron contribution =   -9631.99661862 Ry
     hartree contribution      =    4808.19840944 Ry
     xc contribution           =    -255.88927351 Ry
     ewald contribution        =    3732.38652770 Ry
     electric field correction =       0.00000000 Ry
     smearing contrib. (-TS)   =      -0.12334189 Ry

     convergence has been achieved in  18 iterations

 BEEF-vdW xc energy contributions
           1 :   -220.566909971382
           2 :    199.730191183931
           3 :   -163.967177415492
           4 :    122.493972319590
           5 :   -84.2487293617571
           6 :    54.9597615746561
           7 :   -36.0548862227912
           8 :    25.4696746410439
           9 :   -19.6019015932204
          10 :    15.2843750858659
          11 :   -10.9284017222768
          12 :    6.53067115149156
          13 :   -2.86527918431352
          14 :   0.492507980869789
          15 :   0.808849032766830
          16 :   -1.95472992887281
          17 :    3.97687023743296
[...]
     Generated by new atomic code, or converted to UPF format
     Using radial grid of  887 points,  6 beta functions with:
                l(1) =   0
                l(2) =   0
                l(3) =   1
                l(4) =   1
                l(5) =   2
                l(6) =   2
     Q(r) pseudized with  6 coefficients,  rinner =    1.000   1.000   1.000
                                                       1.000   1.000

     PseudoPot. # 2 for Y  read from file:
     /afs/slac.stanford.edu/u/if/mamunm/psp/gbrv1.5pbe/Y.UPF
     MD5 check sum: d034151ed7554c50b6e82763ed42c788
     Pseudo is Ultrasoft + core correction, Zval = 11.0
     Generated by new atomic code, or converted to UPF format
     Using radial grid of  885 points,  6 beta functions with:
                l(1) =   0
                l(2) =   0
                l(3) =   1
                l(4) =   1
                l(5) =   2
                l(6) =   2
     Q(r) pseudized with  8 coefficients,  rinner =    1.200   1.200   1.200
                                                       1.200   1.200

     vdW kernel table read from file vdW_kernel_table
     MD5 check sum: 095c7af220d748ca6e76c0b4c6cfb241

     atomic species   valence    mass     pseudopotential
        Nb1           13.00    92.90637     Nb( 1.00)
        Y1            11.00    88.90584     Y ( 1.00)

     No symmetry found

   Cartesian axes

     site n.     atom                  positions (alat units)
         1           Nb1 tau(   1) = (   0.0000000   0.0000000  10.0000000  )
         2           Nb1 tau(   2) = (  -1.5514634   2.6872135  10.0000000  )
         3           Nb1 tau(   3) = (   1.5514634   2.6872135  10.0000000  )
         4           Y1  tau(   4) = (   3.1029269   0.0000000  10.0000000  )
         5           Nb1 tau(   5) = (   3.1029269   1.7914757  12.5335292  )
         6           Nb1 tau(   6) = (   1.5514634   4.4786892  12.5335292  )
         7           Nb1 tau(   7) = (  -1.5514634   4.4786892  12.5335292  )
         8           Y1  tau(   8) = (   0.0000000   1.7914757  12.5335292  )
         9           Nb1 tau(   9) = (   0.0000001   3.8090700  14.8465072  )
        10           Nb1 tau(  10) = (   1.7472973   0.7827084  14.8465121  )
        11           Nb1 tau(  11) = (   4.4585547   0.7827063  14.8465087  )
        12           Y1  tau(  12) = (   3.1029307   3.5830097  15.4289236  )

     number of k points=    20  Fermi-Dirac smearing, width (Ry)=  0.0110
                       cart. coord. in units 2pi/alat
        k(    1) = (   0.0000000   0.0000000   0.0000000), wk =   0.0555556
        k(    2) = (   0.0000000   0.0310111   0.0000000), wk =   0.1111111
        k(    3) = (   0.0000000   0.0620221   0.0000000), wk =   0.1111111
        k(    4) = (   0.0000000  -0.0930332   0.0000000), wk =   0.0555556
        k(    5) = (   0.0268564   0.0155055   0.0000000), wk =   0.1111111
        k(    6) = (   0.0268564   0.0465166   0.0000000), wk =   0.1111111
        k(    7) = (   0.0268564   0.0775276   0.0000000), wk =   0.1111111
        k(    8) = (   0.0268564  -0.0775276   0.0000000), wk =   0.1111111
        k(    9) = (   0.0268564  -0.0465166   0.0000000), wk =   0.1111111
        k(   10) = (   0.0268564  -0.0155055   0.0000000), wk =   0.1111111
        k(   11) = (   0.0537127   0.0310111   0.0000000), wk =   0.1111111
        k(   12) = (   0.0537127   0.0620221   0.0000000), wk =   0.1111111
        k(   13) = (   0.0537127   0.0930332   0.0000000), wk =   0.1111111
        k(   14) = (   0.0537127  -0.0620221   0.0000000), wk =   0.1111111
        k(   15) = (   0.0537127  -0.0310111   0.0000000), wk =   0.1111111
        k(   16) = (   0.0537127   0.0000000   0.0000000), wk =   0.1111111
        k(   17) = (  -0.0805691  -0.0465166   0.0000000), wk =   0.0555556
        k(   18) = (  -0.0805691  -0.0155055   0.0000000), wk =   0.1111111
        k(   19) = (  -0.0805691   0.0155055   0.0000000), wk =   0.1111111
        k(   20) = (  -0.0805691  -0.1395498   0.0000000), wk =   0.0555556

     Largest allocated arrays     est. size (Mb)     dimensions
     Largest temporary arrays     est. size (Mb)     dimensions

     Initial potential from superposition of free atoms
     Check: negative starting charge=   -0.004723

     starting charge  149.96199, renormalised to  150.00000

[...]

     *
     * You are using vdW-DF for exchange-correlation in this calculation.
     * Please cite the following three references that made this development
     * possible:
     *
     *   M. Dion, H. Rydberg, E. Schroder, D. C. Langreth, and
     *   B. I. Lundqvist, Phys. Rev. Lett. 92, 246401 (2004).
     *
     *   T. Thonhauser, V. R. Cooper, S. Li, A. Puzder, P. Hyldgaard, and
     *   D. C. Langreth, Phys. Rev. B 76, 125112 (2007).
     *
     *   G. Roman-Perez and J. M. Soler, Phys. Rev. Lett. 103, 096102 (2009).
     *
     *
     * If you are using vdW-DF2, please also cite:
     *
     *   K. Lee, E. D. Murray, L. Kong, B. I. Lundqvist, and
     *   D. C. Langreth, Phys. Rev. B 82, 081101(R) (2010).
     *
     *
     * If you are calculating the stress with vdW-DF, please also cite:
     *
     *   R. Sabatini, E. Kucukbenli, B. Kolb, T. Thonhauser, and
     *   S. de Gironcoli, J. Phys.: Condens. Matter 24, 424209 (2012).
     *

     Carrying out vdW-DF run using the following parameters:

     Nqs =      20    Nr_points =    1024   r_max =   100.000
     q_mesh =
               0.00001000     0.04494208     0.09755937     0.15916263
               0.23128650     0.31572767     0.41458969     0.53033537
               0.66584808     0.82450364     1.01025438     1.22772762
               1.48234092     1.78043706     2.12944203     2.53805004
               3.01644009     3.57652955     4.23227104     5.00000000

     Gradients computed in reciprocal space

[...]

     Starting wfc are  156 randomized atomic wfcs

     Self-consistent Calculation

[...]

     iteration # 11     ecut=    36.75 Ry     beta=0.10
     Davidson diagonalization with overlap
     c_bands:  1 eigenvalues not converged
     c_bands:  1 eigenvalues not converged
     c_bands:  1 eigenvalues not converged
     ethr =  2.54E-06,  avg # of iterations =  6.5

[...]

     total energy              =   -1347.50481940 Ry
     Harris-Foulkes estimate   =   -1347.50481920 Ry
     estimated scf accuracy    <       0.00000128 Ry

     iteration # 19     ecut=    36.75 Ry     beta=0.10
     Davidson diagonalization with overlap
     ethr =  8.56E-10,  avg # of iterations =  2.1

[...]

     negative rho (up, down):  4.161E-03 0.000E+00

     Adding external electric field

     Computed dipole along edir(3) :
        Dipole                0.2029 Ry au,          0.5157 Debye
        Dipole field          0.0005 Ry au

        Potential amp.       -0.0417 Ry
        Total length         46.1856 bohr

     End of self-consistent calculation

[...]

          k = 0.0537 0.0000 0.0000 ( 21223 PWs)   bands (ev):

[...]

          k =-0.0806-0.1395 0.0000 ( 21220 PWs)   bands (ev):

   -53.3286 -53.3104 -53.2882 -53.2757 -53.2383 -53.2166 -53.1666 -53.0630
   -53.0569 -41.1844 -40.5575 -40.0603 -29.7715 -29.6037 -29.5527 -29.5303
   -29.5105 -29.4601 -29.4195 -29.3836 -29.3782 -29.3642 -29.3358 -29.3301
   -29.3023 -29.2855 -29.2749 -29.2290 -29.2262 -29.1143 -29.1110 -29.0768
   -29.0250 -28.9640 -28.9380 -28.9353 -28.8811 -28.8435 -28.7809 -21.2029
   -21.1299 -21.1136 -20.6023 -20.5908 -20.5644 -20.1639 -20.1431 -20.1160
    -1.8825  -1.7496  -0.9047  -0.8550  -0.7267  -0.3880  -0.3547  -0.2248
    -0.2179  -0.1954   0.0297   0.0920   0.2977   0.3884   0.5903   0.5967
     0.7021   0.7802   0.7919   0.9701   0.9938   1.0981   1.2689   1.3553
     1.3845   1.3944   1.5525   1.5995   1.7226   1.7823   1.9477   2.0463
     2.0528   2.2421   2.3642   2.6095   2.6636   2.7125   2.7459   2.9649
     3.2284   3.2758   3.3579   3.5279   3.6162   3.6348   3.7243   3.7806
     3.9327   4.0116   4.2933   4.4620   4.5820   4.8175   5.0281   5.2394
     5.2399

     the Fermi energy is     1.7995 ev

!    total energy              =   -1347.50481822 Ry
     Harris-Foulkes estimate   =   -1347.50481860 Ry
     estimated scf accuracy    <       0.00000041 Ry

     The total energy is the sum of the following terms:

     one-electron contribution =   -9763.83827562 Ry
     hartree contribution      =    4875.07331506 Ry
     xc contribution           =    -256.15737923 Ry
     ewald contribution        =    3797.52457079 Ry
     electric field correction =       0.00009167 Ry
     smearing contrib. (-TS)   =      -0.10714089 Ry

     convergence has been achieved in  19 iterations

 BEEF-vdW xc energy contributions
           1 :   -220.999212429709
           2 :    200.235092732731
           3 :   -164.573105346528
           4 :    123.144470328906
           5 :   -84.7996779502080
           6 :    55.2443166601134
           7 :   -35.9857087381761
           8 :    25.1022733673670
           9 :   -19.1166760286043
          10 :    14.9029710708359
          11 :   -10.8100706597156
          12 :    6.69199131661583
          13 :   -3.16285656738165
          14 :   0.690559040814065
          15 :   0.910554459803507
          16 :   -2.40221083617337
          17 :    4.62429836423331
          18 :   -7.95446325109984
          19 :    12.0480547606883
          20 :   -15.9877543088672
          21 :    18.7227600960562
          22 :   -19.5498337730858
          23 :    18.3886025386527
          24 :   -15.7471990121439
          25 :    12.4383318769446
          26 :   -9.22991663403991
          27 :    6.60433016792996
          28 :   -4.70889626488133
          29 :    3.45592605085267
          30 :   -2.67143307287819
          31 :   -23.9714440817316
          32 :   -17.6031649314679

     Forces acting on atoms (Ry/au):

     negative rho (up, down):  4.161E-03 0.000E+00
     atom    1 type  1   force =     0.00000026   -0.02323932    0.02743909
     atom    2 type  1   force =    -0.02012574    0.01161952    0.02743965
     atom    3 type  1   force =     0.02012655    0.01161946    0.02743873
     atom    4 type  2   force =    -0.00000017    0.00000087   -0.04035227
     atom    5 type  1   force =    -0.00000006    0.03527789   -0.01277871
     atom    6 type  1   force =     0.03054997   -0.01763855   -0.01277881
     atom    7 type  1   force =    -0.03054909   -0.01763743   -0.01277946
     atom    8 type  2   force =    -0.00000297   -0.00000055   -0.00447924
     atom    9 type  1   force =     0.00000054   -0.00080507   -0.00011595
     atom   10 type  1   force =    -0.00069998    0.00040473   -0.00011703
     atom   11 type  1   force =     0.00070013    0.00040490   -0.00011619
     atom   12 type  2   force =     0.00000055   -0.00000645    0.00120019

     Total force =     0.098762     Total SCF correction =     0.001429

     entering subroutine stress ...

     negative rho (up, down):  4.161E-03 0.000E+00
          total   stress  (Ry/bohr**3)                   (kbar)     P=   -9.15
  -0.00007516  -0.00000000  -0.00000000        -11.06     -0.00     -0.00
  -0.00000000  -0.00007516  -0.00000000         -0.00    -11.06     -0.00
  -0.00000000  -0.00000000  -0.00003629         -0.00     -0.00     -5.34

 !ASE

     Writing output data file calc.save

     General routines

     Parallel routines

   This run was terminated on:   9:10:13  27Dec2018

   JOB DONE.
Job  /afs/slac/g/suncat/bin/suncat-tsmpirun -x LD_LIBRARY_PATH -wdir /scratch/qe110224_WZAgM pw.x -in pw.inp

TID   HOST_NAME   COMMAND_LINE            STATUS            TERMINATION_TIME
00000 suncat0014 pw.x -in pw.inp   Done                     12/27/2018 09:10:13
00001 suncat0014 pw.x -in pw.inp   Done                     12/27/2018 09:10:13
00002 suncat0014 pw.x -in pw.inp   Done                     12/27/2018 09:10:13
00003 suncat0014 pw.x -in pw.inp   Done                     12/27/2018 09:10:13
00004 suncat0014 pw.x -in pw.inp   Done                     12/27/2018 09:10:13
00005 suncat0014 pw.x -in pw.inp   Done                     12/27/2018 09:10:13
00006 suncat0014 pw.x -in pw.inp   Done                     12/27/2018 09:10:13
00007 suncat0014 pw.x -in pw.inp   Done                     12/27/2018 09:10:13
00008 suncat0198 pw.x -in pw.inp   Done                     12/27/2018 09:10:13
00009 suncat0198 pw.x -in pw.inp   Done                     12/27/2018 09:10:13
00010 suncat0198 pw.x -in pw.inp   Done                     12/27/2018 09:10:13
00011 suncat0198 pw.x -in pw.inp   Done                     12/27/2018 09:10:13
00012 suncat0198 pw.x -in pw.inp   Done                     12/27/2018 09:10:13
00013 suncat0198 pw.x -in pw.inp   Done                     12/27/2018 09:10:13
00014 suncat0198 pw.x -in pw.inp   Done                     12/27/2018 09:10:13
00015 suncat0198 pw.x -in pw.inp   Done                     12/27/2018 09:10:13
00016 suncat0193 pw.x -in pw.inp   Done                     12/27/2018 09:10:13
00017 suncat0193 pw.x -in pw.inp   Done                     12/27/2018 09:10:13
00018 suncat0193 pw.x -in pw.inp   Done                     12/27/2018 09:10:13
00019 suncat0193 pw.x -in pw.inp   Done                     12/27/2018 09:10:13
00020 suncat0193 pw.x -in pw.inp   Done                     12/27/2018 09:10:13
00021 suncat0193 pw.x -in pw.inp   Done                     12/27/2018 09:10:13
00022 suncat0193 pw.x -in pw.inp   Done                     12/27/2018 09:10:13
00023 suncat0193 pw.x -in pw.inp   Done                     12/27/2018 09:10:13
00024 suncat0192 pw.x -in pw.inp   Done                     12/27/2018 09:10:13
00025 suncat0192 pw.x -in pw.inp   Done                     12/27/2018 09:10:13
00026 suncat0192 pw.x -in pw.inp   Done                     12/27/2018 09:10:13
00027 suncat0192 pw.x -in pw.inp   Done                     12/27/2018 09:10:13
00028 suncat0192 pw.x -in pw.inp   Done                     12/27/2018 09:10:13
00029 suncat0192 pw.x -in pw.inp   Done                     12/27/2018 09:10:13
00030 suncat0192 pw.x -in pw.inp   Done                     12/27/2018 09:10:13
00031 suncat0192 pw.x -in pw.inp   Done                     12/27/2018 09:10:13
00032 suncat0155 pw.x -in pw.inp   Done                     12/27/2018 09:10:13
00033 suncat0155 pw.x -in pw.inp   Done                     12/27/2018 09:10:13
00034 suncat0155 pw.x -in pw.inp   Done                     12/27/2018 09:10:13
00035 suncat0155 pw.x -in pw.inp   Done                     12/27/2018 09:10:13
00036 suncat0155 pw.x -in pw.inp   Done                     12/27/2018 09:10:13
00037 suncat0155 pw.x -in pw.inp   Done                     12/27/2018 09:10:13
00038 suncat0155 pw.x -in pw.inp   Done                     12/27/2018 09:10:13
00039 suncat0155 pw.x -in pw.inp   Done                     12/27/2018 09:10:13
00040 suncat0154 pw.x -in pw.inp   Done                     12/27/2018 09:10:13
00041 suncat0154 pw.x -in pw.inp   Done                     12/27/2018 09:10:13
00042 suncat0154 pw.x -in pw.inp   Done                     12/27/2018 09:10:13
00043 suncat0154 pw.x -in pw.inp   Done                     12/27/2018 09:10:13
00044 suncat0154 pw.x -in pw.inp   Done                     12/27/2018 09:10:13
00045 suncat0154 pw.x -in pw.inp   Done                     12/27/2018 09:10:13
00046 suncat0154 pw.x -in pw.inp   Done                     12/27/2018 09:10:13
00047 suncat0154 pw.x -in pw.inp   Done                     12/27/2018 09:10:13
00048 suncat0209 pw.x -in pw.inp   Done                     12/27/2018 09:10:13
00049 suncat0209 pw.x -in pw.inp   Done                     12/27/2018 09:10:13
00050 suncat0209 pw.x -in pw.inp   Done                     12/27/2018 09:10:13
00051 suncat0209 pw.x -in pw.inp   Done                     12/27/2018 09:10:13
00052 suncat0209 pw.x -in pw.inp   Done                     12/27/2018 09:10:13
00053 suncat0209 pw.x -in pw.inp   Done                     12/27/2018 09:10:13
00054 suncat0209 pw.x -in pw.inp   Done                     12/27/2018 09:10:13
00055 suncat0209 pw.x -in pw.inp   Done                     12/27/2018 09:10:13
00056 suncat0203 pw.x -in pw.inp   Done                     12/27/2018 09:10:13
00057 suncat0203 pw.x -in pw.inp   Done                     12/27/2018 09:10:13
00058 suncat0203 pw.x -in pw.inp   Done                     12/27/2018 09:10:13
00059 suncat0203 pw.x -in pw.inp   Done                     12/27/2018 09:10:13
00060 suncat0203 pw.x -in pw.inp   Done                     12/27/2018 09:10:13
00061 suncat0203 pw.x -in pw.inp   Done                     12/27/2018 09:10:13
00062 suncat0203 pw.x -in pw.inp   Done                     12/27/2018 09:10:13
00063 suncat0203 pw.x -in pw.inp   Done                     12/27/2018 09:10:13