     Program PWSCF v.5.1rc2 (svn rev. 11289) starts on  2Jan2019 at  8:13:37

     Current dimensions of program PWSCF are:
     Max number of different atomic species (ntypx) = 10
     Max number of k-points (npk) =  40000
     Max angular momentum in pseudopotentials (lmaxx) =  3
     Presently stress not available with electric field

     IMPORTANT: XC functional enforced from input :
     Exchange-correlation      = BEEF-VDW ( 1  4 27 13 2)
     Any further DFT definition will be discarded
     Please, verify this is what you really want

     Subspace diagonalization in iterative solution of the eigenvalue problem:
     a serial algorithm will be used

     bravais-lattice index     =            0
     lattice parameter (alat)  =       1.8897  a.u.
     unit-cell volume          =    4834.0007 (a.u.)^3
     number of atoms/cell      =           12
     number of atomic types    =            2
     number of electrons       =       165.00
     number of Kohn-Sham states=          112
     kinetic-energy cutoff     =      36.7493  Ry
     charge density cutoff     =     367.4932  Ry
     convergence threshold     =      1.0E-06
     mixing beta               =       0.1000
     number of iterations used =           10  plain     mixing
     Exchange-correlation      = BEEF-VDW ( 1  4 27 13 2)
     nstep                     =           50

     celldm(1)=   1.889726  celldm(2)=   0.000000  celldm(3)=   0.000000
     celldm(4)=   0.000000  celldm(5)=   0.000000  celldm(6)=   0.000000

     crystal axes: (cart. coord. in units of alat)
               a(1) = (   5.784173   0.000000   0.000000 )
               a(2) = (  -2.892087   5.009241   0.000000 )
               a(3) = (   0.000000   0.000000  24.722758 )

     reciprocal axes: (cart. coord. in units 2 pi/alat)
               b(1) = (  0.172886  0.099816  0.000000 )
               b(2) = (  0.000000  0.199631  0.000000 )
               b(3) = (  0.000000  0.000000  0.040449 )

     PseudoPot. # 1 for W  read from file:
     /afs/slac.stanford.edu/u/if/mamunm/psp/gbrv1.5pbe/W.UPF
     MD5 check sum: 9c083fa34c2a2ea0f02f1f893e16e1c8
     Pseudo is Ultrasoft + core correction, Zval = 14.0
     Generated by new atomic code, or converted to UPF format
     Using radial grid of  923 points,  8 beta functions with:
                l(1) =   0
                l(2) =   0
                l(3) =   0
                l(4) =   1
                l(5) =   1
                l(6) =   2
                l(7) =   2
                l(8) =   3
     Q(r) pseudized with  6 coefficients,  rinner =    1.350   1.350   1.350
                                                       1.350   1.350   1.350
                                                       1.350

     PseudoPot. # 2 for In read from file:
     /afs/slac.stanford.edu/u/if/mamunm/psp/gbrv1.5pbe/In.UPF
     MD5 check sum: 90777abd96fbb83f2e67db2a40c566b9
     Pseudo is Ultrasoft + core correction, Zval = 13.0
     Generated by new atomic code, or converted to UPF format
     Using radial grid of  889 points,  6 beta functions with:
                l(1) =   0
                l(2) =   0
                l(3) =   1
                l(4) =   1
                l(5) =   2
                l(6) =   2
     Q(r) pseudized with  6 coefficients,  rinner =    1.400   1.400   1.400
                                                       1.400   1.400

     vdW kernel table read from file vdW_kernel_table
     MD5 check sum: 095c7af220d748ca6e76c0b4c6cfb241

     atomic species   valence    mass     pseudopotential
        W1            14.00   183.84000     W ( 1.00)
        In1           13.00   114.81800     In( 1.00)

     No symmetry found

   Cartesian axes

     site n.     atom                  positions (alat units)
         1           W1  tau(   1) = (   0.0000000   0.0000000  10.0000000  )
         2           W1  tau(   2) = (  -1.4460433   2.5046204  10.0000000  )
         3           W1  tau(   3) = (   1.4460433   2.5046204  10.0000000  )
         4           In1 tau(   4) = (   2.8920866   0.0000000  10.0000000  )
         5           W1  tau(   5) = (   2.8920866   1.6697470  12.3613788  )
         6           W1  tau(   6) = (   1.4460433   4.1743674  12.3613788  )
         7           W1  tau(   7) = (  -1.4460433   4.1743674  12.3613788  )
         8           In1 tau(   8) = (   0.0000000   1.6697470  12.3613788  )
         9           W1  tau(   9) = (  -0.0000000   3.3394939  14.7227576  )
        10           W1  tau(  10) = (   1.4460433   0.8348735  14.7227576  )
        11           W1  tau(  11) = (   4.3381298   0.8348735  14.7227576  )
        12           In1 tau(  12) = (   2.8920866   3.3394939  14.7227576  )

     number of k points=    20  Fermi-Dirac smearing, width (Ry)=  0.0110
                       cart. coord. in units 2pi/alat
        k(    1) = (   0.0000000   0.0000000   0.0000000), wk =   0.0555556
        k(    2) = (   0.0000000   0.0332718   0.0000000), wk =   0.1111111
        k(    3) = (   0.0000000   0.0665437   0.0000000), wk =   0.1111111
        k(    4) = (   0.0000000  -0.0998155   0.0000000), wk =   0.0555556
        k(    5) = (   0.0288143   0.0166359   0.0000000), wk =   0.1111111
        k(    6) = (   0.0288143   0.0499078   0.0000000), wk =   0.1111111
        k(    7) = (   0.0288143   0.0831796   0.0000000), wk =   0.1111111
        k(    8) = (   0.0288143  -0.0831796   0.0000000), wk =   0.1111111
        k(    9) = (   0.0288143  -0.0499078   0.0000000), wk =   0.1111111
        k(   10) = (   0.0288143  -0.0166359   0.0000000), wk =   0.1111111
        k(   11) = (   0.0576285   0.0332718   0.0000000), wk =   0.1111111
        k(   12) = (   0.0576285   0.0665437   0.0000000), wk =   0.1111111
        k(   13) = (   0.0576285   0.0998155   0.0000000), wk =   0.1111111
        k(   14) = (   0.0576285  -0.0665437   0.0000000), wk =   0.1111111
        k(   15) = (   0.0576285  -0.0332718   0.0000000), wk =   0.1111111
        k(   16) = (   0.0576285   0.0000000   0.0000000), wk =   0.1111111
        k(   17) = (  -0.0864428  -0.0499078   0.0000000), wk =   0.0555556
        k(   18) = (  -0.0864428  -0.0166359   0.0000000), wk =   0.1111111
        k(   19) = (  -0.0864428   0.0166359   0.0000000), wk =   0.1111111
        k(   20) = (  -0.0864428  -0.1497233   0.0000000), wk =   0.0555556

     Largest allocated arrays     est. size (Mb)     dimensions
     Largest temporary arrays     est. size (Mb)     dimensions

     Initial potential from superposition of free atoms
     Check: negative starting charge=   -0.575286

     starting charge  159.59694, renormalised to  165.00000

     negative rho (up, down):  5.948E-01 0.000E+00

     *
     * You are using vdW-DF for exchange-correlation in this calculation.
     * Please cite the following three references that made this development
     * possible:
     *
     *   M. Dion, H. Rydberg, E. Schroder, D. C. Langreth, and
     *   B. I. Lundqvist, Phys. Rev. Lett. 92, 246401 (2004).
     *
     *   T. Thonhauser, V. R. Cooper, S. Li, A. Puzder, P. Hyldgaard, and
     *   D. C. Langreth, Phys. Rev. B 76, 125112 (2007).
     *
     *   G. Roman-Perez and J. M. Soler, Phys. Rev. Lett. 103, 096102 (2009).
     *
     *
     * If you are using vdW-DF2, please also cite:
     *
     *   K. Lee, E. D. Murray, L. Kong, B. I. Lundqvist, and
     *   D. C. Langreth, Phys. Rev. B 82, 081101(R) (2010).
     *
     *
     * If you are calculating the stress with vdW-DF, please also cite:
     *
     *   R. Sabatini, E. Kucukbenli, B. Kolb, T. Thonhauser, and
     *   S. de Gironcoli, J. Phys.: Condens. Matter 24, 424209 (2012).
     *

     Carrying out vdW-DF run using the following parameters:

     Nqs =      20    Nr_points =    1024   r_max =   100.000
     q_mesh =
               0.00001000     0.04494208     0.09755937     0.15916263
               0.23128650     0.31572767     0.41458969     0.53033537
               0.66584808     0.82450364     1.01025438     1.22772762
               1.48234092     1.78043706     2.12944203     2.53805004
               3.01644009     3.57652955     4.23227104     5.00000000

     Gradients computed in reciprocal space

     Adding external electric field

     Computed dipole along edir(3) :
        Dipole                0.0000 Ry au,          0.0000 Debye
        Dipole field          0.0000 Ry au

        Potential amp.       -0.0000 Ry
        Total length         45.5513 bohr

     Starting wfc are  144 randomized atomic wfcs

     Self-consistent Calculation

     iteration #  1     ecut=    36.75 Ry     beta=0.10
     Davidson diagonalization with overlap
     ethr =  1.00E-02,  avg # of iterations =  5.0

[...]

     total energy              =   -1848.27861846 Ry
     Harris-Foulkes estimate   =   -1848.65911414 Ry
     estimated scf accuracy    <       2.78726930 Ry

[...]

     End of self-consistent calculation

          k = 0.0000 0.0000 0.0000 ( 18151 PWs)   bands (ev):

   -72.5868 -72.5427 -72.5427 -72.4128 -72.4105 -72.3712 -72.3712 -72.3707
   -72.3707 -37.0289 -36.9094 -36.9094 -36.8384 -36.7528 -36.7528 -36.7294
   -36.7255 -36.6155 -36.6155 -36.5600 -36.5593 -36.5246 -36.5246 -36.4962
   -36.4962 -36.3653 -36.3653 -36.3385 -36.3245 -36.3245 -36.3072 -36.2826
   -36.0735 -36.0735 -36.0692 -36.0692 -12.8757 -12.8757 -12.8486 -12.7975
   -12.7975 -12.3510 -12.3300 -12.3300 -12.3248 -12.3188 -12.3188 -12.2739
   -12.2739 -12.2534 -12.2534  -7.4020  -5.4733  -5.0130  -3.2168  -2.7785
    -2.6597  -1.9680  -1.9680  -1.3421  -1.3421  -1.2481  -1.1646  -1.1646
    -0.9923  -0.9923  -0.9563  -0.1210  -0.1210   0.4020   0.5836   0.7907
     0.7908   1.1316   1.1316   1.4437   1.5249   1.5249   1.5286   1.6986
     1.9626   1.9626   2.0747   2.9753   2.9753   3.1949   3.3384   3.3665
     3.3665   3.6119   3.6119   3.7651   3.9324   3.9324   4.0119   4.0119
     4.3393   4.6318   4.6318   4.9245   4.9245   4.9484   4.9484   5.3716
     6.1541   6.1651   6.3209   6.3315   6.4202   6.5297   6.5297   6.6983

[...]

          k =-0.0864-0.0499 0.0000 ( 18164 PWs)   bands (ev):

[...]

     the Fermi energy is     1.9338 ev

!    total energy              =   -1847.64780946 Ry
     Harris-Foulkes estimate   =   -1847.64780374 Ry
     estimated scf accuracy    <       0.00000068 Ry

     The total energy is the sum of the following terms:

     one-electron contribution =  -13709.78588534 Ry
     hartree contribution      =    6861.62357501 Ry
     xc contribution           =    -500.23631804 Ry
     ewald contribution        =    5500.81081565 Ry
     electric field correction =       0.00000000 Ry
     smearing contrib. (-TS)   =      -0.05999674 Ry

     convergence has been achieved in  14 iterations

 BEEF-vdW xc energy contributions
           1 :   -439.608926615933
           2 :    405.903152798670
           3 :   -346.989545587171
           4 :    276.500844382723
           5 :   -208.299020780362
           6 :    152.166719950400
           7 :   -111.677479328066
           8 :    84.7579254402131
           9 :   -66.2590024376951
          10 :    51.0671048053322
          11 :   -36.2951179057820
          12 :    21.7882762935476
[...]
     MD5 check sum: 9c083fa34c2a2ea0f02f1f893e16e1c8
     Pseudo is Ultrasoft + core correction, Zval = 14.0
     Generated by new atomic code, or converted to UPF format
     Using radial grid of  923 points,  8 beta functions with:
                l(1) =   0
                l(2) =   0
                l(3) =   0
                l(4) =   1
                l(5) =   1
                l(6) =   2
                l(7) =   2
                l(8) =   3
     Q(r) pseudized with  6 coefficients,  rinner =    1.350   1.350   1.350
                                                       1.350   1.350   1.350
                                                       1.350

     PseudoPot. # 2 for In read from file:
     /afs/slac.stanford.edu/u/if/mamunm/psp/gbrv1.5pbe/In.UPF
     MD5 check sum: 90777abd96fbb83f2e67db2a40c566b9
     Pseudo is Ultrasoft + core correction, Zval = 13.0
     Generated by new atomic code, or converted to UPF format
     Using radial grid of  889 points,  6 beta functions with:
                l(1) =   0
                l(2) =   0
                l(3) =   1
                l(4) =   1
                l(5) =   2
                l(6) =   2
     Q(r) pseudized with  6 coefficients,  rinner =    1.400   1.400   1.400
                                                       1.400   1.400

     vdW kernel table read from file vdW_kernel_table
     MD5 check sum: 095c7af220d748ca6e76c0b4c6cfb241

     atomic species   valence    mass     pseudopotential
        W1            14.00   183.84000     W ( 1.00)
        In1           13.00   114.81800     In( 1.00)

     No symmetry found

   Cartesian axes

     site n.     atom                  positions (alat units)
         1           W1  tau(   1) = (   0.0000000   0.0000000  10.0000000  )
         2           W1  tau(   2) = (  -1.4460433   2.5046204  10.0000000  )
         3           W1  tau(   3) = (   1.4460433   2.5046204  10.0000000  )
         4           In1 tau(   4) = (   2.8920866   0.0000000  10.0000000  )
         5           W1  tau(   5) = (   2.8920866   1.6697470  12.3613788  )
         6           W1  tau(   6) = (   1.4460433   4.1743674  12.3613788  )
         7           W1  tau(   7) = (  -1.4460433   4.1743674  12.3613788  )
         8           In1 tau(   8) = (   0.0000000   1.6697470  12.3613788  )
         9           W1  tau(   9) = (  -0.0000437   3.4824257  14.5947744  )
        10           W1  tau(  10) = (   1.5698198   0.7633902  14.5947602  )
        11           W1  tau(  11) = (   4.2143451   0.7634346  14.5948017  )
        12           In1 tau(  12) = (   2.8920595   3.3394895  15.1822476  )

     number of k points=    20  Fermi-Dirac smearing, width (Ry)=  0.0110
                       cart. coord. in units 2pi/alat
        k(    1) = (   0.0000000   0.0000000   0.0000000), wk =   0.0555556
        k(    2) = (   0.0000000   0.0332718   0.0000000), wk =   0.1111111
        k(    3) = (   0.0000000   0.0665437   0.0000000), wk =   0.1111111
        k(    4) = (   0.0000000  -0.0998155   0.0000000), wk =   0.0555556
        k(    5) = (   0.0288143   0.0166359   0.0000000), wk =   0.1111111
        k(    6) = (   0.0288143   0.0499078   0.0000000), wk =   0.1111111
        k(    7) = (   0.0288143   0.0831796   0.0000000), wk =   0.1111111
        k(    8) = (   0.0288143  -0.0831796   0.0000000), wk =   0.1111111
        k(    9) = (   0.0288143  -0.0499078   0.0000000), wk =   0.1111111
        k(   10) = (   0.0288143  -0.0166359   0.0000000), wk =   0.1111111
        k(   11) = (   0.0576285   0.0332718   0.0000000), wk =   0.1111111
        k(   12) = (   0.0576285   0.0665437   0.0000000), wk =   0.1111111
        k(   13) = (   0.0576285   0.0998155   0.0000000), wk =   0.1111111
        k(   14) = (   0.0576285  -0.0665437   0.0000000), wk =   0.1111111
        k(   15) = (   0.0576285  -0.0332718   0.0000000), wk =   0.1111111
        k(   16) = (   0.0576285   0.0000000   0.0000000), wk =   0.1111111
        k(   17) = (  -0.0864428  -0.0499078   0.0000000), wk =   0.0555556
        k(   18) = (  -0.0864428  -0.0166359   0.0000000), wk =   0.1111111
        k(   19) = (  -0.0864428   0.0166359   0.0000000), wk =   0.1111111
        k(   20) = (  -0.0864428  -0.1497233   0.0000000), wk =   0.0555556

     Largest allocated arrays     est. size (Mb)     dimensions
     Largest temporary arrays     est. size (Mb)     dimensions

     Initial potential from superposition of free atoms
     Check: negative starting charge=   -0.576845

     starting charge  159.59694, renormalised to  165.00000

[...]

     *
     * You are using vdW-DF for exchange-correlation in this calculation.
     * Please cite the following three references that made this development
     * possible:
     *
     *   M. Dion, H. Rydberg, E. Schroder, D. C. Langreth, and
     *   B. I. Lundqvist, Phys. Rev. Lett. 92, 246401 (2004).
     *
     *   T. Thonhauser, V. R. Cooper, S. Li, A. Puzder, P. Hyldgaard, and
     *   D. C. Langreth, Phys. Rev. B 76, 125112 (2007).
     *
     *   G. Roman-Perez and J. M. Soler, Phys. Rev. Lett. 103, 096102 (2009).
     *
     *
     * If you are using vdW-DF2, please also cite:
     *
     *   K. Lee, E. D. Murray, L. Kong, B. I. Lundqvist, and
     *   D. C. Langreth, Phys. Rev. B 82, 081101(R) (2010).
     *
     *
     * If you are calculating the stress with vdW-DF, please also cite:
     *
     *   R. Sabatini, E. Kucukbenli, B. Kolb, T. Thonhauser, and
     *   S. de Gironcoli, J. Phys.: Condens. Matter 24, 424209 (2012).
     *

     Carrying out vdW-DF run using the following parameters:

     Nqs =      20    Nr_points =    1024   r_max =   100.000
     q_mesh =
               0.00001000     0.04494208     0.09755937     0.15916263
               0.23128650     0.31572767     0.41458969     0.53033537
               0.66584808     0.82450364     1.01025438     1.22772762
               1.48234092     1.78043706     2.12944203     2.53805004
               3.01644009     3.57652955     4.23227104     5.00000000

     Gradients computed in reciprocal space

[...]

     Starting wfc are  144 randomized atomic wfcs

     Self-consistent Calculation

[...]

     total energy              =   -1847.72682807 Ry
     Harris-Foulkes estimate   =   -1847.72682720 Ry
     estimated scf accuracy    <       0.00000158 Ry

     iteration # 16     ecut=    36.75 Ry     beta=0.10
     Davidson diagonalization with overlap
     ethr =  9.60E-10,  avg # of iterations =  2.0

[...]

     negative rho (up, down):  5.999E-01 0.000E+00

     Adding external electric field

     Computed dipole along edir(3) :
        Dipole                0.0678 Ry au,          0.1722 Debye
        Dipole field          0.0002 Ry au

        Potential amp.       -0.0160 Ry
        Total length         45.5513 bohr

     End of self-consistent calculation

[...]

          k = 0.0576 0.0000 0.0000 ( 18193 PWs)   bands (ev):

[...]

          k =-0.0864-0.1497 0.0000 ( 18164 PWs)   bands (ev):

   -72.4572 -72.4420 -72.4266 -72.3052 -72.2918 -72.2782 -72.2041 -72.1466
   -72.1406 -36.8863 -36.7846 -36.7391 -36.6905 -36.6739 -36.6346 -36.6053
   -36.5869 -36.5412 -36.5137 -36.4516 -36.4221 -36.3966 -36.3669 -36.3578
   -36.3369 -36.2914 -36.2691 -36.2460 -36.2443 -36.1369 -36.1154 -36.1037
   -36.0819 -36.0006 -35.9615 -35.8468 -12.8070 -12.7745 -12.7536 -12.7277
   -12.7272 -12.2414 -12.2206 -12.1993 -12.1950 -12.1824 -12.1735 -12.1732
   -12.1664 -12.1639 -12.1493  -5.7151  -5.1647  -3.9559  -3.5468  -2.8301
    -2.7534  -2.4777  -2.0223  -1.2993  -1.1188  -0.9615  -0.7878  -0.7752
    -0.7313  -0.6791  -0.2835  -0.0264   0.0388   0.0982   0.1139   0.2805
     0.4176   0.7526   0.7779   0.8304   0.9994   1.1437   1.2924   1.5517
     1.5851   1.7651   1.8444   1.9379   2.5017   2.8482   2.9315   2.9985
     3.0811   3.3120   3.3257   3.4436   3.4708   3.7486   3.7670   3.9542
     4.0393   4.2723   4.4000   4.4355   5.0357   5.1888   5.2292   5.5956
     5.9824   6.2438   6.8202   7.1554   7.3953   7.4007   7.5544   7.8164

     the Fermi energy is     2.0209 ev

!    total energy              =   -1847.72683156 Ry
     Harris-Foulkes estimate   =   -1847.72682939 Ry
     estimated scf accuracy    <       0.00000080 Ry

     The total energy is the sum of the following terms:

     one-electron contribution =  -13679.61754722 Ry
     hartree contribution      =    6847.13062723 Ry
     xc contribution           =    -500.40356938 Ry
     ewald contribution        =    5485.21860081 Ry
     electric field correction =       0.00001193 Ry
     smearing contrib. (-TS)   =      -0.05495493 Ry

     convergence has been achieved in  16 iterations

 BEEF-vdW xc energy contributions
           1 :   -440.007923012117
           2 :    406.306339550600
           3 :   -347.398706468457
           4 :    276.903799975486
           5 :   -208.655848383031
           6 :    152.410146464353
           7 :   -111.738508149558
           8 :    84.6096778886546
           9 :   -65.9530783384107
          10 :    50.7324096780578
          11 :   -36.0875224038386
          12 :    21.8107388414269
          13 :   -9.37200748263541
          14 :   0.361213126862594
          15 :    4.69805313748270
          16 :   -6.63238679576557
          17 :    7.06178079490167
          18 :   -7.49289175008551
          19 :    8.62920355133997
          20 :   -10.2350727522601
          21 :    11.5295780333684
          22 :   -11.8055494373369
          23 :    10.8938061534523
          24 :   -9.24000706407514
          25 :    7.61104677453983
          26 :   -6.65054310824939
          27 :    6.55161702389250
          28 :   -7.01408271896275
          29 :    7.47485972479512
          30 :   -7.45210752809317
          31 :   -39.7750706407761
          32 :   -29.6512586455544

     Forces acting on atoms (Ry/au):

     negative rho (up, down):  5.999E-01 0.000E+00
     atom    1 type  1   force =     0.00000049   -0.03451710    0.04109780
     atom    2 type  1   force =    -0.02989332    0.01725952    0.04109826
     atom    3 type  1   force =     0.02989280    0.01725847    0.04109777
     atom    4 type  2   force =     0.00000120    0.00000051   -0.07995085
     atom    5 type  1   force =     0.00000184    0.02719423   -0.01155242
     atom    6 type  1   force =     0.02354913   -0.01359571   -0.01154741
     atom    7 type  1   force =    -0.02354980   -0.01359824   -0.01155700
     atom    8 type  2   force =    -0.00000134   -0.00000126   -0.01153119
     atom    9 type  1   force =     0.00001093   -0.00016173    0.00061821
     atom   10 type  1   force =    -0.00014397    0.00008763    0.00062541
     atom   11 type  1   force =     0.00013665    0.00007104    0.00060546
     atom   12 type  2   force =    -0.00000461    0.00000264    0.00099596

     Total force =     0.133370     Total SCF correction =     0.006625

     entering subroutine stress ...

     negative rho (up, down):  5.999E-01 0.000E+00
          total   stress  (Ry/bohr**3)                   (kbar)     P=  -30.41
  -0.00026141  -0.00000001   0.00000000        -38.46     -0.00      0.00
  -0.00000001  -0.00026141   0.00000000         -0.00    -38.46      0.00
   0.00000000   0.00000000  -0.00009730          0.00      0.00    -14.31

 !ASE

     Writing output data file calc.save

     General routines

     Parallel routines

   This run was terminated on:   9:54: 7   2Jan2019

   JOB DONE.
Job  /afs/slac/g/suncat/bin/suncat-tsmpirun -x LD_LIBRARY_PATH -wdir /scratch/qe649356_0pnob pw.x -in pw.inp

TID   HOST_NAME   COMMAND_LINE            STATUS            TERMINATION_TIME
00000 suncat0097 pw.x -in pw.inp   Done                     01/02/2019 09:54:07
00001 suncat0097 pw.x -in pw.inp   Done                     01/02/2019 09:54:07
00002 suncat0097 pw.x -in pw.inp   Done                     01/02/2019 09:54:07
00003 suncat0097 pw.x -in pw.inp   Done                     01/02/2019 09:54:07
00004 suncat0097 pw.x -in pw.inp   Done                     01/02/2019 09:54:07
00005 suncat0097 pw.x -in pw.inp   Done                     01/02/2019 09:54:07
00006 suncat0097 pw.x -in pw.inp   Done                     01/02/2019 09:54:07
00007 suncat0097 pw.x -in pw.inp   Done                     01/02/2019 09:54:07
00008 suncat0094 pw.x -in pw.inp   Done                     01/02/2019 09:54:07
00009 suncat0094 pw.x -in pw.inp   Done                     01/02/2019 09:54:07
00010 suncat0094 pw.x -in pw.inp   Done                     01/02/2019 09:54:07
00011 suncat0094 pw.x -in pw.inp   Done                     01/02/2019 09:54:07
00012 suncat0094 pw.x -in pw.inp   Done                     01/02/2019 09:54:07
00013 suncat0094 pw.x -in pw.inp   Done                     01/02/2019 09:54:07
00014 suncat0094 pw.x -in pw.inp   Done                     01/02/2019 09:54:07
00015 suncat0094 pw.x -in pw.inp   Done                     01/02/2019 09:54:07
00016 suncat0093 pw.x -in pw.inp   Done                     01/02/2019 09:54:07
00017 suncat0093 pw.x -in pw.inp   Done                     01/02/2019 09:54:07
00018 suncat0093 pw.x -in pw.inp   Done                     01/02/2019 09:54:07
00019 suncat0093 pw.x -in pw.inp   Done                     01/02/2019 09:54:07
00020 suncat0093 pw.x -in pw.inp   Done                     01/02/2019 09:54:07
00021 suncat0093 pw.x -in pw.inp   Done                     01/02/2019 09:54:07
00022 suncat0093 pw.x -in pw.inp   Done                     01/02/2019 09:54:07
00023 suncat0093 pw.x -in pw.inp   Done                     01/02/2019 09:54:07
00024 suncat0091 pw.x -in pw.inp   Done                     01/02/2019 09:54:07
00025 suncat0091 pw.x -in pw.inp   Done                     01/02/2019 09:54:07
00026 suncat0091 pw.x -in pw.inp   Done                     01/02/2019 09:54:07
00027 suncat0091 pw.x -in pw.inp   Done                     01/02/2019 09:54:07
00028 suncat0091 pw.x -in pw.inp   Done                     01/02/2019 09:54:07
00029 suncat0091 pw.x -in pw.inp   Done                     01/02/2019 09:54:07
00030 suncat0091 pw.x -in pw.inp   Done                     01/02/2019 09:54:07
00031 suncat0091 pw.x -in pw.inp   Done                     01/02/2019 09:54:07
00032 suncat0029 pw.x -in pw.inp   Done                     01/02/2019 09:54:07
00033 suncat0029 pw.x -in pw.inp   Done                     01/02/2019 09:54:07
00034 suncat0029 pw.x -in pw.inp   Done                     01/02/2019 09:54:07
00035 suncat0029 pw.x -in pw.inp   Done                     01/02/2019 09:54:07
00036 suncat0029 pw.x -in pw.inp   Done                     01/02/2019 09:54:07
00037 suncat0029 pw.x -in pw.inp   Done                     01/02/2019 09:54:07
00038 suncat0029 pw.x -in pw.inp   Done                     01/02/2019 09:54:07
00039 suncat0029 pw.x -in pw.inp   Done                     01/02/2019 09:54:07
00040 suncat0019 pw.x -in pw.inp   Done                     01/02/2019 09:54:07
00041 suncat0019 pw.x -in pw.inp   Done                     01/02/2019 09:54:07
00042 suncat0019 pw.x -in pw.inp   Done                     01/02/2019 09:54:07
00043 suncat0019 pw.x -in pw.inp   Done                     01/02/2019 09:54:07
00044 suncat0019 pw.x -in pw.inp   Done                     01/02/2019 09:54:07
00045 suncat0019 pw.x -in pw.inp   Done                     01/02/2019 09:54:07
00046 suncat0019 pw.x -in pw.inp   Done                     01/02/2019 09:54:07
00047 suncat0019 pw.x -in pw.inp   Done                     01/02/2019 09:54:07
00048 suncat0018 pw.x -in pw.inp   Done                     01/02/2019 09:54:07
00049 suncat0018 pw.x -in pw.inp   Done                     01/02/2019 09:54:07
00050 suncat0018 pw.x -in pw.inp   Done                     01/02/2019 09:54:07
00051 suncat0018 pw.x -in pw.inp   Done                     01/02/2019 09:54:07
00052 suncat0018 pw.x -in pw.inp   Done                     01/02/2019 09:54:07
00053 suncat0018 pw.x -in pw.inp   Done                     01/02/2019 09:54:07
00054 suncat0018 pw.x -in pw.inp   Done                     01/02/2019 09:54:07
00055 suncat0018 pw.x -in pw.inp   Done                     01/02/2019 09:54:07
00056 suncat0001 pw.x -in pw.inp   Done                     01/02/2019 09:54:07
00057 suncat0001 pw.x -in pw.inp   Done                     01/02/2019 09:54:07
00058 suncat0001 pw.x -in pw.inp   Done                     01/02/2019 09:54:07
00059 suncat0001 pw.x -in pw.inp   Done                     01/02/2019 09:54:07
00060 suncat0001 pw.x -in pw.inp   Done                     01/02/2019 09:54:07
00061 suncat0001 pw.x -in pw.inp   Done                     01/02/2019 09:54:07
00062 suncat0001 pw.x -in pw.inp   Done                     01/02/2019 09:54:07
00063 suncat0001 pw.x -in pw.inp   Done                     01/02/2019 09:54:07