     Program PWSCF v.5.1rc2 (svn rev. 11289) starts on 28Dec2018 at  0:39:13

     Current dimensions of program PWSCF are:
     Max number of different atomic species (ntypx) = 10
     Max number of k-points (npk) =  40000
     Max angular momentum in pseudopotentials (lmaxx) =  3
     Presently stress not available with electric field

     IMPORTANT: XC functional enforced from input :
     Exchange-correlation      = BEEF-VDW ( 1  4 27 13 2)
     Any further DFT definition will be discarded
     Please, verify this is what you really want

     Subspace diagonalization in iterative solution of the eigenvalue problem:
     a serial algorithm will be used

     bravais-lattice index     =            0
     lattice parameter (alat)  =       1.8897  a.u.
     unit-cell volume          =    5077.0700 (a.u.)^3
     number of atoms/cell      =           12
     number of atomic types    =            2
     number of electrons       =       159.00
     number of Kohn-Sham states=          109
     kinetic-energy cutoff     =      36.7493  Ry
     charge density cutoff     =     367.4932  Ry
     convergence threshold     =      1.0E-06
     mixing beta               =       0.1000
     number of iterations used =           10  plain     mixing
     Exchange-correlation      = BEEF-VDW ( 1  4 27 13 2)
     nstep                     =           50

     celldm(1)=   1.889726  celldm(2)=   0.000000  celldm(3)=   0.000000
     celldm(4)=   0.000000  celldm(5)=   0.000000  celldm(6)=   0.000000

     crystal axes: (cart. coord. in units of alat)
               a(1) = (   5.915044   0.000000   0.000000 )
               a(2) = (  -2.957522   5.122578   0.000000 )
               a(3) = (   0.000000   0.000000  24.829613 )

     reciprocal axes: (cart. coord. in units 2 pi/alat)
               b(1) = (  0.169060  0.097607  0.000000 )
               b(2) = (  0.000000  0.195214  0.000000 )
               b(3) = (  0.000000  0.000000  0.040274 )

     PseudoPot. # 1 for Ta read from file:
     /afs/slac.stanford.edu/u/if/mamunm/psp/gbrv1.5pbe/Ta.UPF
     MD5 check sum: f8bbe9446314a3b8ea5d9f3e3836c939
     Pseudo is Ultrasoft + core correction, Zval = 13.0
     Generated by new atomic code, or converted to UPF format
     Using radial grid of  921 points,  7 beta functions with:
                l(1) =   0
                l(2) =   0
                l(3) =   1
                l(4) =   1
                l(5) =   2
                l(6) =   2
                l(7) =   3
     Q(r) pseudized with  6 coefficients,  rinner =    1.300   1.300   1.300
                                                       1.300   1.300   1.300
                                                       1.300

     PseudoPot. # 2 for W  read from file:
     /afs/slac.stanford.edu/u/if/mamunm/psp/gbrv1.5pbe/W.UPF
     MD5 check sum: 9c083fa34c2a2ea0f02f1f893e16e1c8
     Pseudo is Ultrasoft + core correction, Zval = 14.0
     Generated by new atomic code, or converted to UPF format
     Using radial grid of  923 points,  8 beta functions with:
                l(1) =   0
                l(2) =   0
                l(3) =   0
                l(4) =   1
                l(5) =   1
                l(6) =   2
                l(7) =   2
                l(8) =   3
     Q(r) pseudized with  6 coefficients,  rinner =    1.350   1.350   1.350
                                                       1.350   1.350   1.350
                                                       1.350

     vdW kernel table read from file vdW_kernel_table
     MD5 check sum: 095c7af220d748ca6e76c0b4c6cfb241

     atomic species   valence    mass     pseudopotential
        Ta1           13.00   180.94788     Ta( 1.00)
        W1            14.00   183.84000     W ( 1.00)

     No symmetry found

   Cartesian axes

     site n.     atom                  positions (alat units)
         1           Ta1 tau(   1) = (   0.0000000   0.0000000  10.0000000  )
         2           Ta1 tau(   2) = (  -1.4787610   2.5612892  10.0000000  )
         3           Ta1 tau(   3) = (   1.4787610   2.5612892  10.0000000  )
         4           W1  tau(   4) = (   2.9575220   0.0000000  10.0000000  )
         5           Ta1 tau(   5) = (   2.9575220   1.7075261  12.4148066  )
         6           Ta1 tau(   6) = (   1.4787610   4.2688153  12.4148066  )
         7           Ta1 tau(   7) = (  -1.4787610   4.2688153  12.4148066  )
         8           W1  tau(   8) = (   0.0000000   1.7075261  12.4148066  )
         9           Ta1 tau(   9) = (  -0.0000000   3.4150523  14.8296133  )
        10           Ta1 tau(  10) = (   1.4787610   0.8537631  14.8296133  )
        11           Ta1 tau(  11) = (   4.4362830   0.8537631  14.8296133  )
        12           W1  tau(  12) = (   2.9575220   3.4150523  14.8296133  )

     number of k points=    20  Fermi-Dirac smearing, width (Ry)=  0.0110
                       cart. coord. in units 2pi/alat
        k(    1) = (   0.0000000   0.0000000   0.0000000), wk =   0.0555556
        k(    2) = (   0.0000000   0.0325357   0.0000000), wk =   0.1111111
        k(    3) = (   0.0000000   0.0650714   0.0000000), wk =   0.1111111
        k(    4) = (   0.0000000  -0.0976071   0.0000000), wk =   0.0555556
        k(    5) = (   0.0281767   0.0162678   0.0000000), wk =   0.1111111
        k(    6) = (   0.0281767   0.0488035   0.0000000), wk =   0.1111111
        k(    7) = (   0.0281767   0.0813392   0.0000000), wk =   0.1111111
        k(    8) = (   0.0281767  -0.0813392   0.0000000), wk =   0.1111111
        k(    9) = (   0.0281767  -0.0488035   0.0000000), wk =   0.1111111
        k(   10) = (   0.0281767  -0.0162678   0.0000000), wk =   0.1111111
        k(   11) = (   0.0563535   0.0325357   0.0000000), wk =   0.1111111
        k(   12) = (   0.0563535   0.0650714   0.0000000), wk =   0.1111111
        k(   13) = (   0.0563535   0.0976071   0.0000000), wk =   0.1111111
        k(   14) = (   0.0563535  -0.0650714   0.0000000), wk =   0.1111111
        k(   15) = (   0.0563535  -0.0325357   0.0000000), wk =   0.1111111
        k(   16) = (   0.0563535  -0.0000000   0.0000000), wk =   0.1111111
        k(   17) = (  -0.0845302  -0.0488035   0.0000000), wk =   0.0555556
        k(   18) = (  -0.0845302  -0.0162678   0.0000000), wk =   0.1111111
        k(   19) = (  -0.0845302   0.0162678   0.0000000), wk =   0.1111111
        k(   20) = (  -0.0845302  -0.1464106   0.0000000), wk =   0.0555556

     Largest allocated arrays     est. size (Mb)     dimensions
     Largest temporary arrays     est. size (Mb)     dimensions

     Initial potential from superposition of free atoms
     Check: negative starting charge=   -1.033645

     starting charge  158.68897, renormalised to  159.00000

     negative rho (up, down):  1.036E+00 0.000E+00

     *
     * You are using vdW-DF for exchange-correlation in this calculation.
     * Please cite the following three references that made this development
     * possible:
     *
     *   M. Dion, H. Rydberg, E. Schroder, D. C. Langreth, and
     *   B. I. Lundqvist, Phys. Rev. Lett. 92, 246401 (2004).
     *
     *   T. Thonhauser, V. R. Cooper, S. Li, A. Puzder, P. Hyldgaard, and
     *   D. C. Langreth, Phys. Rev. B 76, 125112 (2007).
     *
     *   G. Roman-Perez and J. M. Soler, Phys. Rev. Lett. 103, 096102 (2009).
     *
     *
     * If you are using vdW-DF2, please also cite:
     *
     *   K. Lee, E. D. Murray, L. Kong, B. I. Lundqvist, and
     *   D. C. Langreth, Phys. Rev. B 82, 081101(R) (2010).
     *
     *
     * If you are calculating the stress with vdW-DF, please also cite:
     *
     *   R. Sabatini, E. Kucukbenli, B. Kolb, T. Thonhauser, and
     *   S. de Gironcoli, J. Phys.: Condens. Matter 24, 424209 (2012).
     *

     Carrying out vdW-DF run using the following parameters:

     Nqs =      20    Nr_points =    1024   r_max =   100.000
     q_mesh =
               0.00001000     0.04494208     0.09755937     0.15916263
               0.23128650     0.31572767     0.41458969     0.53033537
               0.66584808     0.82450364     1.01025438     1.22772762
               1.48234092     1.78043706     2.12944203     2.53805004
               3.01644009     3.57652955     4.23227104     5.00000000

     Gradients computed in reciprocal space

     Adding external electric field

     Computed dipole along edir(3) :
        Dipole                0.0000 Ry au,          0.0000 Debye
        Dipole field          0.0000 Ry au

        Potential amp.       -0.0000 Ry
        Total length         45.7481 bohr

     Starting wfc are  156 randomized atomic wfcs

     Self-consistent Calculation

     iteration #  1     ecut=    36.75 Ry     beta=0.10
     Davidson diagonalization with overlap
     ethr =  1.00E-02,  avg # of iterations =  2.0

[...]

     total energy              =   -1769.42583254 Ry
     Harris-Foulkes estimate   =   -1770.23158799 Ry
     estimated scf accuracy    <       4.65354131 Ry

[...]

     End of self-consistent calculation

          k = 0.0000 0.0000 0.0000 ( 19099 PWs)   bands (ev):

   -72.1791 -72.0508 -72.0508 -66.2630 -66.2560 -66.2113 -66.2113 -66.2094
   -66.2094 -66.1877 -66.1458 -66.1458 -36.2784 -36.2784 -36.2379 -36.1915
   -36.1795 -36.1001 -36.1001 -36.0965 -36.0965 -33.0533 -32.9318 -32.8890
   -32.8157 -32.8157 -32.8029 -32.7329 -32.7329 -32.6982 -32.6551 -32.6551
   -32.6098 -32.6098 -32.5191 -32.5191 -32.4051 -32.3411 -32.3256 -32.3256
   -32.3165 -32.2364 -32.2083 -32.2083 -32.2002 -32.2002 -32.1850 -32.1850
    -5.5704  -3.9180  -2.9222  -2.2721  -2.2386  -2.2386  -2.0415  -2.0408
    -2.0408  -1.3173  -1.3173  -1.3117  -1.1500  -1.1500  -1.1384   0.0902
     0.0902   0.1859   1.1438   1.3093   1.3093   1.3478   1.7062   1.7702
     1.8513   2.0319   2.0319   2.1882   2.1882   2.4322   2.4322   2.4853
     2.4853   2.5114   2.6916   2.6916   2.7876   2.9422   3.0334   3.0334
     3.7835   3.7835   3.7889   4.0811   4.0811   4.5190   4.8518   4.8518
     4.8719   5.2435   5.2435   5.4359   5.4359   6.1296   6.1382   6.2592
     6.2748   6.2748   6.3415   6.3415   6.6981

[...]

          k =-0.0845-0.0488 0.0000 ( 19076 PWs)   bands (ev):

[...]

     the Fermi energy is     2.0496 ev

!    total energy              =   -1769.83477874 Ry
     Harris-Foulkes estimate   =   -1769.83703900 Ry
     estimated scf accuracy    <       0.00000034 Ry

     The total energy is the sum of the following terms:

     one-electron contribution =  -12066.98747528 Ry
     hartree contribution      =    6015.42718045 Ry
     xc contribution           =    -519.46015263 Ry
     ewald contribution        =    4801.29140697 Ry
     electric field correction =       0.00000000 Ry
     smearing contrib. (-TS)   =      -0.10573825 Ry

     convergence has been achieved in  16 iterations

 BEEF-vdW xc energy contributions
           1 :   -457.094420036361
           2 :    422.238223630662
           3 :   -361.194109057543
           4 :    287.870732891042
           5 :   -216.414661923968
           6 :    156.866677305176
           7 :   -113.081470197499
           8 :    83.3582730328844
           9 :   -62.9814535174803
          10 :    47.1746068707118
[...]
                l(2) =   0
                l(3) =   1
                l(4) =   1
                l(5) =   2
                l(6) =   2
                l(7) =   3
     Q(r) pseudized with  6 coefficients,  rinner =    1.300   1.300   1.300
                                                       1.300   1.300   1.300
                                                       1.300

     PseudoPot. # 2 for W  read from file:
     /afs/slac.stanford.edu/u/if/mamunm/psp/gbrv1.5pbe/W.UPF
     MD5 check sum: 9c083fa34c2a2ea0f02f1f893e16e1c8
     Pseudo is Ultrasoft + core correction, Zval = 14.0
     Generated by new atomic code, or converted to UPF format
     Using radial grid of  923 points,  8 beta functions with:
                l(1) =   0
                l(2) =   0
                l(3) =   0
                l(4) =   1
                l(5) =   1
                l(6) =   2
                l(7) =   2
                l(8) =   3
     Q(r) pseudized with  6 coefficients,  rinner =    1.350   1.350   1.350
                                                       1.350   1.350   1.350
                                                       1.350

     vdW kernel table read from file vdW_kernel_table
     MD5 check sum: 095c7af220d748ca6e76c0b4c6cfb241

     atomic species   valence    mass     pseudopotential
        Ta1           13.00   180.94788     Ta( 1.00)
        W1            14.00   183.84000     W ( 1.00)

     No symmetry found

   Cartesian axes

     site n.     atom                  positions (alat units)
         1           Ta1 tau(   1) = (   0.0000000   0.0000000  10.0000000  )
         2           Ta1 tau(   2) = (  -1.4787610   2.5612892  10.0000000  )
         3           Ta1 tau(   3) = (   1.4787610   2.5612892  10.0000000  )
         4           W1  tau(   4) = (   2.9575220   0.0000000  10.0000000  )
         5           Ta1 tau(   5) = (   2.9575220   1.7075261  12.4148066  )
         6           Ta1 tau(   6) = (   1.4787610   4.2688153  12.4148066  )
         7           Ta1 tau(   7) = (  -1.4787610   4.2688153  12.4148066  )
         8           W1  tau(   8) = (   0.0000000   1.7075261  12.4148066  )
         9           Ta1 tau(   9) = (   0.0000081   3.3830280  14.8652935  )
        10           Ta1 tau(  10) = (   1.4510341   0.8697684  14.8653129  )
        11           Ta1 tau(  11) = (   4.4640210   0.8697661  14.8653023  )
        12           W1  tau(  12) = (   2.9574860   3.4150827  14.6944109  )

     number of k points=    20  Fermi-Dirac smearing, width (Ry)=  0.0110
                       cart. coord. in units 2pi/alat
        k(    1) = (   0.0000000   0.0000000   0.0000000), wk =   0.0555556
        k(    2) = (   0.0000000   0.0325357   0.0000000), wk =   0.1111111
        k(    3) = (   0.0000000   0.0650714   0.0000000), wk =   0.1111111
        k(    4) = (   0.0000000  -0.0976071   0.0000000), wk =   0.0555556
        k(    5) = (   0.0281767   0.0162678   0.0000000), wk =   0.1111111
        k(    6) = (   0.0281767   0.0488035   0.0000000), wk =   0.1111111
        k(    7) = (   0.0281767   0.0813392   0.0000000), wk =   0.1111111
        k(    8) = (   0.0281767  -0.0813392   0.0000000), wk =   0.1111111
        k(    9) = (   0.0281767  -0.0488035   0.0000000), wk =   0.1111111
        k(   10) = (   0.0281767  -0.0162678   0.0000000), wk =   0.1111111
        k(   11) = (   0.0563535   0.0325357   0.0000000), wk =   0.1111111
        k(   12) = (   0.0563535   0.0650714   0.0000000), wk =   0.1111111
        k(   13) = (   0.0563535   0.0976071   0.0000000), wk =   0.1111111
        k(   14) = (   0.0563535  -0.0650714   0.0000000), wk =   0.1111111
        k(   15) = (   0.0563535  -0.0325357   0.0000000), wk =   0.1111111
        k(   16) = (   0.0563535  -0.0000000   0.0000000), wk =   0.1111111
        k(   17) = (  -0.0845302  -0.0488035   0.0000000), wk =   0.0555556
        k(   18) = (  -0.0845302  -0.0162678   0.0000000), wk =   0.1111111
        k(   19) = (  -0.0845302   0.0162678   0.0000000), wk =   0.1111111
        k(   20) = (  -0.0845302  -0.1464106   0.0000000), wk =   0.0555556

     Largest allocated arrays     est. size (Mb)     dimensions
     Largest temporary arrays     est. size (Mb)     dimensions

     Initial potential from superposition of free atoms
     Check: negative starting charge=   -1.035225

     starting charge  158.68897, renormalised to  159.00000

[...]

     *
     * You are using vdW-DF for exchange-correlation in this calculation.
     * Please cite the following three references that made this development
     * possible:
     *
     *   M. Dion, H. Rydberg, E. Schroder, D. C. Langreth, and
     *   B. I. Lundqvist, Phys. Rev. Lett. 92, 246401 (2004).
     *
     *   T. Thonhauser, V. R. Cooper, S. Li, A. Puzder, P. Hyldgaard, and
     *   D. C. Langreth, Phys. Rev. B 76, 125112 (2007).
     *
     *   G. Roman-Perez and J. M. Soler, Phys. Rev. Lett. 103, 096102 (2009).
     *
     *
     * If you are using vdW-DF2, please also cite:
     *
     *   K. Lee, E. D. Murray, L. Kong, B. I. Lundqvist, and
     *   D. C. Langreth, Phys. Rev. B 82, 081101(R) (2010).
     *
     *
     * If you are calculating the stress with vdW-DF, please also cite:
     *
     *   R. Sabatini, E. Kucukbenli, B. Kolb, T. Thonhauser, and
     *   S. de Gironcoli, J. Phys.: Condens. Matter 24, 424209 (2012).
     *

     Carrying out vdW-DF run using the following parameters:

     Nqs =      20    Nr_points =    1024   r_max =   100.000
     q_mesh =
               0.00001000     0.04494208     0.09755937     0.15916263
               0.23128650     0.31572767     0.41458969     0.53033537
               0.66584808     0.82450364     1.01025438     1.22772762
               1.48234092     1.78043706     2.12944203     2.53805004
               3.01644009     3.57652955     4.23227104     5.00000000

     Gradients computed in reciprocal space

[...]

     Starting wfc are  156 randomized atomic wfcs

     Self-consistent Calculation

[...]

     iteration #  7     ecut=    36.75 Ry     beta=0.10
     Davidson diagonalization with overlap
     c_bands:  1 eigenvalues not converged
     ethr =  3.92E-05,  avg # of iterations =  6.1

[...]

     total energy              =   -1769.84785148 Ry
     Harris-Foulkes estimate   =   -1769.84785033 Ry
     estimated scf accuracy    <       0.00000188 Ry

     iteration # 15     ecut=    36.75 Ry     beta=0.10
     Davidson diagonalization with overlap
     ethr =  1.18E-09,  avg # of iterations =  2.0

[...]

     negative rho (up, down):  1.084E+00 0.000E+00

     Adding external electric field

     Computed dipole along edir(3) :
        Dipole                0.0157 Ry au,          0.0399 Debye
        Dipole field          0.0000 Ry au

        Potential amp.       -0.0036 Ry
        Total length         45.7481 bohr

     End of self-consistent calculation

[...]

          k = 0.0564-0.0000 0.0000 ( 19101 PWs)   bands (ev):

[...]

          k =-0.0845-0.1464 0.0000 ( 19076 PWs)   bands (ev):

   -72.1768 -72.0304 -71.9655 -66.2523 -66.2337 -66.2183 -66.2174 -66.2014
   -66.1847 -66.1450 -66.1316 -66.1167 -36.2646 -36.2531 -36.2324 -36.1647
   -36.0933 -36.0712 -36.0586 -36.0402 -36.0286 -32.8756 -32.8421 -32.7835
   -32.7560 -32.7115 -32.7105 -32.6669 -32.6655 -32.6270 -32.5803 -32.5703
   -32.5514 -32.5210 -32.4992 -32.4849 -32.4823 -32.4649 -32.4641 -32.4237
   -32.3927 -32.3885 -32.3155 -32.2816 -32.2730 -32.2224 -32.1969 -32.1829
    -3.7343  -3.6918  -2.2666  -2.2360  -1.4682  -1.3994  -1.2430  -1.2037
    -1.1668  -1.0632  -0.3226  -0.2575  -0.0650   0.0006   0.0973   0.1176
     0.3547   0.4656   0.4762   0.6408   0.6890   0.8235   0.9790   1.1572
     1.1882   1.2622   1.3520   1.4491   1.4737   1.5201   1.6711   1.7360
     1.8990   2.1136   2.1760   2.2504   2.3259   2.3917   3.0256   3.0676
     3.1933   3.5023   3.5791   3.7177   3.8711   3.9260   3.9723   4.2017
     4.2737   4.2857   4.4489   4.6345   4.7262   4.8450   4.9554   5.0586
     5.4746   5.5768   5.6006   5.7968   6.1435

     the Fermi energy is     2.0720 ev

!    total energy              =   -1769.84785039 Ry
     Harris-Foulkes estimate   =   -1769.84785185 Ry
     estimated scf accuracy    <       0.00000046 Ry

     The total energy is the sum of the following terms:

     one-electron contribution =  -12082.49617628 Ry
     hartree contribution      =    6023.30660019 Ry
     xc contribution           =    -519.49220042 Ry
     ewald contribution        =    4808.93872049 Ry
     electric field correction =       0.00000061 Ry
     smearing contrib. (-TS)   =      -0.10479498 Ry

     convergence has been achieved in  15 iterations

 BEEF-vdW xc energy contributions
           1 :   -457.404319084032
           2 :    422.553741098492
           3 :   -361.517463369523
           4 :    288.198365224853
           5 :   -216.736601187581
           6 :    157.169618498204
           7 :   -113.356073918017
           8 :    83.6067256481012
           9 :   -63.2188050498553
          10 :    47.4209583534940
          11 :   -33.3609289154130
          12 :    20.5193011169573
          13 :   -9.82415666397674
          14 :    2.29587259394066
          15 :    1.93481232937626
          16 :   -3.79948083671815
          17 :    4.74817061417366
          18 :   -5.94632274894087
          19 :    7.72648999538598
          20 :   -9.58422999007257
          21 :    10.6617749465845
          22 :   -10.3901371337869
          23 :    8.89523932981774
          24 :   -6.94325905112271
          25 :    5.49323150289172
          26 :   -5.15371856469767
          27 :    5.87276122362721
          28 :   -7.02446842175027
          29 :    7.80909921919823
          30 :   -7.70991991522385
          31 :   -40.8999051526089
          32 :   -30.4250939356899

     Forces acting on atoms (Ry/au):

     negative rho (up, down):  1.084E+00 0.000E+00
     atom    1 type  1   force =     0.00000217    0.01061662   -0.00496248
     atom    2 type  1   force =     0.00919519   -0.00530640   -0.00496209
     atom    3 type  1   force =    -0.00919526   -0.00530890   -0.00496322
     atom    4 type  2   force =    -0.00000227   -0.00000173    0.01859419
     atom    5 type  1   force =     0.00000114   -0.01008191   -0.00203166
     atom    6 type  1   force =    -0.00873129    0.00504061   -0.00203934
     atom    7 type  1   force =     0.00873181    0.00503955   -0.00203405
     atom    8 type  2   force =    -0.00000046    0.00000073    0.00545420
     atom    9 type  1   force =    -0.00000422    0.00133318   -0.00060152
     atom   10 type  1   force =     0.00115599   -0.00066752   -0.00060458
     atom   11 type  1   force =    -0.00115663   -0.00066299   -0.00060181
     atom   12 type  2   force =     0.00000383   -0.00000124   -0.00124765

     Total force =     0.033360     Total SCF correction =     0.001737

     entering subroutine stress ...

     negative rho (up, down):  1.084E+00 0.000E+00
          total   stress  (Ry/bohr**3)                   (kbar)     P=  -38.45
  -0.00036096   0.00000000  -0.00000000        -53.10      0.00     -0.00
   0.00000000  -0.00036096   0.00000000          0.00    -53.10      0.00
  -0.00000000   0.00000000  -0.00006223         -0.00      0.00     -9.15

 !ASE

     Writing output data file calc.save

     General routines

     Parallel routines

   This run was terminated on:   1:18:10  28Dec2018

   JOB DONE.
Job  /afs/slac/g/suncat/bin/suncat-tsmpirun -x LD_LIBRARY_PATH -wdir /scratch/qe111031_FlbxE pw.x -in pw.inp

TID   HOST_NAME   COMMAND_LINE            STATUS            TERMINATION_TIME
00000 suncat0096 pw.x -in pw.inp   Done                     12/28/2018 01:18:10
00001 suncat0096 pw.x -in pw.inp   Done                     12/28/2018 01:18:10
00002 suncat0096 pw.x -in pw.inp   Done                     12/28/2018 01:18:10
00003 suncat0096 pw.x -in pw.inp   Done                     12/28/2018 01:18:10
00004 suncat0096 pw.x -in pw.inp   Done                     12/28/2018 01:18:10
00005 suncat0096 pw.x -in pw.inp   Done                     12/28/2018 01:18:10
00006 suncat0096 pw.x -in pw.inp   Done                     12/28/2018 01:18:10
00007 suncat0096 pw.x -in pw.inp   Done                     12/28/2018 01:18:10
00008 suncat0093 pw.x -in pw.inp   Done                     12/28/2018 01:18:10
00009 suncat0093 pw.x -in pw.inp   Done                     12/28/2018 01:18:10
00010 suncat0093 pw.x -in pw.inp   Done                     12/28/2018 01:18:10
00011 suncat0093 pw.x -in pw.inp   Done                     12/28/2018 01:18:10
00012 suncat0093 pw.x -in pw.inp   Done                     12/28/2018 01:18:10
00013 suncat0093 pw.x -in pw.inp   Done                     12/28/2018 01:18:10
00014 suncat0093 pw.x -in pw.inp   Done                     12/28/2018 01:18:10
00015 suncat0093 pw.x -in pw.inp   Done                     12/28/2018 01:18:10
00016 suncat0087 pw.x -in pw.inp   Done                     12/28/2018 01:18:10
00017 suncat0087 pw.x -in pw.inp   Done                     12/28/2018 01:18:10
00018 suncat0087 pw.x -in pw.inp   Done                     12/28/2018 01:18:10
00019 suncat0087 pw.x -in pw.inp   Done                     12/28/2018 01:18:10
00020 suncat0087 pw.x -in pw.inp   Done                     12/28/2018 01:18:10
00021 suncat0087 pw.x -in pw.inp   Done                     12/28/2018 01:18:10
00022 suncat0087 pw.x -in pw.inp   Done                     12/28/2018 01:18:10
00023 suncat0087 pw.x -in pw.inp   Done                     12/28/2018 01:18:10
00024 suncat0086 pw.x -in pw.inp   Done                     12/28/2018 01:18:10
00025 suncat0086 pw.x -in pw.inp   Done                     12/28/2018 01:18:10
00026 suncat0086 pw.x -in pw.inp   Done                     12/28/2018 01:18:10
00027 suncat0086 pw.x -in pw.inp   Done                     12/28/2018 01:18:10
00028 suncat0086 pw.x -in pw.inp   Done                     12/28/2018 01:18:10
00029 suncat0086 pw.x -in pw.inp   Done                     12/28/2018 01:18:10
00030 suncat0086 pw.x -in pw.inp   Done                     12/28/2018 01:18:10
00031 suncat0086 pw.x -in pw.inp   Done                     12/28/2018 01:18:10
00032 suncat0085 pw.x -in pw.inp   Done                     12/28/2018 01:18:10
00033 suncat0085 pw.x -in pw.inp   Done                     12/28/2018 01:18:10
00034 suncat0085 pw.x -in pw.inp   Done                     12/28/2018 01:18:10
00035 suncat0085 pw.x -in pw.inp   Done                     12/28/2018 01:18:10
00036 suncat0085 pw.x -in pw.inp   Done                     12/28/2018 01:18:10
00037 suncat0085 pw.x -in pw.inp   Done                     12/28/2018 01:18:10
00038 suncat0085 pw.x -in pw.inp   Done                     12/28/2018 01:18:10
00039 suncat0085 pw.x -in pw.inp   Done                     12/28/2018 01:18:10
00040 suncat0084 pw.x -in pw.inp   Done                     12/28/2018 01:18:10
00041 suncat0084 pw.x -in pw.inp   Done                     12/28/2018 01:18:10
00042 suncat0084 pw.x -in pw.inp   Done                     12/28/2018 01:18:10
00043 suncat0084 pw.x -in pw.inp   Done                     12/28/2018 01:18:10
00044 suncat0084 pw.x -in pw.inp   Done                     12/28/2018 01:18:10
00045 suncat0084 pw.x -in pw.inp   Done                     12/28/2018 01:18:10
00046 suncat0084 pw.x -in pw.inp   Done                     12/28/2018 01:18:10
00047 suncat0084 pw.x -in pw.inp   Done                     12/28/2018 01:18:10
00048 suncat0083 pw.x -in pw.inp   Done                     12/28/2018 01:18:10
00049 suncat0083 pw.x -in pw.inp   Done                     12/28/2018 01:18:10
00050 suncat0083 pw.x -in pw.inp   Done                     12/28/2018 01:18:10
00051 suncat0083 pw.x -in pw.inp   Done                     12/28/2018 01:18:10
00052 suncat0083 pw.x -in pw.inp   Done                     12/28/2018 01:18:10
00053 suncat0083 pw.x -in pw.inp   Done                     12/28/2018 01:18:10
00054 suncat0083 pw.x -in pw.inp   Done                     12/28/2018 01:18:10
00055 suncat0083 pw.x -in pw.inp   Done                     12/28/2018 01:18:10
00056 suncat0062 pw.x -in pw.inp   Done                     12/28/2018 01:18:10
00057 suncat0062 pw.x -in pw.inp   Done                     12/28/2018 01:18:10
00058 suncat0062 pw.x -in pw.inp   Done                     12/28/2018 01:18:10
00059 suncat0062 pw.x -in pw.inp   Done                     12/28/2018 01:18:10
00060 suncat0062 pw.x -in pw.inp   Done                     12/28/2018 01:18:10
00061 suncat0062 pw.x -in pw.inp   Done                     12/28/2018 01:18:10
00062 suncat0062 pw.x -in pw.inp   Done                     12/28/2018 01:18:10
00063 suncat0062 pw.x -in pw.inp   Done                     12/28/2018 01:18:10