     Program PWSCF v.5.1rc2 (svn rev. 11289) starts on 19Dec2018 at 18:28: 3

     Current dimensions of program PWSCF are:
     Max number of different atomic species (ntypx) = 10
     Max number of k-points (npk) =  40000
     Max angular momentum in pseudopotentials (lmaxx) =  3
     Presently stress not available with electric field

     IMPORTANT: XC functional enforced from input :
     Exchange-correlation      = BEEF-VDW ( 1  4 27 13 2)
     Any further DFT definition will be discarded
     Please, verify this is what you really want

     Subspace diagonalization in iterative solution of the eigenvalue problem:
     a serial algorithm will be used

     bravais-lattice index     =            0
     lattice parameter (alat)  =       1.8897  a.u.
     unit-cell volume          =    4437.7934 (a.u.)^3
     number of atoms/cell      =           12
     number of atomic types    =            2
     number of electrons       =        69.00
     number of Kohn-Sham states=           64
     kinetic-energy cutoff     =      36.7493  Ry
     charge density cutoff     =     367.4932  Ry
     convergence threshold     =      1.0E-06
     mixing beta               =       0.1000
     number of iterations used =           10  plain     mixing
     Exchange-correlation      = BEEF-VDW ( 1  4 27 13 2)
     nstep                     =           50

     celldm(1)=   1.889726  celldm(2)=   0.000000  celldm(3)=   0.000000
     celldm(4)=   0.000000  celldm(5)=   0.000000  celldm(6)=   0.000000

     crystal axes: (cart. coord. in units of alat)
               a(1) = (   5.562465   0.000000   0.000000 )
               a(2) = (  -2.781233   4.817236   0.000000 )
               a(3) = (   0.000000   0.000000  24.541734 )

     reciprocal axes: (cart. coord. in units 2 pi/alat)
               b(1) = (  0.179776  0.103794  0.000000 )
               b(2) = (  0.000000  0.207588  0.000000 )
               b(3) = (  0.000000  0.000000  0.040747 )

     PseudoPot. # 1 for Al read from file:
     /afs/slac.stanford.edu/u/if/mamunm/psp/gbrv1.5pbe/Al.UPF
     MD5 check sum: 0a6289f5291fc8f409219462bc851e1f
     Pseudo is Ultrasoft + core correction, Zval =  3.0
     Generated by new atomic code, or converted to UPF format
     Using radial grid of  893 points,  3 beta functions with:
                l(1) =   0
                l(2) =   1
                l(3) =   2
     Q(r) pseudized with  8 coefficients,  rinner =    0.900   0.900   0.900
                                                       0.900   0.900

     PseudoPot. # 2 for W  read from file:
     /afs/slac.stanford.edu/u/if/mamunm/psp/gbrv1.5pbe/W.UPF
     MD5 check sum: 9c083fa34c2a2ea0f02f1f893e16e1c8
     Pseudo is Ultrasoft + core correction, Zval = 14.0
     Generated by new atomic code, or converted to UPF format
     Using radial grid of  923 points,  8 beta functions with:
                l(1) =   0
                l(2) =   0
                l(3) =   0
                l(4) =   1
                l(5) =   1
                l(6) =   2
                l(7) =   2
                l(8) =   3
     Q(r) pseudized with  6 coefficients,  rinner =    1.350   1.350   1.350
                                                       1.350   1.350   1.350
                                                       1.350

     vdW kernel table read from file vdW_kernel_table
     MD5 check sum: 095c7af220d748ca6e76c0b4c6cfb241

     atomic species   valence    mass     pseudopotential
        Al1            3.00    26.98154     Al( 1.00)
        W1            14.00   183.84000     W ( 1.00)

     No symmetry found

   Cartesian axes

     site n.     atom                  positions (alat units)
         1           Al1 tau(   1) = (   0.0000000   0.0000000  10.0000000  )
         2           Al1 tau(   2) = (  -1.3906163   2.4086181  10.0000000  )
         3           Al1 tau(   3) = (   1.3906163   2.4086181  10.0000000  )
         4           W1  tau(   4) = (   2.7812326   0.0000000  10.0000000  )
         5           Al1 tau(   5) = (   2.7812326   1.6057454  12.2708669  )
         6           Al1 tau(   6) = (   1.3906163   4.0143635  12.2708669  )
         7           Al1 tau(   7) = (  -1.3906163   4.0143635  12.2708669  )
         8           W1  tau(   8) = (   0.0000000   1.6057454  12.2708669  )
         9           Al1 tau(   9) = (  -0.0000000   3.2114908  14.5417338  )
        10           Al1 tau(  10) = (   1.3906163   0.8028727  14.5417338  )
        11           Al1 tau(  11) = (   4.1718489   0.8028727  14.5417338  )
        12           W1  tau(  12) = (   2.7812326   3.2114908  14.5417338  )

     number of k points=    20  Fermi-Dirac smearing, width (Ry)=  0.0110
                       cart. coord. in units 2pi/alat
        k(    1) = (   0.0000000   0.0000000   0.0000000), wk =   0.0555556
        k(    2) = (   0.0000000   0.0345980   0.0000000), wk =   0.1111111
        k(    3) = (   0.0000000   0.0691960   0.0000000), wk =   0.1111111
        k(    4) = (   0.0000000  -0.1037940   0.0000000), wk =   0.0555556
        k(    5) = (   0.0299627   0.0172990   0.0000000), wk =   0.1111111
        k(    6) = (   0.0299627   0.0518970   0.0000000), wk =   0.1111111
        k(    7) = (   0.0299627   0.0864950   0.0000000), wk =   0.1111111
        k(    8) = (   0.0299627  -0.0864950   0.0000000), wk =   0.1111111
        k(    9) = (   0.0299627  -0.0518970   0.0000000), wk =   0.1111111
        k(   10) = (   0.0299627  -0.0172990   0.0000000), wk =   0.1111111
        k(   11) = (   0.0599255   0.0345980   0.0000000), wk =   0.1111111
        k(   12) = (   0.0599255   0.0691960   0.0000000), wk =   0.1111111
        k(   13) = (   0.0599255   0.1037940   0.0000000), wk =   0.1111111
        k(   14) = (   0.0599255  -0.0691960   0.0000000), wk =   0.1111111
        k(   15) = (   0.0599255  -0.0345980   0.0000000), wk =   0.1111111
        k(   16) = (   0.0599255  -0.0000000   0.0000000), wk =   0.1111111
        k(   17) = (  -0.0898882  -0.0518970   0.0000000), wk =   0.0555556
        k(   18) = (  -0.0898882  -0.0172990   0.0000000), wk =   0.1111111
        k(   19) = (  -0.0898882   0.0172990   0.0000000), wk =   0.1111111
        k(   20) = (  -0.0898882  -0.1556909   0.0000000), wk =   0.0555556

     Largest allocated arrays     est. size (Mb)     dimensions
     Largest temporary arrays     est. size (Mb)     dimensions

     Initial potential from superposition of free atoms
     Check: negative starting charge=   -0.188506

     starting charge   68.67679, renormalised to   69.00000

     negative rho (up, down):  1.894E-01 0.000E+00

     *
     * You are using vdW-DF for exchange-correlation in this calculation.
     * Please cite the following three references that made this development
     * possible:
     *
     *   M. Dion, H. Rydberg, E. Schroder, D. C. Langreth, and
     *   B. I. Lundqvist, Phys. Rev. Lett. 92, 246401 (2004).
     *
     *   T. Thonhauser, V. R. Cooper, S. Li, A. Puzder, P. Hyldgaard, and
     *   D. C. Langreth, Phys. Rev. B 76, 125112 (2007).
     *
     *   G. Roman-Perez and J. M. Soler, Phys. Rev. Lett. 103, 096102 (2009).
     *
     *
     * If you are using vdW-DF2, please also cite:
     *
     *   K. Lee, E. D. Murray, L. Kong, B. I. Lundqvist, and
     *   D. C. Langreth, Phys. Rev. B 82, 081101(R) (2010).
     *
     *
     * If you are calculating the stress with vdW-DF, please also cite:
     *
     *   R. Sabatini, E. Kucukbenli, B. Kolb, T. Thonhauser, and
     *   S. de Gironcoli, J. Phys.: Condens. Matter 24, 424209 (2012).
     *

     Carrying out vdW-DF run using the following parameters:

     Nqs =      20    Nr_points =    1024   r_max =   100.000
     q_mesh =
               0.00001000     0.04494208     0.09755937     0.15916263
               0.23128650     0.31572767     0.41458969     0.53033537
               0.66584808     0.82450364     1.01025438     1.22772762
               1.48234092     1.78043706     2.12944203     2.53805004
               3.01644009     3.57652955     4.23227104     5.00000000

     Gradients computed in reciprocal space

     Adding external electric field

     Computed dipole along edir(3) :
        Dipole                0.0000 Ry au,          0.0000 Debye
        Dipole field          0.0000 Ry au

        Potential amp.       -0.0000 Ry
        Total length         45.2177 bohr

     Starting wfc are   75 randomized atomic wfcs

     Self-consistent Calculation

     iteration #  1     ecut=    36.75 Ry     beta=0.10
     Davidson diagonalization with overlap
     ethr =  1.00E-02,  avg # of iterations =  5.4

[...]

     total energy              =    -543.07872974 Ry
     Harris-Foulkes estimate   =    -543.27418720 Ry
     estimated scf accuracy    <       1.22260676 Ry

[...]

     End of self-consistent calculation

          k = 0.0000 0.0000 0.0000 ( 16703 PWs)   bands (ev):

   -74.3836 -74.3832 -74.3498 -38.5002 -38.4755 -38.4733 -38.4724 -38.4724
   -38.4533 -38.4533 -38.4513 -38.4513 -10.6234  -8.7510  -6.4911  -5.4165
    -5.4165  -4.6125  -4.5604  -4.5604  -4.0342  -4.0300  -4.0300  -3.0158
    -2.9213  -2.9213  -2.3088  -1.5346  -1.3958  -1.3958  -0.8331  -0.8331
    -0.5487  -0.5487  -0.3590  -0.2657  -0.2657   0.3224   0.4828   0.6982
     0.6982   1.6373   1.7750   3.0280   3.0280   3.0884   3.0884   3.3479
     3.7429   3.7429   3.7790   4.1824   4.6150   4.7267   5.2962   5.2962
     5.3744   5.4512   6.0906   6.0906   6.0919   6.6534   6.8972   7.1544

[...]

          k =-0.0899-0.0519 0.0000 ( 16692 PWs)   bands (ev):

[...]

     the Fermi energy is    -0.0915 ev

!    total energy              =    -543.10443591 Ry
     Harris-Foulkes estimate   =    -543.10443508 Ry
     estimated scf accuracy    <       0.00000061 Ry

     The total energy is the sum of the following terms:

     one-electron contribution =   -2728.62603529 Ry
     hartree contribution      =    1361.95248818 Ry
     xc contribution           =    -167.78843496 Ry
     ewald contribution        =     991.39440933 Ry
     electric field correction =       0.00000000 Ry
     smearing contrib. (-TS)   =      -0.03686316 Ry

     convergence has been achieved in  13 iterations

 BEEF-vdW xc energy contributions
           1 :   -145.241995000603
           2 :    132.218741142025
           3 :   -110.304443995593
           4 :    85.5664476270439
           5 :   -63.2484286906494
           6 :    46.0425307135918
           7 :   -34.0251067850719
           8 :    25.8034569492742
           9 :   -19.8431194581108
          10 :    15.1680880810871
          11 :   -11.3373737626783
          12 :    8.13139955641526
          13 :   -5.38739903959271
          14 :    3.05598461562491
          15 :   -1.25894885781236
          16 :   0.163641112172456
          17 :   0.251093872063336
          18 :  -0.298952132359062
          19 :   0.423054393275322
          20 :  -0.888933468819516
          21 :    1.60108980474024
          22 :   -2.20439861096847
          23 :    2.38301108726483
          24 :   -2.11136708583368
          25 :    1.66627533785518
          26 :   -1.41227585699500
          27 :    1.54260524701016
[...]

     crystal axes: (cart. coord. in units of alat)
               a(1) = (   5.562465   0.000000   0.000000 )
               a(2) = (  -2.781233   4.817236   0.000000 )
               a(3) = (   0.000000   0.000000  24.541734 )

     reciprocal axes: (cart. coord. in units 2 pi/alat)
               b(1) = (  0.179776  0.103794  0.000000 )
               b(2) = (  0.000000  0.207588  0.000000 )
               b(3) = (  0.000000  0.000000  0.040747 )

     PseudoPot. # 1 for Al read from file:
     /afs/slac.stanford.edu/u/if/mamunm/psp/gbrv1.5pbe/Al.UPF
     MD5 check sum: 0a6289f5291fc8f409219462bc851e1f
     Pseudo is Ultrasoft + core correction, Zval =  3.0
     Generated by new atomic code, or converted to UPF format
     Using radial grid of  893 points,  3 beta functions with:
                l(1) =   0
                l(2) =   1
                l(3) =   2
     Q(r) pseudized with  8 coefficients,  rinner =    0.900   0.900   0.900
                                                       0.900   0.900

     PseudoPot. # 2 for W  read from file:
     /afs/slac.stanford.edu/u/if/mamunm/psp/gbrv1.5pbe/W.UPF
     MD5 check sum: 9c083fa34c2a2ea0f02f1f893e16e1c8
     Pseudo is Ultrasoft + core correction, Zval = 14.0
     Generated by new atomic code, or converted to UPF format
     Using radial grid of  923 points,  8 beta functions with:
                l(1) =   0
                l(2) =   0
                l(3) =   0
                l(4) =   1
                l(5) =   1
                l(6) =   2
                l(7) =   2
                l(8) =   3
     Q(r) pseudized with  6 coefficients,  rinner =    1.350   1.350   1.350
                                                       1.350   1.350   1.350
                                                       1.350

     vdW kernel table read from file vdW_kernel_table
     MD5 check sum: 095c7af220d748ca6e76c0b4c6cfb241

     atomic species   valence    mass     pseudopotential
        Al1            3.00    26.98154     Al( 1.00)
        W1            14.00   183.84000     W ( 1.00)

     No symmetry found

   Cartesian axes

     site n.     atom                  positions (alat units)
         1           Al1 tau(   1) = (   0.0000000   0.0000000  10.0000000  )
         2           Al1 tau(   2) = (  -1.3906163   2.4086181  10.0000000  )
         3           Al1 tau(   3) = (   1.3906163   2.4086181  10.0000000  )
         4           W1  tau(   4) = (   2.7812326   0.0000000  10.0000000  )
         5           Al1 tau(   5) = (   2.7812326   1.6057454  12.2708669  )
         6           Al1 tau(   6) = (   1.3906163   4.0143635  12.2708669  )
         7           Al1 tau(   7) = (  -1.3906163   4.0143635  12.2708669  )
         8           W1  tau(   8) = (   0.0000000   1.6057454  12.2708669  )
         9           Al1 tau(   9) = (   0.0000008   3.2010387  14.6872290  )
        10           Al1 tau(  10) = (   1.3815676   0.8080972  14.6872288  )
        11           Al1 tau(  11) = (   4.1808999   0.8080974  14.6872288  )
        12           W1  tau(  12) = (   2.7812322   3.2114910  14.3540801  )

     number of k points=    20  Fermi-Dirac smearing, width (Ry)=  0.0110
                       cart. coord. in units 2pi/alat
        k(    1) = (   0.0000000   0.0000000   0.0000000), wk =   0.0555556
        k(    2) = (   0.0000000   0.0345980   0.0000000), wk =   0.1111111
        k(    3) = (   0.0000000   0.0691960   0.0000000), wk =   0.1111111
        k(    4) = (   0.0000000  -0.1037940   0.0000000), wk =   0.0555556
        k(    5) = (   0.0299627   0.0172990   0.0000000), wk =   0.1111111
        k(    6) = (   0.0299627   0.0518970   0.0000000), wk =   0.1111111
        k(    7) = (   0.0299627   0.0864950   0.0000000), wk =   0.1111111
        k(    8) = (   0.0299627  -0.0864950   0.0000000), wk =   0.1111111
        k(    9) = (   0.0299627  -0.0518970   0.0000000), wk =   0.1111111
        k(   10) = (   0.0299627  -0.0172990   0.0000000), wk =   0.1111111
        k(   11) = (   0.0599255   0.0345980   0.0000000), wk =   0.1111111
        k(   12) = (   0.0599255   0.0691960   0.0000000), wk =   0.1111111
        k(   13) = (   0.0599255   0.1037940   0.0000000), wk =   0.1111111
        k(   14) = (   0.0599255  -0.0691960   0.0000000), wk =   0.1111111
        k(   15) = (   0.0599255  -0.0345980   0.0000000), wk =   0.1111111
        k(   16) = (   0.0599255  -0.0000000   0.0000000), wk =   0.1111111
        k(   17) = (  -0.0898882  -0.0518970   0.0000000), wk =   0.0555556
        k(   18) = (  -0.0898882  -0.0172990   0.0000000), wk =   0.1111111
        k(   19) = (  -0.0898882   0.0172990   0.0000000), wk =   0.1111111
        k(   20) = (  -0.0898882  -0.1556909   0.0000000), wk =   0.0555556

     Largest allocated arrays     est. size (Mb)     dimensions
     Largest temporary arrays     est. size (Mb)     dimensions

     Initial potential from superposition of free atoms
     Check: negative starting charge=   -0.188319

     starting charge   68.67679, renormalised to   69.00000

[...]

     *
     * You are using vdW-DF for exchange-correlation in this calculation.
     * Please cite the following three references that made this development
     * possible:
     *
     *   M. Dion, H. Rydberg, E. Schroder, D. C. Langreth, and
     *   B. I. Lundqvist, Phys. Rev. Lett. 92, 246401 (2004).
     *
     *   T. Thonhauser, V. R. Cooper, S. Li, A. Puzder, P. Hyldgaard, and
     *   D. C. Langreth, Phys. Rev. B 76, 125112 (2007).
     *
     *   G. Roman-Perez and J. M. Soler, Phys. Rev. Lett. 103, 096102 (2009).
     *
     *
     * If you are using vdW-DF2, please also cite:
     *
     *   K. Lee, E. D. Murray, L. Kong, B. I. Lundqvist, and
     *   D. C. Langreth, Phys. Rev. B 82, 081101(R) (2010).
     *
     *
     * If you are calculating the stress with vdW-DF, please also cite:
     *
     *   R. Sabatini, E. Kucukbenli, B. Kolb, T. Thonhauser, and
     *   S. de Gironcoli, J. Phys.: Condens. Matter 24, 424209 (2012).
     *

     Carrying out vdW-DF run using the following parameters:

     Nqs =      20    Nr_points =    1024   r_max =   100.000
     q_mesh =
               0.00001000     0.04494208     0.09755937     0.15916263
               0.23128650     0.31572767     0.41458969     0.53033537
               0.66584808     0.82450364     1.01025438     1.22772762
               1.48234092     1.78043706     2.12944203     2.53805004
               3.01644009     3.57652955     4.23227104     5.00000000

     Gradients computed in reciprocal space

[...]

     Starting wfc are   75 randomized atomic wfcs

     Self-consistent Calculation

[...]

     total energy              =    -543.13708216 Ry
     Harris-Foulkes estimate   =    -543.13708227 Ry
     estimated scf accuracy    <       0.00000180 Ry

     iteration # 14     ecut=    36.75 Ry     beta=0.10
     Davidson diagonalization with overlap
     ethr =  2.60E-09,  avg # of iterations =  2.0

[...]

     negative rho (up, down):  1.975E-01 0.000E+00

     Adding external electric field

     Computed dipole along edir(3) :
        Dipole                0.0925 Ry au,          0.2351 Debye
        Dipole field          0.0003 Ry au

        Potential amp.       -0.0237 Ry
        Total length         45.2177 bohr

     End of self-consistent calculation

[...]

          k = 0.0599-0.0000 0.0000 ( 16646 PWs)   bands (ev):

[...]

          k =-0.0899-0.1557 0.0000 ( 16692 PWs)   bands (ev):

   -74.2961 -74.2751 -74.2713 -38.4134 -38.4083 -38.3993 -38.3938 -38.3830
   -38.3802 -38.3531 -38.3520 -38.3262  -8.8411  -8.6923  -7.2668  -6.9056
    -6.0687  -5.5104  -4.8720  -4.6009  -4.3236  -3.9606  -2.9571  -2.8852
    -2.2603  -2.2518  -2.1160  -2.0172  -1.8800  -1.1968  -1.1229  -0.6422
    -0.3730   0.1581   0.3494   0.6991   0.8367   0.8634   1.0594   1.3114
     1.7010   2.0210   2.5589   2.6422   2.7198   2.8106   3.5306   3.6593
     4.1351   4.1743   4.4983   4.8939   4.9086   5.0746   5.1104   5.2556
     5.5660   5.8289   5.9513   5.9771   6.2030   6.4025   6.5552   6.7761

     the Fermi energy is     0.0656 ev

!    total energy              =    -543.13708423 Ry
     Harris-Foulkes estimate   =    -543.13708276 Ry
     estimated scf accuracy    <       0.00000048 Ry

     The total energy is the sum of the following terms:

     one-electron contribution =   -2747.10073022 Ry
     hartree contribution      =    1371.35579336 Ry
     xc contribution           =    -167.74733365 Ry
     ewald contribution        =    1000.38947211 Ry
     electric field correction =       0.00002422 Ry
     smearing contrib. (-TS)   =      -0.03431004 Ry

     convergence has been achieved in  14 iterations

 BEEF-vdW xc energy contributions
           1 :   -145.274838985433
           2 :    132.244862856325
           3 :   -110.320439693222
           4 :    85.5701146844802
           5 :   -63.2307014230511
           6 :    45.9838014661617
           7 :   -33.9050814683668
           8 :    25.6168351256155
           9 :   -19.6043815954335
          10 :    14.8990202800404
          11 :   -11.0497563943132
          12 :    7.82276441416965
          13 :   -5.05299180602674
          14 :    2.70175376153210
          15 :  -0.899703993411151
          16 :  -0.192061721375353
          17 :   0.611284049779698
          18 :  -0.678993604915576
          19 :   0.823328400958104
          20 :   -1.28240830797830
          21 :    1.94613065442906
          22 :   -2.47404009167522
          23 :    2.58522772350528
          24 :   -2.28225912769810
          25 :    1.84082326185455
          26 :   -1.59617469483157
          27 :    1.70773329390406
          28 :   -2.07680778701433
          29 :    2.45371392759452
          30 :   -2.62624683818461
          31 :   -15.0627177983214
          32 :   -11.1914750046483

     Forces acting on atoms (Ry/au):

     negative rho (up, down):  1.975E-01 0.000E+00
     atom    1 type  1   force =    -0.00000002    0.00314938   -0.03215494
     atom    2 type  1   force =     0.00272752   -0.00157480   -0.03215498
     atom    3 type  1   force =    -0.00272744   -0.00157480   -0.03215501
     atom    4 type  2   force =    -0.00000001    0.00000040    0.10623730
     atom    5 type  1   force =     0.00000001   -0.01158302   -0.01080981
     atom    6 type  1   force =    -0.01003118    0.00579144   -0.01080979
     atom    7 type  1   force =     0.01003122    0.00579137   -0.01080975
     atom    8 type  2   force =    -0.00000004    0.00000001    0.02253237
     atom    9 type  1   force =    -0.00000020    0.00003591    0.00033077
     atom   10 type  1   force =     0.00003074   -0.00001803    0.00033081
     atom   11 type  1   force =    -0.00003100   -0.00001789    0.00033077
     atom   12 type  2   force =     0.00000040    0.00000003   -0.00086773

     Total force =     0.125219     Total SCF correction =     0.001192

     entering subroutine stress ...

     negative rho (up, down):  1.975E-01 0.000E+00
          total   stress  (Ry/bohr**3)                   (kbar)     P=  -23.81
  -0.00022761   0.00000000  -0.00000000        -33.48      0.00     -0.00
   0.00000000  -0.00022761   0.00000000          0.00    -33.48      0.00
  -0.00000000   0.00000000  -0.00003038         -0.00      0.00     -4.47

 !ASE

     Writing output data file calc.save

     General routines

     Parallel routines

   This run was terminated on:  19:15:13  19Dec2018

   JOB DONE.
Job  /afs/slac/g/suncat/bin/suncat-tsmpirun -x LD_LIBRARY_PATH -wdir /scratch/qe773319_QYvU0 pw.x -in pw.inp

TID   HOST_NAME   COMMAND_LINE            STATUS            TERMINATION_TIME
00000 suncat0192 pw.x -in pw.inp   Done                     12/19/2018 19:15:13
00001 suncat0192 pw.x -in pw.inp   Done                     12/19/2018 19:15:13
00002 suncat0192 pw.x -in pw.inp   Done                     12/19/2018 19:15:13
00003 suncat0192 pw.x -in pw.inp   Done                     12/19/2018 19:15:13
00004 suncat0192 pw.x -in pw.inp   Done                     12/19/2018 19:15:13
00005 suncat0192 pw.x -in pw.inp   Done                     12/19/2018 19:15:13
00006 suncat0192 pw.x -in pw.inp   Done                     12/19/2018 19:15:13
00007 suncat0192 pw.x -in pw.inp   Done                     12/19/2018 19:15:13
00008 suncat0191 pw.x -in pw.inp   Done                     12/19/2018 19:15:13
00009 suncat0191 pw.x -in pw.inp   Done                     12/19/2018 19:15:13
00010 suncat0191 pw.x -in pw.inp   Done                     12/19/2018 19:15:13
00011 suncat0191 pw.x -in pw.inp   Done                     12/19/2018 19:15:13
00012 suncat0191 pw.x -in pw.inp   Done                     12/19/2018 19:15:13
00013 suncat0191 pw.x -in pw.inp   Done                     12/19/2018 19:15:13
00014 suncat0191 pw.x -in pw.inp   Done                     12/19/2018 19:15:13
00015 suncat0191 pw.x -in pw.inp   Done                     12/19/2018 19:15:13
00016 suncat0190 pw.x -in pw.inp   Done                     12/19/2018 19:15:13
00017 suncat0190 pw.x -in pw.inp   Done                     12/19/2018 19:15:13
00018 suncat0190 pw.x -in pw.inp   Done                     12/19/2018 19:15:13
00019 suncat0190 pw.x -in pw.inp   Done                     12/19/2018 19:15:13
00020 suncat0190 pw.x -in pw.inp   Done                     12/19/2018 19:15:13
00021 suncat0190 pw.x -in pw.inp   Done                     12/19/2018 19:15:13
00022 suncat0190 pw.x -in pw.inp   Done                     12/19/2018 19:15:13
00023 suncat0190 pw.x -in pw.inp   Done                     12/19/2018 19:15:13
00024 suncat0009 pw.x -in pw.inp   Done                     12/19/2018 19:15:13
00025 suncat0009 pw.x -in pw.inp   Done                     12/19/2018 19:15:13
00026 suncat0009 pw.x -in pw.inp   Done                     12/19/2018 19:15:13
00027 suncat0009 pw.x -in pw.inp   Done                     12/19/2018 19:15:13
00028 suncat0009 pw.x -in pw.inp   Done                     12/19/2018 19:15:13
00029 suncat0009 pw.x -in pw.inp   Done                     12/19/2018 19:15:13
00030 suncat0009 pw.x -in pw.inp   Done                     12/19/2018 19:15:13
00031 suncat0009 pw.x -in pw.inp   Done                     12/19/2018 19:15:13
00032 suncat0008 pw.x -in pw.inp   Done                     12/19/2018 19:15:13
00033 suncat0008 pw.x -in pw.inp   Done                     12/19/2018 19:15:13
00034 suncat0008 pw.x -in pw.inp   Done                     12/19/2018 19:15:13
00035 suncat0008 pw.x -in pw.inp   Done                     12/19/2018 19:15:13
00036 suncat0008 pw.x -in pw.inp   Done                     12/19/2018 19:15:13
00037 suncat0008 pw.x -in pw.inp   Done                     12/19/2018 19:15:13
00038 suncat0008 pw.x -in pw.inp   Done                     12/19/2018 19:15:13
00039 suncat0008 pw.x -in pw.inp   Done                     12/19/2018 19:15:13
00040 suncat0007 pw.x -in pw.inp   Done                     12/19/2018 19:15:13
00041 suncat0007 pw.x -in pw.inp   Done                     12/19/2018 19:15:13
00042 suncat0007 pw.x -in pw.inp   Done                     12/19/2018 19:15:13
00043 suncat0007 pw.x -in pw.inp   Done                     12/19/2018 19:15:13
00044 suncat0007 pw.x -in pw.inp   Done                     12/19/2018 19:15:13
00045 suncat0007 pw.x -in pw.inp   Done                     12/19/2018 19:15:13
00046 suncat0007 pw.x -in pw.inp   Done                     12/19/2018 19:15:13
00047 suncat0007 pw.x -in pw.inp   Done                     12/19/2018 19:15:13
00048 suncat0006 pw.x -in pw.inp   Done                     12/19/2018 19:15:13
00049 suncat0006 pw.x -in pw.inp   Done                     12/19/2018 19:15:13
00050 suncat0006 pw.x -in pw.inp   Done                     12/19/2018 19:15:13
00051 suncat0006 pw.x -in pw.inp   Done                     12/19/2018 19:15:13
00052 suncat0006 pw.x -in pw.inp   Done                     12/19/2018 19:15:13
00053 suncat0006 pw.x -in pw.inp   Done                     12/19/2018 19:15:13
00054 suncat0006 pw.x -in pw.inp   Done                     12/19/2018 19:15:13
00055 suncat0006 pw.x -in pw.inp   Done                     12/19/2018 19:15:13
00056 suncat0005 pw.x -in pw.inp   Done                     12/19/2018 19:15:13
00057 suncat0005 pw.x -in pw.inp   Done                     12/19/2018 19:15:13
00058 suncat0005 pw.x -in pw.inp   Done                     12/19/2018 19:15:13
00059 suncat0005 pw.x -in pw.inp   Done                     12/19/2018 19:15:13
00060 suncat0005 pw.x -in pw.inp   Done                     12/19/2018 19:15:13
00061 suncat0005 pw.x -in pw.inp   Done                     12/19/2018 19:15:13
00062 suncat0005 pw.x -in pw.inp   Done                     12/19/2018 19:15:13
00063 suncat0005 pw.x -in pw.inp   Done                     12/19/2018 19:15:13