     Program PWSCF v.5.1rc2 (svn rev. 11289) starts on 27Dec2018 at 22: 7: 9

     Current dimensions of program PWSCF are:
     Max number of different atomic species (ntypx) = 10
     Max number of k-points (npk) =  40000
     Max angular momentum in pseudopotentials (lmaxx) =  3
     Presently stress not available with electric field

     IMPORTANT: XC functional enforced from input :
     Exchange-correlation      = BEEF-VDW ( 1  4 27 13 2)
     Any further DFT definition will be discarded
     Please, verify this is what you really want

     Subspace diagonalization in iterative solution of the eigenvalue problem:
     a serial algorithm will be used

     bravais-lattice index     =            0
     lattice parameter (alat)  =       1.8897  a.u.
     unit-cell volume          =    4144.5698 (a.u.)^3
     number of atoms/cell      =           12
     number of atomic types    =            2
     number of electrons       =       183.00
     number of Kohn-Sham states=          121
     kinetic-energy cutoff     =      36.7493  Ry
     charge density cutoff     =     367.4932  Ry
     convergence threshold     =      1.0E-06
     mixing beta               =       0.1000
     number of iterations used =           10  plain     mixing
     Exchange-correlation      = BEEF-VDW ( 1  4 27 13 2)
     nstep                     =           50

     celldm(1)=   1.889726  celldm(2)=   0.000000  celldm(3)=   0.000000
     celldm(4)=   0.000000  celldm(5)=   0.000000  celldm(6)=   0.000000

     crystal axes: (cart. coord. in units of alat)
               a(1) = (   5.390960   0.000000   0.000000 )
               a(2) = (  -2.695480   4.668708   0.000000 )
               a(3) = (   0.000000   0.000000  24.401700 )

     reciprocal axes: (cart. coord. in units 2 pi/alat)
               b(1) = (  0.185496  0.107096  0.000000 )
               b(2) = (  0.000000  0.214192  0.000000 )
               b(3) = (  0.000000  0.000000  0.040981 )

     PseudoPot. # 1 for Ru read from file:
     /afs/slac.stanford.edu/u/if/mamunm/psp/gbrv1.5pbe/Ru.UPF
     MD5 check sum: 7158a806dd851261a58e6920c40ebe78
     Pseudo is Ultrasoft + core correction, Zval = 16.0
     Generated by new atomic code, or converted to UPF format
     Using radial grid of  967 points,  6 beta functions with:
                l(1) =   0
                l(2) =   0
                l(3) =   1
                l(4) =   1
                l(5) =   2
                l(6) =   2
     Q(r) pseudized with  8 coefficients,  rinner =    1.300   1.300   1.300
                                                       1.300   1.300

     PseudoPot. # 2 for V  read from file:
     /afs/slac.stanford.edu/u/if/mamunm/psp/gbrv1.5pbe/V.UPF
     MD5 check sum: 22b79981416ebb76fdaf5b1b8640f6fb
     Pseudo is Ultrasoft + core correction, Zval = 13.0
     Generated by new atomic code, or converted to UPF format
     Using radial grid of  853 points,  6 beta functions with:
                l(1) =   0
                l(2) =   0
                l(3) =   1
                l(4) =   1
                l(5) =   2
                l(6) =   2
     Q(r) pseudized with  8 coefficients,  rinner =    1.100   1.100   1.100
                                                       1.100   1.100

     vdW kernel table read from file vdW_kernel_table
     MD5 check sum: 095c7af220d748ca6e76c0b4c6cfb241

     atomic species   valence    mass     pseudopotential
        Ru1           16.00   101.07000     Ru( 1.00)
        V1            13.00    50.94150     V ( 1.00)

     No symmetry found

   Cartesian axes

     site n.     atom                  positions (alat units)
         1           Ru1 tau(   1) = (   0.0000000   0.0000000  10.0000000  )
         2           Ru1 tau(   2) = (  -1.3477399   2.3343540  10.0000000  )
         3           Ru1 tau(   3) = (   1.3477399   2.3343540  10.0000000  )
         4           V1  tau(   4) = (   2.6954798   0.0000000  10.0000000  )
         5           Ru1 tau(   5) = (   2.6954798   1.5562360  12.2008500  )
         6           Ru1 tau(   6) = (   1.3477399   3.8905899  12.2008500  )
         7           Ru1 tau(   7) = (  -1.3477399   3.8905899  12.2008500  )
         8           V1  tau(   8) = (   0.0000000   1.5562360  12.2008500  )
         9           Ru1 tau(   9) = (  -0.0000000   3.1124719  14.4017000  )
        10           Ru1 tau(  10) = (   1.3477399   0.7781180  14.4017000  )
        11           Ru1 tau(  11) = (   4.0432196   0.7781180  14.4017000  )
        12           V1  tau(  12) = (   2.6954798   3.1124719  14.4017000  )

     number of k points=    20  Fermi-Dirac smearing, width (Ry)=  0.0110
                       cart. coord. in units 2pi/alat
        k(    1) = (   0.0000000   0.0000000   0.0000000), wk =   0.0555556
        k(    2) = (   0.0000000   0.0356987   0.0000000), wk =   0.1111111
        k(    3) = (   0.0000000   0.0713973   0.0000000), wk =   0.1111111
        k(    4) = (   0.0000000  -0.1070960   0.0000000), wk =   0.0555556
        k(    5) = (   0.0309160   0.0178493   0.0000000), wk =   0.1111111
        k(    6) = (   0.0309160   0.0535480   0.0000000), wk =   0.1111111
        k(    7) = (   0.0309160   0.0892467   0.0000000), wk =   0.1111111
        k(    8) = (   0.0309160  -0.0892467   0.0000000), wk =   0.1111111
        k(    9) = (   0.0309160  -0.0535480   0.0000000), wk =   0.1111111
        k(   10) = (   0.0309160  -0.0178493   0.0000000), wk =   0.1111111
        k(   11) = (   0.0618319   0.0356987   0.0000000), wk =   0.1111111
        k(   12) = (   0.0618319   0.0713973   0.0000000), wk =   0.1111111
        k(   13) = (   0.0618319   0.1070960   0.0000000), wk =   0.1111111
        k(   14) = (   0.0618319  -0.0713973   0.0000000), wk =   0.1111111
        k(   15) = (   0.0618319  -0.0356987   0.0000000), wk =   0.1111111
        k(   16) = (   0.0618319   0.0000000   0.0000000), wk =   0.1111111
        k(   17) = (  -0.0927479  -0.0535480   0.0000000), wk =   0.0555556
        k(   18) = (  -0.0927479  -0.0178493   0.0000000), wk =   0.1111111
        k(   19) = (  -0.0927479   0.0178493   0.0000000), wk =   0.1111111
        k(   20) = (  -0.0927479  -0.1606440   0.0000000), wk =   0.0555556

     Largest allocated arrays     est. size (Mb)     dimensions
     Largest temporary arrays     est. size (Mb)     dimensions

     Initial potential from superposition of free atoms
     Check: negative starting charge=   -0.657101

     starting charge  173.99618, renormalised to  183.00000

     negative rho (up, down):  6.911E-01 0.000E+00

     *
     * You are using vdW-DF for exchange-correlation in this calculation.
     * Please cite the following three references that made this development
     * possible:
     *
     *   M. Dion, H. Rydberg, E. Schroder, D. C. Langreth, and
     *   B. I. Lundqvist, Phys. Rev. Lett. 92, 246401 (2004).
     *
     *   T. Thonhauser, V. R. Cooper, S. Li, A. Puzder, P. Hyldgaard, and
     *   D. C. Langreth, Phys. Rev. B 76, 125112 (2007).
     *
     *   G. Roman-Perez and J. M. Soler, Phys. Rev. Lett. 103, 096102 (2009).
     *
     *
     * If you are using vdW-DF2, please also cite:
     *
     *   K. Lee, E. D. Murray, L. Kong, B. I. Lundqvist, and
     *   D. C. Langreth, Phys. Rev. B 82, 081101(R) (2010).
     *
     *
     * If you are calculating the stress with vdW-DF, please also cite:
     *
     *   R. Sabatini, E. Kucukbenli, B. Kolb, T. Thonhauser, and
     *   S. de Gironcoli, J. Phys.: Condens. Matter 24, 424209 (2012).
     *

     Carrying out vdW-DF run using the following parameters:

     Nqs =      20    Nr_points =    1024   r_max =   100.000
     q_mesh =
               0.00001000     0.04494208     0.09755937     0.15916263
               0.23128650     0.31572767     0.41458969     0.53033537
               0.66584808     0.82450364     1.01025438     1.22772762
               1.48234092     1.78043706     2.12944203     2.53805004
               3.01644009     3.57652955     4.23227104     5.00000000

     Gradients computed in reciprocal space

     Adding external electric field

     Computed dipole along edir(3) :
        Dipole               -0.0000 Ry au,         -0.0000 Debye
        Dipole field         -0.0000 Ry au

        Potential amp.        0.0000 Ry
        Total length         44.9597 bohr

     Starting wfc are  147 randomized atomic wfcs

     Self-consistent Calculation

     iteration #  1     ecut=    36.75 Ry     beta=0.10
     Davidson diagonalization with overlap
     ethr =  1.00E-02,  avg # of iterations =  6.8

[...]

     total energy              =   -2194.89849729 Ry
     Harris-Foulkes estimate   =   -2196.69490894 Ry
     estimated scf accuracy    <      11.44034193 Ry

[...]

     End of self-consistent calculation

          k = 0.0000 0.0000 0.0000 ( 15569 PWs)   bands (ev):

   -70.9358 -70.8517 -70.8516 -70.5227 -70.5190 -70.4413 -70.4413 -70.4404
   -70.4403 -62.5536 -62.5369 -62.5366 -41.2584 -41.0513 -41.0513 -41.0342
   -40.9270 -40.9270 -40.8720 -40.8281 -40.6704 -40.5948 -40.5948 -40.5539
   -40.5539 -40.5058 -40.5058 -40.4752 -40.3982 -40.3982 -40.3714 -40.3356
   -40.3356 -40.2272 -40.2127 -40.1772 -40.1771 -40.1740 -40.1739 -36.4596
   -36.4448 -36.3398 -36.3398 -36.2937 -36.2421 -36.2421 -36.2386 -36.2386
    -4.4773  -3.3182  -3.0049  -2.9422  -2.8463  -2.7432  -2.7432  -2.4294
    -2.4294  -2.3989  -2.3033  -2.3033  -2.2708  -1.8476  -1.8476  -1.2473
    -0.7506  -0.7505  -0.3652  -0.3652  -0.1701   0.0879   0.1427   0.2910
     0.4651   0.4651   0.6784   0.6784   0.9584   0.9585   1.0134   1.0135
     1.0749   1.0749   1.7737   1.9387   1.9643   2.1587   2.1588   2.2406
     2.2406   2.4037   2.4037   2.7382   3.0105   3.1863   3.1863   3.2994
     3.2995   3.3846   3.7237   3.8397   3.8398   3.8723   3.8723   3.9505
     4.3186   4.3187   4.3324   4.3542   4.3542   4.3902   4.5752   4.5752
     4.5815   4.6348   4.6348   6.3225   6.4969   6.5874   6.5874   6.6035
     6.6067

[...]

          k =-0.0927-0.0535 0.0000 ( 15624 PWs)   bands (ev):

[...]

     the Fermi energy is     2.1246 ev

!    total energy              =   -2193.30517526 Ry
     Harris-Foulkes estimate   =   -2193.30517590 Ry
     estimated scf accuracy    <       0.00000096 Ry

     The total energy is the sum of the following terms:

     one-electron contribution =  -20151.34495321 Ry
     hartree contribution      =   10072.46357343 Ry
     xc contribution           =    -302.48793621 Ry
     ewald contribution        =    8188.16251521 Ry
     electric field correction =       0.00000003 Ry
     smearing contrib. (-TS)   =      -0.09837451 Ry

     convergence has been achieved in  18 iterations

 BEEF-vdW xc energy contributions
           1 :   -262.087541495579
           2 :    239.609269345226
           3 :   -201.065695289006
           4 :    156.546153899181
           5 :   -115.947552523355
           6 :    85.7659622638523
           7 :   -67.7274820206131
           8 :    59.4395406947490
           9 :   -56.3893716491239
          10 :    54.2014225321107
          11 :   -50.2147252898045
          12 :    43.9362169891441
          13 :   -36.4988661683975
[...]
     /afs/slac.stanford.edu/u/if/mamunm/psp/gbrv1.5pbe/Ru.UPF
     MD5 check sum: 7158a806dd851261a58e6920c40ebe78
     Pseudo is Ultrasoft + core correction, Zval = 16.0
     Generated by new atomic code, or converted to UPF format
     Using radial grid of  967 points,  6 beta functions with:
                l(1) =   0
                l(2) =   0
                l(3) =   1
                l(4) =   1
                l(5) =   2
                l(6) =   2
     Q(r) pseudized with  8 coefficients,  rinner =    1.300   1.300   1.300
                                                       1.300   1.300

     PseudoPot. # 2 for V  read from file:
     /afs/slac.stanford.edu/u/if/mamunm/psp/gbrv1.5pbe/V.UPF
     MD5 check sum: 22b79981416ebb76fdaf5b1b8640f6fb
     Pseudo is Ultrasoft + core correction, Zval = 13.0
     Generated by new atomic code, or converted to UPF format
     Using radial grid of  853 points,  6 beta functions with:
                l(1) =   0
                l(2) =   0
                l(3) =   1
                l(4) =   1
                l(5) =   2
                l(6) =   2
     Q(r) pseudized with  8 coefficients,  rinner =    1.100   1.100   1.100
                                                       1.100   1.100

     vdW kernel table read from file vdW_kernel_table
     MD5 check sum: 095c7af220d748ca6e76c0b4c6cfb241

     atomic species   valence    mass     pseudopotential
        Ru1           16.00   101.07000     Ru( 1.00)
        V1            13.00    50.94150     V ( 1.00)

     No symmetry found

   Cartesian axes

     site n.     atom                  positions (alat units)
         1           Ru1 tau(   1) = (   0.0000000   0.0000000  10.0000000  )
         2           Ru1 tau(   2) = (  -1.3477399   2.3343540  10.0000000  )
         3           Ru1 tau(   3) = (   1.3477399   2.3343540  10.0000000  )
         4           V1  tau(   4) = (   2.6954798   0.0000000  10.0000000  )
         5           Ru1 tau(   5) = (   2.6954798   1.5562360  12.2008500  )
         6           Ru1 tau(   6) = (   1.3477399   3.8905899  12.2008500  )
         7           Ru1 tau(   7) = (  -1.3477399   3.8905899  12.2008500  )
         8           V1  tau(   8) = (   0.0000000   1.5562360  12.2008500  )
         9           Ru1 tau(   9) = (   0.0000025   3.1036325  14.3238051  )
        10           Ru1 tau(  10) = (   1.3400836   0.7825383  14.3238050  )
        11           Ru1 tau(  11) = (   4.0508765   0.7825358  14.3238065  )
        12           V1  tau(  12) = (   2.6954781   3.1124728  14.2063126  )

     number of k points=    20  Fermi-Dirac smearing, width (Ry)=  0.0110
                       cart. coord. in units 2pi/alat
        k(    1) = (   0.0000000   0.0000000   0.0000000), wk =   0.0555556
        k(    2) = (   0.0000000   0.0356987   0.0000000), wk =   0.1111111
        k(    3) = (   0.0000000   0.0713973   0.0000000), wk =   0.1111111
        k(    4) = (   0.0000000  -0.1070960   0.0000000), wk =   0.0555556
        k(    5) = (   0.0309160   0.0178493   0.0000000), wk =   0.1111111
        k(    6) = (   0.0309160   0.0535480   0.0000000), wk =   0.1111111
        k(    7) = (   0.0309160   0.0892467   0.0000000), wk =   0.1111111
        k(    8) = (   0.0309160  -0.0892467   0.0000000), wk =   0.1111111
        k(    9) = (   0.0309160  -0.0535480   0.0000000), wk =   0.1111111
        k(   10) = (   0.0309160  -0.0178493   0.0000000), wk =   0.1111111
        k(   11) = (   0.0618319   0.0356987   0.0000000), wk =   0.1111111
        k(   12) = (   0.0618319   0.0713973   0.0000000), wk =   0.1111111
        k(   13) = (   0.0618319   0.1070960   0.0000000), wk =   0.1111111
        k(   14) = (   0.0618319  -0.0713973   0.0000000), wk =   0.1111111
        k(   15) = (   0.0618319  -0.0356987   0.0000000), wk =   0.1111111
        k(   16) = (   0.0618319   0.0000000   0.0000000), wk =   0.1111111
        k(   17) = (  -0.0927479  -0.0535480   0.0000000), wk =   0.0555556
        k(   18) = (  -0.0927479  -0.0178493   0.0000000), wk =   0.1111111
        k(   19) = (  -0.0927479   0.0178493   0.0000000), wk =   0.1111111
        k(   20) = (  -0.0927479  -0.1606440   0.0000000), wk =   0.0555556

     Largest allocated arrays     est. size (Mb)     dimensions
     Largest temporary arrays     est. size (Mb)     dimensions

     Initial potential from superposition of free atoms
     Check: negative starting charge=   -0.656051

     starting charge  173.99618, renormalised to  183.00000

[...]

     *
     * You are using vdW-DF for exchange-correlation in this calculation.
     * Please cite the following three references that made this development
     * possible:
     *
     *   M. Dion, H. Rydberg, E. Schroder, D. C. Langreth, and
     *   B. I. Lundqvist, Phys. Rev. Lett. 92, 246401 (2004).
     *
     *   T. Thonhauser, V. R. Cooper, S. Li, A. Puzder, P. Hyldgaard, and
     *   D. C. Langreth, Phys. Rev. B 76, 125112 (2007).
     *
     *   G. Roman-Perez and J. M. Soler, Phys. Rev. Lett. 103, 096102 (2009).
     *
     *
     * If you are using vdW-DF2, please also cite:
     *
     *   K. Lee, E. D. Murray, L. Kong, B. I. Lundqvist, and
     *   D. C. Langreth, Phys. Rev. B 82, 081101(R) (2010).
     *
     *
     * If you are calculating the stress with vdW-DF, please also cite:
     *
     *   R. Sabatini, E. Kucukbenli, B. Kolb, T. Thonhauser, and
     *   S. de Gironcoli, J. Phys.: Condens. Matter 24, 424209 (2012).
     *

     Carrying out vdW-DF run using the following parameters:

     Nqs =      20    Nr_points =    1024   r_max =   100.000
     q_mesh =
               0.00001000     0.04494208     0.09755937     0.15916263
               0.23128650     0.31572767     0.41458969     0.53033537
               0.66584808     0.82450364     1.01025438     1.22772762
               1.48234092     1.78043706     2.12944203     2.53805004
               3.01644009     3.57652955     4.23227104     5.00000000

     Gradients computed in reciprocal space

[...]

     Starting wfc are  147 randomized atomic wfcs

     Self-consistent Calculation

[...]

     total energy              =   -2193.31907115 Ry
     Harris-Foulkes estimate   =   -2193.31907132 Ry
     estimated scf accuracy    <       0.00000520 Ry

     iteration # 19     ecut=    36.75 Ry     beta=0.10
     Davidson diagonalization with overlap
     ethr =  1.72E-09,  avg # of iterations =  1.2

[...]

     negative rho (up, down):  6.837E-01 0.000E+00

     Adding external electric field

     Computed dipole along edir(3) :
        Dipole                0.0201 Ry au,          0.0512 Debye
        Dipole field          0.0001 Ry au

        Potential amp.       -0.0055 Ry
        Total length         44.9597 bohr

     End of self-consistent calculation

[...]

          k = 0.0618 0.0000 0.0000 ( 15580 PWs)   bands (ev):

[...]

          k =-0.0927-0.1606 0.0000 ( 15624 PWs)   bands (ev):

   -70.9501 -70.9221 -70.8933 -70.5027 -70.4785 -70.4752 -70.4517 -70.4490
   -70.4248 -62.5691 -62.5428 -62.4455 -41.1816 -41.0641 -41.0446 -40.9879
   -40.9376 -40.9225 -40.8775 -40.8705 -40.7203 -40.6761 -40.6196 -40.5017
   -40.4705 -40.4473 -40.4298 -40.4204 -40.4201 -40.4051 -40.3878 -40.3842
   -40.3703 -40.3592 -40.3439 -40.3229 -40.3223 -40.1989 -40.1742 -36.4983
   -36.3592 -36.3442 -36.3399 -36.2879 -36.2746 -36.2724 -36.1951 -36.1798
    -3.0904  -2.8444  -2.4722  -2.3052  -2.2091  -2.0079  -1.8613  -1.8525
    -1.8340  -1.7722  -1.6046  -1.5118  -1.2996  -1.2396  -1.1726  -1.0077
    -0.9085  -0.7741  -0.7373  -0.5975  -0.0807  -0.0683  -0.0009   0.1305
     0.2059   0.2639   0.3618   0.4040   0.4619   0.5204   0.5415   0.5830
     0.6345   0.7103   0.8183   0.9192   0.9915   1.1676   1.3532   1.4321
     1.5317   1.5351   1.7520   1.9524   2.1198   2.1605   2.2309   2.3273
     2.5975   2.6638   2.7008   2.7461   2.9502   2.9558   3.0841   3.1215
     3.3312   3.3736   3.5500   3.7709   3.9232   4.0851   4.1605   4.4406
     5.1276   5.1740   6.3793   6.4208   6.8624   6.9330   7.0299   7.0769
     8.0519

     the Fermi energy is     2.1261 ev

!    total energy              =   -2193.31907031 Ry
     Harris-Foulkes estimate   =   -2193.31907165 Ry
     estimated scf accuracy    <       0.00000084 Ry

     The total energy is the sum of the following terms:

     one-electron contribution =  -20445.17910938 Ry
     hartree contribution      =   10219.32350393 Ry
     xc contribution           =    -302.71285937 Ry
     ewald contribution        =    8335.34415406 Ry
     electric field correction =       0.00000123 Ry
     smearing contrib. (-TS)   =      -0.09476078 Ry

     convergence has been achieved in  19 iterations

 BEEF-vdW xc energy contributions
           1 :   -262.319054447039
           2 :    239.927569627193
           3 :   -201.494249320823
           4 :    157.022136715313
           5 :   -116.353309923774
           6 :    85.9947761612190
           7 :   -67.7433346164721
           8 :    59.2973910021167
           9 :   -56.2074764118802
          10 :    54.1029453467358
          11 :   -50.2693777005009
          12 :    44.1308350610464
          13 :   -36.7501923207820
          14 :    29.8218930639838
          15 :   -24.7117482690003
          16 :    21.9164938128746
          17 :   -21.0353754052553
          18 :    21.1081128994479
          19 :   -21.0853746736607
          20 :    20.2279052962318
          21 :   -18.3215859163096
          22 :    15.6773319046060
          23 :   -12.9469072505202
          24 :    10.8259238880469
          25 :   -9.75185513392120
          26 :    9.71438466918806
          27 :   -10.2645350646430
          28 :    10.7260411821991
          29 :   -10.5174202017419
          30 :    9.43024131450250
          31 :   -27.1548326269761
          32 :   -20.4197346636362

     Forces acting on atoms (Ry/au):

     negative rho (up, down):  6.837E-01 0.000E+00
     atom    1 type  1   force =    -0.00000102    0.00519215    0.01125783
     atom    2 type  1   force =     0.00449630   -0.00259668    0.01125717
     atom    3 type  1   force =    -0.00449586   -0.00259530    0.01125905
     atom    4 type  2   force =     0.00000031    0.00000018    0.03291564
     atom    5 type  1   force =    -0.00000141    0.00207175   -0.02024832
     atom    6 type  1   force =     0.00179246   -0.00103738   -0.02024771
     atom    7 type  1   force =    -0.00179275   -0.00103592   -0.02024447
     atom    8 type  2   force =     0.00000049    0.00000059   -0.00541034
     atom    9 type  1   force =     0.00000042   -0.00003150   -0.00001224
     atom   10 type  1   force =    -0.00002603    0.00001639   -0.00001210
     atom   11 type  1   force =     0.00002668    0.00001610   -0.00001252
     atom   12 type  2   force =     0.00000040   -0.00000036   -0.00050198

     Total force =     0.053073     Total SCF correction =     0.003625

     entering subroutine stress ...

     negative rho (up, down):  6.837E-01 0.000E+00
          total   stress  (Ry/bohr**3)                   (kbar)     P=  -17.61
  -0.00014414  -0.00000000  -0.00000000        -21.20     -0.00     -0.00
  -0.00000000  -0.00014414  -0.00000000         -0.00    -21.20     -0.00
  -0.00000000  -0.00000000  -0.00007083         -0.00     -0.00    -10.42

 !ASE

     Writing output data file calc.save

     General routines

     Parallel routines

   This run was terminated on:  23:20:54  27Dec2018

   JOB DONE.
Job  /afs/slac/g/suncat/bin/suncat-tsmpirun -x LD_LIBRARY_PATH -wdir /scratch/qe110814_uJ8hJ pw.x -in pw.inp

TID   HOST_NAME   COMMAND_LINE            STATUS            TERMINATION_TIME
00000 suncat0060 pw.x -in pw.inp   Done                     12/27/2018 23:20:54
00001 suncat0060 pw.x -in pw.inp   Done                     12/27/2018 23:20:54
00002 suncat0060 pw.x -in pw.inp   Done                     12/27/2018 23:20:54
00003 suncat0060 pw.x -in pw.inp   Done                     12/27/2018 23:20:54
00004 suncat0060 pw.x -in pw.inp   Done                     12/27/2018 23:20:54
00005 suncat0060 pw.x -in pw.inp   Done                     12/27/2018 23:20:54
00006 suncat0060 pw.x -in pw.inp   Done                     12/27/2018 23:20:54
00007 suncat0060 pw.x -in pw.inp   Done                     12/27/2018 23:20:54
00008 suncat0059 pw.x -in pw.inp   Done                     12/27/2018 23:20:54
00009 suncat0059 pw.x -in pw.inp   Done                     12/27/2018 23:20:54
00010 suncat0059 pw.x -in pw.inp   Done                     12/27/2018 23:20:54
00011 suncat0059 pw.x -in pw.inp   Done                     12/27/2018 23:20:54
00012 suncat0059 pw.x -in pw.inp   Done                     12/27/2018 23:20:54
00013 suncat0059 pw.x -in pw.inp   Done                     12/27/2018 23:20:54
00014 suncat0059 pw.x -in pw.inp   Done                     12/27/2018 23:20:54
00015 suncat0059 pw.x -in pw.inp   Done                     12/27/2018 23:20:54
00016 suncat0180 pw.x -in pw.inp   Done                     12/27/2018 23:20:54
00017 suncat0180 pw.x -in pw.inp   Done                     12/27/2018 23:20:54
00018 suncat0180 pw.x -in pw.inp   Done                     12/27/2018 23:20:54
00019 suncat0180 pw.x -in pw.inp   Done                     12/27/2018 23:20:54
00020 suncat0180 pw.x -in pw.inp   Done                     12/27/2018 23:20:54
00021 suncat0180 pw.x -in pw.inp   Done                     12/27/2018 23:20:54
00022 suncat0180 pw.x -in pw.inp   Done                     12/27/2018 23:20:54
00023 suncat0180 pw.x -in pw.inp   Done                     12/27/2018 23:20:54
00024 suncat0167 pw.x -in pw.inp   Done                     12/27/2018 23:20:54
00025 suncat0167 pw.x -in pw.inp   Done                     12/27/2018 23:20:54
00026 suncat0167 pw.x -in pw.inp   Done                     12/27/2018 23:20:54
00027 suncat0167 pw.x -in pw.inp   Done                     12/27/2018 23:20:54
00028 suncat0167 pw.x -in pw.inp   Done                     12/27/2018 23:20:54
00029 suncat0167 pw.x -in pw.inp   Done                     12/27/2018 23:20:54
00030 suncat0167 pw.x -in pw.inp   Done                     12/27/2018 23:20:54
00031 suncat0167 pw.x -in pw.inp   Done                     12/27/2018 23:20:54
00032 suncat0166 pw.x -in pw.inp   Done                     12/27/2018 23:20:54
00033 suncat0166 pw.x -in pw.inp   Done                     12/27/2018 23:20:54
00034 suncat0166 pw.x -in pw.inp   Done                     12/27/2018 23:20:54
00035 suncat0166 pw.x -in pw.inp   Done                     12/27/2018 23:20:54
00036 suncat0166 pw.x -in pw.inp   Done                     12/27/2018 23:20:54
00037 suncat0166 pw.x -in pw.inp   Done                     12/27/2018 23:20:54
00038 suncat0166 pw.x -in pw.inp   Done                     12/27/2018 23:20:54
00039 suncat0166 pw.x -in pw.inp   Done                     12/27/2018 23:20:54
00040 suncat0149 pw.x -in pw.inp   Done                     12/27/2018 23:20:54
00041 suncat0149 pw.x -in pw.inp   Done                     12/27/2018 23:20:54
00042 suncat0149 pw.x -in pw.inp   Done                     12/27/2018 23:20:54
00043 suncat0149 pw.x -in pw.inp   Done                     12/27/2018 23:20:54
00044 suncat0149 pw.x -in pw.inp   Done                     12/27/2018 23:20:54
00045 suncat0149 pw.x -in pw.inp   Done                     12/27/2018 23:20:54
00046 suncat0149 pw.x -in pw.inp   Done                     12/27/2018 23:20:54
00047 suncat0149 pw.x -in pw.inp   Done                     12/27/2018 23:20:54
00048 suncat0148 pw.x -in pw.inp   Done                     12/27/2018 23:20:54
00049 suncat0148 pw.x -in pw.inp   Done                     12/27/2018 23:20:54
00050 suncat0148 pw.x -in pw.inp   Done                     12/27/2018 23:20:54
00051 suncat0148 pw.x -in pw.inp   Done                     12/27/2018 23:20:54
00052 suncat0148 pw.x -in pw.inp   Done                     12/27/2018 23:20:54
00053 suncat0148 pw.x -in pw.inp   Done                     12/27/2018 23:20:54
00054 suncat0148 pw.x -in pw.inp   Done                     12/27/2018 23:20:54
00055 suncat0148 pw.x -in pw.inp   Done                     12/27/2018 23:20:54
00056 suncat0142 pw.x -in pw.inp   Done                     12/27/2018 23:20:54
00057 suncat0142 pw.x -in pw.inp   Done                     12/27/2018 23:20:54
00058 suncat0142 pw.x -in pw.inp   Done                     12/27/2018 23:20:54
00059 suncat0142 pw.x -in pw.inp   Done                     12/27/2018 23:20:54
00060 suncat0142 pw.x -in pw.inp   Done                     12/27/2018 23:20:54
00061 suncat0142 pw.x -in pw.inp   Done                     12/27/2018 23:20:54
00062 suncat0142 pw.x -in pw.inp   Done                     12/27/2018 23:20:54
00063 suncat0142 pw.x -in pw.inp   Done                     12/27/2018 23:20:54