     Program PWSCF v.5.1rc2 (svn rev. 11289) starts on 26Dec2018 at 14:42:46

     Current dimensions of program PWSCF are:
     Max number of different atomic species (ntypx) = 10
     Max number of k-points (npk) =  40000
     Max angular momentum in pseudopotentials (lmaxx) =  3
     Presently stress not available with electric field

     IMPORTANT: XC functional enforced from input :
     Exchange-correlation      = BEEF-VDW ( 1  4 27 13 2)
     Any further DFT definition will be discarded
     Please, verify this is what you really want

     Subspace diagonalization in iterative solution of the eigenvalue problem:
     a serial algorithm will be used

     bravais-lattice index     =            0
     lattice parameter (alat)  =       1.8897  a.u.
     unit-cell volume          =    6503.4834 (a.u.)^3
     number of atoms/cell      =           12
     number of atomic types    =            2
     number of electrons       =       150.00
     number of Kohn-Sham states=          105
     kinetic-energy cutoff     =      36.7493  Ry
     charge density cutoff     =     367.4932  Ry
     convergence threshold     =      1.0E-06
     mixing beta               =       0.1000
     number of iterations used =           10  plain     mixing
     Exchange-correlation      = BEEF-VDW ( 1  4 27 13 2)
     nstep                     =           50

     celldm(1)=   1.889726  celldm(2)=   0.000000  celldm(3)=   0.000000
     celldm(4)=   0.000000  celldm(5)=   0.000000  celldm(6)=   0.000000

     crystal axes: (cart. coord. in units of alat)
               a(1) = (   6.618485   0.000000   0.000000 )
               a(2) = (  -3.309243   5.731776   0.000000 )
               a(3) = (   0.000000   0.000000  25.403971 )

     reciprocal axes: (cart. coord. in units 2 pi/alat)
               b(1) = (  0.151092  0.087233  0.000000 )
               b(2) = (  0.000000  0.174466  0.000000 )
               b(3) = (  0.000000  0.000000  0.039364 )

     PseudoPot. # 1 for In read from file:
     /afs/slac.stanford.edu/u/if/mamunm/psp/gbrv1.5pbe/In.UPF
     MD5 check sum: 90777abd96fbb83f2e67db2a40c566b9
     Pseudo is Ultrasoft + core correction, Zval = 13.0
     Generated by new atomic code, or converted to UPF format
     Using radial grid of  889 points,  6 beta functions with:
                l(1) =   0
                l(2) =   0
                l(3) =   1
                l(4) =   1
                l(5) =   2
                l(6) =   2
     Q(r) pseudized with  6 coefficients,  rinner =    1.400   1.400   1.400
                                                       1.400   1.400

     PseudoPot. # 2 for Y  read from file:
     /afs/slac.stanford.edu/u/if/mamunm/psp/gbrv1.5pbe/Y.UPF
     MD5 check sum: d034151ed7554c50b6e82763ed42c788
     Pseudo is Ultrasoft + core correction, Zval = 11.0
     Generated by new atomic code, or converted to UPF format
     Using radial grid of  885 points,  6 beta functions with:
                l(1) =   0
                l(2) =   0
                l(3) =   1
                l(4) =   1
                l(5) =   2
                l(6) =   2
     Q(r) pseudized with  8 coefficients,  rinner =    1.200   1.200   1.200
                                                       1.200   1.200

     vdW kernel table read from file vdW_kernel_table
     MD5 check sum: 095c7af220d748ca6e76c0b4c6cfb241

     atomic species   valence    mass     pseudopotential
        In1           13.00   114.81800     In( 1.00)
        Y1            11.00    88.90584     Y ( 1.00)

     No symmetry found

   Cartesian axes

     site n.     atom                  positions (alat units)
         1           In1 tau(   1) = (   0.0000000   0.0000000  10.0000000  )
         2           In1 tau(   2) = (  -1.6546213   2.8658882  10.0000000  )
         3           In1 tau(   3) = (   1.6546213   2.8658882  10.0000000  )
         4           Y1  tau(   4) = (   3.3092426   0.0000000  10.0000000  )
         5           In1 tau(   5) = (   3.3092426   1.9105921  12.7019853  )
         6           In1 tau(   6) = (   1.6546213   4.7764803  12.7019853  )
         7           In1 tau(   7) = (  -1.6546213   4.7764803  12.7019853  )
         8           Y1  tau(   8) = (   0.0000000   1.9105921  12.7019853  )
         9           In1 tau(   9) = (   0.0000000   3.8211842  15.4039705  )
        10           In1 tau(  10) = (   1.6546213   0.9552961  15.4039705  )
        11           In1 tau(  11) = (   4.9638639   0.9552961  15.4039705  )
        12           Y1  tau(  12) = (   3.3092426   3.8211842  15.4039705  )

     number of k points=    20  Fermi-Dirac smearing, width (Ry)=  0.0110
                       cart. coord. in units 2pi/alat
        k(    1) = (   0.0000000   0.0000000   0.0000000), wk =   0.0555556
        k(    2) = (   0.0000000   0.0290777   0.0000000), wk =   0.1111111
        k(    3) = (   0.0000000   0.0581553   0.0000000), wk =   0.1111111
        k(    4) = (   0.0000000  -0.0872330   0.0000000), wk =   0.0555556
        k(    5) = (   0.0251820   0.0145388   0.0000000), wk =   0.1111111
        k(    6) = (   0.0251820   0.0436165   0.0000000), wk =   0.1111111
        k(    7) = (   0.0251820   0.0726942   0.0000000), wk =   0.1111111
        k(    8) = (   0.0251820  -0.0726942   0.0000000), wk =   0.1111111
        k(    9) = (   0.0251820  -0.0436165   0.0000000), wk =   0.1111111
        k(   10) = (   0.0251820  -0.0145388   0.0000000), wk =   0.1111111
        k(   11) = (   0.0503640   0.0290777   0.0000000), wk =   0.1111111
        k(   12) = (   0.0503640   0.0581553   0.0000000), wk =   0.1111111
        k(   13) = (   0.0503640   0.0872330   0.0000000), wk =   0.1111111
        k(   14) = (   0.0503640  -0.0581553   0.0000000), wk =   0.1111111
        k(   15) = (   0.0503640  -0.0290777   0.0000000), wk =   0.1111111
        k(   16) = (   0.0503640   0.0000000   0.0000000), wk =   0.1111111
        k(   17) = (  -0.0755460  -0.0436165   0.0000000), wk =   0.0555556
        k(   18) = (  -0.0755460  -0.0145388   0.0000000), wk =   0.1111111
        k(   19) = (  -0.0755460   0.0145388   0.0000000), wk =   0.1111111
        k(   20) = (  -0.0755460  -0.1308495   0.0000000), wk =   0.0555556

     Largest allocated arrays     est. size (Mb)     dimensions
     Largest temporary arrays     est. size (Mb)     dimensions

     Initial potential from superposition of free atoms
     Check: negative starting charge=   -0.000382

     starting charge  136.48659, renormalised to  150.00000

     negative rho (up, down):  4.201E-04 0.000E+00

     *
     * You are using vdW-DF for exchange-correlation in this calculation.
     * Please cite the following three references that made this development
     * possible:
     *
     *   M. Dion, H. Rydberg, E. Schroder, D. C. Langreth, and
     *   B. I. Lundqvist, Phys. Rev. Lett. 92, 246401 (2004).
     *
     *   T. Thonhauser, V. R. Cooper, S. Li, A. Puzder, P. Hyldgaard, and
     *   D. C. Langreth, Phys. Rev. B 76, 125112 (2007).
     *
     *   G. Roman-Perez and J. M. Soler, Phys. Rev. Lett. 103, 096102 (2009).
     *
     *
     * If you are using vdW-DF2, please also cite:
     *
     *   K. Lee, E. D. Murray, L. Kong, B. I. Lundqvist, and
     *   D. C. Langreth, Phys. Rev. B 82, 081101(R) (2010).
     *
     *
     * If you are calculating the stress with vdW-DF, please also cite:
     *
     *   R. Sabatini, E. Kucukbenli, B. Kolb, T. Thonhauser, and
     *   S. de Gironcoli, J. Phys.: Condens. Matter 24, 424209 (2012).
     *

     Carrying out vdW-DF run using the following parameters:

     Nqs =      20    Nr_points =    1024   r_max =   100.000
     q_mesh =
               0.00001000     0.04494208     0.09755937     0.15916263
               0.23128650     0.31572767     0.41458969     0.53033537
               0.66584808     0.82450364     1.01025438     1.22772762
               1.48234092     1.78043706     2.12944203     2.53805004
               3.01644009     3.57652955     4.23227104     5.00000000

     Gradients computed in reciprocal space

     Adding external electric field

     Computed dipole along edir(3) :
        Dipole                0.0000 Ry au,          0.0000 Debye
        Dipole field          0.0000 Ry au

        Potential amp.       -0.0000 Ry
        Total length         46.8064 bohr

     Starting wfc are  120 randomized atomic wfcs

     Self-consistent Calculation

     iteration #  1     ecut=    36.75 Ry     beta=0.10
     Davidson diagonalization with overlap
     ethr =  1.00E-02,  avg # of iterations =  8.1

[...]

     total energy              =   -1498.08956620 Ry
     Harris-Foulkes estimate   =   -1501.96061040 Ry
     estimated scf accuracy    <      22.88331689 Ry

[...]

     End of self-consistent calculation

          k = 0.0000 0.0000 0.0000 ( 24369 PWs)   bands (ev):

   -42.7498 -42.7498 -42.4738 -22.7919 -22.7892 -22.6263 -22.6263 -22.6256
   -22.6256 -22.4760 -22.4196 -22.4196 -14.0907 -14.0617 -14.0617 -14.0524
   -14.0222 -14.0026 -13.9591 -13.9523 -13.9523 -13.9521 -13.9521 -13.9318
   -13.9318 -13.9164 -13.8944 -13.8944 -13.8835 -13.8554 -13.8343 -13.8343
   -13.8324 -13.8141 -13.8135 -13.8135 -13.7898 -13.7898 -13.7591 -13.7591
   -13.7551 -13.7551 -13.7463 -13.7463 -13.7394 -13.7391 -13.7391 -13.6906
   -13.6906 -13.6546 -13.6546 -13.6398 -13.6269 -13.6261 -13.6261 -13.5653
   -13.5636  -7.6189  -6.3303  -4.7092  -3.7179  -3.7179  -3.0718  -3.0718
    -2.2410  -2.2410  -2.0369  -1.4242  -1.0498  -0.8471  -0.8471  -0.5817
     0.5070   0.5070   0.5576   0.5576   0.6211   1.7687   1.7687   1.8049
     1.8049   2.2785   2.7405   3.2000   3.2000   3.2430   3.5397   3.6005
     3.6149   3.6149   3.7732   3.7732   4.0713   4.2002   4.3549   4.3549
     4.6802   4.8928   4.8928   5.2638   5.2933   5.3389   5.5500   5.5500
     5.6025

[...]

          k =-0.0755-0.0436 0.0000 ( 24456 PWs)   bands (ev):

[...]

     the Fermi energy is     0.8374 ev

!    total energy              =   -1494.31389556 Ry
     Harris-Foulkes estimate   =   -1494.31388928 Ry
     estimated scf accuracy    <       0.00000009 Ry

     The total energy is the sum of the following terms:

     one-electron contribution =   -8432.45526924 Ry
     hartree contribution      =    4275.08016291 Ry
     xc contribution           =    -437.09659695 Ry
     ewald contribution        =    3100.20350363 Ry
     electric field correction =       0.00000000 Ry
     smearing contrib. (-TS)   =      -0.04569591 Ry

     convergence has been achieved in  17 iterations

 BEEF-vdW xc energy contributions
           1 :   -382.730639493213
           2 :    348.961524281912
           3 :   -291.544884641111
           4 :    225.989114927972
           5 :   -166.634934588931
           6 :    121.667610559029
           7 :   -91.7569946683785
           8 :    72.2573342485601
           9 :   -57.2151721964630
          10 :    42.8360364844669
          11 :   -28.7532901289800
          12 :    16.9164350939835
          13 :   -9.31055555317892
          14 :    6.16570806206278
          15 :   -5.69110346718776
          16 :    5.21769376568523
          17 :   -2.78734894675159
[...]

     PseudoPot. # 1 for In read from file:
     /afs/slac.stanford.edu/u/if/mamunm/psp/gbrv1.5pbe/In.UPF
     MD5 check sum: 90777abd96fbb83f2e67db2a40c566b9
     Pseudo is Ultrasoft + core correction, Zval = 13.0
     Generated by new atomic code, or converted to UPF format
     Using radial grid of  889 points,  6 beta functions with:
                l(1) =   0
                l(2) =   0
                l(3) =   1
                l(4) =   1
                l(5) =   2
                l(6) =   2
     Q(r) pseudized with  6 coefficients,  rinner =    1.400   1.400   1.400
                                                       1.400   1.400

     PseudoPot. # 2 for Y  read from file:
     /afs/slac.stanford.edu/u/if/mamunm/psp/gbrv1.5pbe/Y.UPF
     MD5 check sum: d034151ed7554c50b6e82763ed42c788
     Pseudo is Ultrasoft + core correction, Zval = 11.0
     Generated by new atomic code, or converted to UPF format
     Using radial grid of  885 points,  6 beta functions with:
                l(1) =   0
                l(2) =   0
                l(3) =   1
                l(4) =   1
                l(5) =   2
                l(6) =   2
     Q(r) pseudized with  8 coefficients,  rinner =    1.200   1.200   1.200
                                                       1.200   1.200

     vdW kernel table read from file vdW_kernel_table
     MD5 check sum: 095c7af220d748ca6e76c0b4c6cfb241

     atomic species   valence    mass     pseudopotential
        In1           13.00   114.81800     In( 1.00)
        Y1            11.00    88.90584     Y ( 1.00)

     No symmetry found

   Cartesian axes

     site n.     atom                  positions (alat units)
         1           In1 tau(   1) = (   0.0000000   0.0000000  10.0000000  )
         2           In1 tau(   2) = (  -1.6546213   2.8658882  10.0000000  )
         3           In1 tau(   3) = (   1.6546213   2.8658882  10.0000000  )
         4           Y1  tau(   4) = (   3.3092426   0.0000000  10.0000000  )
         5           In1 tau(   5) = (   3.3092426   1.9105921  12.7019853  )
         6           In1 tau(   6) = (   1.6546213   4.7764803  12.7019853  )
         7           In1 tau(   7) = (  -1.6546213   4.7764803  12.7019853  )
         8           Y1  tau(   8) = (   0.0000000   1.9105921  12.7019853  )
         9           In1 tau(   9) = (   0.0000075   3.8454540  15.5583242  )
        10           In1 tau(  10) = (   1.6756380   0.9431568  15.5583305  )
        11           In1 tau(  11) = (   4.9428561   0.9431475  15.5583200  )
        12           Y1  tau(  12) = (   3.3092541   3.8211754  15.2693135  )

     number of k points=    20  Fermi-Dirac smearing, width (Ry)=  0.0110
                       cart. coord. in units 2pi/alat
        k(    1) = (   0.0000000   0.0000000   0.0000000), wk =   0.0555556
        k(    2) = (   0.0000000   0.0290777   0.0000000), wk =   0.1111111
        k(    3) = (   0.0000000   0.0581553   0.0000000), wk =   0.1111111
        k(    4) = (   0.0000000  -0.0872330   0.0000000), wk =   0.0555556
        k(    5) = (   0.0251820   0.0145388   0.0000000), wk =   0.1111111
        k(    6) = (   0.0251820   0.0436165   0.0000000), wk =   0.1111111
        k(    7) = (   0.0251820   0.0726942   0.0000000), wk =   0.1111111
        k(    8) = (   0.0251820  -0.0726942   0.0000000), wk =   0.1111111
        k(    9) = (   0.0251820  -0.0436165   0.0000000), wk =   0.1111111
        k(   10) = (   0.0251820  -0.0145388   0.0000000), wk =   0.1111111
        k(   11) = (   0.0503640   0.0290777   0.0000000), wk =   0.1111111
        k(   12) = (   0.0503640   0.0581553   0.0000000), wk =   0.1111111
        k(   13) = (   0.0503640   0.0872330   0.0000000), wk =   0.1111111
        k(   14) = (   0.0503640  -0.0581553   0.0000000), wk =   0.1111111
        k(   15) = (   0.0503640  -0.0290777   0.0000000), wk =   0.1111111
        k(   16) = (   0.0503640   0.0000000   0.0000000), wk =   0.1111111
        k(   17) = (  -0.0755460  -0.0436165   0.0000000), wk =   0.0555556
        k(   18) = (  -0.0755460  -0.0145388   0.0000000), wk =   0.1111111
        k(   19) = (  -0.0755460   0.0145388   0.0000000), wk =   0.1111111
        k(   20) = (  -0.0755460  -0.1308495   0.0000000), wk =   0.0555556

     Largest allocated arrays     est. size (Mb)     dimensions
     Largest temporary arrays     est. size (Mb)     dimensions

     Initial potential from superposition of free atoms
     Check: negative starting charge=   -0.000377

     starting charge  136.48659, renormalised to  150.00000

[...]

     *
     * You are using vdW-DF for exchange-correlation in this calculation.
     * Please cite the following three references that made this development
     * possible:
     *
     *   M. Dion, H. Rydberg, E. Schroder, D. C. Langreth, and
     *   B. I. Lundqvist, Phys. Rev. Lett. 92, 246401 (2004).
     *
     *   T. Thonhauser, V. R. Cooper, S. Li, A. Puzder, P. Hyldgaard, and
     *   D. C. Langreth, Phys. Rev. B 76, 125112 (2007).
     *
     *   G. Roman-Perez and J. M. Soler, Phys. Rev. Lett. 103, 096102 (2009).
     *
     *
     * If you are using vdW-DF2, please also cite:
     *
     *   K. Lee, E. D. Murray, L. Kong, B. I. Lundqvist, and
     *   D. C. Langreth, Phys. Rev. B 82, 081101(R) (2010).
     *
     *
     * If you are calculating the stress with vdW-DF, please also cite:
     *
     *   R. Sabatini, E. Kucukbenli, B. Kolb, T. Thonhauser, and
     *   S. de Gironcoli, J. Phys.: Condens. Matter 24, 424209 (2012).
     *

     Carrying out vdW-DF run using the following parameters:

     Nqs =      20    Nr_points =    1024   r_max =   100.000
     q_mesh =
               0.00001000     0.04494208     0.09755937     0.15916263
               0.23128650     0.31572767     0.41458969     0.53033537
               0.66584808     0.82450364     1.01025438     1.22772762
               1.48234092     1.78043706     2.12944203     2.53805004
               3.01644009     3.57652955     4.23227104     5.00000000

     Gradients computed in reciprocal space

[...]

     Starting wfc are  120 randomized atomic wfcs

     Self-consistent Calculation

[...]

     total energy              =   -1494.32323434 Ry
     Harris-Foulkes estimate   =   -1494.32323199 Ry
     estimated scf accuracy    <       0.00000201 Ry

     iteration # 17     ecut=    36.75 Ry     beta=0.10
     Davidson diagonalization with overlap
     ethr =  1.34E-09,  avg # of iterations =  2.5

[...]

     negative rho (up, down):  8.649E-04 0.000E+00

     Adding external electric field

     Computed dipole along edir(3) :
        Dipole               -0.0356 Ry au,         -0.0905 Debye
        Dipole field         -0.0001 Ry au

        Potential amp.        0.0064 Ry
        Total length         46.8064 bohr

     End of self-consistent calculation

[...]

          k = 0.0504 0.0000 0.0000 ( 24494 PWs)   bands (ev):

[...]

          k =-0.0755-0.1308 0.0000 ( 24456 PWs)   bands (ev):

   -42.7618 -42.5987 -42.5955 -22.7995 -22.6463 -22.6432 -22.6368 -22.5880
   -22.5350 -22.5332 -22.4935 -22.4905 -14.0645 -14.0148 -14.0081 -13.9899
   -13.9894 -13.9717 -13.9565 -13.9455 -13.9329 -13.9288 -13.9137 -13.9080
   -13.8983 -13.8877 -13.8863 -13.8797 -13.8650 -13.8645 -13.8640 -13.8531
   -13.8481 -13.8447 -13.8398 -13.8347 -13.8315 -13.8259 -13.8248 -13.8158
   -13.8146 -13.8112 -13.8089 -13.8036 -13.7978 -13.7870 -13.7848 -13.7756
   -13.7752 -13.7658 -13.7557 -13.7547 -13.7350 -13.7189 -13.6860 -13.6633
   -13.6427  -6.4907  -6.2316  -5.1738  -5.0418  -4.1928  -4.0579  -3.6609
    -3.0315  -1.9972  -1.6226  -1.4667  -0.7160  -0.0497  -0.0130   0.0349
     0.4009   0.5315   0.8667   1.1622   1.3919   1.7044   2.1302   2.1336
     2.4625   2.7327   2.8704   2.9373   3.0186   3.0478   3.2355   3.3119
     3.4118   3.5182   3.6342   3.7190   3.8217   3.9777   4.3141   4.5630
     4.6241   4.7814   4.9479   5.1138   5.2112   5.2563   5.3395   5.6526
     5.9069

     the Fermi energy is     0.7886 ev

!    total energy              =   -1494.32324251 Ry
     Harris-Foulkes estimate   =   -1494.32323449 Ry
     estimated scf accuracy    <       0.00000039 Ry

     The total energy is the sum of the following terms:

     one-electron contribution =   -8323.60881635 Ry
     hartree contribution      =    4220.51176433 Ry
     xc contribution           =    -437.04842311 Ry
     ewald contribution        =    3045.86805389 Ry
     electric field correction =       0.00000245 Ry
     smearing contrib. (-TS)   =      -0.04582372 Ry

     convergence has been achieved in  17 iterations

 BEEF-vdW xc energy contributions
           1 :   -382.678963691629
           2 :    348.874731812269
           3 :   -291.417908917918
           4 :    225.854537664039
           5 :   -166.541534364169
           6 :    121.643836984701
           7 :   -91.7866592169227
           8 :    72.2906569162277
           9 :   -57.2081368286749
          10 :    42.7839233312271
          11 :   -28.6901655319733
          12 :    16.8839805538328
          13 :   -9.32358633438048
          14 :    6.20191557780316
          15 :   -5.71165732934548
          16 :    5.20022573682462
          17 :   -2.74392763972099
          18 :   -1.90832239000844
          19 :    7.48811596630753
          20 :   -12.1795251407857
          21 :    14.6962814971886
          22 :   -14.8386241646128
          23 :    13.3395817983023
          24 :   -11.2665995311719
          25 :    9.43008249287573
          26 :   -8.12641507496755
          27 :    7.24940906916908
          28 :   -6.57432968768012
          29 :    5.97441898500733
          30 :   -5.45841379537774
          31 :   -35.0317927056229
          32 :   -25.1932309514613

     Forces acting on atoms (Ry/au):

     negative rho (up, down):  8.649E-04 0.000E+00
     atom    1 type  1   force =     0.00000051   -0.00649283   -0.01243703
     atom    2 type  1   force =    -0.00562355    0.00324685   -0.01243689
     atom    3 type  1   force =     0.00562340    0.00324617   -0.01243750
     atom    4 type  2   force =    -0.00000005   -0.00000020    0.01990821
     atom    5 type  1   force =     0.00000010   -0.00613877   -0.00005023
     atom    6 type  1   force =    -0.00531531    0.00306932   -0.00004941
     atom    7 type  1   force =     0.00531538    0.00306889   -0.00005028
     atom    8 type  2   force =     0.00000088    0.00000058    0.01290904
     atom    9 type  1   force =    -0.00000003    0.00143504    0.00100236
     atom   10 type  1   force =     0.00124333   -0.00071731    0.00100237
     atom   11 type  1   force =    -0.00124403   -0.00071758    0.00100279
     atom   12 type  2   force =    -0.00000063   -0.00000014    0.00163657

     Total force =     0.035755     Total SCF correction =     0.004664
     SCF correction compared to forces is large: reduce conv_thr to get better values

     entering subroutine stress ...

     negative rho (up, down):  8.649E-04 0.000E+00
          total   stress  (Ry/bohr**3)                   (kbar)     P=   -5.33
  -0.00006063   0.00000000  -0.00000000         -8.92      0.00     -0.00
   0.00000000  -0.00006063   0.00000000          0.00     -8.92      0.00
  -0.00000000   0.00000000   0.00001256         -0.00      0.00      1.85

 !ASE

     Writing output data file calc.save

     General routines

     Parallel routines

   This run was terminated on:  16:38: 8  26Dec2018

   JOB DONE.
Job  /afs/slac/g/suncat/bin/suncat-tsmpirun -x LD_LIBRARY_PATH -wdir /scratch/qe109911_KIfcM pw.x -in pw.inp

TID   HOST_NAME   COMMAND_LINE            STATUS            TERMINATION_TIME
00000 suncat0169 pw.x -in pw.inp   Done                     12/26/2018 16:38:08
00001 suncat0169 pw.x -in pw.inp   Done                     12/26/2018 16:38:08
00002 suncat0169 pw.x -in pw.inp   Done                     12/26/2018 16:38:08
00003 suncat0169 pw.x -in pw.inp   Done                     12/26/2018 16:38:08
00004 suncat0169 pw.x -in pw.inp   Done                     12/26/2018 16:38:08
00005 suncat0169 pw.x -in pw.inp   Done                     12/26/2018 16:38:08
00006 suncat0169 pw.x -in pw.inp   Done                     12/26/2018 16:38:08
00007 suncat0169 pw.x -in pw.inp   Done                     12/26/2018 16:38:08
00008 suncat0168 pw.x -in pw.inp   Done                     12/26/2018 16:38:08
00009 suncat0168 pw.x -in pw.inp   Done                     12/26/2018 16:38:08
00010 suncat0168 pw.x -in pw.inp   Done                     12/26/2018 16:38:08
00011 suncat0168 pw.x -in pw.inp   Done                     12/26/2018 16:38:08
00012 suncat0168 pw.x -in pw.inp   Done                     12/26/2018 16:38:08
00013 suncat0168 pw.x -in pw.inp   Done                     12/26/2018 16:38:08
00014 suncat0168 pw.x -in pw.inp   Done                     12/26/2018 16:38:08
00015 suncat0168 pw.x -in pw.inp   Done                     12/26/2018 16:38:08
00016 suncat0161 pw.x -in pw.inp   Done                     12/26/2018 16:38:08
00017 suncat0161 pw.x -in pw.inp   Done                     12/26/2018 16:38:08
00018 suncat0161 pw.x -in pw.inp   Done                     12/26/2018 16:38:08
00019 suncat0161 pw.x -in pw.inp   Done                     12/26/2018 16:38:08
00020 suncat0161 pw.x -in pw.inp   Done                     12/26/2018 16:38:08
00021 suncat0161 pw.x -in pw.inp   Done                     12/26/2018 16:38:08
00022 suncat0161 pw.x -in pw.inp   Done                     12/26/2018 16:38:08
00023 suncat0161 pw.x -in pw.inp   Done                     12/26/2018 16:38:08
00024 suncat0159 pw.x -in pw.inp   Done                     12/26/2018 16:38:08
00025 suncat0159 pw.x -in pw.inp   Done                     12/26/2018 16:38:08
00026 suncat0159 pw.x -in pw.inp   Done                     12/26/2018 16:38:08
00027 suncat0159 pw.x -in pw.inp   Done                     12/26/2018 16:38:08
00028 suncat0159 pw.x -in pw.inp   Done                     12/26/2018 16:38:08
00029 suncat0159 pw.x -in pw.inp   Done                     12/26/2018 16:38:08
00030 suncat0159 pw.x -in pw.inp   Done                     12/26/2018 16:38:08
00031 suncat0159 pw.x -in pw.inp   Done                     12/26/2018 16:38:08
00032 suncat0156 pw.x -in pw.inp   Done                     12/26/2018 16:38:08
00033 suncat0156 pw.x -in pw.inp   Done                     12/26/2018 16:38:08
00034 suncat0156 pw.x -in pw.inp   Done                     12/26/2018 16:38:08
00035 suncat0156 pw.x -in pw.inp   Done                     12/26/2018 16:38:08
00036 suncat0156 pw.x -in pw.inp   Done                     12/26/2018 16:38:08
00037 suncat0156 pw.x -in pw.inp   Done                     12/26/2018 16:38:08
00038 suncat0156 pw.x -in pw.inp   Done                     12/26/2018 16:38:08
00039 suncat0156 pw.x -in pw.inp   Done                     12/26/2018 16:38:08
00040 suncat0153 pw.x -in pw.inp   Done                     12/26/2018 16:38:08
00041 suncat0153 pw.x -in pw.inp   Done                     12/26/2018 16:38:08
00042 suncat0153 pw.x -in pw.inp   Done                     12/26/2018 16:38:08
00043 suncat0153 pw.x -in pw.inp   Done                     12/26/2018 16:38:08
00044 suncat0153 pw.x -in pw.inp   Done                     12/26/2018 16:38:08
00045 suncat0153 pw.x -in pw.inp   Done                     12/26/2018 16:38:08
00046 suncat0153 pw.x -in pw.inp   Done                     12/26/2018 16:38:08
00047 suncat0153 pw.x -in pw.inp   Done                     12/26/2018 16:38:08
00048 suncat0114 pw.x -in pw.inp   Done                     12/26/2018 16:38:08
00049 suncat0114 pw.x -in pw.inp   Done                     12/26/2018 16:38:08
00050 suncat0114 pw.x -in pw.inp   Done                     12/26/2018 16:38:08
00051 suncat0114 pw.x -in pw.inp   Done                     12/26/2018 16:38:08
00052 suncat0114 pw.x -in pw.inp   Done                     12/26/2018 16:38:08
00053 suncat0114 pw.x -in pw.inp   Done                     12/26/2018 16:38:08
00054 suncat0114 pw.x -in pw.inp   Done                     12/26/2018 16:38:08
00055 suncat0114 pw.x -in pw.inp   Done                     12/26/2018 16:38:08
00056 suncat0267 pw.x -in pw.inp   Done                     12/26/2018 16:38:08
00057 suncat0267 pw.x -in pw.inp   Done                     12/26/2018 16:38:08
00058 suncat0267 pw.x -in pw.inp   Done                     12/26/2018 16:38:08
00059 suncat0267 pw.x -in pw.inp   Done                     12/26/2018 16:38:08
00060 suncat0267 pw.x -in pw.inp   Done                     12/26/2018 16:38:08
00061 suncat0267 pw.x -in pw.inp   Done                     12/26/2018 16:38:08
00062 suncat0267 pw.x -in pw.inp   Done                     12/26/2018 16:38:08
00063 suncat0267 pw.x -in pw.inp   Done                     12/26/2018 16:38:08