     Program PWSCF v.5.1rc2 (svn rev. 11289) starts on  2Jan2019 at  5:12:19

     Current dimensions of program PWSCF are:
     Max number of different atomic species (ntypx) = 10
     Max number of k-points (npk) =  40000
     Max angular momentum in pseudopotentials (lmaxx) =  3
     Presently stress not available with electric field

     IMPORTANT: XC functional enforced from input :
     Exchange-correlation      = BEEF-VDW ( 1  4 27 13 2)
     Any further DFT definition will be discarded
     Please, verify this is what you really want

     Subspace diagonalization in iterative solution of the eigenvalue problem:
     a serial algorithm will be used

     bravais-lattice index     =            0
     lattice parameter (alat)  =       1.8897  a.u.
     unit-cell volume          =    4175.9642 (a.u.)^3
     number of atoms/cell      =           12
     number of atomic types    =            2
     number of electrons       =       165.00
     number of Kohn-Sham states=          112
     kinetic-energy cutoff     =      36.7493  Ry
     charge density cutoff     =     367.4932  Ry
     convergence threshold     =      1.0E-06
     mixing beta               =       0.1000
     number of iterations used =           10  plain     mixing
     Exchange-correlation      = BEEF-VDW ( 1  4 27 13 2)
     nstep                     =           50

     celldm(1)=   1.889726  celldm(2)=   0.000000  celldm(3)=   0.000000
     celldm(4)=   0.000000  celldm(5)=   0.000000  celldm(6)=   0.000000

     crystal axes: (cart. coord. in units of alat)
               a(1) = (   5.409648   0.000000   0.000000 )
               a(2) = (  -2.704824   4.684892   0.000000 )
               a(3) = (   0.000000   0.000000  24.416959 )

     reciprocal axes: (cart. coord. in units 2 pi/alat)
               b(1) = (  0.184855  0.106726  0.000000 )
               b(2) = (  0.000000  0.213452  0.000000 )
               b(3) = (  0.000000  0.000000  0.040955 )

     PseudoPot. # 1 for V  read from file:
     /afs/slac.stanford.edu/u/if/mamunm/psp/gbrv1.5pbe/V.UPF
     MD5 check sum: 22b79981416ebb76fdaf5b1b8640f6fb
     Pseudo is Ultrasoft + core correction, Zval = 13.0
     Generated by new atomic code, or converted to UPF format
     Using radial grid of  853 points,  6 beta functions with:
                l(1) =   0
                l(2) =   0
                l(3) =   1
                l(4) =   1
                l(5) =   2
                l(6) =   2
     Q(r) pseudized with  8 coefficients,  rinner =    1.100   1.100   1.100
                                                       1.100   1.100

     PseudoPot. # 2 for Os read from file:
     /afs/slac.stanford.edu/u/if/mamunm/psp/gbrv1.5pbe/Os.UPF
     MD5 check sum: a3fb40a04f0c37c25c34bbc47164c9a8
     Pseudo is Ultrasoft + core correction, Zval = 16.0
     Generated by new atomic code, or converted to UPF format
     Using radial grid of  983 points,  8 beta functions with:
                l(1) =   0
                l(2) =   0
                l(3) =   1
                l(4) =   1
                l(5) =   2
                l(6) =   2
                l(7) =   3
                l(8) =   3
     Q(r) pseudized with  8 coefficients,  rinner =    1.150   1.150   1.150
                                                       1.150   1.150   1.150
                                                       1.150

     vdW kernel table read from file vdW_kernel_table
     MD5 check sum: 095c7af220d748ca6e76c0b4c6cfb241

     atomic species   valence    mass     pseudopotential
        V1            13.00    50.94150     V ( 1.00)
        Os1           16.00   190.23000     Os( 1.00)

     No symmetry found

   Cartesian axes

     site n.     atom                  positions (alat units)
         1           V1  tau(   1) = (   0.0000000   0.0000000  10.0000000  )
         2           V1  tau(   2) = (  -1.3524119   2.3424461  10.0000000  )
         3           V1  tau(   3) = (   1.3524119   2.3424461  10.0000000  )
         4           Os1 tau(   4) = (   2.7048238   0.0000000  10.0000000  )
         5           V1  tau(   5) = (   2.7048238   1.5616308  12.2084794  )
         6           V1  tau(   6) = (   1.3524119   3.9040769  12.2084794  )
         7           V1  tau(   7) = (  -1.3524119   3.9040769  12.2084794  )
         8           Os1 tau(   8) = (   0.0000000   1.5616308  12.2084794  )
         9           V1  tau(   9) = (  -0.0000000   3.1232615  14.4169588  )
        10           V1  tau(  10) = (   1.3524119   0.7808154  14.4169588  )
        11           V1  tau(  11) = (   4.0572357   0.7808154  14.4169588  )
        12           Os1 tau(  12) = (   2.7048238   3.1232615  14.4169588  )

     number of k points=    20  Fermi-Dirac smearing, width (Ry)=  0.0110
                       cart. coord. in units 2pi/alat
        k(    1) = (   0.0000000   0.0000000   0.0000000), wk =   0.0555556
        k(    2) = (   0.0000000   0.0355753   0.0000000), wk =   0.1111111
        k(    3) = (   0.0000000   0.0711507   0.0000000), wk =   0.1111111
        k(    4) = (   0.0000000  -0.1067260   0.0000000), wk =   0.0555556
        k(    5) = (   0.0308092   0.0177877   0.0000000), wk =   0.1111111
        k(    6) = (   0.0308092   0.0533630   0.0000000), wk =   0.1111111
        k(    7) = (   0.0308092   0.0889384   0.0000000), wk =   0.1111111
        k(    8) = (   0.0308092  -0.0889384   0.0000000), wk =   0.1111111
        k(    9) = (   0.0308092  -0.0533630   0.0000000), wk =   0.1111111
        k(   10) = (   0.0308092  -0.0177877   0.0000000), wk =   0.1111111
        k(   11) = (   0.0616183   0.0355753   0.0000000), wk =   0.1111111
        k(   12) = (   0.0616183   0.0711507   0.0000000), wk =   0.1111111
        k(   13) = (   0.0616183   0.1067260   0.0000000), wk =   0.1111111
        k(   14) = (   0.0616183  -0.0711507   0.0000000), wk =   0.1111111
        k(   15) = (   0.0616183  -0.0355753   0.0000000), wk =   0.1111111
        k(   16) = (   0.0616183   0.0000000   0.0000000), wk =   0.1111111
        k(   17) = (  -0.0924275  -0.0533630   0.0000000), wk =   0.0555556
        k(   18) = (  -0.0924275  -0.0177877   0.0000000), wk =   0.1111111
        k(   19) = (  -0.0924275   0.0177877   0.0000000), wk =   0.1111111
        k(   20) = (  -0.0924275  -0.1600891   0.0000000), wk =   0.0555556

     Largest allocated arrays     est. size (Mb)     dimensions
     Largest temporary arrays     est. size (Mb)     dimensions

     Initial potential from superposition of free atoms
     Check: negative starting charge=   -0.380292

     starting charge  163.48884, renormalised to  165.00000

     negative rho (up, down):  3.838E-01 0.000E+00

     *
     * You are using vdW-DF for exchange-correlation in this calculation.
     * Please cite the following three references that made this development
     * possible:
     *
     *   M. Dion, H. Rydberg, E. Schroder, D. C. Langreth, and
     *   B. I. Lundqvist, Phys. Rev. Lett. 92, 246401 (2004).
     *
     *   T. Thonhauser, V. R. Cooper, S. Li, A. Puzder, P. Hyldgaard, and
     *   D. C. Langreth, Phys. Rev. B 76, 125112 (2007).
     *
     *   G. Roman-Perez and J. M. Soler, Phys. Rev. Lett. 103, 096102 (2009).
     *
     *
     * If you are using vdW-DF2, please also cite:
     *
     *   K. Lee, E. D. Murray, L. Kong, B. I. Lundqvist, and
     *   D. C. Langreth, Phys. Rev. B 82, 081101(R) (2010).
     *
     *
     * If you are calculating the stress with vdW-DF, please also cite:
     *
     *   R. Sabatini, E. Kucukbenli, B. Kolb, T. Thonhauser, and
     *   S. de Gironcoli, J. Phys.: Condens. Matter 24, 424209 (2012).
     *

     Carrying out vdW-DF run using the following parameters:

     Nqs =      20    Nr_points =    1024   r_max =   100.000
     q_mesh =
               0.00001000     0.04494208     0.09755937     0.15916263
               0.23128650     0.31572767     0.41458969     0.53033537
               0.66584808     0.82450364     1.01025438     1.22772762
               1.48234092     1.78043706     2.12944203     2.53805004
               3.01644009     3.57652955     4.23227104     5.00000000

     Gradients computed in reciprocal space

     Adding external electric field

     Computed dipole along edir(3) :
        Dipole                0.0000 Ry au,          0.0000 Debye
        Dipole field          0.0000 Ry au

        Potential amp.       -0.0000 Ry
        Total length         44.9878 bohr

     Starting wfc are  129 randomized atomic wfcs

     Self-consistent Calculation

     iteration #  1     ecut=    36.75 Ry     beta=0.10
     Davidson diagonalization with overlap
     ethr =  1.00E-02,  avg # of iterations =  2.4

[...]

     total energy              =   -1910.36432426 Ry
     Harris-Foulkes estimate   =   -1911.83661091 Ry
     estimated scf accuracy    <       8.26654025 Ry

[...]

     End of self-consistent calculation

          k = 0.0000 0.0000 0.0000 ( 15605 PWs)   bands (ev):

   -84.7557 -84.4298 -84.4297 -62.8691 -62.8078 -62.7859 -62.7775 -62.7775
   -62.7315 -62.7314 -62.7246 -62.7245 -44.0481 -44.0397 -44.0397 -43.7251
   -43.7219 -43.7219 -43.7204 -43.7204 -43.7191 -36.9399 -36.8548 -36.8160
   -36.8160 -36.8036 -36.7802 -36.7512 -36.7512 -36.7028 -36.6602 -36.6601
   -36.6368 -36.6367 -36.5964 -36.5963 -36.5244 -36.4657 -36.4657 -36.4520
   -36.4160 -36.3814 -36.3444 -36.3443 -36.2742 -36.2741 -36.2709 -36.2709
    -5.5215  -3.8883  -2.9957  -2.8351  -2.8351  -2.4608  -2.4608  -2.2546
    -1.9245  -1.9244  -1.8833  -1.8833  -1.8571  -1.6354  -1.1168  -0.9717
    -0.9716  -0.3311  -0.0692  -0.0691   0.1491   0.5318   0.8439   1.1833
     1.2258   1.2669   1.2669   1.3982   1.3982   1.4157   1.4157   1.5129
     1.5130   1.6103   1.6103   1.7694   2.0317   2.0857   2.2943   2.2943
     2.5340   2.5340   2.7908   2.9610   2.9610   3.2931   3.2931   3.3948
     3.4531   3.4531   3.4874   3.6120   3.6121   3.8755   3.8898   3.8898
     4.0129   4.0129   4.3515   4.4387   4.4389   4.4818   4.5380   4.6124

[...]

          k =-0.0924-0.0534 0.0000 ( 15740 PWs)   bands (ev):

[...]

     the Fermi energy is     1.4987 ev

!    total energy              =   -1911.09910825 Ry
     Harris-Foulkes estimate   =   -1911.09910744 Ry
     estimated scf accuracy    <       0.00000083 Ry

     The total energy is the sum of the following terms:

     one-electron contribution =  -16383.07177257 Ry
     hartree contribution      =    8177.37379328 Ry
     xc contribution           =    -299.15589464 Ry
     ewald contribution        =    6593.88833116 Ry
     electric field correction =       0.00000000 Ry
     smearing contrib. (-TS)   =      -0.13356547 Ry

     convergence has been achieved in  21 iterations

 BEEF-vdW xc energy contributions
           1 :   -259.519661163592
           2 :    235.856232353890
           3 :   -195.893207001251
           4 :    150.911194682534
           5 :   -111.347011361153
           6 :    83.1451732544731
           7 :   -66.7513667075638
           8 :    58.6500458584709
           9 :   -54.1435944320160
          10 :    49.7556798684512
          11 :   -44.2531358937630
          12 :    38.2142822695402
[...]
     Generated by new atomic code, or converted to UPF format
     Using radial grid of  853 points,  6 beta functions with:
                l(1) =   0
                l(2) =   0
                l(3) =   1
                l(4) =   1
                l(5) =   2
                l(6) =   2
     Q(r) pseudized with  8 coefficients,  rinner =    1.100   1.100   1.100
                                                       1.100   1.100

     PseudoPot. # 2 for Os read from file:
     /afs/slac.stanford.edu/u/if/mamunm/psp/gbrv1.5pbe/Os.UPF
     MD5 check sum: a3fb40a04f0c37c25c34bbc47164c9a8
     Pseudo is Ultrasoft + core correction, Zval = 16.0
     Generated by new atomic code, or converted to UPF format
     Using radial grid of  983 points,  8 beta functions with:
                l(1) =   0
                l(2) =   0
                l(3) =   1
                l(4) =   1
                l(5) =   2
                l(6) =   2
                l(7) =   3
                l(8) =   3
     Q(r) pseudized with  8 coefficients,  rinner =    1.150   1.150   1.150
                                                       1.150   1.150   1.150
                                                       1.150

     vdW kernel table read from file vdW_kernel_table
     MD5 check sum: 095c7af220d748ca6e76c0b4c6cfb241

     atomic species   valence    mass     pseudopotential
        V1            13.00    50.94150     V ( 1.00)
        Os1           16.00   190.23000     Os( 1.00)

     No symmetry found

   Cartesian axes

     site n.     atom                  positions (alat units)
         1           V1  tau(   1) = (   0.0000000   0.0000000  10.0000000  )
         2           V1  tau(   2) = (  -1.3524119   2.3424461  10.0000000  )
         3           V1  tau(   3) = (   1.3524119   2.3424461  10.0000000  )
         4           Os1 tau(   4) = (   2.7048238   0.0000000  10.0000000  )
         5           V1  tau(   5) = (   2.7048238   1.5616308  12.2084794  )
         6           V1  tau(   6) = (   1.3524119   3.9040769  12.2084794  )
         7           V1  tau(   7) = (  -1.3524119   3.9040769  12.2084794  )
         8           Os1 tau(   8) = (   0.0000000   1.5616308  12.2084794  )
         9           V1  tau(   9) = (   0.0000099   3.0961908  14.4330774  )
        10           V1  tau(  10) = (   1.3289687   0.7943626  14.4330701  )
        11           V1  tau(  11) = (   4.0806645   0.7943411  14.4330758  )
        12           Os1 tau(  12) = (   2.7048306   3.1232473  14.3548647  )

     number of k points=    20  Fermi-Dirac smearing, width (Ry)=  0.0110
                       cart. coord. in units 2pi/alat
        k(    1) = (   0.0000000   0.0000000   0.0000000), wk =   0.0555556
        k(    2) = (   0.0000000   0.0355753   0.0000000), wk =   0.1111111
        k(    3) = (   0.0000000   0.0711507   0.0000000), wk =   0.1111111
        k(    4) = (   0.0000000  -0.1067260   0.0000000), wk =   0.0555556
        k(    5) = (   0.0308092   0.0177877   0.0000000), wk =   0.1111111
        k(    6) = (   0.0308092   0.0533630   0.0000000), wk =   0.1111111
        k(    7) = (   0.0308092   0.0889384   0.0000000), wk =   0.1111111
        k(    8) = (   0.0308092  -0.0889384   0.0000000), wk =   0.1111111
        k(    9) = (   0.0308092  -0.0533630   0.0000000), wk =   0.1111111
        k(   10) = (   0.0308092  -0.0177877   0.0000000), wk =   0.1111111
        k(   11) = (   0.0616183   0.0355753   0.0000000), wk =   0.1111111
        k(   12) = (   0.0616183   0.0711507   0.0000000), wk =   0.1111111
        k(   13) = (   0.0616183   0.1067260   0.0000000), wk =   0.1111111
        k(   14) = (   0.0616183  -0.0711507   0.0000000), wk =   0.1111111
        k(   15) = (   0.0616183  -0.0355753   0.0000000), wk =   0.1111111
        k(   16) = (   0.0616183   0.0000000   0.0000000), wk =   0.1111111
        k(   17) = (  -0.0924275  -0.0533630   0.0000000), wk =   0.0555556
        k(   18) = (  -0.0924275  -0.0177877   0.0000000), wk =   0.1111111
        k(   19) = (  -0.0924275   0.0177877   0.0000000), wk =   0.1111111
        k(   20) = (  -0.0924275  -0.1600891   0.0000000), wk =   0.0555556

     Largest allocated arrays     est. size (Mb)     dimensions
     Largest temporary arrays     est. size (Mb)     dimensions

     Initial potential from superposition of free atoms
     Check: negative starting charge=   -0.380498

     starting charge  163.48884, renormalised to  165.00000

[...]

     *
     * You are using vdW-DF for exchange-correlation in this calculation.
     * Please cite the following three references that made this development
     * possible:
     *
     *   M. Dion, H. Rydberg, E. Schroder, D. C. Langreth, and
     *   B. I. Lundqvist, Phys. Rev. Lett. 92, 246401 (2004).
     *
     *   T. Thonhauser, V. R. Cooper, S. Li, A. Puzder, P. Hyldgaard, and
     *   D. C. Langreth, Phys. Rev. B 76, 125112 (2007).
     *
     *   G. Roman-Perez and J. M. Soler, Phys. Rev. Lett. 103, 096102 (2009).
     *
     *
     * If you are using vdW-DF2, please also cite:
     *
     *   K. Lee, E. D. Murray, L. Kong, B. I. Lundqvist, and
     *   D. C. Langreth, Phys. Rev. B 82, 081101(R) (2010).
     *
     *
     * If you are calculating the stress with vdW-DF, please also cite:
     *
     *   R. Sabatini, E. Kucukbenli, B. Kolb, T. Thonhauser, and
     *   S. de Gironcoli, J. Phys.: Condens. Matter 24, 424209 (2012).
     *

     Carrying out vdW-DF run using the following parameters:

     Nqs =      20    Nr_points =    1024   r_max =   100.000
     q_mesh =
               0.00001000     0.04494208     0.09755937     0.15916263
               0.23128650     0.31572767     0.41458969     0.53033537
               0.66584808     0.82450364     1.01025438     1.22772762
               1.48234092     1.78043706     2.12944203     2.53805004
               3.01644009     3.57652955     4.23227104     5.00000000

     Gradients computed in reciprocal space

[...]

     Starting wfc are  129 randomized atomic wfcs

     Self-consistent Calculation

[...]

     total energy              =   -1911.10062193 Ry
     Harris-Foulkes estimate   =   -1911.10062148 Ry
     estimated scf accuracy    <       0.00000132 Ry

     iteration # 21     ecut=    36.75 Ry     beta=0.10
     Davidson diagonalization with overlap
     ethr =  7.99E-10,  avg # of iterations =  2.0

[...]

     negative rho (up, down):  3.853E-01 0.000E+00

     Adding external electric field

     Computed dipole along edir(3) :
        Dipole                0.0146 Ry au,          0.0371 Debye
        Dipole field          0.0000 Ry au

        Potential amp.       -0.0039 Ry
        Total length         44.9878 bohr

     End of self-consistent calculation

[...]

          k = 0.0616 0.0000 0.0000 ( 15690 PWs)   bands (ev):

[...]

          k =-0.0924-0.1601 0.0000 ( 15740 PWs)   bands (ev):

   -84.7395 -84.4199 -84.4100 -62.8140 -62.7933 -62.7581 -62.7560 -62.7424
   -62.7327 -62.7227 -62.7079 -62.7016 -44.0311 -44.0206 -44.0151 -43.7198
   -43.7128 -43.7079 -43.7034 -43.6970 -43.6913 -36.8362 -36.7862 -36.7796
   -36.7109 -36.7104 -36.6938 -36.6860 -36.6803 -36.6401 -36.6355 -36.6087
   -36.5799 -36.5452 -36.5369 -36.5361 -36.5244 -36.5188 -36.4950 -36.4850
   -36.4773 -36.4535 -36.4188 -36.4131 -36.3703 -36.3349 -36.2673 -36.2585
    -4.0028  -3.5490  -2.6886  -2.1635  -2.1109  -2.0512  -1.6893  -1.5308
    -1.4352  -1.4085  -1.1850  -1.1190  -1.0301  -1.0226  -0.6592  -0.6495
    -0.5698  -0.4816  -0.4142  -0.0987   0.0369   0.1930   0.2472   0.2952
     0.3569   0.5565   0.8061   0.9187   0.9215   1.0244   1.1380   1.1582
     1.2019   1.2544   1.3198   1.3873   1.4017   1.4844   1.8224   1.9109
     2.0580   2.2099   2.3108   2.3859   2.5159   2.5379   2.5482   2.8054
     2.8312   2.9127   2.9131   2.9684   3.0366   3.0672   3.1522   3.2257
     3.3817   3.4585   3.7045   3.7162   4.0716   4.1284   4.3288   4.3737

     the Fermi energy is     1.5223 ev

!    total energy              =   -1911.10062221 Ry
     Harris-Foulkes estimate   =   -1911.10062194 Ry
     estimated scf accuracy    <       0.00000058 Ry

     The total energy is the sum of the following terms:

     one-electron contribution =  -16398.34145568 Ry
     hartree contribution      =    8185.11138935 Ry
     xc contribution           =    -299.17268801 Ry
     ewald contribution        =    6601.43505685 Ry
     electric field correction =       0.00000064 Ry
     smearing contrib. (-TS)   =      -0.13292536 Ry

     convergence has been achieved in  21 iterations

 BEEF-vdW xc energy contributions
           1 :   -259.536976029243
           2 :    235.880328372911
           3 :   -195.927310439520
           4 :    150.952042090458
           5 :   -111.383594069894
           6 :    83.1624489553655
           7 :   -66.7389904587973
           8 :    58.6103266794556
           9 :   -54.0912971856575
          10 :    49.7092231936063
          11 :   -44.2234876341658
          12 :    38.1996016895254
          13 :   -32.8174589973343
          14 :    28.7875121783453
          15 :   -25.9640403935437
          16 :    23.6845067992763
          17 :   -21.4134679134753
          18 :    19.1463724269867
          19 :   -17.3037904540505
          20 :    16.2644365863235
          21 :   -15.9534855985837
          22 :    15.8178049176263
          23 :   -15.1983297152962
          24 :    13.7999349225647
          25 :   -11.9067549187498
          26 :    10.1902983973263
          27 :   -9.25537054015086
          28 :    9.23908661575729
          29 :   -9.72976084705374
          30 :    10.0470608711262
          31 :   -25.9339755102508
          32 :   -19.0860822781971

     Forces acting on atoms (Ry/au):

     negative rho (up, down):  3.853E-01 0.000E+00
     atom    1 type  1   force =     0.00000153    0.00660666   -0.00338924
     atom    2 type  1   force =     0.00571702   -0.00329790   -0.00339819
     atom    3 type  1   force =    -0.00572080   -0.00330201   -0.00339051
     atom    4 type  2   force =    -0.00000835    0.00000490    0.01418577
     atom    5 type  1   force =     0.00000173   -0.00468974   -0.00172515
     atom    6 type  1   force =    -0.00406198    0.00234862   -0.00172553
     atom    7 type  1   force =     0.00406324    0.00234701   -0.00172507
     atom    8 type  2   force =    -0.00000662   -0.00000674   -0.00017712
     atom    9 type  1   force =    -0.00000308    0.00017552    0.00045610
     atom   10 type  1   force =     0.00015558   -0.00009458    0.00046636
     atom   11 type  1   force =    -0.00015182   -0.00008929    0.00046210
     atom   12 type  2   force =     0.00001354   -0.00000245   -0.00003952

     Total force =     0.021032     Total SCF correction =     0.002946
     SCF correction compared to forces is large: reduce conv_thr to get better values

     entering subroutine stress ...

     negative rho (up, down):  3.853E-01 0.000E+00
          total   stress  (Ry/bohr**3)                   (kbar)     P=  -27.82
  -0.00027776   0.00000000   0.00000001        -40.86      0.00      0.00
   0.00000000  -0.00027781   0.00000001          0.00    -40.87      0.00
   0.00000001   0.00000001  -0.00001169          0.00      0.00     -1.72

 !ASE

     Writing output data file calc.save

     General routines

     Parallel routines

   This run was terminated on:   6: 3:47   2Jan2019

   JOB DONE.
Job  /afs/slac/g/suncat/bin/suncat-tsmpirun -x LD_LIBRARY_PATH -wdir /scratch/qe649316_iktEl pw.x -in pw.inp

TID   HOST_NAME   COMMAND_LINE            STATUS            TERMINATION_TIME
00000 suncat0090 pw.x -in pw.inp   Done                     01/02/2019 06:03:47
00001 suncat0090 pw.x -in pw.inp   Done                     01/02/2019 06:03:47
00002 suncat0090 pw.x -in pw.inp   Done                     01/02/2019 06:03:47
00003 suncat0090 pw.x -in pw.inp   Done                     01/02/2019 06:03:47
00004 suncat0090 pw.x -in pw.inp   Done                     01/02/2019 06:03:47
00005 suncat0090 pw.x -in pw.inp   Done                     01/02/2019 06:03:47
00006 suncat0090 pw.x -in pw.inp   Done                     01/02/2019 06:03:47
00007 suncat0090 pw.x -in pw.inp   Done                     01/02/2019 06:03:47
00008 suncat0089 pw.x -in pw.inp   Done                     01/02/2019 06:03:47
00009 suncat0089 pw.x -in pw.inp   Done                     01/02/2019 06:03:47
00010 suncat0089 pw.x -in pw.inp   Done                     01/02/2019 06:03:47
00011 suncat0089 pw.x -in pw.inp   Done                     01/02/2019 06:03:47
00012 suncat0089 pw.x -in pw.inp   Done                     01/02/2019 06:03:47
00013 suncat0089 pw.x -in pw.inp   Done                     01/02/2019 06:03:47
00014 suncat0089 pw.x -in pw.inp   Done                     01/02/2019 06:03:47
00015 suncat0089 pw.x -in pw.inp   Done                     01/02/2019 06:03:47
00016 suncat0088 pw.x -in pw.inp   Done                     01/02/2019 06:03:47
00017 suncat0088 pw.x -in pw.inp   Done                     01/02/2019 06:03:47
00018 suncat0088 pw.x -in pw.inp   Done                     01/02/2019 06:03:47
00019 suncat0088 pw.x -in pw.inp   Done                     01/02/2019 06:03:47
00020 suncat0088 pw.x -in pw.inp   Done                     01/02/2019 06:03:47
00021 suncat0088 pw.x -in pw.inp   Done                     01/02/2019 06:03:47
00022 suncat0088 pw.x -in pw.inp   Done                     01/02/2019 06:03:47
00023 suncat0088 pw.x -in pw.inp   Done                     01/02/2019 06:03:47
00024 suncat0079 pw.x -in pw.inp   Done                     01/02/2019 06:03:47
00025 suncat0079 pw.x -in pw.inp   Done                     01/02/2019 06:03:47
00026 suncat0079 pw.x -in pw.inp   Done                     01/02/2019 06:03:47
00027 suncat0079 pw.x -in pw.inp   Done                     01/02/2019 06:03:47
00028 suncat0079 pw.x -in pw.inp   Done                     01/02/2019 06:03:47
00029 suncat0079 pw.x -in pw.inp   Done                     01/02/2019 06:03:47
00030 suncat0079 pw.x -in pw.inp   Done                     01/02/2019 06:03:47
00031 suncat0079 pw.x -in pw.inp   Done                     01/02/2019 06:03:47
00032 suncat0050 pw.x -in pw.inp   Done                     01/02/2019 06:03:47
00033 suncat0050 pw.x -in pw.inp   Done                     01/02/2019 06:03:47
00034 suncat0050 pw.x -in pw.inp   Done                     01/02/2019 06:03:47
00035 suncat0050 pw.x -in pw.inp   Done                     01/02/2019 06:03:47
00036 suncat0050 pw.x -in pw.inp   Done                     01/02/2019 06:03:47
00037 suncat0050 pw.x -in pw.inp   Done                     01/02/2019 06:03:47
00038 suncat0050 pw.x -in pw.inp   Done                     01/02/2019 06:03:47
00039 suncat0050 pw.x -in pw.inp   Done                     01/02/2019 06:03:47
00040 suncat0049 pw.x -in pw.inp   Done                     01/02/2019 06:03:47
00041 suncat0049 pw.x -in pw.inp   Done                     01/02/2019 06:03:47
00042 suncat0049 pw.x -in pw.inp   Done                     01/02/2019 06:03:47
00043 suncat0049 pw.x -in pw.inp   Done                     01/02/2019 06:03:47
00044 suncat0049 pw.x -in pw.inp   Done                     01/02/2019 06:03:47
00045 suncat0049 pw.x -in pw.inp   Done                     01/02/2019 06:03:47
00046 suncat0049 pw.x -in pw.inp   Done                     01/02/2019 06:03:47
00047 suncat0049 pw.x -in pw.inp   Done                     01/02/2019 06:03:47
00048 suncat0038 pw.x -in pw.inp   Done                     01/02/2019 06:03:47
00049 suncat0038 pw.x -in pw.inp   Done                     01/02/2019 06:03:47
00050 suncat0038 pw.x -in pw.inp   Done                     01/02/2019 06:03:47
00051 suncat0038 pw.x -in pw.inp   Done                     01/02/2019 06:03:47
00052 suncat0038 pw.x -in pw.inp   Done                     01/02/2019 06:03:47
00053 suncat0038 pw.x -in pw.inp   Done                     01/02/2019 06:03:47
00054 suncat0038 pw.x -in pw.inp   Done                     01/02/2019 06:03:47
00055 suncat0038 pw.x -in pw.inp   Done                     01/02/2019 06:03:47
00056 suncat0037 pw.x -in pw.inp   Done                     01/02/2019 06:03:47
00057 suncat0037 pw.x -in pw.inp   Done                     01/02/2019 06:03:47
00058 suncat0037 pw.x -in pw.inp   Done                     01/02/2019 06:03:47
00059 suncat0037 pw.x -in pw.inp   Done                     01/02/2019 06:03:47
00060 suncat0037 pw.x -in pw.inp   Done                     01/02/2019 06:03:47
00061 suncat0037 pw.x -in pw.inp   Done                     01/02/2019 06:03:47
00062 suncat0037 pw.x -in pw.inp   Done                     01/02/2019 06:03:47
00063 suncat0037 pw.x -in pw.inp   Done                     01/02/2019 06:03:47