     Program PWSCF v.5.1rc2 (svn rev. 11289) starts on 26Dec2018 at 16:37:49

     Current dimensions of program PWSCF are:
     Max number of different atomic species (ntypx) = 10
     Max number of k-points (npk) =  40000
     Max angular momentum in pseudopotentials (lmaxx) =  3
     Presently stress not available with electric field

     IMPORTANT: XC functional enforced from input :
     Exchange-correlation      = BEEF-VDW ( 1  4 27 13 2)
     Any further DFT definition will be discarded
     Please, verify this is what you really want

     Subspace diagonalization in iterative solution of the eigenvalue problem:
     a serial algorithm will be used

     bravais-lattice index     =            0
     lattice parameter (alat)  =       1.8897  a.u.
     unit-cell volume          =    4779.4785 (a.u.)^3
     number of atoms/cell      =           12
     number of atomic types    =            2
     number of electrons       =       168.00
     number of Kohn-Sham states=          114
     kinetic-energy cutoff     =      36.7493  Ry
     charge density cutoff     =     367.4932  Ry
     convergence threshold     =      1.0E-06
     mixing beta               =       0.1000
     number of iterations used =           10  plain     mixing
     Exchange-correlation      = BEEF-VDW ( 1  4 27 13 2)
     nstep                     =           50

     celldm(1)=   1.889726  celldm(2)=   0.000000  celldm(3)=   0.000000
     celldm(4)=   0.000000  celldm(5)=   0.000000  celldm(6)=   0.000000

     crystal axes: (cart. coord. in units of alat)
               a(1) = (   5.754300   0.000000   0.000000 )
               a(2) = (  -2.877150   4.983370   0.000000 )
               a(3) = (   0.000000   0.000000  24.698367 )

     reciprocal axes: (cart. coord. in units 2 pi/alat)
               b(1) = (  0.173783  0.100334  0.000000 )
               b(2) = (  0.000000  0.200667  0.000000 )
               b(3) = (  0.000000  0.000000  0.040489 )

     PseudoPot. # 1 for Ir read from file:
     /afs/slac.stanford.edu/u/if/mamunm/psp/gbrv1.5pbe/Ir.UPF
     MD5 check sum: 8836f839c3459d2b385c504ce6d91f2c
     Pseudo is Ultrasoft + core correction, Zval = 15.0
     Generated by new atomic code, or converted to UPF format
     Using radial grid of  983 points,  7 beta functions with:
                l(1) =   0
                l(2) =   0
                l(3) =   1
                l(4) =   1
                l(5) =   1
                l(6) =   2
                l(7) =   2
     Q(r) pseudized with  8 coefficients,  rinner =    1.400   1.400   1.400
                                                       1.400   1.400

     PseudoPot. # 2 for Y  read from file:
     /afs/slac.stanford.edu/u/if/mamunm/psp/gbrv1.5pbe/Y.UPF
     MD5 check sum: d034151ed7554c50b6e82763ed42c788
     Pseudo is Ultrasoft + core correction, Zval = 11.0
     Generated by new atomic code, or converted to UPF format
     Using radial grid of  885 points,  6 beta functions with:
                l(1) =   0
                l(2) =   0
                l(3) =   1
                l(4) =   1
                l(5) =   2
                l(6) =   2
     Q(r) pseudized with  8 coefficients,  rinner =    1.200   1.200   1.200
                                                       1.200   1.200

     vdW kernel table read from file vdW_kernel_table
     MD5 check sum: 095c7af220d748ca6e76c0b4c6cfb241

     atomic species   valence    mass     pseudopotential
        Ir1           15.00   192.21700     Ir( 1.00)
        Y1            11.00    88.90584     Y ( 1.00)

     No symmetry found

   Cartesian axes

     site n.     atom                  positions (alat units)
         1           Ir1 tau(   1) = (   0.0000000   0.0000000  10.0000000  )
         2           Ir1 tau(   2) = (  -1.4385751   2.4916851  10.0000000  )
         3           Ir1 tau(   3) = (   1.4385751   2.4916851  10.0000000  )
         4           Y1  tau(   4) = (   2.8771502   0.0000000  10.0000000  )
         5           Ir1 tau(   5) = (   2.8771502   1.6611234  12.3491833  )
         6           Ir1 tau(   6) = (   1.4385751   4.1528086  12.3491833  )
         7           Ir1 tau(   7) = (  -1.4385751   4.1528086  12.3491833  )
         8           Y1  tau(   8) = (   0.0000000   1.6611234  12.3491833  )
         9           Ir1 tau(   9) = (  -0.0000000   3.3222468  14.6983665  )
        10           Ir1 tau(  10) = (   1.4385751   0.8305617  14.6983665  )
        11           Ir1 tau(  11) = (   4.3157252   0.8305617  14.6983665  )
        12           Y1  tau(  12) = (   2.8771502   3.3222468  14.6983665  )

     number of k points=    20  Fermi-Dirac smearing, width (Ry)=  0.0110
                       cart. coord. in units 2pi/alat
        k(    1) = (   0.0000000   0.0000000   0.0000000), wk =   0.0555556
        k(    2) = (   0.0000000   0.0334446   0.0000000), wk =   0.1111111
        k(    3) = (   0.0000000   0.0668891   0.0000000), wk =   0.1111111
        k(    4) = (   0.0000000  -0.1003337   0.0000000), wk =   0.0555556
        k(    5) = (   0.0289638   0.0167223   0.0000000), wk =   0.1111111
        k(    6) = (   0.0289638   0.0501669   0.0000000), wk =   0.1111111
        k(    7) = (   0.0289638   0.0836114   0.0000000), wk =   0.1111111
        k(    8) = (   0.0289638  -0.0836114   0.0000000), wk =   0.1111111
        k(    9) = (   0.0289638  -0.0501669   0.0000000), wk =   0.1111111
        k(   10) = (   0.0289638  -0.0167223   0.0000000), wk =   0.1111111
        k(   11) = (   0.0579277   0.0334446   0.0000000), wk =   0.1111111
        k(   12) = (   0.0579277   0.0668891   0.0000000), wk =   0.1111111
        k(   13) = (   0.0579277   0.1003337   0.0000000), wk =   0.1111111
        k(   14) = (   0.0579277  -0.0668891   0.0000000), wk =   0.1111111
        k(   15) = (   0.0579277  -0.0334446   0.0000000), wk =   0.1111111
        k(   16) = (   0.0579277   0.0000000   0.0000000), wk =   0.1111111
        k(   17) = (  -0.0868915  -0.0501669   0.0000000), wk =   0.0555556
        k(   18) = (  -0.0868915  -0.0167223   0.0000000), wk =   0.1111111
        k(   19) = (  -0.0868915   0.0167223   0.0000000), wk =   0.1111111
        k(   20) = (  -0.0868915  -0.1505006   0.0000000), wk =   0.0555556

     Largest allocated arrays     est. size (Mb)     dimensions
     Largest temporary arrays     est. size (Mb)     dimensions

     Initial potential from superposition of free atoms
     Check: negative starting charge=   -3.272343

     starting charge  163.48631, renormalised to  168.00000

     negative rho (up, down):  3.363E+00 0.000E+00

     *
     * You are using vdW-DF for exchange-correlation in this calculation.
     * Please cite the following three references that made this development
     * possible:
     *
     *   M. Dion, H. Rydberg, E. Schroder, D. C. Langreth, and
     *   B. I. Lundqvist, Phys. Rev. Lett. 92, 246401 (2004).
     *
     *   T. Thonhauser, V. R. Cooper, S. Li, A. Puzder, P. Hyldgaard, and
     *   D. C. Langreth, Phys. Rev. B 76, 125112 (2007).
     *
     *   G. Roman-Perez and J. M. Soler, Phys. Rev. Lett. 103, 096102 (2009).
     *
     *
     * If you are using vdW-DF2, please also cite:
     *
     *   K. Lee, E. D. Murray, L. Kong, B. I. Lundqvist, and
     *   D. C. Langreth, Phys. Rev. B 82, 081101(R) (2010).
     *
     *
     * If you are calculating the stress with vdW-DF, please also cite:
     *
     *   R. Sabatini, E. Kucukbenli, B. Kolb, T. Thonhauser, and
     *   S. de Gironcoli, J. Phys.: Condens. Matter 24, 424209 (2012).
     *

     Carrying out vdW-DF run using the following parameters:

     Nqs =      20    Nr_points =    1024   r_max =   100.000
     q_mesh =
               0.00001000     0.04494208     0.09755937     0.15916263
               0.23128650     0.31572767     0.41458969     0.53033537
               0.66584808     0.82450364     1.01025438     1.22772762
               1.48234092     1.78043706     2.12944203     2.53805004
               3.01644009     3.57652955     4.23227104     5.00000000

     Gradients computed in reciprocal space

     Adding external electric field

     Computed dipole along edir(3) :
        Dipole                0.0000 Ry au,          0.0000 Debye
        Dipole field          0.0000 Ry au

        Potential amp.       -0.0000 Ry
        Total length         45.5063 bohr

     Starting wfc are  147 randomized atomic wfcs

     Self-consistent Calculation

     iteration #  1     ecut=    36.75 Ry     beta=0.10
     Davidson diagonalization with overlap
     ethr =  1.00E-02,  avg # of iterations =  7.3

[...]

     total energy              =   -1931.74758259 Ry
     Harris-Foulkes estimate   =   -1933.85983815 Ry
     estimated scf accuracy    <      13.42713716 Ry

[...]

     End of self-consistent calculation

          k = 0.0000 0.0000 0.0000 ( 18043 PWs)   bands (ev):

   -46.8858 -46.7881 -46.7881 -46.7661 -46.7409 -46.7409 -46.6174 -46.5536
   -46.5536 -46.5300 -46.5178 -46.3765 -46.3765 -46.3635 -46.3635 -46.2864
   -46.2760 -46.2760 -46.2668 -46.2668 -46.2667 -46.2052 -46.2022 -46.1937
   -46.1937 -46.1905 -46.1905 -39.8794 -39.8747 -39.0048 -20.0275 -19.9891
   -19.8818 -19.8818 -19.8720 -19.8720 -19.1510 -19.1510 -19.1268  -5.1518
    -3.6474  -3.3447  -2.9221  -2.9221  -2.6919  -2.6919  -2.5909  -2.2471
    -2.1733  -2.1733  -2.0447  -2.0447  -1.9680  -1.7552  -0.9593  -0.6812
    -0.6812  -0.5349  -0.5349  -0.1038  -0.0092   0.0569   0.1362   0.4598
     0.4598   0.5501   0.5501   0.6872   0.6873   0.8916   0.8916   1.0835
     1.0835   1.4633   1.5383   1.9061   1.9061   1.9504   1.9505   2.1355
     2.1355   2.5845   2.7183   2.7183   2.7309   3.2573   3.3338   3.4978
     3.6154   3.6635   4.2962   4.6074   4.6074   5.3490   5.3490   5.5657
     5.6009   5.6009   5.9548   5.9548   6.0178   6.0178   6.2205   6.3017
     6.5465   6.5465   7.0533   7.0625   7.0625   7.0900   7.3410   7.3410
     7.8982   8.5441

[...]

          k =-0.0869-0.0502 0.0000 ( 17948 PWs)   bands (ev):

[...]

     the Fermi energy is     2.1532 ev

!    total energy              =   -1931.25409376 Ry
     Harris-Foulkes estimate   =   -1931.25409688 Ry
     estimated scf accuracy    <       0.00000025 Ry

     The total energy is the sum of the following terms:

     one-electron contribution =  -14357.61229827 Ry
     hartree contribution      =    7204.51011247 Ry
     xc contribution           =    -553.11741907 Ry
     ewald contribution        =    5775.04289861 Ry
     electric field correction =       0.00000000 Ry
     smearing contrib. (-TS)   =      -0.07738750 Ry

     convergence has been achieved in  17 iterations

 BEEF-vdW xc energy contributions
           1 :   -488.521344722393
           2 :    451.949162180327
           3 :   -386.876108799136
           4 :    306.560893591874
           5 :   -225.285268571130
           6 :    154.577684280390
           7 :   -100.918107716930
           8 :    65.2938254343634
           9 :   -44.4024011451799
          10 :    32.8347216416122
          11 :   -25.3429422578185
          12 :    18.3971029664555
          13 :   -10.6724085389891
          14 :    2.60175605431243
[...]

     PseudoPot. # 1 for Ir read from file:
     /afs/slac.stanford.edu/u/if/mamunm/psp/gbrv1.5pbe/Ir.UPF
     MD5 check sum: 8836f839c3459d2b385c504ce6d91f2c
     Pseudo is Ultrasoft + core correction, Zval = 15.0
     Generated by new atomic code, or converted to UPF format
     Using radial grid of  983 points,  7 beta functions with:
                l(1) =   0
                l(2) =   0
                l(3) =   1
                l(4) =   1
                l(5) =   1
                l(6) =   2
                l(7) =   2
     Q(r) pseudized with  8 coefficients,  rinner =    1.400   1.400   1.400
                                                       1.400   1.400

     PseudoPot. # 2 for Y  read from file:
     /afs/slac.stanford.edu/u/if/mamunm/psp/gbrv1.5pbe/Y.UPF
     MD5 check sum: d034151ed7554c50b6e82763ed42c788
     Pseudo is Ultrasoft + core correction, Zval = 11.0
     Generated by new atomic code, or converted to UPF format
     Using radial grid of  885 points,  6 beta functions with:
                l(1) =   0
                l(2) =   0
                l(3) =   1
                l(4) =   1
                l(5) =   2
                l(6) =   2
     Q(r) pseudized with  8 coefficients,  rinner =    1.200   1.200   1.200
                                                       1.200   1.200

     vdW kernel table read from file vdW_kernel_table
     MD5 check sum: 095c7af220d748ca6e76c0b4c6cfb241

     atomic species   valence    mass     pseudopotential
        Ir1           15.00   192.21700     Ir( 1.00)
        Y1            11.00    88.90584     Y ( 1.00)

     No symmetry found

   Cartesian axes

     site n.     atom                  positions (alat units)
         1           Ir1 tau(   1) = (   0.0000000   0.0000000  10.0000000  )
         2           Ir1 tau(   2) = (  -1.4385751   2.4916851  10.0000000  )
         3           Ir1 tau(   3) = (   1.4385751   2.4916851  10.0000000  )
         4           Y1  tau(   4) = (   2.8771502   0.0000000  10.0000000  )
         5           Ir1 tau(   5) = (   2.8771502   1.6611234  12.3491833  )
         6           Ir1 tau(   6) = (   1.4385751   4.1528086  12.3491833  )
         7           Ir1 tau(   7) = (  -1.4385751   4.1528086  12.3491833  )
         8           Y1  tau(   8) = (   0.0000000   1.6611234  12.3491833  )
         9           Ir1 tau(   9) = (   0.0000022   3.3463976  14.5662686  )
        10           Ir1 tau(  10) = (   1.4594918   0.8184895  14.5662690  )
        11           Ir1 tau(  11) = (   4.2948100   0.8184890  14.5662675  )
        12           Y1  tau(  12) = (   2.8771518   3.3222495  14.8860103  )

     number of k points=    20  Fermi-Dirac smearing, width (Ry)=  0.0110
                       cart. coord. in units 2pi/alat
        k(    1) = (   0.0000000   0.0000000   0.0000000), wk =   0.0555556
        k(    2) = (   0.0000000   0.0334446   0.0000000), wk =   0.1111111
        k(    3) = (   0.0000000   0.0668891   0.0000000), wk =   0.1111111
        k(    4) = (   0.0000000  -0.1003337   0.0000000), wk =   0.0555556
        k(    5) = (   0.0289638   0.0167223   0.0000000), wk =   0.1111111
        k(    6) = (   0.0289638   0.0501669   0.0000000), wk =   0.1111111
        k(    7) = (   0.0289638   0.0836114   0.0000000), wk =   0.1111111
        k(    8) = (   0.0289638  -0.0836114   0.0000000), wk =   0.1111111
        k(    9) = (   0.0289638  -0.0501669   0.0000000), wk =   0.1111111
        k(   10) = (   0.0289638  -0.0167223   0.0000000), wk =   0.1111111
        k(   11) = (   0.0579277   0.0334446   0.0000000), wk =   0.1111111
        k(   12) = (   0.0579277   0.0668891   0.0000000), wk =   0.1111111
        k(   13) = (   0.0579277   0.1003337   0.0000000), wk =   0.1111111
        k(   14) = (   0.0579277  -0.0668891   0.0000000), wk =   0.1111111
        k(   15) = (   0.0579277  -0.0334446   0.0000000), wk =   0.1111111
        k(   16) = (   0.0579277   0.0000000   0.0000000), wk =   0.1111111
        k(   17) = (  -0.0868915  -0.0501669   0.0000000), wk =   0.0555556
        k(   18) = (  -0.0868915  -0.0167223   0.0000000), wk =   0.1111111
        k(   19) = (  -0.0868915   0.0167223   0.0000000), wk =   0.1111111
        k(   20) = (  -0.0868915  -0.1505006   0.0000000), wk =   0.0555556

     Largest allocated arrays     est. size (Mb)     dimensions
     Largest temporary arrays     est. size (Mb)     dimensions

     Initial potential from superposition of free atoms
     Check: negative starting charge=   -3.274609

     starting charge  163.48631, renormalised to  168.00000

[...]

     *
     * You are using vdW-DF for exchange-correlation in this calculation.
     * Please cite the following three references that made this development
     * possible:
     *
     *   M. Dion, H. Rydberg, E. Schroder, D. C. Langreth, and
     *   B. I. Lundqvist, Phys. Rev. Lett. 92, 246401 (2004).
     *
     *   T. Thonhauser, V. R. Cooper, S. Li, A. Puzder, P. Hyldgaard, and
     *   D. C. Langreth, Phys. Rev. B 76, 125112 (2007).
     *
     *   G. Roman-Perez and J. M. Soler, Phys. Rev. Lett. 103, 096102 (2009).
     *
     *
     * If you are using vdW-DF2, please also cite:
     *
     *   K. Lee, E. D. Murray, L. Kong, B. I. Lundqvist, and
     *   D. C. Langreth, Phys. Rev. B 82, 081101(R) (2010).
     *
     *
     * If you are calculating the stress with vdW-DF, please also cite:
     *
     *   R. Sabatini, E. Kucukbenli, B. Kolb, T. Thonhauser, and
     *   S. de Gironcoli, J. Phys.: Condens. Matter 24, 424209 (2012).
     *

     Carrying out vdW-DF run using the following parameters:

     Nqs =      20    Nr_points =    1024   r_max =   100.000
     q_mesh =
               0.00001000     0.04494208     0.09755937     0.15916263
               0.23128650     0.31572767     0.41458969     0.53033537
               0.66584808     0.82450364     1.01025438     1.22772762
               1.48234092     1.78043706     2.12944203     2.53805004
               3.01644009     3.57652955     4.23227104     5.00000000

     Gradients computed in reciprocal space

[...]

     Starting wfc are  147 randomized atomic wfcs

     Self-consistent Calculation

[...]

     total energy              =   -1931.28385234 Ry
     Harris-Foulkes estimate   =   -1931.28383629 Ry
     estimated scf accuracy    <       0.00000193 Ry

     iteration # 17     ecut=    36.75 Ry     beta=0.10
     Davidson diagonalization with overlap
     ethr =  1.15E-09,  avg # of iterations =  2.6

[...]

     negative rho (up, down):  2.945E+00 0.000E+00

     Adding external electric field

     Computed dipole along edir(3) :
        Dipole                0.1282 Ry au,          0.3259 Debye
        Dipole field          0.0003 Ry au

        Potential amp.       -0.0307 Ry
        Total length         45.5063 bohr

     End of self-consistent calculation

[...]

          k = 0.0579 0.0000 0.0000 ( 18003 PWs)   bands (ev):

[...]

          k =-0.0869-0.1505 0.0000 ( 17948 PWs)   bands (ev):

   -46.7294 -46.6875 -46.6592 -46.6240 -46.5743 -46.5490 -46.5461 -46.5028
   -46.4139 -46.3450 -46.2668 -46.2577 -46.2156 -46.2109 -46.1856 -46.1801
   -46.1685 -46.1586 -46.1537 -46.1270 -46.1070 -46.0973 -46.0792 -46.0690
   -46.0558 -46.0552 -46.0032 -40.0720 -39.6747 -38.7237 -20.1919 -20.0701
   -20.0391 -19.8115 -19.7413 -19.7044 -18.9674 -18.9254 -18.8955  -3.6454
    -3.2804  -2.1903  -2.0355  -1.9793  -1.9558  -1.8271  -1.6994  -1.6494
    -1.5048  -1.3125  -1.2171  -1.1598  -0.9754  -0.9281  -0.6625  -0.6569
    -0.5360  -0.4108  -0.3690  -0.1153  -0.0653   0.0617   0.1466   0.2213
     0.2416   0.2863   0.3455   0.4344   0.5236   0.5409   0.5725   0.6027
     0.7513   0.9850   1.0565   1.2291   1.2295   1.2936   1.3343   1.3786
     1.5891   1.8425   1.8582   2.0604   2.1359   2.2990   2.4787   2.6738
     2.8991   3.0944   3.4358   3.6980   4.2507   5.1769   5.2357   5.3130
     5.4345   5.5638   5.6952   5.7802   5.9533   5.9745   6.0859   6.2356
     6.9970   7.0852   7.2902   7.5700   7.7354   7.8609   7.8953   8.2384
     8.2765   8.5843

     the Fermi energy is     2.3401 ev

!    total energy              =   -1931.28386089 Ry
     Harris-Foulkes estimate   =   -1931.28385249 Ry
     estimated scf accuracy    <       0.00000093 Ry

     The total energy is the sum of the following terms:

     one-electron contribution =  -14497.86699506 Ry
     hartree contribution      =    7275.40699929 Ry
     xc contribution           =    -553.20358216 Ry
     ewald contribution        =    5844.45415150 Ry
     electric field correction =       0.00004323 Ry
     smearing contrib. (-TS)   =      -0.07447768 Ry

     convergence has been achieved in  17 iterations

 BEEF-vdW xc energy contributions
           1 :   -488.967434382672
           2 :    452.456436493695
           3 :   -387.469818520455
           4 :    307.211516699886
           5 :   -225.915041137675
           6 :    155.097499167857
           7 :   -101.279749774375
           8 :    65.5209365946046
           9 :   -44.5780970323041
          10 :    33.0575565528541
          11 :   -25.6788380257175
          12 :    18.8495017496732
          13 :   -11.1829846155465
          14 :    3.08240639256314
          15 :    4.17642643862121
          16 :   -9.39189237556684
          17 :    12.0623858494405
          18 :   -12.5453226550733
          19 :    11.8021246376761
          20 :   -10.9284651206219
          21 :    10.7008994233809
          22 :   -11.3152393993819
          23 :    12.3876159709139
          24 :   -13.1921034266103
          25 :    13.0253302724233
          26 :   -11.5485528221933
          27 :    8.96510310677888
          28 :   -5.95915598373062
          29 :    3.42005863075826
          30 :   -2.07273992484340
          31 :   -42.5522368079770
          32 :   -31.3535397250602

     Forces acting on atoms (Ry/au):

     negative rho (up, down):  2.945E+00 0.000E+00
     atom    1 type  1   force =     0.00000042   -0.00656955    0.02618484
     atom    2 type  1   force =    -0.00568969    0.00328486    0.02618527
     atom    3 type  1   force =     0.00568780    0.00328414    0.02618552
     atom    4 type  2   force =     0.00000120    0.00000003   -0.03389188
     atom    5 type  1   force =     0.00000059    0.01834864   -0.00346639
     atom    6 type  1   force =     0.01589040   -0.00917367   -0.00346569
     atom    7 type  1   force =    -0.01589025   -0.00917490   -0.00346700
     atom    8 type  2   force =     0.00000237   -0.00000152   -0.03473758
     atom    9 type  1   force =    -0.00000089   -0.00021803    0.00003347
     atom   10 type  1   force =    -0.00018878    0.00010860    0.00003353
     atom   11 type  1   force =     0.00018835    0.00010952    0.00003357
     atom   12 type  2   force =    -0.00000152    0.00000187    0.00037232

     Total force =     0.074754     Total SCF correction =     0.002043

     entering subroutine stress ...

     negative rho (up, down):  2.945E+00 0.000E+00
          total   stress  (Ry/bohr**3)                   (kbar)     P=  -19.28
  -0.00016066   0.00000000   0.00000000        -23.63      0.00      0.00
   0.00000000  -0.00016066  -0.00000000          0.00    -23.63     -0.00
   0.00000000  -0.00000000  -0.00007187          0.00     -0.00    -10.57

 !ASE

     Writing output data file calc.save

     General routines

     Parallel routines

   This run was terminated on:  17:39:59  26Dec2018

   JOB DONE.
Job  /afs/slac/g/suncat/bin/suncat-tsmpirun -x LD_LIBRARY_PATH -wdir /scratch/qe109977_bxUEa pw.x -in pw.inp

TID   HOST_NAME   COMMAND_LINE            STATUS            TERMINATION_TIME
00000 suncat0277 pw.x -in pw.inp   Done                     12/26/2018 17:39:59
00001 suncat0277 pw.x -in pw.inp   Done                     12/26/2018 17:39:59
00002 suncat0277 pw.x -in pw.inp   Done                     12/26/2018 17:39:59
00003 suncat0277 pw.x -in pw.inp   Done                     12/26/2018 17:39:59
00004 suncat0277 pw.x -in pw.inp   Done                     12/26/2018 17:39:59
00005 suncat0277 pw.x -in pw.inp   Done                     12/26/2018 17:39:59
00006 suncat0277 pw.x -in pw.inp   Done                     12/26/2018 17:39:59
00007 suncat0277 pw.x -in pw.inp   Done                     12/26/2018 17:39:59
00008 suncat0276 pw.x -in pw.inp   Done                     12/26/2018 17:39:59
00009 suncat0276 pw.x -in pw.inp   Done                     12/26/2018 17:39:59
00010 suncat0276 pw.x -in pw.inp   Done                     12/26/2018 17:39:59
00011 suncat0276 pw.x -in pw.inp   Done                     12/26/2018 17:39:59
00012 suncat0276 pw.x -in pw.inp   Done                     12/26/2018 17:39:59
00013 suncat0276 pw.x -in pw.inp   Done                     12/26/2018 17:39:59
00014 suncat0276 pw.x -in pw.inp   Done                     12/26/2018 17:39:59
00015 suncat0276 pw.x -in pw.inp   Done                     12/26/2018 17:39:59
00016 suncat0274 pw.x -in pw.inp   Done                     12/26/2018 17:39:59
00017 suncat0274 pw.x -in pw.inp   Done                     12/26/2018 17:39:59
00018 suncat0274 pw.x -in pw.inp   Done                     12/26/2018 17:39:59
00019 suncat0274 pw.x -in pw.inp   Done                     12/26/2018 17:39:59
00020 suncat0274 pw.x -in pw.inp   Done                     12/26/2018 17:39:59
00021 suncat0274 pw.x -in pw.inp   Done                     12/26/2018 17:39:59
00022 suncat0274 pw.x -in pw.inp   Done                     12/26/2018 17:39:59
00023 suncat0274 pw.x -in pw.inp   Done                     12/26/2018 17:39:59
00024 suncat0273 pw.x -in pw.inp   Done                     12/26/2018 17:39:59
00025 suncat0273 pw.x -in pw.inp   Done                     12/26/2018 17:39:59
00026 suncat0273 pw.x -in pw.inp   Done                     12/26/2018 17:39:59
00027 suncat0273 pw.x -in pw.inp   Done                     12/26/2018 17:39:59
00028 suncat0273 pw.x -in pw.inp   Done                     12/26/2018 17:39:59
00029 suncat0273 pw.x -in pw.inp   Done                     12/26/2018 17:39:59
00030 suncat0273 pw.x -in pw.inp   Done                     12/26/2018 17:39:59
00031 suncat0273 pw.x -in pw.inp   Done                     12/26/2018 17:39:59
00032 suncat0230 pw.x -in pw.inp   Done                     12/26/2018 17:39:59
00033 suncat0230 pw.x -in pw.inp   Done                     12/26/2018 17:39:59
00034 suncat0230 pw.x -in pw.inp   Done                     12/26/2018 17:39:59
00035 suncat0230 pw.x -in pw.inp   Done                     12/26/2018 17:39:59
00036 suncat0230 pw.x -in pw.inp   Done                     12/26/2018 17:39:59
00037 suncat0230 pw.x -in pw.inp   Done                     12/26/2018 17:39:59
00038 suncat0230 pw.x -in pw.inp   Done                     12/26/2018 17:39:59
00039 suncat0230 pw.x -in pw.inp   Done                     12/26/2018 17:39:59
00040 suncat0229 pw.x -in pw.inp   Done                     12/26/2018 17:39:59
00041 suncat0229 pw.x -in pw.inp   Done                     12/26/2018 17:39:59
00042 suncat0229 pw.x -in pw.inp   Done                     12/26/2018 17:39:59
00043 suncat0229 pw.x -in pw.inp   Done                     12/26/2018 17:39:59
00044 suncat0229 pw.x -in pw.inp   Done                     12/26/2018 17:39:59
00045 suncat0229 pw.x -in pw.inp   Done                     12/26/2018 17:39:59
00046 suncat0229 pw.x -in pw.inp   Done                     12/26/2018 17:39:59
00047 suncat0229 pw.x -in pw.inp   Done                     12/26/2018 17:39:59
00048 suncat0205 pw.x -in pw.inp   Done                     12/26/2018 17:39:59
00049 suncat0205 pw.x -in pw.inp   Done                     12/26/2018 17:39:59
00050 suncat0205 pw.x -in pw.inp   Done                     12/26/2018 17:39:59
00051 suncat0205 pw.x -in pw.inp   Done                     12/26/2018 17:39:59
00052 suncat0205 pw.x -in pw.inp   Done                     12/26/2018 17:39:59
00053 suncat0205 pw.x -in pw.inp   Done                     12/26/2018 17:39:59
00054 suncat0205 pw.x -in pw.inp   Done                     12/26/2018 17:39:59
00055 suncat0205 pw.x -in pw.inp   Done                     12/26/2018 17:39:59
00056 suncat0204 pw.x -in pw.inp   Done                     12/26/2018 17:39:59
00057 suncat0204 pw.x -in pw.inp   Done                     12/26/2018 17:39:59
00058 suncat0204 pw.x -in pw.inp   Done                     12/26/2018 17:39:59
00059 suncat0204 pw.x -in pw.inp   Done                     12/26/2018 17:39:59
00060 suncat0204 pw.x -in pw.inp   Done                     12/26/2018 17:39:59
00061 suncat0204 pw.x -in pw.inp   Done                     12/26/2018 17:39:59
00062 suncat0204 pw.x -in pw.inp   Done                     12/26/2018 17:39:59
00063 suncat0204 pw.x -in pw.inp   Done                     12/26/2018 17:39:59