     Program PWSCF v.5.1rc2 (svn rev. 11289) starts on  2Jan2019 at  7:25:24

     Current dimensions of program PWSCF are:
     Max number of different atomic species (ntypx) = 10
     Max number of k-points (npk) =  40000
     Max angular momentum in pseudopotentials (lmaxx) =  3
     Presently stress not available with electric field

     IMPORTANT: XC functional enforced from input :
     Exchange-correlation      = BEEF-VDW ( 1  4 27 13 2)
     Any further DFT definition will be discarded
     Please, verify this is what you really want

     Subspace diagonalization in iterative solution of the eigenvalue problem:
     a serial algorithm will be used

     bravais-lattice index     =            0
     lattice parameter (alat)  =       1.8897  a.u.
     unit-cell volume          =    4431.0358 (a.u.)^3
     number of atoms/cell      =           12
     number of atomic types    =            2
     number of electrons       =       183.00
     number of Kohn-Sham states=          121
     kinetic-energy cutoff     =      36.7493  Ry
     charge density cutoff     =     367.4932  Ry
     convergence threshold     =      1.0E-06
     mixing beta               =       0.1000
     number of iterations used =           10  plain     mixing
     Exchange-correlation      = BEEF-VDW ( 1  4 27 13 2)
     nstep                     =           50

     celldm(1)=   1.889726  celldm(2)=   0.000000  celldm(3)=   0.000000
     celldm(4)=   0.000000  celldm(5)=   0.000000  celldm(6)=   0.000000

     crystal axes: (cart. coord. in units of alat)
               a(1) = (   5.558587   0.000000   0.000000 )
               a(2) = (  -2.779294   4.813878   0.000000 )
               a(3) = (   0.000000   0.000000  24.538567 )

     reciprocal axes: (cart. coord. in units 2 pi/alat)
               b(1) = (  0.179902  0.103866  0.000000 )
               b(2) = (  0.000000  0.207733  0.000000 )
               b(3) = (  0.000000  0.000000  0.040752 )

     PseudoPot. # 1 for W  read from file:
     /afs/slac.stanford.edu/u/if/mamunm/psp/gbrv1.5pbe/W.UPF
     MD5 check sum: 9c083fa34c2a2ea0f02f1f893e16e1c8
     Pseudo is Ultrasoft + core correction, Zval = 14.0
     Generated by new atomic code, or converted to UPF format
     Using radial grid of  923 points,  8 beta functions with:
                l(1) =   0
                l(2) =   0
                l(3) =   0
                l(4) =   1
                l(5) =   1
                l(6) =   2
                l(7) =   2
                l(8) =   3
     Q(r) pseudized with  6 coefficients,  rinner =    1.350   1.350   1.350
                                                       1.350   1.350   1.350
                                                       1.350

     PseudoPot. # 2 for Cu read from file:
     /afs/slac.stanford.edu/u/if/mamunm/psp/gbrv1.5pbe/Cu.UPF
     MD5 check sum: 6e991ff952a84172a2a52a1c1e996048
     Pseudo is Ultrasoft + core correction, Zval = 19.0
     Generated by new atomic code, or converted to UPF format
     Using radial grid of  867 points,  6 beta functions with:
                l(1) =   0
                l(2) =   0
                l(3) =   1
                l(4) =   1
                l(5) =   2
                l(6) =   2
     Q(r) pseudized with  8 coefficients,  rinner =    1.150   1.150   1.150
                                                       1.150   1.150

     vdW kernel table read from file vdW_kernel_table
     MD5 check sum: 095c7af220d748ca6e76c0b4c6cfb241

     atomic species   valence    mass     pseudopotential
        W1            14.00   183.84000     W ( 1.00)
        Cu1           19.00    63.54600     Cu( 1.00)

     No symmetry found

   Cartesian axes

     site n.     atom                  positions (alat units)
         1           W1  tau(   1) = (   0.0000000   0.0000000  10.0000000  )
         2           W1  tau(   2) = (  -1.3896468   2.4069388  10.0000000  )
         3           W1  tau(   3) = (   1.3896468   2.4069388  10.0000000  )
         4           Cu1 tau(   4) = (   2.7792935   0.0000000  10.0000000  )
         5           W1  tau(   5) = (   2.7792935   1.6046259  12.2692837  )
         6           W1  tau(   6) = (   1.3896468   4.0115647  12.2692837  )
         7           W1  tau(   7) = (  -1.3896468   4.0115647  12.2692837  )
         8           Cu1 tau(   8) = (   0.0000000   1.6046259  12.2692837  )
         9           W1  tau(   9) = (  -0.0000000   3.2092517  14.5385673  )
        10           W1  tau(  10) = (   1.3896468   0.8023129  14.5385673  )
        11           W1  tau(  11) = (   4.1689403   0.8023129  14.5385673  )
        12           Cu1 tau(  12) = (   2.7792935   3.2092517  14.5385673  )

     number of k points=    20  Fermi-Dirac smearing, width (Ry)=  0.0110
                       cart. coord. in units 2pi/alat
        k(    1) = (   0.0000000   0.0000000   0.0000000), wk =   0.0555556
        k(    2) = (   0.0000000   0.0346221   0.0000000), wk =   0.1111111
        k(    3) = (   0.0000000   0.0692442   0.0000000), wk =   0.1111111
        k(    4) = (   0.0000000  -0.1038664   0.0000000), wk =   0.0555556
        k(    5) = (   0.0299836   0.0173111   0.0000000), wk =   0.1111111
        k(    6) = (   0.0299836   0.0519332   0.0000000), wk =   0.1111111
        k(    7) = (   0.0299836   0.0865553   0.0000000), wk =   0.1111111
        k(    8) = (   0.0299836  -0.0865553   0.0000000), wk =   0.1111111
        k(    9) = (   0.0299836  -0.0519332   0.0000000), wk =   0.1111111
        k(   10) = (   0.0299836  -0.0173111   0.0000000), wk =   0.1111111
        k(   11) = (   0.0599673   0.0346221   0.0000000), wk =   0.1111111
        k(   12) = (   0.0599673   0.0692442   0.0000000), wk =   0.1111111
        k(   13) = (   0.0599673   0.1038664   0.0000000), wk =   0.1111111
        k(   14) = (   0.0599673  -0.0692442   0.0000000), wk =   0.1111111
        k(   15) = (   0.0599673  -0.0346221   0.0000000), wk =   0.1111111
        k(   16) = (   0.0599673   0.0000000   0.0000000), wk =   0.1111111
        k(   17) = (  -0.0899509  -0.0519332   0.0000000), wk =   0.0555556
        k(   18) = (  -0.0899509  -0.0173111   0.0000000), wk =   0.1111111
        k(   19) = (  -0.0899509   0.0173111   0.0000000), wk =   0.1111111
        k(   20) = (  -0.0899509  -0.1557996   0.0000000), wk =   0.0555556

     Largest allocated arrays     est. size (Mb)     dimensions
     Largest temporary arrays     est. size (Mb)     dimensions

     Initial potential from superposition of free atoms
     Check: negative starting charge=   -0.566088

     starting charge  179.09693, renormalised to  183.00000

     negative rho (up, down):  5.784E-01 0.000E+00

     *
     * You are using vdW-DF for exchange-correlation in this calculation.
     * Please cite the following three references that made this development
     * possible:
     *
     *   M. Dion, H. Rydberg, E. Schroder, D. C. Langreth, and
     *   B. I. Lundqvist, Phys. Rev. Lett. 92, 246401 (2004).
     *
     *   T. Thonhauser, V. R. Cooper, S. Li, A. Puzder, P. Hyldgaard, and
     *   D. C. Langreth, Phys. Rev. B 76, 125112 (2007).
     *
     *   G. Roman-Perez and J. M. Soler, Phys. Rev. Lett. 103, 096102 (2009).
     *
     *
     * If you are using vdW-DF2, please also cite:
     *
     *   K. Lee, E. D. Murray, L. Kong, B. I. Lundqvist, and
     *   D. C. Langreth, Phys. Rev. B 82, 081101(R) (2010).
     *
     *
     * If you are calculating the stress with vdW-DF, please also cite:
     *
     *   R. Sabatini, E. Kucukbenli, B. Kolb, T. Thonhauser, and
     *   S. de Gironcoli, J. Phys.: Condens. Matter 24, 424209 (2012).
     *

     Carrying out vdW-DF run using the following parameters:

     Nqs =      20    Nr_points =    1024   r_max =   100.000
     q_mesh =
               0.00001000     0.04494208     0.09755937     0.15916263
               0.23128650     0.31572767     0.41458969     0.53033537
               0.66584808     0.82450364     1.01025438     1.22772762
               1.48234092     1.78043706     2.12944203     2.53805004
               3.01644009     3.57652955     4.23227104     5.00000000

     Gradients computed in reciprocal space

     Adding external electric field

     Computed dipole along edir(3) :
        Dipole                0.0000 Ry au,          0.0000 Debye
        Dipole field          0.0000 Ry au

        Potential amp.       -0.0000 Ry
        Total length         45.2119 bohr

     Starting wfc are  156 randomized atomic wfcs

     Self-consistent Calculation

     iteration #  1     ecut=    36.75 Ry     beta=0.10
     Davidson diagonalization with overlap
     ethr =  1.00E-02,  avg # of iterations =  2.6

[...]

     total energy              =   -2658.53347215 Ry
     Harris-Foulkes estimate   =   -2659.18112461 Ry
     estimated scf accuracy    <       3.92221198 Ry

[...]

     End of self-consistent calculation

          k = 0.0000 0.0000 0.0000 ( 16667 PWs)   bands (ev):

  -111.2671-111.0472-111.0472 -72.4102 -72.3756 -72.3429 -72.3222 -72.3221
   -72.3052 -72.3051 -72.2891 -72.2890 -68.6462 -68.6462 -68.6181 -68.4456
   -68.4456 -68.4455 -68.4455 -68.3707 -68.3707 -37.1144 -36.8996 -36.8987
   -36.8207 -36.8207 -36.7913 -36.7752 -36.7752 -36.6476 -36.6476 -36.5458
   -36.4271 -36.4271 -36.3998 -36.3998 -36.3004 -36.1834 -36.1589 -36.1557
   -36.1556 -36.0775 -36.0250 -36.0250 -35.9433 -35.9433 -35.9368 -35.9368
    -6.4698  -4.6527  -3.8010  -3.5849  -3.3773  -3.0289  -3.0289  -2.8333
    -2.8333  -2.5586  -2.4035  -2.3597  -2.3597  -2.2775  -2.2775  -1.4337
    -1.4337  -1.2453  -1.2453  -1.1507  -0.9541  -0.9050  -0.5593  -0.4773
    -0.4773  -0.2019  -0.2019  -0.0256  -0.0256   0.3755   0.3756   0.6013
     0.6359   0.6359   0.8570   0.8570   1.0783   1.5217   1.5217   1.7176
     1.9687   2.2845   2.3237   2.3237   2.4419   3.3025   3.3025   3.7208
     3.7524   3.7645   3.7645   4.0941   4.0941   4.3780   4.3780   4.4706
     4.4706   4.7563   4.7563   5.1288   5.2547   5.2547   5.5408   5.5408
     5.6480   6.1120   6.1120   6.1474   6.3550   6.4898   7.2035   7.2932
     7.5296

[...]

          k =-0.0900-0.0519 0.0000 ( 16668 PWs)   bands (ev):

[...]

     the Fermi energy is     1.8710 ev

!    total energy              =   -2658.27601964 Ry
     Harris-Foulkes estimate   =   -2658.27164377 Ry
     estimated scf accuracy    <       0.00000071 Ry

     The total energy is the sum of the following terms:

     one-electron contribution =  -19347.64370056 Ry
     hartree contribution      =    9663.79787283 Ry
     xc contribution           =    -502.58896189 Ry
     ewald contribution        =    7528.23785316 Ry
     electric field correction =       0.00000000 Ry
     smearing contrib. (-TS)   =      -0.07908318 Ry

     convergence has been achieved in  21 iterations

 BEEF-vdW xc energy contributions
           1 :   -442.955169471149
           2 :    408.036622754796
           3 :   -347.036386922536
           4 :    274.100930402294
           5 :   -203.542041706325
           6 :    145.375033645253
           7 :   -103.219675788902
           8 :    75.0276538063527
           9 :   -55.7961879061443
[...]
     Generated by new atomic code, or converted to UPF format
     Using radial grid of  923 points,  8 beta functions with:
                l(1) =   0
                l(2) =   0
                l(3) =   0
                l(4) =   1
                l(5) =   1
                l(6) =   2
                l(7) =   2
                l(8) =   3
     Q(r) pseudized with  6 coefficients,  rinner =    1.350   1.350   1.350
                                                       1.350   1.350   1.350
                                                       1.350

     PseudoPot. # 2 for Cu read from file:
     /afs/slac.stanford.edu/u/if/mamunm/psp/gbrv1.5pbe/Cu.UPF
     MD5 check sum: 6e991ff952a84172a2a52a1c1e996048
     Pseudo is Ultrasoft + core correction, Zval = 19.0
     Generated by new atomic code, or converted to UPF format
     Using radial grid of  867 points,  6 beta functions with:
                l(1) =   0
                l(2) =   0
                l(3) =   1
                l(4) =   1
                l(5) =   2
                l(6) =   2
     Q(r) pseudized with  8 coefficients,  rinner =    1.150   1.150   1.150
                                                       1.150   1.150

     vdW kernel table read from file vdW_kernel_table
     MD5 check sum: 095c7af220d748ca6e76c0b4c6cfb241

     atomic species   valence    mass     pseudopotential
        W1            14.00   183.84000     W ( 1.00)
        Cu1           19.00    63.54600     Cu( 1.00)

     No symmetry found

   Cartesian axes

     site n.     atom                  positions (alat units)
         1           W1  tau(   1) = (   0.0000000   0.0000000  10.0000000  )
         2           W1  tau(   2) = (  -1.3896468   2.4069388  10.0000000  )
         3           W1  tau(   3) = (   1.3896468   2.4069388  10.0000000  )
         4           Cu1 tau(   4) = (   2.7792935   0.0000000  10.0000000  )
         5           W1  tau(   5) = (   2.7792935   1.6046259  12.2692837  )
         6           W1  tau(   6) = (   1.3896468   4.0115647  12.2692837  )
         7           W1  tau(   7) = (  -1.3896468   4.0115647  12.2692837  )
         8           Cu1 tau(   8) = (   0.0000000   1.6046259  12.2692837  )
         9           W1  tau(   9) = (   0.0000092   3.2112973  14.4576966  )
        10           W1  tau(  10) = (   1.3914262   0.8012956  14.4576957  )
        11           W1  tau(  11) = (   4.1671968   0.8013049  14.4576896  )
        12           Cu1 tau(  12) = (   2.7793059   3.2092693  14.6068439  )

     number of k points=    20  Fermi-Dirac smearing, width (Ry)=  0.0110
                       cart. coord. in units 2pi/alat
        k(    1) = (   0.0000000   0.0000000   0.0000000), wk =   0.0555556
        k(    2) = (   0.0000000   0.0346221   0.0000000), wk =   0.1111111
        k(    3) = (   0.0000000   0.0692442   0.0000000), wk =   0.1111111
        k(    4) = (   0.0000000  -0.1038664   0.0000000), wk =   0.0555556
        k(    5) = (   0.0299836   0.0173111   0.0000000), wk =   0.1111111
        k(    6) = (   0.0299836   0.0519332   0.0000000), wk =   0.1111111
        k(    7) = (   0.0299836   0.0865553   0.0000000), wk =   0.1111111
        k(    8) = (   0.0299836  -0.0865553   0.0000000), wk =   0.1111111
        k(    9) = (   0.0299836  -0.0519332   0.0000000), wk =   0.1111111
        k(   10) = (   0.0299836  -0.0173111   0.0000000), wk =   0.1111111
        k(   11) = (   0.0599673   0.0346221   0.0000000), wk =   0.1111111
        k(   12) = (   0.0599673   0.0692442   0.0000000), wk =   0.1111111
        k(   13) = (   0.0599673   0.1038664   0.0000000), wk =   0.1111111
        k(   14) = (   0.0599673  -0.0692442   0.0000000), wk =   0.1111111
        k(   15) = (   0.0599673  -0.0346221   0.0000000), wk =   0.1111111
        k(   16) = (   0.0599673   0.0000000   0.0000000), wk =   0.1111111
        k(   17) = (  -0.0899509  -0.0519332   0.0000000), wk =   0.0555556
        k(   18) = (  -0.0899509  -0.0173111   0.0000000), wk =   0.1111111
        k(   19) = (  -0.0899509   0.0173111   0.0000000), wk =   0.1111111
        k(   20) = (  -0.0899509  -0.1557996   0.0000000), wk =   0.0555556

     Largest allocated arrays     est. size (Mb)     dimensions
     Largest temporary arrays     est. size (Mb)     dimensions

     Initial potential from superposition of free atoms
     Check: negative starting charge=   -0.565798

     starting charge  179.09693, renormalised to  183.00000

[...]

     *
     * You are using vdW-DF for exchange-correlation in this calculation.
     * Please cite the following three references that made this development
     * possible:
     *
     *   M. Dion, H. Rydberg, E. Schroder, D. C. Langreth, and
     *   B. I. Lundqvist, Phys. Rev. Lett. 92, 246401 (2004).
     *
     *   T. Thonhauser, V. R. Cooper, S. Li, A. Puzder, P. Hyldgaard, and
     *   D. C. Langreth, Phys. Rev. B 76, 125112 (2007).
     *
     *   G. Roman-Perez and J. M. Soler, Phys. Rev. Lett. 103, 096102 (2009).
     *
     *
     * If you are using vdW-DF2, please also cite:
     *
     *   K. Lee, E. D. Murray, L. Kong, B. I. Lundqvist, and
     *   D. C. Langreth, Phys. Rev. B 82, 081101(R) (2010).
     *
     *
     * If you are calculating the stress with vdW-DF, please also cite:
     *
     *   R. Sabatini, E. Kucukbenli, B. Kolb, T. Thonhauser, and
     *   S. de Gironcoli, J. Phys.: Condens. Matter 24, 424209 (2012).
     *

     Carrying out vdW-DF run using the following parameters:

     Nqs =      20    Nr_points =    1024   r_max =   100.000
     q_mesh =
               0.00001000     0.04494208     0.09755937     0.15916263
               0.23128650     0.31572767     0.41458969     0.53033537
               0.66584808     0.82450364     1.01025438     1.22772762
               1.48234092     1.78043706     2.12944203     2.53805004
               3.01644009     3.57652955     4.23227104     5.00000000

     Gradients computed in reciprocal space

[...]

     Starting wfc are  156 randomized atomic wfcs

     Self-consistent Calculation

[...]

     total energy              =   -2658.28894548 Ry
     Harris-Foulkes estimate   =   -2658.28894482 Ry
     estimated scf accuracy    <       0.00000113 Ry

     iteration # 19     ecut=    36.75 Ry     beta=0.10
     Davidson diagonalization with overlap
     ethr =  6.18E-10,  avg # of iterations =  2.1

[...]

     negative rho (up, down):  5.872E-01 0.000E+00

     Adding external electric field

     Computed dipole along edir(3) :
        Dipole                0.0075 Ry au,          0.0189 Debye
        Dipole field          0.0000 Ry au

        Potential amp.       -0.0019 Ry
        Total length         45.2119 bohr

     End of self-consistent calculation

[...]

          k = 0.0600 0.0000 0.0000 ( 16608 PWs)   bands (ev):

[...]

          k =-0.0900-0.1558 0.0000 ( 16668 PWs)   bands (ev):

  -111.3395-111.0543-110.9523 -72.3716 -72.3555 -72.3300 -72.3188 -72.3139
   -72.2876 -72.2764 -72.2625 -72.2418 -68.7148 -68.7147 -68.6975 -68.4526
   -68.4525 -68.3775 -68.3630 -68.3629 -68.2550 -36.9470 -36.8814 -36.7908
   -36.7077 -36.7069 -36.6315 -36.6297 -36.6180 -36.5588 -36.4890 -36.4608
   -36.4487 -36.4173 -36.3937 -36.3854 -36.3600 -36.3546 -36.3178 -36.2546
   -36.2401 -36.2170 -36.1063 -36.0765 -36.0407 -36.0351 -35.9766 -35.9282
    -4.6311  -4.5337  -3.1346  -2.9625  -2.5732  -2.4882  -2.3873  -2.2818
    -2.2666  -2.1904  -1.8893  -1.7641  -1.7013  -1.6542  -1.5044  -1.4718
    -1.2992  -1.2902  -1.2054  -1.1654  -1.1052  -1.0574  -1.0044  -0.8792
    -0.8383  -0.4452  -0.2597  -0.2118  -0.1527  -0.1469  -0.0012   0.2726
     0.3838   0.4615   0.5092   0.5421   0.6881   0.8255   0.9677   1.0733
     1.3360   1.3838   1.6464   1.7017   1.8774   2.0339   2.0854   2.1709
     2.7936   3.1812   3.2602   3.4997   3.5749   3.6340   3.7294   3.7687
     3.8856   4.0872   4.2567   4.4595   4.4925   4.8233   5.0822   5.4258
     5.4857   5.7718   6.1112   6.6782   6.9408   7.5302   7.7290   7.9914
     8.0358

     the Fermi energy is     1.8665 ev

!    total energy              =   -2658.28895123 Ry
     Harris-Foulkes estimate   =   -2658.28894564 Ry
     estimated scf accuracy    <       0.00000023 Ry

     The total energy is the sum of the following terms:

     one-electron contribution =  -19438.12283582 Ry
     hartree contribution      =    9709.13395624 Ry
     xc contribution           =    -502.73845389 Ry
     ewald contribution        =    7573.51646763 Ry
     electric field correction =       0.00000016 Ry
     smearing contrib. (-TS)   =      -0.07808555 Ry

     convergence has been achieved in  19 iterations

 BEEF-vdW xc energy contributions
           1 :   -443.274633329812
           2 :    408.394510982915
           3 :   -347.444873292399
           4 :    274.532949958767
           5 :   -203.940272744159
           6 :    145.680548107047
           7 :   -103.405510179897
           8 :    75.1178373749569
           9 :   -55.8572669624818
          10 :    40.7704168887802
          11 :   -27.1130414208525
          12 :    14.5582917453636
          13 :   -4.17126652467402
          14 :   -3.00863356555442
          15 :    6.88692815296361
          16 :   -8.36716033575607
          17 :    8.75711567687284
          18 :   -9.06053043677343
          19 :    9.60689167987152
          20 :   -10.1554154542113
          21 :    10.2945585748926
          22 :   -9.82501226008986
          23 :    8.89372070069919
          24 :   -7.85719396564230
          25 :    7.03068583992939
          26 :   -6.51922437885213
          27 :    6.22523396426834
          28 :   -5.98570186070947
          29 :    5.71124961078243
          30 :   -5.42475395775818
          31 :   -38.8865958940376
          32 :   -28.5989706141631

     Forces acting on atoms (Ry/au):

     negative rho (up, down):  5.872E-01 0.000E+00
     atom    1 type  1   force =    -0.00000018   -0.00282518    0.02250663
     atom    2 type  1   force =    -0.00244622    0.00141243    0.02250581
     atom    3 type  1   force =     0.00244640    0.00141238    0.02250645
     atom    4 type  2   force =    -0.00000060   -0.00000076   -0.01329237
     atom    5 type  1   force =     0.00000067    0.00545114   -0.01296753
     atom    6 type  1   force =     0.00472138   -0.00272521   -0.01296757
     atom    7 type  1   force =    -0.00472082   -0.00272594   -0.01296705
     atom    8 type  2   force =     0.00000039    0.00000011   -0.01588335
     atom    9 type  1   force =     0.00000217   -0.00039069   -0.00025287
     atom   10 type  1   force =    -0.00033628    0.00019877   -0.00025113
     atom   11 type  1   force =     0.00033410    0.00019446   -0.00025063
     atom   12 type  2   force =    -0.00000101   -0.00000151    0.00131361

     Total force =     0.050680     Total SCF correction =     0.002109

     entering subroutine stress ...

     negative rho (up, down):  5.872E-01 0.000E+00
          total   stress  (Ry/bohr**3)                   (kbar)     P=  -33.97
  -0.00027791   0.00000000  -0.00000000        -40.88      0.00     -0.00
   0.00000000  -0.00027791  -0.00000000          0.00    -40.88     -0.00
  -0.00000000  -0.00000000  -0.00013692         -0.00     -0.00    -20.14

 !ASE

     Writing output data file calc.save

     General routines

     Parallel routines

   This run was terminated on:   9:39:36   2Jan2019

   JOB DONE.
Job  /afs/slac/g/suncat/bin/suncat-tsmpirun -x LD_LIBRARY_PATH -wdir /scratch/qe649347_3nwhq pw.x -in pw.inp

TID   HOST_NAME   COMMAND_LINE            STATUS            TERMINATION_TIME
00000 suncat0141 pw.x -in pw.inp   Done                     01/02/2019 09:39:36
00001 suncat0141 pw.x -in pw.inp   Done                     01/02/2019 09:39:36
00002 suncat0141 pw.x -in pw.inp   Done                     01/02/2019 09:39:36
00003 suncat0141 pw.x -in pw.inp   Done                     01/02/2019 09:39:36
00004 suncat0141 pw.x -in pw.inp   Done                     01/02/2019 09:39:36
00005 suncat0141 pw.x -in pw.inp   Done                     01/02/2019 09:39:36
00006 suncat0141 pw.x -in pw.inp   Done                     01/02/2019 09:39:36
00007 suncat0141 pw.x -in pw.inp   Done                     01/02/2019 09:39:36
00008 suncat0140 pw.x -in pw.inp   Done                     01/02/2019 09:39:36
00009 suncat0140 pw.x -in pw.inp   Done                     01/02/2019 09:39:36
00010 suncat0140 pw.x -in pw.inp   Done                     01/02/2019 09:39:36
00011 suncat0140 pw.x -in pw.inp   Done                     01/02/2019 09:39:36
00012 suncat0140 pw.x -in pw.inp   Done                     01/02/2019 09:39:36
00013 suncat0140 pw.x -in pw.inp   Done                     01/02/2019 09:39:36
00014 suncat0140 pw.x -in pw.inp   Done                     01/02/2019 09:39:36
00015 suncat0140 pw.x -in pw.inp   Done                     01/02/2019 09:39:36
00016 suncat0135 pw.x -in pw.inp   Done                     01/02/2019 09:39:36
00017 suncat0135 pw.x -in pw.inp   Done                     01/02/2019 09:39:36
00018 suncat0135 pw.x -in pw.inp   Done                     01/02/2019 09:39:36
00019 suncat0135 pw.x -in pw.inp   Done                     01/02/2019 09:39:36
00020 suncat0135 pw.x -in pw.inp   Done                     01/02/2019 09:39:36
00021 suncat0135 pw.x -in pw.inp   Done                     01/02/2019 09:39:36
00022 suncat0135 pw.x -in pw.inp   Done                     01/02/2019 09:39:36
00023 suncat0135 pw.x -in pw.inp   Done                     01/02/2019 09:39:36
00024 suncat0134 pw.x -in pw.inp   Done                     01/02/2019 09:39:36
00025 suncat0134 pw.x -in pw.inp   Done                     01/02/2019 09:39:36
00026 suncat0134 pw.x -in pw.inp   Done                     01/02/2019 09:39:36
00027 suncat0134 pw.x -in pw.inp   Done                     01/02/2019 09:39:36
00028 suncat0134 pw.x -in pw.inp   Done                     01/02/2019 09:39:36
00029 suncat0134 pw.x -in pw.inp   Done                     01/02/2019 09:39:36
00030 suncat0134 pw.x -in pw.inp   Done                     01/02/2019 09:39:36
00031 suncat0134 pw.x -in pw.inp   Done                     01/02/2019 09:39:36
00032 suncat0272 pw.x -in pw.inp   Done                     01/02/2019 09:39:36
00033 suncat0272 pw.x -in pw.inp   Done                     01/02/2019 09:39:36
00034 suncat0272 pw.x -in pw.inp   Done                     01/02/2019 09:39:36
00035 suncat0272 pw.x -in pw.inp   Done                     01/02/2019 09:39:36
00036 suncat0272 pw.x -in pw.inp   Done                     01/02/2019 09:39:36
00037 suncat0272 pw.x -in pw.inp   Done                     01/02/2019 09:39:36
00038 suncat0272 pw.x -in pw.inp   Done                     01/02/2019 09:39:36
00039 suncat0272 pw.x -in pw.inp   Done                     01/02/2019 09:39:36
00040 suncat0262 pw.x -in pw.inp   Done                     01/02/2019 09:39:36
00041 suncat0262 pw.x -in pw.inp   Done                     01/02/2019 09:39:36
00042 suncat0262 pw.x -in pw.inp   Done                     01/02/2019 09:39:36
00043 suncat0262 pw.x -in pw.inp   Done                     01/02/2019 09:39:36
00044 suncat0262 pw.x -in pw.inp   Done                     01/02/2019 09:39:36
00045 suncat0262 pw.x -in pw.inp   Done                     01/02/2019 09:39:36
00046 suncat0262 pw.x -in pw.inp   Done                     01/02/2019 09:39:36
00047 suncat0262 pw.x -in pw.inp   Done                     01/02/2019 09:39:36
00048 suncat0258 pw.x -in pw.inp   Done                     01/02/2019 09:39:36
00049 suncat0258 pw.x -in pw.inp   Done                     01/02/2019 09:39:36
00050 suncat0258 pw.x -in pw.inp   Done                     01/02/2019 09:39:36
00051 suncat0258 pw.x -in pw.inp   Done                     01/02/2019 09:39:36
00052 suncat0258 pw.x -in pw.inp   Done                     01/02/2019 09:39:36
00053 suncat0258 pw.x -in pw.inp   Done                     01/02/2019 09:39:36
00054 suncat0258 pw.x -in pw.inp   Done                     01/02/2019 09:39:36
00055 suncat0258 pw.x -in pw.inp   Done                     01/02/2019 09:39:36
00056 suncat0257 pw.x -in pw.inp   Done                     01/02/2019 09:39:36
00057 suncat0257 pw.x -in pw.inp   Done                     01/02/2019 09:39:36
00058 suncat0257 pw.x -in pw.inp   Done                     01/02/2019 09:39:36
00059 suncat0257 pw.x -in pw.inp   Done                     01/02/2019 09:39:36
00060 suncat0257 pw.x -in pw.inp   Done                     01/02/2019 09:39:36
00061 suncat0257 pw.x -in pw.inp   Done                     01/02/2019 09:39:36
00062 suncat0257 pw.x -in pw.inp   Done                     01/02/2019 09:39:36
00063 suncat0257 pw.x -in pw.inp   Done                     01/02/2019 09:39:36