     Program PWSCF v.5.1rc2 (svn rev. 11289) starts on 27Dec2018 at 23:50:47

     Current dimensions of program PWSCF are:
     Max number of different atomic species (ntypx) = 10
     Max number of k-points (npk) =  40000
     Max angular momentum in pseudopotentials (lmaxx) =  3
     Presently stress not available with electric field

     IMPORTANT: XC functional enforced from input :
     Exchange-correlation      = BEEF-VDW ( 1  4 27 13 2)
     Any further DFT definition will be discarded
     Please, verify this is what you really want

     Subspace diagonalization in iterative solution of the eigenvalue problem:
     a serial algorithm will be used

     bravais-lattice index     =            0
     lattice parameter (alat)  =       1.8897  a.u.
     unit-cell volume          =    6009.8801 (a.u.)^3
     number of atoms/cell      =           12
     number of atomic types    =            2
     number of electrons       =       165.00
     number of Kohn-Sham states=          112
     kinetic-energy cutoff     =      36.7493  Ry
     charge density cutoff     =     367.4932  Ry
     convergence threshold     =      1.0E-06
     mixing beta               =       0.1000
     number of iterations used =           10  plain     mixing
     Exchange-correlation      = BEEF-VDW ( 1  4 27 13 2)
     nstep                     =           50

     celldm(1)=   1.889726  celldm(2)=   0.000000  celldm(3)=   0.000000
     celldm(4)=   0.000000  celldm(5)=   0.000000  celldm(6)=   0.000000

     crystal axes: (cart. coord. in units of alat)
               a(1) = (   6.386243   0.000000   0.000000 )
               a(2) = (  -3.193121   5.530649   0.000000 )
               a(3) = (   0.000000   0.000000  25.214346 )

     reciprocal axes: (cart. coord. in units 2 pi/alat)
               b(1) = (  0.156587  0.090405  0.000000 )
               b(2) = (  0.000000  0.180811  0.000000 )
               b(3) = (  0.000000  0.000000  0.039660 )

     PseudoPot. # 1 for Sn read from file:
     /afs/slac.stanford.edu/u/if/mamunm/psp/gbrv1.5pbe/Sn.UPF
     MD5 check sum: 469debedee59599fedebd795477fea03
     Pseudo is Ultrasoft + core correction, Zval = 14.0
     Generated by new atomic code, or converted to UPF format
     Using radial grid of  891 points,  6 beta functions with:
                l(1) =   0
                l(2) =   0
                l(3) =   1
                l(4) =   1
                l(5) =   2
                l(6) =   2
     Q(r) pseudized with  8 coefficients,  rinner =    1.350   1.350   1.350
                                                       1.350   1.350

     PseudoPot. # 2 for V  read from file:
     /afs/slac.stanford.edu/u/if/mamunm/psp/gbrv1.5pbe/V.UPF
     MD5 check sum: 22b79981416ebb76fdaf5b1b8640f6fb
     Pseudo is Ultrasoft + core correction, Zval = 13.0
     Generated by new atomic code, or converted to UPF format
     Using radial grid of  853 points,  6 beta functions with:
                l(1) =   0
                l(2) =   0
                l(3) =   1
                l(4) =   1
                l(5) =   2
                l(6) =   2
     Q(r) pseudized with  8 coefficients,  rinner =    1.100   1.100   1.100
                                                       1.100   1.100

     vdW kernel table read from file vdW_kernel_table
     MD5 check sum: 095c7af220d748ca6e76c0b4c6cfb241

     atomic species   valence    mass     pseudopotential
        Sn1           14.00   118.71000     Sn( 1.00)
        V1            13.00    50.94150     V ( 1.00)

     No symmetry found

   Cartesian axes

     site n.     atom                  positions (alat units)
         1           Sn1 tau(   1) = (   0.0000000   0.0000000  10.0000000  )
         2           Sn1 tau(   2) = (  -1.5965607   2.7653243  10.0000000  )
         3           Sn1 tau(   3) = (   1.5965607   2.7653243  10.0000000  )
         4           V1  tau(   4) = (   3.1931215   0.0000000  10.0000000  )
         5           Sn1 tau(   5) = (   3.1931215   1.8435496  12.6071728  )
         6           Sn1 tau(   6) = (   1.5965607   4.6088739  12.6071728  )
         7           Sn1 tau(   7) = (  -1.5965607   4.6088739  12.6071728  )
         8           V1  tau(   8) = (   0.0000000   1.8435496  12.6071728  )
         9           Sn1 tau(   9) = (  -0.0000000   3.6870991  15.2143456  )
        10           Sn1 tau(  10) = (   1.5965607   0.9217748  15.2143456  )
        11           Sn1 tau(  11) = (   4.7896822   0.9217748  15.2143456  )
        12           V1  tau(  12) = (   3.1931215   3.6870991  15.2143456  )

     number of k points=    20  Fermi-Dirac smearing, width (Ry)=  0.0110
                       cart. coord. in units 2pi/alat
        k(    1) = (   0.0000000   0.0000000   0.0000000), wk =   0.0555556
        k(    2) = (   0.0000000   0.0301351   0.0000000), wk =   0.1111111
        k(    3) = (   0.0000000   0.0602702   0.0000000), wk =   0.1111111
        k(    4) = (   0.0000000  -0.0904053   0.0000000), wk =   0.0555556
        k(    5) = (   0.0260978   0.0150676   0.0000000), wk =   0.1111111
        k(    6) = (   0.0260978   0.0452027   0.0000000), wk =   0.1111111
        k(    7) = (   0.0260978   0.0753378   0.0000000), wk =   0.1111111
        k(    8) = (   0.0260978  -0.0753378   0.0000000), wk =   0.1111111
        k(    9) = (   0.0260978  -0.0452027   0.0000000), wk =   0.1111111
        k(   10) = (   0.0260978  -0.0150676   0.0000000), wk =   0.1111111
        k(   11) = (   0.0521955   0.0301351   0.0000000), wk =   0.1111111
        k(   12) = (   0.0521955   0.0602702   0.0000000), wk =   0.1111111
        k(   13) = (   0.0521955   0.0904053   0.0000000), wk =   0.1111111
        k(   14) = (   0.0521955  -0.0602702   0.0000000), wk =   0.1111111
        k(   15) = (   0.0521955  -0.0301351   0.0000000), wk =   0.1111111
        k(   16) = (   0.0521955   0.0000000   0.0000000), wk =   0.1111111
        k(   17) = (  -0.0782933  -0.0452027   0.0000000), wk =   0.0555556
        k(   18) = (  -0.0782933  -0.0150676   0.0000000), wk =   0.1111111
        k(   19) = (  -0.0782933   0.0150676   0.0000000), wk =   0.1111111
        k(   20) = (  -0.0782933  -0.1356080   0.0000000), wk =   0.0555556

     Largest allocated arrays     est. size (Mb)     dimensions
     Largest temporary arrays     est. size (Mb)     dimensions

     Initial potential from superposition of free atoms
     Check: negative starting charge=   -0.004146

     starting charge  155.99591, renormalised to  165.00000

     negative rho (up, down):  4.385E-03 0.000E+00

     *
     * You are using vdW-DF for exchange-correlation in this calculation.
     * Please cite the following three references that made this development
     * possible:
     *
     *   M. Dion, H. Rydberg, E. Schroder, D. C. Langreth, and
     *   B. I. Lundqvist, Phys. Rev. Lett. 92, 246401 (2004).
     *
     *   T. Thonhauser, V. R. Cooper, S. Li, A. Puzder, P. Hyldgaard, and
     *   D. C. Langreth, Phys. Rev. B 76, 125112 (2007).
     *
     *   G. Roman-Perez and J. M. Soler, Phys. Rev. Lett. 103, 096102 (2009).
     *
     *
     * If you are using vdW-DF2, please also cite:
     *
     *   K. Lee, E. D. Murray, L. Kong, B. I. Lundqvist, and
     *   D. C. Langreth, Phys. Rev. B 82, 081101(R) (2010).
     *
     *
     * If you are calculating the stress with vdW-DF, please also cite:
     *
     *   R. Sabatini, E. Kucukbenli, B. Kolb, T. Thonhauser, and
     *   S. de Gironcoli, J. Phys.: Condens. Matter 24, 424209 (2012).
     *

     Carrying out vdW-DF run using the following parameters:

     Nqs =      20    Nr_points =    1024   r_max =   100.000
     q_mesh =
               0.00001000     0.04494208     0.09755937     0.15916263
               0.23128650     0.31572767     0.41458969     0.53033537
               0.66584808     0.82450364     1.01025438     1.22772762
               1.48234092     1.78043706     2.12944203     2.53805004
               3.01644009     3.57652955     4.23227104     5.00000000

     Gradients computed in reciprocal space

     Adding external electric field

     Computed dipole along edir(3) :
        Dipole               -0.0000 Ry au,         -0.0000 Debye
        Dipole field         -0.0000 Ry au

        Potential amp.        0.0000 Ry
        Total length         46.4570 bohr

     Starting wfc are  111 randomized atomic wfcs +    1 random wfc

     Self-consistent Calculation

     iteration #  1     ecut=    36.75 Ry     beta=0.10
     Davidson diagonalization with overlap
     ethr =  1.00E-02,  avg # of iterations =  8.8

[...]

     total energy              =   -1883.97646586 Ry
     Harris-Foulkes estimate   =   -1887.53804392 Ry
     estimated scf accuracy    <      20.57473524 Ry

[...]

     End of self-consistent calculation

          k = 0.0000 0.0000 0.0000 ( 22633 PWs)   bands (ev):

   -63.6910 -63.6909 -63.5953 -37.5396 -37.5394 -37.5095 -37.5095 -37.5095
   -37.5094 -37.4645 -37.4645 -37.3182 -21.1954 -21.1620 -21.1620 -21.1433
   -21.0639 -21.0639 -21.0480 -21.0460 -21.0326 -21.0326 -21.0241 -21.0096
   -20.9940 -20.9940 -20.9797 -20.9797 -20.9656 -20.9602 -20.9602 -20.9471
   -20.9471 -20.9319 -20.8960 -20.8960 -20.8782 -20.8685 -20.8665 -20.8665
   -20.8645 -20.8438 -20.8438 -20.8252 -20.8176 -20.8176 -20.8163 -20.8163
   -20.8112 -20.8112 -20.8046 -20.8046 -20.7836 -20.7824 -20.7824 -20.7192
   -20.7190  -9.9310  -8.5719  -6.8288  -5.8414  -5.8414  -5.1213  -5.1213
    -4.0907  -4.0907  -3.8432  -3.0383  -2.6520  -2.4791  -2.4791  -2.1346
    -1.0943  -1.0943  -0.8568  -0.8568  -0.5044   0.5790   0.5790   0.5914
     0.5914   1.0018   1.0797   1.1380   1.1380   1.2919   1.2919   1.3279
     1.3279   1.3347   1.5791   1.5791   1.7332   2.0138   2.7703   3.1710
     3.1710   3.3017   3.3017   3.9627   4.1441   4.2510   4.2895   4.7360
     5.2828   5.2828   5.3480   5.4610   5.7273   6.0250   6.0250   6.4974

[...]

          k =-0.0783-0.0452 0.0000 ( 22644 PWs)   bands (ev):

[...]

     the Fermi energy is     0.9686 ev

!    total energy              =   -1883.20334528 Ry
     Harris-Foulkes estimate   =   -1883.20482360 Ry
     estimated scf accuracy    <       0.00000078 Ry

     The total energy is the sum of the following terms:

     one-electron contribution =  -11258.91704022 Ry
     hartree contribution      =    5674.17331149 Ry
     xc contribution           =    -461.59875113 Ry
     ewald contribution        =    4163.24836510 Ry
     electric field correction =       0.00000004 Ry
     smearing contrib. (-TS)   =      -0.10923055 Ry

     convergence has been achieved in  21 iterations

 BEEF-vdW xc energy contributions
           1 :   -404.610709784167
           2 :    369.524664583727
           3 :   -310.344974550689
           4 :    243.963856227091
           5 :   -186.023917931230
           6 :    145.293710832107
           7 :   -121.962302937996
           8 :    109.993677729922
           9 :   -101.701150783427
          10 :    91.8820564094130
          11 :   -79.5766593912484
          12 :    67.1165591833513
          13 :   -57.6311737840209
          14 :    52.7367551594546
          15 :   -51.6620528102177
[...]
     Generated by new atomic code, or converted to UPF format
     Using radial grid of  891 points,  6 beta functions with:
                l(1) =   0
                l(2) =   0
                l(3) =   1
                l(4) =   1
                l(5) =   2
                l(6) =   2
     Q(r) pseudized with  8 coefficients,  rinner =    1.350   1.350   1.350
                                                       1.350   1.350

     PseudoPot. # 2 for V  read from file:
     /afs/slac.stanford.edu/u/if/mamunm/psp/gbrv1.5pbe/V.UPF
     MD5 check sum: 22b79981416ebb76fdaf5b1b8640f6fb
     Pseudo is Ultrasoft + core correction, Zval = 13.0
     Generated by new atomic code, or converted to UPF format
     Using radial grid of  853 points,  6 beta functions with:
                l(1) =   0
                l(2) =   0
                l(3) =   1
                l(4) =   1
                l(5) =   2
                l(6) =   2
     Q(r) pseudized with  8 coefficients,  rinner =    1.100   1.100   1.100
                                                       1.100   1.100

     vdW kernel table read from file vdW_kernel_table
     MD5 check sum: 095c7af220d748ca6e76c0b4c6cfb241

     atomic species   valence    mass     pseudopotential
        Sn1           14.00   118.71000     Sn( 1.00)
        V1            13.00    50.94150     V ( 1.00)

     No symmetry found

   Cartesian axes

     site n.     atom                  positions (alat units)
         1           Sn1 tau(   1) = (   0.0000000   0.0000000  10.0000000  )
         2           Sn1 tau(   2) = (  -1.5965607   2.7653243  10.0000000  )
         3           Sn1 tau(   3) = (   1.5965607   2.7653243  10.0000000  )
         4           V1  tau(   4) = (   3.1931215   0.0000000  10.0000000  )
         5           Sn1 tau(   5) = (   3.1931215   1.8435496  12.6071728  )
         6           Sn1 tau(   6) = (   1.5965607   4.6088739  12.6071728  )
         7           Sn1 tau(   7) = (  -1.5965607   4.6088739  12.6071728  )
         8           V1  tau(   8) = (   0.0000000   1.8435496  12.6071728  )
         9           Sn1 tau(   9) = (  -0.0000038   3.6239423  15.3330914  )
        10           Sn1 tau(  10) = (   1.5418471   0.9534266  15.3330330  )
        11           Sn1 tau(  11) = (   4.8444203   0.9534012  15.3330372  )
        12           V1  tau(  12) = (   3.1931202   3.6870712  14.6541259  )

     number of k points=    20  Fermi-Dirac smearing, width (Ry)=  0.0110
                       cart. coord. in units 2pi/alat
        k(    1) = (   0.0000000   0.0000000   0.0000000), wk =   0.0555556
        k(    2) = (   0.0000000   0.0301351   0.0000000), wk =   0.1111111
        k(    3) = (   0.0000000   0.0602702   0.0000000), wk =   0.1111111
        k(    4) = (   0.0000000  -0.0904053   0.0000000), wk =   0.0555556
        k(    5) = (   0.0260978   0.0150676   0.0000000), wk =   0.1111111
        k(    6) = (   0.0260978   0.0452027   0.0000000), wk =   0.1111111
        k(    7) = (   0.0260978   0.0753378   0.0000000), wk =   0.1111111
        k(    8) = (   0.0260978  -0.0753378   0.0000000), wk =   0.1111111
        k(    9) = (   0.0260978  -0.0452027   0.0000000), wk =   0.1111111
        k(   10) = (   0.0260978  -0.0150676   0.0000000), wk =   0.1111111
        k(   11) = (   0.0521955   0.0301351   0.0000000), wk =   0.1111111
        k(   12) = (   0.0521955   0.0602702   0.0000000), wk =   0.1111111
        k(   13) = (   0.0521955   0.0904053   0.0000000), wk =   0.1111111
        k(   14) = (   0.0521955  -0.0602702   0.0000000), wk =   0.1111111
        k(   15) = (   0.0521955  -0.0301351   0.0000000), wk =   0.1111111
        k(   16) = (   0.0521955   0.0000000   0.0000000), wk =   0.1111111
        k(   17) = (  -0.0782933  -0.0452027   0.0000000), wk =   0.0555556
        k(   18) = (  -0.0782933  -0.0150676   0.0000000), wk =   0.1111111
        k(   19) = (  -0.0782933   0.0150676   0.0000000), wk =   0.1111111
        k(   20) = (  -0.0782933  -0.1356080   0.0000000), wk =   0.0555556

     Largest allocated arrays     est. size (Mb)     dimensions
     Largest temporary arrays     est. size (Mb)     dimensions

     Initial potential from superposition of free atoms
     Check: negative starting charge=   -0.003863

     starting charge  155.99591, renormalised to  165.00000

[...]

     *
     * You are using vdW-DF for exchange-correlation in this calculation.
     * Please cite the following three references that made this development
     * possible:
     *
     *   M. Dion, H. Rydberg, E. Schroder, D. C. Langreth, and
     *   B. I. Lundqvist, Phys. Rev. Lett. 92, 246401 (2004).
     *
     *   T. Thonhauser, V. R. Cooper, S. Li, A. Puzder, P. Hyldgaard, and
     *   D. C. Langreth, Phys. Rev. B 76, 125112 (2007).
     *
     *   G. Roman-Perez and J. M. Soler, Phys. Rev. Lett. 103, 096102 (2009).
     *
     *
     * If you are using vdW-DF2, please also cite:
     *
     *   K. Lee, E. D. Murray, L. Kong, B. I. Lundqvist, and
     *   D. C. Langreth, Phys. Rev. B 82, 081101(R) (2010).
     *
     *
     * If you are calculating the stress with vdW-DF, please also cite:
     *
     *   R. Sabatini, E. Kucukbenli, B. Kolb, T. Thonhauser, and
     *   S. de Gironcoli, J. Phys.: Condens. Matter 24, 424209 (2012).
     *

     Carrying out vdW-DF run using the following parameters:

     Nqs =      20    Nr_points =    1024   r_max =   100.000
     q_mesh =
               0.00001000     0.04494208     0.09755937     0.15916263
               0.23128650     0.31572767     0.41458969     0.53033537
               0.66584808     0.82450364     1.01025438     1.22772762
               1.48234092     1.78043706     2.12944203     2.53805004
               3.01644009     3.57652955     4.23227104     5.00000000

     Gradients computed in reciprocal space

[...]

     Starting wfc are  111 randomized atomic wfcs +    1 random wfc

     Self-consistent Calculation

[...]

     iteration # 17     ecut=    36.75 Ry     beta=0.10
     Davidson diagonalization with overlap
     c_bands:  1 eigenvalues not converged
     ethr =  1.20E-06,  avg # of iterations =  5.2

[...]

     total energy              =   -1883.24738330 Ry
     Harris-Foulkes estimate   =   -1883.24738382 Ry
     estimated scf accuracy    <       0.00002083 Ry

     iteration # 22     ecut=    36.75 Ry     beta=0.10
     Davidson diagonalization with overlap
     ethr =  1.26E-08,  avg # of iterations =  1.0

[...]

     negative rho (up, down):  3.124E-03 0.000E+00

     Adding external electric field

     Computed dipole along edir(3) :
        Dipole               -0.0043 Ry au,         -0.0109 Debye
        Dipole field         -0.0000 Ry au

        Potential amp.        0.0008 Ry
        Total length         46.4570 bohr

     End of self-consistent calculation

[...]

          k = 0.0522 0.0000 0.0000 ( 22623 PWs)   bands (ev):

[...]

          k =-0.0783-0.1356 0.0000 ( 22644 PWs)   bands (ev):

   -63.7935 -63.6745 -63.6601 -37.6592 -37.6016 -37.6016 -37.5310 -37.5309
   -37.5162 -37.5161 -37.4656 -37.4215 -21.1997 -21.1434 -21.1262 -21.1149
   -21.1077 -21.0905 -21.0859 -21.0836 -21.0624 -21.0485 -21.0356 -21.0272
   -21.0161 -21.0142 -21.0132 -20.9890 -20.9766 -20.9636 -20.9622 -20.9567
   -20.9430 -20.9413 -20.9375 -20.9291 -20.9166 -20.9113 -20.9066 -20.9039
   -20.9010 -20.8945 -20.8877 -20.8834 -20.8774 -20.8768 -20.8749 -20.8683
   -20.8659 -20.8620 -20.8524 -20.8483 -20.8434 -20.8409 -20.8397 -20.8007
   -20.7892  -8.9311  -8.5182  -7.5081  -7.0775  -6.4066  -6.3703  -5.7002
    -5.1222  -3.7596  -3.4388  -2.8841  -2.0654  -1.2376  -1.1075  -1.0796
    -0.7805  -0.7107  -0.1654  -0.0984   0.0239   0.0792   0.6121   0.6557
     0.8545   0.9186   0.9900   1.0021   1.0799   1.1061   1.3444   1.4137
     1.4656   1.5729   1.7395   1.9699   2.0884   2.2919   2.2961   2.5933
     2.9439   3.0506   3.3532   3.4479   3.5126   4.0722   4.4070   4.5037
     4.7925   5.0708   5.2956   5.4519   5.5934   5.6899   5.9274   5.9718

     the Fermi energy is     0.9001 ev

!    total energy              =   -1883.24738400 Ry
     Harris-Foulkes estimate   =   -1883.24738374 Ry
     estimated scf accuracy    <       0.00000092 Ry

     The total energy is the sum of the following terms:

     one-electron contribution =  -11309.41440235 Ry
     hartree contribution      =    5699.18615395 Ry
     xc contribution           =    -461.65178137 Ry
     ewald contribution        =    4188.73164365 Ry
     electric field correction =       0.00000004 Ry
     smearing contrib. (-TS)   =      -0.09899792 Ry

     convergence has been achieved in  22 iterations

 BEEF-vdW xc energy contributions
           1 :   -404.708358121468
           2 :    369.635264111284
           3 :   -310.462433336246
           4 :    244.057247236074
           5 :   -186.057788636745
           6 :    145.260736863801
           7 :   -121.896882133447
           8 :    109.951164338043
           9 :   -101.718277973877
          10 :    91.9503422371999
          11 :   -79.6499297029249
          12 :    67.1463093034093
          13 :   -57.6031933441645
          14 :    52.6827228539476
          15 :   -51.6375388343168
          16 :    52.0349966763359
          17 :   -51.3744782810619
          18 :    48.4976775257759
          19 :   -44.0113835131319
          20 :    39.6226246910207
          21 :   -36.9282590002543
          22 :    36.4363550379325
          23 :   -37.3659420276803
          24 :    38.2469904549621
          25 :   -37.8735602293956
          26 :    35.9990088750071
          27 :   -33.3820299330430
          28 :    31.2140234531131
          29 :   -30.3307535294846
          30 :    30.7099369376368
          31 :   -36.1706904935766
          32 :   -26.3257777368297

     Forces acting on atoms (Ry/au):

     negative rho (up, down):  3.124E-03 0.000E+00
     atom    1 type  1   force =    -0.00000153    0.01442414   -0.01131833
     atom    2 type  1   force =     0.01249092   -0.00721566   -0.01131076
     atom    3 type  1   force =    -0.01248860   -0.00721500   -0.01130983
     atom    4 type  2   force =    -0.00000069    0.00000049    0.05948050
     atom    5 type  1   force =     0.00000123   -0.01660061   -0.00933082
     atom    6 type  1   force =    -0.01437238    0.00829979   -0.00932051
     atom    7 type  1   force =     0.01437353    0.00829905   -0.00932058
     atom    8 type  2   force =    -0.00000082    0.00000281    0.00316876
     atom    9 type  1   force =    -0.00000238    0.00087734   -0.00013913
     atom   10 type  1   force =     0.00075157   -0.00043368   -0.00012817
     atom   11 type  1   force =    -0.00074996   -0.00043781   -0.00013063
     atom   12 type  2   force =    -0.00000090   -0.00000085   -0.00034051

     Total force =     0.075139     Total SCF correction =     0.003486

     entering subroutine stress ...

     negative rho (up, down):  3.124E-03 0.000E+00
          total   stress  (Ry/bohr**3)                   (kbar)     P=  -10.67
  -0.00009131  -0.00000000  -0.00000000        -13.43     -0.00     -0.00
  -0.00000000  -0.00009133  -0.00000000         -0.00    -13.44     -0.00
  -0.00000000  -0.00000000  -0.00003500         -0.00     -0.00     -5.15

 !ASE

     Writing output data file calc.save

     General routines

     Parallel routines

   This run was terminated on:   3: 9:10  28Dec2018

   JOB DONE.
Job  /afs/slac/g/suncat/bin/suncat-tsmpirun -x LD_LIBRARY_PATH -wdir /scratch/qe110959_8PU2k pw.x -in pw.inp

TID   HOST_NAME   COMMAND_LINE            STATUS            TERMINATION_TIME
00000 suncat0108 pw.x -in pw.inp   Done                     12/28/2018 03:09:10
00001 suncat0108 pw.x -in pw.inp   Done                     12/28/2018 03:09:10
00002 suncat0108 pw.x -in pw.inp   Done                     12/28/2018 03:09:10
00003 suncat0108 pw.x -in pw.inp   Done                     12/28/2018 03:09:10
00004 suncat0108 pw.x -in pw.inp   Done                     12/28/2018 03:09:10
00005 suncat0108 pw.x -in pw.inp   Done                     12/28/2018 03:09:10
00006 suncat0108 pw.x -in pw.inp   Done                     12/28/2018 03:09:10
00007 suncat0108 pw.x -in pw.inp   Done                     12/28/2018 03:09:10
00008 suncat0107 pw.x -in pw.inp   Done                     12/28/2018 03:09:10
00009 suncat0107 pw.x -in pw.inp   Done                     12/28/2018 03:09:10
00010 suncat0107 pw.x -in pw.inp   Done                     12/28/2018 03:09:10
00011 suncat0107 pw.x -in pw.inp   Done                     12/28/2018 03:09:10
00012 suncat0107 pw.x -in pw.inp   Done                     12/28/2018 03:09:10
00013 suncat0107 pw.x -in pw.inp   Done                     12/28/2018 03:09:10
00014 suncat0107 pw.x -in pw.inp   Done                     12/28/2018 03:09:10
00015 suncat0107 pw.x -in pw.inp   Done                     12/28/2018 03:09:10
00016 suncat0106 pw.x -in pw.inp   Done                     12/28/2018 03:09:10
00017 suncat0106 pw.x -in pw.inp   Done                     12/28/2018 03:09:10
00018 suncat0106 pw.x -in pw.inp   Done                     12/28/2018 03:09:10
00019 suncat0106 pw.x -in pw.inp   Done                     12/28/2018 03:09:10
00020 suncat0106 pw.x -in pw.inp   Done                     12/28/2018 03:09:10
00021 suncat0106 pw.x -in pw.inp   Done                     12/28/2018 03:09:10
00022 suncat0106 pw.x -in pw.inp   Done                     12/28/2018 03:09:10
00023 suncat0106 pw.x -in pw.inp   Done                     12/28/2018 03:09:10
00024 suncat0105 pw.x -in pw.inp   Done                     12/28/2018 03:09:10
00025 suncat0105 pw.x -in pw.inp   Done                     12/28/2018 03:09:10
00026 suncat0105 pw.x -in pw.inp   Done                     12/28/2018 03:09:10
00027 suncat0105 pw.x -in pw.inp   Done                     12/28/2018 03:09:10
00028 suncat0105 pw.x -in pw.inp   Done                     12/28/2018 03:09:10
00029 suncat0105 pw.x -in pw.inp   Done                     12/28/2018 03:09:10
00030 suncat0105 pw.x -in pw.inp   Done                     12/28/2018 03:09:10
00031 suncat0105 pw.x -in pw.inp   Done                     12/28/2018 03:09:10
00032 suncat0238 pw.x -in pw.inp   Done                     12/28/2018 03:09:10
00033 suncat0238 pw.x -in pw.inp   Done                     12/28/2018 03:09:10
00034 suncat0238 pw.x -in pw.inp   Done                     12/28/2018 03:09:10
00035 suncat0238 pw.x -in pw.inp   Done                     12/28/2018 03:09:10
00036 suncat0238 pw.x -in pw.inp   Done                     12/28/2018 03:09:10
00037 suncat0238 pw.x -in pw.inp   Done                     12/28/2018 03:09:10
00038 suncat0238 pw.x -in pw.inp   Done                     12/28/2018 03:09:10
00039 suncat0238 pw.x -in pw.inp   Done                     12/28/2018 03:09:10
00040 suncat0237 pw.x -in pw.inp   Done                     12/28/2018 03:09:10
00041 suncat0237 pw.x -in pw.inp   Done                     12/28/2018 03:09:10
00042 suncat0237 pw.x -in pw.inp   Done                     12/28/2018 03:09:10
00043 suncat0237 pw.x -in pw.inp   Done                     12/28/2018 03:09:10
00044 suncat0237 pw.x -in pw.inp   Done                     12/28/2018 03:09:10
00045 suncat0237 pw.x -in pw.inp   Done                     12/28/2018 03:09:10
00046 suncat0237 pw.x -in pw.inp   Done                     12/28/2018 03:09:10
00047 suncat0237 pw.x -in pw.inp   Done                     12/28/2018 03:09:10
00048 suncat0236 pw.x -in pw.inp   Done                     12/28/2018 03:09:10
00049 suncat0236 pw.x -in pw.inp   Done                     12/28/2018 03:09:10
00050 suncat0236 pw.x -in pw.inp   Done                     12/28/2018 03:09:10
00051 suncat0236 pw.x -in pw.inp   Done                     12/28/2018 03:09:10
00052 suncat0236 pw.x -in pw.inp   Done                     12/28/2018 03:09:10
00053 suncat0236 pw.x -in pw.inp   Done                     12/28/2018 03:09:10
00054 suncat0236 pw.x -in pw.inp   Done                     12/28/2018 03:09:10
00055 suncat0236 pw.x -in pw.inp   Done                     12/28/2018 03:09:10
00056 suncat0235 pw.x -in pw.inp   Done                     12/28/2018 03:09:10
00057 suncat0235 pw.x -in pw.inp   Done                     12/28/2018 03:09:10
00058 suncat0235 pw.x -in pw.inp   Done                     12/28/2018 03:09:10
00059 suncat0235 pw.x -in pw.inp   Done                     12/28/2018 03:09:10
00060 suncat0235 pw.x -in pw.inp   Done                     12/28/2018 03:09:10
00061 suncat0235 pw.x -in pw.inp   Done                     12/28/2018 03:09:10
00062 suncat0235 pw.x -in pw.inp   Done                     12/28/2018 03:09:10
00063 suncat0235 pw.x -in pw.inp   Done                     12/28/2018 03:09:10