     Program PWSCF v.5.1rc2 (svn rev. 11289) starts on  2Jan2019 at 12:27:27

     Current dimensions of program PWSCF are:
     Max number of different atomic species (ntypx) = 10
     Max number of k-points (npk) =  40000
     Max angular momentum in pseudopotentials (lmaxx) =  3
     Presently stress not available with electric field

     IMPORTANT: XC functional enforced from input :
     Exchange-correlation      = BEEF-VDW ( 1  4 27 13 2)
     Any further DFT definition will be discarded
     Please, verify this is what you really want

     Subspace diagonalization in iterative solution of the eigenvalue problem:
     a serial algorithm will be used

     bravais-lattice index     =            0
     lattice parameter (alat)  =       1.8897  a.u.
     unit-cell volume          =    6608.6934 (a.u.)^3
     number of atoms/cell      =           12
     number of atomic types    =            2
     number of electrons       =       141.00
     number of Kohn-Sham states=          100
     kinetic-energy cutoff     =      36.7493  Ry
     charge density cutoff     =     367.4932  Ry
     convergence threshold     =      1.0E-06
     mixing beta               =       0.1000
     number of iterations used =           10  plain     mixing
     Exchange-correlation      = BEEF-VDW ( 1  4 27 13 2)
     nstep                     =           50

     celldm(1)=   1.889726  celldm(2)=   0.000000  celldm(3)=   0.000000
     celldm(4)=   0.000000  celldm(5)=   0.000000  celldm(6)=   0.000000

     crystal axes: (cart. coord. in units of alat)
               a(1) = (   6.666648   0.000000   0.000000 )
               a(2) = (  -3.333324   5.773486   0.000000 )
               a(3) = (   0.000000   0.000000  25.443295 )

     reciprocal axes: (cart. coord. in units 2 pi/alat)
               b(1) = (  0.150000  0.086603  0.000000 )
               b(2) = (  0.000000  0.173206  0.000000 )
               b(3) = (  0.000000  0.000000  0.039303 )

     PseudoPot. # 1 for Y  read from file:
     /afs/slac.stanford.edu/u/if/mamunm/psp/gbrv1.5pbe/Y.UPF
     MD5 check sum: d034151ed7554c50b6e82763ed42c788
     Pseudo is Ultrasoft + core correction, Zval = 11.0
     Generated by new atomic code, or converted to UPF format
     Using radial grid of  885 points,  6 beta functions with:
                l(1) =   0
                l(2) =   0
                l(3) =   1
                l(4) =   1
                l(5) =   2
                l(6) =   2
     Q(r) pseudized with  8 coefficients,  rinner =    1.200   1.200   1.200
                                                       1.200   1.200

     PseudoPot. # 2 for Mo read from file:
     /afs/slac.stanford.edu/u/if/mamunm/psp/gbrv1.5pbe/Mo.UPF
     MD5 check sum: 30c4dcd161f5d35cd49bb5239c51a633
     Pseudo is Ultrasoft + core correction, Zval = 14.0
     Generated by new atomic code, or converted to UPF format
     Using radial grid of  889 points,  6 beta functions with:
                l(1) =   0
                l(2) =   0
                l(3) =   1
                l(4) =   1
                l(5) =   2
                l(6) =   2
     Q(r) pseudized with  6 coefficients,  rinner =    1.000   1.000   1.000
                                                       1.000   1.000

     vdW kernel table read from file vdW_kernel_table
     MD5 check sum: 095c7af220d748ca6e76c0b4c6cfb241

     atomic species   valence    mass     pseudopotential
        Y1            11.00    88.90584     Y ( 1.00)
        Mo1           14.00    95.95000     Mo( 1.00)

     No symmetry found

   Cartesian axes

     site n.     atom                  positions (alat units)
         1           Y1  tau(   1) = (   0.0000000   0.0000000  10.0000000  )
         2           Y1  tau(   2) = (  -1.6666619   2.8867432  10.0000000  )
         3           Y1  tau(   3) = (   1.6666619   2.8867432  10.0000000  )
         4           Mo1 tau(   4) = (   3.3333239   0.0000000  10.0000000  )
         5           Y1  tau(   5) = (   3.3333239   1.9244954  12.7216475  )
         6           Y1  tau(   6) = (   1.6666619   4.8112386  12.7216475  )
         7           Y1  tau(   7) = (  -1.6666619   4.8112386  12.7216475  )
         8           Mo1 tau(   8) = (   0.0000000   1.9244954  12.7216475  )
         9           Y1  tau(   9) = (  -0.0000000   3.8489909  15.4432951  )
        10           Y1  tau(  10) = (   1.6666619   0.9622477  15.4432951  )
        11           Y1  tau(  11) = (   4.9999858   0.9622477  15.4432951  )
        12           Mo1 tau(  12) = (   3.3333239   3.8489909  15.4432951  )

     number of k points=    20  Fermi-Dirac smearing, width (Ry)=  0.0110
                       cart. coord. in units 2pi/alat
        k(    1) = (   0.0000000   0.0000000   0.0000000), wk =   0.0555556
        k(    2) = (   0.0000000   0.0288676   0.0000000), wk =   0.1111111
        k(    3) = (   0.0000000   0.0577352   0.0000000), wk =   0.1111111
        k(    4) = (   0.0000000  -0.0866028   0.0000000), wk =   0.0555556
        k(    5) = (   0.0250001   0.0144338   0.0000000), wk =   0.1111111
        k(    6) = (   0.0250001   0.0433014   0.0000000), wk =   0.1111111
        k(    7) = (   0.0250001   0.0721690   0.0000000), wk =   0.1111111
        k(    8) = (   0.0250001  -0.0721690   0.0000000), wk =   0.1111111
        k(    9) = (   0.0250001  -0.0433014   0.0000000), wk =   0.1111111
        k(   10) = (   0.0250001  -0.0144338   0.0000000), wk =   0.1111111
        k(   11) = (   0.0500001   0.0288676   0.0000000), wk =   0.1111111
        k(   12) = (   0.0500001   0.0577352   0.0000000), wk =   0.1111111
        k(   13) = (   0.0500001   0.0866028   0.0000000), wk =   0.1111111
        k(   14) = (   0.0500001  -0.0577352   0.0000000), wk =   0.1111111
        k(   15) = (   0.0500001  -0.0288676   0.0000000), wk =   0.1111111
        k(   16) = (   0.0500001   0.0000000   0.0000000), wk =   0.1111111
        k(   17) = (  -0.0750002  -0.0433014   0.0000000), wk =   0.0555556
        k(   18) = (  -0.0750002  -0.0144338   0.0000000), wk =   0.1111111
        k(   19) = (  -0.0750002   0.0144338   0.0000000), wk =   0.1111111
        k(   20) = (  -0.0750002  -0.1299042   0.0000000), wk =   0.0555556

     Largest allocated arrays     est. size (Mb)     dimensions
     Largest temporary arrays     est. size (Mb)     dimensions

     Initial potential from superposition of free atoms
     Check: negative starting charge=   -0.002734

     starting charge  140.95659, renormalised to  141.00000

     negative rho (up, down):  2.735E-03 0.000E+00

     *
     * You are using vdW-DF for exchange-correlation in this calculation.
     * Please cite the following three references that made this development
     * possible:
     *
     *   M. Dion, H. Rydberg, E. Schroder, D. C. Langreth, and
     *   B. I. Lundqvist, Phys. Rev. Lett. 92, 246401 (2004).
     *
     *   T. Thonhauser, V. R. Cooper, S. Li, A. Puzder, P. Hyldgaard, and
     *   D. C. Langreth, Phys. Rev. B 76, 125112 (2007).
     *
     *   G. Roman-Perez and J. M. Soler, Phys. Rev. Lett. 103, 096102 (2009).
     *
     *
     * If you are using vdW-DF2, please also cite:
     *
     *   K. Lee, E. D. Murray, L. Kong, B. I. Lundqvist, and
     *   D. C. Langreth, Phys. Rev. B 82, 081101(R) (2010).
     *
     *
     * If you are calculating the stress with vdW-DF, please also cite:
     *
     *   R. Sabatini, E. Kucukbenli, B. Kolb, T. Thonhauser, and
     *   S. de Gironcoli, J. Phys.: Condens. Matter 24, 424209 (2012).
     *

     Carrying out vdW-DF run using the following parameters:

     Nqs =      20    Nr_points =    1024   r_max =   100.000
     q_mesh =
               0.00001000     0.04494208     0.09755937     0.15916263
               0.23128650     0.31572767     0.41458969     0.53033537
               0.66584808     0.82450364     1.01025438     1.22772762
               1.48234092     1.78043706     2.12944203     2.53805004
               3.01644009     3.57652955     4.23227104     5.00000000

     Gradients computed in reciprocal space

     Adding external electric field

     Computed dipole along edir(3) :
        Dipole                0.0000 Ry au,          0.0000 Debye
        Dipole field          0.0000 Ry au

        Potential amp.       -0.0000 Ry
        Total length         46.8788 bohr

     Starting wfc are  156 randomized atomic wfcs

     Self-consistent Calculation

     iteration #  1     ecut=    36.75 Ry     beta=0.10
     Davidson diagonalization with overlap
     ethr =  1.00E-02,  avg # of iterations =  2.0

[...]

     total energy              =   -1261.98400080 Ry
     Harris-Foulkes estimate   =   -1263.58924731 Ry
     estimated scf accuracy    <       9.03390342 Ry

[...]

     iteration # 13     ecut=    36.75 Ry     beta=0.10
     Davidson diagonalization with overlap
     c_bands:  1 eigenvalues not converged
     ethr =  1.49E-06,  avg # of iterations =  8.2

[...]

     End of self-consistent calculation

          k = 0.0000 0.0000 0.0000 ( 24753 PWs)   bands (ev):

   -59.4245 -59.2850 -59.2848 -41.7781 -41.7762 -41.7005 -41.7005 -41.7000
   -41.7000 -41.1985 -41.1229 -41.1229 -33.4489 -33.4268 -33.4268 -33.3159
   -33.3159 -33.3157 -33.3157 -33.3135 -33.3126 -22.1854 -22.1556 -21.9025
   -21.8677 -21.8677 -21.8233 -21.8233 -21.7950 -21.7637 -21.7637 -21.7009
   -21.7009 -21.5609 -21.4523 -21.4404 -21.4071 -21.4071 -21.3977 -21.3977
   -21.2404 -21.2403 -21.1105 -21.0689 -21.0688 -20.9097 -20.8358 -20.8358
    -3.2154  -2.2029  -1.3201  -0.8673  -0.7814  -0.7093  -0.7093  -0.6645
    -0.6645  -0.3587  -0.2881  -0.2881  -0.0889  -0.0889  -0.0004   0.5793
     0.5794   0.7405   1.1647   1.2488   1.2587   1.2587   1.7642   1.8829
     1.9933   2.1887   2.1887   2.2520   2.2805   2.2805   2.5320   2.5320
     2.5902   2.6394   2.6394   2.7205   2.7205   3.0160   3.0160   3.0410
     3.2264   3.2264   3.3558   3.3558   3.5668   3.8435   3.8903   3.8903
     4.4982   4.6017   4.7851   4.7853

[...]

          k =-0.0750-0.0433 0.0000 ( 24898 PWs)   bands (ev):

[...]

     the Fermi energy is     1.2946 ev

!    total energy              =   -1262.76468800 Ry
     Harris-Foulkes estimate   =   -1262.76468786 Ry
     estimated scf accuracy    <       0.00000100 Ry

     The total energy is the sum of the following terms:

     one-electron contribution =   -7241.01733506 Ry
     hartree contribution      =    3613.97978448 Ry
     xc contribution           =    -314.31228129 Ry
     ewald contribution        =    2678.69931355 Ry
     electric field correction =       0.00000001 Ry
     smearing contrib. (-TS)   =      -0.11416968 Ry

     convergence has been achieved in  19 iterations

 BEEF-vdW xc energy contributions
           1 :   -273.427207656753
           2 :    246.330405424729
           3 :   -199.545469279725
           4 :    144.587810586614
           5 :   -92.5764582039271
           6 :    50.8115184279732
           7 :   -21.7827479969176
           8 :    4.35316639526644
           9 :    4.13059486270009
          10 :   -6.14879077101239
          11 :    3.40839311838710
          12 :    2.78689003951536
          13 :   -10.8627108119736
[...]
               b(2) = (  0.000000  0.173206  0.000000 )
               b(3) = (  0.000000  0.000000  0.039303 )

     PseudoPot. # 1 for Y  read from file:
     /afs/slac.stanford.edu/u/if/mamunm/psp/gbrv1.5pbe/Y.UPF
     MD5 check sum: d034151ed7554c50b6e82763ed42c788
     Pseudo is Ultrasoft + core correction, Zval = 11.0
     Generated by new atomic code, or converted to UPF format
     Using radial grid of  885 points,  6 beta functions with:
                l(1) =   0
                l(2) =   0
                l(3) =   1
                l(4) =   1
                l(5) =   2
                l(6) =   2
     Q(r) pseudized with  8 coefficients,  rinner =    1.200   1.200   1.200
                                                       1.200   1.200

     PseudoPot. # 2 for Mo read from file:
     /afs/slac.stanford.edu/u/if/mamunm/psp/gbrv1.5pbe/Mo.UPF
     MD5 check sum: 30c4dcd161f5d35cd49bb5239c51a633
     Pseudo is Ultrasoft + core correction, Zval = 14.0
     Generated by new atomic code, or converted to UPF format
     Using radial grid of  889 points,  6 beta functions with:
                l(1) =   0
                l(2) =   0
                l(3) =   1
                l(4) =   1
                l(5) =   2
                l(6) =   2
     Q(r) pseudized with  6 coefficients,  rinner =    1.000   1.000   1.000
                                                       1.000   1.000

     vdW kernel table read from file vdW_kernel_table
     MD5 check sum: 095c7af220d748ca6e76c0b4c6cfb241

     atomic species   valence    mass     pseudopotential
        Y1            11.00    88.90584     Y ( 1.00)
        Mo1           14.00    95.95000     Mo( 1.00)

     No symmetry found

   Cartesian axes

     site n.     atom                  positions (alat units)
         1           Y1  tau(   1) = (   0.0000000   0.0000000  10.0000000  )
         2           Y1  tau(   2) = (  -1.6666619   2.8867432  10.0000000  )
         3           Y1  tau(   3) = (   1.6666619   2.8867432  10.0000000  )
         4           Mo1 tau(   4) = (   3.3333239   0.0000000  10.0000000  )
         5           Y1  tau(   5) = (   3.3333239   1.9244954  12.7216475  )
         6           Y1  tau(   6) = (   1.6666619   4.8112386  12.7216475  )
         7           Y1  tau(   7) = (  -1.6666619   4.8112386  12.7216475  )
         8           Mo1 tau(   8) = (   0.0000000   1.9244954  12.7216475  )
         9           Y1  tau(   9) = (  -0.0000218   3.8102323  15.4350318  )
        10           Y1  tau(  10) = (   1.6330290   0.9816558  15.4349892  )
        11           Y1  tau(  11) = (   5.0335755   0.9816555  15.4350059  )
        12           Mo1 tau(  12) = (   3.3333336   3.8489982  15.0296855  )

     number of k points=    20  Fermi-Dirac smearing, width (Ry)=  0.0110
                       cart. coord. in units 2pi/alat
        k(    1) = (   0.0000000   0.0000000   0.0000000), wk =   0.0555556
        k(    2) = (   0.0000000   0.0288676   0.0000000), wk =   0.1111111
        k(    3) = (   0.0000000   0.0577352   0.0000000), wk =   0.1111111
        k(    4) = (   0.0000000  -0.0866028   0.0000000), wk =   0.0555556
        k(    5) = (   0.0250001   0.0144338   0.0000000), wk =   0.1111111
        k(    6) = (   0.0250001   0.0433014   0.0000000), wk =   0.1111111
        k(    7) = (   0.0250001   0.0721690   0.0000000), wk =   0.1111111
        k(    8) = (   0.0250001  -0.0721690   0.0000000), wk =   0.1111111
        k(    9) = (   0.0250001  -0.0433014   0.0000000), wk =   0.1111111
        k(   10) = (   0.0250001  -0.0144338   0.0000000), wk =   0.1111111
        k(   11) = (   0.0500001   0.0288676   0.0000000), wk =   0.1111111
        k(   12) = (   0.0500001   0.0577352   0.0000000), wk =   0.1111111
        k(   13) = (   0.0500001   0.0866028   0.0000000), wk =   0.1111111
        k(   14) = (   0.0500001  -0.0577352   0.0000000), wk =   0.1111111
        k(   15) = (   0.0500001  -0.0288676   0.0000000), wk =   0.1111111
        k(   16) = (   0.0500001   0.0000000   0.0000000), wk =   0.1111111
        k(   17) = (  -0.0750002  -0.0433014   0.0000000), wk =   0.0555556
        k(   18) = (  -0.0750002  -0.0144338   0.0000000), wk =   0.1111111
        k(   19) = (  -0.0750002   0.0144338   0.0000000), wk =   0.1111111
        k(   20) = (  -0.0750002  -0.1299042   0.0000000), wk =   0.0555556

     Largest allocated arrays     est. size (Mb)     dimensions
     Largest temporary arrays     est. size (Mb)     dimensions

     Initial potential from superposition of free atoms
     Check: negative starting charge=   -0.002717

     starting charge  140.95659, renormalised to  141.00000

[...]

     *
     * You are using vdW-DF for exchange-correlation in this calculation.
     * Please cite the following three references that made this development
     * possible:
     *
     *   M. Dion, H. Rydberg, E. Schroder, D. C. Langreth, and
     *   B. I. Lundqvist, Phys. Rev. Lett. 92, 246401 (2004).
     *
     *   T. Thonhauser, V. R. Cooper, S. Li, A. Puzder, P. Hyldgaard, and
     *   D. C. Langreth, Phys. Rev. B 76, 125112 (2007).
     *
     *   G. Roman-Perez and J. M. Soler, Phys. Rev. Lett. 103, 096102 (2009).
     *
     *
     * If you are using vdW-DF2, please also cite:
     *
     *   K. Lee, E. D. Murray, L. Kong, B. I. Lundqvist, and
     *   D. C. Langreth, Phys. Rev. B 82, 081101(R) (2010).
     *
     *
     * If you are calculating the stress with vdW-DF, please also cite:
     *
     *   R. Sabatini, E. Kucukbenli, B. Kolb, T. Thonhauser, and
     *   S. de Gironcoli, J. Phys.: Condens. Matter 24, 424209 (2012).
     *

     Carrying out vdW-DF run using the following parameters:

     Nqs =      20    Nr_points =    1024   r_max =   100.000
     q_mesh =
               0.00001000     0.04494208     0.09755937     0.15916263
               0.23128650     0.31572767     0.41458969     0.53033537
               0.66584808     0.82450364     1.01025438     1.22772762
               1.48234092     1.78043706     2.12944203     2.53805004
               3.01644009     3.57652955     4.23227104     5.00000000

     Gradients computed in reciprocal space

[...]

     Starting wfc are  156 randomized atomic wfcs

     Self-consistent Calculation

[...]

     total energy              =   -1262.79075771 Ry
     Harris-Foulkes estimate   =   -1262.79075745 Ry
     estimated scf accuracy    <       0.00000234 Ry

     iteration # 19     ecut=    36.75 Ry     beta=0.10
     Davidson diagonalization with overlap
     ethr =  1.11E-09,  avg # of iterations =  2.1

[...]

     negative rho (up, down):  2.167E-03 0.000E+00

     Adding external electric field

     Computed dipole along edir(3) :
        Dipole                0.0723 Ry au,          0.1837 Debye
        Dipole field          0.0001 Ry au

        Potential amp.       -0.0129 Ry
        Total length         46.8788 bohr

     End of self-consistent calculation

[...]

          k = 0.0500 0.0000 0.0000 ( 24864 PWs)   bands (ev):

[...]

          k =-0.0750-0.1299 0.0000 ( 24898 PWs)   bands (ev):

   -59.3770 -59.2216 -59.1041 -41.7289 -41.6993 -41.6979 -41.6740 -41.6735
   -41.6478 -40.9668 -40.9410 -40.9151 -33.4029 -33.3796 -33.3788 -33.2539
   -33.2531 -33.2512 -33.1694 -33.1687 -33.1149 -21.9746 -21.9455 -21.8105
   -21.7771 -21.7495 -21.7211 -21.7189 -21.7059 -21.6857 -21.6532 -21.6388
   -21.6384 -21.6312 -21.5956 -21.5755 -21.5710 -21.3792 -21.3603 -21.2179
   -20.9957 -20.9605 -20.9117 -20.9019 -20.8940 -20.8696 -20.8606 -20.6601
    -1.8423  -1.7531  -0.9239  -0.8922  -0.3042  -0.1727  -0.1251  -0.0726
    -0.0375   0.0627   0.4117   0.4655   0.5506   0.5524   0.6732   0.7690
     0.8417   0.9176   0.9589   0.9654   1.0572   1.1139   1.2199   1.2467
     1.3615   1.4131   1.5244   1.6740   1.7968   1.9307   1.9464   2.0521
     2.0904   2.1445   2.2225   2.3456   2.7329   2.7998   2.9089   3.0469
     3.1147   3.3618   3.4283   3.5038   3.6503   3.7191   3.7235   3.9575
     4.0725   4.2451   4.4041   4.6013

     the Fermi energy is     1.3496 ev

!    total energy              =   -1262.79075738 Ry
     Harris-Foulkes estimate   =   -1262.79075936 Ry
     estimated scf accuracy    <       0.00000067 Ry

     The total energy is the sum of the following terms:

     one-electron contribution =   -7370.88816217 Ry
     hartree contribution      =    3679.35747201 Ry
     xc contribution           =    -314.44114749 Ry
     ewald contribution        =    2743.29084152 Ry
     electric field correction =       0.00000993 Ry
     smearing contrib. (-TS)   =      -0.10977119 Ry

     convergence has been achieved in  19 iterations

 BEEF-vdW xc energy contributions
           1 :   -273.558691696723
           2 :    246.510853571529
           3 :   -199.778172851288
           4 :    144.816367858267
           5 :   -92.7136319488426
           6 :    50.7969164374667
           7 :   -21.6309216405600
           8 :    4.15213606874772
           9 :    4.27560920317273
          10 :   -6.18576930137397
          11 :    3.36876307867891
          12 :    2.81970537876293
          13 :   -10.8180965464063
          14 :    18.5484506046030
          15 :   -23.7619939108765
          16 :    24.8265273492591
          17 :   -21.4148797525863
          18 :    14.6194430668797
          19 :   -6.43460026416108
          20 :   -1.06379371942751
          21 :    6.39255057310947
          22 :   -8.93454140876435
          23 :    8.83313778185084
          24 :   -6.71289197210183
          25 :    3.42048468514787
          26 :   0.134501992342905
          27 :   -3.08862769279483
          28 :    4.75922625104079
          29 :   -4.81604911248900
          30 :    3.40052526100908
          31 :   -27.0575189431886
          32 :   -18.9591157793218

     Forces acting on atoms (Ry/au):

     negative rho (up, down):  2.167E-03 0.000E+00
     atom    1 type  1   force =     0.00000090    0.01854405   -0.00752468
     atom    2 type  1   force =     0.01605879   -0.00927336   -0.00752533
     atom    3 type  1   force =    -0.01605633   -0.00927367   -0.00752239
     atom    4 type  2   force =     0.00000042   -0.00000093    0.04634204
     atom    5 type  1   force =    -0.00000370   -0.00703750   -0.01029005
     atom    6 type  1   force =    -0.00609222    0.00351539   -0.01028959
     atom    7 type  1   force =     0.00609267    0.00352254   -0.01029070
     atom    8 type  2   force =    -0.00000125    0.00000056    0.00686905
     atom    9 type  1   force =     0.00000003   -0.00186661   -0.00051223
     atom   10 type  1   force =    -0.00160829    0.00093461   -0.00051498
     atom   11 type  1   force =     0.00160951    0.00093446   -0.00051374
     atom   12 type  2   force =    -0.00000052    0.00000045    0.00177261

     Total force =     0.062263     Total SCF correction =     0.003509

     entering subroutine stress ...

     negative rho (up, down):  2.167E-03 0.000E+00
          total   stress  (Ry/bohr**3)                   (kbar)     P=   -4.99
  -0.00003932  -0.00000000   0.00000000         -5.78     -0.00      0.00
  -0.00000000  -0.00003932   0.00000000         -0.00     -5.78      0.00
   0.00000000   0.00000000  -0.00002305          0.00      0.00     -3.39

 !ASE

     Writing output data file calc.save

     General routines

     Parallel routines

   This run was terminated on:  14: 1:12   2Jan2019

   JOB DONE.
Job  /afs/slac/g/suncat/bin/suncat-tsmpirun -x LD_LIBRARY_PATH -wdir /scratch/qe649427_HKoDb pw.x -in pw.inp

TID   HOST_NAME   COMMAND_LINE            STATUS            TERMINATION_TIME
00000 suncat0068 pw.x -in pw.inp   Done                     01/02/2019 14:01:12
00001 suncat0068 pw.x -in pw.inp   Done                     01/02/2019 14:01:12
00002 suncat0068 pw.x -in pw.inp   Done                     01/02/2019 14:01:12
00003 suncat0068 pw.x -in pw.inp   Done                     01/02/2019 14:01:12
00004 suncat0068 pw.x -in pw.inp   Done                     01/02/2019 14:01:12
00005 suncat0068 pw.x -in pw.inp   Done                     01/02/2019 14:01:12
00006 suncat0068 pw.x -in pw.inp   Done                     01/02/2019 14:01:12
00007 suncat0068 pw.x -in pw.inp   Done                     01/02/2019 14:01:12
00008 suncat0065 pw.x -in pw.inp   Done                     01/02/2019 14:01:12
00009 suncat0065 pw.x -in pw.inp   Done                     01/02/2019 14:01:12
00010 suncat0065 pw.x -in pw.inp   Done                     01/02/2019 14:01:12
00011 suncat0065 pw.x -in pw.inp   Done                     01/02/2019 14:01:12
00012 suncat0065 pw.x -in pw.inp   Done                     01/02/2019 14:01:12
00013 suncat0065 pw.x -in pw.inp   Done                     01/02/2019 14:01:12
00014 suncat0065 pw.x -in pw.inp   Done                     01/02/2019 14:01:12
00015 suncat0065 pw.x -in pw.inp   Done                     01/02/2019 14:01:12
00016 suncat0064 pw.x -in pw.inp   Done                     01/02/2019 14:01:12
00017 suncat0064 pw.x -in pw.inp   Done                     01/02/2019 14:01:12
00018 suncat0064 pw.x -in pw.inp   Done                     01/02/2019 14:01:12
00019 suncat0064 pw.x -in pw.inp   Done                     01/02/2019 14:01:12
00020 suncat0064 pw.x -in pw.inp   Done                     01/02/2019 14:01:12
00021 suncat0064 pw.x -in pw.inp   Done                     01/02/2019 14:01:12
00022 suncat0064 pw.x -in pw.inp   Done                     01/02/2019 14:01:12
00023 suncat0064 pw.x -in pw.inp   Done                     01/02/2019 14:01:12
00024 suncat0059 pw.x -in pw.inp   Done                     01/02/2019 14:01:12
00025 suncat0059 pw.x -in pw.inp   Done                     01/02/2019 14:01:12
00026 suncat0059 pw.x -in pw.inp   Done                     01/02/2019 14:01:12
00027 suncat0059 pw.x -in pw.inp   Done                     01/02/2019 14:01:12
00028 suncat0059 pw.x -in pw.inp   Done                     01/02/2019 14:01:12
00029 suncat0059 pw.x -in pw.inp   Done                     01/02/2019 14:01:12
00030 suncat0059 pw.x -in pw.inp   Done                     01/02/2019 14:01:12
00031 suncat0059 pw.x -in pw.inp   Done                     01/02/2019 14:01:12
00032 suncat0169 pw.x -in pw.inp   Done                     01/02/2019 14:01:12
00033 suncat0169 pw.x -in pw.inp   Done                     01/02/2019 14:01:12
00034 suncat0169 pw.x -in pw.inp   Done                     01/02/2019 14:01:12
00035 suncat0169 pw.x -in pw.inp   Done                     01/02/2019 14:01:12
00036 suncat0169 pw.x -in pw.inp   Done                     01/02/2019 14:01:12
00037 suncat0169 pw.x -in pw.inp   Done                     01/02/2019 14:01:12
00038 suncat0169 pw.x -in pw.inp   Done                     01/02/2019 14:01:12
00039 suncat0169 pw.x -in pw.inp   Done                     01/02/2019 14:01:12
00040 suncat0168 pw.x -in pw.inp   Done                     01/02/2019 14:01:12
00041 suncat0168 pw.x -in pw.inp   Done                     01/02/2019 14:01:12
00042 suncat0168 pw.x -in pw.inp   Done                     01/02/2019 14:01:12
00043 suncat0168 pw.x -in pw.inp   Done                     01/02/2019 14:01:12
00044 suncat0168 pw.x -in pw.inp   Done                     01/02/2019 14:01:12
00045 suncat0168 pw.x -in pw.inp   Done                     01/02/2019 14:01:12
00046 suncat0168 pw.x -in pw.inp   Done                     01/02/2019 14:01:12
00047 suncat0168 pw.x -in pw.inp   Done                     01/02/2019 14:01:12
00048 suncat0156 pw.x -in pw.inp   Done                     01/02/2019 14:01:12
00049 suncat0156 pw.x -in pw.inp   Done                     01/02/2019 14:01:12
00050 suncat0156 pw.x -in pw.inp   Done                     01/02/2019 14:01:12
00051 suncat0156 pw.x -in pw.inp   Done                     01/02/2019 14:01:12
00052 suncat0156 pw.x -in pw.inp   Done                     01/02/2019 14:01:12
00053 suncat0156 pw.x -in pw.inp   Done                     01/02/2019 14:01:12
00054 suncat0156 pw.x -in pw.inp   Done                     01/02/2019 14:01:12
00055 suncat0156 pw.x -in pw.inp   Done                     01/02/2019 14:01:12
00056 suncat0153 pw.x -in pw.inp   Done                     01/02/2019 14:01:12
00057 suncat0153 pw.x -in pw.inp   Done                     01/02/2019 14:01:12
00058 suncat0153 pw.x -in pw.inp   Done                     01/02/2019 14:01:12
00059 suncat0153 pw.x -in pw.inp   Done                     01/02/2019 14:01:12
00060 suncat0153 pw.x -in pw.inp   Done                     01/02/2019 14:01:12
00061 suncat0153 pw.x -in pw.inp   Done                     01/02/2019 14:01:12
00062 suncat0153 pw.x -in pw.inp   Done                     01/02/2019 14:01:12
00063 suncat0153 pw.x -in pw.inp   Done                     01/02/2019 14:01:12