     Program PWSCF v.5.1rc2 (svn rev. 11289) starts on 27Dec2018 at 16:25:34

     Current dimensions of program PWSCF are:
     Max number of different atomic species (ntypx) = 10
     Max number of k-points (npk) =  40000
     Max angular momentum in pseudopotentials (lmaxx) =  3
     Presently stress not available with electric field

     IMPORTANT: XC functional enforced from input :
     Exchange-correlation      = BEEF-VDW ( 1  4 27 13 2)
     Any further DFT definition will be discarded
     Please, verify this is what you really want

     Subspace diagonalization in iterative solution of the eigenvalue problem:
     a serial algorithm will be used

     bravais-lattice index     =            0
     lattice parameter (alat)  =       1.8897  a.u.
     unit-cell volume          =    6712.1611 (a.u.)^3
     number of atoms/cell      =           12
     number of atomic types    =            2
     number of electrons       =       165.00
     number of Kohn-Sham states=          112
     kinetic-energy cutoff     =      36.7493  Ry
     charge density cutoff     =     367.4932  Ry
     convergence threshold     =      1.0E-06
     mixing beta               =       0.1000
     number of iterations used =           10  plain     mixing
     Exchange-correlation      = BEEF-VDW ( 1  4 27 13 2)
     nstep                     =           50

     celldm(1)=   1.889726  celldm(2)=   0.000000  celldm(3)=   0.000000
     celldm(4)=   0.000000  celldm(5)=   0.000000  celldm(6)=   0.000000

     crystal axes: (cart. coord. in units of alat)
               a(1) = (   6.713579   0.000000   0.000000 )
               a(2) = (  -3.356789   5.814130   0.000000 )
               a(3) = (   0.000000   0.000000  25.481614 )

     reciprocal axes: (cart. coord. in units 2 pi/alat)
               b(1) = (  0.148952  0.085997  0.000000 )
               b(2) = (  0.000000  0.171995  0.000000 )
               b(3) = (  0.000000  0.000000  0.039244 )

     PseudoPot. # 1 for Pb read from file:
     /afs/slac.stanford.edu/u/if/mamunm/psp/gbrv1.5pbe/Pb.UPF
     MD5 check sum: 3d1c1779aa92214d1e8f3a7db79003e2
     Pseudo is Ultrasoft + core correction, Zval = 14.0
     Generated by new atomic code, or converted to UPF format
     Using radial grid of  899 points,  6 beta functions with:
                l(1) =   0
                l(2) =   0
                l(3) =   1
                l(4) =   1
                l(5) =   2
                l(6) =   2
     Q(r) pseudized with  6 coefficients,  rinner =    1.000   1.000   1.000
                                                       1.000   1.000

     PseudoPot. # 2 for V  read from file:
     /afs/slac.stanford.edu/u/if/mamunm/psp/gbrv1.5pbe/V.UPF
     MD5 check sum: 22b79981416ebb76fdaf5b1b8640f6fb
     Pseudo is Ultrasoft + core correction, Zval = 13.0
     Generated by new atomic code, or converted to UPF format
     Using radial grid of  853 points,  6 beta functions with:
                l(1) =   0
                l(2) =   0
                l(3) =   1
                l(4) =   1
                l(5) =   2
                l(6) =   2
     Q(r) pseudized with  8 coefficients,  rinner =    1.100   1.100   1.100
                                                       1.100   1.100

     vdW kernel table read from file vdW_kernel_table
     MD5 check sum: 095c7af220d748ca6e76c0b4c6cfb241

     atomic species   valence    mass     pseudopotential
        Pb1           14.00   207.20000     Pb( 1.00)
        V1            13.00    50.94150     V ( 1.00)

     No symmetry found

   Cartesian axes

     site n.     atom                  positions (alat units)
         1           Pb1 tau(   1) = (   0.0000000   0.0000000  10.0000000  )
         2           Pb1 tau(   2) = (  -1.6783947   2.9070650  10.0000000  )
         3           Pb1 tau(   3) = (   1.6783947   2.9070650  10.0000000  )
         4           V1  tau(   4) = (   3.3567895   0.0000000  10.0000000  )
         5           Pb1 tau(   5) = (   3.3567895   1.9380433  12.7408071  )
         6           Pb1 tau(   6) = (   1.6783947   4.8451083  12.7408071  )
         7           Pb1 tau(   7) = (  -1.6783947   4.8451083  12.7408071  )
         8           V1  tau(   8) = (   0.0000000   1.9380433  12.7408071  )
         9           Pb1 tau(   9) = (   0.0000000   3.8760866  15.4816143  )
        10           Pb1 tau(  10) = (   1.6783947   0.9690217  15.4816143  )
        11           Pb1 tau(  11) = (   5.0351842   0.9690217  15.4816143  )
        12           V1  tau(  12) = (   3.3567895   3.8760866  15.4816143  )

     number of k points=    20  Fermi-Dirac smearing, width (Ry)=  0.0110
                       cart. coord. in units 2pi/alat
        k(    1) = (   0.0000000   0.0000000   0.0000000), wk =   0.0555556
        k(    2) = (   0.0000000   0.0286658   0.0000000), wk =   0.1111111
        k(    3) = (   0.0000000   0.0573316   0.0000000), wk =   0.1111111
        k(    4) = (   0.0000000  -0.0859974   0.0000000), wk =   0.0555556
        k(    5) = (   0.0248253   0.0143329   0.0000000), wk =   0.1111111
        k(    6) = (   0.0248253   0.0429987   0.0000000), wk =   0.1111111
        k(    7) = (   0.0248253   0.0716645   0.0000000), wk =   0.1111111
        k(    8) = (   0.0248253  -0.0716645   0.0000000), wk =   0.1111111
        k(    9) = (   0.0248253  -0.0429987   0.0000000), wk =   0.1111111
        k(   10) = (   0.0248253  -0.0143329   0.0000000), wk =   0.1111111
        k(   11) = (   0.0496506   0.0286658   0.0000000), wk =   0.1111111
        k(   12) = (   0.0496506   0.0573316   0.0000000), wk =   0.1111111
        k(   13) = (   0.0496506   0.0859974   0.0000000), wk =   0.1111111
        k(   14) = (   0.0496506  -0.0573316   0.0000000), wk =   0.1111111
        k(   15) = (   0.0496506  -0.0286658   0.0000000), wk =   0.1111111
        k(   16) = (   0.0496506   0.0000000   0.0000000), wk =   0.1111111
        k(   17) = (  -0.0744759  -0.0429987   0.0000000), wk =   0.0555556
        k(   18) = (  -0.0744759  -0.0143329   0.0000000), wk =   0.1111111
        k(   19) = (  -0.0744759   0.0143329   0.0000000), wk =   0.1111111
        k(   20) = (  -0.0744759  -0.1289961   0.0000000), wk =   0.0555556

     Largest allocated arrays     est. size (Mb)     dimensions
     Largest temporary arrays     est. size (Mb)     dimensions

     Check: negative/imaginary core charge=   -0.000001    0.000000

     Initial potential from superposition of free atoms
     Check: negative starting charge=   -0.151912

     starting charge  164.97515, renormalised to  165.00000

     negative rho (up, down):  1.519E-01 0.000E+00

     *
     * You are using vdW-DF for exchange-correlation in this calculation.
     * Please cite the following three references that made this development
     * possible:
     *
     *   M. Dion, H. Rydberg, E. Schroder, D. C. Langreth, and
     *   B. I. Lundqvist, Phys. Rev. Lett. 92, 246401 (2004).
     *
     *   T. Thonhauser, V. R. Cooper, S. Li, A. Puzder, P. Hyldgaard, and
     *   D. C. Langreth, Phys. Rev. B 76, 125112 (2007).
     *
     *   G. Roman-Perez and J. M. Soler, Phys. Rev. Lett. 103, 096102 (2009).
     *
     *
     * If you are using vdW-DF2, please also cite:
     *
     *   K. Lee, E. D. Murray, L. Kong, B. I. Lundqvist, and
     *   D. C. Langreth, Phys. Rev. B 82, 081101(R) (2010).
     *
     *
     * If you are calculating the stress with vdW-DF, please also cite:
     *
     *   R. Sabatini, E. Kucukbenli, B. Kolb, T. Thonhauser, and
     *   S. de Gironcoli, J. Phys.: Condens. Matter 24, 424209 (2012).
     *

     Carrying out vdW-DF run using the following parameters:

     Nqs =      20    Nr_points =    1024   r_max =   100.000
     q_mesh =
               0.00001000     0.04494208     0.09755937     0.15916263
               0.23128650     0.31572767     0.41458969     0.53033537
               0.66584808     0.82450364     1.01025438     1.22772762
               1.48234092     1.78043706     2.12944203     2.53805004
               3.01644009     3.57652955     4.23227104     5.00000000

     Gradients computed in reciprocal space

     Adding external electric field

     Computed dipole along edir(3) :
        Dipole                0.0000 Ry au,          0.0000 Debye
        Dipole field          0.0000 Ry au

        Potential amp.       -0.0000 Ry
        Total length         46.9494 bohr

     Starting wfc are  111 randomized atomic wfcs +    1 random wfc

     Self-consistent Calculation

     iteration #  1     ecut=    36.75 Ry     beta=0.10
     Davidson diagonalization with overlap
     ethr =  1.00E-02,  avg # of iterations =  5.5

[...]

     total energy              =   -1929.71933840 Ry
     Harris-Foulkes estimate   =   -1931.32320244 Ry
     estimated scf accuracy    <       8.88103843 Ry

[...]

     End of self-consistent calculation

          k = 0.0000 0.0000 0.0000 ( 25317 PWs)   bands (ev):

   -63.5555 -63.5555 -63.5140 -37.4195 -37.4194 -37.3727 -37.3727 -37.3727
   -37.3727 -37.3686 -37.3686 -37.2668 -16.4478 -16.4109 -16.4109 -16.4017
   -16.3905 -16.3683 -16.3176 -16.3176 -16.3087 -16.3087 -16.2719 -16.2719
   -16.2647 -16.2531 -16.2193 -16.2193 -16.2182 -16.1717 -16.1717 -16.1700
   -16.1516 -16.1189 -16.1080 -16.1080 -16.0940 -16.0940 -16.0911 -16.0911
   -16.0773 -16.0773 -16.0763 -16.0667 -16.0667 -16.0536 -16.0536 -16.0212
   -16.0212 -15.9744 -15.9744 -15.9542 -15.9507 -15.9507 -15.9310 -15.8998
   -15.8972 -10.1059  -9.0071  -7.6545  -6.8528  -6.8528  -6.2751  -6.2751
    -5.5758  -5.5758  -2.9869  -2.3108  -2.0365  -1.8436  -1.8436  -1.5582
    -0.8307  -0.8307  -0.5818  -0.5818  -0.1771   0.8221   0.8221   0.8420
     0.8420   1.1950   1.2287   1.2287   1.2440   1.2976   1.2976   1.3124
     1.3124   1.4292   1.4292   1.4328   1.6394   1.9260   2.7758   3.2334
     3.2334   3.2392   3.2392   3.9330   4.2814   4.3139   4.3335   4.8271
     5.2009   5.2009   5.3359   5.4953   5.6366   5.7040   5.7040   6.6603

[...]

          k =-0.0745-0.0430 0.0000 ( 25258 PWs)   bands (ev):

[...]

     the Fermi energy is     1.0775 ev

!    total energy              =   -1930.92845712 Ry
     Harris-Foulkes estimate   =   -1930.92848873 Ry
     estimated scf accuracy    <       0.00000077 Ry

     The total energy is the sum of the following terms:

     one-electron contribution =   -9860.18367141 Ry
     hartree contribution      =    4978.77292563 Ry
     xc contribution           =    -648.68130701 Ry
     ewald contribution        =    3599.29234370 Ry
     electric field correction =       0.00000000 Ry
     smearing contrib. (-TS)   =      -0.12874803 Ry

     convergence has been achieved in  24 iterations

 BEEF-vdW xc energy contributions
           1 :   -576.493842276507
           2 :    533.708629690000
           3 :   -459.124934203447
           4 :    370.112661094345
           5 :   -283.881681052305
           6 :    212.086626282956
           7 :   -158.612171816310
           8 :    120.778835179577
           9 :   -92.6940018100000
          10 :    68.8158809329341
          11 :   -46.1961541143849
          12 :    24.8480460048080
          13 :   -6.65475358844026
[...]
     /afs/slac.stanford.edu/u/if/mamunm/psp/gbrv1.5pbe/Pb.UPF
     MD5 check sum: 3d1c1779aa92214d1e8f3a7db79003e2
     Pseudo is Ultrasoft + core correction, Zval = 14.0
     Generated by new atomic code, or converted to UPF format
     Using radial grid of  899 points,  6 beta functions with:
                l(1) =   0
                l(2) =   0
                l(3) =   1
                l(4) =   1
                l(5) =   2
                l(6) =   2
     Q(r) pseudized with  6 coefficients,  rinner =    1.000   1.000   1.000
                                                       1.000   1.000

     PseudoPot. # 2 for V  read from file:
     /afs/slac.stanford.edu/u/if/mamunm/psp/gbrv1.5pbe/V.UPF
     MD5 check sum: 22b79981416ebb76fdaf5b1b8640f6fb
     Pseudo is Ultrasoft + core correction, Zval = 13.0
     Generated by new atomic code, or converted to UPF format
     Using radial grid of  853 points,  6 beta functions with:
                l(1) =   0
                l(2) =   0
                l(3) =   1
                l(4) =   1
                l(5) =   2
                l(6) =   2
     Q(r) pseudized with  8 coefficients,  rinner =    1.100   1.100   1.100
                                                       1.100   1.100

     vdW kernel table read from file vdW_kernel_table
     MD5 check sum: 095c7af220d748ca6e76c0b4c6cfb241

     atomic species   valence    mass     pseudopotential
        Pb1           14.00   207.20000     Pb( 1.00)
        V1            13.00    50.94150     V ( 1.00)

     No symmetry found

   Cartesian axes

     site n.     atom                  positions (alat units)
         1           Pb1 tau(   1) = (   0.0000000   0.0000000  10.0000000  )
         2           Pb1 tau(   2) = (  -1.6783947   2.9070650  10.0000000  )
         3           Pb1 tau(   3) = (   1.6783947   2.9070650  10.0000000  )
         4           V1  tau(   4) = (   3.3567895   0.0000000  10.0000000  )
         5           Pb1 tau(   5) = (   3.3567895   1.9380433  12.7408071  )
         6           Pb1 tau(   6) = (   1.6783947   4.8451083  12.7408071  )
         7           Pb1 tau(   7) = (  -1.6783947   4.8451083  12.7408071  )
         8           V1  tau(   8) = (   0.0000000   1.9380433  12.7408071  )
         9           Pb1 tau(   9) = (  -0.0000148   3.8130522  15.5853477  )
        10           Pb1 tau(  10) = (   1.6237935   1.0005324  15.5853171  )
        11           Pb1 tau(  11) = (   5.0897588   1.0005396  15.5853504  )
        12           V1  tau(  12) = (   3.3568002   3.8760888  14.8419783  )

     number of k points=    20  Fermi-Dirac smearing, width (Ry)=  0.0110
                       cart. coord. in units 2pi/alat
        k(    1) = (   0.0000000   0.0000000   0.0000000), wk =   0.0555556
        k(    2) = (   0.0000000   0.0286658   0.0000000), wk =   0.1111111
        k(    3) = (   0.0000000   0.0573316   0.0000000), wk =   0.1111111
        k(    4) = (   0.0000000  -0.0859974   0.0000000), wk =   0.0555556
        k(    5) = (   0.0248253   0.0143329   0.0000000), wk =   0.1111111
        k(    6) = (   0.0248253   0.0429987   0.0000000), wk =   0.1111111
        k(    7) = (   0.0248253   0.0716645   0.0000000), wk =   0.1111111
        k(    8) = (   0.0248253  -0.0716645   0.0000000), wk =   0.1111111
        k(    9) = (   0.0248253  -0.0429987   0.0000000), wk =   0.1111111
        k(   10) = (   0.0248253  -0.0143329   0.0000000), wk =   0.1111111
        k(   11) = (   0.0496506   0.0286658   0.0000000), wk =   0.1111111
        k(   12) = (   0.0496506   0.0573316   0.0000000), wk =   0.1111111
        k(   13) = (   0.0496506   0.0859974   0.0000000), wk =   0.1111111
        k(   14) = (   0.0496506  -0.0573316   0.0000000), wk =   0.1111111
        k(   15) = (   0.0496506  -0.0286658   0.0000000), wk =   0.1111111
        k(   16) = (   0.0496506   0.0000000   0.0000000), wk =   0.1111111
        k(   17) = (  -0.0744759  -0.0429987   0.0000000), wk =   0.0555556
        k(   18) = (  -0.0744759  -0.0143329   0.0000000), wk =   0.1111111
        k(   19) = (  -0.0744759   0.0143329   0.0000000), wk =   0.1111111
        k(   20) = (  -0.0744759  -0.1289961   0.0000000), wk =   0.0555556

     Largest allocated arrays     est. size (Mb)     dimensions
     Largest temporary arrays     est. size (Mb)     dimensions

     Check: negative/imaginary core charge=   -0.000001    0.000000

     Initial potential from superposition of free atoms
     Check: negative starting charge=   -0.151165

     starting charge  164.97515, renormalised to  165.00000

[...]

     *
     * You are using vdW-DF for exchange-correlation in this calculation.
     * Please cite the following three references that made this development
     * possible:
     *
     *   M. Dion, H. Rydberg, E. Schroder, D. C. Langreth, and
     *   B. I. Lundqvist, Phys. Rev. Lett. 92, 246401 (2004).
     *
     *   T. Thonhauser, V. R. Cooper, S. Li, A. Puzder, P. Hyldgaard, and
     *   D. C. Langreth, Phys. Rev. B 76, 125112 (2007).
     *
     *   G. Roman-Perez and J. M. Soler, Phys. Rev. Lett. 103, 096102 (2009).
     *
     *
     * If you are using vdW-DF2, please also cite:
     *
     *   K. Lee, E. D. Murray, L. Kong, B. I. Lundqvist, and
     *   D. C. Langreth, Phys. Rev. B 82, 081101(R) (2010).
     *
     *
     * If you are calculating the stress with vdW-DF, please also cite:
     *
     *   R. Sabatini, E. Kucukbenli, B. Kolb, T. Thonhauser, and
     *   S. de Gironcoli, J. Phys.: Condens. Matter 24, 424209 (2012).
     *

     Carrying out vdW-DF run using the following parameters:

     Nqs =      20    Nr_points =    1024   r_max =   100.000
     q_mesh =
               0.00001000     0.04494208     0.09755937     0.15916263
               0.23128650     0.31572767     0.41458969     0.53033537
               0.66584808     0.82450364     1.01025438     1.22772762
               1.48234092     1.78043706     2.12944203     2.53805004
               3.01644009     3.57652955     4.23227104     5.00000000

     Gradients computed in reciprocal space

[...]

     Starting wfc are  111 randomized atomic wfcs +    1 random wfc

     Self-consistent Calculation

[...]

     total energy              =   -1930.96887558 Ry
     Harris-Foulkes estimate   =   -1930.96887537 Ry
     estimated scf accuracy    <       0.00000128 Ry

     iteration # 21     ecut=    36.75 Ry     beta=0.10
     Davidson diagonalization with overlap
     ethr =  7.76E-10,  avg # of iterations =  2.0

[...]

     negative rho (up, down):  1.649E-01 0.000E+00

     Adding external electric field

     Computed dipole along edir(3) :
        Dipole                0.0249 Ry au,          0.0634 Debye
        Dipole field          0.0000 Ry au

        Potential amp.       -0.0044 Ry
        Total length         46.9494 bohr

     End of self-consistent calculation

[...]

          k = 0.0497 0.0000 0.0000 ( 25212 PWs)   bands (ev):

[...]

          k =-0.0745-0.1290 0.0000 ( 25258 PWs)   bands (ev):

   -63.6371 -63.5609 -63.5246 -37.5246 -37.4405 -37.4404 -37.4089 -37.4089
   -37.3728 -37.3728 -37.3452 -37.3253 -16.4243 -16.3748 -16.3574 -16.3450
   -16.3243 -16.3156 -16.2977 -16.2815 -16.2775 -16.2725 -16.2528 -16.2360
   -16.2264 -16.2132 -16.2112 -16.2085 -16.1940 -16.1890 -16.1887 -16.1808
   -16.1693 -16.1647 -16.1548 -16.1521 -16.1495 -16.1467 -16.1392 -16.1283
   -16.1261 -16.1215 -16.1133 -16.1112 -16.1099 -16.0986 -16.0970 -16.0948
   -16.0884 -16.0797 -16.0678 -16.0634 -16.0515 -16.0305 -15.9942 -15.9772
   -15.9550  -9.2399  -8.8938  -8.1515  -7.6636  -7.2027  -7.1690  -6.7389
    -6.3027  -5.5037  -2.7593  -2.2155  -1.5243  -0.7573  -0.5494  -0.5127
    -0.3451  -0.2677  -0.0805   0.2692   0.3011   0.3838   0.7346   0.7920
     0.9766   0.9896   1.0966   1.1535   1.2084   1.2455   1.2861   1.4091
     1.4700   1.5586   1.7561   1.8679   1.9705   2.2730   2.3183   2.5136
     2.7727   3.2557   3.3639   3.4593   3.5684   4.1186   4.4068   4.4131
     4.6733   5.0192   5.1442   5.2816   5.4240   5.4953   5.7958   5.9104

     the Fermi energy is     1.0354 ev

!    total energy              =   -1930.96883970 Ry
     Harris-Foulkes estimate   =   -1930.96887571 Ry
     estimated scf accuracy    <       0.00000060 Ry

     The total energy is the sum of the following terms:

     one-electron contribution =   -9945.54358527 Ry
     hartree contribution      =    5021.30216140 Ry
     xc contribution           =    -648.73872610 Ry
     ewald contribution        =    3642.12637991 Ry
     electric field correction =       0.00000116 Ry
     smearing contrib. (-TS)   =      -0.11507082 Ry

     convergence has been achieved in  21 iterations

 BEEF-vdW xc energy contributions
           1 :   -576.554816486950
           2 :    533.796009502191
           3 :   -459.244678334445
           4 :    370.238566268888
           5 :   -283.967536310186
           6 :    212.098120870648
           7 :   -158.551485888527
           8 :    120.681486844194
           9 :   -92.6030281367316
          10 :    68.7565770061649
          11 :   -46.1708517152895
          12 :    24.8492659704489
          13 :   -6.67902076858968
          14 :   -6.24245406375985
          15 :    12.9837266864290
          16 :   -14.3376186297044
          17 :    12.4714374539315
          18 :   -9.95476037121421
          19 :    8.66489246730475
          20 :   -9.09707091242581
          21 :    10.4017776772754
          22 :   -11.1070816252924
          23 :    10.1102125536662
          24 :   -7.37811921342268
          25 :    3.96887343366097
          26 :   -1.39287348802384
          27 :   0.718396431237466
          28 :   -1.96586848071286
          29 :    4.13892959712462
          30 :   -5.84376287307737
          31 :   -47.2542985643548
          32 :   -34.5478431807750

     Forces acting on atoms (Ry/au):

     negative rho (up, down):  1.649E-01 0.000E+00
     atom    1 type  1   force =    -0.00000018    0.01565932   -0.01112945
     atom    2 type  1   force =     0.01356166   -0.00783001   -0.01112992
     atom    3 type  1   force =    -0.01356171   -0.00782983   -0.01112971
     atom    4 type  2   force =     0.00000000   -0.00000006    0.05472409
     atom    5 type  1   force =     0.00000035   -0.01234463   -0.00736047
     atom    6 type  1   force =    -0.01069062    0.00617227   -0.00735957
     atom    7 type  1   force =     0.01069098    0.00617204   -0.00736157
     atom    8 type  2   force =    -0.00000009   -0.00000003    0.00300242
     atom    9 type  1   force =     0.00000015   -0.00023045   -0.00090131
     atom   10 type  1   force =    -0.00020011    0.00011589   -0.00090005
     atom   11 type  1   force =     0.00019973    0.00011552   -0.00090099
     atom   12 type  2   force =    -0.00000015   -0.00000003    0.00044652

     Total force =     0.068801     Total SCF correction =     0.001699

     entering subroutine stress ...

     negative rho (up, down):  1.649E-01 0.000E+00
          total   stress  (Ry/bohr**3)                   (kbar)     P=   -6.67
  -0.00005908   0.00000000  -0.00000000         -8.69      0.00     -0.00
   0.00000000  -0.00005908   0.00000000          0.00     -8.69      0.00
  -0.00000000   0.00000000  -0.00001780         -0.00      0.00     -2.62

 !ASE

     Writing output data file calc.save

     General routines

     Parallel routines

   This run was terminated on:  19:28:15  27Dec2018

   JOB DONE.
Job  /afs/slac/g/suncat/bin/suncat-tsmpirun -x LD_LIBRARY_PATH -wdir /scratch/qe110422_wNGez pw.x -in pw.inp

TID   HOST_NAME   COMMAND_LINE            STATUS            TERMINATION_TIME
00000 suncat0138 pw.x -in pw.inp   Done                     12/27/2018 19:28:15
00001 suncat0138 pw.x -in pw.inp   Done                     12/27/2018 19:28:15
00002 suncat0138 pw.x -in pw.inp   Done                     12/27/2018 19:28:15
00003 suncat0138 pw.x -in pw.inp   Done                     12/27/2018 19:28:15
00004 suncat0138 pw.x -in pw.inp   Done                     12/27/2018 19:28:15
00005 suncat0138 pw.x -in pw.inp   Done                     12/27/2018 19:28:15
00006 suncat0138 pw.x -in pw.inp   Done                     12/27/2018 19:28:15
00007 suncat0138 pw.x -in pw.inp   Done                     12/27/2018 19:28:15
00008 suncat0113 pw.x -in pw.inp   Done                     12/27/2018 19:28:15
00009 suncat0113 pw.x -in pw.inp   Done                     12/27/2018 19:28:15
00010 suncat0113 pw.x -in pw.inp   Done                     12/27/2018 19:28:15
00011 suncat0113 pw.x -in pw.inp   Done                     12/27/2018 19:28:15
00012 suncat0113 pw.x -in pw.inp   Done                     12/27/2018 19:28:15
00013 suncat0113 pw.x -in pw.inp   Done                     12/27/2018 19:28:15
00014 suncat0113 pw.x -in pw.inp   Done                     12/27/2018 19:28:15
00015 suncat0113 pw.x -in pw.inp   Done                     12/27/2018 19:28:15
00016 suncat0110 pw.x -in pw.inp   Done                     12/27/2018 19:28:15
00017 suncat0110 pw.x -in pw.inp   Done                     12/27/2018 19:28:15
00018 suncat0110 pw.x -in pw.inp   Done                     12/27/2018 19:28:15
00019 suncat0110 pw.x -in pw.inp   Done                     12/27/2018 19:28:15
00020 suncat0110 pw.x -in pw.inp   Done                     12/27/2018 19:28:15
00021 suncat0110 pw.x -in pw.inp   Done                     12/27/2018 19:28:15
00022 suncat0110 pw.x -in pw.inp   Done                     12/27/2018 19:28:15
00023 suncat0110 pw.x -in pw.inp   Done                     12/27/2018 19:28:15
00024 suncat0109 pw.x -in pw.inp   Done                     12/27/2018 19:28:15
00025 suncat0109 pw.x -in pw.inp   Done                     12/27/2018 19:28:15
00026 suncat0109 pw.x -in pw.inp   Done                     12/27/2018 19:28:15
00027 suncat0109 pw.x -in pw.inp   Done                     12/27/2018 19:28:15
00028 suncat0109 pw.x -in pw.inp   Done                     12/27/2018 19:28:15
00029 suncat0109 pw.x -in pw.inp   Done                     12/27/2018 19:28:15
00030 suncat0109 pw.x -in pw.inp   Done                     12/27/2018 19:28:15
00031 suncat0109 pw.x -in pw.inp   Done                     12/27/2018 19:28:15
00032 suncat0262 pw.x -in pw.inp   Done                     12/27/2018 19:28:15
00033 suncat0262 pw.x -in pw.inp   Done                     12/27/2018 19:28:15
00034 suncat0262 pw.x -in pw.inp   Done                     12/27/2018 19:28:15
00035 suncat0262 pw.x -in pw.inp   Done                     12/27/2018 19:28:15
00036 suncat0262 pw.x -in pw.inp   Done                     12/27/2018 19:28:15
00037 suncat0262 pw.x -in pw.inp   Done                     12/27/2018 19:28:15
00038 suncat0262 pw.x -in pw.inp   Done                     12/27/2018 19:28:15
00039 suncat0262 pw.x -in pw.inp   Done                     12/27/2018 19:28:15
00040 suncat0258 pw.x -in pw.inp   Done                     12/27/2018 19:28:15
00041 suncat0258 pw.x -in pw.inp   Done                     12/27/2018 19:28:15
00042 suncat0258 pw.x -in pw.inp   Done                     12/27/2018 19:28:15
00043 suncat0258 pw.x -in pw.inp   Done                     12/27/2018 19:28:15
00044 suncat0258 pw.x -in pw.inp   Done                     12/27/2018 19:28:15
00045 suncat0258 pw.x -in pw.inp   Done                     12/27/2018 19:28:15
00046 suncat0258 pw.x -in pw.inp   Done                     12/27/2018 19:28:15
00047 suncat0258 pw.x -in pw.inp   Done                     12/27/2018 19:28:15
00048 suncat0257 pw.x -in pw.inp   Done                     12/27/2018 19:28:15
00049 suncat0257 pw.x -in pw.inp   Done                     12/27/2018 19:28:15
00050 suncat0257 pw.x -in pw.inp   Done                     12/27/2018 19:28:15
00051 suncat0257 pw.x -in pw.inp   Done                     12/27/2018 19:28:15
00052 suncat0257 pw.x -in pw.inp   Done                     12/27/2018 19:28:15
00053 suncat0257 pw.x -in pw.inp   Done                     12/27/2018 19:28:15
00054 suncat0257 pw.x -in pw.inp   Done                     12/27/2018 19:28:15
00055 suncat0257 pw.x -in pw.inp   Done                     12/27/2018 19:28:15
00056 suncat0251 pw.x -in pw.inp   Done                     12/27/2018 19:28:15
00057 suncat0251 pw.x -in pw.inp   Done                     12/27/2018 19:28:15
00058 suncat0251 pw.x -in pw.inp   Done                     12/27/2018 19:28:15
00059 suncat0251 pw.x -in pw.inp   Done                     12/27/2018 19:28:15
00060 suncat0251 pw.x -in pw.inp   Done                     12/27/2018 19:28:15
00061 suncat0251 pw.x -in pw.inp   Done                     12/27/2018 19:28:15
00062 suncat0251 pw.x -in pw.inp   Done                     12/27/2018 19:28:15
00063 suncat0251 pw.x -in pw.inp   Done                     12/27/2018 19:28:15