     Program PWSCF v.5.1rc2 (svn rev. 11289) starts on  2Jan2019 at  4:20:25

     Current dimensions of program PWSCF are:
     Max number of different atomic species (ntypx) = 10
     Max number of k-points (npk) =  40000
     Max angular momentum in pseudopotentials (lmaxx) =  3
     Presently stress not available with electric field

     IMPORTANT: XC functional enforced from input :
     Exchange-correlation      = BEEF-VDW ( 1  4 27 13 2)
     Any further DFT definition will be discarded
     Please, verify this is what you really want

     Subspace diagonalization in iterative solution of the eigenvalue problem:
     a serial algorithm will be used

     bravais-lattice index     =            0
     lattice parameter (alat)  =       1.8897  a.u.
     unit-cell volume          =    4628.1669 (a.u.)^3
     number of atoms/cell      =           12
     number of atomic types    =            2
     number of electrons       =       153.00
     number of Kohn-Sham states=          106
     kinetic-energy cutoff     =      36.7493  Ry
     charge density cutoff     =     367.4932  Ry
     convergence threshold     =      1.0E-06
     mixing beta               =       0.1000
     number of iterations used =           10  plain     mixing
     Exchange-correlation      = BEEF-VDW ( 1  4 27 13 2)
     nstep                     =           50

     celldm(1)=   1.889726  celldm(2)=   0.000000  celldm(3)=   0.000000
     celldm(4)=   0.000000  celldm(5)=   0.000000  celldm(6)=   0.000000

     crystal axes: (cart. coord. in units of alat)
               a(1) = (   5.670355   0.000000   0.000000 )
               a(2) = (  -2.835177   4.910671   0.000000 )
               a(3) = (   0.000000   0.000000  24.629825 )

     reciprocal axes: (cart. coord. in units 2 pi/alat)
               b(1) = (  0.176356  0.101819  0.000000 )
               b(2) = (  0.000000  0.203638  0.000000 )
               b(3) = (  0.000000  0.000000  0.040601 )

     PseudoPot. # 1 for V  read from file:
     /afs/slac.stanford.edu/u/if/mamunm/psp/gbrv1.5pbe/V.UPF
     MD5 check sum: 22b79981416ebb76fdaf5b1b8640f6fb
     Pseudo is Ultrasoft + core correction, Zval = 13.0
     Generated by new atomic code, or converted to UPF format
     Using radial grid of  853 points,  6 beta functions with:
                l(1) =   0
                l(2) =   0
                l(3) =   1
                l(4) =   1
                l(5) =   2
                l(6) =   2
     Q(r) pseudized with  8 coefficients,  rinner =    1.100   1.100   1.100
                                                       1.100   1.100

     PseudoPot. # 2 for Hf read from file:
     /afs/slac.stanford.edu/u/if/mamunm/psp/gbrv1.5pbe/Hf.UPF
     MD5 check sum: 8ee9378dfe14276e333edf04c5e4aa26
     Pseudo is Ultrasoft + core correction, Zval = 12.0
     Generated by new atomic code, or converted to UPF format
     Using radial grid of  921 points,  8 beta functions with:
                l(1) =   0
                l(2) =   0
                l(3) =   0
                l(4) =   1
                l(5) =   1
                l(6) =   2
                l(7) =   2
                l(8) =   3
     Q(r) pseudized with  6 coefficients,  rinner =    1.200   1.200   1.200
                                                       1.200   1.200   1.200
                                                       1.200

     vdW kernel table read from file vdW_kernel_table
     MD5 check sum: 095c7af220d748ca6e76c0b4c6cfb241

     atomic species   valence    mass     pseudopotential
        V1            13.00    50.94150     V ( 1.00)
        Hf1           12.00   178.49000     Hf( 1.00)

     No symmetry found

   Cartesian axes

     site n.     atom                  positions (alat units)
         1           V1  tau(   1) = (   0.0000000   0.0000000  10.0000000  )
         2           V1  tau(   2) = (  -1.4175887   2.4553356  10.0000000  )
         3           V1  tau(   3) = (   1.4175887   2.4553356  10.0000000  )
         4           Hf1 tau(   4) = (   2.8351773   0.0000000  10.0000000  )
         5           V1  tau(   5) = (   2.8351773   1.6368904  12.3149126  )
         6           V1  tau(   6) = (   1.4175887   4.0922260  12.3149126  )
         7           V1  tau(   7) = (  -1.4175887   4.0922260  12.3149126  )
         8           Hf1 tau(   8) = (   0.0000000   1.6368904  12.3149126  )
         9           V1  tau(   9) = (  -0.0000000   3.2737808  14.6298252  )
        10           V1  tau(  10) = (   1.4175887   0.8184452  14.6298252  )
        11           V1  tau(  11) = (   4.2527660   0.8184452  14.6298252  )
        12           Hf1 tau(  12) = (   2.8351773   3.2737808  14.6298252  )

     number of k points=    20  Fermi-Dirac smearing, width (Ry)=  0.0110
                       cart. coord. in units 2pi/alat
        k(    1) = (   0.0000000   0.0000000   0.0000000), wk =   0.0555556
        k(    2) = (   0.0000000   0.0339397   0.0000000), wk =   0.1111111
        k(    3) = (   0.0000000   0.0678794   0.0000000), wk =   0.1111111
        k(    4) = (   0.0000000  -0.1018191   0.0000000), wk =   0.0555556
        k(    5) = (   0.0293926   0.0169698   0.0000000), wk =   0.1111111
        k(    6) = (   0.0293926   0.0509095   0.0000000), wk =   0.1111111
        k(    7) = (   0.0293926   0.0848492   0.0000000), wk =   0.1111111
        k(    8) = (   0.0293926  -0.0848492   0.0000000), wk =   0.1111111
        k(    9) = (   0.0293926  -0.0509095   0.0000000), wk =   0.1111111
        k(   10) = (   0.0293926  -0.0169698   0.0000000), wk =   0.1111111
        k(   11) = (   0.0587853   0.0339397   0.0000000), wk =   0.1111111
        k(   12) = (   0.0587853   0.0678794   0.0000000), wk =   0.1111111
        k(   13) = (   0.0587853   0.1018191   0.0000000), wk =   0.1111111
        k(   14) = (   0.0587853  -0.0678794   0.0000000), wk =   0.1111111
        k(   15) = (   0.0587853  -0.0339397   0.0000000), wk =   0.1111111
        k(   16) = (   0.0587853   0.0000000   0.0000000), wk =   0.1111111
        k(   17) = (  -0.0881779  -0.0509095   0.0000000), wk =   0.0555556
        k(   18) = (  -0.0881779  -0.0169698   0.0000000), wk =   0.1111111
        k(   19) = (  -0.0881779   0.0169698   0.0000000), wk =   0.1111111
        k(   20) = (  -0.0881779  -0.1527286   0.0000000), wk =   0.0555556

     Largest allocated arrays     est. size (Mb)     dimensions
     Largest temporary arrays     est. size (Mb)     dimensions

     Check: negative/imaginary core charge=   -0.000003    0.000000

     Initial potential from superposition of free atoms
     Check: negative starting charge=   -0.325459

     starting charge  146.98895, renormalised to  153.00000

     negative rho (up, down):  3.388E-01 0.000E+00

     *
     * You are using vdW-DF for exchange-correlation in this calculation.
     * Please cite the following three references that made this development
     * possible:
     *
     *   M. Dion, H. Rydberg, E. Schroder, D. C. Langreth, and
     *   B. I. Lundqvist, Phys. Rev. Lett. 92, 246401 (2004).
     *
     *   T. Thonhauser, V. R. Cooper, S. Li, A. Puzder, P. Hyldgaard, and
     *   D. C. Langreth, Phys. Rev. B 76, 125112 (2007).
     *
     *   G. Roman-Perez and J. M. Soler, Phys. Rev. Lett. 103, 096102 (2009).
     *
     *
     * If you are using vdW-DF2, please also cite:
     *
     *   K. Lee, E. D. Murray, L. Kong, B. I. Lundqvist, and
     *   D. C. Langreth, Phys. Rev. B 82, 081101(R) (2010).
     *
     *
     * If you are calculating the stress with vdW-DF, please also cite:
     *
     *   R. Sabatini, E. Kucukbenli, B. Kolb, T. Thonhauser, and
     *   S. de Gironcoli, J. Phys.: Condens. Matter 24, 424209 (2012).
     *

     Carrying out vdW-DF run using the following parameters:

     Nqs =      20    Nr_points =    1024   r_max =   100.000
     q_mesh =
               0.00001000     0.04494208     0.09755937     0.15916263
               0.23128650     0.31572767     0.41458969     0.53033537
               0.66584808     0.82450364     1.01025438     1.22772762
               1.48234092     1.78043706     2.12944203     2.53805004
               3.01644009     3.57652955     4.23227104     5.00000000

     Gradients computed in reciprocal space

     Adding external electric field

     Computed dipole along edir(3) :
        Dipole               -0.0000 Ry au,         -0.0000 Debye
        Dipole field         -0.0000 Ry au

        Potential amp.        0.0000 Ry
        Total length         45.3800 bohr

     Starting wfc are  129 randomized atomic wfcs

     Self-consistent Calculation

     iteration #  1     ecut=    36.75 Ry     beta=0.10
     Davidson diagonalization with overlap
     ethr =  1.00E-02,  avg # of iterations =  2.9

[...]

     total energy              =   -1793.47368550 Ry
     Harris-Foulkes estimate   =   -1795.96880343 Ry
     estimated scf accuracy    <      15.20332796 Ry

[...]

     End of self-consistent calculation

          k = 0.0000 0.0000 0.0000 ( 17471 PWs)   bands (ev):

   -63.2294 -63.1798 -63.1795 -63.1582 -63.1518 -63.1137 -63.1136 -63.1122
   -63.1121 -60.9924 -60.9919 -60.5416 -37.2261 -37.1392 -37.1390 -37.1309
   -37.1118 -37.0977 -37.0778 -37.0777 -37.0193 -37.0077 -37.0076 -36.9781
   -36.9780 -36.9544 -36.9544 -36.9283 -36.8874 -36.8779 -36.8777 -36.8486
   -36.8484 -36.8248 -36.8093 -36.7687 -36.7686 -36.7671 -36.7670 -29.6312
   -29.6157 -29.5280 -29.5280 -29.5240 -29.5240 -29.1703 -29.1404 -29.1404
    -5.1451  -3.6565  -2.4267  -1.9687  -1.9687  -1.7513  -1.7513  -1.6475
    -1.4462  -1.2221  -1.2220  -1.0056  -1.0056  -0.9615  -0.9436  -0.2337
    -0.2337  -0.0562   0.6668   0.7955   0.7955   0.8791   0.9266   1.0889
     1.3134   1.3134   1.3750   1.3967   1.4102   1.4102   1.5251   1.5251
     1.6518   1.6518   1.6881   1.7392   1.7393   2.0072   2.0073   2.1331
     2.2392   2.5028   2.5029   2.7327   2.7327   2.9062   2.9779   2.9779
     3.0364   3.0365   3.1700   3.5619   3.6599   3.7056   4.1502   4.1503
     4.2370   4.2371

[...]

          k =-0.0882-0.0509 0.0000 ( 17412 PWs)   bands (ev):

[...]

     the Fermi energy is     1.0761 ev

!    total energy              =   -1793.14521485 Ry
     Harris-Foulkes estimate   =   -1793.14521448 Ry
     estimated scf accuracy    <       0.00000064 Ry

     The total energy is the sum of the following terms:

     one-electron contribution =  -12717.93395021 Ry
     hartree contribution      =    6345.23240439 Ry
     xc contribution           =    -415.10320670 Ry
     ewald contribution        =    4994.81214012 Ry
     electric field correction =       0.00000000 Ry
     smearing contrib. (-TS)   =      -0.15260246 Ry

     convergence has been achieved in  26 iterations

 BEEF-vdW xc energy contributions
           1 :   -367.323174582767
           2 :    336.365910944316
           3 :   -283.445881917443
           4 :    222.408156457872
           5 :   -166.215704143647
           6 :    122.536571706743
           7 :   -92.5855478128113
           8 :    73.0596618094474
           9 :   -59.4596490442389
          10 :    48.7159080015297
          11 :   -39.9691950059974
[...]
     MD5 check sum: 22b79981416ebb76fdaf5b1b8640f6fb
     Pseudo is Ultrasoft + core correction, Zval = 13.0
     Generated by new atomic code, or converted to UPF format
     Using radial grid of  853 points,  6 beta functions with:
                l(1) =   0
                l(2) =   0
                l(3) =   1
                l(4) =   1
                l(5) =   2
                l(6) =   2
     Q(r) pseudized with  8 coefficients,  rinner =    1.100   1.100   1.100
                                                       1.100   1.100

     PseudoPot. # 2 for Hf read from file:
     /afs/slac.stanford.edu/u/if/mamunm/psp/gbrv1.5pbe/Hf.UPF
     MD5 check sum: 8ee9378dfe14276e333edf04c5e4aa26
     Pseudo is Ultrasoft + core correction, Zval = 12.0
     Generated by new atomic code, or converted to UPF format
     Using radial grid of  921 points,  8 beta functions with:
                l(1) =   0
                l(2) =   0
                l(3) =   0
                l(4) =   1
                l(5) =   1
                l(6) =   2
                l(7) =   2
                l(8) =   3
     Q(r) pseudized with  6 coefficients,  rinner =    1.200   1.200   1.200
                                                       1.200   1.200   1.200
                                                       1.200

     vdW kernel table read from file vdW_kernel_table
     MD5 check sum: 095c7af220d748ca6e76c0b4c6cfb241

     atomic species   valence    mass     pseudopotential
        V1            13.00    50.94150     V ( 1.00)
        Hf1           12.00   178.49000     Hf( 1.00)

     No symmetry found

   Cartesian axes

     site n.     atom                  positions (alat units)
         1           V1  tau(   1) = (   0.0000000   0.0000000  10.0000000  )
         2           V1  tau(   2) = (  -1.4175887   2.4553356  10.0000000  )
         3           V1  tau(   3) = (   1.4175887   2.4553356  10.0000000  )
         4           Hf1 tau(   4) = (   2.8351773   0.0000000  10.0000000  )
         5           V1  tau(   5) = (   2.8351773   1.6368904  12.3149126  )
         6           V1  tau(   6) = (   1.4175887   4.0922260  12.3149126  )
         7           V1  tau(   7) = (  -1.4175887   4.0922260  12.3149126  )
         8           Hf1 tau(   8) = (   0.0000000   1.6368904  12.3149126  )
         9           V1  tau(   9) = (   0.0000494   3.4840109  14.4545922  )
        10           V1  tau(  10) = (   1.5994546   0.7128417  14.4547073  )
        11           V1  tau(  11) = (   4.0708796   0.7127681  14.4546314  )
        12           Hf1 tau(  12) = (   2.8350520   3.2741253  14.7551748  )

     number of k points=    20  Fermi-Dirac smearing, width (Ry)=  0.0110
                       cart. coord. in units 2pi/alat
        k(    1) = (   0.0000000   0.0000000   0.0000000), wk =   0.0555556
        k(    2) = (   0.0000000   0.0339397   0.0000000), wk =   0.1111111
        k(    3) = (   0.0000000   0.0678794   0.0000000), wk =   0.1111111
        k(    4) = (   0.0000000  -0.1018191   0.0000000), wk =   0.0555556
        k(    5) = (   0.0293926   0.0169698   0.0000000), wk =   0.1111111
        k(    6) = (   0.0293926   0.0509095   0.0000000), wk =   0.1111111
        k(    7) = (   0.0293926   0.0848492   0.0000000), wk =   0.1111111
        k(    8) = (   0.0293926  -0.0848492   0.0000000), wk =   0.1111111
        k(    9) = (   0.0293926  -0.0509095   0.0000000), wk =   0.1111111
        k(   10) = (   0.0293926  -0.0169698   0.0000000), wk =   0.1111111
        k(   11) = (   0.0587853   0.0339397   0.0000000), wk =   0.1111111
        k(   12) = (   0.0587853   0.0678794   0.0000000), wk =   0.1111111
        k(   13) = (   0.0587853   0.1018191   0.0000000), wk =   0.1111111
        k(   14) = (   0.0587853  -0.0678794   0.0000000), wk =   0.1111111
        k(   15) = (   0.0587853  -0.0339397   0.0000000), wk =   0.1111111
        k(   16) = (   0.0587853   0.0000000   0.0000000), wk =   0.1111111
        k(   17) = (  -0.0881779  -0.0509095   0.0000000), wk =   0.0555556
        k(   18) = (  -0.0881779  -0.0169698   0.0000000), wk =   0.1111111
        k(   19) = (  -0.0881779   0.0169698   0.0000000), wk =   0.1111111
        k(   20) = (  -0.0881779  -0.1527286   0.0000000), wk =   0.0555556

     Largest allocated arrays     est. size (Mb)     dimensions
     Largest temporary arrays     est. size (Mb)     dimensions

     Check: negative/imaginary core charge=   -0.000003    0.000000

     Initial potential from superposition of free atoms
     Check: negative starting charge=   -0.326200

     starting charge  146.98895, renormalised to  153.00000

[...]

     *
     * You are using vdW-DF for exchange-correlation in this calculation.
     * Please cite the following three references that made this development
     * possible:
     *
     *   M. Dion, H. Rydberg, E. Schroder, D. C. Langreth, and
     *   B. I. Lundqvist, Phys. Rev. Lett. 92, 246401 (2004).
     *
     *   T. Thonhauser, V. R. Cooper, S. Li, A. Puzder, P. Hyldgaard, and
     *   D. C. Langreth, Phys. Rev. B 76, 125112 (2007).
     *
     *   G. Roman-Perez and J. M. Soler, Phys. Rev. Lett. 103, 096102 (2009).
     *
     *
     * If you are using vdW-DF2, please also cite:
     *
     *   K. Lee, E. D. Murray, L. Kong, B. I. Lundqvist, and
     *   D. C. Langreth, Phys. Rev. B 82, 081101(R) (2010).
     *
     *
     * If you are calculating the stress with vdW-DF, please also cite:
     *
     *   R. Sabatini, E. Kucukbenli, B. Kolb, T. Thonhauser, and
     *   S. de Gironcoli, J. Phys.: Condens. Matter 24, 424209 (2012).
     *

     Carrying out vdW-DF run using the following parameters:

     Nqs =      20    Nr_points =    1024   r_max =   100.000
     q_mesh =
               0.00001000     0.04494208     0.09755937     0.15916263
               0.23128650     0.31572767     0.41458969     0.53033537
               0.66584808     0.82450364     1.01025438     1.22772762
               1.48234092     1.78043706     2.12944203     2.53805004
               3.01644009     3.57652955     4.23227104     5.00000000

     Gradients computed in reciprocal space

[...]

     Starting wfc are  129 randomized atomic wfcs

     Self-consistent Calculation

[...]

     total energy              =   -1793.19501115 Ry
     Harris-Foulkes estimate   =   -1793.19501108 Ry
     estimated scf accuracy    <       0.00000119 Ry

     iteration # 26     ecut=    36.75 Ry     beta=0.10
     Davidson diagonalization with overlap
     ethr =  7.76E-10,  avg # of iterations =  1.4

[...]

     negative rho (up, down):  3.503E-01 0.000E+00

     Adding external electric field

     Computed dipole along edir(3) :
        Dipole                0.0991 Ry au,          0.2520 Debye
        Dipole field          0.0003 Ry au

        Potential amp.       -0.0244 Ry
        Total length         45.3800 bohr

     End of self-consistent calculation

[...]

          k = 0.0588 0.0000 0.0000 ( 17441 PWs)   bands (ev):

[...]

          k =-0.0882-0.1527 0.0000 ( 17412 PWs)   bands (ev):

   -63.0838 -63.0650 -63.0452 -63.0175 -63.0051 -62.9905 -62.9741 -62.8836
   -62.8786 -61.2856 -60.8620 -60.5326 -37.1639 -37.0552 -37.0130 -36.9989
   -36.9890 -36.9444 -36.9194 -36.9074 -36.9030 -36.8803 -36.8453 -36.8414
   -36.8277 -36.8005 -36.7967 -36.7948 -36.7781 -36.7454 -36.7340 -36.7134
   -36.6598 -36.6538 -36.6459 -36.6391 -36.5562 -36.5406 -36.5022 -29.9104
   -29.7934 -29.7801 -29.4958 -29.4201 -29.4042 -29.1800 -29.1456 -29.1300
    -3.4549  -3.2569  -2.1987  -1.8683  -1.3773  -1.1642  -1.0725  -1.0490
    -0.9889  -0.8384  -0.4197  -0.4121  -0.2590  -0.1805  -0.1022  -0.0198
     0.0999   0.2396   0.3063   0.3081   0.3259   0.3628   0.5341   0.6956
     0.7366   0.7564   0.8357   0.9090   0.9298   1.0193   1.1994   1.2493
     1.3886   1.4782   1.5531   1.5927   1.6994   1.7763   1.8172   2.0256
     2.2214   2.2766   2.3078   2.4471   2.5392   2.5462   2.5898   2.5945
     2.9043   2.9833   3.0789   3.0884   3.1795   3.6112   3.8373   3.8404
     4.0359   4.0597

     the Fermi energy is     1.1925 ev

!    total energy              =   -1793.19501189 Ry
     Harris-Foulkes estimate   =   -1793.19501034 Ry
     estimated scf accuracy    <       0.00000043 Ry

     The total energy is the sum of the following terms:

     one-electron contribution =  -12914.06116358 Ry
     hartree contribution      =    6443.85108272 Ry
     xc contribution           =    -415.31259420 Ry
     ewald contribution        =    5092.46091684 Ry
     electric field correction =       0.00002669 Ry
     smearing contrib. (-TS)   =      -0.13328036 Ry

     convergence has been achieved in  26 iterations

 BEEF-vdW xc energy contributions
           1 :   -367.867826170190
           2 :    336.978260315962
           3 :   -284.122450499921
           4 :    223.054708914862
           5 :   -166.701237166964
           6 :    122.785800788356
           7 :   -92.6460066771896
           8 :    73.0869355919440
           9 :   -59.6218128770591
          10 :    49.0802491808765
          11 :   -40.4543407111672
          12 :    34.0930436003882
          13 :   -30.2769866614359
          14 :    28.2794562467842
          15 :   -26.4762977347983
          16 :    23.2669933764024
          17 :   -18.0796552827319
          18 :    11.7415611669433
          19 :   -5.98631015041849
          20 :    2.43823819136605
          21 :   -1.73569309824939
          22 :    3.30015731140543
          23 :   -5.80680439478749
          24 :    7.96295696747580
          25 :   -9.08088721223851
          26 :    9.15237931831490
          27 :   -8.51754408772513
          28 :    7.46022803841345
          29 :   -6.04127347839631
          30 :    4.23586714874489
          31 :   -31.3617887664848
          32 :   -22.5951766877964

     Forces acting on atoms (Ry/au):

     negative rho (up, down):  3.503E-01 0.000E+00
     atom    1 type  1   force =    -0.00000025   -0.01909814    0.01968056
     atom    2 type  1   force =    -0.01654181    0.00955000    0.01967861
     atom    3 type  1   force =     0.01654273    0.00955115    0.01968031
     atom    4 type  2   force =     0.00000706   -0.00000707   -0.01858391
     atom    5 type  1   force =    -0.00000526    0.02367932   -0.01296269
     atom    6 type  1   force =     0.02049055   -0.01183816   -0.01305810
     atom    7 type  1   force =    -0.02049075   -0.01183381   -0.01302965
     atom    8 type  2   force =     0.00003434   -0.00000416   -0.00297961
     atom    9 type  1   force =    -0.00003384   -0.00014603    0.00033270
     atom   10 type  1   force =    -0.00005910    0.00016749    0.00029988
     atom   11 type  1   force =     0.00001898    0.00018250    0.00029636
     atom   12 type  2   force =     0.00003735   -0.00020310    0.00064555

     Total force =     0.069285     Total SCF correction =     0.001987

     entering subroutine stress ...

     negative rho (up, down):  3.503E-01 0.000E+00
          total   stress  (Ry/bohr**3)                   (kbar)     P=  -13.24
  -0.00010869  -0.00000002  -0.00000000        -15.99     -0.00     -0.00
  -0.00000002  -0.00010872  -0.00000004         -0.00    -15.99     -0.01
  -0.00000000  -0.00000004  -0.00005257         -0.00     -0.01     -7.73

 !ASE

     Writing output data file calc.save

     General routines

     Parallel routines

   This run was terminated on:   8: 9:40   2Jan2019

   JOB DONE.
Job  /afs/slac/g/suncat/bin/suncat-tsmpirun -x LD_LIBRARY_PATH -wdir /scratch/qe649303_Tku2d pw.x -in pw.inp

TID   HOST_NAME   COMMAND_LINE            STATUS            TERMINATION_TIME
00000 suncat0082 pw.x -in pw.inp   Done                     01/02/2019 08:09:40
00001 suncat0082 pw.x -in pw.inp   Done                     01/02/2019 08:09:40
00002 suncat0082 pw.x -in pw.inp   Done                     01/02/2019 08:09:40
00003 suncat0082 pw.x -in pw.inp   Done                     01/02/2019 08:09:40
00004 suncat0082 pw.x -in pw.inp   Done                     01/02/2019 08:09:40
00005 suncat0082 pw.x -in pw.inp   Done                     01/02/2019 08:09:40
00006 suncat0082 pw.x -in pw.inp   Done                     01/02/2019 08:09:40
00007 suncat0082 pw.x -in pw.inp   Done                     01/02/2019 08:09:40
00008 suncat0081 pw.x -in pw.inp   Done                     01/02/2019 08:09:40
00009 suncat0081 pw.x -in pw.inp   Done                     01/02/2019 08:09:40
00010 suncat0081 pw.x -in pw.inp   Done                     01/02/2019 08:09:40
00011 suncat0081 pw.x -in pw.inp   Done                     01/02/2019 08:09:40
00012 suncat0081 pw.x -in pw.inp   Done                     01/02/2019 08:09:40
00013 suncat0081 pw.x -in pw.inp   Done                     01/02/2019 08:09:40
00014 suncat0081 pw.x -in pw.inp   Done                     01/02/2019 08:09:40
00015 suncat0081 pw.x -in pw.inp   Done                     01/02/2019 08:09:40
00016 suncat0080 pw.x -in pw.inp   Done                     01/02/2019 08:09:40
00017 suncat0080 pw.x -in pw.inp   Done                     01/02/2019 08:09:40
00018 suncat0080 pw.x -in pw.inp   Done                     01/02/2019 08:09:40
00019 suncat0080 pw.x -in pw.inp   Done                     01/02/2019 08:09:40
00020 suncat0080 pw.x -in pw.inp   Done                     01/02/2019 08:09:40
00021 suncat0080 pw.x -in pw.inp   Done                     01/02/2019 08:09:40
00022 suncat0080 pw.x -in pw.inp   Done                     01/02/2019 08:09:40
00023 suncat0080 pw.x -in pw.inp   Done                     01/02/2019 08:09:40
00024 suncat0063 pw.x -in pw.inp   Done                     01/02/2019 08:09:40
00025 suncat0063 pw.x -in pw.inp   Done                     01/02/2019 08:09:40
00026 suncat0063 pw.x -in pw.inp   Done                     01/02/2019 08:09:40
00027 suncat0063 pw.x -in pw.inp   Done                     01/02/2019 08:09:40
00028 suncat0063 pw.x -in pw.inp   Done                     01/02/2019 08:09:40
00029 suncat0063 pw.x -in pw.inp   Done                     01/02/2019 08:09:40
00030 suncat0063 pw.x -in pw.inp   Done                     01/02/2019 08:09:40
00031 suncat0063 pw.x -in pw.inp   Done                     01/02/2019 08:09:40
00032 suncat0040 pw.x -in pw.inp   Done                     01/02/2019 08:09:40
00033 suncat0040 pw.x -in pw.inp   Done                     01/02/2019 08:09:40
00034 suncat0040 pw.x -in pw.inp   Done                     01/02/2019 08:09:40
00035 suncat0040 pw.x -in pw.inp   Done                     01/02/2019 08:09:40
00036 suncat0040 pw.x -in pw.inp   Done                     01/02/2019 08:09:40
00037 suncat0040 pw.x -in pw.inp   Done                     01/02/2019 08:09:40
00038 suncat0040 pw.x -in pw.inp   Done                     01/02/2019 08:09:40
00039 suncat0040 pw.x -in pw.inp   Done                     01/02/2019 08:09:40
00040 suncat0017 pw.x -in pw.inp   Done                     01/02/2019 08:09:40
00041 suncat0017 pw.x -in pw.inp   Done                     01/02/2019 08:09:40
00042 suncat0017 pw.x -in pw.inp   Done                     01/02/2019 08:09:40
00043 suncat0017 pw.x -in pw.inp   Done                     01/02/2019 08:09:40
00044 suncat0017 pw.x -in pw.inp   Done                     01/02/2019 08:09:40
00045 suncat0017 pw.x -in pw.inp   Done                     01/02/2019 08:09:40
00046 suncat0017 pw.x -in pw.inp   Done                     01/02/2019 08:09:40
00047 suncat0017 pw.x -in pw.inp   Done                     01/02/2019 08:09:40
00048 suncat0195 pw.x -in pw.inp   Done                     01/02/2019 08:09:40
00049 suncat0195 pw.x -in pw.inp   Done                     01/02/2019 08:09:40
00050 suncat0195 pw.x -in pw.inp   Done                     01/02/2019 08:09:40
00051 suncat0195 pw.x -in pw.inp   Done                     01/02/2019 08:09:40
00052 suncat0195 pw.x -in pw.inp   Done                     01/02/2019 08:09:40
00053 suncat0195 pw.x -in pw.inp   Done                     01/02/2019 08:09:40
00054 suncat0195 pw.x -in pw.inp   Done                     01/02/2019 08:09:40
00055 suncat0195 pw.x -in pw.inp   Done                     01/02/2019 08:09:40
00056 suncat0003 pw.x -in pw.inp   Done                     01/02/2019 08:09:40
00057 suncat0003 pw.x -in pw.inp   Done                     01/02/2019 08:09:40
00058 suncat0003 pw.x -in pw.inp   Done                     01/02/2019 08:09:40
00059 suncat0003 pw.x -in pw.inp   Done                     01/02/2019 08:09:40
00060 suncat0003 pw.x -in pw.inp   Done                     01/02/2019 08:09:40
00061 suncat0003 pw.x -in pw.inp   Done                     01/02/2019 08:09:40
00062 suncat0003 pw.x -in pw.inp   Done                     01/02/2019 08:09:40
00063 suncat0003 pw.x -in pw.inp   Done                     01/02/2019 08:09:40