     Program PWSCF v.5.1rc2 (svn rev. 11289) starts on 27Dec2018 at 18:17:43

     Current dimensions of program PWSCF are:
     Max number of different atomic species (ntypx) = 10
     Max number of k-points (npk) =  40000
     Max angular momentum in pseudopotentials (lmaxx) =  3
     Presently stress not available with electric field

     IMPORTANT: XC functional enforced from input :
     Exchange-correlation      = BEEF-VDW ( 1  4 27 13 2)
     Any further DFT definition will be discarded
     Please, verify this is what you really want

     Subspace diagonalization in iterative solution of the eigenvalue problem:
     a serial algorithm will be used

     bravais-lattice index     =            0
     lattice parameter (alat)  =       1.8897  a.u.
     unit-cell volume          =    4508.7964 (a.u.)^3
     number of atoms/cell      =           12
     number of atomic types    =            2
     number of electrons       =       186.00
     number of Kohn-Sham states=          123
     kinetic-energy cutoff     =      36.7493  Ry
     charge density cutoff     =     367.4932  Ry
     convergence threshold     =      1.0E-06
     mixing beta               =       0.1000
     number of iterations used =           10  plain     mixing
     Exchange-correlation      = BEEF-VDW ( 1  4 27 13 2)
     nstep                     =           50

     celldm(1)=   1.889726  celldm(2)=   0.000000  celldm(3)=   0.000000
     celldm(4)=   0.000000  celldm(5)=   0.000000  celldm(6)=   0.000000

     crystal axes: (cart. coord. in units of alat)
               a(1) = (   5.603010   0.000000   0.000000 )
               a(2) = (  -2.801505   4.852349   0.000000 )
               a(3) = (   0.000000   0.000000  24.574838 )

     reciprocal axes: (cart. coord. in units 2 pi/alat)
               b(1) = (  0.178476  0.103043  0.000000 )
               b(2) = (  0.000000  0.206086  0.000000 )
               b(3) = (  0.000000  0.000000  0.040692 )

     PseudoPot. # 1 for Pd read from file:
     /afs/slac.stanford.edu/u/if/mamunm/psp/gbrv1.5pbe/Pd.UPF
     MD5 check sum: 2d733d2bc2cbfd217af676df1668a4bc
     Pseudo is Ultrasoft + core correction, Zval = 16.0
     Generated by new atomic code, or converted to UPF format
     Using radial grid of  887 points,  6 beta functions with:
                l(1) =   0
                l(2) =   0
                l(3) =   1
                l(4) =   1
                l(5) =   2
                l(6) =   2
     Q(r) pseudized with  8 coefficients,  rinner =    1.130   1.130   1.130
                                                       1.130   1.130

     PseudoPot. # 2 for W  read from file:
     /afs/slac.stanford.edu/u/if/mamunm/psp/gbrv1.5pbe/W.UPF
     MD5 check sum: 9c083fa34c2a2ea0f02f1f893e16e1c8
     Pseudo is Ultrasoft + core correction, Zval = 14.0
     Generated by new atomic code, or converted to UPF format
     Using radial grid of  923 points,  8 beta functions with:
                l(1) =   0
                l(2) =   0
                l(3) =   0
                l(4) =   1
                l(5) =   1
                l(6) =   2
                l(7) =   2
                l(8) =   3
     Q(r) pseudized with  6 coefficients,  rinner =    1.350   1.350   1.350
                                                       1.350   1.350   1.350
                                                       1.350

     vdW kernel table read from file vdW_kernel_table
     MD5 check sum: 095c7af220d748ca6e76c0b4c6cfb241

     atomic species   valence    mass     pseudopotential
        Pd1           16.00   106.42000     Pd( 1.00)
        W1            14.00   183.84000     W ( 1.00)

     No symmetry found

   Cartesian axes

     site n.     atom                  positions (alat units)
         1           Pd1 tau(   1) = (   0.0000000   0.0000000  10.0000000  )
         2           Pd1 tau(   2) = (  -1.4007524   2.4261743  10.0000000  )
         3           Pd1 tau(   3) = (   1.4007524   2.4261743  10.0000000  )
         4           W1  tau(   4) = (   2.8015048   0.0000000  10.0000000  )
         5           Pd1 tau(   5) = (   2.8015048   1.6174495  12.2874191  )
         6           Pd1 tau(   6) = (   1.4007524   4.0436238  12.2874191  )
         7           Pd1 tau(   7) = (  -1.4007524   4.0436238  12.2874191  )
         8           W1  tau(   8) = (   0.0000000   1.6174495  12.2874191  )
         9           Pd1 tau(   9) = (  -0.0000000   3.2348991  14.5748381  )
        10           Pd1 tau(  10) = (   1.4007524   0.8087248  14.5748381  )
        11           Pd1 tau(  11) = (   4.2022572   0.8087248  14.5748381  )
        12           W1  tau(  12) = (   2.8015048   3.2348991  14.5748381  )

     number of k points=    20  Fermi-Dirac smearing, width (Ry)=  0.0110
                       cart. coord. in units 2pi/alat
        k(    1) = (   0.0000000   0.0000000   0.0000000), wk =   0.0555556
        k(    2) = (   0.0000000   0.0343476   0.0000000), wk =   0.1111111
        k(    3) = (   0.0000000   0.0686953   0.0000000), wk =   0.1111111
        k(    4) = (   0.0000000  -0.1030429   0.0000000), wk =   0.0555556
        k(    5) = (   0.0297459   0.0171738   0.0000000), wk =   0.1111111
        k(    6) = (   0.0297459   0.0515214   0.0000000), wk =   0.1111111
        k(    7) = (   0.0297459   0.0858691   0.0000000), wk =   0.1111111
        k(    8) = (   0.0297459  -0.0858691   0.0000000), wk =   0.1111111
        k(    9) = (   0.0297459  -0.0515214   0.0000000), wk =   0.1111111
        k(   10) = (   0.0297459  -0.0171738   0.0000000), wk =   0.1111111
        k(   11) = (   0.0594918   0.0343476   0.0000000), wk =   0.1111111
        k(   12) = (   0.0594918   0.0686953   0.0000000), wk =   0.1111111
        k(   13) = (   0.0594918   0.1030429   0.0000000), wk =   0.1111111
        k(   14) = (   0.0594918  -0.0686953   0.0000000), wk =   0.1111111
        k(   15) = (   0.0594918  -0.0343476   0.0000000), wk =   0.1111111
        k(   16) = (   0.0594918  -0.0000000   0.0000000), wk =   0.1111111
        k(   17) = (  -0.0892378  -0.0515214   0.0000000), wk =   0.0555556
        k(   18) = (  -0.0892378  -0.0171738   0.0000000), wk =   0.1111111
        k(   19) = (  -0.0892378   0.0171738   0.0000000), wk =   0.1111111
        k(   20) = (  -0.0892378  -0.1545643   0.0000000), wk =   0.0555556

     Largest allocated arrays     est. size (Mb)     dimensions
     Largest temporary arrays     est. size (Mb)     dimensions

     Initial potential from superposition of free atoms
     Check: negative starting charge=   -0.866520

     starting charge  181.19892, renormalised to  186.00000

     negative rho (up, down):  8.895E-01 0.000E+00

     *
     * You are using vdW-DF for exchange-correlation in this calculation.
     * Please cite the following three references that made this development
     * possible:
     *
     *   M. Dion, H. Rydberg, E. Schroder, D. C. Langreth, and
     *   B. I. Lundqvist, Phys. Rev. Lett. 92, 246401 (2004).
     *
     *   T. Thonhauser, V. R. Cooper, S. Li, A. Puzder, P. Hyldgaard, and
     *   D. C. Langreth, Phys. Rev. B 76, 125112 (2007).
     *
     *   G. Roman-Perez and J. M. Soler, Phys. Rev. Lett. 103, 096102 (2009).
     *
     *
     * If you are using vdW-DF2, please also cite:
     *
     *   K. Lee, E. D. Murray, L. Kong, B. I. Lundqvist, and
     *   D. C. Langreth, Phys. Rev. B 82, 081101(R) (2010).
     *
     *
     * If you are calculating the stress with vdW-DF, please also cite:
     *
     *   R. Sabatini, E. Kucukbenli, B. Kolb, T. Thonhauser, and
     *   S. de Gironcoli, J. Phys.: Condens. Matter 24, 424209 (2012).
     *

     Carrying out vdW-DF run using the following parameters:

     Nqs =      20    Nr_points =    1024   r_max =   100.000
     q_mesh =
               0.00001000     0.04494208     0.09755937     0.15916263
               0.23128650     0.31572767     0.41458969     0.53033537
               0.66584808     0.82450364     1.01025438     1.22772762
               1.48234092     1.78043706     2.12944203     2.53805004
               3.01644009     3.57652955     4.23227104     5.00000000

     Gradients computed in reciprocal space

     Adding external electric field

     Computed dipole along edir(3) :
        Dipole               -0.0000 Ry au,         -0.0000 Debye
        Dipole field         -0.0000 Ry au

        Potential amp.        0.0000 Ry
        Total length         45.2787 bohr

     Starting wfc are  147 randomized atomic wfcs

     Self-consistent Calculation

     iteration #  1     ecut=    36.75 Ry     beta=0.10
     Davidson diagonalization with overlap
     ethr =  1.00E-02,  avg # of iterations =  7.0

[...]

     total energy              =   -2277.85450485 Ry
     Harris-Foulkes estimate   =   -2282.65582724 Ry
     estimated scf accuracy    <      27.98412240 Ry

[...]

     End of self-consistent calculation

          k = 0.0000 0.0000 0.0000 ( 16907 PWs)   bands (ev):

   -73.8423 -73.5353 -73.5352 -49.3364 -49.2848 -49.2847 -49.2038 -49.2037
   -49.1704 -49.1058 -49.0007 -49.0007 -48.9491 -48.9491 -48.9211 -48.9211
   -48.8520 -48.8497 -48.8481 -48.8472 -48.6866 -48.6866 -48.6835 -48.6835
   -48.6325 -48.6148 -48.5585 -48.5585 -48.5536 -48.5536 -37.8435 -37.8362
   -37.8362 -37.5740 -37.5684 -37.5347 -37.5347 -37.5330 -37.5330  -5.7503
    -4.2560  -4.2237  -3.9548  -3.9548  -3.8450  -3.5830  -3.5830  -3.5799
    -3.3992  -3.3992  -3.3233  -3.1088  -3.1088  -3.0788  -2.1356  -2.1356
    -2.0876  -1.9249  -1.9249  -1.7254  -1.5624  -1.5348  -1.5347  -1.5076
    -1.2731  -1.2731  -1.2231  -1.0709  -1.0709  -1.0163  -1.0163  -0.6710
    -0.6710  -0.3720  -0.0456  -0.0455  -0.0026  -0.0026   0.0681   0.0681
     0.3920   0.4600   0.7052   0.7064   0.7064   0.8323   1.0356   1.0786
     1.4314   1.9192   1.9192   2.2283   2.2283   2.4021   2.4845   2.4845
     2.6751   2.7154   2.7154   2.7392   2.7392   3.2552   3.2552   3.3286
     3.3286   3.5013   4.9955   4.9955   5.0037   5.0037   5.2780   5.4277
     6.0250   6.2373   6.6720   7.5881   8.0108   8.1988   8.5922   8.7169
     8.7169   8.7400   8.7400

[...]

          k =-0.0892-0.0515 0.0000 ( 16988 PWs)   bands (ev):

[...]

     the Fermi energy is     1.6832 ev

!    total energy              =   -2279.17069562 Ry
     Harris-Foulkes estimate   =   -2279.17070182 Ry
     estimated scf accuracy    <       0.00000094 Ry

     The total energy is the sum of the following terms:

     one-electron contribution =  -19025.72099148 Ry
     hartree contribution      =    9541.68515334 Ry
     xc contribution           =    -419.71734159 Ry
     ewald contribution        =    7624.66035277 Ry
     electric field correction =       0.00000000 Ry
     smearing contrib. (-TS)   =      -0.07786866 Ry

     convergence has been achieved in  15 iterations

 BEEF-vdW xc energy contributions
           1 :   -366.648303604700
           2 :    336.593446540210
           3 :   -284.651139552320
           4 :    223.831894328077
           5 :   -167.188423805690
           6 :    123.646012345365
           7 :   -95.9888205211708
           8 :    81.4487584343956
           9 :   -74.2452695780649
[...]
     Generated by new atomic code, or converted to UPF format
     Using radial grid of  887 points,  6 beta functions with:
                l(1) =   0
                l(2) =   0
                l(3) =   1
                l(4) =   1
                l(5) =   2
                l(6) =   2
     Q(r) pseudized with  8 coefficients,  rinner =    1.130   1.130   1.130
                                                       1.130   1.130

     PseudoPot. # 2 for W  read from file:
     /afs/slac.stanford.edu/u/if/mamunm/psp/gbrv1.5pbe/W.UPF
     MD5 check sum: 9c083fa34c2a2ea0f02f1f893e16e1c8
     Pseudo is Ultrasoft + core correction, Zval = 14.0
     Generated by new atomic code, or converted to UPF format
     Using radial grid of  923 points,  8 beta functions with:
                l(1) =   0
                l(2) =   0
                l(3) =   0
                l(4) =   1
                l(5) =   1
                l(6) =   2
                l(7) =   2
                l(8) =   3
     Q(r) pseudized with  6 coefficients,  rinner =    1.350   1.350   1.350
                                                       1.350   1.350   1.350
                                                       1.350

     vdW kernel table read from file vdW_kernel_table
     MD5 check sum: 095c7af220d748ca6e76c0b4c6cfb241

     atomic species   valence    mass     pseudopotential
        Pd1           16.00   106.42000     Pd( 1.00)
        W1            14.00   183.84000     W ( 1.00)

     No symmetry found

   Cartesian axes

     site n.     atom                  positions (alat units)
         1           Pd1 tau(   1) = (   0.0000000   0.0000000  10.0000000  )
         2           Pd1 tau(   2) = (  -1.4007524   2.4261743  10.0000000  )
         3           Pd1 tau(   3) = (   1.4007524   2.4261743  10.0000000  )
         4           W1  tau(   4) = (   2.8015048   0.0000000  10.0000000  )
         5           Pd1 tau(   5) = (   2.8015048   1.6174495  12.2874191  )
         6           Pd1 tau(   6) = (   1.4007524   4.0436238  12.2874191  )
         7           Pd1 tau(   7) = (  -1.4007524   4.0436238  12.2874191  )
         8           W1  tau(   8) = (   0.0000000   1.6174495  12.2874191  )
         9           Pd1 tau(   9) = (   0.0000011   3.1999322  14.5677380  )
        10           Pd1 tau(  10) = (   1.3704699   0.8262124  14.5677363  )
        11           Pd1 tau(  11) = (   4.2325415   0.8262109  14.5677364  )
        12           W1  tau(  12) = (   2.8015099   3.2349056  14.4481236  )

     number of k points=    20  Fermi-Dirac smearing, width (Ry)=  0.0110
                       cart. coord. in units 2pi/alat
        k(    1) = (   0.0000000   0.0000000   0.0000000), wk =   0.0555556
        k(    2) = (   0.0000000   0.0343476   0.0000000), wk =   0.1111111
        k(    3) = (   0.0000000   0.0686953   0.0000000), wk =   0.1111111
        k(    4) = (   0.0000000  -0.1030429   0.0000000), wk =   0.0555556
        k(    5) = (   0.0297459   0.0171738   0.0000000), wk =   0.1111111
        k(    6) = (   0.0297459   0.0515214   0.0000000), wk =   0.1111111
        k(    7) = (   0.0297459   0.0858691   0.0000000), wk =   0.1111111
        k(    8) = (   0.0297459  -0.0858691   0.0000000), wk =   0.1111111
        k(    9) = (   0.0297459  -0.0515214   0.0000000), wk =   0.1111111
        k(   10) = (   0.0297459  -0.0171738   0.0000000), wk =   0.1111111
        k(   11) = (   0.0594918   0.0343476   0.0000000), wk =   0.1111111
        k(   12) = (   0.0594918   0.0686953   0.0000000), wk =   0.1111111
        k(   13) = (   0.0594918   0.1030429   0.0000000), wk =   0.1111111
        k(   14) = (   0.0594918  -0.0686953   0.0000000), wk =   0.1111111
        k(   15) = (   0.0594918  -0.0343476   0.0000000), wk =   0.1111111
        k(   16) = (   0.0594918  -0.0000000   0.0000000), wk =   0.1111111
        k(   17) = (  -0.0892378  -0.0515214   0.0000000), wk =   0.0555556
        k(   18) = (  -0.0892378  -0.0171738   0.0000000), wk =   0.1111111
        k(   19) = (  -0.0892378   0.0171738   0.0000000), wk =   0.1111111
        k(   20) = (  -0.0892378  -0.1545643   0.0000000), wk =   0.0555556

     Largest allocated arrays     est. size (Mb)     dimensions
     Largest temporary arrays     est. size (Mb)     dimensions

     Initial potential from superposition of free atoms
     Check: negative starting charge=   -0.867522

     starting charge  181.19892, renormalised to  186.00000

[...]

     *
     * You are using vdW-DF for exchange-correlation in this calculation.
     * Please cite the following three references that made this development
     * possible:
     *
     *   M. Dion, H. Rydberg, E. Schroder, D. C. Langreth, and
     *   B. I. Lundqvist, Phys. Rev. Lett. 92, 246401 (2004).
     *
     *   T. Thonhauser, V. R. Cooper, S. Li, A. Puzder, P. Hyldgaard, and
     *   D. C. Langreth, Phys. Rev. B 76, 125112 (2007).
     *
     *   G. Roman-Perez and J. M. Soler, Phys. Rev. Lett. 103, 096102 (2009).
     *
     *
     * If you are using vdW-DF2, please also cite:
     *
     *   K. Lee, E. D. Murray, L. Kong, B. I. Lundqvist, and
     *   D. C. Langreth, Phys. Rev. B 82, 081101(R) (2010).
     *
     *
     * If you are calculating the stress with vdW-DF, please also cite:
     *
     *   R. Sabatini, E. Kucukbenli, B. Kolb, T. Thonhauser, and
     *   S. de Gironcoli, J. Phys.: Condens. Matter 24, 424209 (2012).
     *

     Carrying out vdW-DF run using the following parameters:

     Nqs =      20    Nr_points =    1024   r_max =   100.000
     q_mesh =
               0.00001000     0.04494208     0.09755937     0.15916263
               0.23128650     0.31572767     0.41458969     0.53033537
               0.66584808     0.82450364     1.01025438     1.22772762
               1.48234092     1.78043706     2.12944203     2.53805004
               3.01644009     3.57652955     4.23227104     5.00000000

     Gradients computed in reciprocal space

[...]

     Starting wfc are  147 randomized atomic wfcs

     Self-consistent Calculation

[...]

     total energy              =   -2279.17935281 Ry
     Harris-Foulkes estimate   =   -2279.17935462 Ry
     estimated scf accuracy    <       0.00000738 Ry

     iteration # 17     ecut=    36.75 Ry     beta=0.10
     Davidson diagonalization with overlap
     ethr =  3.97E-09,  avg # of iterations =  1.0

[...]

     negative rho (up, down):  9.095E-01 0.000E+00

     Adding external electric field

     Computed dipole along edir(3) :
        Dipole                0.0121 Ry au,          0.0307 Debye
        Dipole field          0.0000 Ry au

        Potential amp.       -0.0030 Ry
        Total length         45.2787 bohr

     End of self-consistent calculation

[...]

          k = 0.0595-0.0000 0.0000 ( 16970 PWs)   bands (ev):

[...]

          k =-0.0892-0.1546 0.0000 ( 16988 PWs)   bands (ev):

   -73.8152 -73.5394 -73.4851 -49.3957 -49.3487 -49.3220 -49.3056 -49.2835
   -49.2512 -49.1314 -49.0993 -49.0506 -48.9385 -48.9246 -48.9110 -48.8931
   -48.8762 -48.8696 -48.8060 -48.7718 -48.7431 -48.7244 -48.7020 -48.6769
   -48.6241 -48.5995 -48.5973 -48.5788 -48.5671 -48.5489 -37.8289 -37.8188
   -37.8133 -37.5975 -37.5519 -37.5465 -37.5146 -37.5010 -37.4956  -4.4006
    -4.1736  -3.4177  -3.3231  -3.2051  -3.1739  -3.1294  -3.0130  -3.0093
    -2.8307  -2.7880  -2.6473  -2.5007  -2.4971  -2.4367  -2.3285  -2.2460
    -2.1315  -2.0881  -2.0399  -1.7258  -1.6762  -1.6647  -1.4605  -1.3988
    -1.3145  -1.3086  -1.2942  -1.1930  -1.1438  -1.1097  -1.1069  -1.0781
    -0.9759  -0.9261  -0.8970  -0.8104  -0.7422  -0.6897  -0.6184  -0.5182
    -0.4776  -0.3216  -0.2796  -0.2174   0.0301   0.1145   0.1652   0.5699
     0.7001   0.7242   0.8080   1.3441   1.4903   1.5247   1.6593   1.7141
     1.7805   2.0600   2.1793   2.2924   2.3166   2.3995   3.1995   3.4214
     3.4720   3.9606   4.8218   5.2439   5.7736   6.0625   6.3327   7.1267
     7.1381   7.4980   7.5666   8.0909   8.1167   8.2268   8.2465   9.1092
     9.3173   9.3451   9.5429

     the Fermi energy is     1.7027 ev

!    total energy              =   -2279.17934931 Ry
     Harris-Foulkes estimate   =   -2279.17935306 Ry
     estimated scf accuracy    <       0.00000040 Ry

     The total energy is the sum of the following terms:

     one-electron contribution =  -19117.00776763 Ry
     hartree contribution      =    9587.24046729 Ry
     xc contribution           =    -419.80483822 Ry
     ewald contribution        =    7670.47170407 Ry
     electric field correction =       0.00000041 Ry
     smearing contrib. (-TS)   =      -0.07891523 Ry

     convergence has been achieved in  17 iterations

 BEEF-vdW xc energy contributions
           1 :   -366.831342735533
           2 :    336.810322287562
           3 :   -284.914173090682
           4 :    224.119694801303
           5 :   -167.452078710378
           6 :    123.834160970676
           7 :   -96.0785027568409
           8 :    81.4624586546435
           9 :   -74.2418119329701
          10 :    68.7347873186258
          11 :   -61.5891148699278
          12 :    52.4382008559597
          13 :   -43.0327481613627
          14 :    35.6064668980426
          15 :   -31.4360849619572
          16 :    30.2495264574583
          17 :   -30.5860271625999
          18 :    30.7208174422623
          19 :   -29.5695395828279
          20 :    27.1030757155961
          21 :   -24.1396255813179
          22 :    21.7273881471769
          23 :   -20.5153039190729
          24 :    20.4451824588272
          25 :   -20.8772087078960
          26 :    21.0133073368054
          27 :   -20.3494192624761
          28 :    18.9084836231387
          29 :   -17.1569085024311
          30 :    15.6874238870896
          31 :   -34.9068964089130
          32 :   -25.9455520353121

     Forces acting on atoms (Ry/au):

     negative rho (up, down):  9.095E-01 0.000E+00
     atom    1 type  1   force =     0.00000014    0.01794113   -0.00014583
     atom    2 type  1   force =     0.01553718   -0.00897034   -0.00014583
     atom    3 type  1   force =    -0.01553714   -0.00897048   -0.00014614
     atom    4 type  2   force =    -0.00000002   -0.00000008    0.01994705
     atom    5 type  1   force =     0.00000009   -0.00530292   -0.00385191
     atom    6 type  1   force =    -0.00459269    0.00265167   -0.00385155
     atom    7 type  1   force =     0.00459254    0.00265157   -0.00385195
     atom    8 type  2   force =    -0.00000003    0.00000031   -0.00348109
     atom    9 type  1   force =     0.00000025    0.00116890   -0.00113907
     atom   10 type  1   force =     0.00101227   -0.00058437   -0.00113881
     atom   11 type  1   force =    -0.00101223   -0.00058458   -0.00113921
     atom   12 type  2   force =    -0.00000035   -0.00000081   -0.00105566

     Total force =     0.038906     Total SCF correction =     0.002203

     entering subroutine stress ...

     negative rho (up, down):  9.095E-01 0.000E+00
          total   stress  (Ry/bohr**3)                   (kbar)     P=  -21.62
  -0.00019245   0.00000000  -0.00000000        -28.31      0.00     -0.00
   0.00000000  -0.00019245  -0.00000000          0.00    -28.31     -0.00
  -0.00000000  -0.00000000  -0.00005607         -0.00     -0.00     -8.25

 !ASE

     Writing output data file calc.save

     General routines

     Parallel routines

   This run was terminated on:  18:50:13  27Dec2018

   JOB DONE.
Job  /afs/slac/g/suncat/bin/suncat-tsmpirun -x LD_LIBRARY_PATH -wdir /scratch/qe110490_0dZ5c pw.x -in pw.inp

TID   HOST_NAME   COMMAND_LINE            STATUS            TERMINATION_TIME
00000 suncat0277 pw.x -in pw.inp   Done                     12/27/2018 18:50:13
00001 suncat0277 pw.x -in pw.inp   Done                     12/27/2018 18:50:13
00002 suncat0277 pw.x -in pw.inp   Done                     12/27/2018 18:50:13
00003 suncat0277 pw.x -in pw.inp   Done                     12/27/2018 18:50:13
00004 suncat0277 pw.x -in pw.inp   Done                     12/27/2018 18:50:13
00005 suncat0277 pw.x -in pw.inp   Done                     12/27/2018 18:50:13
00006 suncat0277 pw.x -in pw.inp   Done                     12/27/2018 18:50:13
00007 suncat0277 pw.x -in pw.inp   Done                     12/27/2018 18:50:13
00008 suncat0276 pw.x -in pw.inp   Done                     12/27/2018 18:50:13
00009 suncat0276 pw.x -in pw.inp   Done                     12/27/2018 18:50:13
00010 suncat0276 pw.x -in pw.inp   Done                     12/27/2018 18:50:13
00011 suncat0276 pw.x -in pw.inp   Done                     12/27/2018 18:50:13
00012 suncat0276 pw.x -in pw.inp   Done                     12/27/2018 18:50:13
00013 suncat0276 pw.x -in pw.inp   Done                     12/27/2018 18:50:13
00014 suncat0276 pw.x -in pw.inp   Done                     12/27/2018 18:50:13
00015 suncat0276 pw.x -in pw.inp   Done                     12/27/2018 18:50:13
00016 suncat0274 pw.x -in pw.inp   Done                     12/27/2018 18:50:13
00017 suncat0274 pw.x -in pw.inp   Done                     12/27/2018 18:50:13
00018 suncat0274 pw.x -in pw.inp   Done                     12/27/2018 18:50:13
00019 suncat0274 pw.x -in pw.inp   Done                     12/27/2018 18:50:13
00020 suncat0274 pw.x -in pw.inp   Done                     12/27/2018 18:50:13
00021 suncat0274 pw.x -in pw.inp   Done                     12/27/2018 18:50:13
00022 suncat0274 pw.x -in pw.inp   Done                     12/27/2018 18:50:13
00023 suncat0274 pw.x -in pw.inp   Done                     12/27/2018 18:50:13
00024 suncat0273 pw.x -in pw.inp   Done                     12/27/2018 18:50:13
00025 suncat0273 pw.x -in pw.inp   Done                     12/27/2018 18:50:13
00026 suncat0273 pw.x -in pw.inp   Done                     12/27/2018 18:50:13
00027 suncat0273 pw.x -in pw.inp   Done                     12/27/2018 18:50:13
00028 suncat0273 pw.x -in pw.inp   Done                     12/27/2018 18:50:13
00029 suncat0273 pw.x -in pw.inp   Done                     12/27/2018 18:50:13
00030 suncat0273 pw.x -in pw.inp   Done                     12/27/2018 18:50:13
00031 suncat0273 pw.x -in pw.inp   Done                     12/27/2018 18:50:13
00032 suncat0230 pw.x -in pw.inp   Done                     12/27/2018 18:50:13
00033 suncat0230 pw.x -in pw.inp   Done                     12/27/2018 18:50:13
00034 suncat0230 pw.x -in pw.inp   Done                     12/27/2018 18:50:13
00035 suncat0230 pw.x -in pw.inp   Done                     12/27/2018 18:50:13
00036 suncat0230 pw.x -in pw.inp   Done                     12/27/2018 18:50:13
00037 suncat0230 pw.x -in pw.inp   Done                     12/27/2018 18:50:13
00038 suncat0230 pw.x -in pw.inp   Done                     12/27/2018 18:50:13
00039 suncat0230 pw.x -in pw.inp   Done                     12/27/2018 18:50:13
00040 suncat0229 pw.x -in pw.inp   Done                     12/27/2018 18:50:13
00041 suncat0229 pw.x -in pw.inp   Done                     12/27/2018 18:50:13
00042 suncat0229 pw.x -in pw.inp   Done                     12/27/2018 18:50:13
00043 suncat0229 pw.x -in pw.inp   Done                     12/27/2018 18:50:13
00044 suncat0229 pw.x -in pw.inp   Done                     12/27/2018 18:50:13
00045 suncat0229 pw.x -in pw.inp   Done                     12/27/2018 18:50:13
00046 suncat0229 pw.x -in pw.inp   Done                     12/27/2018 18:50:13
00047 suncat0229 pw.x -in pw.inp   Done                     12/27/2018 18:50:13
00048 suncat0205 pw.x -in pw.inp   Done                     12/27/2018 18:50:13
00049 suncat0205 pw.x -in pw.inp   Done                     12/27/2018 18:50:13
00050 suncat0205 pw.x -in pw.inp   Done                     12/27/2018 18:50:13
00051 suncat0205 pw.x -in pw.inp   Done                     12/27/2018 18:50:13
00052 suncat0205 pw.x -in pw.inp   Done                     12/27/2018 18:50:13
00053 suncat0205 pw.x -in pw.inp   Done                     12/27/2018 18:50:13
00054 suncat0205 pw.x -in pw.inp   Done                     12/27/2018 18:50:13
00055 suncat0205 pw.x -in pw.inp   Done                     12/27/2018 18:50:13
00056 suncat0204 pw.x -in pw.inp   Done                     12/27/2018 18:50:13
00057 suncat0204 pw.x -in pw.inp   Done                     12/27/2018 18:50:13
00058 suncat0204 pw.x -in pw.inp   Done                     12/27/2018 18:50:13
00059 suncat0204 pw.x -in pw.inp   Done                     12/27/2018 18:50:13
00060 suncat0204 pw.x -in pw.inp   Done                     12/27/2018 18:50:13
00061 suncat0204 pw.x -in pw.inp   Done                     12/27/2018 18:50:13
00062 suncat0204 pw.x -in pw.inp   Done                     12/27/2018 18:50:13
00063 suncat0204 pw.x -in pw.inp   Done                     12/27/2018 18:50:13