     Program PWSCF v.5.1rc2 (svn rev. 11289) starts on 28Dec2018 at  3:44:21

     Current dimensions of program PWSCF are:
     Max number of different atomic species (ntypx) = 10
     Max number of k-points (npk) =  40000
     Max angular momentum in pseudopotentials (lmaxx) =  3
     Presently stress not available with electric field

     IMPORTANT: XC functional enforced from input :
     Exchange-correlation      = BEEF-VDW ( 1  4 27 13 2)
     Any further DFT definition will be discarded
     Please, verify this is what you really want

     Subspace diagonalization in iterative solution of the eigenvalue problem:
     a serial algorithm will be used

     bravais-lattice index     =            0
     lattice parameter (alat)  =       1.8897  a.u.
     unit-cell volume          =    6795.2903 (a.u.)^3
     number of atoms/cell      =           12
     number of atomic types    =            2
     number of electrons       =       159.00
     number of Kohn-Sham states=          109
     kinetic-energy cutoff     =      36.7493  Ry
     charge density cutoff     =     367.4932  Ry
     convergence threshold     =      1.0E-06
     mixing beta               =       0.1000
     number of iterations used =           10  plain     mixing
     Exchange-correlation      = BEEF-VDW ( 1  4 27 13 2)
     nstep                     =           50

     celldm(1)=   1.889726  celldm(2)=   0.000000  celldm(3)=   0.000000
     celldm(4)=   0.000000  celldm(5)=   0.000000  celldm(6)=   0.000000

     crystal axes: (cart. coord. in units of alat)
               a(1) = (   6.750980   0.000000   0.000000 )
               a(2) = (  -3.375490   5.846520   0.000000 )
               a(3) = (   0.000000   0.000000  25.512152 )

     reciprocal axes: (cart. coord. in units 2 pi/alat)
               b(1) = (  0.148127  0.085521  0.000000 )
               b(2) = (  0.000000  0.171042  0.000000 )
               b(3) = (  0.000000  0.000000  0.039197 )

     PseudoPot. # 1 for Y  read from file:
     /afs/slac.stanford.edu/u/if/mamunm/psp/gbrv1.5pbe/Y.UPF
     MD5 check sum: d034151ed7554c50b6e82763ed42c788
     Pseudo is Ultrasoft + core correction, Zval = 11.0
     Generated by new atomic code, or converted to UPF format
     Using radial grid of  885 points,  6 beta functions with:
                l(1) =   0
                l(2) =   0
                l(3) =   1
                l(4) =   1
                l(5) =   2
                l(6) =   2
     Q(r) pseudized with  8 coefficients,  rinner =    1.200   1.200   1.200
                                                       1.200   1.200

     PseudoPot. # 2 for Zn read from file:
     /afs/slac.stanford.edu/u/if/mamunm/psp/gbrv1.5pbe/Zn.UPF
     MD5 check sum: df62231357ef9e81f77b2b3087fa5675
     Pseudo is Ultrasoft, Zval = 20.0
     Generated by new atomic code, or converted to UPF format
     Using radial grid of  943 points,  6 beta functions with:
                l(1) =   0
                l(2) =   0
                l(3) =   1
                l(4) =   1
                l(5) =   2
                l(6) =   2
     Q(r) pseudized with  8 coefficients,  rinner =    1.100   1.100   1.100
                                                       1.100   1.100

     vdW kernel table read from file vdW_kernel_table
     MD5 check sum: 095c7af220d748ca6e76c0b4c6cfb241

     atomic species   valence    mass     pseudopotential
        Y1            11.00    88.90584     Y ( 1.00)
        Zn1           20.00    65.38000     Zn( 1.00)

     No symmetry found

   Cartesian axes

     site n.     atom                  positions (alat units)
         1           Y1  tau(   1) = (   0.0000000   0.0000000  10.0000000  )
         2           Y1  tau(   2) = (  -1.6877451   2.9232602  10.0000000  )
         3           Y1  tau(   3) = (   1.6877451   2.9232602  10.0000000  )
         4           Zn1 tau(   4) = (   3.3754901   0.0000000  10.0000000  )
         5           Y1  tau(   5) = (   3.3754901   1.9488401  12.7560762  )
         6           Y1  tau(   6) = (   1.6877451   4.8721004  12.7560762  )
         7           Y1  tau(   7) = (  -1.6877451   4.8721004  12.7560762  )
         8           Zn1 tau(   8) = (   0.0000000   1.9488401  12.7560762  )
         9           Y1  tau(   9) = (  -0.0000000   3.8976803  15.5121523  )
        10           Y1  tau(  10) = (   1.6877451   0.9744201  15.5121523  )
        11           Y1  tau(  11) = (   5.0632352   0.9744201  15.5121523  )
        12           Zn1 tau(  12) = (   3.3754901   3.8976803  15.5121523  )

     number of k points=    20  Fermi-Dirac smearing, width (Ry)=  0.0110
                       cart. coord. in units 2pi/alat
        k(    1) = (   0.0000000   0.0000000   0.0000000), wk =   0.0555556
        k(    2) = (   0.0000000   0.0285070   0.0000000), wk =   0.1111111
        k(    3) = (   0.0000000   0.0570140   0.0000000), wk =   0.1111111
        k(    4) = (   0.0000000  -0.0855210   0.0000000), wk =   0.0555556
        k(    5) = (   0.0246878   0.0142535   0.0000000), wk =   0.1111111
        k(    6) = (   0.0246878   0.0427605   0.0000000), wk =   0.1111111
        k(    7) = (   0.0246878   0.0712675   0.0000000), wk =   0.1111111
        k(    8) = (   0.0246878  -0.0712675   0.0000000), wk =   0.1111111
        k(    9) = (   0.0246878  -0.0427605   0.0000000), wk =   0.1111111
        k(   10) = (   0.0246878  -0.0142535   0.0000000), wk =   0.1111111
        k(   11) = (   0.0493755   0.0285070   0.0000000), wk =   0.1111111
        k(   12) = (   0.0493755   0.0570140   0.0000000), wk =   0.1111111
        k(   13) = (   0.0493755   0.0855210   0.0000000), wk =   0.1111111
        k(   14) = (   0.0493755  -0.0570140   0.0000000), wk =   0.1111111
        k(   15) = (   0.0493755  -0.0285070   0.0000000), wk =   0.1111111
        k(   16) = (   0.0493755   0.0000000   0.0000000), wk =   0.1111111
        k(   17) = (  -0.0740633  -0.0427605   0.0000000), wk =   0.0555556
        k(   18) = (  -0.0740633  -0.0142535   0.0000000), wk =   0.1111111
        k(   19) = (  -0.0740633   0.0142535   0.0000000), wk =   0.1111111
        k(   20) = (  -0.0740633  -0.1282814   0.0000000), wk =   0.0555556

     Largest allocated arrays     est. size (Mb)     dimensions
     Largest temporary arrays     est. size (Mb)     dimensions

     Initial potential from superposition of free atoms
     Check: negative starting charge=   -0.000698

     starting charge  158.95935, renormalised to  159.00000

     negative rho (up, down):  6.977E-04 0.000E+00

     *
     * You are using vdW-DF for exchange-correlation in this calculation.
     * Please cite the following three references that made this development
     * possible:
     *
     *   M. Dion, H. Rydberg, E. Schroder, D. C. Langreth, and
     *   B. I. Lundqvist, Phys. Rev. Lett. 92, 246401 (2004).
     *
     *   T. Thonhauser, V. R. Cooper, S. Li, A. Puzder, P. Hyldgaard, and
     *   D. C. Langreth, Phys. Rev. B 76, 125112 (2007).
     *
     *   G. Roman-Perez and J. M. Soler, Phys. Rev. Lett. 103, 096102 (2009).
     *
     *
     * If you are using vdW-DF2, please also cite:
     *
     *   K. Lee, E. D. Murray, L. Kong, B. I. Lundqvist, and
     *   D. C. Langreth, Phys. Rev. B 82, 081101(R) (2010).
     *
     *
     * If you are calculating the stress with vdW-DF, please also cite:
     *
     *   R. Sabatini, E. Kucukbenli, B. Kolb, T. Thonhauser, and
     *   S. de Gironcoli, J. Phys.: Condens. Matter 24, 424209 (2012).
     *

     Carrying out vdW-DF run using the following parameters:

     Nqs =      20    Nr_points =    1024   r_max =   100.000
     q_mesh =
               0.00001000     0.04494208     0.09755937     0.15916263
               0.23128650     0.31572767     0.41458969     0.53033537
               0.66584808     0.82450364     1.01025438     1.22772762
               1.48234092     1.78043706     2.12944203     2.53805004
               3.01644009     3.57652955     4.23227104     5.00000000

     Gradients computed in reciprocal space

     Adding external electric field

     Computed dipole along edir(3) :
        Dipole                0.0000 Ry au,          0.0000 Debye
        Dipole field          0.0000 Ry au

        Potential amp.       -0.0000 Ry
        Total length         47.0057 bohr

     Starting wfc are  156 randomized atomic wfcs

     Self-consistent Calculation

     iteration #  1     ecut=    36.75 Ry     beta=0.10
     Davidson diagonalization with overlap
     ethr =  1.00E-02,  avg # of iterations =  2.0

[...]

     total energy              =   -2231.19573286 Ry
     Harris-Foulkes estimate   =   -2231.90572640 Ry
     estimated scf accuracy    <       4.03856048 Ry

[...]

     End of self-consistent calculation

          k = 0.0000 0.0000 0.0000 ( 25617 PWs)   bands (ev):

  -124.9902-124.9901-124.7590 -79.1705 -79.1704 -79.1584 -79.1584 -79.1583
   -79.1583 -78.9278 -78.9278 -78.9276 -42.2848 -42.2830 -42.2191 -42.2190
   -42.2187 -42.2186 -41.7960 -41.7315 -41.7314 -22.5488 -22.5171 -22.4045
   -22.3625 -22.3625 -22.3242 -22.3242 -22.3239 -22.2979 -22.2978 -22.2408
   -22.2407 -22.1102 -22.0209 -22.0104 -21.8956 -21.8955 -21.8770 -21.8770
   -21.8153 -21.8153 -21.7099 -21.6630 -21.6629 -21.5326 -21.4656 -21.4656
    -5.8676  -5.8676  -5.8663  -5.8635  -5.8635  -5.8587  -5.8503  -5.8503
    -5.8392  -5.8392  -5.6295  -5.6295  -5.6270  -5.6068  -5.6068  -4.3552
    -3.4465  -2.9724  -1.4308  -1.1841  -0.9370  -0.0718  -0.0718   0.2886
     0.3445   0.3445   0.3520   0.3520   0.3959   0.7864   0.7864   1.0808
     1.0808   1.1549   1.1859   1.4977   1.7999   1.7999   1.8167   1.8574
     1.8575   2.1989   2.1989   2.3350   2.4211   2.4702   2.4702   3.0481
     3.1743   3.9624   3.9624   3.9868   4.1339   4.1541   4.1541   4.1743
     4.2743   4.2743   4.3011   4.3012   4.3021

[...]

          k =-0.0741-0.0428 0.0000 ( 25582 PWs)   bands (ev):

[...]

     the Fermi energy is     0.9946 ev

!    total energy              =   -2231.52645364 Ry
     Harris-Foulkes estimate   =   -2231.52645281 Ry
     estimated scf accuracy    <       0.00000054 Ry

     The total energy is the sum of the following terms:

     one-electron contribution =  -10166.37002839 Ry
     hartree contribution      =    5074.74173485 Ry
     xc contribution           =    -384.52527014 Ry
     ewald contribution        =    3244.73235835 Ry
     electric field correction =       0.00000000 Ry
     smearing contrib. (-TS)   =      -0.10524832 Ry

     convergence has been achieved in  16 iterations

 BEEF-vdW xc energy contributions
           1 :   -337.632798512144
           2 :    304.271998265258
           3 :   -247.183411096628
           4 :    181.075506156842
           5 :   -119.534528794169
           6 :    70.6055644357682
           7 :   -35.9882253969476
           8 :    13.2889072544617
           9 :   0.759929933916396
          10 :   -8.18657716760828
          11 :    9.62995212433458
          12 :   -5.59949740444262
          13 :   -2.20290879425210
          14 :    10.6486870099403
          15 :   -16.2572952398391
          16 :    16.8008561111537
          17 :   -12.2994646375554
[...]
               b(3) = (  0.000000  0.000000  0.039197 )

     PseudoPot. # 1 for Y  read from file:
     /afs/slac.stanford.edu/u/if/mamunm/psp/gbrv1.5pbe/Y.UPF
     MD5 check sum: d034151ed7554c50b6e82763ed42c788
     Pseudo is Ultrasoft + core correction, Zval = 11.0
     Generated by new atomic code, or converted to UPF format
     Using radial grid of  885 points,  6 beta functions with:
                l(1) =   0
                l(2) =   0
                l(3) =   1
                l(4) =   1
                l(5) =   2
                l(6) =   2
     Q(r) pseudized with  8 coefficients,  rinner =    1.200   1.200   1.200
                                                       1.200   1.200

     PseudoPot. # 2 for Zn read from file:
     /afs/slac.stanford.edu/u/if/mamunm/psp/gbrv1.5pbe/Zn.UPF
     MD5 check sum: df62231357ef9e81f77b2b3087fa5675
     Pseudo is Ultrasoft, Zval = 20.0
     Generated by new atomic code, or converted to UPF format
     Using radial grid of  943 points,  6 beta functions with:
                l(1) =   0
                l(2) =   0
                l(3) =   1
                l(4) =   1
                l(5) =   2
                l(6) =   2
     Q(r) pseudized with  8 coefficients,  rinner =    1.100   1.100   1.100
                                                       1.100   1.100

     vdW kernel table read from file vdW_kernel_table
     MD5 check sum: 095c7af220d748ca6e76c0b4c6cfb241

     atomic species   valence    mass     pseudopotential
        Y1            11.00    88.90584     Y ( 1.00)
        Zn1           20.00    65.38000     Zn( 1.00)

     No symmetry found

   Cartesian axes

     site n.     atom                  positions (alat units)
         1           Y1  tau(   1) = (   0.0000000   0.0000000  10.0000000  )
         2           Y1  tau(   2) = (  -1.6877451   2.9232602  10.0000000  )
         3           Y1  tau(   3) = (   1.6877451   2.9232602  10.0000000  )
         4           Zn1 tau(   4) = (   3.3754901   0.0000000  10.0000000  )
         5           Y1  tau(   5) = (   3.3754901   1.9488401  12.7560762  )
         6           Y1  tau(   6) = (   1.6877451   4.8721004  12.7560762  )
         7           Y1  tau(   7) = (  -1.6877451   4.8721004  12.7560762  )
         8           Zn1 tau(   8) = (   0.0000000   1.9488401  12.7560762  )
         9           Y1  tau(   9) = (   0.0000744   3.8676071  15.5282989  )
        10           Y1  tau(  10) = (   1.6616934   0.9895687  15.5282723  )
        11           Y1  tau(  11) = (   5.0894530   0.9895702  15.5281784  )
        12           Zn1 tau(  12) = (   3.3756754   3.8978959  15.1835492  )

     number of k points=    20  Fermi-Dirac smearing, width (Ry)=  0.0110
                       cart. coord. in units 2pi/alat
        k(    1) = (   0.0000000   0.0000000   0.0000000), wk =   0.0555556
        k(    2) = (   0.0000000   0.0285070   0.0000000), wk =   0.1111111
        k(    3) = (   0.0000000   0.0570140   0.0000000), wk =   0.1111111
        k(    4) = (   0.0000000  -0.0855210   0.0000000), wk =   0.0555556
        k(    5) = (   0.0246878   0.0142535   0.0000000), wk =   0.1111111
        k(    6) = (   0.0246878   0.0427605   0.0000000), wk =   0.1111111
        k(    7) = (   0.0246878   0.0712675   0.0000000), wk =   0.1111111
        k(    8) = (   0.0246878  -0.0712675   0.0000000), wk =   0.1111111
        k(    9) = (   0.0246878  -0.0427605   0.0000000), wk =   0.1111111
        k(   10) = (   0.0246878  -0.0142535   0.0000000), wk =   0.1111111
        k(   11) = (   0.0493755   0.0285070   0.0000000), wk =   0.1111111
        k(   12) = (   0.0493755   0.0570140   0.0000000), wk =   0.1111111
        k(   13) = (   0.0493755   0.0855210   0.0000000), wk =   0.1111111
        k(   14) = (   0.0493755  -0.0570140   0.0000000), wk =   0.1111111
        k(   15) = (   0.0493755  -0.0285070   0.0000000), wk =   0.1111111
        k(   16) = (   0.0493755   0.0000000   0.0000000), wk =   0.1111111
        k(   17) = (  -0.0740633  -0.0427605   0.0000000), wk =   0.0555556
        k(   18) = (  -0.0740633  -0.0142535   0.0000000), wk =   0.1111111
        k(   19) = (  -0.0740633   0.0142535   0.0000000), wk =   0.1111111
        k(   20) = (  -0.0740633  -0.1282814   0.0000000), wk =   0.0555556

     Largest allocated arrays     est. size (Mb)     dimensions
     Largest temporary arrays     est. size (Mb)     dimensions

     Initial potential from superposition of free atoms
     Check: negative starting charge=   -0.000693

     starting charge  158.95935, renormalised to  159.00000

[...]

     *
     * You are using vdW-DF for exchange-correlation in this calculation.
     * Please cite the following three references that made this development
     * possible:
     *
     *   M. Dion, H. Rydberg, E. Schroder, D. C. Langreth, and
     *   B. I. Lundqvist, Phys. Rev. Lett. 92, 246401 (2004).
     *
     *   T. Thonhauser, V. R. Cooper, S. Li, A. Puzder, P. Hyldgaard, and
     *   D. C. Langreth, Phys. Rev. B 76, 125112 (2007).
     *
     *   G. Roman-Perez and J. M. Soler, Phys. Rev. Lett. 103, 096102 (2009).
     *
     *
     * If you are using vdW-DF2, please also cite:
     *
     *   K. Lee, E. D. Murray, L. Kong, B. I. Lundqvist, and
     *   D. C. Langreth, Phys. Rev. B 82, 081101(R) (2010).
     *
     *
     * If you are calculating the stress with vdW-DF, please also cite:
     *
     *   R. Sabatini, E. Kucukbenli, B. Kolb, T. Thonhauser, and
     *   S. de Gironcoli, J. Phys.: Condens. Matter 24, 424209 (2012).
     *

     Carrying out vdW-DF run using the following parameters:

     Nqs =      20    Nr_points =    1024   r_max =   100.000
     q_mesh =
               0.00001000     0.04494208     0.09755937     0.15916263
               0.23128650     0.31572767     0.41458969     0.53033537
               0.66584808     0.82450364     1.01025438     1.22772762
               1.48234092     1.78043706     2.12944203     2.53805004
               3.01644009     3.57652955     4.23227104     5.00000000

     Gradients computed in reciprocal space

[...]

     Starting wfc are  156 randomized atomic wfcs

     Self-consistent Calculation

[...]

     total energy              =   -2231.53664196 Ry
     Harris-Foulkes estimate   =   -2231.53664207 Ry
     estimated scf accuracy    <       0.00000129 Ry

     iteration # 17     ecut=    36.75 Ry     beta=0.10
     Davidson diagonalization with overlap
     ethr =  8.14E-10,  avg # of iterations =  2.7

[...]

     negative rho (up, down):  4.030E-04 0.000E+00

     Adding external electric field

     Computed dipole along edir(3) :
        Dipole                0.0464 Ry au,          0.1180 Debye
        Dipole field          0.0001 Ry au

        Potential amp.       -0.0081 Ry
        Total length         47.0057 bohr

     End of self-consistent calculation

[...]

          k = 0.0494 0.0000 0.0000 ( 25554 PWs)   bands (ev):

[...]

          k =-0.0741-0.1283 0.0000 ( 25582 PWs)   bands (ev):

  -125.0077-124.9672-124.7152 -79.2011 -79.1654 -79.1653 -79.1483 -79.1348
   -79.1348 -78.8840 -78.8839 -78.8834 -42.2540 -42.2312 -42.2297 -42.2095
   -42.2088 -42.1877 -41.7127 -41.6912 -41.6694 -22.4032 -22.3716 -22.3369
   -22.3109 -22.2926 -22.2604 -22.2482 -22.2372 -22.2065 -22.1892 -22.1750
   -22.1588 -22.1305 -22.1179 -22.1154 -22.1092 -21.9057 -21.8839 -21.8717
   -21.6925 -21.6672 -21.6327 -21.6261 -21.6252 -21.6252 -21.5958 -21.4233
    -5.8862  -5.8803  -5.8801  -5.8500  -5.8425  -5.8368  -5.8226  -5.8224
    -5.8170  -5.8169  -5.5808  -5.5708  -5.5691  -5.5590  -5.5543  -3.3489
    -3.2535  -2.7353  -1.6853  -1.1677  -0.8211  -0.6068  -0.1147   0.1360
     0.2774   0.3351   0.4824   0.6399   0.8131   0.8212   0.8550   1.0453
     1.1260   1.1984   1.4247   1.5585   1.6066   1.6386   1.7428   1.7720
     1.8192   1.9411   2.2792   2.3373   2.4812   2.5463   2.6912   2.8296
     2.8572   3.4951   3.5427   3.6292   3.6968   3.8663   3.9338   4.0173
     4.1019   4.1053   4.1556   4.1753   4.1833

     the Fermi energy is     1.0270 ev

!    total energy              =   -2231.53664305 Ry
     Harris-Foulkes estimate   =   -2231.53664179 Ry
     estimated scf accuracy    <       0.00000019 Ry

     The total energy is the sum of the following terms:

     one-electron contribution =  -10305.97038799 Ry
     hartree contribution      =    5144.70298172 Ry
     xc contribution           =    -384.54991619 Ry
     ewald contribution        =    3314.38332260 Ry
     electric field correction =       0.00000399 Ry
     smearing contrib. (-TS)   =      -0.10264716 Ry

     convergence has been achieved in  17 iterations

 BEEF-vdW xc energy contributions
           1 :   -337.660275411698
           2 :    304.319198751499
           3 :   -247.249060202561
           4 :    181.133666309061
           5 :   -119.550928211893
           6 :    70.5624887307865
           7 :   -35.8999781580533
           8 :    13.1940121671975
           9 :   0.826591515792245
          10 :   -8.22033829381195
          11 :    9.65891664374465
          12 :   -5.65879704253547
          13 :   -2.10380240608191
          14 :    10.5365543056426
          15 :   -16.1742683024090
          16 :    16.7699868998077
          17 :   -12.3058465551041
          18 :    4.75754448252763
          19 :    3.14184782116337
          20 :   -9.26375777215145
          21 :    12.7613904202501
          22 :   -13.8612522721285
          23 :    13.1793697451142
          24 :   -11.1748809209567
          25 :    8.08704208629752
          26 :   -4.24737995255236
          27 :   0.363080099241643
          28 :    2.56687349110933
          29 :   -3.70459745447948
          30 :    2.86652893290164
          31 :   -30.1084659716235
          32 :   -20.5692181011099

     Forces acting on atoms (Ry/au):

     negative rho (up, down):  4.030E-04 0.000E+00
     atom    1 type  1   force =    -0.00000142    0.01316008   -0.00723243
     atom    2 type  1   force =     0.01139622   -0.00658010   -0.00723159
     atom    3 type  1   force =    -0.01139295   -0.00657823   -0.00722620
     atom    4 type  2   force =    -0.00000520   -0.00000190    0.02325252
     atom    5 type  1   force =    -0.00000231   -0.00058314    0.00009599
     atom    6 type  1   force =    -0.00050574    0.00028970    0.00009383
     atom    7 type  1   force =     0.00051456    0.00029735    0.00010096
     atom    8 type  2   force =    -0.00000823   -0.00000163    0.00003422
     atom    9 type  1   force =     0.00000159   -0.00139494   -0.00054484
     atom   10 type  1   force =    -0.00120550    0.00069696   -0.00054519
     atom   11 type  1   force =     0.00120998    0.00069918   -0.00054410
     atom   12 type  2   force =    -0.00000101   -0.00000332   -0.00025318

     Total force =     0.034997     Total SCF correction =     0.001302

     entering subroutine stress ...

     negative rho (up, down):  4.030E-04 0.000E+00
          total   stress  (Ry/bohr**3)                   (kbar)     P=   -3.51
  -0.00002990   0.00000000  -0.00000001         -4.40      0.00     -0.00
   0.00000000  -0.00002990  -0.00000000          0.00     -4.40     -0.00
  -0.00000001  -0.00000000  -0.00001182         -0.00     -0.00     -1.74

 !ASE

     Writing output data file calc.save

     General routines

     Parallel routines

   This run was terminated on:   5:23:11  28Dec2018

   JOB DONE.
Job  /afs/slac/g/suncat/bin/suncat-tsmpirun -x LD_LIBRARY_PATH -wdir /scratch/qe111443_AzZrb pw.x -in pw.inp

TID   HOST_NAME   COMMAND_LINE            STATUS            TERMINATION_TIME
00000 suncat0058 pw.x -in pw.inp   Done                     12/28/2018 05:23:11
00001 suncat0058 pw.x -in pw.inp   Done                     12/28/2018 05:23:11
00002 suncat0058 pw.x -in pw.inp   Done                     12/28/2018 05:23:11
00003 suncat0058 pw.x -in pw.inp   Done                     12/28/2018 05:23:11
00004 suncat0058 pw.x -in pw.inp   Done                     12/28/2018 05:23:11
00005 suncat0058 pw.x -in pw.inp   Done                     12/28/2018 05:23:11
00006 suncat0058 pw.x -in pw.inp   Done                     12/28/2018 05:23:11
00007 suncat0058 pw.x -in pw.inp   Done                     12/28/2018 05:23:11
00008 suncat0040 pw.x -in pw.inp   Done                     12/28/2018 05:23:11
00009 suncat0040 pw.x -in pw.inp   Done                     12/28/2018 05:23:11
00010 suncat0040 pw.x -in pw.inp   Done                     12/28/2018 05:23:11
00011 suncat0040 pw.x -in pw.inp   Done                     12/28/2018 05:23:11
00012 suncat0040 pw.x -in pw.inp   Done                     12/28/2018 05:23:11
00013 suncat0040 pw.x -in pw.inp   Done                     12/28/2018 05:23:11
00014 suncat0040 pw.x -in pw.inp   Done                     12/28/2018 05:23:11
00015 suncat0040 pw.x -in pw.inp   Done                     12/28/2018 05:23:11
00016 suncat0195 pw.x -in pw.inp   Done                     12/28/2018 05:23:11
00017 suncat0195 pw.x -in pw.inp   Done                     12/28/2018 05:23:11
00018 suncat0195 pw.x -in pw.inp   Done                     12/28/2018 05:23:11
00019 suncat0195 pw.x -in pw.inp   Done                     12/28/2018 05:23:11
00020 suncat0195 pw.x -in pw.inp   Done                     12/28/2018 05:23:11
00021 suncat0195 pw.x -in pw.inp   Done                     12/28/2018 05:23:11
00022 suncat0195 pw.x -in pw.inp   Done                     12/28/2018 05:23:11
00023 suncat0195 pw.x -in pw.inp   Done                     12/28/2018 05:23:11
00024 suncat0003 pw.x -in pw.inp   Done                     12/28/2018 05:23:11
00025 suncat0003 pw.x -in pw.inp   Done                     12/28/2018 05:23:11
00026 suncat0003 pw.x -in pw.inp   Done                     12/28/2018 05:23:11
00027 suncat0003 pw.x -in pw.inp   Done                     12/28/2018 05:23:11
00028 suncat0003 pw.x -in pw.inp   Done                     12/28/2018 05:23:11
00029 suncat0003 pw.x -in pw.inp   Done                     12/28/2018 05:23:11
00030 suncat0003 pw.x -in pw.inp   Done                     12/28/2018 05:23:11
00031 suncat0003 pw.x -in pw.inp   Done                     12/28/2018 05:23:11
00032 suncat0002 pw.x -in pw.inp   Done                     12/28/2018 05:23:11
00033 suncat0002 pw.x -in pw.inp   Done                     12/28/2018 05:23:11
00034 suncat0002 pw.x -in pw.inp   Done                     12/28/2018 05:23:11
00035 suncat0002 pw.x -in pw.inp   Done                     12/28/2018 05:23:11
00036 suncat0002 pw.x -in pw.inp   Done                     12/28/2018 05:23:11
00037 suncat0002 pw.x -in pw.inp   Done                     12/28/2018 05:23:11
00038 suncat0002 pw.x -in pw.inp   Done                     12/28/2018 05:23:11
00039 suncat0002 pw.x -in pw.inp   Done                     12/28/2018 05:23:11
00040 suncat0179 pw.x -in pw.inp   Done                     12/28/2018 05:23:11
00041 suncat0179 pw.x -in pw.inp   Done                     12/28/2018 05:23:11
00042 suncat0179 pw.x -in pw.inp   Done                     12/28/2018 05:23:11
00043 suncat0179 pw.x -in pw.inp   Done                     12/28/2018 05:23:11
00044 suncat0179 pw.x -in pw.inp   Done                     12/28/2018 05:23:11
00045 suncat0179 pw.x -in pw.inp   Done                     12/28/2018 05:23:11
00046 suncat0179 pw.x -in pw.inp   Done                     12/28/2018 05:23:11
00047 suncat0179 pw.x -in pw.inp   Done                     12/28/2018 05:23:11
00048 suncat0283 pw.x -in pw.inp   Done                     12/28/2018 05:23:11
00049 suncat0283 pw.x -in pw.inp   Done                     12/28/2018 05:23:11
00050 suncat0283 pw.x -in pw.inp   Done                     12/28/2018 05:23:11
00051 suncat0283 pw.x -in pw.inp   Done                     12/28/2018 05:23:11
00052 suncat0283 pw.x -in pw.inp   Done                     12/28/2018 05:23:11
00053 suncat0283 pw.x -in pw.inp   Done                     12/28/2018 05:23:11
00054 suncat0283 pw.x -in pw.inp   Done                     12/28/2018 05:23:11
00055 suncat0283 pw.x -in pw.inp   Done                     12/28/2018 05:23:11
00056 suncat0282 pw.x -in pw.inp   Done                     12/28/2018 05:23:11
00057 suncat0282 pw.x -in pw.inp   Done                     12/28/2018 05:23:11
00058 suncat0282 pw.x -in pw.inp   Done                     12/28/2018 05:23:11
00059 suncat0282 pw.x -in pw.inp   Done                     12/28/2018 05:23:11
00060 suncat0282 pw.x -in pw.inp   Done                     12/28/2018 05:23:11
00061 suncat0282 pw.x -in pw.inp   Done                     12/28/2018 05:23:11
00062 suncat0282 pw.x -in pw.inp   Done                     12/28/2018 05:23:11
00063 suncat0282 pw.x -in pw.inp   Done                     12/28/2018 05:23:11