     Program PWSCF v.5.1rc2 (svn rev. 11289) starts on  2Jan2019 at 12:29: 0

     Current dimensions of program PWSCF are:
     Max number of different atomic species (ntypx) = 10
     Max number of k-points (npk) =  40000
     Max angular momentum in pseudopotentials (lmaxx) =  3
     Presently stress not available with electric field

     IMPORTANT: XC functional enforced from input :
     Exchange-correlation      = BEEF-VDW ( 1  4 27 13 2)
     Any further DFT definition will be discarded
     Please, verify this is what you really want

     Subspace diagonalization in iterative solution of the eigenvalue problem:
     a serial algorithm will be used

     Generating pointlists ...
     new r_m :   0.4125 (alat units)  0.7795 (a.u.) for type    1
     new r_m :   0.4125 (alat units)  0.7795 (a.u.) for type    2

     bravais-lattice index     =            0
     lattice parameter (alat)  =       1.8897  a.u.
     unit-cell volume          =    6489.8349 (a.u.)^3
     number of atoms/cell      =           12
     number of atomic types    =            2
     number of electrons       =       153.00
     number of Kohn-Sham states=          106
     kinetic-energy cutoff     =      36.7493  Ry
     charge density cutoff     =     367.4932  Ry
     convergence threshold     =      1.0E-06
     mixing beta               =       0.1000
     number of iterations used =           10  plain     mixing
     Exchange-correlation      = BEEF-VDW ( 1  4 27 13 2)
     nstep                     =           50

     celldm(1)=   1.889726  celldm(2)=   0.000000  celldm(3)=   0.000000
     celldm(4)=   0.000000  celldm(5)=   0.000000  celldm(6)=   0.000000

     crystal axes: (cart. coord. in units of alat)
               a(1) = (   6.612204   0.000000   0.000000 )
               a(2) = (  -3.306102   5.726337   0.000000 )
               a(3) = (   0.000000   0.000000  25.398842 )

     reciprocal axes: (cart. coord. in units 2 pi/alat)
               b(1) = (  0.151236  0.087316  0.000000 )
               b(2) = (  0.000000  0.174632  0.000000 )
               b(3) = (  0.000000  0.000000  0.039372 )

     PseudoPot. # 1 for Y  read from file:
     /afs/slac.stanford.edu/u/if/mamunm/psp/gbrv1.5pbe/Y.UPF
     MD5 check sum: d034151ed7554c50b6e82763ed42c788
     Pseudo is Ultrasoft + core correction, Zval = 11.0
     Generated by new atomic code, or converted to UPF format
     Using radial grid of  885 points,  6 beta functions with:
                l(1) =   0
                l(2) =   0
                l(3) =   1
                l(4) =   1
                l(5) =   2
                l(6) =   2
     Q(r) pseudized with  8 coefficients,  rinner =    1.200   1.200   1.200
                                                       1.200   1.200

     PseudoPot. # 2 for Ni read from file:
     /afs/slac.stanford.edu/u/if/mamunm/psp/gbrv1.5pbe/Ni.UPF
     MD5 check sum: 1ee80287db30b12d2bc1f57a5b5d6409
     Pseudo is Ultrasoft + core correction, Zval = 18.0
     Generated by new atomic code, or converted to UPF format
     Using radial grid of  865 points,  6 beta functions with:
                l(1) =   0
                l(2) =   0
                l(3) =   1
                l(4) =   1
                l(5) =   2
                l(6) =   2
     Q(r) pseudized with 10 coefficients,  rinner =    0.980   0.980   0.980
                                                       0.980   0.980

     vdW kernel table read from file vdW_kernel_table
     MD5 check sum: 095c7af220d748ca6e76c0b4c6cfb241

     atomic species   valence    mass     pseudopotential
        Y1            11.00    88.90584     Y ( 1.00)
        Ni1           18.00    58.69340     Ni( 1.00)

     Starting magnetic structure
     atomic species   magnetization
        Y1           0.182
        Ni1          0.111

     No symmetry found

   Cartesian axes

     site n.     atom                  positions (alat units)
         1           Y1  tau(   1) = (   0.0000000   0.0000000  10.0000000  )
         2           Y1  tau(   2) = (  -1.6530510   2.8631684  10.0000000  )
         3           Y1  tau(   3) = (   1.6530510   2.8631684  10.0000000  )
         4           Ni1 tau(   4) = (   3.3061020   0.0000000  10.0000000  )
         5           Y1  tau(   5) = (   3.3061020   1.9087789  12.6994210  )
         6           Y1  tau(   6) = (   1.6530510   4.7719473  12.6994210  )
         7           Y1  tau(   7) = (  -1.6530510   4.7719473  12.6994210  )
         8           Ni1 tau(   8) = (   0.0000000   1.9087789  12.6994210  )
         9           Y1  tau(   9) = (  -0.0000000   3.8175578  15.3988420  )
        10           Y1  tau(  10) = (   1.6530510   0.9543895  15.3988420  )
        11           Y1  tau(  11) = (   4.9591531   0.9543895  15.3988420  )
        12           Ni1 tau(  12) = (   3.3061020   3.8175578  15.3988420  )

     number of k points=    40  Fermi-Dirac smearing, width (Ry)=  0.0110
                       cart. coord. in units 2pi/alat
        k(    1) = (   0.0000000   0.0000000   0.0000000), wk =   0.0277778
        k(    2) = (   0.0000000   0.0291053   0.0000000), wk =   0.0555556
        k(    3) = (   0.0000000   0.0582106   0.0000000), wk =   0.0555556
        k(    4) = (   0.0000000  -0.0873159   0.0000000), wk =   0.0277778
        k(    5) = (   0.0252059   0.0145526   0.0000000), wk =   0.0555556
        k(    6) = (   0.0252059   0.0436579   0.0000000), wk =   0.0555556
        k(    7) = (   0.0252059   0.0727632   0.0000000), wk =   0.0555556
        k(    8) = (   0.0252059  -0.0727632   0.0000000), wk =   0.0555556
        k(    9) = (   0.0252059  -0.0436579   0.0000000), wk =   0.0555556
        k(   10) = (   0.0252059  -0.0145526   0.0000000), wk =   0.0555556
        k(   11) = (   0.0504118   0.0291053   0.0000000), wk =   0.0555556
        k(   12) = (   0.0504118   0.0582106   0.0000000), wk =   0.0555556
        k(   13) = (   0.0504118   0.0873159   0.0000000), wk =   0.0555556
        k(   14) = (   0.0504118  -0.0582106   0.0000000), wk =   0.0555556
        k(   15) = (   0.0504118  -0.0291053   0.0000000), wk =   0.0555556
        k(   16) = (   0.0504118   0.0000000   0.0000000), wk =   0.0555556
        k(   17) = (  -0.0756178  -0.0436579   0.0000000), wk =   0.0277778
        k(   18) = (  -0.0756178  -0.0145526   0.0000000), wk =   0.0555556
        k(   19) = (  -0.0756178   0.0145526   0.0000000), wk =   0.0555556
        k(   20) = (  -0.0756178  -0.1309738   0.0000000), wk =   0.0277778
        k(   21) = (   0.0000000   0.0000000   0.0000000), wk =   0.0277778
        k(   22) = (   0.0000000   0.0291053   0.0000000), wk =   0.0555556
        k(   23) = (   0.0000000   0.0582106   0.0000000), wk =   0.0555556
        k(   24) = (   0.0000000  -0.0873159   0.0000000), wk =   0.0277778
        k(   25) = (   0.0252059   0.0145526   0.0000000), wk =   0.0555556
        k(   26) = (   0.0252059   0.0436579   0.0000000), wk =   0.0555556
        k(   27) = (   0.0252059   0.0727632   0.0000000), wk =   0.0555556
        k(   28) = (   0.0252059  -0.0727632   0.0000000), wk =   0.0555556
        k(   29) = (   0.0252059  -0.0436579   0.0000000), wk =   0.0555556
        k(   30) = (   0.0252059  -0.0145526   0.0000000), wk =   0.0555556
        k(   31) = (   0.0504118   0.0291053   0.0000000), wk =   0.0555556
        k(   32) = (   0.0504118   0.0582106   0.0000000), wk =   0.0555556
        k(   33) = (   0.0504118   0.0873159   0.0000000), wk =   0.0555556
        k(   34) = (   0.0504118  -0.0582106   0.0000000), wk =   0.0555556
        k(   35) = (   0.0504118  -0.0291053   0.0000000), wk =   0.0555556
        k(   36) = (   0.0504118   0.0000000   0.0000000), wk =   0.0555556
        k(   37) = (  -0.0756178  -0.0436579   0.0000000), wk =   0.0277778
        k(   38) = (  -0.0756178  -0.0145526   0.0000000), wk =   0.0555556
        k(   39) = (  -0.0756178   0.0145526   0.0000000), wk =   0.0555556
        k(   40) = (  -0.0756178  -0.1309738   0.0000000), wk =   0.0277778

     Largest allocated arrays     est. size (Mb)     dimensions
     Largest temporary arrays     est. size (Mb)     dimensions

     Check: negative/imaginary core charge=   -0.000001    0.000000

     Initial potential from superposition of free atoms
     Check: negative starting charge=(component1):   -0.000363
     Check: negative starting charge=(component2):   -0.000266

     starting charge  146.95978, renormalised to  153.00000

     negative rho (up, down):  3.782E-04 2.768E-04

     *
     * You are using vdW-DF for exchange-correlation in this calculation.
     * Please cite the following three references that made this development
     * possible:
     *
     *   M. Dion, H. Rydberg, E. Schroder, D. C. Langreth, and
     *   B. I. Lundqvist, Phys. Rev. Lett. 92, 246401 (2004).
     *
     *   T. Thonhauser, V. R. Cooper, S. Li, A. Puzder, P. Hyldgaard, and
     *   D. C. Langreth, Phys. Rev. B 76, 125112 (2007).
     *
     *   G. Roman-Perez and J. M. Soler, Phys. Rev. Lett. 103, 096102 (2009).
     *
     *
     * If you are using vdW-DF2, please also cite:
     *
     *   K. Lee, E. D. Murray, L. Kong, B. I. Lundqvist, and
     *   D. C. Langreth, Phys. Rev. B 82, 081101(R) (2010).
     *
     *
     * If you are calculating the stress with vdW-DF, please also cite:
     *
     *   R. Sabatini, E. Kucukbenli, B. Kolb, T. Thonhauser, and
     *   S. de Gironcoli, J. Phys.: Condens. Matter 24, 424209 (2012).
     *

     Carrying out vdW-DF run using the following parameters:

     Nqs =      20    Nr_points =    1024   r_max =   100.000
     q_mesh =
               0.00001000     0.04494208     0.09755937     0.15916263
               0.23128650     0.31572767     0.41458969     0.53033537
               0.66584808     0.82450364     1.01025438     1.22772762
               1.48234092     1.78043706     2.12944203     2.53805004
               3.01644009     3.57652955     4.23227104     5.00000000

     Gradients computed in reciprocal space

     Adding external electric field

     Computed dipole along edir(3) :
        Dipole                0.0000 Ry au,          0.0000 Debye
        Dipole field          0.0000 Ry au

        Potential amp.       -0.0000 Ry
        Total length         46.7969 bohr

[...]

     Starting wfc are  156 randomized atomic wfcs

     Self-consistent Calculation

     iteration #  1     ecut=    36.75 Ry     beta=0.10
     Davidson diagonalization with overlap
     ethr =  1.00E-02,  avg # of iterations =  2.5

[...]

     Magnetic moment per site:
     atom:    1    charge:    0.8955    magn:    0.1488    constr:    0.0000
     atom:    2    charge:    0.8955    magn:    0.1488    constr:    0.0000
     atom:    3    charge:    0.8955    magn:    0.1488    constr:    0.0000
     atom:    4    charge:    9.4941    magn:    1.0783    constr:    0.0000
     atom:    5    charge:    0.9010    magn:    0.1497    constr:    0.0000
     atom:    6    charge:    0.9010    magn:    0.1497    constr:    0.0000
     atom:    7    charge:    0.9010    magn:    0.1497    constr:    0.0000
     atom:    8    charge:    9.4806    magn:    1.0616    constr:    0.0000
[...]
        k(    1) = (   0.0000000   0.0000000   0.0000000), wk =   0.0277778
        k(    2) = (   0.0000000   0.0291053   0.0000000), wk =   0.0555556
        k(    3) = (   0.0000000   0.0582106   0.0000000), wk =   0.0555556
        k(    4) = (   0.0000000  -0.0873159   0.0000000), wk =   0.0277778
        k(    5) = (   0.0252059   0.0145526   0.0000000), wk =   0.0555556
        k(    6) = (   0.0252059   0.0436579   0.0000000), wk =   0.0555556
        k(    7) = (   0.0252059   0.0727632   0.0000000), wk =   0.0555556
        k(    8) = (   0.0252059  -0.0727632   0.0000000), wk =   0.0555556
        k(    9) = (   0.0252059  -0.0436579   0.0000000), wk =   0.0555556
        k(   10) = (   0.0252059  -0.0145526   0.0000000), wk =   0.0555556
        k(   11) = (   0.0504118   0.0291053   0.0000000), wk =   0.0555556
        k(   12) = (   0.0504118   0.0582106   0.0000000), wk =   0.0555556
        k(   13) = (   0.0504118   0.0873159   0.0000000), wk =   0.0555556
        k(   14) = (   0.0504118  -0.0582106   0.0000000), wk =   0.0555556
        k(   15) = (   0.0504118  -0.0291053   0.0000000), wk =   0.0555556
        k(   16) = (   0.0504118   0.0000000   0.0000000), wk =   0.0555556
        k(   17) = (  -0.0756178  -0.0436579   0.0000000), wk =   0.0277778
        k(   18) = (  -0.0756178  -0.0145526   0.0000000), wk =   0.0555556
        k(   19) = (  -0.0756178   0.0145526   0.0000000), wk =   0.0555556
        k(   20) = (  -0.0756178  -0.1309738   0.0000000), wk =   0.0277778
        k(   21) = (   0.0000000   0.0000000   0.0000000), wk =   0.0277778
        k(   22) = (   0.0000000   0.0291053   0.0000000), wk =   0.0555556
        k(   23) = (   0.0000000   0.0582106   0.0000000), wk =   0.0555556
        k(   24) = (   0.0000000  -0.0873159   0.0000000), wk =   0.0277778
        k(   25) = (   0.0252059   0.0145526   0.0000000), wk =   0.0555556
        k(   26) = (   0.0252059   0.0436579   0.0000000), wk =   0.0555556
        k(   27) = (   0.0252059   0.0727632   0.0000000), wk =   0.0555556
        k(   28) = (   0.0252059  -0.0727632   0.0000000), wk =   0.0555556
        k(   29) = (   0.0252059  -0.0436579   0.0000000), wk =   0.0555556
        k(   30) = (   0.0252059  -0.0145526   0.0000000), wk =   0.0555556
        k(   31) = (   0.0504118   0.0291053   0.0000000), wk =   0.0555556
        k(   32) = (   0.0504118   0.0582106   0.0000000), wk =   0.0555556
        k(   33) = (   0.0504118   0.0873159   0.0000000), wk =   0.0555556
        k(   34) = (   0.0504118  -0.0582106   0.0000000), wk =   0.0555556
        k(   35) = (   0.0504118  -0.0291053   0.0000000), wk =   0.0555556
        k(   36) = (   0.0504118   0.0000000   0.0000000), wk =   0.0555556
        k(   37) = (  -0.0756178  -0.0436579   0.0000000), wk =   0.0277778
        k(   38) = (  -0.0756178  -0.0145526   0.0000000), wk =   0.0555556
        k(   39) = (  -0.0756178   0.0145526   0.0000000), wk =   0.0555556
        k(   40) = (  -0.0756178  -0.1309738   0.0000000), wk =   0.0277778

     Largest allocated arrays     est. size (Mb)     dimensions
     Largest temporary arrays     est. size (Mb)     dimensions

     Check: negative/imaginary core charge=   -0.000001    0.000000

     Initial potential from superposition of free atoms
     Check: negative starting charge=(component1):   -0.000364
     Check: negative starting charge=(component2):   -0.000267

     starting charge  146.95978, renormalised to  153.00000

[...]

     *
     * You are using vdW-DF for exchange-correlation in this calculation.
     * Please cite the following three references that made this development
     * possible:
     *
     *   M. Dion, H. Rydberg, E. Schroder, D. C. Langreth, and
     *   B. I. Lundqvist, Phys. Rev. Lett. 92, 246401 (2004).
     *
     *   T. Thonhauser, V. R. Cooper, S. Li, A. Puzder, P. Hyldgaard, and
     *   D. C. Langreth, Phys. Rev. B 76, 125112 (2007).
     *
     *   G. Roman-Perez and J. M. Soler, Phys. Rev. Lett. 103, 096102 (2009).
     *
     *
     * If you are using vdW-DF2, please also cite:
     *
     *   K. Lee, E. D. Murray, L. Kong, B. I. Lundqvist, and
     *   D. C. Langreth, Phys. Rev. B 82, 081101(R) (2010).
     *
     *
     * If you are calculating the stress with vdW-DF, please also cite:
     *
     *   R. Sabatini, E. Kucukbenli, B. Kolb, T. Thonhauser, and
     *   S. de Gironcoli, J. Phys.: Condens. Matter 24, 424209 (2012).
     *

     Carrying out vdW-DF run using the following parameters:

     Nqs =      20    Nr_points =    1024   r_max =   100.000
     q_mesh =
               0.00001000     0.04494208     0.09755937     0.15916263
               0.23128650     0.31572767     0.41458969     0.53033537
               0.66584808     0.82450364     1.01025438     1.22772762
               1.48234092     1.78043706     2.12944203     2.53805004
               3.01644009     3.57652955     4.23227104     5.00000000

     Gradients computed in reciprocal space

[...]

     Starting wfc are  156 randomized atomic wfcs

     Self-consistent Calculation

[...]

     total energy              =   -1876.38861652 Ry
     Harris-Foulkes estimate   =   -1876.38860607 Ry
     estimated scf accuracy    <       0.00000140 Ry

[...]

     iteration # 36     ecut=    36.75 Ry     beta=0.10
     Davidson diagonalization with overlap
     ethr =  9.14E-10,  avg # of iterations =  5.0

[...]

     negative rho (up, down):  3.835E-04 3.967E-04

[...]

     Adding external electric field

     Computed dipole along edir(3) :
        Dipole                0.0538 Ry au,          0.1369 Debye
        Dipole field          0.0001 Ry au

        Potential amp.       -0.0098 Ry
        Total length         46.7969 bohr

     Magnetic moment per site:
     atom:    1    charge:    0.8647    magn:    0.0021    constr:    0.0000
     atom:    2    charge:    0.8647    magn:    0.0021    constr:    0.0000
     atom:    3    charge:    0.8647    magn:    0.0021    constr:    0.0000
     atom:    4    charge:    9.3493    magn:   -0.0008    constr:    0.0000
     atom:    5    charge:    0.8673    magn:    0.0002    constr:    0.0000
     atom:    6    charge:    0.8673    magn:    0.0002    constr:    0.0000
     atom:    7    charge:    0.8673    magn:    0.0002    constr:    0.0000
     atom:    8    charge:    9.3462    magn:    0.0073    constr:    0.0000
     atom:    9    charge:    0.8664    magn:    0.0011    constr:    0.0000
     atom:   10    charge:    0.8664    magn:    0.0011    constr:    0.0000
     atom:   11    charge:    0.8664    magn:    0.0011    constr:    0.0000
     atom:   12    charge:    9.3515    magn:    0.0017    constr:    0.0000

     End of self-consistent calculation

 ------ SPIN UP ------------

[...]

 ------ SPIN DOWN ----------

[...]

          k = 0.0504 0.0000 0.0000 ( 24454 PWs)   bands (ev):

[...]

          k =-0.0756-0.1310 0.0000 ( 24396 PWs)   bands (ev):

  -101.7348-101.6644-101.4482 -62.1567 -62.0964 -62.0961 -62.0471 -62.0468
   -62.0244 -61.8531 -61.8528 -61.8013 -42.0796 -42.0436 -42.0416 -42.0181
   -42.0140 -41.9860 -41.5066 -41.4791 -41.4512 -22.2947 -22.2481 -22.1833
   -22.1442 -22.1189 -22.0792 -22.0690 -22.0545 -22.0471 -22.0342 -21.9970
   -21.9742 -21.9423 -21.9418 -21.9271 -21.9226 -21.7565 -21.6682 -21.6447
   -21.5092 -21.4650 -21.4136 -21.4107 -21.4021 -21.4010 -21.3668 -21.1847
    -2.3575  -2.2789  -1.4161  -1.2257  -0.8314  -0.5319  -0.5156  -0.4661
    -0.4536  -0.4473  -0.3189  -0.2505  -0.2399  -0.1764  -0.1277  -0.1251
    -0.0715   0.0292   0.0348   0.0815   0.1123   0.2528   0.3407   0.6340
     0.8030   0.9281   1.0593   1.0755   1.1722   1.2070   1.3517   1.3838
     1.5265   1.6086   1.7472   1.8118   1.9424   1.9906   2.0382   2.1837
     2.1896   2.5652   2.6963   2.7128   2.8610   2.9140   2.9904   3.1150
     3.1730   3.8321   3.9692   4.1006   4.1637   4.2348   4.2804   4.4072
     4.5412   4.5696

     the Fermi energy is     1.1706 ev

!    total energy              =   -1876.38865311 Ry
     Harris-Foulkes estimate   =   -1876.38863970 Ry
     estimated scf accuracy    <       0.00000096 Ry

     The total energy is the sum of the following terms:

     one-electron contribution =   -9676.28951969 Ry
     hartree contribution      =    4837.67160854 Ry
     xc contribution           =    -364.74017369 Ry
     ewald contribution        =    3327.08587432 Ry
     electric field correction =       0.00000561 Ry
     smearing contrib. (-TS)   =      -0.11644820 Ry

     total magnetization       =     0.73 Bohr mag/cell
     absolute magnetization    =     0.75 Bohr mag/cell

     convergence has been achieved in  36 iterations

 BEEF-vdW xc energy contributions
           1 :   -319.186678098591
           2 :    287.457660765587
           3 :   -233.068545756197
           4 :    169.956693328011
           5 :   -111.184821996449
           6 :    64.7397757564098
           7 :   -32.5939776177258
           8 :    12.5971217026967
           9 :   -1.39554575498414
          10 :   -3.47536260907850
          11 :    3.16845846988389
          12 :    1.57215915900895
          13 :   -9.26553442524028
          14 :    17.3188000320498
          15 :   -22.7531121334351
          16 :    23.5055025030309
          17 :   -19.3825908204640
          18 :    12.0165854663614
          19 :   -3.90943985309372
          20 :   -2.77087137942783
          21 :    6.92407792801697
          22 :   -8.51261153447047
          23 :    8.06192604765920
          24 :   -6.15112323751026
          25 :    3.22679607392280
          26 :   0.258664245952218
          27 :   -3.65416692680355
          28 :    6.13594314522692
          29 :   -7.01412214627123
          30 :    6.11311564579159
          31 :   -29.2392909018120
          32 :   -20.0797574369973

     Forces acting on atoms (Ry/au):

     negative rho (up, down):  3.835E-04 3.967E-04
     atom    1 type  1   force =    -0.00000101    0.01874985   -0.01062585
     atom    2 type  1   force =     0.01623466   -0.00937503   -0.01062611
     atom    3 type  1   force =    -0.01623705   -0.00937393   -0.01062663
     atom    4 type  2   force =     0.00000057   -0.00000490    0.04123002
     atom    5 type  1   force =    -0.00000121    0.00131404   -0.00200810
     atom    6 type  1   force =     0.00113424   -0.00065586   -0.00200437
     atom    7 type  1   force =    -0.00113642   -0.00065648   -0.00200450
     atom    8 type  2   force =     0.00000206   -0.00000047   -0.00179657
     atom    9 type  1   force =    -0.00000075    0.00110381   -0.00053282
     atom   10 type  1   force =     0.00095371   -0.00055149   -0.00053326
     atom   11 type  1   force =    -0.00095468   -0.00054997   -0.00053161
     atom   12 type  2   force =     0.00000589    0.00000043    0.00005979

     Total force =     0.055840     Total SCF correction =     0.001441

     entering subroutine stress ...

     negative rho (up, down):  3.835E-04 3.967E-04
          total   stress  (Ry/bohr**3)                   (kbar)     P=  -11.49
  -0.00008099   0.00000000  -0.00000000        -11.91      0.00     -0.00
   0.00000000  -0.00008099   0.00000000          0.00    -11.91      0.00
  -0.00000000   0.00000000  -0.00007234         -0.00      0.00    -10.64

 !ASE

     Writing output data file calc.save

     General routines

     Parallel routines

   This run was terminated on:  20:53:46   2Jan2019

   JOB DONE.
Job  /afs/slac/g/suncat/bin/suncat-tsmpirun -x LD_LIBRARY_PATH -wdir /scratch/qe649431_eYBlc pw.x -in pw.inp

TID   HOST_NAME   COMMAND_LINE            STATUS            TERMINATION_TIME
00000 suncat0182 pw.x -in pw.inp   Done                     01/02/2019 20:53:46
00001 suncat0182 pw.x -in pw.inp   Done                     01/02/2019 20:53:46
00002 suncat0182 pw.x -in pw.inp   Done                     01/02/2019 20:53:46
00003 suncat0182 pw.x -in pw.inp   Done                     01/02/2019 20:53:46
00004 suncat0182 pw.x -in pw.inp   Done                     01/02/2019 20:53:46
00005 suncat0182 pw.x -in pw.inp   Done                     01/02/2019 20:53:46
00006 suncat0182 pw.x -in pw.inp   Done                     01/02/2019 20:53:46
00007 suncat0182 pw.x -in pw.inp   Done                     01/02/2019 20:53:46
00008 suncat0181 pw.x -in pw.inp   Done                     01/02/2019 20:53:46
00009 suncat0181 pw.x -in pw.inp   Done                     01/02/2019 20:53:46
00010 suncat0181 pw.x -in pw.inp   Done                     01/02/2019 20:53:46
00011 suncat0181 pw.x -in pw.inp   Done                     01/02/2019 20:53:46
00012 suncat0181 pw.x -in pw.inp   Done                     01/02/2019 20:53:46
00013 suncat0181 pw.x -in pw.inp   Done                     01/02/2019 20:53:46
00014 suncat0181 pw.x -in pw.inp   Done                     01/02/2019 20:53:46
00015 suncat0181 pw.x -in pw.inp   Done                     01/02/2019 20:53:46
00016 suncat0132 pw.x -in pw.inp   Done                     01/02/2019 20:53:46
00017 suncat0132 pw.x -in pw.inp   Done                     01/02/2019 20:53:46
00018 suncat0132 pw.x -in pw.inp   Done                     01/02/2019 20:53:46
00019 suncat0132 pw.x -in pw.inp   Done                     01/02/2019 20:53:46
00020 suncat0132 pw.x -in pw.inp   Done                     01/02/2019 20:53:46
00021 suncat0132 pw.x -in pw.inp   Done                     01/02/2019 20:53:46
00022 suncat0132 pw.x -in pw.inp   Done                     01/02/2019 20:53:46
00023 suncat0132 pw.x -in pw.inp   Done                     01/02/2019 20:53:46
00024 suncat0131 pw.x -in pw.inp   Done                     01/02/2019 20:53:46
00025 suncat0131 pw.x -in pw.inp   Done                     01/02/2019 20:53:46
00026 suncat0131 pw.x -in pw.inp   Done                     01/02/2019 20:53:46
00027 suncat0131 pw.x -in pw.inp   Done                     01/02/2019 20:53:46
00028 suncat0131 pw.x -in pw.inp   Done                     01/02/2019 20:53:46
00029 suncat0131 pw.x -in pw.inp   Done                     01/02/2019 20:53:46
00030 suncat0131 pw.x -in pw.inp   Done                     01/02/2019 20:53:46
00031 suncat0131 pw.x -in pw.inp   Done                     01/02/2019 20:53:46
00032 suncat0130 pw.x -in pw.inp   Done                     01/02/2019 20:53:46
00033 suncat0130 pw.x -in pw.inp   Done                     01/02/2019 20:53:46
00034 suncat0130 pw.x -in pw.inp   Done                     01/02/2019 20:53:46
00035 suncat0130 pw.x -in pw.inp   Done                     01/02/2019 20:53:46
00036 suncat0130 pw.x -in pw.inp   Done                     01/02/2019 20:53:46
00037 suncat0130 pw.x -in pw.inp   Done                     01/02/2019 20:53:46
00038 suncat0130 pw.x -in pw.inp   Done                     01/02/2019 20:53:46
00039 suncat0130 pw.x -in pw.inp   Done                     01/02/2019 20:53:46
00040 suncat0124 pw.x -in pw.inp   Done                     01/02/2019 20:53:46
00041 suncat0124 pw.x -in pw.inp   Done                     01/02/2019 20:53:46
00042 suncat0124 pw.x -in pw.inp   Done                     01/02/2019 20:53:46
00043 suncat0124 pw.x -in pw.inp   Done                     01/02/2019 20:53:46
00044 suncat0124 pw.x -in pw.inp   Done                     01/02/2019 20:53:46
00045 suncat0124 pw.x -in pw.inp   Done                     01/02/2019 20:53:46
00046 suncat0124 pw.x -in pw.inp   Done                     01/02/2019 20:53:46
00047 suncat0124 pw.x -in pw.inp   Done                     01/02/2019 20:53:46
00048 suncat0280 pw.x -in pw.inp   Done                     01/02/2019 20:53:46
00049 suncat0280 pw.x -in pw.inp   Done                     01/02/2019 20:53:46
00050 suncat0280 pw.x -in pw.inp   Done                     01/02/2019 20:53:46
00051 suncat0280 pw.x -in pw.inp   Done                     01/02/2019 20:53:46
00052 suncat0280 pw.x -in pw.inp   Done                     01/02/2019 20:53:46
00053 suncat0280 pw.x -in pw.inp   Done                     01/02/2019 20:53:46
00054 suncat0280 pw.x -in pw.inp   Done                     01/02/2019 20:53:46
00055 suncat0280 pw.x -in pw.inp   Done                     01/02/2019 20:53:46
00056 suncat0279 pw.x -in pw.inp   Done                     01/02/2019 20:53:46
00057 suncat0279 pw.x -in pw.inp   Done                     01/02/2019 20:53:46
00058 suncat0279 pw.x -in pw.inp   Done                     01/02/2019 20:53:46
00059 suncat0279 pw.x -in pw.inp   Done                     01/02/2019 20:53:46
00060 suncat0279 pw.x -in pw.inp   Done                     01/02/2019 20:53:46
00061 suncat0279 pw.x -in pw.inp   Done                     01/02/2019 20:53:46
00062 suncat0279 pw.x -in pw.inp   Done                     01/02/2019 20:53:46
00063 suncat0279 pw.x -in pw.inp   Done                     01/02/2019 20:53:46