     Program PWSCF v.5.1rc2 (svn rev. 11289) starts on  2Jan2019 at 12:27:57

     Current dimensions of program PWSCF are:
     Max number of different atomic species (ntypx) = 10
     Max number of k-points (npk) =  40000
     Max angular momentum in pseudopotentials (lmaxx) =  3
     Presently stress not available with electric field

     IMPORTANT: XC functional enforced from input :
     Exchange-correlation      = BEEF-VDW ( 1  4 27 13 2)
     Any further DFT definition will be discarded
     Please, verify this is what you really want

     Subspace diagonalization in iterative solution of the eigenvalue problem:
     a serial algorithm will be used

     bravais-lattice index     =            0
     lattice parameter (alat)  =       1.8897  a.u.
     unit-cell volume          =    6860.2419 (a.u.)^3
     number of atoms/cell      =           12
     number of atomic types    =            2
     number of electrons       =       138.00
     number of Kohn-Sham states=           99
     kinetic-energy cutoff     =      36.7493  Ry
     charge density cutoff     =     367.4932  Ry
     convergence threshold     =      1.0E-06
     mixing beta               =       0.1000
     number of iterations used =           10  plain     mixing
     Exchange-correlation      = BEEF-VDW ( 1  4 27 13 2)
     nstep                     =           50

     celldm(1)=   1.889726  celldm(2)=   0.000000  celldm(3)=   0.000000
     celldm(4)=   0.000000  celldm(5)=   0.000000  celldm(6)=   0.000000

     crystal axes: (cart. coord. in units of alat)
               a(1) = (   6.780018   0.000000   0.000000 )
               a(2) = (  -3.390009   5.871668   0.000000 )
               a(3) = (   0.000000   0.000000  25.535861 )

     reciprocal axes: (cart. coord. in units 2 pi/alat)
               b(1) = (  0.147492  0.085155  0.000000 )
               b(2) = (  0.000000  0.170309  0.000000 )
               b(3) = (  0.000000  0.000000  0.039161 )

     PseudoPot. # 1 for Y  read from file:
     /afs/slac.stanford.edu/u/if/mamunm/psp/gbrv1.5pbe/Y.UPF
     MD5 check sum: d034151ed7554c50b6e82763ed42c788
     Pseudo is Ultrasoft + core correction, Zval = 11.0
     Generated by new atomic code, or converted to UPF format
     Using radial grid of  885 points,  6 beta functions with:
                l(1) =   0
                l(2) =   0
                l(3) =   1
                l(4) =   1
                l(5) =   2
                l(6) =   2
     Q(r) pseudized with  8 coefficients,  rinner =    1.200   1.200   1.200
                                                       1.200   1.200

     PseudoPot. # 2 for Nb read from file:
     /afs/slac.stanford.edu/u/if/mamunm/psp/gbrv1.5pbe/Nb.UPF
     MD5 check sum: 573aab8a2fa660278ed4a62cd769473f
     Pseudo is Ultrasoft + core correction, Zval = 13.0
     Generated by new atomic code, or converted to UPF format
     Using radial grid of  887 points,  6 beta functions with:
                l(1) =   0
                l(2) =   0
                l(3) =   1
                l(4) =   1
                l(5) =   2
                l(6) =   2
     Q(r) pseudized with  6 coefficients,  rinner =    1.000   1.000   1.000
                                                       1.000   1.000

     vdW kernel table read from file vdW_kernel_table
     MD5 check sum: 095c7af220d748ca6e76c0b4c6cfb241

     atomic species   valence    mass     pseudopotential
        Y1            11.00    88.90584     Y ( 1.00)
        Nb1           13.00    92.90637     Nb( 1.00)

     No symmetry found

   Cartesian axes

     site n.     atom                  positions (alat units)
         1           Y1  tau(   1) = (   0.0000000   0.0000000  10.0000000  )
         2           Y1  tau(   2) = (  -1.6950045   2.9358339  10.0000000  )
         3           Y1  tau(   3) = (   1.6950045   2.9358339  10.0000000  )
         4           Nb1 tau(   4) = (   3.3900090   0.0000000  10.0000000  )
         5           Y1  tau(   5) = (   3.3900090   1.9572226  12.7679307  )
         6           Y1  tau(   6) = (   1.6950045   4.8930565  12.7679307  )
         7           Y1  tau(   7) = (  -1.6950045   4.8930565  12.7679307  )
         8           Nb1 tau(   8) = (  -0.0000000   1.9572226  12.7679307  )
         9           Y1  tau(   9) = (  -0.0000000   3.9144452  15.5358614  )
        10           Y1  tau(  10) = (   1.6950045   0.9786113  15.5358614  )
        11           Y1  tau(  11) = (   5.0850134   0.9786113  15.5358614  )
        12           Nb1 tau(  12) = (   3.3900090   3.9144452  15.5358614  )

     number of k points=    20  Fermi-Dirac smearing, width (Ry)=  0.0110
                       cart. coord. in units 2pi/alat
        k(    1) = (   0.0000000   0.0000000   0.0000000), wk =   0.0555556
        k(    2) = (   0.0000000   0.0283849   0.0000000), wk =   0.1111111
        k(    3) = (   0.0000000   0.0567698   0.0000000), wk =   0.1111111
        k(    4) = (   0.0000000  -0.0851547   0.0000000), wk =   0.0555556
        k(    5) = (   0.0245820   0.0141924   0.0000000), wk =   0.1111111
        k(    6) = (   0.0245820   0.0425773   0.0000000), wk =   0.1111111
        k(    7) = (   0.0245820   0.0709622   0.0000000), wk =   0.1111111
        k(    8) = (   0.0245820  -0.0709622   0.0000000), wk =   0.1111111
        k(    9) = (   0.0245820  -0.0425773   0.0000000), wk =   0.1111111
        k(   10) = (   0.0245820  -0.0141924   0.0000000), wk =   0.1111111
        k(   11) = (   0.0491641   0.0283849   0.0000000), wk =   0.1111111
        k(   12) = (   0.0491641   0.0567698   0.0000000), wk =   0.1111111
        k(   13) = (   0.0491641   0.0851547   0.0000000), wk =   0.1111111
        k(   14) = (   0.0491641  -0.0567698   0.0000000), wk =   0.1111111
        k(   15) = (   0.0491641  -0.0283849   0.0000000), wk =   0.1111111
        k(   16) = (   0.0491641   0.0000000   0.0000000), wk =   0.1111111
        k(   17) = (  -0.0737461  -0.0425773   0.0000000), wk =   0.0555556
        k(   18) = (  -0.0737461  -0.0141924   0.0000000), wk =   0.1111111
        k(   19) = (  -0.0737461   0.0141924   0.0000000), wk =   0.1111111
        k(   20) = (  -0.0737461  -0.1277320   0.0000000), wk =   0.0555556

     Largest allocated arrays     est. size (Mb)     dimensions
     Largest temporary arrays     est. size (Mb)     dimensions

     Initial potential from superposition of free atoms
     Check: negative starting charge=   -0.002882

     starting charge  137.95158, renormalised to  138.00000

     negative rho (up, down):  2.883E-03 0.000E+00

     *
     * You are using vdW-DF for exchange-correlation in this calculation.
     * Please cite the following three references that made this development
     * possible:
     *
     *   M. Dion, H. Rydberg, E. Schroder, D. C. Langreth, and
     *   B. I. Lundqvist, Phys. Rev. Lett. 92, 246401 (2004).
     *
     *   T. Thonhauser, V. R. Cooper, S. Li, A. Puzder, P. Hyldgaard, and
     *   D. C. Langreth, Phys. Rev. B 76, 125112 (2007).
     *
     *   G. Roman-Perez and J. M. Soler, Phys. Rev. Lett. 103, 096102 (2009).
     *
     *
     * If you are using vdW-DF2, please also cite:
     *
     *   K. Lee, E. D. Murray, L. Kong, B. I. Lundqvist, and
     *   D. C. Langreth, Phys. Rev. B 82, 081101(R) (2010).
     *
     *
     * If you are calculating the stress with vdW-DF, please also cite:
     *
     *   R. Sabatini, E. Kucukbenli, B. Kolb, T. Thonhauser, and
     *   S. de Gironcoli, J. Phys.: Condens. Matter 24, 424209 (2012).
     *

     Carrying out vdW-DF run using the following parameters:

     Nqs =      20    Nr_points =    1024   r_max =   100.000
     q_mesh =
               0.00001000     0.04494208     0.09755937     0.15916263
               0.23128650     0.31572767     0.41458969     0.53033537
               0.66584808     0.82450364     1.01025438     1.22772762
               1.48234092     1.78043706     2.12944203     2.53805004
               3.01644009     3.57652955     4.23227104     5.00000000

     Gradients computed in reciprocal space

     Adding external electric field

     Computed dipole along edir(3) :
        Dipole               -0.0000 Ry au,         -0.0000 Debye
        Dipole field         -0.0000 Ry au

        Potential amp.        0.0000 Ry
        Total length         47.0494 bohr

     Starting wfc are  156 randomized atomic wfcs

     Self-consistent Calculation

     iteration #  1     ecut=    36.75 Ry     beta=0.10
     Davidson diagonalization with overlap
     ethr =  1.00E-02,  avg # of iterations =  2.0

[...]

     total energy              =   -1197.68626515 Ry
     Harris-Foulkes estimate   =   -1199.20926470 Ry
     estimated scf accuracy    <       8.62284212 Ry

[...]

     iteration # 10     ecut=    36.75 Ry     beta=0.10
     Davidson diagonalization with overlap
     c_bands:  1 eigenvalues not converged
     c_bands:  1 eigenvalues not converged
     c_bands:  1 eigenvalues not converged
     c_bands:  1 eigenvalues not converged
     ethr =  1.80E-06,  avg # of iterations =  9.4

[...]

     End of self-consistent calculation

          k = 0.0000 0.0000 0.0000 ( 25989 PWs)   bands (ev):

   -53.9007 -53.9006 -53.8752 -41.8649 -41.8636 -41.8017 -41.8016 -41.8013
   -41.8013 -41.2853 -41.2232 -41.2232 -29.9371 -29.9357 -29.8875 -29.8875
   -29.8871 -29.8871 -29.8764 -29.8548 -29.8548 -22.1972 -22.1756 -21.9541
   -21.9247 -21.9247 -21.8906 -21.8906 -21.8778 -21.8417 -21.8417 -21.7978
   -21.7978 -21.5956 -21.5719 -21.5630 -21.5299 -21.5299 -21.5239 -21.5239
   -21.3237 -21.3237 -21.2083 -21.1686 -21.1685 -21.0335 -20.9645 -20.9645
    -3.2643  -2.2844  -1.3378  -0.7626  -0.7535  -0.6561  -0.6561  -0.6416
    -0.6416  -0.3245  -0.2649  -0.2649   0.0247   0.0247   0.0880   0.6255
     0.6255   0.7536   1.2367   1.2591   1.4778   1.4778   1.7875   1.8106
     2.0565   2.0970   2.0970   2.1081   2.3612   2.3612   2.5199   2.6117
     2.6117   2.6953   2.6953   2.7337   2.7337   2.8196   2.9463   2.9463
     2.9896   2.9896   3.4409   3.4525   3.4525   3.7926   4.1133   4.1134
     4.3593   4.4411   4.5214

[...]

          k =-0.0737-0.0426 0.0000 ( 25802 PWs)   bands (ev):

[...]

     the Fermi energy is     1.2049 ev

!    total energy              =   -1198.53962472 Ry
     Harris-Foulkes estimate   =   -1198.53962467 Ry
     estimated scf accuracy    <       0.00000005 Ry

     The total energy is the sum of the following terms:

     one-electron contribution =   -6646.87116227 Ry
     hartree contribution      =    3316.02217300 Ry
     xc contribution           =    -311.26981239 Ry
     ewald contribution        =    2443.70232911 Ry
     electric field correction =       0.00000000 Ry
     smearing contrib. (-TS)   =      -0.12315217 Ry

     convergence has been achieved in  20 iterations

 BEEF-vdW xc energy contributions
           1 :   -270.750338762846
           2 :    243.756936306733
           3 :   -197.201642399169
           4 :    142.575938486631
           5 :   -90.8556690190597
           6 :    49.0903294226381
           7 :   -19.5288978685767
           8 :   0.960194681077780
           9 :    9.09348085730096
[...]
     /afs/slac.stanford.edu/u/if/mamunm/psp/gbrv1.5pbe/Y.UPF
     MD5 check sum: d034151ed7554c50b6e82763ed42c788
     Pseudo is Ultrasoft + core correction, Zval = 11.0
     Generated by new atomic code, or converted to UPF format
     Using radial grid of  885 points,  6 beta functions with:
                l(1) =   0
                l(2) =   0
                l(3) =   1
                l(4) =   1
                l(5) =   2
                l(6) =   2
     Q(r) pseudized with  8 coefficients,  rinner =    1.200   1.200   1.200
                                                       1.200   1.200

     PseudoPot. # 2 for Nb read from file:
     /afs/slac.stanford.edu/u/if/mamunm/psp/gbrv1.5pbe/Nb.UPF
     MD5 check sum: 573aab8a2fa660278ed4a62cd769473f
     Pseudo is Ultrasoft + core correction, Zval = 13.0
     Generated by new atomic code, or converted to UPF format
     Using radial grid of  887 points,  6 beta functions with:
                l(1) =   0
                l(2) =   0
                l(3) =   1
                l(4) =   1
                l(5) =   2
                l(6) =   2
     Q(r) pseudized with  6 coefficients,  rinner =    1.000   1.000   1.000
                                                       1.000   1.000

     vdW kernel table read from file vdW_kernel_table
     MD5 check sum: 095c7af220d748ca6e76c0b4c6cfb241

     atomic species   valence    mass     pseudopotential
        Y1            11.00    88.90584     Y ( 1.00)
        Nb1           13.00    92.90637     Nb( 1.00)

     No symmetry found

   Cartesian axes

     site n.     atom                  positions (alat units)
         1           Y1  tau(   1) = (   0.0000000   0.0000000  10.0000000  )
         2           Y1  tau(   2) = (  -1.6950045   2.9358339  10.0000000  )
         3           Y1  tau(   3) = (   1.6950045   2.9358339  10.0000000  )
         4           Nb1 tau(   4) = (   3.3900090   0.0000000  10.0000000  )
         5           Y1  tau(   5) = (   3.3900090   1.9572226  12.7679307  )
         6           Y1  tau(   6) = (   1.6950045   4.8930565  12.7679307  )
         7           Y1  tau(   7) = (  -1.6950045   4.8930565  12.7679307  )
         8           Nb1 tau(   8) = (  -0.0000000   1.9572226  12.7679307  )
         9           Y1  tau(   9) = (   0.0000052   3.8808057  15.5083992  )
        10           Y1  tau(  10) = (   1.6659003   0.9953651  15.5084272  )
        11           Y1  tau(  11) = (   5.1140934   0.9953758  15.5084417  )
        12           Nb1 tau(  12) = (   3.3900131   3.9144565  15.2041304  )

     number of k points=    20  Fermi-Dirac smearing, width (Ry)=  0.0110
                       cart. coord. in units 2pi/alat
        k(    1) = (   0.0000000   0.0000000   0.0000000), wk =   0.0555556
        k(    2) = (   0.0000000   0.0283849   0.0000000), wk =   0.1111111
        k(    3) = (   0.0000000   0.0567698   0.0000000), wk =   0.1111111
        k(    4) = (   0.0000000  -0.0851547   0.0000000), wk =   0.0555556
        k(    5) = (   0.0245820   0.0141924   0.0000000), wk =   0.1111111
        k(    6) = (   0.0245820   0.0425773   0.0000000), wk =   0.1111111
        k(    7) = (   0.0245820   0.0709622   0.0000000), wk =   0.1111111
        k(    8) = (   0.0245820  -0.0709622   0.0000000), wk =   0.1111111
        k(    9) = (   0.0245820  -0.0425773   0.0000000), wk =   0.1111111
        k(   10) = (   0.0245820  -0.0141924   0.0000000), wk =   0.1111111
        k(   11) = (   0.0491641   0.0283849   0.0000000), wk =   0.1111111
        k(   12) = (   0.0491641   0.0567698   0.0000000), wk =   0.1111111
        k(   13) = (   0.0491641   0.0851547   0.0000000), wk =   0.1111111
        k(   14) = (   0.0491641  -0.0567698   0.0000000), wk =   0.1111111
        k(   15) = (   0.0491641  -0.0283849   0.0000000), wk =   0.1111111
        k(   16) = (   0.0491641   0.0000000   0.0000000), wk =   0.1111111
        k(   17) = (  -0.0737461  -0.0425773   0.0000000), wk =   0.0555556
        k(   18) = (  -0.0737461  -0.0141924   0.0000000), wk =   0.1111111
        k(   19) = (  -0.0737461   0.0141924   0.0000000), wk =   0.1111111
        k(   20) = (  -0.0737461  -0.1277320   0.0000000), wk =   0.0555556

     Largest allocated arrays     est. size (Mb)     dimensions
     Largest temporary arrays     est. size (Mb)     dimensions

     Initial potential from superposition of free atoms
     Check: negative starting charge=   -0.002873

     starting charge  137.95158, renormalised to  138.00000

[...]

     *
     * You are using vdW-DF for exchange-correlation in this calculation.
     * Please cite the following three references that made this development
     * possible:
     *
     *   M. Dion, H. Rydberg, E. Schroder, D. C. Langreth, and
     *   B. I. Lundqvist, Phys. Rev. Lett. 92, 246401 (2004).
     *
     *   T. Thonhauser, V. R. Cooper, S. Li, A. Puzder, P. Hyldgaard, and
     *   D. C. Langreth, Phys. Rev. B 76, 125112 (2007).
     *
     *   G. Roman-Perez and J. M. Soler, Phys. Rev. Lett. 103, 096102 (2009).
     *
     *
     * If you are using vdW-DF2, please also cite:
     *
     *   K. Lee, E. D. Murray, L. Kong, B. I. Lundqvist, and
     *   D. C. Langreth, Phys. Rev. B 82, 081101(R) (2010).
     *
     *
     * If you are calculating the stress with vdW-DF, please also cite:
     *
     *   R. Sabatini, E. Kucukbenli, B. Kolb, T. Thonhauser, and
     *   S. de Gironcoli, J. Phys.: Condens. Matter 24, 424209 (2012).
     *

     Carrying out vdW-DF run using the following parameters:

     Nqs =      20    Nr_points =    1024   r_max =   100.000
     q_mesh =
               0.00001000     0.04494208     0.09755937     0.15916263
               0.23128650     0.31572767     0.41458969     0.53033537
               0.66584808     0.82450364     1.01025438     1.22772762
               1.48234092     1.78043706     2.12944203     2.53805004
               3.01644009     3.57652955     4.23227104     5.00000000

     Gradients computed in reciprocal space

[...]

     Starting wfc are  156 randomized atomic wfcs

     Self-consistent Calculation

[...]

     iteration # 10     ecut=    36.75 Ry     beta=0.10
     Davidson diagonalization with overlap
     c_bands:  1 eigenvalues not converged
     ethr =  8.03E-06,  avg # of iterations =  4.2

[...]

     total energy              =   -1198.55710858 Ry
     Harris-Foulkes estimate   =   -1198.55711009 Ry
     estimated scf accuracy    <       0.00000144 Ry

     iteration # 19     ecut=    36.75 Ry     beta=0.10
     Davidson diagonalization with overlap
     ethr =  1.05E-09,  avg # of iterations =  2.0

[...]

     negative rho (up, down):  2.148E-03 0.000E+00

     Adding external electric field

     Computed dipole along edir(3) :
        Dipole                0.0329 Ry au,          0.0836 Debye
        Dipole field          0.0001 Ry au

        Potential amp.       -0.0057 Ry
        Total length         47.0494 bohr

     End of self-consistent calculation

[...]

          k = 0.0492 0.0000 0.0000 ( 25819 PWs)   bands (ev):

[...]

          k =-0.0737-0.1277 0.0000 ( 25802 PWs)   bands (ev):

   -53.8871 -53.8321 -53.7261 -41.8305 -41.8268 -41.8095 -41.8027 -41.7886
   -41.7826 -41.1242 -41.1032 -41.0821 -29.9280 -29.8717 -29.8703 -29.8360
   -29.8130 -29.8117 -29.7493 -29.7480 -29.7396 -22.0364 -22.0200 -21.9020
   -21.8646 -21.8616 -21.8283 -21.8237 -21.8041 -21.7990 -21.7786 -21.7639
   -21.7398 -21.7361 -21.7216 -21.7100 -21.6905 -21.5246 -21.5178 -21.3303
   -21.1346 -21.1088 -21.0660 -21.0583 -21.0571 -21.0362 -21.0269 -20.8507
    -1.9498  -1.8839  -1.0511  -1.0205  -0.3457  -0.1984  -0.1675  -0.0944
    -0.0620   0.0400   0.5108   0.5758   0.6070   0.6315   0.7615   0.8246
     0.8765   0.9377   0.9568   0.9862   1.0822   1.1500   1.2038   1.2128
     1.3195   1.4199   1.4709   1.5747   1.8046   1.8179   1.8927   1.9603
     2.0422   2.1710   2.2386   2.3876   2.6406   2.7235   2.9441   3.0899
     3.1410   3.3458   3.3719   3.4090   3.6160   3.6553   3.7289   3.8755
     4.0557   4.0646   4.2563

     the Fermi energy is     1.2238 ev

!    total energy              =   -1198.55711166 Ry
     Harris-Foulkes estimate   =   -1198.55710904 Ry
     estimated scf accuracy    <       0.00000076 Ry

     The total energy is the sum of the following terms:

     one-electron contribution =   -6753.29733709 Ry
     hartree contribution      =    3369.53076572 Ry
     xc contribution           =    -311.38691725 Ry
     ewald contribution        =    2496.71513021 Ry
     electric field correction =       0.00000198 Ry
     smearing contrib. (-TS)   =      -0.11875523 Ry

     convergence has been achieved in  19 iterations

 BEEF-vdW xc energy contributions
           1 :   -270.869098328051
           2 :    243.918572169945
           3 :   -197.404854839285
           4 :    142.765835959963
           5 :   -90.9582556937638
           6 :    49.0671024200590
           7 :   -19.4110574744395
           8 :   0.832548659867484
           9 :    9.15084258559619
          10 :   -12.7179461051120
          11 :    11.2788173247494
          12 :   -5.97612316251389
          13 :   -1.58643242563085
          14 :    9.10099193949100
          15 :   -14.0714323284943
          16 :    14.7608943195903
          17 :   -10.9342809462061
          18 :    3.89962951268365
          19 :    4.15328028111503
          20 :   -11.0929944380984
          21 :    15.5447895577736
          22 :   -17.0891177609392
          23 :    16.0398353897154
          24 :   -13.0824680424014
          25 :    9.00972108999582
          26 :   -4.62410498094323
          27 :   0.712391033194308
          28 :    2.03466556050995
          29 :   -3.19482469918182
          30 :    2.78161069114196
          31 :   -26.8096103382491
          32 :   -18.7304927572616

     Forces acting on atoms (Ry/au):

     negative rho (up, down):  2.148E-03 0.000E+00
     atom    1 type  1   force =     0.00000151    0.01304963   -0.00347829
     atom    2 type  1   force =     0.01130137   -0.00652476   -0.00347916
     atom    3 type  1   force =    -0.01130173   -0.00652584   -0.00347804
     atom    4 type  2   force =     0.00000100    0.00000070    0.03836971
     atom    5 type  1   force =    -0.00000045   -0.00416234   -0.00987202
     atom    6 type  1   force =    -0.00360130    0.00208192   -0.00987952
     atom    7 type  1   force =     0.00360114    0.00208347   -0.00987949
     atom    8 type  2   force =    -0.00000036   -0.00000335    0.00448957
     atom    9 type  1   force =    -0.00000146   -0.00132304   -0.00047349
     atom   10 type  1   force =    -0.00114988    0.00066141   -0.00047731
     atom   11 type  1   force =     0.00115089    0.00066602   -0.00047532
     atom   12 type  2   force =    -0.00000074   -0.00000383   -0.00136665

     Total force =     0.048908     Total SCF correction =     0.001775

     entering subroutine stress ...

     negative rho (up, down):  2.148E-03 0.000E+00
          total   stress  (Ry/bohr**3)                   (kbar)     P=   -4.71
  -0.00003429   0.00000000   0.00000000         -5.04      0.00      0.00
   0.00000000  -0.00003429   0.00000000          0.00     -5.04      0.00
   0.00000000   0.00000000  -0.00002755          0.00      0.00     -4.05

 !ASE

     Writing output data file calc.save

     General routines

     Parallel routines

   This run was terminated on:  13:55:34   2Jan2019

   JOB DONE.
Job  /afs/slac/g/suncat/bin/suncat-tsmpirun -x LD_LIBRARY_PATH -wdir /scratch/qe649430_I7amQ pw.x -in pw.inp

TID   HOST_NAME   COMMAND_LINE            STATUS            TERMINATION_TIME
00000 suncat0165 pw.x -in pw.inp   Done                     01/02/2019 13:55:34
00001 suncat0165 pw.x -in pw.inp   Done                     01/02/2019 13:55:34
00002 suncat0165 pw.x -in pw.inp   Done                     01/02/2019 13:55:34
00003 suncat0165 pw.x -in pw.inp   Done                     01/02/2019 13:55:34
00004 suncat0165 pw.x -in pw.inp   Done                     01/02/2019 13:55:34
00005 suncat0165 pw.x -in pw.inp   Done                     01/02/2019 13:55:34
00006 suncat0165 pw.x -in pw.inp   Done                     01/02/2019 13:55:34
00007 suncat0165 pw.x -in pw.inp   Done                     01/02/2019 13:55:34
00008 suncat0164 pw.x -in pw.inp   Done                     01/02/2019 13:55:34
00009 suncat0164 pw.x -in pw.inp   Done                     01/02/2019 13:55:34
00010 suncat0164 pw.x -in pw.inp   Done                     01/02/2019 13:55:34
00011 suncat0164 pw.x -in pw.inp   Done                     01/02/2019 13:55:34
00012 suncat0164 pw.x -in pw.inp   Done                     01/02/2019 13:55:34
00013 suncat0164 pw.x -in pw.inp   Done                     01/02/2019 13:55:34
00014 suncat0164 pw.x -in pw.inp   Done                     01/02/2019 13:55:34
00015 suncat0164 pw.x -in pw.inp   Done                     01/02/2019 13:55:34
00016 suncat0159 pw.x -in pw.inp   Done                     01/02/2019 13:55:34
00017 suncat0159 pw.x -in pw.inp   Done                     01/02/2019 13:55:34
00018 suncat0159 pw.x -in pw.inp   Done                     01/02/2019 13:55:34
00019 suncat0159 pw.x -in pw.inp   Done                     01/02/2019 13:55:34
00020 suncat0159 pw.x -in pw.inp   Done                     01/02/2019 13:55:34
00021 suncat0159 pw.x -in pw.inp   Done                     01/02/2019 13:55:34
00022 suncat0159 pw.x -in pw.inp   Done                     01/02/2019 13:55:34
00023 suncat0159 pw.x -in pw.inp   Done                     01/02/2019 13:55:34
00024 suncat0155 pw.x -in pw.inp   Done                     01/02/2019 13:55:34
00025 suncat0155 pw.x -in pw.inp   Done                     01/02/2019 13:55:34
00026 suncat0155 pw.x -in pw.inp   Done                     01/02/2019 13:55:34
00027 suncat0155 pw.x -in pw.inp   Done                     01/02/2019 13:55:34
00028 suncat0155 pw.x -in pw.inp   Done                     01/02/2019 13:55:34
00029 suncat0155 pw.x -in pw.inp   Done                     01/02/2019 13:55:34
00030 suncat0155 pw.x -in pw.inp   Done                     01/02/2019 13:55:34
00031 suncat0155 pw.x -in pw.inp   Done                     01/02/2019 13:55:34
00032 suncat0106 pw.x -in pw.inp   Done                     01/02/2019 13:55:34
00033 suncat0106 pw.x -in pw.inp   Done                     01/02/2019 13:55:34
00034 suncat0106 pw.x -in pw.inp   Done                     01/02/2019 13:55:34
00035 suncat0106 pw.x -in pw.inp   Done                     01/02/2019 13:55:34
00036 suncat0106 pw.x -in pw.inp   Done                     01/02/2019 13:55:34
00037 suncat0106 pw.x -in pw.inp   Done                     01/02/2019 13:55:34
00038 suncat0106 pw.x -in pw.inp   Done                     01/02/2019 13:55:34
00039 suncat0106 pw.x -in pw.inp   Done                     01/02/2019 13:55:34
00040 suncat0105 pw.x -in pw.inp   Done                     01/02/2019 13:55:34
00041 suncat0105 pw.x -in pw.inp   Done                     01/02/2019 13:55:34
00042 suncat0105 pw.x -in pw.inp   Done                     01/02/2019 13:55:34
00043 suncat0105 pw.x -in pw.inp   Done                     01/02/2019 13:55:34
00044 suncat0105 pw.x -in pw.inp   Done                     01/02/2019 13:55:34
00045 suncat0105 pw.x -in pw.inp   Done                     01/02/2019 13:55:34
00046 suncat0105 pw.x -in pw.inp   Done                     01/02/2019 13:55:34
00047 suncat0105 pw.x -in pw.inp   Done                     01/02/2019 13:55:34
00048 suncat0277 pw.x -in pw.inp   Done                     01/02/2019 13:55:34
00049 suncat0277 pw.x -in pw.inp   Done                     01/02/2019 13:55:34
00050 suncat0277 pw.x -in pw.inp   Done                     01/02/2019 13:55:34
00051 suncat0277 pw.x -in pw.inp   Done                     01/02/2019 13:55:34
00052 suncat0277 pw.x -in pw.inp   Done                     01/02/2019 13:55:34
00053 suncat0277 pw.x -in pw.inp   Done                     01/02/2019 13:55:34
00054 suncat0277 pw.x -in pw.inp   Done                     01/02/2019 13:55:34
00055 suncat0277 pw.x -in pw.inp   Done                     01/02/2019 13:55:34
00056 suncat0276 pw.x -in pw.inp   Done                     01/02/2019 13:55:34
00057 suncat0276 pw.x -in pw.inp   Done                     01/02/2019 13:55:34
00058 suncat0276 pw.x -in pw.inp   Done                     01/02/2019 13:55:34
00059 suncat0276 pw.x -in pw.inp   Done                     01/02/2019 13:55:34
00060 suncat0276 pw.x -in pw.inp   Done                     01/02/2019 13:55:34
00061 suncat0276 pw.x -in pw.inp   Done                     01/02/2019 13:55:34
00062 suncat0276 pw.x -in pw.inp   Done                     01/02/2019 13:55:34
00063 suncat0276 pw.x -in pw.inp   Done                     01/02/2019 13:55:34