     Program PWSCF v.5.1rc2 (svn rev. 11289) starts on 26Dec2018 at 16:36:35

     Current dimensions of program PWSCF are:
     Max number of different atomic species (ntypx) = 10
     Max number of k-points (npk) =  40000
     Max angular momentum in pseudopotentials (lmaxx) =  3
     Presently stress not available with electric field

     IMPORTANT: XC functional enforced from input :
     Exchange-correlation      = BEEF-VDW ( 1  4 27 13 2)
     Any further DFT definition will be discarded
     Please, verify this is what you really want

     Subspace diagonalization in iterative solution of the eigenvalue problem:
     a serial algorithm will be used

     bravais-lattice index     =            0
     lattice parameter (alat)  =       1.8897  a.u.
     unit-cell volume          =    4361.8064 (a.u.)^3
     number of atoms/cell      =           12
     number of atomic types    =            2
     number of electrons       =       177.00
     number of Kohn-Sham states=          118
     kinetic-energy cutoff     =      36.7493  Ry
     charge density cutoff     =     367.4932  Ry
     convergence threshold     =      1.0E-06
     mixing beta               =       0.1000
     number of iterations used =           10  plain     mixing
     Exchange-correlation      = BEEF-VDW ( 1  4 27 13 2)
     nstep                     =           50

     celldm(1)=   1.889726  celldm(2)=   0.000000  celldm(3)=   0.000000
     celldm(4)=   0.000000  celldm(5)=   0.000000  celldm(6)=   0.000000

     crystal axes: (cart. coord. in units of alat)
               a(1) = (   5.518660   0.000000   0.000000 )
               a(2) = (  -2.759330   4.779300   0.000000 )
               a(3) = (   0.000000   0.000000  24.505967 )

     reciprocal axes: (cart. coord. in units 2 pi/alat)
               b(1) = (  0.181203  0.104618  0.000000 )
               b(2) = (  0.000000  0.209236  0.000000 )
               b(3) = (  0.000000  0.000000  0.040806 )

     PseudoPot. # 1 for Ir read from file:
     /afs/slac.stanford.edu/u/if/mamunm/psp/gbrv1.5pbe/Ir.UPF
     MD5 check sum: 8836f839c3459d2b385c504ce6d91f2c
     Pseudo is Ultrasoft + core correction, Zval = 15.0
     Generated by new atomic code, or converted to UPF format
     Using radial grid of  983 points,  7 beta functions with:
                l(1) =   0
                l(2) =   0
                l(3) =   1
                l(4) =   1
                l(5) =   1
                l(6) =   2
                l(7) =   2
     Q(r) pseudized with  8 coefficients,  rinner =    1.400   1.400   1.400
                                                       1.400   1.400

     PseudoPot. # 2 for W  read from file:
     /afs/slac.stanford.edu/u/if/mamunm/psp/gbrv1.5pbe/W.UPF
     MD5 check sum: 9c083fa34c2a2ea0f02f1f893e16e1c8
     Pseudo is Ultrasoft + core correction, Zval = 14.0
     Generated by new atomic code, or converted to UPF format
     Using radial grid of  923 points,  8 beta functions with:
                l(1) =   0
                l(2) =   0
                l(3) =   0
                l(4) =   1
                l(5) =   1
                l(6) =   2
                l(7) =   2
                l(8) =   3
     Q(r) pseudized with  6 coefficients,  rinner =    1.350   1.350   1.350
                                                       1.350   1.350   1.350
                                                       1.350

     vdW kernel table read from file vdW_kernel_table
     MD5 check sum: 095c7af220d748ca6e76c0b4c6cfb241

     atomic species   valence    mass     pseudopotential
        Ir1           15.00   192.21700     Ir( 1.00)
        W1            14.00   183.84000     W ( 1.00)

     No symmetry found

   Cartesian axes

     site n.     atom                  positions (alat units)
         1           Ir1 tau(   1) = (   0.0000000   0.0000000  10.0000000  )
         2           Ir1 tau(   2) = (  -1.3796650   2.3896500  10.0000000  )
         3           Ir1 tau(   3) = (   1.3796650   2.3896500  10.0000000  )
         4           W1  tau(   4) = (   2.7593301   0.0000000  10.0000000  )
         5           Ir1 tau(   5) = (   2.7593301   1.5931000  12.2529836  )
         6           Ir1 tau(   6) = (   1.3796650   3.9827499  12.2529836  )
         7           Ir1 tau(   7) = (  -1.3796650   3.9827499  12.2529836  )
         8           W1  tau(   8) = (   0.0000000   1.5931000  12.2529836  )
         9           Ir1 tau(   9) = (  -0.0000000   3.1861999  14.5059672  )
        10           Ir1 tau(  10) = (   1.3796650   0.7965500  14.5059672  )
        11           Ir1 tau(  11) = (   4.1389951   0.7965500  14.5059672  )
        12           W1  tau(  12) = (   2.7593301   3.1861999  14.5059672  )

     number of k points=    20  Fermi-Dirac smearing, width (Ry)=  0.0110
                       cart. coord. in units 2pi/alat
        k(    1) = (   0.0000000   0.0000000   0.0000000), wk =   0.0555556
        k(    2) = (   0.0000000   0.0348726   0.0000000), wk =   0.1111111
        k(    3) = (   0.0000000   0.0697452   0.0000000), wk =   0.1111111
        k(    4) = (   0.0000000  -0.1046178   0.0000000), wk =   0.0555556
        k(    5) = (   0.0302006   0.0174363   0.0000000), wk =   0.1111111
        k(    6) = (   0.0302006   0.0523089   0.0000000), wk =   0.1111111
        k(    7) = (   0.0302006   0.0871815   0.0000000), wk =   0.1111111
        k(    8) = (   0.0302006  -0.0871815   0.0000000), wk =   0.1111111
        k(    9) = (   0.0302006  -0.0523089   0.0000000), wk =   0.1111111
        k(   10) = (   0.0302006  -0.0174363   0.0000000), wk =   0.1111111
        k(   11) = (   0.0604011   0.0348726   0.0000000), wk =   0.1111111
        k(   12) = (   0.0604011   0.0697452   0.0000000), wk =   0.1111111
        k(   13) = (   0.0604011   0.1046178   0.0000000), wk =   0.1111111
        k(   14) = (   0.0604011  -0.0697452   0.0000000), wk =   0.1111111
        k(   15) = (   0.0604011  -0.0348726   0.0000000), wk =   0.1111111
        k(   16) = (   0.0604011   0.0000000   0.0000000), wk =   0.1111111
        k(   17) = (  -0.0906017  -0.0523089   0.0000000), wk =   0.0555556
        k(   18) = (  -0.0906017  -0.0174363   0.0000000), wk =   0.1111111
        k(   19) = (  -0.0906017   0.0174363   0.0000000), wk =   0.1111111
        k(   20) = (  -0.0906017  -0.1569267   0.0000000), wk =   0.0555556

     Largest allocated arrays     est. size (Mb)     dimensions
     Largest temporary arrays     est. size (Mb)     dimensions

     Initial potential from superposition of free atoms
     Check: negative starting charge=   -3.457245

     starting charge  172.19870, renormalised to  177.00000

     negative rho (up, down):  3.554E+00 0.000E+00

     *
     * You are using vdW-DF for exchange-correlation in this calculation.
     * Please cite the following three references that made this development
     * possible:
     *
     *   M. Dion, H. Rydberg, E. Schroder, D. C. Langreth, and
     *   B. I. Lundqvist, Phys. Rev. Lett. 92, 246401 (2004).
     *
     *   T. Thonhauser, V. R. Cooper, S. Li, A. Puzder, P. Hyldgaard, and
     *   D. C. Langreth, Phys. Rev. B 76, 125112 (2007).
     *
     *   G. Roman-Perez and J. M. Soler, Phys. Rev. Lett. 103, 096102 (2009).
     *
     *
     * If you are using vdW-DF2, please also cite:
     *
     *   K. Lee, E. D. Murray, L. Kong, B. I. Lundqvist, and
     *   D. C. Langreth, Phys. Rev. B 82, 081101(R) (2010).
     *
     *
     * If you are calculating the stress with vdW-DF, please also cite:
     *
     *   R. Sabatini, E. Kucukbenli, B. Kolb, T. Thonhauser, and
     *   S. de Gironcoli, J. Phys.: Condens. Matter 24, 424209 (2012).
     *

     Carrying out vdW-DF run using the following parameters:

     Nqs =      20    Nr_points =    1024   r_max =   100.000
     q_mesh =
               0.00001000     0.04494208     0.09755937     0.15916263
               0.23128650     0.31572767     0.41458969     0.53033537
               0.66584808     0.82450364     1.01025438     1.22772762
               1.48234092     1.78043706     2.12944203     2.53805004
               3.01644009     3.57652955     4.23227104     5.00000000

     Gradients computed in reciprocal space

     Adding external electric field

     Computed dipole along edir(3) :
        Dipole                0.0000 Ry au,          0.0000 Debye
        Dipole field          0.0000 Ry au

        Potential amp.       -0.0000 Ry
        Total length         45.1518 bohr

     Starting wfc are  147 randomized atomic wfcs

     Self-consistent Calculation

     iteration #  1     ecut=    36.75 Ry     beta=0.10
     Davidson diagonalization with overlap
     ethr =  1.00E-02,  avg # of iterations =  8.0

[...]

     total energy              =   -2131.61458609 Ry
     Harris-Foulkes estimate   =   -2133.83776013 Ry
     estimated scf accuracy    <      13.84833060 Ry

[...]

     End of self-consistent calculation

          k = 0.0000 0.0000 0.0000 ( 16307 PWs)   bands (ev):

   -72.8699 -72.6416 -72.6414 -47.5196 -47.3607 -47.3607 -47.3184 -47.2561
   -47.2561 -47.1193 -47.0599 -47.0599 -46.9093 -46.9008 -46.8365 -46.8365
   -46.8077 -46.8077 -46.6448 -46.6227 -46.6168 -46.6037 -46.5961 -46.5961
   -46.5727 -46.5727 -46.4760 -46.4760 -46.4754 -46.4754 -36.9292 -36.9292
   -36.8337 -36.7698 -36.7569 -36.6030 -36.6030 -36.5999 -36.5999  -6.8869
    -4.9300  -4.5457  -4.2466  -4.2466  -4.2135  -3.9018  -3.8937  -3.8937
    -3.3742  -3.3742  -3.3037  -3.0653  -3.0627  -3.0627  -1.6621  -1.5952
    -1.5952  -1.1372  -1.1372  -0.9568  -0.7053  -0.5961  -0.5380  -0.5380
    -0.4561  -0.1487  -0.1487   0.1826   0.1826   0.2185   0.2185   0.2342
     0.2342   0.9533   1.3660   1.4999   1.6579   1.6579   1.8099   1.8099
     1.8605   1.8605   2.3567   2.8587   2.8852   2.9015   2.9015   3.3363
     3.3363   3.3793   3.8871   3.8871   3.9287   3.9395   3.9961   4.0822
     4.0822   4.1538   4.4741   4.4741   4.7401   4.7401   5.1729   5.1729
     5.4710   5.4710   6.0771   6.0771   6.2486   6.5431   6.5431   6.9509
     7.1087   7.2023   7.6363   8.5285   9.4548   9.5698

[...]

          k =-0.0906-0.0523 0.0000 ( 16424 PWs)   bands (ev):

[...]

     the Fermi energy is     2.4782 ev

!    total energy              =   -2131.29252735 Ry
     Harris-Foulkes estimate   =   -2131.29251570 Ry
     estimated scf accuracy    <       0.00000069 Ry

     The total energy is the sum of the following terms:

     one-electron contribution =  -17499.15695339 Ry
     hartree contribution      =    8766.67066383 Ry
     xc contribution           =    -595.26596174 Ry
     ewald contribution        =    7196.52078033 Ry
     electric field correction =       0.00000000 Ry
     smearing contrib. (-TS)   =      -0.06105638 Ry

     convergence has been achieved in  16 iterations

 BEEF-vdW xc energy contributions
           1 :   -526.634087267797
           2 :    489.533884138345
           3 :   -423.317266011119
           4 :    341.228729006659
           5 :   -257.732207813202
           6 :    184.652172163583
           7 :   -128.652912029919
           8 :    90.6432441919648
           9 :   -67.0112826741687
[...]
     Pseudo is Ultrasoft + core correction, Zval = 15.0
     Generated by new atomic code, or converted to UPF format
     Using radial grid of  983 points,  7 beta functions with:
                l(1) =   0
                l(2) =   0
                l(3) =   1
                l(4) =   1
                l(5) =   1
                l(6) =   2
                l(7) =   2
     Q(r) pseudized with  8 coefficients,  rinner =    1.400   1.400   1.400
                                                       1.400   1.400

     PseudoPot. # 2 for W  read from file:
     /afs/slac.stanford.edu/u/if/mamunm/psp/gbrv1.5pbe/W.UPF
     MD5 check sum: 9c083fa34c2a2ea0f02f1f893e16e1c8
     Pseudo is Ultrasoft + core correction, Zval = 14.0
     Generated by new atomic code, or converted to UPF format
     Using radial grid of  923 points,  8 beta functions with:
                l(1) =   0
                l(2) =   0
                l(3) =   0
                l(4) =   1
                l(5) =   1
                l(6) =   2
                l(7) =   2
                l(8) =   3
     Q(r) pseudized with  6 coefficients,  rinner =    1.350   1.350   1.350
                                                       1.350   1.350   1.350
                                                       1.350

     vdW kernel table read from file vdW_kernel_table
     MD5 check sum: 095c7af220d748ca6e76c0b4c6cfb241

     atomic species   valence    mass     pseudopotential
        Ir1           15.00   192.21700     Ir( 1.00)
        W1            14.00   183.84000     W ( 1.00)

     No symmetry found

   Cartesian axes

     site n.     atom                  positions (alat units)
         1           Ir1 tau(   1) = (   0.0000000   0.0000000  10.0000000  )
         2           Ir1 tau(   2) = (  -1.3796650   2.3896500  10.0000000  )
         3           Ir1 tau(   3) = (   1.3796650   2.3896500  10.0000000  )
         4           W1  tau(   4) = (   2.7593301   0.0000000  10.0000000  )
         5           Ir1 tau(   5) = (   2.7593301   1.5931000  12.2529836  )
         6           Ir1 tau(   6) = (   1.3796650   3.9827499  12.2529836  )
         7           Ir1 tau(   7) = (  -1.3796650   3.9827499  12.2529836  )
         8           W1  tau(   8) = (   0.0000000   1.5931000  12.2529836  )
         9           Ir1 tau(   9) = (   0.0000001   3.1445424  14.4285428  )
        10           Ir1 tau(  10) = (   1.3435898   0.8173780  14.4285426  )
        11           Ir1 tau(  11) = (   4.1750719   0.8173778  14.4285420  )
        12           W1  tau(  12) = (   2.7593300   3.1861999  14.4164031  )

     number of k points=    20  Fermi-Dirac smearing, width (Ry)=  0.0110
                       cart. coord. in units 2pi/alat
        k(    1) = (   0.0000000   0.0000000   0.0000000), wk =   0.0555556
        k(    2) = (   0.0000000   0.0348726   0.0000000), wk =   0.1111111
        k(    3) = (   0.0000000   0.0697452   0.0000000), wk =   0.1111111
        k(    4) = (   0.0000000  -0.1046178   0.0000000), wk =   0.0555556
        k(    5) = (   0.0302006   0.0174363   0.0000000), wk =   0.1111111
        k(    6) = (   0.0302006   0.0523089   0.0000000), wk =   0.1111111
        k(    7) = (   0.0302006   0.0871815   0.0000000), wk =   0.1111111
        k(    8) = (   0.0302006  -0.0871815   0.0000000), wk =   0.1111111
        k(    9) = (   0.0302006  -0.0523089   0.0000000), wk =   0.1111111
        k(   10) = (   0.0302006  -0.0174363   0.0000000), wk =   0.1111111
        k(   11) = (   0.0604011   0.0348726   0.0000000), wk =   0.1111111
        k(   12) = (   0.0604011   0.0697452   0.0000000), wk =   0.1111111
        k(   13) = (   0.0604011   0.1046178   0.0000000), wk =   0.1111111
        k(   14) = (   0.0604011  -0.0697452   0.0000000), wk =   0.1111111
        k(   15) = (   0.0604011  -0.0348726   0.0000000), wk =   0.1111111
        k(   16) = (   0.0604011   0.0000000   0.0000000), wk =   0.1111111
        k(   17) = (  -0.0906017  -0.0523089   0.0000000), wk =   0.0555556
        k(   18) = (  -0.0906017  -0.0174363   0.0000000), wk =   0.1111111
        k(   19) = (  -0.0906017   0.0174363   0.0000000), wk =   0.1111111
        k(   20) = (  -0.0906017  -0.1569267   0.0000000), wk =   0.0555556

     Largest allocated arrays     est. size (Mb)     dimensions
     Largest temporary arrays     est. size (Mb)     dimensions

     Initial potential from superposition of free atoms
     Check: negative starting charge=   -3.455358

     starting charge  172.19870, renormalised to  177.00000

[...]

     *
     * You are using vdW-DF for exchange-correlation in this calculation.
     * Please cite the following three references that made this development
     * possible:
     *
     *   M. Dion, H. Rydberg, E. Schroder, D. C. Langreth, and
     *   B. I. Lundqvist, Phys. Rev. Lett. 92, 246401 (2004).
     *
     *   T. Thonhauser, V. R. Cooper, S. Li, A. Puzder, P. Hyldgaard, and
     *   D. C. Langreth, Phys. Rev. B 76, 125112 (2007).
     *
     *   G. Roman-Perez and J. M. Soler, Phys. Rev. Lett. 103, 096102 (2009).
     *
     *
     * If you are using vdW-DF2, please also cite:
     *
     *   K. Lee, E. D. Murray, L. Kong, B. I. Lundqvist, and
     *   D. C. Langreth, Phys. Rev. B 82, 081101(R) (2010).
     *
     *
     * If you are calculating the stress with vdW-DF, please also cite:
     *
     *   R. Sabatini, E. Kucukbenli, B. Kolb, T. Thonhauser, and
     *   S. de Gironcoli, J. Phys.: Condens. Matter 24, 424209 (2012).
     *

     Carrying out vdW-DF run using the following parameters:

     Nqs =      20    Nr_points =    1024   r_max =   100.000
     q_mesh =
               0.00001000     0.04494208     0.09755937     0.15916263
               0.23128650     0.31572767     0.41458969     0.53033537
               0.66584808     0.82450364     1.01025438     1.22772762
               1.48234092     1.78043706     2.12944203     2.53805004
               3.01644009     3.57652955     4.23227104     5.00000000

     Gradients computed in reciprocal space

[...]

     Starting wfc are  147 randomized atomic wfcs

     Self-consistent Calculation

[...]

     total energy              =   -2131.30532400 Ry
     Harris-Foulkes estimate   =   -2131.30531651 Ry
     estimated scf accuracy    <       0.00000115 Ry

     iteration # 17     ecut=    36.75 Ry     beta=0.10
     Davidson diagonalization with overlap
     ethr =  6.48E-10,  avg # of iterations =  3.0

[...]

     negative rho (up, down):  3.097E+00 0.000E+00

     Adding external electric field

     Computed dipole along edir(3) :
        Dipole                0.0145 Ry au,          0.0368 Debye
        Dipole field          0.0000 Ry au

        Potential amp.       -0.0038 Ry
        Total length         45.1518 bohr

     End of self-consistent calculation

[...]

          k = 0.0604 0.0000 0.0000 ( 16420 PWs)   bands (ev):

[...]

          k =-0.0906-0.1569 0.0000 ( 16424 PWs)   bands (ev):

   -72.8333 -72.6153 -72.6045 -47.4709 -47.3543 -47.3443 -47.3130 -47.3026
   -47.2930 -47.2850 -47.2665 -47.1145 -46.9193 -46.8157 -46.8014 -46.8009
   -46.7292 -46.6977 -46.6957 -46.6926 -46.6803 -46.6706 -46.6616 -46.6507
   -46.6021 -46.5661 -46.5648 -46.5489 -46.5380 -46.4481 -36.9315 -36.9178
   -36.8139 -36.7511 -36.7306 -36.6113 -36.5985 -36.5854 -36.5722  -5.1116
    -5.0549  -3.5849  -3.5293  -3.2727  -3.2517  -3.1902  -3.1352  -3.1288
    -2.9954  -2.6909  -2.4793  -2.3238  -2.0683  -2.0534  -1.9993  -1.8898
    -1.8211  -1.6944  -1.3919  -1.3105  -1.0163  -0.7997  -0.5968  -0.5578
    -0.5452  -0.4406  -0.3378  -0.2691  -0.2202  -0.0961  -0.0942  -0.0813
    -0.0026   0.0543   0.2441   0.2993   0.3883   0.5678   0.6354   0.7447
     0.8589   0.9666   1.2033   1.5219   1.5867   1.7320   1.7744   2.1149
     2.1803   2.3998   2.4917   2.7070   2.8964   2.9104   3.1404   3.1891
     3.4844   3.6536   3.7192   3.8243   4.4135   4.5046   4.9913   5.1559
     5.4139   5.5799   6.4418   7.1526   7.3721   7.5450   7.7480   8.3793
     8.5581   8.5638   8.6736   9.1615   9.2165   9.2469

     the Fermi energy is     2.5020 ev

!    total energy              =   -2131.30532417 Ry
     Harris-Foulkes estimate   =   -2131.30532428 Ry
     estimated scf accuracy    <       0.00000054 Ry

     The total energy is the sum of the following terms:

     one-electron contribution =  -17702.96471582 Ry
     hartree contribution      =    8868.49276275 Ry
     xc contribution           =    -595.48100492 Ry
     ewald contribution        =    7298.70534144 Ry
     electric field correction =       0.00000060 Ry
     smearing contrib. (-TS)   =      -0.05770822 Ry

     convergence has been achieved in  17 iterations

 BEEF-vdW xc energy contributions
           1 :   -526.853643757769
           2 :    489.835270039386
           3 :   -423.733326248823
           4 :    341.719325547248
           5 :   -258.198022641061
           6 :    184.980046232271
           7 :   -128.771446646856
           8 :    90.5605601305769
           9 :   -66.8153133849602
          10 :    51.7949775516614
          11 :   -40.0059941533710
          12 :    27.9445754282739
          13 :   -14.6930017612649
          14 :    1.42718592168626
          15 :    9.73200222249920
          16 :   -16.9609935950240
          17 :    19.5897699698145
          18 :   -18.3267922890462
          19 :    14.8812991575091
          20 :   -11.2397407495379
          21 :    8.93662218502243
          22 :   -8.60049669395414
          23 :    9.89809402189132
          24 :   -11.8387276530120
          25 :    13.2757069766661
          26 :   -13.3925932001667
          27 :    11.9940743439020
          28 :   -9.51868595440681
          29 :    6.80193734546651
          30 :   -4.71010417033779
          31 :   -45.6012976353808
          32 :   -34.2264270740355

     Forces acting on atoms (Ry/au):

     negative rho (up, down):  3.097E+00 0.000E+00
     atom    1 type  1   force =    -0.00000000    0.02549367    0.02099219
     atom    2 type  1   force =     0.02207818   -0.01274682    0.02099246
     atom    3 type  1   force =    -0.02207816   -0.01274677    0.02099265
     atom    4 type  2   force =     0.00000008   -0.00000015    0.02052368
     atom    5 type  1   force =     0.00000013    0.00000097   -0.01728226
     atom    6 type  1   force =     0.00000051   -0.00000070   -0.01728199
     atom    7 type  1   force =    -0.00000080   -0.00000040   -0.01728211
     atom    8 type  2   force =    -0.00000005   -0.00000006   -0.02881323
     atom    9 type  1   force =    -0.00000005   -0.00077575   -0.00076126
     atom   10 type  1   force =    -0.00067155    0.00038790   -0.00076117
     atom   11 type  1   force =     0.00067179    0.00038808   -0.00076111
     atom   12 type  2   force =    -0.00000008    0.00000004   -0.00055785

     Total force =     0.073642     Total SCF correction =     0.003906

     entering subroutine stress ...

     negative rho (up, down):  3.097E+00 0.000E+00
          total   stress  (Ry/bohr**3)                   (kbar)     P=  -34.10
  -0.00027839   0.00000000  -0.00000000        -40.95      0.00     -0.00
   0.00000000  -0.00027839   0.00000000          0.00    -40.95      0.00
  -0.00000000   0.00000000  -0.00013861         -0.00      0.00    -20.39

 !ASE

     Writing output data file calc.save

     General routines

     Parallel routines

   This run was terminated on:  17:45:59  26Dec2018

   JOB DONE.
Job  /afs/slac/g/suncat/bin/suncat-tsmpirun -x LD_LIBRARY_PATH -wdir /scratch/qe109976_W5hZe pw.x -in pw.inp

TID   HOST_NAME   COMMAND_LINE            STATUS            TERMINATION_TIME
00000 suncat0163 pw.x -in pw.inp   Done                     12/26/2018 17:45:59
00001 suncat0163 pw.x -in pw.inp   Done                     12/26/2018 17:45:59
00002 suncat0163 pw.x -in pw.inp   Done                     12/26/2018 17:45:59
00003 suncat0163 pw.x -in pw.inp   Done                     12/26/2018 17:45:59
00004 suncat0163 pw.x -in pw.inp   Done                     12/26/2018 17:45:59
00005 suncat0163 pw.x -in pw.inp   Done                     12/26/2018 17:45:59
00006 suncat0163 pw.x -in pw.inp   Done                     12/26/2018 17:45:59
00007 suncat0163 pw.x -in pw.inp   Done                     12/26/2018 17:45:59
00008 suncat0162 pw.x -in pw.inp   Done                     12/26/2018 17:45:59
00009 suncat0162 pw.x -in pw.inp   Done                     12/26/2018 17:45:59
00010 suncat0162 pw.x -in pw.inp   Done                     12/26/2018 17:45:59
00011 suncat0162 pw.x -in pw.inp   Done                     12/26/2018 17:45:59
00012 suncat0162 pw.x -in pw.inp   Done                     12/26/2018 17:45:59
00013 suncat0162 pw.x -in pw.inp   Done                     12/26/2018 17:45:59
00014 suncat0162 pw.x -in pw.inp   Done                     12/26/2018 17:45:59
00015 suncat0162 pw.x -in pw.inp   Done                     12/26/2018 17:45:59
00016 suncat0145 pw.x -in pw.inp   Done                     12/26/2018 17:45:59
00017 suncat0145 pw.x -in pw.inp   Done                     12/26/2018 17:45:59
00018 suncat0145 pw.x -in pw.inp   Done                     12/26/2018 17:45:59
00019 suncat0145 pw.x -in pw.inp   Done                     12/26/2018 17:45:59
00020 suncat0145 pw.x -in pw.inp   Done                     12/26/2018 17:45:59
00021 suncat0145 pw.x -in pw.inp   Done                     12/26/2018 17:45:59
00022 suncat0145 pw.x -in pw.inp   Done                     12/26/2018 17:45:59
00023 suncat0145 pw.x -in pw.inp   Done                     12/26/2018 17:45:59
00024 suncat0144 pw.x -in pw.inp   Done                     12/26/2018 17:45:59
00025 suncat0144 pw.x -in pw.inp   Done                     12/26/2018 17:45:59
00026 suncat0144 pw.x -in pw.inp   Done                     12/26/2018 17:45:59
00027 suncat0144 pw.x -in pw.inp   Done                     12/26/2018 17:45:59
00028 suncat0144 pw.x -in pw.inp   Done                     12/26/2018 17:45:59
00029 suncat0144 pw.x -in pw.inp   Done                     12/26/2018 17:45:59
00030 suncat0144 pw.x -in pw.inp   Done                     12/26/2018 17:45:59
00031 suncat0144 pw.x -in pw.inp   Done                     12/26/2018 17:45:59
00032 suncat0133 pw.x -in pw.inp   Done                     12/26/2018 17:45:59
00033 suncat0133 pw.x -in pw.inp   Done                     12/26/2018 17:45:59
00034 suncat0133 pw.x -in pw.inp   Done                     12/26/2018 17:45:59
00035 suncat0133 pw.x -in pw.inp   Done                     12/26/2018 17:45:59
00036 suncat0133 pw.x -in pw.inp   Done                     12/26/2018 17:45:59
00037 suncat0133 pw.x -in pw.inp   Done                     12/26/2018 17:45:59
00038 suncat0133 pw.x -in pw.inp   Done                     12/26/2018 17:45:59
00039 suncat0133 pw.x -in pw.inp   Done                     12/26/2018 17:45:59
00040 suncat0132 pw.x -in pw.inp   Done                     12/26/2018 17:45:59
00041 suncat0132 pw.x -in pw.inp   Done                     12/26/2018 17:45:59
00042 suncat0132 pw.x -in pw.inp   Done                     12/26/2018 17:45:59
00043 suncat0132 pw.x -in pw.inp   Done                     12/26/2018 17:45:59
00044 suncat0132 pw.x -in pw.inp   Done                     12/26/2018 17:45:59
00045 suncat0132 pw.x -in pw.inp   Done                     12/26/2018 17:45:59
00046 suncat0132 pw.x -in pw.inp   Done                     12/26/2018 17:45:59
00047 suncat0132 pw.x -in pw.inp   Done                     12/26/2018 17:45:59
00048 suncat0131 pw.x -in pw.inp   Done                     12/26/2018 17:45:59
00049 suncat0131 pw.x -in pw.inp   Done                     12/26/2018 17:45:59
00050 suncat0131 pw.x -in pw.inp   Done                     12/26/2018 17:45:59
00051 suncat0131 pw.x -in pw.inp   Done                     12/26/2018 17:45:59
00052 suncat0131 pw.x -in pw.inp   Done                     12/26/2018 17:45:59
00053 suncat0131 pw.x -in pw.inp   Done                     12/26/2018 17:45:59
00054 suncat0131 pw.x -in pw.inp   Done                     12/26/2018 17:45:59
00055 suncat0131 pw.x -in pw.inp   Done                     12/26/2018 17:45:59
00056 suncat0130 pw.x -in pw.inp   Done                     12/26/2018 17:45:59
00057 suncat0130 pw.x -in pw.inp   Done                     12/26/2018 17:45:59
00058 suncat0130 pw.x -in pw.inp   Done                     12/26/2018 17:45:59
00059 suncat0130 pw.x -in pw.inp   Done                     12/26/2018 17:45:59
00060 suncat0130 pw.x -in pw.inp   Done                     12/26/2018 17:45:59
00061 suncat0130 pw.x -in pw.inp   Done                     12/26/2018 17:45:59
00062 suncat0130 pw.x -in pw.inp   Done                     12/26/2018 17:45:59
00063 suncat0130 pw.x -in pw.inp   Done                     12/26/2018 17:45:59