     Program PWSCF v.5.1rc2 (svn rev. 11289) starts on  2Jan2019 at  3:28:57

     Current dimensions of program PWSCF are:
     Max number of different atomic species (ntypx) = 10
     Max number of k-points (npk) =  40000
     Max angular momentum in pseudopotentials (lmaxx) =  3
     Presently stress not available with electric field

     IMPORTANT: XC functional enforced from input :
     Exchange-correlation      = BEEF-VDW ( 1  4 27 13 2)
     Any further DFT definition will be discarded
     Please, verify this is what you really want

     Subspace diagonalization in iterative solution of the eigenvalue problem:
     a serial algorithm will be used

     bravais-lattice index     =            0
     lattice parameter (alat)  =       1.8897  a.u.
     unit-cell volume          =    4335.4510 (a.u.)^3
     number of atoms/cell      =           12
     number of atomic types    =            2
     number of electrons       =       174.00
     number of Kohn-Sham states=          117
     kinetic-energy cutoff     =      36.7493  Ry
     charge density cutoff     =     367.4932  Ry
     convergence threshold     =      1.0E-06
     mixing beta               =       0.1000
     number of iterations used =           10  plain     mixing
     Exchange-correlation      = BEEF-VDW ( 1  4 27 13 2)
     nstep                     =           50

     celldm(1)=   1.889726  celldm(2)=   0.000000  celldm(3)=   0.000000
     celldm(4)=   0.000000  celldm(5)=   0.000000  celldm(6)=   0.000000

     crystal axes: (cart. coord. in units of alat)
               a(1) = (   5.503365   0.000000   0.000000 )
               a(2) = (  -2.751682   4.766054   0.000000 )
               a(3) = (   0.000000   0.000000  24.493478 )

     reciprocal axes: (cart. coord. in units 2 pi/alat)
               b(1) = (  0.181707  0.104909  0.000000 )
               b(2) = (  0.000000  0.209817  0.000000 )
               b(3) = (  0.000000  0.000000  0.040827 )

     PseudoPot. # 1 for V  read from file:
     /afs/slac.stanford.edu/u/if/mamunm/psp/gbrv1.5pbe/V.UPF
     MD5 check sum: 22b79981416ebb76fdaf5b1b8640f6fb
     Pseudo is Ultrasoft + core correction, Zval = 13.0
     Generated by new atomic code, or converted to UPF format
     Using radial grid of  853 points,  6 beta functions with:
                l(1) =   0
                l(2) =   0
                l(3) =   1
                l(4) =   1
                l(5) =   2
                l(6) =   2
     Q(r) pseudized with  8 coefficients,  rinner =    1.100   1.100   1.100
                                                       1.100   1.100

     PseudoPot. # 2 for Ag read from file:
     /afs/slac.stanford.edu/u/if/mamunm/psp/gbrv1.5pbe/Ag.UPF
     MD5 check sum: d66d668201baa78d5eb5b04ef7011058
     Pseudo is Ultrasoft + core correction, Zval = 19.0
     Generated by new atomic code, or converted to UPF format
     Using radial grid of  887 points,  6 beta functions with:
                l(1) =   0
                l(2) =   0
                l(3) =   1
                l(4) =   1
                l(5) =   2
                l(6) =   2
     Q(r) pseudized with  6 coefficients,  rinner =    1.300   1.300   1.300
                                                       1.300   1.300

     vdW kernel table read from file vdW_kernel_table
     MD5 check sum: 095c7af220d748ca6e76c0b4c6cfb241

     atomic species   valence    mass     pseudopotential
        V1            13.00    50.94150     V ( 1.00)
        Ag1           19.00   107.86820     Ag( 1.00)

     No symmetry found

   Cartesian axes

     site n.     atom                  positions (alat units)
         1           V1  tau(   1) = (   0.0000000   0.0000000  10.0000000  )
         2           V1  tau(   2) = (  -1.3758412   2.3830268  10.0000000  )
         3           V1  tau(   3) = (   1.3758412   2.3830268  10.0000000  )
         4           Ag1 tau(   4) = (   2.7516823   0.0000000  10.0000000  )
         5           V1  tau(   5) = (   2.7516823   1.5886845  12.2467392  )
         6           V1  tau(   6) = (   1.3758412   3.9717113  12.2467392  )
         7           V1  tau(   7) = (  -1.3758412   3.9717113  12.2467392  )
         8           Ag1 tau(   8) = (   0.0000000   1.5886845  12.2467392  )
         9           V1  tau(   9) = (  -0.0000000   3.1773691  14.4934784  )
        10           V1  tau(  10) = (   1.3758412   0.7943423  14.4934784  )
        11           V1  tau(  11) = (   4.1275235   0.7943423  14.4934784  )
        12           Ag1 tau(  12) = (   2.7516823   3.1773691  14.4934784  )

     number of k points=    20  Fermi-Dirac smearing, width (Ry)=  0.0110
                       cart. coord. in units 2pi/alat
        k(    1) = (   0.0000000   0.0000000   0.0000000), wk =   0.0555556
        k(    2) = (   0.0000000   0.0349695   0.0000000), wk =   0.1111111
        k(    3) = (   0.0000000   0.0699391   0.0000000), wk =   0.1111111
        k(    4) = (   0.0000000  -0.1049086   0.0000000), wk =   0.0555556
        k(    5) = (   0.0302845   0.0174848   0.0000000), wk =   0.1111111
        k(    6) = (   0.0302845   0.0524543   0.0000000), wk =   0.1111111
        k(    7) = (   0.0302845   0.0874238   0.0000000), wk =   0.1111111
        k(    8) = (   0.0302845  -0.0874238   0.0000000), wk =   0.1111111
        k(    9) = (   0.0302845  -0.0524543   0.0000000), wk =   0.1111111
        k(   10) = (   0.0302845  -0.0174848   0.0000000), wk =   0.1111111
        k(   11) = (   0.0605690   0.0349695   0.0000000), wk =   0.1111111
        k(   12) = (   0.0605690   0.0699391   0.0000000), wk =   0.1111111
        k(   13) = (   0.0605690   0.1049086   0.0000000), wk =   0.1111111
        k(   14) = (   0.0605690  -0.0699391   0.0000000), wk =   0.1111111
        k(   15) = (   0.0605690  -0.0349695   0.0000000), wk =   0.1111111
        k(   16) = (   0.0605690   0.0000000   0.0000000), wk =   0.1111111
        k(   17) = (  -0.0908535  -0.0524543   0.0000000), wk =   0.0555556
        k(   18) = (  -0.0908535  -0.0174848   0.0000000), wk =   0.1111111
        k(   19) = (  -0.0908535   0.0174848   0.0000000), wk =   0.1111111
        k(   20) = (  -0.0908535  -0.1573629   0.0000000), wk =   0.0555556

     Largest allocated arrays     est. size (Mb)     dimensions
     Largest temporary arrays     est. size (Mb)     dimensions

     Initial potential from superposition of free atoms
     Check: negative starting charge=   -0.007254

     starting charge  172.48881, renormalised to  174.00000

     negative rho (up, down):  7.318E-03 0.000E+00

     *
     * You are using vdW-DF for exchange-correlation in this calculation.
     * Please cite the following three references that made this development
     * possible:
     *
     *   M. Dion, H. Rydberg, E. Schroder, D. C. Langreth, and
     *   B. I. Lundqvist, Phys. Rev. Lett. 92, 246401 (2004).
     *
     *   T. Thonhauser, V. R. Cooper, S. Li, A. Puzder, P. Hyldgaard, and
     *   D. C. Langreth, Phys. Rev. B 76, 125112 (2007).
     *
     *   G. Roman-Perez and J. M. Soler, Phys. Rev. Lett. 103, 096102 (2009).
     *
     *
     * If you are using vdW-DF2, please also cite:
     *
     *   K. Lee, E. D. Murray, L. Kong, B. I. Lundqvist, and
     *   D. C. Langreth, Phys. Rev. B 82, 081101(R) (2010).
     *
     *
     * If you are calculating the stress with vdW-DF, please also cite:
     *
     *   R. Sabatini, E. Kucukbenli, B. Kolb, T. Thonhauser, and
     *   S. de Gironcoli, J. Phys.: Condens. Matter 24, 424209 (2012).
     *

     Carrying out vdW-DF run using the following parameters:

     Nqs =      20    Nr_points =    1024   r_max =   100.000
     q_mesh =
               0.00001000     0.04494208     0.09755937     0.15916263
               0.23128650     0.31572767     0.41458969     0.53033537
               0.66584808     0.82450364     1.01025438     1.22772762
               1.48234092     1.78043706     2.12944203     2.53805004
               3.01644009     3.57652955     4.23227104     5.00000000

     Gradients computed in reciprocal space

     Adding external electric field

     Computed dipole along edir(3) :
        Dipole               -0.0000 Ry au,         -0.0000 Debye
        Dipole field         -0.0000 Ry au

        Potential amp.        0.0000 Ry
        Total length         45.1288 bohr

     Starting wfc are  129 randomized atomic wfcs

     Self-consistent Calculation

     iteration #  1     ecut=    36.75 Ry     beta=0.10
     Davidson diagonalization with overlap
     ethr =  1.00E-02,  avg # of iterations =  2.7

[...]

     total energy              =   -2200.58411362 Ry
     Harris-Foulkes estimate   =   -2202.45465801 Ry
     estimated scf accuracy    <      10.54757741 Ry

[...]

     End of self-consistent calculation

          k = 0.0000 0.0000 0.0000 ( 16211 PWs)   bands (ev):

   -91.5689 -91.4482 -91.4482 -63.0478 -63.0378 -62.9782 -62.9780 -62.9756
   -62.9755 -62.9519 -62.8967 -62.8965 -55.0360 -55.0360 -55.0312 -54.9397
   -54.9397 -54.9396 -54.9396 -54.8685 -54.8681 -37.0536 -37.0165 -36.9776
   -36.9737 -36.9735 -36.9735 -36.9525 -36.9524 -36.9366 -36.9065 -36.9064
   -36.8872 -36.8870 -36.7962 -36.7962 -36.7210 -36.6951 -36.6614 -36.6613
   -36.6283 -36.5912 -36.5282 -36.5281 -36.5250 -36.5249 -36.5004 -36.5002
    -5.3139  -4.5077  -4.5077  -4.3950  -4.3801  -4.3801  -4.3034  -4.1793
    -4.1793  -4.1009  -4.1009  -4.0135  -3.7519  -3.7519  -3.5753  -3.5753
    -3.0714  -2.3380  -1.6309  -1.1128  -0.8109  -0.1001   0.0082   0.1112
     0.1112   0.3836   0.3837   0.4393   0.4394   0.7239   0.7240   0.8457
     0.8457   0.8643   0.9557   1.1230   1.1230   1.4532   1.4532   1.5453
     1.5868   1.5990   1.9090   1.9091   2.0738   2.4710   2.7429   2.7429
     2.7663   2.7664   2.8221   2.8630   2.8630   2.9704   2.9705   3.1072
     3.1073   3.1744   3.1745   3.2987   3.2988   3.5241   3.5452   3.5452
     4.0067   4.0661   4.1600   4.5169   4.5762

[...]

          k =-0.0909-0.0525 0.0000 ( 16280 PWs)   bands (ev):

[...]

     the Fermi energy is     1.2797 ev

!    total energy              =   -2201.33450440 Ry
     Harris-Foulkes estimate   =   -2201.33450350 Ry
     estimated scf accuracy    <       0.00000099 Ry

     The total energy is the sum of the following terms:

     one-electron contribution =  -17798.45309262 Ry
     hartree contribution      =    8886.51409822 Ry
     xc contribution           =    -273.13165639 Ry
     ewald contribution        =    6983.86514895 Ry
     electric field correction =       0.00000000 Ry
     smearing contrib. (-TS)   =      -0.12900256 Ry

     convergence has been achieved in  21 iterations

 BEEF-vdW xc energy contributions
           1 :   -235.905252225021
           2 :    212.551742513545
           3 :   -173.751126509594
           4 :    131.427979395378
           5 :   -96.1878409269860
           6 :    73.3716329406475
           7 :   -62.2418443858834
           8 :    58.0787772351131
           9 :   -55.5343120520752
          10 :    51.2968229655637
          11 :   -44.9450173682591
          12 :    38.0558110839019
          13 :   -32.5265127069147
          14 :    29.2359518497308
[...]

     PseudoPot. # 1 for V  read from file:
     /afs/slac.stanford.edu/u/if/mamunm/psp/gbrv1.5pbe/V.UPF
     MD5 check sum: 22b79981416ebb76fdaf5b1b8640f6fb
     Pseudo is Ultrasoft + core correction, Zval = 13.0
     Generated by new atomic code, or converted to UPF format
     Using radial grid of  853 points,  6 beta functions with:
                l(1) =   0
                l(2) =   0
                l(3) =   1
                l(4) =   1
                l(5) =   2
                l(6) =   2
     Q(r) pseudized with  8 coefficients,  rinner =    1.100   1.100   1.100
                                                       1.100   1.100

     PseudoPot. # 2 for Ag read from file:
     /afs/slac.stanford.edu/u/if/mamunm/psp/gbrv1.5pbe/Ag.UPF
     MD5 check sum: d66d668201baa78d5eb5b04ef7011058
     Pseudo is Ultrasoft + core correction, Zval = 19.0
     Generated by new atomic code, or converted to UPF format
     Using radial grid of  887 points,  6 beta functions with:
                l(1) =   0
                l(2) =   0
                l(3) =   1
                l(4) =   1
                l(5) =   2
                l(6) =   2
     Q(r) pseudized with  6 coefficients,  rinner =    1.300   1.300   1.300
                                                       1.300   1.300

     vdW kernel table read from file vdW_kernel_table
     MD5 check sum: 095c7af220d748ca6e76c0b4c6cfb241

     atomic species   valence    mass     pseudopotential
        V1            13.00    50.94150     V ( 1.00)
        Ag1           19.00   107.86820     Ag( 1.00)

     No symmetry found

   Cartesian axes

     site n.     atom                  positions (alat units)
         1           V1  tau(   1) = (   0.0000000   0.0000000  10.0000000  )
         2           V1  tau(   2) = (  -1.3758412   2.3830268  10.0000000  )
         3           V1  tau(   3) = (   1.3758412   2.3830268  10.0000000  )
         4           Ag1 tau(   4) = (   2.7516823   0.0000000  10.0000000  )
         5           V1  tau(   5) = (   2.7516823   1.5886845  12.2467392  )
         6           V1  tau(   6) = (   1.3758412   3.9717113  12.2467392  )
         7           V1  tau(   7) = (  -1.3758412   3.9717113  12.2467392  )
         8           Ag1 tau(   8) = (   0.0000000   1.5886845  12.2467392  )
         9           V1  tau(   9) = (   0.0000059   3.2817514  14.3074929  )
        10           V1  tau(  10) = (   1.4662129   0.7421150  14.3074904  )
        11           V1  tau(  11) = (   4.0370804   0.7420628  14.3074150  )
        12           Ag1 tau(  12) = (   2.7517067   3.1772989  14.7475703  )

     number of k points=    20  Fermi-Dirac smearing, width (Ry)=  0.0110
                       cart. coord. in units 2pi/alat
        k(    1) = (   0.0000000   0.0000000   0.0000000), wk =   0.0555556
        k(    2) = (   0.0000000   0.0349695   0.0000000), wk =   0.1111111
        k(    3) = (   0.0000000   0.0699391   0.0000000), wk =   0.1111111
        k(    4) = (   0.0000000  -0.1049086   0.0000000), wk =   0.0555556
        k(    5) = (   0.0302845   0.0174848   0.0000000), wk =   0.1111111
        k(    6) = (   0.0302845   0.0524543   0.0000000), wk =   0.1111111
        k(    7) = (   0.0302845   0.0874238   0.0000000), wk =   0.1111111
        k(    8) = (   0.0302845  -0.0874238   0.0000000), wk =   0.1111111
        k(    9) = (   0.0302845  -0.0524543   0.0000000), wk =   0.1111111
        k(   10) = (   0.0302845  -0.0174848   0.0000000), wk =   0.1111111
        k(   11) = (   0.0605690   0.0349695   0.0000000), wk =   0.1111111
        k(   12) = (   0.0605690   0.0699391   0.0000000), wk =   0.1111111
        k(   13) = (   0.0605690   0.1049086   0.0000000), wk =   0.1111111
        k(   14) = (   0.0605690  -0.0699391   0.0000000), wk =   0.1111111
        k(   15) = (   0.0605690  -0.0349695   0.0000000), wk =   0.1111111
        k(   16) = (   0.0605690   0.0000000   0.0000000), wk =   0.1111111
        k(   17) = (  -0.0908535  -0.0524543   0.0000000), wk =   0.0555556
        k(   18) = (  -0.0908535  -0.0174848   0.0000000), wk =   0.1111111
        k(   19) = (  -0.0908535   0.0174848   0.0000000), wk =   0.1111111
        k(   20) = (  -0.0908535  -0.1573629   0.0000000), wk =   0.0555556

     Largest allocated arrays     est. size (Mb)     dimensions
     Largest temporary arrays     est. size (Mb)     dimensions

     Initial potential from superposition of free atoms
     Check: negative starting charge=   -0.009028

     starting charge  172.48881, renormalised to  174.00000

[...]

     *
     * You are using vdW-DF for exchange-correlation in this calculation.
     * Please cite the following three references that made this development
     * possible:
     *
     *   M. Dion, H. Rydberg, E. Schroder, D. C. Langreth, and
     *   B. I. Lundqvist, Phys. Rev. Lett. 92, 246401 (2004).
     *
     *   T. Thonhauser, V. R. Cooper, S. Li, A. Puzder, P. Hyldgaard, and
     *   D. C. Langreth, Phys. Rev. B 76, 125112 (2007).
     *
     *   G. Roman-Perez and J. M. Soler, Phys. Rev. Lett. 103, 096102 (2009).
     *
     *
     * If you are using vdW-DF2, please also cite:
     *
     *   K. Lee, E. D. Murray, L. Kong, B. I. Lundqvist, and
     *   D. C. Langreth, Phys. Rev. B 82, 081101(R) (2010).
     *
     *
     * If you are calculating the stress with vdW-DF, please also cite:
     *
     *   R. Sabatini, E. Kucukbenli, B. Kolb, T. Thonhauser, and
     *   S. de Gironcoli, J. Phys.: Condens. Matter 24, 424209 (2012).
     *

     Carrying out vdW-DF run using the following parameters:

     Nqs =      20    Nr_points =    1024   r_max =   100.000
     q_mesh =
               0.00001000     0.04494208     0.09755937     0.15916263
               0.23128650     0.31572767     0.41458969     0.53033537
               0.66584808     0.82450364     1.01025438     1.22772762
               1.48234092     1.78043706     2.12944203     2.53805004
               3.01644009     3.57652955     4.23227104     5.00000000

     Gradients computed in reciprocal space

[...]

     Starting wfc are  129 randomized atomic wfcs

     Self-consistent Calculation

[...]

     total energy              =   -2201.35789238 Ry
     Harris-Foulkes estimate   =   -2201.35789147 Ry
     estimated scf accuracy    <       0.00000213 Ry

     iteration # 23     ecut=    36.75 Ry     beta=0.10
     Davidson diagonalization with overlap
     ethr =  1.22E-09,  avg # of iterations =  2.0

[...]

     negative rho (up, down):  1.096E-02 0.000E+00

     Adding external electric field

     Computed dipole along edir(3) :
        Dipole               -0.0347 Ry au,         -0.0882 Debye
        Dipole field         -0.0001 Ry au

        Potential amp.        0.0091 Ry
        Total length         45.1288 bohr

     End of self-consistent calculation

[...]

          k = 0.0606 0.0000 0.0000 ( 16338 PWs)   bands (ev):

[...]

          k =-0.0909-0.1574 0.0000 ( 16280 PWs)   bands (ev):

   -91.7383 -91.5307 -91.1754 -63.0969 -63.0757 -63.0539 -63.0064 -62.9455
   -62.9254 -62.9045 -62.8963 -62.8784 -55.2179 -55.2019 -55.2016 -55.0197
   -55.0194 -54.9540 -54.6934 -54.6932 -54.5540 -37.0871 -37.0681 -37.0319
   -37.0089 -36.9905 -36.9565 -36.9507 -36.9395 -36.9074 -36.9014 -36.8698
   -36.8638 -36.8561 -36.8422 -36.7980 -36.7837 -36.7558 -36.6883 -36.6670
   -36.6346 -36.6091 -36.6083 -36.5713 -36.5415 -36.5163 -36.5071 -36.4857
    -4.5192  -4.3961  -4.3576  -4.3329  -4.2364  -4.1865  -4.0198  -3.9692
    -3.9157  -3.8303  -3.8094  -3.7083  -3.6255  -3.4880  -3.4006  -3.1787
    -3.0794  -1.9778  -1.9227  -1.3793  -1.1503  -0.8079  -0.7149  -0.2799
    -0.0916   0.1610   0.1909   0.1931   0.2907   0.3858   0.3919   0.5328
     0.6301   0.6562   0.7370   0.8487   0.8758   0.9389   0.9656   1.0958
     1.3081   1.3130   1.5001   1.5880   1.6158   1.7083   1.7969   1.8329
     2.2054   2.3217   2.3675   2.5996   2.6260   2.6411   2.7281   2.7843
     2.7920   2.8217   2.8973   2.9789   3.2402   3.4424   3.6086   3.7046
     3.8319   3.9914   4.0018   4.7114   5.1720

     the Fermi energy is     1.2078 ev

!    total energy              =   -2201.35789394 Ry
     Harris-Foulkes estimate   =   -2201.35789378 Ry
     estimated scf accuracy    <       0.00000088 Ry

     The total energy is the sum of the following terms:

     one-electron contribution =  -17889.49309450 Ry
     hartree contribution      =    8932.00303232 Ry
     xc contribution           =    -273.34774361 Ry
     ewald contribution        =    7029.60464794 Ry
     electric field correction =       0.00000349 Ry
     smearing contrib. (-TS)   =      -0.12473958 Ry

     convergence has been achieved in  23 iterations

 BEEF-vdW xc energy contributions
           1 :   -236.116764044455
           2 :    212.788979189029
           3 :   -174.000957876366
           4 :    131.631490427993
           5 :   -96.2752677168795
           6 :    73.3124853360104
           7 :   -62.0704707494270
           8 :    57.8771790211744
           9 :   -55.3855372749718
          10 :    51.2379054567618
          11 :   -44.9453924917375
          12 :    38.0342692562721
          13 :   -32.4013956306766
          14 :    28.9826486233936
          15 :   -27.3941863794156
          16 :    26.4878726240426
          17 :   -25.2474650156703
          18 :    23.3705812300058
          19 :   -21.2365633343347
          20 :    19.4268992015859
          21 :   -18.2364614929141
          22 :    17.5170636488996
          23 :   -16.8860548960592
          24 :    16.0591442999031
          25 :   -15.0355436757249
          26 :    14.0317570219994
          27 :   -13.2701364071536
          28 :    12.8065446300895
          29 :   -12.5161409024713
          30 :    12.2154328124246
          31 :   -24.1024551613563
          32 :   -17.4760664397190

     Forces acting on atoms (Ry/au):

     negative rho (up, down):  1.096E-02 0.000E+00
     atom    1 type  1   force =    -0.00000414   -0.00713651    0.02012317
     atom    2 type  1   force =    -0.00617953    0.00356221    0.02012745
     atom    3 type  1   force =     0.00617362    0.00356360    0.02013400
     atom    4 type  2   force =    -0.00001829   -0.00000553   -0.03386081
     atom    5 type  1   force =    -0.00000139    0.01623163    0.00177531
     atom    6 type  1   force =     0.01406578   -0.00811976    0.00176531
     atom    7 type  1   force =    -0.01406523   -0.00811715    0.00177005
     atom    8 type  2   force =     0.00001879    0.00002965   -0.02899627
     atom    9 type  1   force =     0.00000210   -0.00006559   -0.00064957
     atom   10 type  1   force =    -0.00005489    0.00002964   -0.00064584
     atom   11 type  1   force =     0.00005507    0.00002696   -0.00064718
     atom   12 type  2   force =     0.00000812    0.00000086   -0.00089561

     Total force =     0.064481     Total SCF correction =     0.006371

     entering subroutine stress ...

     negative rho (up, down):  1.096E-02 0.000E+00
          total   stress  (Ry/bohr**3)                   (kbar)     P=   -8.02
  -0.00006218  -0.00000001  -0.00000001         -9.15     -0.00     -0.00
  -0.00000001  -0.00006215  -0.00000001         -0.00     -9.14     -0.00
  -0.00000001  -0.00000001  -0.00003921         -0.00     -0.00     -5.77

 !ASE

     Writing output data file calc.save

     General routines

     Parallel routines

   This run was terminated on:   6: 6:32   2Jan2019

   JOB DONE.
Job  /afs/slac/g/suncat/bin/suncat-tsmpirun -x LD_LIBRARY_PATH -wdir /scratch/qe649287_YiBVL pw.x -in pw.inp

TID   HOST_NAME   COMMAND_LINE            STATUS            TERMINATION_TIME
00000 suncat0031 pw.x -in pw.inp   Done                     01/02/2019 06:06:32
00001 suncat0031 pw.x -in pw.inp   Done                     01/02/2019 06:06:32
00002 suncat0031 pw.x -in pw.inp   Done                     01/02/2019 06:06:32
00003 suncat0031 pw.x -in pw.inp   Done                     01/02/2019 06:06:32
00004 suncat0031 pw.x -in pw.inp   Done                     01/02/2019 06:06:32
00005 suncat0031 pw.x -in pw.inp   Done                     01/02/2019 06:06:32
00006 suncat0031 pw.x -in pw.inp   Done                     01/02/2019 06:06:32
00007 suncat0031 pw.x -in pw.inp   Done                     01/02/2019 06:06:32
00008 suncat0030 pw.x -in pw.inp   Done                     01/02/2019 06:06:32
00009 suncat0030 pw.x -in pw.inp   Done                     01/02/2019 06:06:32
00010 suncat0030 pw.x -in pw.inp   Done                     01/02/2019 06:06:32
00011 suncat0030 pw.x -in pw.inp   Done                     01/02/2019 06:06:32
00012 suncat0030 pw.x -in pw.inp   Done                     01/02/2019 06:06:32
00013 suncat0030 pw.x -in pw.inp   Done                     01/02/2019 06:06:32
00014 suncat0030 pw.x -in pw.inp   Done                     01/02/2019 06:06:32
00015 suncat0030 pw.x -in pw.inp   Done                     01/02/2019 06:06:32
00016 suncat0192 pw.x -in pw.inp   Done                     01/02/2019 06:06:32
00017 suncat0192 pw.x -in pw.inp   Done                     01/02/2019 06:06:32
00018 suncat0192 pw.x -in pw.inp   Done                     01/02/2019 06:06:32
00019 suncat0192 pw.x -in pw.inp   Done                     01/02/2019 06:06:32
00020 suncat0192 pw.x -in pw.inp   Done                     01/02/2019 06:06:32
00021 suncat0192 pw.x -in pw.inp   Done                     01/02/2019 06:06:32
00022 suncat0192 pw.x -in pw.inp   Done                     01/02/2019 06:06:32
00023 suncat0192 pw.x -in pw.inp   Done                     01/02/2019 06:06:32
00024 suncat0185 pw.x -in pw.inp   Done                     01/02/2019 06:06:32
00025 suncat0185 pw.x -in pw.inp   Done                     01/02/2019 06:06:32
00026 suncat0185 pw.x -in pw.inp   Done                     01/02/2019 06:06:32
00027 suncat0185 pw.x -in pw.inp   Done                     01/02/2019 06:06:32
00028 suncat0185 pw.x -in pw.inp   Done                     01/02/2019 06:06:32
00029 suncat0185 pw.x -in pw.inp   Done                     01/02/2019 06:06:32
00030 suncat0185 pw.x -in pw.inp   Done                     01/02/2019 06:06:32
00031 suncat0185 pw.x -in pw.inp   Done                     01/02/2019 06:06:32
00032 suncat0184 pw.x -in pw.inp   Done                     01/02/2019 06:06:32
00033 suncat0184 pw.x -in pw.inp   Done                     01/02/2019 06:06:32
00034 suncat0184 pw.x -in pw.inp   Done                     01/02/2019 06:06:32
00035 suncat0184 pw.x -in pw.inp   Done                     01/02/2019 06:06:32
00036 suncat0184 pw.x -in pw.inp   Done                     01/02/2019 06:06:32
00037 suncat0184 pw.x -in pw.inp   Done                     01/02/2019 06:06:32
00038 suncat0184 pw.x -in pw.inp   Done                     01/02/2019 06:06:32
00039 suncat0184 pw.x -in pw.inp   Done                     01/02/2019 06:06:32
00040 suncat0183 pw.x -in pw.inp   Done                     01/02/2019 06:06:32
00041 suncat0183 pw.x -in pw.inp   Done                     01/02/2019 06:06:32
00042 suncat0183 pw.x -in pw.inp   Done                     01/02/2019 06:06:32
00043 suncat0183 pw.x -in pw.inp   Done                     01/02/2019 06:06:32
00044 suncat0183 pw.x -in pw.inp   Done                     01/02/2019 06:06:32
00045 suncat0183 pw.x -in pw.inp   Done                     01/02/2019 06:06:32
00046 suncat0183 pw.x -in pw.inp   Done                     01/02/2019 06:06:32
00047 suncat0183 pw.x -in pw.inp   Done                     01/02/2019 06:06:32
00048 suncat0172 pw.x -in pw.inp   Done                     01/02/2019 06:06:32
00049 suncat0172 pw.x -in pw.inp   Done                     01/02/2019 06:06:32
00050 suncat0172 pw.x -in pw.inp   Done                     01/02/2019 06:06:32
00051 suncat0172 pw.x -in pw.inp   Done                     01/02/2019 06:06:32
00052 suncat0172 pw.x -in pw.inp   Done                     01/02/2019 06:06:32
00053 suncat0172 pw.x -in pw.inp   Done                     01/02/2019 06:06:32
00054 suncat0172 pw.x -in pw.inp   Done                     01/02/2019 06:06:32
00055 suncat0172 pw.x -in pw.inp   Done                     01/02/2019 06:06:32
00056 suncat0171 pw.x -in pw.inp   Done                     01/02/2019 06:06:32
00057 suncat0171 pw.x -in pw.inp   Done                     01/02/2019 06:06:32
00058 suncat0171 pw.x -in pw.inp   Done                     01/02/2019 06:06:32
00059 suncat0171 pw.x -in pw.inp   Done                     01/02/2019 06:06:32
00060 suncat0171 pw.x -in pw.inp   Done                     01/02/2019 06:06:32
00061 suncat0171 pw.x -in pw.inp   Done                     01/02/2019 06:06:32
00062 suncat0171 pw.x -in pw.inp   Done                     01/02/2019 06:06:32
00063 suncat0171 pw.x -in pw.inp   Done                     01/02/2019 06:06:32