     Program PWSCF v.5.1rc2 (svn rev. 11289) starts on 28Dec2018 at  0: 0:12

     Current dimensions of program PWSCF are:
     Max number of different atomic species (ntypx) = 10
     Max number of k-points (npk) =  40000
     Max angular momentum in pseudopotentials (lmaxx) =  3
     Presently stress not available with electric field

     IMPORTANT: XC functional enforced from input :
     Exchange-correlation      = BEEF-VDW ( 1  4 27 13 2)
     Any further DFT definition will be discarded
     Please, verify this is what you really want

     Subspace diagonalization in iterative solution of the eigenvalue problem:
     a serial algorithm will be used

     bravais-lattice index     =            0
     lattice parameter (alat)  =       1.8897  a.u.
     unit-cell volume          =    5930.5000 (a.u.)^3
     number of atoms/cell      =           12
     number of atomic types    =            2
     number of electrons       =       168.00
     number of Kohn-Sham states=          114
     kinetic-energy cutoff     =      36.7493  Ry
     charge density cutoff     =     367.4932  Ry
     convergence threshold     =      1.0E-06
     mixing beta               =       0.1000
     number of iterations used =           10  plain     mixing
     Exchange-correlation      = BEEF-VDW ( 1  4 27 13 2)
     nstep                     =           50

     celldm(1)=   1.889726  celldm(2)=   0.000000  celldm(3)=   0.000000
     celldm(4)=   0.000000  celldm(5)=   0.000000  celldm(6)=   0.000000

     crystal axes: (cart. coord. in units of alat)
               a(1) = (   6.347872   0.000000   0.000000 )
               a(2) = (  -3.173936   5.497419   0.000000 )
               a(3) = (   0.000000   0.000000  25.183016 )

     reciprocal axes: (cart. coord. in units 2 pi/alat)
               b(1) = (  0.157533  0.090952  0.000000 )
               b(2) = (  0.000000  0.181904  0.000000 )
               b(3) = (  0.000000  0.000000  0.039709 )

     PseudoPot. # 1 for Sn read from file:
     /afs/slac.stanford.edu/u/if/mamunm/psp/gbrv1.5pbe/Sn.UPF
     MD5 check sum: 469debedee59599fedebd795477fea03
     Pseudo is Ultrasoft + core correction, Zval = 14.0
     Generated by new atomic code, or converted to UPF format
     Using radial grid of  891 points,  6 beta functions with:
                l(1) =   0
                l(2) =   0
                l(3) =   1
                l(4) =   1
                l(5) =   2
                l(6) =   2
     Q(r) pseudized with  8 coefficients,  rinner =    1.350   1.350   1.350
                                                       1.350   1.350

     PseudoPot. # 2 for W  read from file:
     /afs/slac.stanford.edu/u/if/mamunm/psp/gbrv1.5pbe/W.UPF
     MD5 check sum: 9c083fa34c2a2ea0f02f1f893e16e1c8
     Pseudo is Ultrasoft + core correction, Zval = 14.0
     Generated by new atomic code, or converted to UPF format
     Using radial grid of  923 points,  8 beta functions with:
                l(1) =   0
                l(2) =   0
                l(3) =   0
                l(4) =   1
                l(5) =   1
                l(6) =   2
                l(7) =   2
                l(8) =   3
     Q(r) pseudized with  6 coefficients,  rinner =    1.350   1.350   1.350
                                                       1.350   1.350   1.350
                                                       1.350

     vdW kernel table read from file vdW_kernel_table
     MD5 check sum: 095c7af220d748ca6e76c0b4c6cfb241

     atomic species   valence    mass     pseudopotential
        Sn1           14.00   118.71000     Sn( 1.00)
        W1            14.00   183.84000     W ( 1.00)

     No symmetry found

   Cartesian axes

     site n.     atom                  positions (alat units)
         1           Sn1 tau(   1) = (   0.0000000   0.0000000  10.0000000  )
         2           Sn1 tau(   2) = (  -1.5869680   2.7487093  10.0000000  )
         3           Sn1 tau(   3) = (   1.5869680   2.7487093  10.0000000  )
         4           W1  tau(   4) = (   3.1739361   0.0000000  10.0000000  )
         5           Sn1 tau(   5) = (   3.1739361   1.8324728  12.5915079  )
         6           Sn1 tau(   6) = (   1.5869680   4.5811821  12.5915079  )
         7           Sn1 tau(   7) = (  -1.5869680   4.5811821  12.5915079  )
         8           W1  tau(   8) = (   0.0000000   1.8324728  12.5915079  )
         9           Sn1 tau(   9) = (  -0.0000000   3.6649457  15.1830159  )
        10           Sn1 tau(  10) = (   1.5869680   0.9162364  15.1830159  )
        11           Sn1 tau(  11) = (   4.7609041   0.9162364  15.1830159  )
        12           W1  tau(  12) = (   3.1739361   3.6649457  15.1830159  )

     number of k points=    20  Fermi-Dirac smearing, width (Ry)=  0.0110
                       cart. coord. in units 2pi/alat
        k(    1) = (   0.0000000   0.0000000   0.0000000), wk =   0.0555556
        k(    2) = (   0.0000000   0.0303173   0.0000000), wk =   0.1111111
        k(    3) = (   0.0000000   0.0606345   0.0000000), wk =   0.1111111
        k(    4) = (   0.0000000  -0.0909518   0.0000000), wk =   0.0555556
        k(    5) = (   0.0262555   0.0151586   0.0000000), wk =   0.1111111
        k(    6) = (   0.0262555   0.0454759   0.0000000), wk =   0.1111111
        k(    7) = (   0.0262555   0.0757932   0.0000000), wk =   0.1111111
        k(    8) = (   0.0262555  -0.0757932   0.0000000), wk =   0.1111111
        k(    9) = (   0.0262555  -0.0454759   0.0000000), wk =   0.1111111
        k(   10) = (   0.0262555  -0.0151586   0.0000000), wk =   0.1111111
        k(   11) = (   0.0525110   0.0303173   0.0000000), wk =   0.1111111
        k(   12) = (   0.0525110   0.0606345   0.0000000), wk =   0.1111111
        k(   13) = (   0.0525110   0.0909518   0.0000000), wk =   0.1111111
        k(   14) = (   0.0525110  -0.0606345   0.0000000), wk =   0.1111111
        k(   15) = (   0.0525110  -0.0303173   0.0000000), wk =   0.1111111
        k(   16) = (   0.0525110   0.0000000   0.0000000), wk =   0.1111111
        k(   17) = (  -0.0787666  -0.0454759   0.0000000), wk =   0.0555556
        k(   18) = (  -0.0787666  -0.0151586   0.0000000), wk =   0.1111111
        k(   19) = (  -0.0787666   0.0151586   0.0000000), wk =   0.1111111
        k(   20) = (  -0.0787666  -0.1364277   0.0000000), wk =   0.0555556

     Largest allocated arrays     est. size (Mb)     dimensions
     Largest temporary arrays     est. size (Mb)     dimensions

     Initial potential from superposition of free atoms
     Check: negative starting charge=   -0.190442

     starting charge  158.69857, renormalised to  168.00000

     negative rho (up, down):  2.016E-01 0.000E+00

     *
     * You are using vdW-DF for exchange-correlation in this calculation.
     * Please cite the following three references that made this development
     * possible:
     *
     *   M. Dion, H. Rydberg, E. Schroder, D. C. Langreth, and
     *   B. I. Lundqvist, Phys. Rev. Lett. 92, 246401 (2004).
     *
     *   T. Thonhauser, V. R. Cooper, S. Li, A. Puzder, P. Hyldgaard, and
     *   D. C. Langreth, Phys. Rev. B 76, 125112 (2007).
     *
     *   G. Roman-Perez and J. M. Soler, Phys. Rev. Lett. 103, 096102 (2009).
     *
     *
     * If you are using vdW-DF2, please also cite:
     *
     *   K. Lee, E. D. Murray, L. Kong, B. I. Lundqvist, and
     *   D. C. Langreth, Phys. Rev. B 82, 081101(R) (2010).
     *
     *
     * If you are calculating the stress with vdW-DF, please also cite:
     *
     *   R. Sabatini, E. Kucukbenli, B. Kolb, T. Thonhauser, and
     *   S. de Gironcoli, J. Phys.: Condens. Matter 24, 424209 (2012).
     *

     Carrying out vdW-DF run using the following parameters:

     Nqs =      20    Nr_points =    1024   r_max =   100.000
     q_mesh =
               0.00001000     0.04494208     0.09755937     0.15916263
               0.23128650     0.31572767     0.41458969     0.53033537
               0.66584808     0.82450364     1.01025438     1.22772762
               1.48234092     1.78043706     2.12944203     2.53805004
               3.01644009     3.57652955     4.23227104     5.00000000

     Gradients computed in reciprocal space

     Adding external electric field

     Computed dipole along edir(3) :
        Dipole               -0.0000 Ry au,         -0.0000 Debye
        Dipole field         -0.0000 Ry au

        Potential amp.        0.0000 Ry
        Total length         46.3993 bohr

     Starting wfc are  120 randomized atomic wfcs

     Self-consistent Calculation

     iteration #  1     ecut=    36.75 Ry     beta=0.10
     Davidson diagonalization with overlap
     ethr =  1.00E-02,  avg # of iterations =  8.4

[...]

     total energy              =   -1928.27526018 Ry
     Harris-Foulkes estimate   =   -1929.97441514 Ry
     estimated scf accuracy    <      10.20387048 Ry

[...]

     iteration #  8     ecut=    36.75 Ry     beta=0.10
     Davidson diagonalization with overlap
     c_bands:  1 eigenvalues not converged
     ethr =  2.08E-05,  avg # of iterations = 11.0

[...]

     End of self-consistent calculation

          k = 0.0000 0.0000 0.0000 ( 22369 PWs)   bands (ev):

   -73.3701 -73.3701 -73.1893 -37.4432 -37.4432 -37.4431 -37.4431 -37.3855
   -37.3852 -37.3114 -37.3114 -37.1318 -20.9001 -20.8630 -20.8630 -20.8469
   -20.7602 -20.7602 -20.7486 -20.7454 -20.7179 -20.7179 -20.7008 -20.6960
   -20.6876 -20.6876 -20.6724 -20.6724 -20.6622 -20.6450 -20.6450 -20.6264
   -20.6149 -20.6149 -20.5856 -20.5856 -20.5618 -20.5559 -20.5559 -20.5502
   -20.5380 -20.5267 -20.5267 -20.5048 -20.4981 -20.4981 -20.4943 -20.4943
   -20.4901 -20.4901 -20.4873 -20.4873 -20.4649 -20.4649 -20.4589 -20.3945
   -20.3944  -9.8913  -8.4674  -6.6913  -5.7387  -5.7387  -4.9585  -4.9585
    -3.9962  -3.9962  -3.7366  -3.0750  -2.5440  -2.2889  -2.2889  -1.8693
    -0.8378  -0.8378  -0.7328  -0.7328  -0.6620   0.5327   0.5327   0.5420
     0.5420   1.0176   1.1943   1.3402   1.4134   1.4134   1.4296   1.7361
     1.7361   1.8076   1.8076   1.8837   2.3290   2.3290   3.4063   3.8960
     3.8960   4.2550   4.2550   4.4603   4.4723   4.5897   4.7219   5.2956
     5.8343   5.8343   5.9076   5.9703   6.0582   6.7324   6.7324   6.9675
     7.4772   7.6324

[...]

          k =-0.0788-0.0455 0.0000 ( 22292 PWs)   bands (ev):

[...]

     the Fermi energy is     1.3511 ev

!    total energy              =   -1926.88680762 Ry
     Harris-Foulkes estimate   =   -1926.88826647 Ry
     estimated scf accuracy    <       0.00000020 Ry

     The total energy is the sum of the following terms:

     one-electron contribution =  -11668.80507023 Ry
     hartree contribution      =    5878.04353649 Ry
     xc contribution           =    -528.01519903 Ry
     ewald contribution        =    4391.97182964 Ry
     electric field correction =       0.00000000 Ry
     smearing contrib. (-TS)   =      -0.08190448 Ry

     convergence has been achieved in  17 iterations

 BEEF-vdW xc energy contributions
           1 :   -464.190774666618
           2 :    426.225471915157
           3 :   -361.216824123309
           4 :    286.323270244853
           5 :   -218.191520535698
[...]
     MD5 check sum: 469debedee59599fedebd795477fea03
     Pseudo is Ultrasoft + core correction, Zval = 14.0
     Generated by new atomic code, or converted to UPF format
     Using radial grid of  891 points,  6 beta functions with:
                l(1) =   0
                l(2) =   0
                l(3) =   1
                l(4) =   1
                l(5) =   2
                l(6) =   2
     Q(r) pseudized with  8 coefficients,  rinner =    1.350   1.350   1.350
                                                       1.350   1.350

     PseudoPot. # 2 for W  read from file:
     /afs/slac.stanford.edu/u/if/mamunm/psp/gbrv1.5pbe/W.UPF
     MD5 check sum: 9c083fa34c2a2ea0f02f1f893e16e1c8
     Pseudo is Ultrasoft + core correction, Zval = 14.0
     Generated by new atomic code, or converted to UPF format
     Using radial grid of  923 points,  8 beta functions with:
                l(1) =   0
                l(2) =   0
                l(3) =   0
                l(4) =   1
                l(5) =   1
                l(6) =   2
                l(7) =   2
                l(8) =   3
     Q(r) pseudized with  6 coefficients,  rinner =    1.350   1.350   1.350
                                                       1.350   1.350   1.350
                                                       1.350

     vdW kernel table read from file vdW_kernel_table
     MD5 check sum: 095c7af220d748ca6e76c0b4c6cfb241

     atomic species   valence    mass     pseudopotential
        Sn1           14.00   118.71000     Sn( 1.00)
        W1            14.00   183.84000     W ( 1.00)

     No symmetry found

   Cartesian axes

     site n.     atom                  positions (alat units)
         1           Sn1 tau(   1) = (   0.0000000   0.0000000  10.0000000  )
         2           Sn1 tau(   2) = (  -1.5869680   2.7487093  10.0000000  )
         3           Sn1 tau(   3) = (   1.5869680   2.7487093  10.0000000  )
         4           W1  tau(   4) = (   3.1739361   0.0000000  10.0000000  )
         5           Sn1 tau(   5) = (   3.1739361   1.8324728  12.5915079  )
         6           Sn1 tau(   6) = (   1.5869680   4.5811821  12.5915079  )
         7           Sn1 tau(   7) = (  -1.5869680   4.5811821  12.5915079  )
         8           W1  tau(   8) = (   0.0000000   1.8324728  12.5915079  )
         9           Sn1 tau(   9) = (   0.0000057   3.5947537  15.3423124  )
        10           Sn1 tau(  10) = (   1.5261667   0.9513805  15.3423384  )
        11           Sn1 tau(  11) = (   4.8216845   0.9513376  15.3423309  )
        12           W1  tau(  12) = (   3.1739275   3.6649067  14.6487810  )

     number of k points=    20  Fermi-Dirac smearing, width (Ry)=  0.0110
                       cart. coord. in units 2pi/alat
        k(    1) = (   0.0000000   0.0000000   0.0000000), wk =   0.0555556
        k(    2) = (   0.0000000   0.0303173   0.0000000), wk =   0.1111111
        k(    3) = (   0.0000000   0.0606345   0.0000000), wk =   0.1111111
        k(    4) = (   0.0000000  -0.0909518   0.0000000), wk =   0.0555556
        k(    5) = (   0.0262555   0.0151586   0.0000000), wk =   0.1111111
        k(    6) = (   0.0262555   0.0454759   0.0000000), wk =   0.1111111
        k(    7) = (   0.0262555   0.0757932   0.0000000), wk =   0.1111111
        k(    8) = (   0.0262555  -0.0757932   0.0000000), wk =   0.1111111
        k(    9) = (   0.0262555  -0.0454759   0.0000000), wk =   0.1111111
        k(   10) = (   0.0262555  -0.0151586   0.0000000), wk =   0.1111111
        k(   11) = (   0.0525110   0.0303173   0.0000000), wk =   0.1111111
        k(   12) = (   0.0525110   0.0606345   0.0000000), wk =   0.1111111
        k(   13) = (   0.0525110   0.0909518   0.0000000), wk =   0.1111111
        k(   14) = (   0.0525110  -0.0606345   0.0000000), wk =   0.1111111
        k(   15) = (   0.0525110  -0.0303173   0.0000000), wk =   0.1111111
        k(   16) = (   0.0525110   0.0000000   0.0000000), wk =   0.1111111
        k(   17) = (  -0.0787666  -0.0454759   0.0000000), wk =   0.0555556
        k(   18) = (  -0.0787666  -0.0151586   0.0000000), wk =   0.1111111
        k(   19) = (  -0.0787666   0.0151586   0.0000000), wk =   0.1111111
        k(   20) = (  -0.0787666  -0.1364277   0.0000000), wk =   0.0555556

     Largest allocated arrays     est. size (Mb)     dimensions
     Largest temporary arrays     est. size (Mb)     dimensions

     Initial potential from superposition of free atoms
     Check: negative starting charge=   -0.191151

     starting charge  158.69857, renormalised to  168.00000

[...]

     *
     * You are using vdW-DF for exchange-correlation in this calculation.
     * Please cite the following three references that made this development
     * possible:
     *
     *   M. Dion, H. Rydberg, E. Schroder, D. C. Langreth, and
     *   B. I. Lundqvist, Phys. Rev. Lett. 92, 246401 (2004).
     *
     *   T. Thonhauser, V. R. Cooper, S. Li, A. Puzder, P. Hyldgaard, and
     *   D. C. Langreth, Phys. Rev. B 76, 125112 (2007).
     *
     *   G. Roman-Perez and J. M. Soler, Phys. Rev. Lett. 103, 096102 (2009).
     *
     *
     * If you are using vdW-DF2, please also cite:
     *
     *   K. Lee, E. D. Murray, L. Kong, B. I. Lundqvist, and
     *   D. C. Langreth, Phys. Rev. B 82, 081101(R) (2010).
     *
     *
     * If you are calculating the stress with vdW-DF, please also cite:
     *
     *   R. Sabatini, E. Kucukbenli, B. Kolb, T. Thonhauser, and
     *   S. de Gironcoli, J. Phys.: Condens. Matter 24, 424209 (2012).
     *

     Carrying out vdW-DF run using the following parameters:

     Nqs =      20    Nr_points =    1024   r_max =   100.000
     q_mesh =
               0.00001000     0.04494208     0.09755937     0.15916263
               0.23128650     0.31572767     0.41458969     0.53033537
               0.66584808     0.82450364     1.01025438     1.22772762
               1.48234092     1.78043706     2.12944203     2.53805004
               3.01644009     3.57652955     4.23227104     5.00000000

     Gradients computed in reciprocal space

[...]

     Starting wfc are  120 randomized atomic wfcs

     Self-consistent Calculation

[...]

     total energy              =   -1926.94212226 Ry
     Harris-Foulkes estimate   =   -1926.94212358 Ry
     estimated scf accuracy    <       0.00000304 Ry

     iteration # 19     ecut=    36.75 Ry     beta=0.10
     Davidson diagonalization with overlap
     ethr =  1.81E-09,  avg # of iterations =  2.0

[...]

     negative rho (up, down):  1.966E-01 0.000E+00

     Adding external electric field

     Computed dipole along edir(3) :
        Dipole                0.0527 Ry au,          0.1339 Debye
        Dipole field          0.0001 Ry au

        Potential amp.       -0.0104 Ry
        Total length         46.3993 bohr

     End of self-consistent calculation

[...]

          k = 0.0525 0.0000 0.0000 ( 22339 PWs)   bands (ev):

[...]

          k =-0.0788-0.1364 0.0000 ( 22292 PWs)   bands (ev):

   -73.4443 -73.2364 -73.2185 -37.5041 -37.5038 -37.4702 -37.3326 -37.3314
   -37.3276 -37.3270 -37.2976 -37.2218 -20.8575 -20.8018 -20.7768 -20.7715
   -20.7593 -20.7400 -20.7388 -20.7305 -20.6955 -20.6693 -20.6672 -20.6614
   -20.6413 -20.6391 -20.6361 -20.6127 -20.5971 -20.5859 -20.5833 -20.5799
   -20.5754 -20.5627 -20.5565 -20.5438 -20.5397 -20.5327 -20.5276 -20.5173
   -20.5050 -20.5015 -20.4968 -20.4958 -20.4911 -20.4824 -20.4809 -20.4711
   -20.4679 -20.4673 -20.4554 -20.4548 -20.4485 -20.4405 -20.4317 -20.4215
   -20.3797  -8.7498  -8.3301  -7.2591  -6.9290  -6.2462  -6.1127  -5.4486
    -4.8212  -3.7044  -3.5422  -3.0304  -2.1127  -1.4019  -1.2799  -1.0443
    -0.9853  -0.8969  -0.2928  -0.2486   0.0185   0.0646   0.6465   0.8918
     0.9763   1.1246   1.2125   1.3378   1.3442   1.4279   1.7918   1.8814
     1.9696   2.0135   2.1298   2.5943   2.6059   3.0940   3.2776   3.3340
     3.5969   3.8143   4.1304   4.3174   4.4729   4.9625   5.2020   5.4480
     5.6989   5.9688   6.0517   6.1283   6.2226   6.2915   6.5428   6.7370
     6.8099   6.8310

     the Fermi energy is     1.3403 ev

!    total energy              =   -1926.94212192 Ry
     Harris-Foulkes estimate   =   -1926.94212244 Ry
     estimated scf accuracy    <       0.00000043 Ry

     The total energy is the sum of the following terms:

     one-electron contribution =  -11675.31805460 Ry
     hartree contribution      =    5881.40745498 Ry
     xc contribution           =    -528.10246290 Ry
     ewald contribution        =    4395.14452009 Ry
     electric field correction =       0.00000588 Ry
     smearing contrib. (-TS)   =      -0.07358537 Ry

     convergence has been achieved in  19 iterations

 BEEF-vdW xc energy contributions
           1 :   -464.321250891764
           2 :    426.371357387516
           3 :   -361.379181371587
           4 :    286.478157405102
           5 :   -218.296513758203
           6 :    167.280909511723
           7 :   -135.346092902479
           8 :    117.410435582643
           9 :   -105.574535318728
          10 :    93.5743908791137
          11 :   -79.3278470558098
          12 :    64.6713821795356
          13 :   -53.0067605470854
          14 :    46.5717648038158
          15 :   -44.9705266073028
          16 :    45.6000234929280
          17 :   -45.4113671731992
          18 :    42.7359161725075
          19 :   -38.0505539287935
          20 :    33.3395091963473
          21 :   -30.6116708258985
          22 :    30.5832342626300
          23 :   -32.3260764926886
          24 :    33.9923047270344
          25 :   -34.0463018811223
          26 :    32.1756283678341
          27 :   -29.3434423244073
          28 :    27.0365212199192
          29 :   -26.2658482483130
          30 :    26.9756995428212
          31 :   -40.8836675422820
          32 :   -30.0236046529889

     Forces acting on atoms (Ry/au):

     negative rho (up, down):  1.966E-01 0.000E+00
     atom    1 type  1   force =     0.00000046    0.01869485   -0.01219976
     atom    2 type  1   force =     0.01618744   -0.00934512   -0.01219437
     atom    3 type  1   force =    -0.01619124   -0.00934679   -0.01219681
     atom    4 type  2   force =     0.00000003    0.00000069    0.07257550
     atom    5 type  1   force =     0.00000273   -0.03086894   -0.01631572
     atom    6 type  1   force =    -0.02673269    0.01544111   -0.01630663
     atom    7 type  1   force =     0.02672779    0.01543544   -0.01630496
     atom    8 type  2   force =    -0.00000007    0.00000142    0.00910753
     atom    9 type  1   force =     0.00000149    0.00072061    0.00072879
     atom   10 type  1   force =     0.00061791   -0.00036658    0.00072271
     atom   11 type  1   force =    -0.00061429   -0.00036579    0.00071998
     atom   12 type  2   force =     0.00000044   -0.00000089    0.00166375

     Total force =     0.102505     Total SCF correction =     0.002887

     entering subroutine stress ...

     negative rho (up, down):  1.966E-01 0.000E+00
          total   stress  (Ry/bohr**3)                   (kbar)     P=  -14.12
  -0.00011319  -0.00000000   0.00000000        -16.65     -0.00      0.00
  -0.00000000  -0.00011319   0.00000000         -0.00    -16.65      0.00
   0.00000000   0.00000000  -0.00006156          0.00      0.00     -9.06

 !ASE

     Writing output data file calc.save

     General routines

     Parallel routines

   This run was terminated on:   3: 7:23  28Dec2018

   JOB DONE.
Job  /afs/slac/g/suncat/bin/suncat-tsmpirun -x LD_LIBRARY_PATH -wdir /scratch/qe110961_G1y1X pw.x -in pw.inp

TID   HOST_NAME   COMMAND_LINE            STATUS            TERMINATION_TIME
00000 suncat0029 pw.x -in pw.inp   Done                     12/28/2018 03:07:23
00001 suncat0029 pw.x -in pw.inp   Done                     12/28/2018 03:07:23
00002 suncat0029 pw.x -in pw.inp   Done                     12/28/2018 03:07:23
00003 suncat0029 pw.x -in pw.inp   Done                     12/28/2018 03:07:23
00004 suncat0029 pw.x -in pw.inp   Done                     12/28/2018 03:07:23
00005 suncat0029 pw.x -in pw.inp   Done                     12/28/2018 03:07:23
00006 suncat0029 pw.x -in pw.inp   Done                     12/28/2018 03:07:23
00007 suncat0029 pw.x -in pw.inp   Done                     12/28/2018 03:07:23
00008 suncat0020 pw.x -in pw.inp   Done                     12/28/2018 03:07:23
00009 suncat0020 pw.x -in pw.inp   Done                     12/28/2018 03:07:23
00010 suncat0020 pw.x -in pw.inp   Done                     12/28/2018 03:07:23
00011 suncat0020 pw.x -in pw.inp   Done                     12/28/2018 03:07:23
00012 suncat0020 pw.x -in pw.inp   Done                     12/28/2018 03:07:23
00013 suncat0020 pw.x -in pw.inp   Done                     12/28/2018 03:07:23
00014 suncat0020 pw.x -in pw.inp   Done                     12/28/2018 03:07:23
00015 suncat0020 pw.x -in pw.inp   Done                     12/28/2018 03:07:23
00016 suncat0199 pw.x -in pw.inp   Done                     12/28/2018 03:07:23
00017 suncat0199 pw.x -in pw.inp   Done                     12/28/2018 03:07:23
00018 suncat0199 pw.x -in pw.inp   Done                     12/28/2018 03:07:23
00019 suncat0199 pw.x -in pw.inp   Done                     12/28/2018 03:07:23
00020 suncat0199 pw.x -in pw.inp   Done                     12/28/2018 03:07:23
00021 suncat0199 pw.x -in pw.inp   Done                     12/28/2018 03:07:23
00022 suncat0199 pw.x -in pw.inp   Done                     12/28/2018 03:07:23
00023 suncat0199 pw.x -in pw.inp   Done                     12/28/2018 03:07:23
00024 suncat0006 pw.x -in pw.inp   Done                     12/28/2018 03:07:23
00025 suncat0006 pw.x -in pw.inp   Done                     12/28/2018 03:07:23
00026 suncat0006 pw.x -in pw.inp   Done                     12/28/2018 03:07:23
00027 suncat0006 pw.x -in pw.inp   Done                     12/28/2018 03:07:23
00028 suncat0006 pw.x -in pw.inp   Done                     12/28/2018 03:07:23
00029 suncat0006 pw.x -in pw.inp   Done                     12/28/2018 03:07:23
00030 suncat0006 pw.x -in pw.inp   Done                     12/28/2018 03:07:23
00031 suncat0006 pw.x -in pw.inp   Done                     12/28/2018 03:07:23
00032 suncat0005 pw.x -in pw.inp   Done                     12/28/2018 03:07:23
00033 suncat0005 pw.x -in pw.inp   Done                     12/28/2018 03:07:23
00034 suncat0005 pw.x -in pw.inp   Done                     12/28/2018 03:07:23
00035 suncat0005 pw.x -in pw.inp   Done                     12/28/2018 03:07:23
00036 suncat0005 pw.x -in pw.inp   Done                     12/28/2018 03:07:23
00037 suncat0005 pw.x -in pw.inp   Done                     12/28/2018 03:07:23
00038 suncat0005 pw.x -in pw.inp   Done                     12/28/2018 03:07:23
00039 suncat0005 pw.x -in pw.inp   Done                     12/28/2018 03:07:23
00040 suncat0154 pw.x -in pw.inp   Done                     12/28/2018 03:07:23
00041 suncat0154 pw.x -in pw.inp   Done                     12/28/2018 03:07:23
00042 suncat0154 pw.x -in pw.inp   Done                     12/28/2018 03:07:23
00043 suncat0154 pw.x -in pw.inp   Done                     12/28/2018 03:07:23
00044 suncat0154 pw.x -in pw.inp   Done                     12/28/2018 03:07:23
00045 suncat0154 pw.x -in pw.inp   Done                     12/28/2018 03:07:23
00046 suncat0154 pw.x -in pw.inp   Done                     12/28/2018 03:07:23
00047 suncat0154 pw.x -in pw.inp   Done                     12/28/2018 03:07:23
00048 suncat0277 pw.x -in pw.inp   Done                     12/28/2018 03:07:23
00049 suncat0277 pw.x -in pw.inp   Done                     12/28/2018 03:07:23
00050 suncat0277 pw.x -in pw.inp   Done                     12/28/2018 03:07:23
00051 suncat0277 pw.x -in pw.inp   Done                     12/28/2018 03:07:23
00052 suncat0277 pw.x -in pw.inp   Done                     12/28/2018 03:07:23
00053 suncat0277 pw.x -in pw.inp   Done                     12/28/2018 03:07:23
00054 suncat0277 pw.x -in pw.inp   Done                     12/28/2018 03:07:23
00055 suncat0277 pw.x -in pw.inp   Done                     12/28/2018 03:07:23
00056 suncat0276 pw.x -in pw.inp   Done                     12/28/2018 03:07:23
00057 suncat0276 pw.x -in pw.inp   Done                     12/28/2018 03:07:23
00058 suncat0276 pw.x -in pw.inp   Done                     12/28/2018 03:07:23
00059 suncat0276 pw.x -in pw.inp   Done                     12/28/2018 03:07:23
00060 suncat0276 pw.x -in pw.inp   Done                     12/28/2018 03:07:23
00061 suncat0276 pw.x -in pw.inp   Done                     12/28/2018 03:07:23
00062 suncat0276 pw.x -in pw.inp   Done                     12/28/2018 03:07:23
00063 suncat0276 pw.x -in pw.inp   Done                     12/28/2018 03:07:23