     Program PWSCF v.5.1rc2 (svn rev. 11289) starts on  2Jan2019 at 10:25:19

     Current dimensions of program PWSCF are:
     Max number of different atomic species (ntypx) = 10
     Max number of k-points (npk) =  40000
     Max angular momentum in pseudopotentials (lmaxx) =  3
     Presently stress not available with electric field

     IMPORTANT: XC functional enforced from input :
     Exchange-correlation      = BEEF-VDW ( 1  4 27 13 2)
     Any further DFT definition will be discarded
     Please, verify this is what you really want

     Subspace diagonalization in iterative solution of the eigenvalue problem:
     a serial algorithm will be used

     bravais-lattice index     =            0
     lattice parameter (alat)  =       1.8897  a.u.
     unit-cell volume          =    4889.4568 (a.u.)^3
     number of atoms/cell      =           12
     number of atomic types    =            2
     number of electrons       =       165.00
     number of Kohn-Sham states=          112
     kinetic-energy cutoff     =      36.7493  Ry
     charge density cutoff     =     367.4932  Ry
     convergence threshold     =      1.0E-06
     mixing beta               =       0.1000
     number of iterations used =           10  plain     mixing
     Exchange-correlation      = BEEF-VDW ( 1  4 27 13 2)
     nstep                     =           50

     celldm(1)=   1.889726  celldm(2)=   0.000000  celldm(3)=   0.000000
     celldm(4)=   0.000000  celldm(5)=   0.000000  celldm(6)=   0.000000

     crystal axes: (cart. coord. in units of alat)
               a(1) = (   5.814359   0.000000   0.000000 )
               a(2) = (  -2.907180   5.035383   0.000000 )
               a(3) = (   0.000000   0.000000  24.747404 )

     reciprocal axes: (cart. coord. in units 2 pi/alat)
               b(1) = (  0.171988  0.099297  0.000000 )
               b(2) = (  0.000000  0.198595  0.000000 )
               b(3) = (  0.000000  0.000000  0.040408 )

     PseudoPot. # 1 for W  read from file:
     /afs/slac.stanford.edu/u/if/mamunm/psp/gbrv1.5pbe/W.UPF
     MD5 check sum: 9c083fa34c2a2ea0f02f1f893e16e1c8
     Pseudo is Ultrasoft + core correction, Zval = 14.0
     Generated by new atomic code, or converted to UPF format
     Using radial grid of  923 points,  8 beta functions with:
                l(1) =   0
                l(2) =   0
                l(3) =   0
                l(4) =   1
                l(5) =   1
                l(6) =   2
                l(7) =   2
                l(8) =   3
     Q(r) pseudized with  6 coefficients,  rinner =    1.350   1.350   1.350
                                                       1.350   1.350   1.350
                                                       1.350

     PseudoPot. # 2 for Tl read from file:
     /afs/slac.stanford.edu/u/if/mamunm/psp/gbrv1.5pbe/Tl.UPF
     MD5 check sum: b76cf1f7e72655a2b2c53cf6385d7059
     Pseudo is Ultrasoft + core correction, Zval = 13.0
     Generated by new atomic code, or converted to UPF format
     Using radial grid of  899 points,  6 beta functions with:
                l(1) =   0
                l(2) =   0
                l(3) =   1
                l(4) =   1
                l(5) =   2
                l(6) =   2
     Q(r) pseudized with  6 coefficients,  rinner =    1.100   1.100   1.100
                                                       1.100   1.100

     vdW kernel table read from file vdW_kernel_table
     MD5 check sum: 095c7af220d748ca6e76c0b4c6cfb241

     atomic species   valence    mass     pseudopotential
        W1            14.00   183.84000     W ( 1.00)
        Tl1           13.00   204.38000     Tl( 1.00)

     No symmetry found

   Cartesian axes

     site n.     atom                  positions (alat units)
         1           W1  tau(   1) = (   0.0000000   0.0000000  10.0000000  )
         2           W1  tau(   2) = (  -1.4535898   2.5176914  10.0000000  )
         3           W1  tau(   3) = (   1.4535898   2.5176914  10.0000000  )
         4           Tl1 tau(   4) = (   2.9071796   0.0000000  10.0000000  )
         5           W1  tau(   5) = (   2.9071796   1.6784609  12.3737022  )
         6           W1  tau(   6) = (   1.4535898   4.1961523  12.3737022  )
         7           W1  tau(   7) = (  -1.4535898   4.1961523  12.3737022  )
         8           Tl1 tau(   8) = (   0.0000000   1.6784609  12.3737022  )
         9           W1  tau(   9) = (  -0.0000000   3.3569219  14.7474044  )
        10           W1  tau(  10) = (   1.4535898   0.8392305  14.7474044  )
        11           W1  tau(  11) = (   4.3607694   0.8392305  14.7474044  )
        12           Tl1 tau(  12) = (   2.9071796   3.3569219  14.7474044  )

     number of k points=    20  Fermi-Dirac smearing, width (Ry)=  0.0110
                       cart. coord. in units 2pi/alat
        k(    1) = (   0.0000000   0.0000000   0.0000000), wk =   0.0555556
        k(    2) = (   0.0000000   0.0330991   0.0000000), wk =   0.1111111
        k(    3) = (   0.0000000   0.0661982   0.0000000), wk =   0.1111111
        k(    4) = (   0.0000000  -0.0992973   0.0000000), wk =   0.0555556
        k(    5) = (   0.0286647   0.0165496   0.0000000), wk =   0.1111111
        k(    6) = (   0.0286647   0.0496487   0.0000000), wk =   0.1111111
        k(    7) = (   0.0286647   0.0827478   0.0000000), wk =   0.1111111
        k(    8) = (   0.0286647  -0.0827478   0.0000000), wk =   0.1111111
        k(    9) = (   0.0286647  -0.0496487   0.0000000), wk =   0.1111111
        k(   10) = (   0.0286647  -0.0165496   0.0000000), wk =   0.1111111
        k(   11) = (   0.0573293   0.0330991   0.0000000), wk =   0.1111111
        k(   12) = (   0.0573293   0.0661982   0.0000000), wk =   0.1111111
        k(   13) = (   0.0573293   0.0992973   0.0000000), wk =   0.1111111
        k(   14) = (   0.0573293  -0.0661982   0.0000000), wk =   0.1111111
        k(   15) = (   0.0573293  -0.0330991   0.0000000), wk =   0.1111111
        k(   16) = (   0.0573293   0.0000000   0.0000000), wk =   0.1111111
        k(   17) = (  -0.0859940  -0.0496487   0.0000000), wk =   0.0555556
        k(   18) = (  -0.0859940  -0.0165496   0.0000000), wk =   0.1111111
        k(   19) = (  -0.0859940   0.0165496   0.0000000), wk =   0.1111111
        k(   20) = (  -0.0859940  -0.1489460   0.0000000), wk =   0.0555556

     Largest allocated arrays     est. size (Mb)     dimensions
     Largest temporary arrays     est. size (Mb)     dimensions

     Initial potential from superposition of free atoms
     Check: negative starting charge=   -0.727610

     starting charge  164.08234, renormalised to  165.00000

     negative rho (up, down):  7.317E-01 0.000E+00

     *
     * You are using vdW-DF for exchange-correlation in this calculation.
     * Please cite the following three references that made this development
     * possible:
     *
     *   M. Dion, H. Rydberg, E. Schroder, D. C. Langreth, and
     *   B. I. Lundqvist, Phys. Rev. Lett. 92, 246401 (2004).
     *
     *   T. Thonhauser, V. R. Cooper, S. Li, A. Puzder, P. Hyldgaard, and
     *   D. C. Langreth, Phys. Rev. B 76, 125112 (2007).
     *
     *   G. Roman-Perez and J. M. Soler, Phys. Rev. Lett. 103, 096102 (2009).
     *
     *
     * If you are using vdW-DF2, please also cite:
     *
     *   K. Lee, E. D. Murray, L. Kong, B. I. Lundqvist, and
     *   D. C. Langreth, Phys. Rev. B 82, 081101(R) (2010).
     *
     *
     * If you are calculating the stress with vdW-DF, please also cite:
     *
     *   R. Sabatini, E. Kucukbenli, B. Kolb, T. Thonhauser, and
     *   S. de Gironcoli, J. Phys.: Condens. Matter 24, 424209 (2012).
     *

     Carrying out vdW-DF run using the following parameters:

     Nqs =      20    Nr_points =    1024   r_max =   100.000
     q_mesh =
               0.00001000     0.04494208     0.09755937     0.15916263
               0.23128650     0.31572767     0.41458969     0.53033537
               0.66584808     0.82450364     1.01025438     1.22772762
               1.48234092     1.78043706     2.12944203     2.53805004
               3.01644009     3.57652955     4.23227104     5.00000000

     Gradients computed in reciprocal space

     Adding external electric field

     Computed dipole along edir(3) :
        Dipole                0.0000 Ry au,          0.0000 Debye
        Dipole field          0.0000 Ry au

        Potential amp.       -0.0000 Ry
        Total length         45.5967 bohr

     Starting wfc are  144 randomized atomic wfcs

     Self-consistent Calculation

     iteration #  1     ecut=    36.75 Ry     beta=0.10
     Davidson diagonalization with overlap
     ethr =  1.00E-02,  avg # of iterations =  2.0

     Threshold (ethr) on eigenvalues was too large:
     Diagonalizing with lowered threshold

     Davidson diagonalization with overlap
     ethr =  7.73E-04,  avg # of iterations =  2.0

[...]

     total energy              =   -1883.50100837 Ry
     Harris-Foulkes estimate   =   -1883.70931600 Ry
     estimated scf accuracy    <       1.40749300 Ry

[...]

     End of self-consistent calculation

          k = 0.0000 0.0000 0.0000 ( 18439 PWs)   bands (ev):

   -72.4832 -72.4422 -72.4421 -72.3113 -72.3092 -72.2726 -72.2725 -72.2720
   -72.2720 -36.8924 -36.8038 -36.8037 -36.7225 -36.6432 -36.6431 -36.6025
   -36.6001 -36.5169 -36.5169 -36.4759 -36.4492 -36.4305 -36.4305 -36.3977
   -36.3976 -36.2792 -36.2791 -36.2387 -36.2272 -36.2233 -36.2232 -36.2044
   -35.9745 -35.9745 -35.9699 -35.9699 -10.3084 -10.3084 -10.2676 -10.1788
   -10.1788  -9.6445  -9.6445  -9.6273  -9.6273  -9.6116  -9.5570  -9.4691
    -9.4691  -9.4228  -9.4228  -7.9475  -6.0485  -5.8474  -3.1322  -2.6873
    -2.4442  -1.5794  -1.5794  -0.9675  -0.9111  -0.9111  -0.8808  -0.8807
    -0.7772  -0.6731  -0.6731   0.1280   0.1280   0.5172   0.7079   0.9131
     0.9131   1.2939   1.2939   1.6099   1.6184   1.6857   1.6857   1.8522
     2.1166   2.1166   2.2579   3.2490   3.2491   3.3246   3.3910   3.6218
     3.6218   3.8734   3.8734   3.9544   4.1026   4.1026   4.1070   4.1071
     4.3944   4.7238   4.7238   5.0168   5.0168   5.0419   5.0419   5.3817
     5.7719   5.7726   6.2765   6.3298   6.5173   6.5810   6.5810   6.6973

[...]

          k =-0.0860-0.0496 0.0000 ( 18348 PWs)   bands (ev):

[...]

     the Fermi energy is     2.0973 ev

!    total energy              =   -1883.47171210 Ry
     Harris-Foulkes estimate   =   -1883.47175809 Ry
     estimated scf accuracy    <       0.00000039 Ry

     The total energy is the sum of the following terms:

     one-electron contribution =  -13476.05762788 Ry
     hartree contribution      =    6745.05805400 Ry
     xc contribution           =    -574.82153952 Ry
     ewald contribution        =    5422.40974129 Ry
     electric field correction =       0.00000000 Ry
     smearing contrib. (-TS)   =      -0.06034000 Ry

     convergence has been achieved in  14 iterations

 BEEF-vdW xc energy contributions
           1 :   -507.775739313956
           2 :    470.782609934812
           3 :   -405.405212964494
           4 :    325.665358962341
           5 :   -246.299679687098
           6 :    178.463621131823
[...]
     MD5 check sum: 9c083fa34c2a2ea0f02f1f893e16e1c8
     Pseudo is Ultrasoft + core correction, Zval = 14.0
     Generated by new atomic code, or converted to UPF format
     Using radial grid of  923 points,  8 beta functions with:
                l(1) =   0
                l(2) =   0
                l(3) =   0
                l(4) =   1
                l(5) =   1
                l(6) =   2
                l(7) =   2
                l(8) =   3
     Q(r) pseudized with  6 coefficients,  rinner =    1.350   1.350   1.350
                                                       1.350   1.350   1.350
                                                       1.350

     PseudoPot. # 2 for Tl read from file:
     /afs/slac.stanford.edu/u/if/mamunm/psp/gbrv1.5pbe/Tl.UPF
     MD5 check sum: b76cf1f7e72655a2b2c53cf6385d7059
     Pseudo is Ultrasoft + core correction, Zval = 13.0
     Generated by new atomic code, or converted to UPF format
     Using radial grid of  899 points,  6 beta functions with:
                l(1) =   0
                l(2) =   0
                l(3) =   1
                l(4) =   1
                l(5) =   2
                l(6) =   2
     Q(r) pseudized with  6 coefficients,  rinner =    1.100   1.100   1.100
                                                       1.100   1.100

     vdW kernel table read from file vdW_kernel_table
     MD5 check sum: 095c7af220d748ca6e76c0b4c6cfb241

     atomic species   valence    mass     pseudopotential
        W1            14.00   183.84000     W ( 1.00)
        Tl1           13.00   204.38000     Tl( 1.00)

     No symmetry found

   Cartesian axes

     site n.     atom                  positions (alat units)
         1           W1  tau(   1) = (   0.0000000   0.0000000  10.0000000  )
         2           W1  tau(   2) = (  -1.4535898   2.5176914  10.0000000  )
         3           W1  tau(   3) = (   1.4535898   2.5176914  10.0000000  )
         4           Tl1 tau(   4) = (   2.9071796   0.0000000  10.0000000  )
         5           W1  tau(   5) = (   2.9071796   1.6784609  12.3737022  )
         6           W1  tau(   6) = (   1.4535898   4.1961523  12.3737022  )
         7           W1  tau(   7) = (  -1.4535898   4.1961523  12.3737022  )
         8           Tl1 tau(   8) = (   0.0000000   1.6784609  12.3737022  )
         9           W1  tau(   9) = (  -0.0000351   3.5318489  14.6131396  )
        10           W1  tau(  10) = (   1.6050701   0.7517125  14.6131459  )
        11           W1  tau(  11) = (   4.2092310   0.7517198  14.6131419  )
        12           Tl1 tau(  12) = (   2.9071503   3.3568892  15.3479718  )

     number of k points=    20  Fermi-Dirac smearing, width (Ry)=  0.0110
                       cart. coord. in units 2pi/alat
        k(    1) = (   0.0000000   0.0000000   0.0000000), wk =   0.0555556
        k(    2) = (   0.0000000   0.0330991   0.0000000), wk =   0.1111111
        k(    3) = (   0.0000000   0.0661982   0.0000000), wk =   0.1111111
        k(    4) = (   0.0000000  -0.0992973   0.0000000), wk =   0.0555556
        k(    5) = (   0.0286647   0.0165496   0.0000000), wk =   0.1111111
        k(    6) = (   0.0286647   0.0496487   0.0000000), wk =   0.1111111
        k(    7) = (   0.0286647   0.0827478   0.0000000), wk =   0.1111111
        k(    8) = (   0.0286647  -0.0827478   0.0000000), wk =   0.1111111
        k(    9) = (   0.0286647  -0.0496487   0.0000000), wk =   0.1111111
        k(   10) = (   0.0286647  -0.0165496   0.0000000), wk =   0.1111111
        k(   11) = (   0.0573293   0.0330991   0.0000000), wk =   0.1111111
        k(   12) = (   0.0573293   0.0661982   0.0000000), wk =   0.1111111
        k(   13) = (   0.0573293   0.0992973   0.0000000), wk =   0.1111111
        k(   14) = (   0.0573293  -0.0661982   0.0000000), wk =   0.1111111
        k(   15) = (   0.0573293  -0.0330991   0.0000000), wk =   0.1111111
        k(   16) = (   0.0573293   0.0000000   0.0000000), wk =   0.1111111
        k(   17) = (  -0.0859940  -0.0496487   0.0000000), wk =   0.0555556
        k(   18) = (  -0.0859940  -0.0165496   0.0000000), wk =   0.1111111
        k(   19) = (  -0.0859940   0.0165496   0.0000000), wk =   0.1111111
        k(   20) = (  -0.0859940  -0.1489460   0.0000000), wk =   0.0555556

     Largest allocated arrays     est. size (Mb)     dimensions
     Largest temporary arrays     est. size (Mb)     dimensions

     Initial potential from superposition of free atoms
     Check: negative starting charge=   -0.724324

     starting charge  164.08234, renormalised to  165.00000

[...]

     *
     * You are using vdW-DF for exchange-correlation in this calculation.
     * Please cite the following three references that made this development
     * possible:
     *
     *   M. Dion, H. Rydberg, E. Schroder, D. C. Langreth, and
     *   B. I. Lundqvist, Phys. Rev. Lett. 92, 246401 (2004).
     *
     *   T. Thonhauser, V. R. Cooper, S. Li, A. Puzder, P. Hyldgaard, and
     *   D. C. Langreth, Phys. Rev. B 76, 125112 (2007).
     *
     *   G. Roman-Perez and J. M. Soler, Phys. Rev. Lett. 103, 096102 (2009).
     *
     *
     * If you are using vdW-DF2, please also cite:
     *
     *   K. Lee, E. D. Murray, L. Kong, B. I. Lundqvist, and
     *   D. C. Langreth, Phys. Rev. B 82, 081101(R) (2010).
     *
     *
     * If you are calculating the stress with vdW-DF, please also cite:
     *
     *   R. Sabatini, E. Kucukbenli, B. Kolb, T. Thonhauser, and
     *   S. de Gironcoli, J. Phys.: Condens. Matter 24, 424209 (2012).
     *

     Carrying out vdW-DF run using the following parameters:

     Nqs =      20    Nr_points =    1024   r_max =   100.000
     q_mesh =
               0.00001000     0.04494208     0.09755937     0.15916263
               0.23128650     0.31572767     0.41458969     0.53033537
               0.66584808     0.82450364     1.01025438     1.22772762
               1.48234092     1.78043706     2.12944203     2.53805004
               3.01644009     3.57652955     4.23227104     5.00000000

     Gradients computed in reciprocal space

[...]

     Starting wfc are  144 randomized atomic wfcs

     Self-consistent Calculation

[...]

     total energy              =   -1883.58043990 Ry
     Harris-Foulkes estimate   =   -1883.58044309 Ry
     estimated scf accuracy    <       0.00000189 Ry

     iteration # 15     ecut=    36.75 Ry     beta=0.10
     Davidson diagonalization with overlap
     ethr =  1.15E-09,  avg # of iterations =  2.5

[...]

     negative rho (up, down):  7.653E-01 0.000E+00

     Adding external electric field

     Computed dipole along edir(3) :
        Dipole                0.0926 Ry au,          0.2355 Debye
        Dipole field          0.0002 Ry au

        Potential amp.       -0.0217 Ry
        Total length         45.5967 bohr

     End of self-consistent calculation

[...]

          k = 0.0573 0.0000 0.0000 ( 18405 PWs)   bands (ev):

[...]

          k =-0.0860-0.1489 0.0000 ( 18348 PWs)   bands (ev):

   -72.3095 -72.2953 -72.2809 -72.1772 -72.1647 -72.1520 -72.0506 -71.9786
   -71.9742 -36.7333 -36.6437 -36.5880 -36.5457 -36.5318 -36.4849 -36.4739
   -36.4679 -36.4045 -36.3623 -36.3251 -36.2936 -36.2753 -36.2457 -36.2222
   -36.2164 -36.1564 -36.1263 -36.1079 -36.0997 -35.9874 -35.9702 -35.9616
   -35.8970 -35.8718 -35.7478 -35.6568 -10.1855 -10.1117 -10.0736 -10.0355
   -10.0310  -9.4965  -9.4018  -9.3749  -9.3355  -9.3324  -9.1349  -9.0918
    -9.0754  -9.0681  -9.0441  -6.4361  -5.5817  -4.5751  -3.6296  -2.7446
    -2.6226  -2.2630  -1.8352  -1.0400  -0.8770  -0.6919  -0.6166  -0.5443
    -0.5013  -0.4793  -0.0952   0.0915   0.2529   0.2783   0.3875   0.4833
     0.5625   0.8895   0.9899   1.0467   1.1827   1.3439   1.4450   1.7605
     1.8080   1.9834   2.0562   2.1119   2.6300   2.9777   3.0219   3.2006
     3.2907   3.4700   3.4912   3.5968   3.7570   3.9197   3.9671   4.1103
     4.2325   4.4658   4.5256   4.5735   5.1461   5.3334   5.4043   5.5835
     5.7888   6.3206   6.9428   7.2657   7.4328   7.4969   7.5441   7.8413

     the Fermi energy is     2.2110 ev

!    total energy              =   -1883.58041372 Ry
     Harris-Foulkes estimate   =   -1883.58044005 Ry
     estimated scf accuracy    <       0.00000065 Ry

     The total energy is the sum of the following terms:

     one-electron contribution =  -13386.35982747 Ry
     hartree contribution      =    6701.12619069 Ry
     xc contribution           =    -575.00333638 Ry
     ewald contribution        =    5376.71147459 Ry
     electric field correction =       0.00002206 Ry
     smearing contrib. (-TS)   =      -0.05493721 Ry

     convergence has been achieved in  15 iterations

 BEEF-vdW xc energy contributions
           1 :   -508.270475718766
           2 :    471.248409111792
           3 :   -405.832846394982
           4 :    326.056801162791
           5 :   -246.643470016565
           6 :    178.721312186367
           7 :   -127.457268792057
           8 :    92.1472798216454
           9 :   -68.3107900367635
          10 :    50.5833788743279
          11 :   -35.0894128284401
          12 :    20.4426689022880
          13 :   -7.32052351893958
          14 :   -2.80497622689552
          15 :    8.95025877720582
          16 :   -11.3024370753151
          17 :    11.1154139138623
          18 :   -10.0559559908165
          19 :    9.43792020869682
          20 :   -9.75290316928090
          21 :    10.6786452188322
          22 :   -11.4800235815078
          23 :    11.5290566311485
          24 :   -10.6605291555211
          25 :    9.20861352975749
          26 :   -7.76482197577229
          27 :    6.83097805931345
          28 :   -6.56891939351021
          29 :    6.76396112106477
          30 :   -6.99159691934142
          31 :   -44.1751961377153
          32 :   -32.9377451835878

     Forces acting on atoms (Ry/au):

     negative rho (up, down):  7.653E-01 0.000E+00
     atom    1 type  1   force =     0.00000021   -0.04119283    0.04170412
     atom    2 type  1   force =    -0.03567420    0.02059600    0.04170552
     atom    3 type  1   force =     0.03567321    0.02059566    0.04170518
     atom    4 type  2   force =     0.00000150    0.00000284   -0.09262059
     atom    5 type  1   force =    -0.00000235    0.02952953   -0.00901306
     atom    6 type  1   force =     0.02557337   -0.01476666   -0.00901468
     atom    7 type  1   force =    -0.02557445   -0.01476641   -0.00901577
     atom    8 type  2   force =    -0.00000031   -0.00000165   -0.00565020
     atom    9 type  1   force =     0.00000263   -0.00024393   -0.00019686
     atom   10 type  1   force =    -0.00020720    0.00012538   -0.00020275
     atom   11 type  1   force =     0.00021029    0.00012376   -0.00019924
     atom   12 type  2   force =    -0.00000271   -0.00000168    0.00079835

     Total force =     0.147580     Total SCF correction =     0.003842

     entering subroutine stress ...

     negative rho (up, down):  7.653E-01 0.000E+00
          total   stress  (Ry/bohr**3)                   (kbar)     P=  -30.57
  -0.00025999  -0.00000001   0.00000000        -38.25     -0.00      0.00
  -0.00000001  -0.00025998   0.00000001         -0.00    -38.24      0.00
   0.00000000   0.00000001  -0.00010344          0.00      0.00    -15.22

 !ASE

     Writing output data file calc.save

     General routines

     Parallel routines

   This run was terminated on:  11:54: 9   2Jan2019

   JOB DONE.
Job  /afs/slac/g/suncat/bin/suncat-tsmpirun -x LD_LIBRARY_PATH -wdir /scratch/qe649397_GSjLl pw.x -in pw.inp

TID   HOST_NAME   COMMAND_LINE            STATUS            TERMINATION_TIME
00000 suncat0078 pw.x -in pw.inp   Done                     01/02/2019 11:54:09
00001 suncat0078 pw.x -in pw.inp   Done                     01/02/2019 11:54:09
00002 suncat0078 pw.x -in pw.inp   Done                     01/02/2019 11:54:09
00003 suncat0078 pw.x -in pw.inp   Done                     01/02/2019 11:54:09
00004 suncat0078 pw.x -in pw.inp   Done                     01/02/2019 11:54:09
00005 suncat0078 pw.x -in pw.inp   Done                     01/02/2019 11:54:09
00006 suncat0078 pw.x -in pw.inp   Done                     01/02/2019 11:54:09
00007 suncat0078 pw.x -in pw.inp   Done                     01/02/2019 11:54:09
00008 suncat0077 pw.x -in pw.inp   Done                     01/02/2019 11:54:09
00009 suncat0077 pw.x -in pw.inp   Done                     01/02/2019 11:54:09
00010 suncat0077 pw.x -in pw.inp   Done                     01/02/2019 11:54:09
00011 suncat0077 pw.x -in pw.inp   Done                     01/02/2019 11:54:09
00012 suncat0077 pw.x -in pw.inp   Done                     01/02/2019 11:54:09
00013 suncat0077 pw.x -in pw.inp   Done                     01/02/2019 11:54:09
00014 suncat0077 pw.x -in pw.inp   Done                     01/02/2019 11:54:09
00015 suncat0077 pw.x -in pw.inp   Done                     01/02/2019 11:54:09
00016 suncat0076 pw.x -in pw.inp   Done                     01/02/2019 11:54:09
00017 suncat0076 pw.x -in pw.inp   Done                     01/02/2019 11:54:09
00018 suncat0076 pw.x -in pw.inp   Done                     01/02/2019 11:54:09
00019 suncat0076 pw.x -in pw.inp   Done                     01/02/2019 11:54:09
00020 suncat0076 pw.x -in pw.inp   Done                     01/02/2019 11:54:09
00021 suncat0076 pw.x -in pw.inp   Done                     01/02/2019 11:54:09
00022 suncat0076 pw.x -in pw.inp   Done                     01/02/2019 11:54:09
00023 suncat0076 pw.x -in pw.inp   Done                     01/02/2019 11:54:09
00024 suncat0074 pw.x -in pw.inp   Done                     01/02/2019 11:54:09
00025 suncat0074 pw.x -in pw.inp   Done                     01/02/2019 11:54:09
00026 suncat0074 pw.x -in pw.inp   Done                     01/02/2019 11:54:09
00027 suncat0074 pw.x -in pw.inp   Done                     01/02/2019 11:54:09
00028 suncat0074 pw.x -in pw.inp   Done                     01/02/2019 11:54:09
00029 suncat0074 pw.x -in pw.inp   Done                     01/02/2019 11:54:09
00030 suncat0074 pw.x -in pw.inp   Done                     01/02/2019 11:54:09
00031 suncat0074 pw.x -in pw.inp   Done                     01/02/2019 11:54:09
00032 suncat0073 pw.x -in pw.inp   Done                     01/02/2019 11:54:09
00033 suncat0073 pw.x -in pw.inp   Done                     01/02/2019 11:54:09
00034 suncat0073 pw.x -in pw.inp   Done                     01/02/2019 11:54:09
00035 suncat0073 pw.x -in pw.inp   Done                     01/02/2019 11:54:09
00036 suncat0073 pw.x -in pw.inp   Done                     01/02/2019 11:54:09
00037 suncat0073 pw.x -in pw.inp   Done                     01/02/2019 11:54:09
00038 suncat0073 pw.x -in pw.inp   Done                     01/02/2019 11:54:09
00039 suncat0073 pw.x -in pw.inp   Done                     01/02/2019 11:54:09
00040 suncat0069 pw.x -in pw.inp   Done                     01/02/2019 11:54:09
00041 suncat0069 pw.x -in pw.inp   Done                     01/02/2019 11:54:09
00042 suncat0069 pw.x -in pw.inp   Done                     01/02/2019 11:54:09
00043 suncat0069 pw.x -in pw.inp   Done                     01/02/2019 11:54:09
00044 suncat0069 pw.x -in pw.inp   Done                     01/02/2019 11:54:09
00045 suncat0069 pw.x -in pw.inp   Done                     01/02/2019 11:54:09
00046 suncat0069 pw.x -in pw.inp   Done                     01/02/2019 11:54:09
00047 suncat0069 pw.x -in pw.inp   Done                     01/02/2019 11:54:09
00048 suncat0217 pw.x -in pw.inp   Done                     01/02/2019 11:54:09
00049 suncat0217 pw.x -in pw.inp   Done                     01/02/2019 11:54:09
00050 suncat0217 pw.x -in pw.inp   Done                     01/02/2019 11:54:09
00051 suncat0217 pw.x -in pw.inp   Done                     01/02/2019 11:54:09
00052 suncat0217 pw.x -in pw.inp   Done                     01/02/2019 11:54:09
00053 suncat0217 pw.x -in pw.inp   Done                     01/02/2019 11:54:09
00054 suncat0217 pw.x -in pw.inp   Done                     01/02/2019 11:54:09
00055 suncat0217 pw.x -in pw.inp   Done                     01/02/2019 11:54:09
00056 suncat0216 pw.x -in pw.inp   Done                     01/02/2019 11:54:09
00057 suncat0216 pw.x -in pw.inp   Done                     01/02/2019 11:54:09
00058 suncat0216 pw.x -in pw.inp   Done                     01/02/2019 11:54:09
00059 suncat0216 pw.x -in pw.inp   Done                     01/02/2019 11:54:09
00060 suncat0216 pw.x -in pw.inp   Done                     01/02/2019 11:54:09
00061 suncat0216 pw.x -in pw.inp   Done                     01/02/2019 11:54:09
00062 suncat0216 pw.x -in pw.inp   Done                     01/02/2019 11:54:09
00063 suncat0216 pw.x -in pw.inp   Done                     01/02/2019 11:54:09