     Program PWSCF v.5.1rc2 (svn rev. 11289) starts on  2Jan2019 at 12:45:53

     Current dimensions of program PWSCF are:
     Max number of different atomic species (ntypx) = 10
     Max number of k-points (npk) =  40000
     Max angular momentum in pseudopotentials (lmaxx) =  3
     Presently stress not available with electric field

     IMPORTANT: XC functional enforced from input :
     Exchange-correlation      = BEEF-VDW ( 1  4 27 13 2)
     Any further DFT definition will be discarded
     Please, verify this is what you really want

     Subspace diagonalization in iterative solution of the eigenvalue problem:
     a serial algorithm will be used

     bravais-lattice index     =            0
     lattice parameter (alat)  =       1.8897  a.u.
     unit-cell volume          =    6311.3026 (a.u.)^3
     number of atoms/cell      =           12
     number of atomic types    =            2
     number of electrons       =       147.00
     number of Kohn-Sham states=          103
     kinetic-energy cutoff     =      36.7493  Ry
     charge density cutoff     =     367.4932  Ry
     convergence threshold     =      1.0E-06
     mixing beta               =       0.1000
     number of iterations used =           10  plain     mixing
     Exchange-correlation      = BEEF-VDW ( 1  4 27 13 2)
     nstep                     =           50

     celldm(1)=   1.889726  celldm(2)=   0.000000  celldm(3)=   0.000000
     celldm(4)=   0.000000  celldm(5)=   0.000000  celldm(6)=   0.000000

     crystal axes: (cart. coord. in units of alat)
               a(1) = (   6.529324   0.000000   0.000000 )
               a(2) = (  -3.264662   5.654561   0.000000 )
               a(3) = (   0.000000   0.000000  25.331171 )

     reciprocal axes: (cart. coord. in units 2 pi/alat)
               b(1) = (  0.153155  0.088424  0.000000 )
               b(2) = (  0.000000  0.176848  0.000000 )
               b(3) = (  0.000000  0.000000  0.039477 )

     PseudoPot. # 1 for Y  read from file:
     /afs/slac.stanford.edu/u/if/mamunm/psp/gbrv1.5pbe/Y.UPF
     MD5 check sum: d034151ed7554c50b6e82763ed42c788
     Pseudo is Ultrasoft + core correction, Zval = 11.0
     Generated by new atomic code, or converted to UPF format
     Using radial grid of  885 points,  6 beta functions with:
                l(1) =   0
                l(2) =   0
                l(3) =   1
                l(4) =   1
                l(5) =   2
                l(6) =   2
     Q(r) pseudized with  8 coefficients,  rinner =    1.200   1.200   1.200
                                                       1.200   1.200

     PseudoPot. # 2 for Os read from file:
     /afs/slac.stanford.edu/u/if/mamunm/psp/gbrv1.5pbe/Os.UPF
     MD5 check sum: a3fb40a04f0c37c25c34bbc47164c9a8
     Pseudo is Ultrasoft + core correction, Zval = 16.0
     Generated by new atomic code, or converted to UPF format
     Using radial grid of  983 points,  8 beta functions with:
                l(1) =   0
                l(2) =   0
                l(3) =   1
                l(4) =   1
                l(5) =   2
                l(6) =   2
                l(7) =   3
                l(8) =   3
     Q(r) pseudized with  8 coefficients,  rinner =    1.150   1.150   1.150
                                                       1.150   1.150   1.150
                                                       1.150

     vdW kernel table read from file vdW_kernel_table
     MD5 check sum: 095c7af220d748ca6e76c0b4c6cfb241

     atomic species   valence    mass     pseudopotential
        Y1            11.00    88.90584     Y ( 1.00)
        Os1           16.00   190.23000     Os( 1.00)

     No symmetry found

   Cartesian axes

     site n.     atom                  positions (alat units)
         1           Y1  tau(   1) = (   0.0000000   0.0000000  10.0000000  )
         2           Y1  tau(   2) = (  -1.6323311   2.8272804  10.0000000  )
         3           Y1  tau(   3) = (   1.6323311   2.8272804  10.0000000  )
         4           Os1 tau(   4) = (   3.2646622   0.0000000  10.0000000  )
         5           Y1  tau(   5) = (   3.2646622   1.8848536  12.6655856  )
         6           Y1  tau(   6) = (   1.6323311   4.7121341  12.6655856  )
         7           Y1  tau(   7) = (  -1.6323311   4.7121341  12.6655856  )
         8           Os1 tau(   8) = (   0.0000000   1.8848536  12.6655856  )
         9           Y1  tau(   9) = (  -0.0000000   3.7697072  15.3311711  )
        10           Y1  tau(  10) = (   1.6323311   0.9424268  15.3311711  )
        11           Y1  tau(  11) = (   4.8969934   0.9424268  15.3311711  )
        12           Os1 tau(  12) = (   3.2646622   3.7697072  15.3311711  )

     number of k points=    20  Fermi-Dirac smearing, width (Ry)=  0.0110
                       cart. coord. in units 2pi/alat
        k(    1) = (   0.0000000   0.0000000   0.0000000), wk =   0.0555556
        k(    2) = (   0.0000000   0.0294747   0.0000000), wk =   0.1111111
        k(    3) = (   0.0000000   0.0589495   0.0000000), wk =   0.1111111
        k(    4) = (   0.0000000  -0.0884242   0.0000000), wk =   0.0555556
        k(    5) = (   0.0255259   0.0147374   0.0000000), wk =   0.1111111
        k(    6) = (   0.0255259   0.0442121   0.0000000), wk =   0.1111111
        k(    7) = (   0.0255259   0.0736868   0.0000000), wk =   0.1111111
        k(    8) = (   0.0255259  -0.0736868   0.0000000), wk =   0.1111111
        k(    9) = (   0.0255259  -0.0442121   0.0000000), wk =   0.1111111
        k(   10) = (   0.0255259  -0.0147374   0.0000000), wk =   0.1111111
        k(   11) = (   0.0510517   0.0294747   0.0000000), wk =   0.1111111
        k(   12) = (   0.0510517   0.0589495   0.0000000), wk =   0.1111111
        k(   13) = (   0.0510517   0.0884242   0.0000000), wk =   0.1111111
        k(   14) = (   0.0510517  -0.0589495   0.0000000), wk =   0.1111111
        k(   15) = (   0.0510517  -0.0294747   0.0000000), wk =   0.1111111
        k(   16) = (   0.0510517   0.0000000   0.0000000), wk =   0.1111111
        k(   17) = (  -0.0765776  -0.0442121   0.0000000), wk =   0.0555556
        k(   18) = (  -0.0765776  -0.0147374   0.0000000), wk =   0.1111111
        k(   19) = (  -0.0765776   0.0147374   0.0000000), wk =   0.1111111
        k(   20) = (  -0.0765776  -0.1326363   0.0000000), wk =   0.0555556

     Largest allocated arrays     est. size (Mb)     dimensions
     Largest temporary arrays     est. size (Mb)     dimensions

     Initial potential from superposition of free atoms
     Check: negative starting charge=   -0.373430

     starting charge  145.45967, renormalised to  147.00000

     negative rho (up, down):  3.774E-01 0.000E+00

     *
     * You are using vdW-DF for exchange-correlation in this calculation.
     * Please cite the following three references that made this development
     * possible:
     *
     *   M. Dion, H. Rydberg, E. Schroder, D. C. Langreth, and
     *   B. I. Lundqvist, Phys. Rev. Lett. 92, 246401 (2004).
     *
     *   T. Thonhauser, V. R. Cooper, S. Li, A. Puzder, P. Hyldgaard, and
     *   D. C. Langreth, Phys. Rev. B 76, 125112 (2007).
     *
     *   G. Roman-Perez and J. M. Soler, Phys. Rev. Lett. 103, 096102 (2009).
     *
     *
     * If you are using vdW-DF2, please also cite:
     *
     *   K. Lee, E. D. Murray, L. Kong, B. I. Lundqvist, and
     *   D. C. Langreth, Phys. Rev. B 82, 081101(R) (2010).
     *
     *
     * If you are calculating the stress with vdW-DF, please also cite:
     *
     *   R. Sabatini, E. Kucukbenli, B. Kolb, T. Thonhauser, and
     *   S. de Gironcoli, J. Phys.: Condens. Matter 24, 424209 (2012).
     *

     Carrying out vdW-DF run using the following parameters:

     Nqs =      20    Nr_points =    1024   r_max =   100.000
     q_mesh =
               0.00001000     0.04494208     0.09755937     0.15916263
               0.23128650     0.31572767     0.41458969     0.53033537
               0.66584808     0.82450364     1.01025438     1.22772762
               1.48234092     1.78043706     2.12944203     2.53805004
               3.01644009     3.57652955     4.23227104     5.00000000

     Gradients computed in reciprocal space

     Adding external electric field

     Computed dipole along edir(3) :
        Dipole                0.0000 Ry au,          0.0000 Debye
        Dipole field          0.0000 Ry au

        Potential amp.       -0.0000 Ry
        Total length         46.6723 bohr

     Starting wfc are  156 randomized atomic wfcs

     Self-consistent Calculation

     iteration #  1     ecut=    36.75 Ry     beta=0.10
     Davidson diagonalization with overlap
     ethr =  1.00E-02,  avg # of iterations =  2.0

[...]

     total energy              =   -1441.98578930 Ry
     Harris-Foulkes estimate   =   -1443.33299753 Ry
     estimated scf accuracy    <       7.63006243 Ry

[...]

     End of self-consistent calculation

          k = 0.0000 0.0000 0.0000 ( 23727 PWs)   bands (ev):

   -83.9738 -83.7136 -83.7135 -43.2392 -43.2271 -43.2271 -43.0177 -43.0177
   -43.0175 -43.0175 -42.9537 -42.9532 -41.5188 -41.5140 -41.4188 -41.4188
   -41.4178 -41.4177 -41.0143 -40.9197 -40.9194 -22.0197 -21.9702 -21.7136
   -21.6607 -21.6607 -21.5951 -21.5951 -21.5417 -21.5333 -21.5333 -21.4414
   -21.4263 -21.4263 -21.1606 -21.1420 -21.1000 -21.1000 -21.0707 -21.0707
   -21.0214 -21.0214 -20.8981 -20.8481 -20.8480 -20.6554 -20.6023 -20.6023
    -3.5352  -2.4713  -1.9113  -1.0396  -0.9636  -0.8990  -0.8990  -0.7752
    -0.7752  -0.5238  -0.4376  -0.4376  -0.3392  -0.3392  -0.2270   0.3788
     0.3788   0.7338   0.8251   0.8251   0.9716   1.1660   1.8033   2.0317
     2.0508   2.1881   2.1881   2.2828   2.2828   2.5141   2.5142   2.5405
     2.7179   2.7179   2.8315   2.8677   2.8678   3.2032   3.2032   3.4329
     3.4329   3.4878   3.5854   3.5854   3.8496   3.8799   3.8800   3.8811
     4.8360   4.8871   5.1425   5.1884   5.1884   5.2786   5.5906

[...]

          k =-0.0766-0.0442 0.0000 ( 23720 PWs)   bands (ev):

[...]

     the Fermi energy is     1.6229 ev

!    total energy              =   -1442.43397447 Ry
     Harris-Foulkes estimate   =   -1442.43397410 Ry
     estimated scf accuracy    <       0.00000061 Ry

     The total energy is the sum of the following terms:

     one-electron contribution =   -8299.58879752 Ry
     hartree contribution      =    4142.04952252 Ry
     xc contribution           =    -370.66422734 Ry
     ewald contribution        =    3085.86212460 Ry
     electric field correction =       0.00000005 Ry
     smearing contrib. (-TS)   =      -0.09259679 Ry

     convergence has been achieved in  19 iterations

 BEEF-vdW xc energy contributions
           1 :   -323.753848947994
           2 :    293.591476059175
           3 :   -241.062559475429
           4 :    178.457312441098
           5 :   -117.990487692808
           6 :    68.2261357291891
           7 :   -32.7946494807073
           8 :    11.2320032664047
           9 :  -0.856497879681058
          10 :   -1.50386008363432
          11 :   -1.40774514216059
          12 :    7.36651925413565
          13 :   -14.3618131299698
          14 :    20.4141934082317
[...]

     PseudoPot. # 1 for Y  read from file:
     /afs/slac.stanford.edu/u/if/mamunm/psp/gbrv1.5pbe/Y.UPF
     MD5 check sum: d034151ed7554c50b6e82763ed42c788
     Pseudo is Ultrasoft + core correction, Zval = 11.0
     Generated by new atomic code, or converted to UPF format
     Using radial grid of  885 points,  6 beta functions with:
                l(1) =   0
                l(2) =   0
                l(3) =   1
                l(4) =   1
                l(5) =   2
                l(6) =   2
     Q(r) pseudized with  8 coefficients,  rinner =    1.200   1.200   1.200
                                                       1.200   1.200

     PseudoPot. # 2 for Os read from file:
     /afs/slac.stanford.edu/u/if/mamunm/psp/gbrv1.5pbe/Os.UPF
     MD5 check sum: a3fb40a04f0c37c25c34bbc47164c9a8
     Pseudo is Ultrasoft + core correction, Zval = 16.0
     Generated by new atomic code, or converted to UPF format
     Using radial grid of  983 points,  8 beta functions with:
                l(1) =   0
                l(2) =   0
                l(3) =   1
                l(4) =   1
                l(5) =   2
                l(6) =   2
                l(7) =   3
                l(8) =   3
     Q(r) pseudized with  8 coefficients,  rinner =    1.150   1.150   1.150
                                                       1.150   1.150   1.150
                                                       1.150

     vdW kernel table read from file vdW_kernel_table
     MD5 check sum: 095c7af220d748ca6e76c0b4c6cfb241

     atomic species   valence    mass     pseudopotential
        Y1            11.00    88.90584     Y ( 1.00)
        Os1           16.00   190.23000     Os( 1.00)

     No symmetry found

   Cartesian axes

     site n.     atom                  positions (alat units)
         1           Y1  tau(   1) = (   0.0000000   0.0000000  10.0000000  )
         2           Y1  tau(   2) = (  -1.6323311   2.8272804  10.0000000  )
         3           Y1  tau(   3) = (   1.6323311   2.8272804  10.0000000  )
         4           Os1 tau(   4) = (   3.2646622   0.0000000  10.0000000  )
         5           Y1  tau(   5) = (   3.2646622   1.8848536  12.6655856  )
         6           Y1  tau(   6) = (   1.6323311   4.7121341  12.6655856  )
         7           Y1  tau(   7) = (  -1.6323311   4.7121341  12.6655856  )
         8           Os1 tau(   8) = (   0.0000000   1.8848536  12.6655856  )
         9           Y1  tau(   9) = (  -0.0000013   3.7187559  15.3624504  )
        10           Y1  tau(  10) = (   1.5883880   0.9678857  15.3624832  )
        11           Y1  tau(  11) = (   4.9409446   0.9678827  15.3624934  )
        12           Os1 tau(  12) = (   3.2646486   3.7696805  14.8477360  )

     number of k points=    20  Fermi-Dirac smearing, width (Ry)=  0.0110
                       cart. coord. in units 2pi/alat
        k(    1) = (   0.0000000   0.0000000   0.0000000), wk =   0.0555556
        k(    2) = (   0.0000000   0.0294747   0.0000000), wk =   0.1111111
        k(    3) = (   0.0000000   0.0589495   0.0000000), wk =   0.1111111
        k(    4) = (   0.0000000  -0.0884242   0.0000000), wk =   0.0555556
        k(    5) = (   0.0255259   0.0147374   0.0000000), wk =   0.1111111
        k(    6) = (   0.0255259   0.0442121   0.0000000), wk =   0.1111111
        k(    7) = (   0.0255259   0.0736868   0.0000000), wk =   0.1111111
        k(    8) = (   0.0255259  -0.0736868   0.0000000), wk =   0.1111111
        k(    9) = (   0.0255259  -0.0442121   0.0000000), wk =   0.1111111
        k(   10) = (   0.0255259  -0.0147374   0.0000000), wk =   0.1111111
        k(   11) = (   0.0510517   0.0294747   0.0000000), wk =   0.1111111
        k(   12) = (   0.0510517   0.0589495   0.0000000), wk =   0.1111111
        k(   13) = (   0.0510517   0.0884242   0.0000000), wk =   0.1111111
        k(   14) = (   0.0510517  -0.0589495   0.0000000), wk =   0.1111111
        k(   15) = (   0.0510517  -0.0294747   0.0000000), wk =   0.1111111
        k(   16) = (   0.0510517   0.0000000   0.0000000), wk =   0.1111111
        k(   17) = (  -0.0765776  -0.0442121   0.0000000), wk =   0.0555556
        k(   18) = (  -0.0765776  -0.0147374   0.0000000), wk =   0.1111111
        k(   19) = (  -0.0765776   0.0147374   0.0000000), wk =   0.1111111
        k(   20) = (  -0.0765776  -0.1326363   0.0000000), wk =   0.0555556

     Largest allocated arrays     est. size (Mb)     dimensions
     Largest temporary arrays     est. size (Mb)     dimensions

     Initial potential from superposition of free atoms
     Check: negative starting charge=   -0.372215

     starting charge  145.45967, renormalised to  147.00000

[...]

     *
     * You are using vdW-DF for exchange-correlation in this calculation.
     * Please cite the following three references that made this development
     * possible:
     *
     *   M. Dion, H. Rydberg, E. Schroder, D. C. Langreth, and
     *   B. I. Lundqvist, Phys. Rev. Lett. 92, 246401 (2004).
     *
     *   T. Thonhauser, V. R. Cooper, S. Li, A. Puzder, P. Hyldgaard, and
     *   D. C. Langreth, Phys. Rev. B 76, 125112 (2007).
     *
     *   G. Roman-Perez and J. M. Soler, Phys. Rev. Lett. 103, 096102 (2009).
     *
     *
     * If you are using vdW-DF2, please also cite:
     *
     *   K. Lee, E. D. Murray, L. Kong, B. I. Lundqvist, and
     *   D. C. Langreth, Phys. Rev. B 82, 081101(R) (2010).
     *
     *
     * If you are calculating the stress with vdW-DF, please also cite:
     *
     *   R. Sabatini, E. Kucukbenli, B. Kolb, T. Thonhauser, and
     *   S. de Gironcoli, J. Phys.: Condens. Matter 24, 424209 (2012).
     *

     Carrying out vdW-DF run using the following parameters:

     Nqs =      20    Nr_points =    1024   r_max =   100.000
     q_mesh =
               0.00001000     0.04494208     0.09755937     0.15916263
               0.23128650     0.31572767     0.41458969     0.53033537
               0.66584808     0.82450364     1.01025438     1.22772762
               1.48234092     1.78043706     2.12944203     2.53805004
               3.01644009     3.57652955     4.23227104     5.00000000

     Gradients computed in reciprocal space

[...]

     Starting wfc are  156 randomized atomic wfcs

     Self-consistent Calculation

[...]

     total energy              =   -1442.47885919 Ry
     Harris-Foulkes estimate   =   -1442.47885842 Ry
     estimated scf accuracy    <       0.00000134 Ry

     iteration # 19     ecut=    36.75 Ry     beta=0.10
     Davidson diagonalization with overlap
     ethr =  9.15E-10,  avg # of iterations =  2.9

[...]

     negative rho (up, down):  3.562E-01 0.000E+00

     Adding external electric field

     Computed dipole along edir(3) :
        Dipole                0.0957 Ry au,          0.2431 Debye
        Dipole field          0.0002 Ry au

        Potential amp.       -0.0178 Ry
        Total length         46.6723 bohr

     End of self-consistent calculation

[...]

          k = 0.0511 0.0000 0.0000 ( 23726 PWs)   bands (ev):

[...]

          k =-0.0766-0.1326 0.0000 ( 23720 PWs)   bands (ev):

   -83.9023 -83.6385 -83.5737 -43.1770 -43.1558 -43.1554 -42.9594 -42.9589
   -42.9119 -42.8909 -42.8903 -42.7987 -41.4687 -41.4261 -41.4085 -41.3967
   -41.3773 -41.3441 -40.7100 -40.6794 -40.6471 -21.7614 -21.7170 -21.5672
   -21.5265 -21.5011 -21.4651 -21.4499 -21.4359 -21.4089 -21.4070 -21.3678
   -21.3630 -21.3425 -21.3214 -21.2955 -21.2840 -21.0536 -21.0231 -21.0199
   -20.7566 -20.7017 -20.6432 -20.6342 -20.6309 -20.6170 -20.5929 -20.3650
    -2.2592  -2.0222  -1.3301  -0.8163  -0.5194  -0.3686  -0.2955  -0.1636
    -0.1209  -0.0277   0.1272   0.1457   0.2010   0.3056   0.3771   0.4632
     0.6116   0.6365   0.7880   0.8497   0.8913   0.9808   1.1011   1.3015
     1.4323   1.5508   1.7277   1.7990   1.8907   2.0639   2.1183   2.1693
     2.1882   2.2859   2.4338   2.4879   2.9025   2.9655   3.0416   3.1606
     3.2373   3.6194   3.6602   3.7483   3.8428   3.9539   3.9621   4.1420
     4.2431   4.5637   4.7348   4.9592   5.0404   5.0970   5.1642

     the Fermi energy is     1.7019 ev

!    total energy              =   -1442.47886140 Ry
     Harris-Foulkes estimate   =   -1442.47885852 Ry
     estimated scf accuracy    <       0.00000058 Ry

     The total energy is the sum of the following terms:

     one-electron contribution =   -8452.91550791 Ry
     hartree contribution      =    4219.28566291 Ry
     xc contribution           =    -370.80279326 Ry
     ewald contribution        =    3162.04385164 Ry
     electric field correction =       0.00001822 Ry
     smearing contrib. (-TS)   =      -0.09009301 Ry

     convergence has been achieved in  19 iterations

 BEEF-vdW xc energy contributions
           1 :   -324.003264813295
           2 :    293.890816107698
           3 :   -241.420795359337
           4 :    178.824677662190
           5 :   -118.274529101877
           6 :    68.3397380195537
           7 :   -32.7129041060072
           8 :    11.0175199637073
           9 :  -0.628566300990599
          10 :   -1.63690045619586
          11 :   -1.41204092798779
          12 :    7.47797413535886
          13 :   -14.5137722405607
          14 :    20.5487257627741
          15 :   -23.8814285851145
          16 :    23.5319244850926
          17 :   -19.5915161609667
          18 :    13.1601672513695
          19 :   -5.87583390734318
          20 :  -0.688026001902699
          21 :    5.44273608204941
          22 :   -7.89942567548252
          23 :    8.06264847114778
          24 :   -6.27528146508035
          25 :    3.12421300780233
          26 :   0.599903848019835
          27 :   -3.98064331161027
          28 :    6.16436303294603
          29 :   -6.63187869144434
          30 :    5.41424226683830
          31 :   -30.8367380562029
          32 :   -21.7806278942425

     Forces acting on atoms (Ry/au):

     negative rho (up, down):  3.562E-01 0.000E+00
     atom    1 type  1   force =     0.00000008    0.02696395   -0.01147929
     atom    2 type  1   force =     0.02335456   -0.01348461   -0.01148747
     atom    3 type  1   force =    -0.02335229   -0.01348349   -0.01148653
     atom    4 type  2   force =     0.00000117   -0.00000421    0.05611712
     atom    5 type  1   force =    -0.00000079   -0.00812621   -0.00688465
     atom    6 type  1   force =    -0.00703321    0.00405432   -0.00687650
     atom    7 type  1   force =     0.00703248    0.00405359   -0.00687425
     atom    8 type  2   force =    -0.00000111   -0.00001122    0.00310032
     atom    9 type  1   force =    -0.00000064   -0.00083902   -0.00156623
     atom   10 type  1   force =    -0.00070109    0.00044468   -0.00155765
     atom   11 type  1   force =     0.00069916    0.00044332   -0.00155573
     atom   12 type  2   force =     0.00000166   -0.00001111    0.00055086

     Total force =     0.078009     Total SCF correction =     0.002138

     entering subroutine stress ...

     negative rho (up, down):  3.562E-01 0.000E+00
          total   stress  (Ry/bohr**3)                   (kbar)     P=   -6.07
  -0.00004918   0.00000000   0.00000000         -7.24      0.00      0.00
   0.00000000  -0.00004918  -0.00000000          0.00     -7.23     -0.00
   0.00000000  -0.00000000  -0.00002537          0.00     -0.00     -3.73

 !ASE

     Writing output data file calc.save

     General routines

     Parallel routines

   This run was terminated on:  14:10:32   2Jan2019

   JOB DONE.
Job  /afs/slac/g/suncat/bin/suncat-tsmpirun -x LD_LIBRARY_PATH -wdir /scratch/qe649433_t7KD3 pw.x -in pw.inp

TID   HOST_NAME   COMMAND_LINE            STATUS            TERMINATION_TIME
00000 suncat0062 pw.x -in pw.inp   Done                     01/02/2019 14:10:32
00001 suncat0062 pw.x -in pw.inp   Done                     01/02/2019 14:10:32
00002 suncat0062 pw.x -in pw.inp   Done                     01/02/2019 14:10:32
00003 suncat0062 pw.x -in pw.inp   Done                     01/02/2019 14:10:32
00004 suncat0062 pw.x -in pw.inp   Done                     01/02/2019 14:10:32
00005 suncat0062 pw.x -in pw.inp   Done                     01/02/2019 14:10:32
00006 suncat0062 pw.x -in pw.inp   Done                     01/02/2019 14:10:32
00007 suncat0062 pw.x -in pw.inp   Done                     01/02/2019 14:10:32
00008 suncat0061 pw.x -in pw.inp   Done                     01/02/2019 14:10:32
00009 suncat0061 pw.x -in pw.inp   Done                     01/02/2019 14:10:32
00010 suncat0061 pw.x -in pw.inp   Done                     01/02/2019 14:10:32
00011 suncat0061 pw.x -in pw.inp   Done                     01/02/2019 14:10:32
00012 suncat0061 pw.x -in pw.inp   Done                     01/02/2019 14:10:32
00013 suncat0061 pw.x -in pw.inp   Done                     01/02/2019 14:10:32
00014 suncat0061 pw.x -in pw.inp   Done                     01/02/2019 14:10:32
00015 suncat0061 pw.x -in pw.inp   Done                     01/02/2019 14:10:32
00016 suncat0060 pw.x -in pw.inp   Done                     01/02/2019 14:10:32
00017 suncat0060 pw.x -in pw.inp   Done                     01/02/2019 14:10:32
00018 suncat0060 pw.x -in pw.inp   Done                     01/02/2019 14:10:32
00019 suncat0060 pw.x -in pw.inp   Done                     01/02/2019 14:10:32
00020 suncat0060 pw.x -in pw.inp   Done                     01/02/2019 14:10:32
00021 suncat0060 pw.x -in pw.inp   Done                     01/02/2019 14:10:32
00022 suncat0060 pw.x -in pw.inp   Done                     01/02/2019 14:10:32
00023 suncat0060 pw.x -in pw.inp   Done                     01/02/2019 14:10:32
00024 suncat0057 pw.x -in pw.inp   Done                     01/02/2019 14:10:32
00025 suncat0057 pw.x -in pw.inp   Done                     01/02/2019 14:10:32
00026 suncat0057 pw.x -in pw.inp   Done                     01/02/2019 14:10:32
00027 suncat0057 pw.x -in pw.inp   Done                     01/02/2019 14:10:32
00028 suncat0057 pw.x -in pw.inp   Done                     01/02/2019 14:10:32
00029 suncat0057 pw.x -in pw.inp   Done                     01/02/2019 14:10:32
00030 suncat0057 pw.x -in pw.inp   Done                     01/02/2019 14:10:32
00031 suncat0057 pw.x -in pw.inp   Done                     01/02/2019 14:10:32
00032 suncat0016 pw.x -in pw.inp   Done                     01/02/2019 14:10:32
00033 suncat0016 pw.x -in pw.inp   Done                     01/02/2019 14:10:32
00034 suncat0016 pw.x -in pw.inp   Done                     01/02/2019 14:10:32
00035 suncat0016 pw.x -in pw.inp   Done                     01/02/2019 14:10:32
00036 suncat0016 pw.x -in pw.inp   Done                     01/02/2019 14:10:32
00037 suncat0016 pw.x -in pw.inp   Done                     01/02/2019 14:10:32
00038 suncat0016 pw.x -in pw.inp   Done                     01/02/2019 14:10:32
00039 suncat0016 pw.x -in pw.inp   Done                     01/02/2019 14:10:32
00040 suncat0198 pw.x -in pw.inp   Done                     01/02/2019 14:10:32
00041 suncat0198 pw.x -in pw.inp   Done                     01/02/2019 14:10:32
00042 suncat0198 pw.x -in pw.inp   Done                     01/02/2019 14:10:32
00043 suncat0198 pw.x -in pw.inp   Done                     01/02/2019 14:10:32
00044 suncat0198 pw.x -in pw.inp   Done                     01/02/2019 14:10:32
00045 suncat0198 pw.x -in pw.inp   Done                     01/02/2019 14:10:32
00046 suncat0198 pw.x -in pw.inp   Done                     01/02/2019 14:10:32
00047 suncat0198 pw.x -in pw.inp   Done                     01/02/2019 14:10:32
00048 suncat0194 pw.x -in pw.inp   Done                     01/02/2019 14:10:32
00049 suncat0194 pw.x -in pw.inp   Done                     01/02/2019 14:10:32
00050 suncat0194 pw.x -in pw.inp   Done                     01/02/2019 14:10:32
00051 suncat0194 pw.x -in pw.inp   Done                     01/02/2019 14:10:32
00052 suncat0194 pw.x -in pw.inp   Done                     01/02/2019 14:10:32
00053 suncat0194 pw.x -in pw.inp   Done                     01/02/2019 14:10:32
00054 suncat0194 pw.x -in pw.inp   Done                     01/02/2019 14:10:32
00055 suncat0194 pw.x -in pw.inp   Done                     01/02/2019 14:10:32
00056 suncat0193 pw.x -in pw.inp   Done                     01/02/2019 14:10:32
00057 suncat0193 pw.x -in pw.inp   Done                     01/02/2019 14:10:32
00058 suncat0193 pw.x -in pw.inp   Done                     01/02/2019 14:10:32
00059 suncat0193 pw.x -in pw.inp   Done                     01/02/2019 14:10:32
00060 suncat0193 pw.x -in pw.inp   Done                     01/02/2019 14:10:32
00061 suncat0193 pw.x -in pw.inp   Done                     01/02/2019 14:10:32
00062 suncat0193 pw.x -in pw.inp   Done                     01/02/2019 14:10:32
00063 suncat0193 pw.x -in pw.inp   Done                     01/02/2019 14:10:32