     Program PWSCF v.5.1rc2 (svn rev. 11289) starts on  2Jan2019 at  5: 7:47

     Current dimensions of program PWSCF are:
     Max number of different atomic species (ntypx) = 10
     Max number of k-points (npk) =  40000
     Max angular momentum in pseudopotentials (lmaxx) =  3
     Presently stress not available with electric field

     IMPORTANT: XC functional enforced from input :
     Exchange-correlation      = BEEF-VDW ( 1  4 27 13 2)
     Any further DFT definition will be discarded
     Please, verify this is what you really want

     Subspace diagonalization in iterative solution of the eigenvalue problem:
     a serial algorithm will be used

     bravais-lattice index     =            0
     lattice parameter (alat)  =       1.8897  a.u.
     unit-cell volume          =    4455.7317 (a.u.)^3
     number of atoms/cell      =           12
     number of atomic types    =            2
     number of electrons       =       156.00
     number of Kohn-Sham states=          108
     kinetic-energy cutoff     =      36.7493  Ry
     charge density cutoff     =     367.4932  Ry
     convergence threshold     =      1.0E-06
     mixing beta               =       0.1000
     number of iterations used =           10  plain     mixing
     Exchange-correlation      = BEEF-VDW ( 1  4 27 13 2)
     nstep                     =           50

     celldm(1)=   1.889726  celldm(2)=   0.000000  celldm(3)=   0.000000
     celldm(4)=   0.000000  celldm(5)=   0.000000  celldm(6)=   0.000000

     crystal axes: (cart. coord. in units of alat)
               a(1) = (   5.572743   0.000000   0.000000 )
               a(2) = (  -2.786372   4.826137   0.000000 )
               a(3) = (   0.000000   0.000000  24.550126 )

     reciprocal axes: (cart. coord. in units 2 pi/alat)
               b(1) = (  0.179445  0.103603  0.000000 )
               b(2) = (  0.000000  0.207205  0.000000 )
               b(3) = (  0.000000  0.000000  0.040733 )

     PseudoPot. # 1 for V  read from file:
     /afs/slac.stanford.edu/u/if/mamunm/psp/gbrv1.5pbe/V.UPF
     MD5 check sum: 22b79981416ebb76fdaf5b1b8640f6fb
     Pseudo is Ultrasoft + core correction, Zval = 13.0
     Generated by new atomic code, or converted to UPF format
     Using radial grid of  853 points,  6 beta functions with:
                l(1) =   0
                l(2) =   0
                l(3) =   1
                l(4) =   1
                l(5) =   2
                l(6) =   2
     Q(r) pseudized with  8 coefficients,  rinner =    1.100   1.100   1.100
                                                       1.100   1.100

     PseudoPot. # 2 for Nb read from file:
     /afs/slac.stanford.edu/u/if/mamunm/psp/gbrv1.5pbe/Nb.UPF
     MD5 check sum: 573aab8a2fa660278ed4a62cd769473f
     Pseudo is Ultrasoft + core correction, Zval = 13.0
     Generated by new atomic code, or converted to UPF format
     Using radial grid of  887 points,  6 beta functions with:
                l(1) =   0
                l(2) =   0
                l(3) =   1
                l(4) =   1
                l(5) =   2
                l(6) =   2
     Q(r) pseudized with  6 coefficients,  rinner =    1.000   1.000   1.000
                                                       1.000   1.000

     vdW kernel table read from file vdW_kernel_table
     MD5 check sum: 095c7af220d748ca6e76c0b4c6cfb241

     atomic species   valence    mass     pseudopotential
        V1            13.00    50.94150     V ( 1.00)
        Nb1           13.00    92.90637     Nb( 1.00)

     No symmetry found

   Cartesian axes

     site n.     atom                  positions (alat units)
         1           V1  tau(   1) = (   0.0000000   0.0000000  10.0000000  )
         2           V1  tau(   2) = (  -1.3931858   2.4130686  10.0000000  )
         3           V1  tau(   3) = (   1.3931858   2.4130686  10.0000000  )
         4           Nb1 tau(   4) = (   2.7863716   0.0000000  10.0000000  )
         5           V1  tau(   5) = (   2.7863716   1.6087124  12.2750629  )
         6           V1  tau(   6) = (   1.3931858   4.0217810  12.2750629  )
         7           V1  tau(   7) = (  -1.3931858   4.0217810  12.2750629  )
         8           Nb1 tau(   8) = (   0.0000000   1.6087124  12.2750629  )
         9           V1  tau(   9) = (  -0.0000000   3.2174248  14.5501258  )
        10           V1  tau(  10) = (   1.3931858   0.8043562  14.5501258  )
        11           V1  tau(  11) = (   4.1795575   0.8043562  14.5501258  )
        12           Nb1 tau(  12) = (   2.7863716   3.2174248  14.5501258  )

     number of k points=    20  Fermi-Dirac smearing, width (Ry)=  0.0110
                       cart. coord. in units 2pi/alat
        k(    1) = (   0.0000000   0.0000000   0.0000000), wk =   0.0555556
        k(    2) = (   0.0000000   0.0345342   0.0000000), wk =   0.1111111
        k(    3) = (   0.0000000   0.0690683   0.0000000), wk =   0.1111111
        k(    4) = (   0.0000000  -0.1036025   0.0000000), wk =   0.0555556
        k(    5) = (   0.0299075   0.0172671   0.0000000), wk =   0.1111111
        k(    6) = (   0.0299075   0.0518013   0.0000000), wk =   0.1111111
        k(    7) = (   0.0299075   0.0863354   0.0000000), wk =   0.1111111
        k(    8) = (   0.0299075  -0.0863354   0.0000000), wk =   0.1111111
        k(    9) = (   0.0299075  -0.0518013   0.0000000), wk =   0.1111111
        k(   10) = (   0.0299075  -0.0172671   0.0000000), wk =   0.1111111
        k(   11) = (   0.0598149   0.0345342   0.0000000), wk =   0.1111111
        k(   12) = (   0.0598149   0.0690683   0.0000000), wk =   0.1111111
        k(   13) = (   0.0598149   0.1036025   0.0000000), wk =   0.1111111
        k(   14) = (   0.0598149  -0.0690683   0.0000000), wk =   0.1111111
        k(   15) = (   0.0598149  -0.0345342   0.0000000), wk =   0.1111111
        k(   16) = (   0.0598149   0.0000000   0.0000000), wk =   0.1111111
        k(   17) = (  -0.0897224  -0.0518013   0.0000000), wk =   0.0555556
        k(   18) = (  -0.0897224  -0.0172671   0.0000000), wk =   0.1111111
        k(   19) = (  -0.0897224   0.0172671   0.0000000), wk =   0.1111111
        k(   20) = (  -0.0897224  -0.1554038   0.0000000), wk =   0.0555556

     Largest allocated arrays     est. size (Mb)     dimensions
     Largest temporary arrays     est. size (Mb)     dimensions

     Initial potential from superposition of free atoms
     Check: negative starting charge=   -0.008551

     starting charge  155.98075, renormalised to  156.00000

     negative rho (up, down):  8.552E-03 0.000E+00

     *
     * You are using vdW-DF for exchange-correlation in this calculation.
     * Please cite the following three references that made this development
     * possible:
     *
     *   M. Dion, H. Rydberg, E. Schroder, D. C. Langreth, and
     *   B. I. Lundqvist, Phys. Rev. Lett. 92, 246401 (2004).
     *
     *   T. Thonhauser, V. R. Cooper, S. Li, A. Puzder, P. Hyldgaard, and
     *   D. C. Langreth, Phys. Rev. B 76, 125112 (2007).
     *
     *   G. Roman-Perez and J. M. Soler, Phys. Rev. Lett. 103, 096102 (2009).
     *
     *
     * If you are using vdW-DF2, please also cite:
     *
     *   K. Lee, E. D. Murray, L. Kong, B. I. Lundqvist, and
     *   D. C. Langreth, Phys. Rev. B 82, 081101(R) (2010).
     *
     *
     * If you are calculating the stress with vdW-DF, please also cite:
     *
     *   R. Sabatini, E. Kucukbenli, B. Kolb, T. Thonhauser, and
     *   S. de Gironcoli, J. Phys.: Condens. Matter 24, 424209 (2012).
     *

     Carrying out vdW-DF run using the following parameters:

     Nqs =      20    Nr_points =    1024   r_max =   100.000
     q_mesh =
               0.00001000     0.04494208     0.09755937     0.15916263
               0.23128650     0.31572767     0.41458969     0.53033537
               0.66584808     0.82450364     1.01025438     1.22772762
               1.48234092     1.78043706     2.12944203     2.53805004
               3.01644009     3.57652955     4.23227104     5.00000000

     Gradients computed in reciprocal space

     Adding external electric field

     Computed dipole along edir(3) :
        Dipole               -0.0000 Ry au,         -0.0000 Debye
        Dipole field         -0.0000 Ry au

        Potential amp.        0.0000 Ry
        Total length         45.2332 bohr

     Starting wfc are  129 randomized atomic wfcs

     Self-consistent Calculation

     iteration #  1     ecut=    36.75 Ry     beta=0.10
     Davidson diagonalization with overlap
     ethr =  1.00E-02,  avg # of iterations =  2.5

[...]

     total energy              =   -1665.48401526 Ry
     Harris-Foulkes estimate   =   -1668.15892795 Ry
     estimated scf accuracy    <      14.83346662 Ry

[...]

     End of self-consistent calculation

          k = 0.0000 0.0000 0.0000 ( 16727 PWs)   bands (ev):

   -63.1321 -63.0702 -63.0701 -63.0650 -63.0549 -63.0108 -63.0107 -63.0081
   -63.0081 -53.6259 -53.6253 -53.5760 -37.1663 -37.0633 -37.0633 -37.0612
   -37.0452 -37.0277 -36.9969 -36.9969 -36.9353 -36.9179 -36.9179 -36.8866
   -36.8865 -36.8536 -36.8536 -36.8107 -36.7724 -36.7597 -36.7597 -36.7177
   -36.7176 -36.7018 -36.6815 -36.6395 -36.6395 -36.6375 -36.6375 -29.7203
   -29.7024 -29.6348 -29.6348 -29.6324 -29.6324 -29.6283 -29.6099 -29.6099
    -4.6991  -3.2402  -2.3577  -2.1837  -2.1837  -1.9270  -1.9270  -1.5091
    -1.3795  -1.3795  -1.2669  -1.2412  -1.2412  -1.1334  -0.8419  -0.3873
    -0.3873  -0.0571   0.5845   0.7255   0.7255   0.8103   0.9937   1.0619
     1.3079   1.3079   1.3541   1.4423   1.4423   1.4857   1.4857   1.4901
     1.5976   1.5976   1.6211   1.6211   1.8684   2.0617   2.1536   2.1536
     2.4088   2.6030   2.6031   2.8559   2.8559   3.0452   3.2244   3.2244
     3.3248   3.3248   3.3984   3.5458   3.5458   3.8113   3.9170   3.9657
     4.0032   4.0476   4.0476   4.3570

[...]

          k =-0.0897-0.0518 0.0000 ( 16800 PWs)   bands (ev):

[...]

     the Fermi energy is     1.1851 ev

!    total energy              =   -1667.09985117 Ry
     Harris-Foulkes estimate   =   -1667.09985077 Ry
     estimated scf accuracy    <       0.00000085 Ry

     The total energy is the sum of the following terms:

     one-electron contribution =  -13719.35561329 Ry
     hartree contribution      =    6847.64546654 Ry
     xc contribution           =    -240.08496898 Ry
     ewald contribution        =    5444.84595955 Ry
     electric field correction =       0.00000000 Ry
     smearing contrib. (-TS)   =      -0.15069499 Ry

     convergence has been achieved in  24 iterations

 BEEF-vdW xc energy contributions
           1 :   -206.622826009907
           2 :    186.003992346107
           3 :   -151.740435980882
           4 :    114.325900474146
           5 :   -83.0618502386034
           6 :    62.5653742440389
           7 :   -52.0781531558422
           8 :    47.3828355289585
           9 :   -43.8355782333126
          10 :    38.7232211880790
          11 :   -31.9357063444022
          12 :    25.0517407455577
          13 :   -19.7701249916983
          14 :    16.7289031308942
          15 :   -15.2996183540175
          16 :    14.2410041955749
[...]
               b(3) = (  0.000000  0.000000  0.040733 )

     PseudoPot. # 1 for V  read from file:
     /afs/slac.stanford.edu/u/if/mamunm/psp/gbrv1.5pbe/V.UPF
     MD5 check sum: 22b79981416ebb76fdaf5b1b8640f6fb
     Pseudo is Ultrasoft + core correction, Zval = 13.0
     Generated by new atomic code, or converted to UPF format
     Using radial grid of  853 points,  6 beta functions with:
                l(1) =   0
                l(2) =   0
                l(3) =   1
                l(4) =   1
                l(5) =   2
                l(6) =   2
     Q(r) pseudized with  8 coefficients,  rinner =    1.100   1.100   1.100
                                                       1.100   1.100

     PseudoPot. # 2 for Nb read from file:
     /afs/slac.stanford.edu/u/if/mamunm/psp/gbrv1.5pbe/Nb.UPF
     MD5 check sum: 573aab8a2fa660278ed4a62cd769473f
     Pseudo is Ultrasoft + core correction, Zval = 13.0
     Generated by new atomic code, or converted to UPF format
     Using radial grid of  887 points,  6 beta functions with:
                l(1) =   0
                l(2) =   0
                l(3) =   1
                l(4) =   1
                l(5) =   2
                l(6) =   2
     Q(r) pseudized with  6 coefficients,  rinner =    1.000   1.000   1.000
                                                       1.000   1.000

     vdW kernel table read from file vdW_kernel_table
     MD5 check sum: 095c7af220d748ca6e76c0b4c6cfb241

     atomic species   valence    mass     pseudopotential
        V1            13.00    50.94150     V ( 1.00)
        Nb1           13.00    92.90637     Nb( 1.00)

     No symmetry found

   Cartesian axes

     site n.     atom                  positions (alat units)
         1           V1  tau(   1) = (   0.0000000   0.0000000  10.0000000  )
         2           V1  tau(   2) = (  -1.3931858   2.4130686  10.0000000  )
         3           V1  tau(   3) = (   1.3931858   2.4130686  10.0000000  )
         4           Nb1 tau(   4) = (   2.7863716   0.0000000  10.0000000  )
         5           V1  tau(   5) = (   2.7863716   1.6087124  12.2750629  )
         6           V1  tau(   6) = (   1.3931858   4.0217810  12.2750629  )
         7           V1  tau(   7) = (  -1.3931858   4.0217810  12.2750629  )
         8           Nb1 tau(   8) = (   0.0000000   1.6087124  12.2750629  )
         9           V1  tau(   9) = (  -0.0000003   3.3532690  14.4919901  )
        10           V1  tau(  10) = (   1.5107981   0.7364489  14.4919888  )
        11           V1  tau(  11) = (   4.0618911   0.7364173  14.4920419  )
        12           Nb1 tau(  12) = (   2.7864211   3.2174438  14.6373065  )

     number of k points=    20  Fermi-Dirac smearing, width (Ry)=  0.0110
                       cart. coord. in units 2pi/alat
        k(    1) = (   0.0000000   0.0000000   0.0000000), wk =   0.0555556
        k(    2) = (   0.0000000   0.0345342   0.0000000), wk =   0.1111111
        k(    3) = (   0.0000000   0.0690683   0.0000000), wk =   0.1111111
        k(    4) = (   0.0000000  -0.1036025   0.0000000), wk =   0.0555556
        k(    5) = (   0.0299075   0.0172671   0.0000000), wk =   0.1111111
        k(    6) = (   0.0299075   0.0518013   0.0000000), wk =   0.1111111
        k(    7) = (   0.0299075   0.0863354   0.0000000), wk =   0.1111111
        k(    8) = (   0.0299075  -0.0863354   0.0000000), wk =   0.1111111
        k(    9) = (   0.0299075  -0.0518013   0.0000000), wk =   0.1111111
        k(   10) = (   0.0299075  -0.0172671   0.0000000), wk =   0.1111111
        k(   11) = (   0.0598149   0.0345342   0.0000000), wk =   0.1111111
        k(   12) = (   0.0598149   0.0690683   0.0000000), wk =   0.1111111
        k(   13) = (   0.0598149   0.1036025   0.0000000), wk =   0.1111111
        k(   14) = (   0.0598149  -0.0690683   0.0000000), wk =   0.1111111
        k(   15) = (   0.0598149  -0.0345342   0.0000000), wk =   0.1111111
        k(   16) = (   0.0598149   0.0000000   0.0000000), wk =   0.1111111
        k(   17) = (  -0.0897224  -0.0518013   0.0000000), wk =   0.0555556
        k(   18) = (  -0.0897224  -0.0172671   0.0000000), wk =   0.1111111
        k(   19) = (  -0.0897224   0.0172671   0.0000000), wk =   0.1111111
        k(   20) = (  -0.0897224  -0.1554038   0.0000000), wk =   0.0555556

     Largest allocated arrays     est. size (Mb)     dimensions
     Largest temporary arrays     est. size (Mb)     dimensions

     Initial potential from superposition of free atoms
     Check: negative starting charge=   -0.008675

     starting charge  155.98075, renormalised to  156.00000

[...]

     *
     * You are using vdW-DF for exchange-correlation in this calculation.
     * Please cite the following three references that made this development
     * possible:
     *
     *   M. Dion, H. Rydberg, E. Schroder, D. C. Langreth, and
     *   B. I. Lundqvist, Phys. Rev. Lett. 92, 246401 (2004).
     *
     *   T. Thonhauser, V. R. Cooper, S. Li, A. Puzder, P. Hyldgaard, and
     *   D. C. Langreth, Phys. Rev. B 76, 125112 (2007).
     *
     *   G. Roman-Perez and J. M. Soler, Phys. Rev. Lett. 103, 096102 (2009).
     *
     *
     * If you are using vdW-DF2, please also cite:
     *
     *   K. Lee, E. D. Murray, L. Kong, B. I. Lundqvist, and
     *   D. C. Langreth, Phys. Rev. B 82, 081101(R) (2010).
     *
     *
     * If you are calculating the stress with vdW-DF, please also cite:
     *
     *   R. Sabatini, E. Kucukbenli, B. Kolb, T. Thonhauser, and
     *   S. de Gironcoli, J. Phys.: Condens. Matter 24, 424209 (2012).
     *

     Carrying out vdW-DF run using the following parameters:

     Nqs =      20    Nr_points =    1024   r_max =   100.000
     q_mesh =
               0.00001000     0.04494208     0.09755937     0.15916263
               0.23128650     0.31572767     0.41458969     0.53033537
               0.66584808     0.82450364     1.01025438     1.22772762
               1.48234092     1.78043706     2.12944203     2.53805004
               3.01644009     3.57652955     4.23227104     5.00000000

     Gradients computed in reciprocal space

[...]

     Starting wfc are  129 randomized atomic wfcs

     Self-consistent Calculation

[...]

     total energy              =   -1667.11130168 Ry
     Harris-Foulkes estimate   =   -1667.11130171 Ry
     estimated scf accuracy    <       0.00000155 Ry

     iteration # 26     ecut=    36.75 Ry     beta=0.10
     Davidson diagonalization with overlap
     ethr =  7.35E-10,  avg # of iterations =  1.1

[...]

     negative rho (up, down):  9.684E-03 0.000E+00

     Adding external electric field

     Computed dipole along edir(3) :
        Dipole                0.0236 Ry au,          0.0601 Debye
        Dipole field          0.0001 Ry au

        Potential amp.       -0.0060 Ry
        Total length         45.2332 bohr

     End of self-consistent calculation

[...]

          k = 0.0598 0.0000 0.0000 ( 16744 PWs)   bands (ev):

[...]

          k =-0.0897-0.1554 0.0000 ( 16800 PWs)   bands (ev):

   -63.0703 -63.0508 -63.0263 -63.0050 -62.9958 -62.9877 -62.9723 -62.9369
   -62.9279 -53.7268 -53.5816 -53.5708 -37.0946 -37.0402 -36.9922 -36.9668
   -36.9653 -36.9304 -36.9153 -36.9141 -36.8843 -36.8775 -36.8432 -36.8376
   -36.8145 -36.7894 -36.7773 -36.7764 -36.7588 -36.7506 -36.7324 -36.6991
   -36.6913 -36.6757 -36.6703 -36.6359 -36.6204 -36.6138 -36.5524 -29.8055
   -29.7495 -29.7314 -29.6705 -29.6318 -29.6262 -29.6157 -29.6093 -29.5938
    -3.0387  -2.9837  -1.9393  -1.7313  -1.3930  -1.3470  -1.2170  -0.9998
    -0.9338  -0.8289  -0.6653  -0.3849  -0.3602  -0.2634  -0.2427  -0.1723
     0.0612   0.0668   0.2410   0.2681   0.2990   0.3414   0.4982   0.5388
     0.7002   0.7419   0.7581   0.7807   0.9843   0.9892   1.0430   1.1812
     1.2602   1.3659   1.3887   1.4134   1.4498   1.6270   1.8262   1.9460
     2.1345   2.2739   2.3334   2.3453   2.4730   2.5118   2.5597   2.5865
     2.6527   2.8033   2.8983   2.9873   3.0557   3.2598   3.2895   3.3823
     3.5381   3.5957   3.7402   3.7861

     the Fermi energy is     1.2250 ev

!    total energy              =   -1667.11130158 Ry
     Harris-Foulkes estimate   =   -1667.11130190 Ry
     estimated scf accuracy    <       0.00000057 Ry

     The total energy is the sum of the following terms:

     one-electron contribution =  -13765.79096200 Ry
     hartree contribution      =    6871.02536929 Ry
     xc contribution           =    -240.14256622 Ry
     ewald contribution        =    5467.94047779 Ry
     electric field correction =       0.00000158 Ry
     smearing contrib. (-TS)   =      -0.14362202 Ry

     convergence has been achieved in  26 iterations

 BEEF-vdW xc energy contributions
           1 :   -206.743280594993
           2 :    186.140919191523
           3 :   -151.889744989386
           4 :    114.459385067505
           5 :   -83.1441603812869
           6 :    62.5802583810433
           7 :   -52.0445750880127
           8 :    47.3478703686702
           9 :   -43.8457724690283
          10 :    38.7931988085695
          11 :   -32.0363667904894
          12 :    25.1283243088230
          13 :   -19.7803667474890
          14 :    16.6748173877207
          15 :   -15.2293936420559
          16 :    14.2168684361385
          17 :   -12.6742234970298
          18 :    10.4595669767543
          19 :   -8.16035286490268
          20 :    6.52305429530506
          21 :   -5.87786610061511
          22 :    5.95715896421771
          23 :   -6.17473477749743
          24 :    6.08810732261330
          25 :   -5.68228436786038
          26 :    5.29183948621869
          27 :   -5.27224563244945
          28 :    5.69525837689795
          29 :   -6.29360560665563
          30 :    6.66929138984682
          31 :   -21.9363311449067
          32 :   -16.0142391561128

     Forces acting on atoms (Ry/au):

     negative rho (up, down):  9.684E-03 0.000E+00
     atom    1 type  1   force =    -0.00000066   -0.01324718    0.00705086
     atom    2 type  1   force =    -0.01147013    0.00662105    0.00704964
     atom    3 type  1   force =     0.01146948    0.00662142    0.00706392
     atom    4 type  2   force =     0.00000046   -0.00000284   -0.00955527
     atom    5 type  1   force =     0.00000369    0.01470200   -0.00586269
     atom    6 type  1   force =     0.01273706   -0.00735012   -0.00586318
     atom    7 type  1   force =    -0.01273613   -0.00735376   -0.00587598
     atom    8 type  2   force =    -0.00001144   -0.00000608    0.00948381
     atom    9 type  1   force =     0.00000632   -0.00091699   -0.00158628
     atom   10 type  1   force =    -0.00080134    0.00046912   -0.00157202
     atom   11 type  1   force =     0.00080903    0.00046623   -0.00157728
     atom   12 type  2   force =    -0.00000632   -0.00000284    0.00124447

     Total force =     0.040254     Total SCF correction =     0.001462

     entering subroutine stress ...

     negative rho (up, down):  9.684E-03 0.000E+00
          total   stress  (Ry/bohr**3)                   (kbar)     P=  -21.05
  -0.00020406  -0.00000000  -0.00000000        -30.02     -0.00     -0.00
  -0.00000000  -0.00020408   0.00000000         -0.00    -30.02      0.00
  -0.00000000   0.00000000  -0.00002110         -0.00      0.00     -3.10

 !ASE

     Writing output data file calc.save

     General routines

     Parallel routines

   This run was terminated on:   8:42:38   2Jan2019

   JOB DONE.
Job  /afs/slac/g/suncat/bin/suncat-tsmpirun -x LD_LIBRARY_PATH -wdir /scratch/qe649314_f0qY5 pw.x -in pw.inp

TID   HOST_NAME   COMMAND_LINE            STATUS            TERMINATION_TIME
00000 suncat0238 pw.x -in pw.inp   Done                     01/02/2019 08:42:38
00001 suncat0238 pw.x -in pw.inp   Done                     01/02/2019 08:42:38
00002 suncat0238 pw.x -in pw.inp   Done                     01/02/2019 08:42:38
00003 suncat0238 pw.x -in pw.inp   Done                     01/02/2019 08:42:38
00004 suncat0238 pw.x -in pw.inp   Done                     01/02/2019 08:42:38
00005 suncat0238 pw.x -in pw.inp   Done                     01/02/2019 08:42:38
00006 suncat0238 pw.x -in pw.inp   Done                     01/02/2019 08:42:38
00007 suncat0238 pw.x -in pw.inp   Done                     01/02/2019 08:42:38
00008 suncat0237 pw.x -in pw.inp   Done                     01/02/2019 08:42:38
00009 suncat0237 pw.x -in pw.inp   Done                     01/02/2019 08:42:38
00010 suncat0237 pw.x -in pw.inp   Done                     01/02/2019 08:42:38
00011 suncat0237 pw.x -in pw.inp   Done                     01/02/2019 08:42:38
00012 suncat0237 pw.x -in pw.inp   Done                     01/02/2019 08:42:38
00013 suncat0237 pw.x -in pw.inp   Done                     01/02/2019 08:42:38
00014 suncat0237 pw.x -in pw.inp   Done                     01/02/2019 08:42:38
00015 suncat0237 pw.x -in pw.inp   Done                     01/02/2019 08:42:38
00016 suncat0236 pw.x -in pw.inp   Done                     01/02/2019 08:42:38
00017 suncat0236 pw.x -in pw.inp   Done                     01/02/2019 08:42:38
00018 suncat0236 pw.x -in pw.inp   Done                     01/02/2019 08:42:38
00019 suncat0236 pw.x -in pw.inp   Done                     01/02/2019 08:42:38
00020 suncat0236 pw.x -in pw.inp   Done                     01/02/2019 08:42:38
00021 suncat0236 pw.x -in pw.inp   Done                     01/02/2019 08:42:38
00022 suncat0236 pw.x -in pw.inp   Done                     01/02/2019 08:42:38
00023 suncat0236 pw.x -in pw.inp   Done                     01/02/2019 08:42:38
00024 suncat0235 pw.x -in pw.inp   Done                     01/02/2019 08:42:38
00025 suncat0235 pw.x -in pw.inp   Done                     01/02/2019 08:42:38
00026 suncat0235 pw.x -in pw.inp   Done                     01/02/2019 08:42:38
00027 suncat0235 pw.x -in pw.inp   Done                     01/02/2019 08:42:38
00028 suncat0235 pw.x -in pw.inp   Done                     01/02/2019 08:42:38
00029 suncat0235 pw.x -in pw.inp   Done                     01/02/2019 08:42:38
00030 suncat0235 pw.x -in pw.inp   Done                     01/02/2019 08:42:38
00031 suncat0235 pw.x -in pw.inp   Done                     01/02/2019 08:42:38
00032 suncat0218 pw.x -in pw.inp   Done                     01/02/2019 08:42:38
00033 suncat0218 pw.x -in pw.inp   Done                     01/02/2019 08:42:38
00034 suncat0218 pw.x -in pw.inp   Done                     01/02/2019 08:42:38
00035 suncat0218 pw.x -in pw.inp   Done                     01/02/2019 08:42:38
00036 suncat0218 pw.x -in pw.inp   Done                     01/02/2019 08:42:38
00037 suncat0218 pw.x -in pw.inp   Done                     01/02/2019 08:42:38
00038 suncat0218 pw.x -in pw.inp   Done                     01/02/2019 08:42:38
00039 suncat0218 pw.x -in pw.inp   Done                     01/02/2019 08:42:38
00040 suncat0212 pw.x -in pw.inp   Done                     01/02/2019 08:42:38
00041 suncat0212 pw.x -in pw.inp   Done                     01/02/2019 08:42:38
00042 suncat0212 pw.x -in pw.inp   Done                     01/02/2019 08:42:38
00043 suncat0212 pw.x -in pw.inp   Done                     01/02/2019 08:42:38
00044 suncat0212 pw.x -in pw.inp   Done                     01/02/2019 08:42:38
00045 suncat0212 pw.x -in pw.inp   Done                     01/02/2019 08:42:38
00046 suncat0212 pw.x -in pw.inp   Done                     01/02/2019 08:42:38
00047 suncat0212 pw.x -in pw.inp   Done                     01/02/2019 08:42:38
00048 suncat0211 pw.x -in pw.inp   Done                     01/02/2019 08:42:38
00049 suncat0211 pw.x -in pw.inp   Done                     01/02/2019 08:42:38
00050 suncat0211 pw.x -in pw.inp   Done                     01/02/2019 08:42:38
00051 suncat0211 pw.x -in pw.inp   Done                     01/02/2019 08:42:38
00052 suncat0211 pw.x -in pw.inp   Done                     01/02/2019 08:42:38
00053 suncat0211 pw.x -in pw.inp   Done                     01/02/2019 08:42:38
00054 suncat0211 pw.x -in pw.inp   Done                     01/02/2019 08:42:38
00055 suncat0211 pw.x -in pw.inp   Done                     01/02/2019 08:42:38
00056 suncat0208 pw.x -in pw.inp   Done                     01/02/2019 08:42:38
00057 suncat0208 pw.x -in pw.inp   Done                     01/02/2019 08:42:38
00058 suncat0208 pw.x -in pw.inp   Done                     01/02/2019 08:42:38
00059 suncat0208 pw.x -in pw.inp   Done                     01/02/2019 08:42:38
00060 suncat0208 pw.x -in pw.inp   Done                     01/02/2019 08:42:38
00061 suncat0208 pw.x -in pw.inp   Done                     01/02/2019 08:42:38
00062 suncat0208 pw.x -in pw.inp   Done                     01/02/2019 08:42:38
00063 suncat0208 pw.x -in pw.inp   Done                     01/02/2019 08:42:38