     Program PWSCF v.5.1rc2 (svn rev. 11289) starts on  2Jan2019 at 10: 6:50

     Current dimensions of program PWSCF are:
     Max number of different atomic species (ntypx) = 10
     Max number of k-points (npk) =  40000
     Max angular momentum in pseudopotentials (lmaxx) =  3
     Presently stress not available with electric field

     IMPORTANT: XC functional enforced from input :
     Exchange-correlation      = BEEF-VDW ( 1  4 27 13 2)
     Any further DFT definition will be discarded
     Please, verify this is what you really want

     Subspace diagonalization in iterative solution of the eigenvalue problem:
     a serial algorithm will be used

     bravais-lattice index     =            0
     lattice parameter (alat)  =       1.8897  a.u.
     unit-cell volume          =    4901.5442 (a.u.)^3
     number of atoms/cell      =           12
     number of atomic types    =            2
     number of electrons       =       159.00
     number of Kohn-Sham states=          109
     kinetic-energy cutoff     =      36.7493  Ry
     charge density cutoff     =     367.4932  Ry
     convergence threshold     =      1.0E-06
     mixing beta               =       0.1000
     number of iterations used =           10  plain     mixing
     Exchange-correlation      = BEEF-VDW ( 1  4 27 13 2)
     nstep                     =           50

     celldm(1)=   1.889726  celldm(2)=   0.000000  celldm(3)=   0.000000
     celldm(4)=   0.000000  celldm(5)=   0.000000  celldm(6)=   0.000000

     crystal axes: (cart. coord. in units of alat)
               a(1) = (   5.820913   0.000000   0.000000 )
               a(2) = (  -2.910456   5.041058   0.000000 )
               a(3) = (   0.000000   0.000000  24.752755 )

     reciprocal axes: (cart. coord. in units 2 pi/alat)
               b(1) = (  0.171794  0.099186  0.000000 )
               b(2) = (  0.000000  0.198371  0.000000 )
               b(3) = (  0.000000  0.000000  0.040400 )

     PseudoPot. # 1 for W  read from file:
     /afs/slac.stanford.edu/u/if/mamunm/psp/gbrv1.5pbe/W.UPF
     MD5 check sum: 9c083fa34c2a2ea0f02f1f893e16e1c8
     Pseudo is Ultrasoft + core correction, Zval = 14.0
     Generated by new atomic code, or converted to UPF format
     Using radial grid of  923 points,  8 beta functions with:
                l(1) =   0
                l(2) =   0
                l(3) =   0
                l(4) =   1
                l(5) =   1
                l(6) =   2
                l(7) =   2
                l(8) =   3
     Q(r) pseudized with  6 coefficients,  rinner =    1.350   1.350   1.350
                                                       1.350   1.350   1.350
                                                       1.350

     PseudoPot. # 2 for Sc read from file:
     /afs/slac.stanford.edu/u/if/mamunm/psp/gbrv1.5pbe/Sc.UPF
     MD5 check sum: db30a2753ba66ef00f23801d899b7e7f
     Pseudo is Ultrasoft + core correction, Zval = 11.0
     Generated by new atomic code, or converted to UPF format
     Using radial grid of  849 points,  6 beta functions with:
                l(1) =   0
                l(2) =   0
                l(3) =   1
                l(4) =   1
                l(5) =   2
                l(6) =   2
     Q(r) pseudized with  6 coefficients,  rinner =    1.200   1.200   1.200
                                                       1.200   1.200

     vdW kernel table read from file vdW_kernel_table
     MD5 check sum: 095c7af220d748ca6e76c0b4c6cfb241

     atomic species   valence    mass     pseudopotential
        W1            14.00   183.84000     W ( 1.00)
        Sc1           11.00    44.95591     Sc( 1.00)

     No symmetry found

   Cartesian axes

     site n.     atom                  positions (alat units)
         1           W1  tau(   1) = (   0.0000000   0.0000000  10.0000000  )
         2           W1  tau(   2) = (  -1.4552281   2.5205291  10.0000000  )
         3           W1  tau(   3) = (   1.4552281   2.5205291  10.0000000  )
         4           Sc1 tau(   4) = (   2.9104563   0.0000000  10.0000000  )
         5           W1  tau(   5) = (   2.9104563   1.6803527  12.3763776  )
         6           W1  tau(   6) = (   1.4552281   4.2008818  12.3763776  )
         7           W1  tau(   7) = (  -1.4552281   4.2008818  12.3763776  )
         8           Sc1 tau(   8) = (   0.0000000   1.6803527  12.3763776  )
         9           W1  tau(   9) = (  -0.0000000   3.3607054  14.7527552  )
        10           W1  tau(  10) = (   1.4552281   0.8401764  14.7527552  )
        11           W1  tau(  11) = (   4.3656844   0.8401764  14.7527552  )
        12           Sc1 tau(  12) = (   2.9104563   3.3607054  14.7527552  )

     number of k points=    20  Fermi-Dirac smearing, width (Ry)=  0.0110
                       cart. coord. in units 2pi/alat
        k(    1) = (   0.0000000   0.0000000   0.0000000), wk =   0.0555556
        k(    2) = (   0.0000000   0.0330618   0.0000000), wk =   0.1111111
        k(    3) = (   0.0000000   0.0661237   0.0000000), wk =   0.1111111
        k(    4) = (   0.0000000  -0.0991855   0.0000000), wk =   0.0555556
        k(    5) = (   0.0286324   0.0165309   0.0000000), wk =   0.1111111
        k(    6) = (   0.0286324   0.0495928   0.0000000), wk =   0.1111111
        k(    7) = (   0.0286324   0.0826546   0.0000000), wk =   0.1111111
        k(    8) = (   0.0286324  -0.0826546   0.0000000), wk =   0.1111111
        k(    9) = (   0.0286324  -0.0495928   0.0000000), wk =   0.1111111
        k(   10) = (   0.0286324  -0.0165309   0.0000000), wk =   0.1111111
        k(   11) = (   0.0572648   0.0330618   0.0000000), wk =   0.1111111
        k(   12) = (   0.0572648   0.0661237   0.0000000), wk =   0.1111111
        k(   13) = (   0.0572648   0.0991855   0.0000000), wk =   0.1111111
        k(   14) = (   0.0572648  -0.0661237   0.0000000), wk =   0.1111111
        k(   15) = (   0.0572648  -0.0330618   0.0000000), wk =   0.1111111
        k(   16) = (   0.0572648   0.0000000   0.0000000), wk =   0.1111111
        k(   17) = (  -0.0858972  -0.0495928   0.0000000), wk =   0.0555556
        k(   18) = (  -0.0858972  -0.0165309   0.0000000), wk =   0.1111111
        k(   19) = (  -0.0858972   0.0165309   0.0000000), wk =   0.1111111
        k(   20) = (  -0.0858972  -0.1487783   0.0000000), wk =   0.0555556

     Largest allocated arrays     est. size (Mb)     dimensions
     Largest temporary arrays     est. size (Mb)     dimensions

     Initial potential from superposition of free atoms
     Check: negative starting charge=   -0.572644

     starting charge  158.08973, renormalised to  159.00000

     negative rho (up, down):  5.759E-01 0.000E+00

     *
     * You are using vdW-DF for exchange-correlation in this calculation.
     * Please cite the following three references that made this development
     * possible:
     *
     *   M. Dion, H. Rydberg, E. Schroder, D. C. Langreth, and
     *   B. I. Lundqvist, Phys. Rev. Lett. 92, 246401 (2004).
     *
     *   T. Thonhauser, V. R. Cooper, S. Li, A. Puzder, P. Hyldgaard, and
     *   D. C. Langreth, Phys. Rev. B 76, 125112 (2007).
     *
     *   G. Roman-Perez and J. M. Soler, Phys. Rev. Lett. 103, 096102 (2009).
     *
     *
     * If you are using vdW-DF2, please also cite:
     *
     *   K. Lee, E. D. Murray, L. Kong, B. I. Lundqvist, and
     *   D. C. Langreth, Phys. Rev. B 82, 081101(R) (2010).
     *
     *
     * If you are calculating the stress with vdW-DF, please also cite:
     *
     *   R. Sabatini, E. Kucukbenli, B. Kolb, T. Thonhauser, and
     *   S. de Gironcoli, J. Phys.: Condens. Matter 24, 424209 (2012).
     *

     Carrying out vdW-DF run using the following parameters:

     Nqs =      20    Nr_points =    1024   r_max =   100.000
     q_mesh =
               0.00001000     0.04494208     0.09755937     0.15916263
               0.23128650     0.31572767     0.41458969     0.53033537
               0.66584808     0.82450364     1.01025438     1.22772762
               1.48234092     1.78043706     2.12944203     2.53805004
               3.01644009     3.57652955     4.23227104     5.00000000

     Gradients computed in reciprocal space

     Adding external electric field

     Computed dipole along edir(3) :
        Dipole               -0.0000 Ry au,         -0.0000 Debye
        Dipole field         -0.0000 Ry au

        Potential amp.        0.0000 Ry
        Total length         45.6065 bohr

     Starting wfc are  156 randomized atomic wfcs

     Self-consistent Calculation

     iteration #  1     ecut=    36.75 Ry     beta=0.10
     Davidson diagonalization with overlap
     ethr =  1.00E-02,  avg # of iterations =  2.0

[...]

     total energy              =   -1727.39720327 Ry
     Harris-Foulkes estimate   =   -1728.17092515 Ry
     estimated scf accuracy    <       4.47028736 Ry

[...]

     End of self-consistent calculation

          k = 0.0000 0.0000 0.0000 ( 18487 PWs)   bands (ev):

   -72.4662 -72.4258 -72.4258 -72.2931 -72.2911 -72.2545 -72.2545 -72.2540
   -72.2540 -47.3178 -47.3172 -46.8629 -36.9239 -36.7324 -36.7324 -36.7183
   -36.6514 -36.6205 -36.6177 -36.6177 -36.4712 -36.4712 -36.4371 -36.3840
   -36.3840 -36.3802 -36.3653 -36.3653 -36.2530 -36.2530 -36.2473 -36.2399
   -36.2399 -36.1620 -36.1372 -36.0356 -36.0356 -36.0319 -36.0319 -25.9885
   -25.9729 -25.9208 -25.9208 -25.9168 -25.9168 -25.5235 -25.5100 -25.5100
    -5.4573  -3.8554  -3.0092  -2.3612  -2.3200  -2.3200  -2.0086  -2.0086
    -1.8454  -1.4071  -1.3549  -1.3549  -1.3418  -1.2888  -1.2888  -0.3793
     0.0992   0.0992   0.8214   0.8763   0.8763   1.0224   1.5249   1.5413
     1.5413   1.6404   1.7205   2.0312   2.0312   2.2247   2.2247   2.4176
     2.4815   2.4815   2.5772   2.5772   2.5813   2.9694   2.9694   3.2529
     3.4301   3.7224   3.7224   3.8261   3.9550   3.9550   4.3597   4.3597
     4.6070   4.6070   5.1746   5.1746   5.4245   5.4281   5.9580   6.0208
     6.0697   6.0698   6.0923   6.0923   6.1984

[...]

          k =-0.0859-0.0496 0.0000 ( 18396 PWs)   bands (ev):

[...]

     the Fermi energy is     1.8762 ev

!    total energy              =   -1727.78105457 Ry
     Harris-Foulkes estimate   =   -1727.78105507 Ry
     estimated scf accuracy    <       0.00000030 Ry

     The total energy is the sum of the following terms:

     one-electron contribution =  -12601.29272917 Ry
     hartree contribution      =    6283.28124973 Ry
     xc contribution           =    -424.21173780 Ry
     ewald contribution        =    5014.53846749 Ry
     electric field correction =       0.00000001 Ry
     smearing contrib. (-TS)   =      -0.09630484 Ry

     convergence has been achieved in  16 iterations

 BEEF-vdW xc energy contributions
           1 :   -371.795686437359
           2 :    342.364635725494
           3 :   -291.224075901103
           4 :    230.558851984331
           5 :   -172.424027438115
           6 :    125.001519685214
           7 :   -91.0536585016427
           8 :    68.7173182182563
           9 :   -53.7722730429830
          10 :    42.0995143195452
          11 :   -31.2699347910994
          12 :    20.8399759128260
          13 :   -11.6307039948799
[...]
     MD5 check sum: 9c083fa34c2a2ea0f02f1f893e16e1c8
     Pseudo is Ultrasoft + core correction, Zval = 14.0
     Generated by new atomic code, or converted to UPF format
     Using radial grid of  923 points,  8 beta functions with:
                l(1) =   0
                l(2) =   0
                l(3) =   0
                l(4) =   1
                l(5) =   1
                l(6) =   2
                l(7) =   2
                l(8) =   3
     Q(r) pseudized with  6 coefficients,  rinner =    1.350   1.350   1.350
                                                       1.350   1.350   1.350
                                                       1.350

     PseudoPot. # 2 for Sc read from file:
     /afs/slac.stanford.edu/u/if/mamunm/psp/gbrv1.5pbe/Sc.UPF
     MD5 check sum: db30a2753ba66ef00f23801d899b7e7f
     Pseudo is Ultrasoft + core correction, Zval = 11.0
     Generated by new atomic code, or converted to UPF format
     Using radial grid of  849 points,  6 beta functions with:
                l(1) =   0
                l(2) =   0
                l(3) =   1
                l(4) =   1
                l(5) =   2
                l(6) =   2
     Q(r) pseudized with  6 coefficients,  rinner =    1.200   1.200   1.200
                                                       1.200   1.200

     vdW kernel table read from file vdW_kernel_table
     MD5 check sum: 095c7af220d748ca6e76c0b4c6cfb241

     atomic species   valence    mass     pseudopotential
        W1            14.00   183.84000     W ( 1.00)
        Sc1           11.00    44.95591     Sc( 1.00)

     No symmetry found

   Cartesian axes

     site n.     atom                  positions (alat units)
         1           W1  tau(   1) = (   0.0000000   0.0000000  10.0000000  )
         2           W1  tau(   2) = (  -1.4552281   2.5205291  10.0000000  )
         3           W1  tau(   3) = (   1.4552281   2.5205291  10.0000000  )
         4           Sc1 tau(   4) = (   2.9104563   0.0000000  10.0000000  )
         5           W1  tau(   5) = (   2.9104563   1.6803527  12.3763776  )
         6           W1  tau(   6) = (   1.4552281   4.2008818  12.3763776  )
         7           W1  tau(   7) = (  -1.4552281   4.2008818  12.3763776  )
         8           Sc1 tau(   8) = (   0.0000000   1.6803527  12.3763776  )
         9           W1  tau(   9) = (   0.0000106   3.4724306  14.5605888  )
        10           W1  tau(  10) = (   1.5519865   0.7843261  14.5605977  )
        11           W1  tau(  11) = (   4.2689412   0.7843203  14.5605965  )
        12           Sc1 tau(  12) = (   2.9104691   3.3607146  15.2733028  )

     number of k points=    20  Fermi-Dirac smearing, width (Ry)=  0.0110
                       cart. coord. in units 2pi/alat
        k(    1) = (   0.0000000   0.0000000   0.0000000), wk =   0.0555556
        k(    2) = (   0.0000000   0.0330618   0.0000000), wk =   0.1111111
        k(    3) = (   0.0000000   0.0661237   0.0000000), wk =   0.1111111
        k(    4) = (   0.0000000  -0.0991855   0.0000000), wk =   0.0555556
        k(    5) = (   0.0286324   0.0165309   0.0000000), wk =   0.1111111
        k(    6) = (   0.0286324   0.0495928   0.0000000), wk =   0.1111111
        k(    7) = (   0.0286324   0.0826546   0.0000000), wk =   0.1111111
        k(    8) = (   0.0286324  -0.0826546   0.0000000), wk =   0.1111111
        k(    9) = (   0.0286324  -0.0495928   0.0000000), wk =   0.1111111
        k(   10) = (   0.0286324  -0.0165309   0.0000000), wk =   0.1111111
        k(   11) = (   0.0572648   0.0330618   0.0000000), wk =   0.1111111
        k(   12) = (   0.0572648   0.0661237   0.0000000), wk =   0.1111111
        k(   13) = (   0.0572648   0.0991855   0.0000000), wk =   0.1111111
        k(   14) = (   0.0572648  -0.0661237   0.0000000), wk =   0.1111111
        k(   15) = (   0.0572648  -0.0330618   0.0000000), wk =   0.1111111
        k(   16) = (   0.0572648   0.0000000   0.0000000), wk =   0.1111111
        k(   17) = (  -0.0858972  -0.0495928   0.0000000), wk =   0.0555556
        k(   18) = (  -0.0858972  -0.0165309   0.0000000), wk =   0.1111111
        k(   19) = (  -0.0858972   0.0165309   0.0000000), wk =   0.1111111
        k(   20) = (  -0.0858972  -0.1487783   0.0000000), wk =   0.0555556

     Largest allocated arrays     est. size (Mb)     dimensions
     Largest temporary arrays     est. size (Mb)     dimensions

     Initial potential from superposition of free atoms
     Check: negative starting charge=   -0.572070

     starting charge  158.08973, renormalised to  159.00000

[...]

     *
     * You are using vdW-DF for exchange-correlation in this calculation.
     * Please cite the following three references that made this development
     * possible:
     *
     *   M. Dion, H. Rydberg, E. Schroder, D. C. Langreth, and
     *   B. I. Lundqvist, Phys. Rev. Lett. 92, 246401 (2004).
     *
     *   T. Thonhauser, V. R. Cooper, S. Li, A. Puzder, P. Hyldgaard, and
     *   D. C. Langreth, Phys. Rev. B 76, 125112 (2007).
     *
     *   G. Roman-Perez and J. M. Soler, Phys. Rev. Lett. 103, 096102 (2009).
     *
     *
     * If you are using vdW-DF2, please also cite:
     *
     *   K. Lee, E. D. Murray, L. Kong, B. I. Lundqvist, and
     *   D. C. Langreth, Phys. Rev. B 82, 081101(R) (2010).
     *
     *
     * If you are calculating the stress with vdW-DF, please also cite:
     *
     *   R. Sabatini, E. Kucukbenli, B. Kolb, T. Thonhauser, and
     *   S. de Gironcoli, J. Phys.: Condens. Matter 24, 424209 (2012).
     *

     Carrying out vdW-DF run using the following parameters:

     Nqs =      20    Nr_points =    1024   r_max =   100.000
     q_mesh =
               0.00001000     0.04494208     0.09755937     0.15916263
               0.23128650     0.31572767     0.41458969     0.53033537
               0.66584808     0.82450364     1.01025438     1.22772762
               1.48234092     1.78043706     2.12944203     2.53805004
               3.01644009     3.57652955     4.23227104     5.00000000

     Gradients computed in reciprocal space

[...]

     Starting wfc are  156 randomized atomic wfcs

     Self-consistent Calculation

[...]

     total energy              =   -1727.84763502 Ry
     Harris-Foulkes estimate   =   -1727.84763549 Ry
     estimated scf accuracy    <       0.00000251 Ry

     iteration # 15     ecut=    36.75 Ry     beta=0.10
     Davidson diagonalization with overlap
     ethr =  1.58E-09,  avg # of iterations =  3.0

[...]

     negative rho (up, down):  5.948E-01 0.000E+00

     Adding external electric field

     Computed dipole along edir(3) :
        Dipole                0.2365 Ry au,          0.6011 Debye
        Dipole field          0.0006 Ry au

        Potential amp.       -0.0553 Ry
        Total length         45.6065 bohr

     End of self-consistent calculation

[...]

          k = 0.0573 0.0000 0.0000 ( 18445 PWs)   bands (ev):

[...]

          k =-0.0859-0.1488 0.0000 ( 18396 PWs)   bands (ev):

   -72.1247 -72.1103 -72.0959 -71.9838 -71.9713 -71.9587 -71.8943 -71.8562
   -71.8491 -47.7615 -46.9842 -46.5906 -36.5689 -36.4733 -36.3978 -36.3824
   -36.3055 -36.2847 -36.2684 -36.2329 -36.2194 -36.1838 -36.1049 -36.0783
   -36.0428 -36.0385 -36.0183 -35.9986 -35.9985 -35.9651 -35.9444 -35.8984
   -35.8217 -35.7870 -35.7851 -35.7765 -35.7745 -35.7604 -35.6569 -26.4804
   -26.2735 -26.2666 -25.6424 -25.6127 -25.5972 -25.2815 -25.2618 -25.2457
    -3.7030  -3.2983  -2.1115  -1.7872  -1.4810  -1.4474  -1.1078  -1.0366
    -0.7980  -0.7946  -0.6315  -0.2936  -0.2159  -0.1347   0.1769   0.1855
     0.2670   0.3382   0.4410   0.6308   0.7476   0.9206   1.0081   1.1288
     1.2181   1.2650   1.4030   1.4298   1.5009   1.6045   1.6474   1.8445
     1.9930   2.2103   2.4178   2.7150   2.8645   2.8669   2.8895   3.0234
     3.3345   3.4952   3.5426   3.7136   3.8252   3.8559   3.8905   3.9101
     4.1589   4.2620   4.4734   4.5759   4.8285   4.9451   5.0717   5.2953
     5.3039   5.4618   5.5814   5.7807   5.8397

     the Fermi energy is     2.1596 ev

!    total energy              =   -1727.84763389 Ry
     Harris-Foulkes estimate   =   -1727.84763579 Ry
     estimated scf accuracy    <       0.00000080 Ry

     The total energy is the sum of the following terms:

     one-electron contribution =  -12668.28973368 Ry
     hartree contribution      =    6318.24209861 Ry
     xc contribution           =    -424.40363561 Ry
     ewald contribution        =    5046.69273523 Ry
     electric field correction =       0.00014336 Ry
     smearing contrib. (-TS)   =      -0.08924180 Ry

     convergence has been achieved in  15 iterations

 BEEF-vdW xc energy contributions
           1 :   -372.183525138044
           2 :    342.805301708457
           3 :   -291.760953329160
           4 :    231.177014445226
           5 :   -173.012548204234
           6 :    125.402569080578
           7 :   -91.1712339693247
           8 :    68.5846161316917
           9 :   -53.5307928887575
          10 :    41.9200778498156
          11 :   -31.2645048125354
          12 :    21.0071771851131
          13 :   -11.8666746718689
          14 :    4.83407201960716
          15 :  -0.406346606440820
          16 :   -1.67270564213140
          17 :    2.21807896115706
          18 :   -2.19131667785484
          19 :    2.31020083465978
          20 :   -2.83226025552483
          21 :    3.56592530458272
          22 :   -4.07752789975086
          23 :    3.98646123500288
          24 :   -3.20678013297311
          25 :    2.01932736103242
          26 :  -0.935840560389295
          27 :   0.421769477534326
          28 :  -0.632970898094129
          29 :    1.32419100505217
          30 :   -1.98945779468414
          31 :   -34.5864125976037
          32 :   -25.7428343848237

     Forces acting on atoms (Ry/au):

     negative rho (up, down):  5.948E-01 0.000E+00
     atom    1 type  1   force =     0.00000256   -0.02943160    0.02945659
     atom    2 type  1   force =    -0.02548759    0.01471887    0.02946023
     atom    3 type  1   force =     0.02548665    0.01471241    0.02945132
     atom    4 type  2   force =     0.00000453    0.00000005   -0.05945457
     atom    5 type  1   force =     0.00000292    0.03970907    0.00000840
     atom    6 type  1   force =     0.03438961   -0.01985016    0.00001038
     atom    7 type  1   force =    -0.03438956   -0.01985513    0.00000452
     atom    8 type  2   force =     0.00000209   -0.00000012   -0.03082154
     atom    9 type  1   force =    -0.00000848    0.00051282    0.00031571
     atom   10 type  1   force =     0.00044549   -0.00026114    0.00031154
     atom   11 type  1   force =    -0.00044187   -0.00025378    0.00031728
     atom   12 type  2   force =    -0.00000633   -0.00000130    0.00094015

     Total force =     0.120078     Total SCF correction =     0.002725

     entering subroutine stress ...

     negative rho (up, down):  5.948E-01 0.000E+00
          total   stress  (Ry/bohr**3)                   (kbar)     P=  -28.54
  -0.00025009  -0.00000000  -0.00000001        -36.79     -0.00     -0.00
  -0.00000000  -0.00025009   0.00000000         -0.00    -36.79      0.00
  -0.00000001   0.00000000  -0.00008183         -0.00      0.00    -12.04

 !ASE

     Writing output data file calc.save

     General routines

     Parallel routines

   This run was terminated on:  12: 1: 7   2Jan2019

   JOB DONE.
Job  /afs/slac/g/suncat/bin/suncat-tsmpirun -x LD_LIBRARY_PATH -wdir /scratch/qe649381_u40Zh pw.x -in pw.inp

TID   HOST_NAME   COMMAND_LINE            STATUS            TERMINATION_TIME
00000 suncat0146 pw.x -in pw.inp   Done                     01/02/2019 12:01:07
00001 suncat0146 pw.x -in pw.inp   Done                     01/02/2019 12:01:07
00002 suncat0146 pw.x -in pw.inp   Done                     01/02/2019 12:01:07
00003 suncat0146 pw.x -in pw.inp   Done                     01/02/2019 12:01:07
00004 suncat0146 pw.x -in pw.inp   Done                     01/02/2019 12:01:07
00005 suncat0146 pw.x -in pw.inp   Done                     01/02/2019 12:01:07
00006 suncat0146 pw.x -in pw.inp   Done                     01/02/2019 12:01:07
00007 suncat0146 pw.x -in pw.inp   Done                     01/02/2019 12:01:07
00008 suncat0136 pw.x -in pw.inp   Done                     01/02/2019 12:01:07
00009 suncat0136 pw.x -in pw.inp   Done                     01/02/2019 12:01:07
00010 suncat0136 pw.x -in pw.inp   Done                     01/02/2019 12:01:07
00011 suncat0136 pw.x -in pw.inp   Done                     01/02/2019 12:01:07
00012 suncat0136 pw.x -in pw.inp   Done                     01/02/2019 12:01:07
00013 suncat0136 pw.x -in pw.inp   Done                     01/02/2019 12:01:07
00014 suncat0136 pw.x -in pw.inp   Done                     01/02/2019 12:01:07
00015 suncat0136 pw.x -in pw.inp   Done                     01/02/2019 12:01:07
00016 suncat0248 pw.x -in pw.inp   Done                     01/02/2019 12:01:07
00017 suncat0248 pw.x -in pw.inp   Done                     01/02/2019 12:01:07
00018 suncat0248 pw.x -in pw.inp   Done                     01/02/2019 12:01:07
00019 suncat0248 pw.x -in pw.inp   Done                     01/02/2019 12:01:07
00020 suncat0248 pw.x -in pw.inp   Done                     01/02/2019 12:01:07
00021 suncat0248 pw.x -in pw.inp   Done                     01/02/2019 12:01:07
00022 suncat0248 pw.x -in pw.inp   Done                     01/02/2019 12:01:07
00023 suncat0248 pw.x -in pw.inp   Done                     01/02/2019 12:01:07
00024 suncat0247 pw.x -in pw.inp   Done                     01/02/2019 12:01:07
00025 suncat0247 pw.x -in pw.inp   Done                     01/02/2019 12:01:07
00026 suncat0247 pw.x -in pw.inp   Done                     01/02/2019 12:01:07
00027 suncat0247 pw.x -in pw.inp   Done                     01/02/2019 12:01:07
00028 suncat0247 pw.x -in pw.inp   Done                     01/02/2019 12:01:07
00029 suncat0247 pw.x -in pw.inp   Done                     01/02/2019 12:01:07
00030 suncat0247 pw.x -in pw.inp   Done                     01/02/2019 12:01:07
00031 suncat0247 pw.x -in pw.inp   Done                     01/02/2019 12:01:07
00032 suncat0246 pw.x -in pw.inp   Done                     01/02/2019 12:01:07
00033 suncat0246 pw.x -in pw.inp   Done                     01/02/2019 12:01:07
00034 suncat0246 pw.x -in pw.inp   Done                     01/02/2019 12:01:07
00035 suncat0246 pw.x -in pw.inp   Done                     01/02/2019 12:01:07
00036 suncat0246 pw.x -in pw.inp   Done                     01/02/2019 12:01:07
00037 suncat0246 pw.x -in pw.inp   Done                     01/02/2019 12:01:07
00038 suncat0246 pw.x -in pw.inp   Done                     01/02/2019 12:01:07
00039 suncat0246 pw.x -in pw.inp   Done                     01/02/2019 12:01:07
00040 suncat0245 pw.x -in pw.inp   Done                     01/02/2019 12:01:07
00041 suncat0245 pw.x -in pw.inp   Done                     01/02/2019 12:01:07
00042 suncat0245 pw.x -in pw.inp   Done                     01/02/2019 12:01:07
00043 suncat0245 pw.x -in pw.inp   Done                     01/02/2019 12:01:07
00044 suncat0245 pw.x -in pw.inp   Done                     01/02/2019 12:01:07
00045 suncat0245 pw.x -in pw.inp   Done                     01/02/2019 12:01:07
00046 suncat0245 pw.x -in pw.inp   Done                     01/02/2019 12:01:07
00047 suncat0245 pw.x -in pw.inp   Done                     01/02/2019 12:01:07
00048 suncat0214 pw.x -in pw.inp   Done                     01/02/2019 12:01:07
00049 suncat0214 pw.x -in pw.inp   Done                     01/02/2019 12:01:07
00050 suncat0214 pw.x -in pw.inp   Done                     01/02/2019 12:01:07
00051 suncat0214 pw.x -in pw.inp   Done                     01/02/2019 12:01:07
00052 suncat0214 pw.x -in pw.inp   Done                     01/02/2019 12:01:07
00053 suncat0214 pw.x -in pw.inp   Done                     01/02/2019 12:01:07
00054 suncat0214 pw.x -in pw.inp   Done                     01/02/2019 12:01:07
00055 suncat0214 pw.x -in pw.inp   Done                     01/02/2019 12:01:07
00056 suncat0213 pw.x -in pw.inp   Done                     01/02/2019 12:01:07
00057 suncat0213 pw.x -in pw.inp   Done                     01/02/2019 12:01:07
00058 suncat0213 pw.x -in pw.inp   Done                     01/02/2019 12:01:07
00059 suncat0213 pw.x -in pw.inp   Done                     01/02/2019 12:01:07
00060 suncat0213 pw.x -in pw.inp   Done                     01/02/2019 12:01:07
00061 suncat0213 pw.x -in pw.inp   Done                     01/02/2019 12:01:07
00062 suncat0213 pw.x -in pw.inp   Done                     01/02/2019 12:01:07
00063 suncat0213 pw.x -in pw.inp   Done                     01/02/2019 12:01:07