     Program PWSCF v.5.1rc2 (svn rev. 11289) starts on  2Jan2019 at  4:18:54

     Current dimensions of program PWSCF are:
     Max number of different atomic species (ntypx) = 10
     Max number of k-points (npk) =  40000
     Max angular momentum in pseudopotentials (lmaxx) =  3
     Presently stress not available with electric field

     IMPORTANT: XC functional enforced from input :
     Exchange-correlation      = BEEF-VDW ( 1  4 27 13 2)
     Any further DFT definition will be discarded
     Please, verify this is what you really want

     Subspace diagonalization in iterative solution of the eigenvalue problem:
     a serial algorithm will be used

     bravais-lattice index     =            0
     lattice parameter (alat)  =       1.8897  a.u.
     unit-cell volume          =    4126.7831 (a.u.)^3
     number of atoms/cell      =           12
     number of atomic types    =            2
     number of electrons       =       174.00
     number of Kohn-Sham states=          117
     kinetic-energy cutoff     =      36.7493  Ry
     charge density cutoff     =     367.4932  Ry
     convergence threshold     =      1.0E-06
     mixing beta               =       0.1000
     number of iterations used =           10  plain     mixing
     Exchange-correlation      = BEEF-VDW ( 1  4 27 13 2)
     nstep                     =           50

     celldm(1)=   1.889726  celldm(2)=   0.000000  celldm(3)=   0.000000
     celldm(4)=   0.000000  celldm(5)=   0.000000  celldm(6)=   0.000000

     crystal axes: (cart. coord. in units of alat)
               a(1) = (   5.380336   0.000000   0.000000 )
               a(2) = (  -2.690168   4.659507   0.000000 )
               a(3) = (   0.000000   0.000000  24.393026 )

     reciprocal axes: (cart. coord. in units 2 pi/alat)
               b(1) = (  0.185862  0.107307  0.000000 )
               b(2) = (  0.000000  0.214615  0.000000 )
               b(3) = (  0.000000  0.000000  0.040995 )

     PseudoPot. # 1 for V  read from file:
     /afs/slac.stanford.edu/u/if/mamunm/psp/gbrv1.5pbe/V.UPF
     MD5 check sum: 22b79981416ebb76fdaf5b1b8640f6fb
     Pseudo is Ultrasoft + core correction, Zval = 13.0
     Generated by new atomic code, or converted to UPF format
     Using radial grid of  853 points,  6 beta functions with:
                l(1) =   0
                l(2) =   0
                l(3) =   1
                l(4) =   1
                l(5) =   2
                l(6) =   2
     Q(r) pseudized with  8 coefficients,  rinner =    1.100   1.100   1.100
                                                       1.100   1.100

     PseudoPot. # 2 for Ga read from file:
     /afs/slac.stanford.edu/u/if/mamunm/psp/gbrv1.5pbe/Ga.UPF
     MD5 check sum: ccd671392a58a050fbb373893b4fcd66
     Pseudo is Ultrasoft + core correction, Zval = 19.0
     Generated by new atomic code, or converted to UPF format
     Using radial grid of  871 points,  6 beta functions with:
                l(1) =   0
                l(2) =   0
                l(3) =   1
                l(4) =   1
                l(5) =   2
                l(6) =   2
     Q(r) pseudized with  8 coefficients,  rinner =    1.250   1.250   1.250
                                                       1.250   1.250

     vdW kernel table read from file vdW_kernel_table
     MD5 check sum: 095c7af220d748ca6e76c0b4c6cfb241

     atomic species   valence    mass     pseudopotential
        V1            13.00    50.94150     V ( 1.00)
        Ga1           19.00    69.72300     Ga( 1.00)

     No symmetry found

   Cartesian axes

     site n.     atom                  positions (alat units)
         1           V1  tau(   1) = (   0.0000000   0.0000000  10.0000000  )
         2           V1  tau(   2) = (  -1.3450839   2.3297537  10.0000000  )
         3           V1  tau(   3) = (   1.3450839   2.3297537  10.0000000  )
         4           Ga1 tau(   4) = (   2.6901678   0.0000000  10.0000000  )
         5           V1  tau(   5) = (   2.6901678   1.5531691  12.1965128  )
         6           V1  tau(   6) = (   1.3450839   3.8829228  12.1965128  )
         7           V1  tau(   7) = (  -1.3450839   3.8829228  12.1965128  )
         8           Ga1 tau(   8) = (   0.0000000   1.5531691  12.1965128  )
         9           V1  tau(   9) = (  -0.0000000   3.1063382  14.3930257  )
        10           V1  tau(  10) = (   1.3450839   0.7765846  14.3930257  )
        11           V1  tau(  11) = (   4.0352517   0.7765846  14.3930257  )
        12           Ga1 tau(  12) = (   2.6901678   3.1063382  14.3930257  )

     number of k points=    20  Fermi-Dirac smearing, width (Ry)=  0.0110
                       cart. coord. in units 2pi/alat
        k(    1) = (   0.0000000   0.0000000   0.0000000), wk =   0.0555556
        k(    2) = (   0.0000000   0.0357692   0.0000000), wk =   0.1111111
        k(    3) = (   0.0000000   0.0715383   0.0000000), wk =   0.1111111
        k(    4) = (   0.0000000  -0.1073075   0.0000000), wk =   0.0555556
        k(    5) = (   0.0309770   0.0178846   0.0000000), wk =   0.1111111
        k(    6) = (   0.0309770   0.0536537   0.0000000), wk =   0.1111111
        k(    7) = (   0.0309770   0.0894229   0.0000000), wk =   0.1111111
        k(    8) = (   0.0309770  -0.0894229   0.0000000), wk =   0.1111111
        k(    9) = (   0.0309770  -0.0536537   0.0000000), wk =   0.1111111
        k(   10) = (   0.0309770  -0.0178846   0.0000000), wk =   0.1111111
        k(   11) = (   0.0619540   0.0357692   0.0000000), wk =   0.1111111
        k(   12) = (   0.0619540   0.0715383   0.0000000), wk =   0.1111111
        k(   13) = (   0.0619540   0.1073075   0.0000000), wk =   0.1111111
        k(   14) = (   0.0619540  -0.0715383   0.0000000), wk =   0.1111111
        k(   15) = (   0.0619540  -0.0357692   0.0000000), wk =   0.1111111
        k(   16) = (   0.0619540  -0.0000000   0.0000000), wk =   0.1111111
        k(   17) = (  -0.0929310  -0.0536537   0.0000000), wk =   0.0555556
        k(   18) = (  -0.0929310  -0.0178846   0.0000000), wk =   0.1111111
        k(   19) = (  -0.0929310   0.0178846   0.0000000), wk =   0.1111111
        k(   20) = (  -0.0929310  -0.1609612   0.0000000), wk =   0.0555556

     Largest allocated arrays     est. size (Mb)     dimensions
     Largest temporary arrays     est. size (Mb)     dimensions

     Initial potential from superposition of free atoms
     Check: negative starting charge=   -0.009065

     starting charge  170.98895, renormalised to  174.00000

     negative rho (up, down):  9.225E-03 0.000E+00

     *
     * You are using vdW-DF for exchange-correlation in this calculation.
     * Please cite the following three references that made this development
     * possible:
     *
     *   M. Dion, H. Rydberg, E. Schroder, D. C. Langreth, and
     *   B. I. Lundqvist, Phys. Rev. Lett. 92, 246401 (2004).
     *
     *   T. Thonhauser, V. R. Cooper, S. Li, A. Puzder, P. Hyldgaard, and
     *   D. C. Langreth, Phys. Rev. B 76, 125112 (2007).
     *
     *   G. Roman-Perez and J. M. Soler, Phys. Rev. Lett. 103, 096102 (2009).
     *
     *
     * If you are using vdW-DF2, please also cite:
     *
     *   K. Lee, E. D. Murray, L. Kong, B. I. Lundqvist, and
     *   D. C. Langreth, Phys. Rev. B 82, 081101(R) (2010).
     *
     *
     * If you are calculating the stress with vdW-DF, please also cite:
     *
     *   R. Sabatini, E. Kucukbenli, B. Kolb, T. Thonhauser, and
     *   S. de Gironcoli, J. Phys.: Condens. Matter 24, 424209 (2012).
     *

     Carrying out vdW-DF run using the following parameters:

     Nqs =      20    Nr_points =    1024   r_max =   100.000
     q_mesh =
               0.00001000     0.04494208     0.09755937     0.15916263
               0.23128650     0.31572767     0.41458969     0.53033537
               0.66584808     0.82450364     1.01025438     1.22772762
               1.48234092     1.78043706     2.12944203     2.53805004
               3.01644009     3.57652955     4.23227104     5.00000000

     Gradients computed in reciprocal space

     Adding external electric field

     Computed dipole along edir(3) :
        Dipole               -0.0000 Ry au,         -0.0000 Debye
        Dipole field         -0.0000 Ry au

        Potential amp.        0.0000 Ry
        Total length         44.9437 bohr

     Starting wfc are  126 randomized atomic wfcs

     Self-consistent Calculation

     iteration #  1     ecut=    36.75 Ry     beta=0.10
     Davidson diagonalization with overlap
     ethr =  1.00E-02,  avg # of iterations =  3.0

[...]

     total energy              =   -2561.60004950 Ry
     Harris-Foulkes estimate   =   -2562.81267202 Ry
     estimated scf accuracy    <       7.02646607 Ry

[...]

     End of self-consistent calculation

          k = 0.0000 0.0000 0.0000 ( 15497 PWs)   bands (ev):

   -93.1160 -93.1159 -93.1126 -92.9576 -92.9575 -92.9276 -92.9276 -92.9274
   -92.9274 -63.3121 -63.2945 -63.2176 -63.2176 -63.2129 -63.2129 -63.2076
   -63.1381 -63.1380 -37.3661 -37.3070 -37.2999 -37.2799 -37.2798 -37.2784
   -37.2510 -37.2509 -37.1921 -37.1920 -37.1807 -37.1191 -37.1190 -37.0526
   -37.0526 -36.9754 -36.9221 -36.8767 -36.8766 -36.8586 -36.8446 -36.7435
   -36.7434 -36.7392 -36.7391 -36.7104 -36.7103 -13.5228 -13.5228 -13.5184
   -13.4994 -13.4994 -13.3290 -13.3210 -13.3160 -13.3160 -13.3117 -13.3117
   -13.2965 -13.2965 -13.2935 -13.2935  -7.6573  -6.1045  -5.4853  -2.4719
    -2.2513  -2.0414  -1.3889  -1.3889  -1.1541  -1.1541  -0.9349  -0.9057
    -0.8827  -0.8826  -0.6348  -0.6348  -0.1768  -0.1767   0.2215   0.2980
     0.4830   0.6784   0.6784   0.8421   0.8421   0.9776   0.9777   1.1415
     1.2040   1.2040   1.2740   1.3625   2.1927   2.1927   2.2812   2.3161
     2.3162   2.4374   2.4375   2.4874   2.6627   2.6627   2.7202   2.7203
     2.9787   3.0885   3.0886   3.3470   3.3471   3.4129   3.4686   3.8070
     3.8071   3.9312   4.0033   4.0982   4.3515

[...]

          k =-0.0929-0.0537 0.0000 ( 15554 PWs)   bands (ev):

[...]

     the Fermi energy is     0.9416 ev

!    total energy              =   -2561.55899863 Ry
     Harris-Foulkes estimate   =   -2561.55899652 Ry
     estimated scf accuracy    <       0.00000097 Ry

     The total energy is the sum of the following terms:

     one-electron contribution =  -19291.77508938 Ry
     hartree contribution      =    9640.17619539 Ry
     xc contribution           =    -332.84867161 Ry
     ewald contribution        =    7423.00749969 Ry
     electric field correction =       0.00000003 Ry
     smearing contrib. (-TS)   =      -0.11893276 Ry

     convergence has been achieved in  20 iterations

 BEEF-vdW xc energy contributions
           1 :   -291.808853719068
           2 :    263.649938303145
           3 :   -216.722420716550
           4 :    165.171143298930
           5 :   -121.492507433488
           6 :    91.8102007309340
           7 :   -74.9962471917418
           8 :    65.4038176776635
           9 :   -57.1046105082930
          10 :    47.0843684626653
          11 :   -35.9323799708999
          12 :    26.2350891770740
          13 :   -20.1546688267420
          14 :    17.8409236019766
[...]

     PseudoPot. # 1 for V  read from file:
     /afs/slac.stanford.edu/u/if/mamunm/psp/gbrv1.5pbe/V.UPF
     MD5 check sum: 22b79981416ebb76fdaf5b1b8640f6fb
     Pseudo is Ultrasoft + core correction, Zval = 13.0
     Generated by new atomic code, or converted to UPF format
     Using radial grid of  853 points,  6 beta functions with:
                l(1) =   0
                l(2) =   0
                l(3) =   1
                l(4) =   1
                l(5) =   2
                l(6) =   2
     Q(r) pseudized with  8 coefficients,  rinner =    1.100   1.100   1.100
                                                       1.100   1.100

     PseudoPot. # 2 for Ga read from file:
     /afs/slac.stanford.edu/u/if/mamunm/psp/gbrv1.5pbe/Ga.UPF
     MD5 check sum: ccd671392a58a050fbb373893b4fcd66
     Pseudo is Ultrasoft + core correction, Zval = 19.0
     Generated by new atomic code, or converted to UPF format
     Using radial grid of  871 points,  6 beta functions with:
                l(1) =   0
                l(2) =   0
                l(3) =   1
                l(4) =   1
                l(5) =   2
                l(6) =   2
     Q(r) pseudized with  8 coefficients,  rinner =    1.250   1.250   1.250
                                                       1.250   1.250

     vdW kernel table read from file vdW_kernel_table
     MD5 check sum: 095c7af220d748ca6e76c0b4c6cfb241

     atomic species   valence    mass     pseudopotential
        V1            13.00    50.94150     V ( 1.00)
        Ga1           19.00    69.72300     Ga( 1.00)

     No symmetry found

   Cartesian axes

     site n.     atom                  positions (alat units)
         1           V1  tau(   1) = (   0.0000000   0.0000000  10.0000000  )
         2           V1  tau(   2) = (  -1.3450839   2.3297537  10.0000000  )
         3           V1  tau(   3) = (   1.3450839   2.3297537  10.0000000  )
         4           Ga1 tau(   4) = (   2.6901678   0.0000000  10.0000000  )
         5           V1  tau(   5) = (   2.6901678   1.5531691  12.1965128  )
         6           V1  tau(   6) = (   1.3450839   3.8829228  12.1965128  )
         7           V1  tau(   7) = (  -1.3450839   3.8829228  12.1965128  )
         8           Ga1 tau(   8) = (   0.0000000   1.5531691  12.1965128  )
         9           V1  tau(   9) = (  -0.0001346   3.1256385  14.2617514  )
        10           V1  tau(  10) = (   1.3617148   0.7669724  14.2616959  )
        11           V1  tau(  11) = (   4.0184854   0.7670485  14.2617422  )
        12           Ga1 tau(  12) = (   2.6899642   3.1063870  14.6751206  )

     number of k points=    20  Fermi-Dirac smearing, width (Ry)=  0.0110
                       cart. coord. in units 2pi/alat
        k(    1) = (   0.0000000   0.0000000   0.0000000), wk =   0.0555556
        k(    2) = (   0.0000000   0.0357692   0.0000000), wk =   0.1111111
        k(    3) = (   0.0000000   0.0715383   0.0000000), wk =   0.1111111
        k(    4) = (   0.0000000  -0.1073075   0.0000000), wk =   0.0555556
        k(    5) = (   0.0309770   0.0178846   0.0000000), wk =   0.1111111
        k(    6) = (   0.0309770   0.0536537   0.0000000), wk =   0.1111111
        k(    7) = (   0.0309770   0.0894229   0.0000000), wk =   0.1111111
        k(    8) = (   0.0309770  -0.0894229   0.0000000), wk =   0.1111111
        k(    9) = (   0.0309770  -0.0536537   0.0000000), wk =   0.1111111
        k(   10) = (   0.0309770  -0.0178846   0.0000000), wk =   0.1111111
        k(   11) = (   0.0619540   0.0357692   0.0000000), wk =   0.1111111
        k(   12) = (   0.0619540   0.0715383   0.0000000), wk =   0.1111111
        k(   13) = (   0.0619540   0.1073075   0.0000000), wk =   0.1111111
        k(   14) = (   0.0619540  -0.0715383   0.0000000), wk =   0.1111111
        k(   15) = (   0.0619540  -0.0357692   0.0000000), wk =   0.1111111
        k(   16) = (   0.0619540  -0.0000000   0.0000000), wk =   0.1111111
        k(   17) = (  -0.0929310  -0.0536537   0.0000000), wk =   0.0555556
        k(   18) = (  -0.0929310  -0.0178846   0.0000000), wk =   0.1111111
        k(   19) = (  -0.0929310   0.0178846   0.0000000), wk =   0.1111111
        k(   20) = (  -0.0929310  -0.1609612   0.0000000), wk =   0.0555556

     Largest allocated arrays     est. size (Mb)     dimensions
     Largest temporary arrays     est. size (Mb)     dimensions

     Initial potential from superposition of free atoms
     Check: negative starting charge=   -0.007697

     starting charge  170.98895, renormalised to  174.00000

[...]

     *
     * You are using vdW-DF for exchange-correlation in this calculation.
     * Please cite the following three references that made this development
     * possible:
     *
     *   M. Dion, H. Rydberg, E. Schroder, D. C. Langreth, and
     *   B. I. Lundqvist, Phys. Rev. Lett. 92, 246401 (2004).
     *
     *   T. Thonhauser, V. R. Cooper, S. Li, A. Puzder, P. Hyldgaard, and
     *   D. C. Langreth, Phys. Rev. B 76, 125112 (2007).
     *
     *   G. Roman-Perez and J. M. Soler, Phys. Rev. Lett. 103, 096102 (2009).
     *
     *
     * If you are using vdW-DF2, please also cite:
     *
     *   K. Lee, E. D. Murray, L. Kong, B. I. Lundqvist, and
     *   D. C. Langreth, Phys. Rev. B 82, 081101(R) (2010).
     *
     *
     * If you are calculating the stress with vdW-DF, please also cite:
     *
     *   R. Sabatini, E. Kucukbenli, B. Kolb, T. Thonhauser, and
     *   S. de Gironcoli, J. Phys.: Condens. Matter 24, 424209 (2012).
     *

     Carrying out vdW-DF run using the following parameters:

     Nqs =      20    Nr_points =    1024   r_max =   100.000
     q_mesh =
               0.00001000     0.04494208     0.09755937     0.15916263
               0.23128650     0.31572767     0.41458969     0.53033537
               0.66584808     0.82450364     1.01025438     1.22772762
               1.48234092     1.78043706     2.12944203     2.53805004
               3.01644009     3.57652955     4.23227104     5.00000000

     Gradients computed in reciprocal space

[...]

     Starting wfc are  126 randomized atomic wfcs

     Self-consistent Calculation

[...]

     total energy              =   -2561.58040236 Ry
     Harris-Foulkes estimate   =   -2561.58040183 Ry
     estimated scf accuracy    <       0.00000167 Ry

     iteration # 21     ecut=    36.75 Ry     beta=0.10
     Davidson diagonalization with overlap
     ethr =  9.57E-10,  avg # of iterations =  2.0

[...]

     negative rho (up, down):  9.960E-03 0.000E+00

     Adding external electric field

     Computed dipole along edir(3) :
        Dipole               -0.0435 Ry au,         -0.1106 Debye
        Dipole field         -0.0001 Ry au

        Potential amp.        0.0119 Ry
        Total length         44.9437 bohr

     End of self-consistent calculation

[...]

          k = 0.0620-0.0000 0.0000 ( 15492 PWs)   bands (ev):

[...]

          k =-0.0929-0.1610 0.0000 ( 15554 PWs)   bands (ev):

   -93.1828 -93.1828 -93.1798 -93.0360 -93.0056 -93.0056 -92.9706 -92.9223
   -92.9223 -63.3458 -63.3233 -63.3061 -63.2880 -63.2720 -63.2407 -63.2180
   -63.2057 -63.1828 -37.3929 -37.3628 -37.3463 -37.2758 -37.2740 -37.2664
   -37.2542 -37.2140 -37.2038 -37.1924 -37.1474 -37.1251 -37.1246 -37.1067
   -37.0869 -37.0562 -37.0430 -37.0255 -36.9895 -36.9778 -36.9750 -36.8801
   -36.8408 -36.8392 -36.8103 -36.8054 -36.7558 -13.5947 -13.5861 -13.5827
   -13.5674 -13.5660 -13.3972 -13.3811 -13.3792 -13.3715 -13.3665 -13.3073
   -13.2851 -13.2834 -13.2761 -13.2694  -6.5496  -5.8310  -5.1881  -3.4655
    -2.5660  -2.4679  -2.3948  -1.6318  -1.1478  -1.1071  -1.0634  -0.8627
    -0.8352  -0.7712  -0.4208  -0.2830  -0.1514  -0.1177   0.0441   0.1315
     0.1928   0.3052   0.4240   0.4594   0.4865   0.6322   0.7019   0.9914
     1.0118   1.0394   1.1767   1.2531   1.2993   1.7936   1.9509   2.0349
     2.0815   2.1021   2.1928   2.2718   2.3364   2.4725   2.4890   2.5447
     2.5951   2.6931   2.9029   2.9148   3.1372   3.1628   3.3390   3.8348
     3.8618   4.2310   4.6377   4.7188   4.9349

     the Fermi energy is     0.8722 ev

!    total energy              =   -2561.58040327 Ry
     Harris-Foulkes estimate   =   -2561.58040272 Ry
     estimated scf accuracy    <       0.00000078 Ry

     The total energy is the sum of the following terms:

     one-electron contribution =  -19268.43493961 Ry
     hartree contribution      =    9628.19958482 Ry
     xc contribution           =    -332.91285286 Ry
     ewald contribution        =    7411.67757848 Ry
     electric field correction =       0.00000577 Ry
     smearing contrib. (-TS)   =      -0.10977989 Ry

     convergence has been achieved in  21 iterations

 BEEF-vdW xc energy contributions
           1 :   -291.874432828555
           2 :    263.729196996731
           3 :   -216.808423977833
           4 :    165.234217917735
           5 :   -121.501436556456
           6 :    91.7586742327247
           7 :   -74.9101716089328
           8 :    65.3245169207101
           9 :   -57.0638991886519
          10 :    47.0886390188189
          11 :   -35.9606849479356
          12 :    26.2490706024492
          13 :   -20.1174139206950
          14 :    17.7388024666847
          15 :   -17.3700054113461
          16 :    16.7256355616945
          17 :   -14.5272078445719
          18 :    11.1519168358266
          19 :   -8.06378762952909
          20 :    6.57540446791290
          21 :   -6.88611975453125
          22 :    8.03118494349326
          23 :   -8.66796499831912
          24 :    8.04339655327396
          25 :   -6.44117023243268
          26 :    4.85321579368804
          27 :   -4.19655235720342
          28 :    4.67165537175850
          29 :   -5.69338470729247
          30 :    6.37714541711449
          31 :   -26.1712358948991
          32 :   -18.5471423941153

     Forces acting on atoms (Ry/au):

     negative rho (up, down):  9.960E-03 0.000E+00
     atom    1 type  1   force =    -0.00000599   -0.00027292    0.02084846
     atom    2 type  1   force =    -0.00023101    0.00011733    0.02084489
     atom    3 type  1   force =     0.00022230    0.00011900    0.02084962
     atom    4 type  2   force =    -0.00000731   -0.00003449   -0.04332630
     atom    5 type  1   force =    -0.00000319    0.01139282    0.00196744
     atom    6 type  1   force =     0.00987325   -0.00570496    0.00196812
     atom    7 type  1   force =    -0.00989586   -0.00571336    0.00195405
     atom    8 type  2   force =     0.00002967    0.00013493   -0.02805303
     atom    9 type  1   force =    -0.00000429    0.00064481    0.00041631
     atom   10 type  1   force =     0.00054946   -0.00033588    0.00043669
     atom   11 type  1   force =    -0.00057090   -0.00034258    0.00042748
     atom   12 type  2   force =     0.00004387   -0.00000468    0.00166627

     Total force =     0.066142     Total SCF correction =     0.003080

     entering subroutine stress ...

     negative rho (up, down):  9.960E-03 0.000E+00
          total   stress  (Ry/bohr**3)                   (kbar)     P=  -12.22
  -0.00011466  -0.00000002   0.00000001        -16.87     -0.00      0.00
  -0.00000002  -0.00011467  -0.00000001         -0.00    -16.87     -0.00
   0.00000001  -0.00000001  -0.00001989          0.00     -0.00     -2.93

 !ASE

     Writing output data file calc.save

     General routines

     Parallel routines

   This run was terminated on:   6: 6:55   2Jan2019

   JOB DONE.
Job  /afs/slac/g/suncat/bin/suncat-tsmpirun -x LD_LIBRARY_PATH -wdir /scratch/qe649302_vO2Ip pw.x -in pw.inp

TID   HOST_NAME   COMMAND_LINE            STATUS            TERMINATION_TIME
00000 suncat0146 pw.x -in pw.inp   Done                     01/02/2019 06:06:55
00001 suncat0146 pw.x -in pw.inp   Done                     01/02/2019 06:06:55
00002 suncat0146 pw.x -in pw.inp   Done                     01/02/2019 06:06:55
00003 suncat0146 pw.x -in pw.inp   Done                     01/02/2019 06:06:55
00004 suncat0146 pw.x -in pw.inp   Done                     01/02/2019 06:06:55
00005 suncat0146 pw.x -in pw.inp   Done                     01/02/2019 06:06:55
00006 suncat0146 pw.x -in pw.inp   Done                     01/02/2019 06:06:55
00007 suncat0146 pw.x -in pw.inp   Done                     01/02/2019 06:06:55
00008 suncat0136 pw.x -in pw.inp   Done                     01/02/2019 06:06:55
00009 suncat0136 pw.x -in pw.inp   Done                     01/02/2019 06:06:55
00010 suncat0136 pw.x -in pw.inp   Done                     01/02/2019 06:06:55
00011 suncat0136 pw.x -in pw.inp   Done                     01/02/2019 06:06:55
00012 suncat0136 pw.x -in pw.inp   Done                     01/02/2019 06:06:55
00013 suncat0136 pw.x -in pw.inp   Done                     01/02/2019 06:06:55
00014 suncat0136 pw.x -in pw.inp   Done                     01/02/2019 06:06:55
00015 suncat0136 pw.x -in pw.inp   Done                     01/02/2019 06:06:55
00016 suncat0248 pw.x -in pw.inp   Done                     01/02/2019 06:06:55
00017 suncat0248 pw.x -in pw.inp   Done                     01/02/2019 06:06:55
00018 suncat0248 pw.x -in pw.inp   Done                     01/02/2019 06:06:55
00019 suncat0248 pw.x -in pw.inp   Done                     01/02/2019 06:06:55
00020 suncat0248 pw.x -in pw.inp   Done                     01/02/2019 06:06:55
00021 suncat0248 pw.x -in pw.inp   Done                     01/02/2019 06:06:55
00022 suncat0248 pw.x -in pw.inp   Done                     01/02/2019 06:06:55
00023 suncat0248 pw.x -in pw.inp   Done                     01/02/2019 06:06:55
00024 suncat0247 pw.x -in pw.inp   Done                     01/02/2019 06:06:55
00025 suncat0247 pw.x -in pw.inp   Done                     01/02/2019 06:06:55
00026 suncat0247 pw.x -in pw.inp   Done                     01/02/2019 06:06:55
00027 suncat0247 pw.x -in pw.inp   Done                     01/02/2019 06:06:55
00028 suncat0247 pw.x -in pw.inp   Done                     01/02/2019 06:06:55
00029 suncat0247 pw.x -in pw.inp   Done                     01/02/2019 06:06:55
00030 suncat0247 pw.x -in pw.inp   Done                     01/02/2019 06:06:55
00031 suncat0247 pw.x -in pw.inp   Done                     01/02/2019 06:06:55
00032 suncat0246 pw.x -in pw.inp   Done                     01/02/2019 06:06:55
00033 suncat0246 pw.x -in pw.inp   Done                     01/02/2019 06:06:55
00034 suncat0246 pw.x -in pw.inp   Done                     01/02/2019 06:06:55
00035 suncat0246 pw.x -in pw.inp   Done                     01/02/2019 06:06:55
00036 suncat0246 pw.x -in pw.inp   Done                     01/02/2019 06:06:55
00037 suncat0246 pw.x -in pw.inp   Done                     01/02/2019 06:06:55
00038 suncat0246 pw.x -in pw.inp   Done                     01/02/2019 06:06:55
00039 suncat0246 pw.x -in pw.inp   Done                     01/02/2019 06:06:55
00040 suncat0245 pw.x -in pw.inp   Done                     01/02/2019 06:06:55
00041 suncat0245 pw.x -in pw.inp   Done                     01/02/2019 06:06:55
00042 suncat0245 pw.x -in pw.inp   Done                     01/02/2019 06:06:55
00043 suncat0245 pw.x -in pw.inp   Done                     01/02/2019 06:06:55
00044 suncat0245 pw.x -in pw.inp   Done                     01/02/2019 06:06:55
00045 suncat0245 pw.x -in pw.inp   Done                     01/02/2019 06:06:55
00046 suncat0245 pw.x -in pw.inp   Done                     01/02/2019 06:06:55
00047 suncat0245 pw.x -in pw.inp   Done                     01/02/2019 06:06:55
00048 suncat0214 pw.x -in pw.inp   Done                     01/02/2019 06:06:55
00049 suncat0214 pw.x -in pw.inp   Done                     01/02/2019 06:06:55
00050 suncat0214 pw.x -in pw.inp   Done                     01/02/2019 06:06:55
00051 suncat0214 pw.x -in pw.inp   Done                     01/02/2019 06:06:55
00052 suncat0214 pw.x -in pw.inp   Done                     01/02/2019 06:06:55
00053 suncat0214 pw.x -in pw.inp   Done                     01/02/2019 06:06:55
00054 suncat0214 pw.x -in pw.inp   Done                     01/02/2019 06:06:55
00055 suncat0214 pw.x -in pw.inp   Done                     01/02/2019 06:06:55
00056 suncat0213 pw.x -in pw.inp   Done                     01/02/2019 06:06:55
00057 suncat0213 pw.x -in pw.inp   Done                     01/02/2019 06:06:55
00058 suncat0213 pw.x -in pw.inp   Done                     01/02/2019 06:06:55
00059 suncat0213 pw.x -in pw.inp   Done                     01/02/2019 06:06:55
00060 suncat0213 pw.x -in pw.inp   Done                     01/02/2019 06:06:55
00061 suncat0213 pw.x -in pw.inp   Done                     01/02/2019 06:06:55
00062 suncat0213 pw.x -in pw.inp   Done                     01/02/2019 06:06:55
00063 suncat0213 pw.x -in pw.inp   Done                     01/02/2019 06:06:55