     Program PWSCF v.5.1rc2 (svn rev. 11289) starts on  2Jan2019 at 11:17:11

     Current dimensions of program PWSCF are:
     Max number of different atomic species (ntypx) = 10
     Max number of k-points (npk) =  40000
     Max angular momentum in pseudopotentials (lmaxx) =  3
     Presently stress not available with electric field

     IMPORTANT: XC functional enforced from input :
     Exchange-correlation      = BEEF-VDW ( 1  4 27 13 2)
     Any further DFT definition will be discarded
     Please, verify this is what you really want

     Subspace diagonalization in iterative solution of the eigenvalue problem:
     a serial algorithm will be used

     bravais-lattice index     =            0
     lattice parameter (alat)  =       1.8897  a.u.
     unit-cell volume          =    7160.2252 (a.u.)^3
     number of atoms/cell      =           12
     number of atomic types    =            2
     number of electrons       =       135.00
     number of Kohn-Sham states=           97
     kinetic-energy cutoff     =      36.7493  Ry
     charge density cutoff     =     367.4932  Ry
     convergence threshold     =      1.0E-06
     mixing beta               =       0.1000
     number of iterations used =           10  plain     mixing
     Exchange-correlation      = BEEF-VDW ( 1  4 27 13 2)
     nstep                     =           50

     celldm(1)=   1.889726  celldm(2)=   0.000000  celldm(3)=   0.000000
     celldm(4)=   0.000000  celldm(5)=   0.000000  celldm(6)=   0.000000

     crystal axes: (cart. coord. in units of alat)
               a(1) = (   6.912090   0.000000   0.000000 )
               a(2) = (  -3.456045   5.986046   0.000000 )
               a(3) = (   0.000000   0.000000  25.643698 )

     reciprocal axes: (cart. coord. in units 2 pi/alat)
               b(1) = (  0.144674  0.083528  0.000000 )
               b(2) = (  0.000000  0.167055  0.000000 )
               b(3) = (  0.000000  0.000000  0.038996 )

     PseudoPot. # 1 for Y  read from file:
     /afs/slac.stanford.edu/u/if/mamunm/psp/gbrv1.5pbe/Y.UPF
     MD5 check sum: d034151ed7554c50b6e82763ed42c788
     Pseudo is Ultrasoft + core correction, Zval = 11.0
     Generated by new atomic code, or converted to UPF format
     Using radial grid of  885 points,  6 beta functions with:
                l(1) =   0
                l(2) =   0
                l(3) =   1
                l(4) =   1
                l(5) =   2
                l(6) =   2
     Q(r) pseudized with  8 coefficients,  rinner =    1.200   1.200   1.200
                                                       1.200   1.200

     PseudoPot. # 2 for Hf read from file:
     /afs/slac.stanford.edu/u/if/mamunm/psp/gbrv1.5pbe/Hf.UPF
     MD5 check sum: 8ee9378dfe14276e333edf04c5e4aa26
     Pseudo is Ultrasoft + core correction, Zval = 12.0
     Generated by new atomic code, or converted to UPF format
     Using radial grid of  921 points,  8 beta functions with:
                l(1) =   0
                l(2) =   0
                l(3) =   0
                l(4) =   1
                l(5) =   1
                l(6) =   2
                l(7) =   2
                l(8) =   3
     Q(r) pseudized with  6 coefficients,  rinner =    1.200   1.200   1.200
                                                       1.200   1.200   1.200
                                                       1.200

     vdW kernel table read from file vdW_kernel_table
     MD5 check sum: 095c7af220d748ca6e76c0b4c6cfb241

     atomic species   valence    mass     pseudopotential
        Y1            11.00    88.90584     Y ( 1.00)
        Hf1           12.00   178.49000     Hf( 1.00)

     No symmetry found

   Cartesian axes

     site n.     atom                  positions (alat units)
         1           Y1  tau(   1) = (   0.0000000   0.0000000  10.0000000  )
         2           Y1  tau(   2) = (  -1.7280226   2.9930229  10.0000000  )
         3           Y1  tau(   3) = (   1.7280226   2.9930229  10.0000000  )
         4           Hf1 tau(   4) = (   3.4560451   0.0000000  10.0000000  )
         5           Y1  tau(   5) = (   3.4560451   1.9953486  12.8218490  )
         6           Y1  tau(   6) = (   1.7280226   4.9883714  12.8218490  )
         7           Y1  tau(   7) = (  -1.7280226   4.9883714  12.8218490  )
         8           Hf1 tau(   8) = (   0.0000000   1.9953486  12.8218490  )
         9           Y1  tau(   9) = (  -0.0000000   3.9906971  15.6436980  )
        10           Y1  tau(  10) = (   1.7280226   0.9976743  15.6436980  )
        11           Y1  tau(  11) = (   5.1840677   0.9976743  15.6436980  )
        12           Hf1 tau(  12) = (   3.4560451   3.9906971  15.6436980  )

     number of k points=    20  Fermi-Dirac smearing, width (Ry)=  0.0110
                       cart. coord. in units 2pi/alat
        k(    1) = (   0.0000000   0.0000000   0.0000000), wk =   0.0555556
        k(    2) = (   0.0000000   0.0278425   0.0000000), wk =   0.1111111
        k(    3) = (   0.0000000   0.0556851   0.0000000), wk =   0.1111111
        k(    4) = (   0.0000000  -0.0835276   0.0000000), wk =   0.0555556
        k(    5) = (   0.0241123   0.0139213   0.0000000), wk =   0.1111111
        k(    6) = (   0.0241123   0.0417638   0.0000000), wk =   0.1111111
        k(    7) = (   0.0241123   0.0696063   0.0000000), wk =   0.1111111
        k(    8) = (   0.0241123  -0.0696063   0.0000000), wk =   0.1111111
        k(    9) = (   0.0241123  -0.0417638   0.0000000), wk =   0.1111111
        k(   10) = (   0.0241123  -0.0139213   0.0000000), wk =   0.1111111
        k(   11) = (   0.0482247   0.0278425   0.0000000), wk =   0.1111111
        k(   12) = (   0.0482247   0.0556851   0.0000000), wk =   0.1111111
        k(   13) = (   0.0482247   0.0835276   0.0000000), wk =   0.1111111
        k(   14) = (   0.0482247  -0.0556851   0.0000000), wk =   0.1111111
        k(   15) = (   0.0482247  -0.0278425   0.0000000), wk =   0.1111111
        k(   16) = (   0.0482247   0.0000000   0.0000000), wk =   0.1111111
        k(   17) = (  -0.0723370  -0.0417638   0.0000000), wk =   0.0555556
        k(   18) = (  -0.0723370  -0.0139213   0.0000000), wk =   0.1111111
        k(   19) = (  -0.0723370   0.0139213   0.0000000), wk =   0.1111111
        k(   20) = (  -0.0723370  -0.1252914   0.0000000), wk =   0.0555556

     Largest allocated arrays     est. size (Mb)     dimensions
     Largest temporary arrays     est. size (Mb)     dimensions

     Check: negative/imaginary core charge=   -0.000002    0.000000

     Initial potential from superposition of free atoms
     Check: negative starting charge=   -0.323278

     starting charge  128.95977, renormalised to  135.00000

     negative rho (up, down):  3.384E-01 0.000E+00

     *
     * You are using vdW-DF for exchange-correlation in this calculation.
     * Please cite the following three references that made this development
     * possible:
     *
     *   M. Dion, H. Rydberg, E. Schroder, D. C. Langreth, and
     *   B. I. Lundqvist, Phys. Rev. Lett. 92, 246401 (2004).
     *
     *   T. Thonhauser, V. R. Cooper, S. Li, A. Puzder, P. Hyldgaard, and
     *   D. C. Langreth, Phys. Rev. B 76, 125112 (2007).
     *
     *   G. Roman-Perez and J. M. Soler, Phys. Rev. Lett. 103, 096102 (2009).
     *
     *
     * If you are using vdW-DF2, please also cite:
     *
     *   K. Lee, E. D. Murray, L. Kong, B. I. Lundqvist, and
     *   D. C. Langreth, Phys. Rev. B 82, 081101(R) (2010).
     *
     *
     * If you are calculating the stress with vdW-DF, please also cite:
     *
     *   R. Sabatini, E. Kucukbenli, B. Kolb, T. Thonhauser, and
     *   S. de Gironcoli, J. Phys.: Condens. Matter 24, 424209 (2012).
     *

     Carrying out vdW-DF run using the following parameters:

     Nqs =      20    Nr_points =    1024   r_max =   100.000
     q_mesh =
               0.00001000     0.04494208     0.09755937     0.15916263
               0.23128650     0.31572767     0.41458969     0.53033537
               0.66584808     0.82450364     1.01025438     1.22772762
               1.48234092     1.78043706     2.12944203     2.53805004
               3.01644009     3.57652955     4.23227104     5.00000000

     Gradients computed in reciprocal space

     Adding external electric field

     Computed dipole along edir(3) :
        Dipole                0.0000 Ry au,          0.0000 Debye
        Dipole field          0.0000 Ry au

        Potential amp.       -0.0000 Ry
        Total length         47.2481 bohr

     Starting wfc are  156 randomized atomic wfcs

     Self-consistent Calculation

     iteration #  1     ecut=    36.75 Ry     beta=0.10
     Davidson diagonalization with overlap
     ethr =  1.00E-02,  avg # of iterations =  2.0

[...]

     total energy              =   -1325.08107627 Ry
     Harris-Foulkes estimate   =   -1326.14279135 Ry
     estimated scf accuracy    <       6.79379950 Ry

[...]

     End of self-consistent calculation

          k = 0.0000 0.0000 0.0000 ( 27033 PWs)   bands (ev):

   -61.9513 -61.9513 -61.5519 -41.9704 -41.9695 -41.9206 -41.9206 -41.9203
   -41.9203 -41.3883 -41.3388 -41.3388 -30.4936 -30.4925 -30.3882 -30.3882
   -30.3879 -30.3879 -30.0265 -30.0247 -30.0247 -22.2231 -22.2085 -22.0289
   -22.0054 -22.0054 -21.9812 -21.9812 -21.9777 -21.9411 -21.9411 -21.9111
   -21.9111 -21.7149 -21.7088 -21.6694 -21.6694 -21.6658 -21.6658 -21.6481
   -21.4184 -21.4184 -21.3234 -21.2817 -21.2817 -21.1675 -21.1142 -21.1142
    -3.7031  -2.7578  -1.8384  -0.9480  -0.7997  -0.6053  -0.6053  -0.5674
    -0.5674  -0.5548  -0.2301  -0.2301   0.2103   0.2103   0.2125   0.6987
     0.6987   0.7378   1.2298   1.3370   1.6378   1.6749   1.6749   1.8345
     1.8713   1.8713   1.9383   2.3159   2.4032   2.4032   2.5017   2.5771
     2.5827   2.5827   2.7552   2.7552   2.8925   2.8925   2.9097   2.9097
     3.0416   3.0416   3.2935   3.6866   3.7965   3.7965   4.1265   4.1779
     4.3403

[...]

          k =-0.0723-0.0418 0.0000 ( 26914 PWs)   bands (ev):

[...]

     the Fermi energy is     1.1291 ev

!    total energy              =   -1324.72302086 Ry
     Harris-Foulkes estimate   =   -1324.72301981 Ry
     estimated scf accuracy    <       0.00000033 Ry

     The total energy is the sum of the following terms:

     one-electron contribution =   -6075.99091890 Ry
     hartree contribution      =    3028.05452889 Ry
     xc contribution           =    -486.04935822 Ry
     ewald contribution        =    2209.39234365 Ry
     electric field correction =       0.00000001 Ry
     smearing contrib. (-TS)   =      -0.12961630 Ry

     convergence has been achieved in  19 iterations

 BEEF-vdW xc energy contributions
           1 :   -431.513034324793
           2 :    394.237906614516
           3 :   -329.170914254649
           4 :    251.151990921019
           5 :   -174.742120728612
           6 :    109.917342162491
           7 :   -60.8270702936525
           8 :    27.2359489878065
           9 :   -6.99197983246665
          10 :   -2.20330842236183
          11 :    2.41434371490243
          12 :    3.92607487881196
          13 :   -13.4492010610110
          14 :    22.0956663654620
[...]
     Generated by new atomic code, or converted to UPF format
     Using radial grid of  885 points,  6 beta functions with:
                l(1) =   0
                l(2) =   0
                l(3) =   1
                l(4) =   1
                l(5) =   2
                l(6) =   2
     Q(r) pseudized with  8 coefficients,  rinner =    1.200   1.200   1.200
                                                       1.200   1.200

     PseudoPot. # 2 for Hf read from file:
     /afs/slac.stanford.edu/u/if/mamunm/psp/gbrv1.5pbe/Hf.UPF
     MD5 check sum: 8ee9378dfe14276e333edf04c5e4aa26
     Pseudo is Ultrasoft + core correction, Zval = 12.0
     Generated by new atomic code, or converted to UPF format
     Using radial grid of  921 points,  8 beta functions with:
                l(1) =   0
                l(2) =   0
                l(3) =   0
                l(4) =   1
                l(5) =   1
                l(6) =   2
                l(7) =   2
                l(8) =   3
     Q(r) pseudized with  6 coefficients,  rinner =    1.200   1.200   1.200
                                                       1.200   1.200   1.200
                                                       1.200

     vdW kernel table read from file vdW_kernel_table
     MD5 check sum: 095c7af220d748ca6e76c0b4c6cfb241

     atomic species   valence    mass     pseudopotential
        Y1            11.00    88.90584     Y ( 1.00)
        Hf1           12.00   178.49000     Hf( 1.00)

     No symmetry found

   Cartesian axes

     site n.     atom                  positions (alat units)
         1           Y1  tau(   1) = (   0.0000000   0.0000000  10.0000000  )
         2           Y1  tau(   2) = (  -1.7280226   2.9930229  10.0000000  )
         3           Y1  tau(   3) = (   1.7280226   2.9930229  10.0000000  )
         4           Hf1 tau(   4) = (   3.4560451   0.0000000  10.0000000  )
         5           Y1  tau(   5) = (   3.4560451   1.9953486  12.8218490  )
         6           Y1  tau(   6) = (   1.7280226   4.9883714  12.8218490  )
         7           Y1  tau(   7) = (  -1.7280226   4.9883714  12.8218490  )
         8           Hf1 tau(   8) = (   0.0000000   1.9953486  12.8218490  )
         9           Y1  tau(   9) = (   0.0000215   3.9607625  15.6136647  )
        10           Y1  tau(  10) = (   1.7021065   1.0126573  15.6136424  )
        11           Y1  tau(  11) = (   5.2099933   1.0126429  15.6136259  )
        12           Hf1 tau(  12) = (   3.4560211   3.9906873  15.3885911  )

     number of k points=    20  Fermi-Dirac smearing, width (Ry)=  0.0110
                       cart. coord. in units 2pi/alat
        k(    1) = (   0.0000000   0.0000000   0.0000000), wk =   0.0555556
        k(    2) = (   0.0000000   0.0278425   0.0000000), wk =   0.1111111
        k(    3) = (   0.0000000   0.0556851   0.0000000), wk =   0.1111111
        k(    4) = (   0.0000000  -0.0835276   0.0000000), wk =   0.0555556
        k(    5) = (   0.0241123   0.0139213   0.0000000), wk =   0.1111111
        k(    6) = (   0.0241123   0.0417638   0.0000000), wk =   0.1111111
        k(    7) = (   0.0241123   0.0696063   0.0000000), wk =   0.1111111
        k(    8) = (   0.0241123  -0.0696063   0.0000000), wk =   0.1111111
        k(    9) = (   0.0241123  -0.0417638   0.0000000), wk =   0.1111111
        k(   10) = (   0.0241123  -0.0139213   0.0000000), wk =   0.1111111
        k(   11) = (   0.0482247   0.0278425   0.0000000), wk =   0.1111111
        k(   12) = (   0.0482247   0.0556851   0.0000000), wk =   0.1111111
        k(   13) = (   0.0482247   0.0835276   0.0000000), wk =   0.1111111
        k(   14) = (   0.0482247  -0.0556851   0.0000000), wk =   0.1111111
        k(   15) = (   0.0482247  -0.0278425   0.0000000), wk =   0.1111111
        k(   16) = (   0.0482247   0.0000000   0.0000000), wk =   0.1111111
        k(   17) = (  -0.0723370  -0.0417638   0.0000000), wk =   0.0555556
        k(   18) = (  -0.0723370  -0.0139213   0.0000000), wk =   0.1111111
        k(   19) = (  -0.0723370   0.0139213   0.0000000), wk =   0.1111111
        k(   20) = (  -0.0723370  -0.1252914   0.0000000), wk =   0.0555556

     Largest allocated arrays     est. size (Mb)     dimensions
     Largest temporary arrays     est. size (Mb)     dimensions

     Check: negative/imaginary core charge=   -0.000002    0.000000

     Initial potential from superposition of free atoms
     Check: negative starting charge=   -0.323118

     starting charge  128.95977, renormalised to  135.00000

[...]

     *
     * You are using vdW-DF for exchange-correlation in this calculation.
     * Please cite the following three references that made this development
     * possible:
     *
     *   M. Dion, H. Rydberg, E. Schroder, D. C. Langreth, and
     *   B. I. Lundqvist, Phys. Rev. Lett. 92, 246401 (2004).
     *
     *   T. Thonhauser, V. R. Cooper, S. Li, A. Puzder, P. Hyldgaard, and
     *   D. C. Langreth, Phys. Rev. B 76, 125112 (2007).
     *
     *   G. Roman-Perez and J. M. Soler, Phys. Rev. Lett. 103, 096102 (2009).
     *
     *
     * If you are using vdW-DF2, please also cite:
     *
     *   K. Lee, E. D. Murray, L. Kong, B. I. Lundqvist, and
     *   D. C. Langreth, Phys. Rev. B 82, 081101(R) (2010).
     *
     *
     * If you are calculating the stress with vdW-DF, please also cite:
     *
     *   R. Sabatini, E. Kucukbenli, B. Kolb, T. Thonhauser, and
     *   S. de Gironcoli, J. Phys.: Condens. Matter 24, 424209 (2012).
     *

     Carrying out vdW-DF run using the following parameters:

     Nqs =      20    Nr_points =    1024   r_max =   100.000
     q_mesh =
               0.00001000     0.04494208     0.09755937     0.15916263
               0.23128650     0.31572767     0.41458969     0.53033537
               0.66584808     0.82450364     1.01025438     1.22772762
               1.48234092     1.78043706     2.12944203     2.53805004
               3.01644009     3.57652955     4.23227104     5.00000000

     Gradients computed in reciprocal space

[...]

     Starting wfc are  156 randomized atomic wfcs

     Self-consistent Calculation

[...]

     iteration # 11     ecut=    36.75 Ry     beta=0.10
     Davidson diagonalization with overlap
     c_bands:  1 eigenvalues not converged
     ethr =  3.26E-06,  avg # of iterations =  4.7

[...]

     total energy              =   -1324.73166416 Ry
     Harris-Foulkes estimate   =   -1324.73166317 Ry
     estimated scf accuracy    <       0.00000190 Ry

     iteration # 19     ecut=    36.75 Ry     beta=0.10
     Davidson diagonalization with overlap
     ethr =  1.41E-09,  avg # of iterations =  3.1

[...]

     negative rho (up, down):  3.428E-01 0.000E+00

     Adding external electric field

     Computed dipole along edir(3) :
        Dipole                0.0163 Ry au,          0.0414 Debye
        Dipole field          0.0000 Ry au

        Potential amp.       -0.0027 Ry
        Total length         47.2481 bohr

     End of self-consistent calculation

[...]

          k = 0.0482 0.0000 0.0000 ( 26951 PWs)   bands (ev):

[...]

          k =-0.0723-0.1253 0.0000 ( 26914 PWs)   bands (ev):

   -61.9682 -61.7433 -61.5095 -41.9584 -41.9418 -41.9346 -41.9253 -41.9160
   -41.9000 -41.2805 -41.2638 -41.2471 -30.5147 -30.4012 -30.4000 -30.2700
   -30.2186 -30.2174 -29.9858 -29.9857 -29.9846 -22.1042 -22.0807 -21.9952
   -21.9739 -21.9612 -21.9389 -21.9334 -21.9142 -21.8976 -21.8960 -21.8902
   -21.8573 -21.8510 -21.8442 -21.8435 -21.8136 -21.6837 -21.6600 -21.4441
   -21.2680 -21.2527 -21.2261 -21.2136 -21.2124 -21.2123 -21.1961 -21.0424
    -2.5031  -2.3876  -1.6569  -1.3079  -0.7459  -0.3350  -0.3133  -0.2022
    -0.0746   0.0099   0.6075   0.6669   0.7210   0.7394   0.7913   0.8610
     0.8961   0.9386   1.0366   1.0990   1.1295   1.1500   1.1787   1.2682
     1.3369   1.4914   1.5073   1.5832   1.6448   1.7180   1.8973   1.9469
     2.0734   2.2568   2.4246   2.5634   2.6044   2.7382   3.1052   3.2785
     3.2999   3.3179   3.5317   3.6283   3.6789   3.8406   3.8575   3.9089
     3.9481

     the Fermi energy is     1.1347 ev

!    total energy              =   -1324.73166552 Ry
     Harris-Foulkes estimate   =   -1324.73166484 Ry
     estimated scf accuracy    <       0.00000068 Ry

     The total energy is the sum of the following terms:

     one-electron contribution =   -6153.74196253 Ry
     hartree contribution      =    3067.14291265 Ry
     xc contribution           =    -486.15131405 Ry
     ewald contribution        =    2248.14668371 Ry
     electric field correction =       0.00000047 Ry
     smearing contrib. (-TS)   =      -0.12798576 Ry

     convergence has been achieved in  19 iterations

 BEEF-vdW xc energy contributions
           1 :   -431.615379809485
           2 :    394.373731800405
           3 :   -329.333486948836
           4 :    251.291100004677
           5 :   -174.800963288511
           6 :    109.879516176664
           7 :   -60.7342962577932
           8 :    27.1600969597659
           9 :   -6.98218801407592
          10 :   -2.15628940042581
          11 :    2.36766490814642
          12 :    3.91507789547711
          13 :   -13.3688673484891
          14 :    21.9878574251447
          15 :   -26.1693747675722
          16 :    24.0346008429490
          17 :   -16.1252186066878
          18 :    4.99425380621813
          19 :    6.05649596414622
          20 :   -14.3506082741026
          21 :    18.6124234594502
          22 :   -18.9314720057451
          23 :    16.2074257529545
          24 :   -11.5776289702124
          25 :    6.14143870655602
          26 :  -0.964618433470434
          27 :   -2.89236897440247
          28 :    4.53845246649433
          29 :   -3.59866195473450
          30 :   0.499599370880674
          31 :   -36.2083083114166
          32 :   -25.3011572247344

     Forces acting on atoms (Ry/au):

     negative rho (up, down):  3.428E-01 0.000E+00
     atom    1 type  1   force =     0.00001272    0.00820925    0.00043781
     atom    2 type  1   force =     0.00711439   -0.00409487    0.00042854
     atom    3 type  1   force =    -0.00711368   -0.00410757    0.00043073
     atom    4 type  2   force =    -0.00001250   -0.00000779    0.02565653
     atom    5 type  1   force =    -0.00001403   -0.00117980   -0.00787765
     atom    6 type  1   force =    -0.00101663    0.00058478   -0.00788618
     atom    7 type  1   force =     0.00101509    0.00060201   -0.00787234
     atom    8 type  2   force =     0.00001364   -0.00000544    0.00140300
     atom    9 type  1   force =    -0.00001187    0.00030138   -0.00128548
     atom   10 type  1   force =     0.00025647   -0.00016132   -0.00128675
     atom   11 type  1   force =    -0.00025548   -0.00014906   -0.00127301
     atom   12 type  2   force =     0.00001188    0.00000841   -0.00087519

     Total force =     0.032548     Total SCF correction =     0.001869

     entering subroutine stress ...

     negative rho (up, down):  3.428E-01 0.000E+00
          total   stress  (Ry/bohr**3)                   (kbar)     P=   -4.88
  -0.00003393  -0.00000000  -0.00000000         -4.99     -0.00     -0.00
  -0.00000000  -0.00003393  -0.00000000         -0.00     -4.99     -0.00
  -0.00000000  -0.00000000  -0.00003171         -0.00     -0.00     -4.67

 !ASE

     Writing output data file calc.save

     General routines

     Parallel routines

   This run was terminated on:  12:27:15   2Jan2019

   JOB DONE.
Job  /afs/slac/g/suncat/bin/suncat-tsmpirun -x LD_LIBRARY_PATH -wdir /scratch/qe649417_QasW8 pw.x -in pw.inp

TID   HOST_NAME   COMMAND_LINE            STATUS            TERMINATION_TIME
00000 suncat0068 pw.x -in pw.inp   Done                     01/02/2019 12:27:15
00001 suncat0068 pw.x -in pw.inp   Done                     01/02/2019 12:27:15
00002 suncat0068 pw.x -in pw.inp   Done                     01/02/2019 12:27:15
00003 suncat0068 pw.x -in pw.inp   Done                     01/02/2019 12:27:15
00004 suncat0068 pw.x -in pw.inp   Done                     01/02/2019 12:27:15
00005 suncat0068 pw.x -in pw.inp   Done                     01/02/2019 12:27:15
00006 suncat0068 pw.x -in pw.inp   Done                     01/02/2019 12:27:15
00007 suncat0068 pw.x -in pw.inp   Done                     01/02/2019 12:27:15
00008 suncat0065 pw.x -in pw.inp   Done                     01/02/2019 12:27:15
00009 suncat0065 pw.x -in pw.inp   Done                     01/02/2019 12:27:15
00010 suncat0065 pw.x -in pw.inp   Done                     01/02/2019 12:27:15
00011 suncat0065 pw.x -in pw.inp   Done                     01/02/2019 12:27:15
00012 suncat0065 pw.x -in pw.inp   Done                     01/02/2019 12:27:15
00013 suncat0065 pw.x -in pw.inp   Done                     01/02/2019 12:27:15
00014 suncat0065 pw.x -in pw.inp   Done                     01/02/2019 12:27:15
00015 suncat0065 pw.x -in pw.inp   Done                     01/02/2019 12:27:15
00016 suncat0064 pw.x -in pw.inp   Done                     01/02/2019 12:27:15
00017 suncat0064 pw.x -in pw.inp   Done                     01/02/2019 12:27:15
00018 suncat0064 pw.x -in pw.inp   Done                     01/02/2019 12:27:15
00019 suncat0064 pw.x -in pw.inp   Done                     01/02/2019 12:27:15
00020 suncat0064 pw.x -in pw.inp   Done                     01/02/2019 12:27:15
00021 suncat0064 pw.x -in pw.inp   Done                     01/02/2019 12:27:15
00022 suncat0064 pw.x -in pw.inp   Done                     01/02/2019 12:27:15
00023 suncat0064 pw.x -in pw.inp   Done                     01/02/2019 12:27:15
00024 suncat0059 pw.x -in pw.inp   Done                     01/02/2019 12:27:15
00025 suncat0059 pw.x -in pw.inp   Done                     01/02/2019 12:27:15
00026 suncat0059 pw.x -in pw.inp   Done                     01/02/2019 12:27:15
00027 suncat0059 pw.x -in pw.inp   Done                     01/02/2019 12:27:15
00028 suncat0059 pw.x -in pw.inp   Done                     01/02/2019 12:27:15
00029 suncat0059 pw.x -in pw.inp   Done                     01/02/2019 12:27:15
00030 suncat0059 pw.x -in pw.inp   Done                     01/02/2019 12:27:15
00031 suncat0059 pw.x -in pw.inp   Done                     01/02/2019 12:27:15
00032 suncat0169 pw.x -in pw.inp   Done                     01/02/2019 12:27:15
00033 suncat0169 pw.x -in pw.inp   Done                     01/02/2019 12:27:15
00034 suncat0169 pw.x -in pw.inp   Done                     01/02/2019 12:27:15
00035 suncat0169 pw.x -in pw.inp   Done                     01/02/2019 12:27:15
00036 suncat0169 pw.x -in pw.inp   Done                     01/02/2019 12:27:15
00037 suncat0169 pw.x -in pw.inp   Done                     01/02/2019 12:27:15
00038 suncat0169 pw.x -in pw.inp   Done                     01/02/2019 12:27:15
00039 suncat0169 pw.x -in pw.inp   Done                     01/02/2019 12:27:15
00040 suncat0168 pw.x -in pw.inp   Done                     01/02/2019 12:27:15
00041 suncat0168 pw.x -in pw.inp   Done                     01/02/2019 12:27:15
00042 suncat0168 pw.x -in pw.inp   Done                     01/02/2019 12:27:15
00043 suncat0168 pw.x -in pw.inp   Done                     01/02/2019 12:27:15
00044 suncat0168 pw.x -in pw.inp   Done                     01/02/2019 12:27:15
00045 suncat0168 pw.x -in pw.inp   Done                     01/02/2019 12:27:15
00046 suncat0168 pw.x -in pw.inp   Done                     01/02/2019 12:27:15
00047 suncat0168 pw.x -in pw.inp   Done                     01/02/2019 12:27:15
00048 suncat0156 pw.x -in pw.inp   Done                     01/02/2019 12:27:15
00049 suncat0156 pw.x -in pw.inp   Done                     01/02/2019 12:27:15
00050 suncat0156 pw.x -in pw.inp   Done                     01/02/2019 12:27:15
00051 suncat0156 pw.x -in pw.inp   Done                     01/02/2019 12:27:15
00052 suncat0156 pw.x -in pw.inp   Done                     01/02/2019 12:27:15
00053 suncat0156 pw.x -in pw.inp   Done                     01/02/2019 12:27:15
00054 suncat0156 pw.x -in pw.inp   Done                     01/02/2019 12:27:15
00055 suncat0156 pw.x -in pw.inp   Done                     01/02/2019 12:27:15
00056 suncat0153 pw.x -in pw.inp   Done                     01/02/2019 12:27:15
00057 suncat0153 pw.x -in pw.inp   Done                     01/02/2019 12:27:15
00058 suncat0153 pw.x -in pw.inp   Done                     01/02/2019 12:27:15
00059 suncat0153 pw.x -in pw.inp   Done                     01/02/2019 12:27:15
00060 suncat0153 pw.x -in pw.inp   Done                     01/02/2019 12:27:15
00061 suncat0153 pw.x -in pw.inp   Done                     01/02/2019 12:27:15
00062 suncat0153 pw.x -in pw.inp   Done                     01/02/2019 12:27:15
00063 suncat0153 pw.x -in pw.inp   Done                     01/02/2019 12:27:15