     Program PWSCF v.5.1rc2 (svn rev. 11289) starts on  2Jan2019 at  9:23:38

     Current dimensions of program PWSCF are:
     Max number of different atomic species (ntypx) = 10
     Max number of k-points (npk) =  40000
     Max angular momentum in pseudopotentials (lmaxx) =  3
     Presently stress not available with electric field

     IMPORTANT: XC functional enforced from input :
     Exchange-correlation      = BEEF-VDW ( 1  4 27 13 2)
     Any further DFT definition will be discarded
     Please, verify this is what you really want

     Subspace diagonalization in iterative solution of the eigenvalue problem:
     a serial algorithm will be used

     bravais-lattice index     =            0
     lattice parameter (alat)  =       1.8897  a.u.
     unit-cell volume          =    4578.9238 (a.u.)^3
     number of atoms/cell      =           12
     number of atomic types    =            2
     number of electrons       =       174.00
     number of Kohn-Sham states=          117
     kinetic-energy cutoff     =      36.7493  Ry
     charge density cutoff     =     367.4932  Ry
     convergence threshold     =      1.0E-06
     mixing beta               =       0.1000
     number of iterations used =           10  plain     mixing
     Exchange-correlation      = BEEF-VDW ( 1  4 27 13 2)
     nstep                     =           50

     celldm(1)=   1.889726  celldm(2)=   0.000000  celldm(3)=   0.000000
     celldm(4)=   0.000000  celldm(5)=   0.000000  celldm(6)=   0.000000

     crystal axes: (cart. coord. in units of alat)
               a(1) = (   5.642696   0.000000   0.000000 )
               a(2) = (  -2.821348   4.886718   0.000000 )
               a(3) = (   0.000000   0.000000  24.607242 )

     reciprocal axes: (cart. coord. in units 2 pi/alat)
               b(1) = (  0.177220  0.102318  0.000000 )
               b(2) = (  0.000000  0.204636  0.000000 )
               b(3) = (  0.000000  0.000000  0.040638 )

     PseudoPot. # 1 for W  read from file:
     /afs/slac.stanford.edu/u/if/mamunm/psp/gbrv1.5pbe/W.UPF
     MD5 check sum: 9c083fa34c2a2ea0f02f1f893e16e1c8
     Pseudo is Ultrasoft + core correction, Zval = 14.0
     Generated by new atomic code, or converted to UPF format
     Using radial grid of  923 points,  8 beta functions with:
                l(1) =   0
                l(2) =   0
                l(3) =   0
                l(4) =   1
                l(5) =   1
                l(6) =   2
                l(7) =   2
                l(8) =   3
     Q(r) pseudized with  6 coefficients,  rinner =    1.350   1.350   1.350
                                                       1.350   1.350   1.350
                                                       1.350

     PseudoPot. # 2 for Os read from file:
     /afs/slac.stanford.edu/u/if/mamunm/psp/gbrv1.5pbe/Os.UPF
     MD5 check sum: a3fb40a04f0c37c25c34bbc47164c9a8
     Pseudo is Ultrasoft + core correction, Zval = 16.0
     Generated by new atomic code, or converted to UPF format
     Using radial grid of  983 points,  8 beta functions with:
                l(1) =   0
                l(2) =   0
                l(3) =   1
                l(4) =   1
                l(5) =   2
                l(6) =   2
                l(7) =   3
                l(8) =   3
     Q(r) pseudized with  8 coefficients,  rinner =    1.150   1.150   1.150
                                                       1.150   1.150   1.150
                                                       1.150

     vdW kernel table read from file vdW_kernel_table
     MD5 check sum: 095c7af220d748ca6e76c0b4c6cfb241

     atomic species   valence    mass     pseudopotential
        W1            14.00   183.84000     W ( 1.00)
        Os1           16.00   190.23000     Os( 1.00)

     No symmetry found

   Cartesian axes

     site n.     atom                  positions (alat units)
         1           W1  tau(   1) = (   0.0000000   0.0000000  10.0000000  )
         2           W1  tau(   2) = (  -1.4106739   2.4433589  10.0000000  )
         3           W1  tau(   3) = (   1.4106739   2.4433589  10.0000000  )
         4           Os1 tau(   4) = (   2.8213478   0.0000000  10.0000000  )
         5           W1  tau(   5) = (   2.8213478   1.6289059  12.3036208  )
         6           W1  tau(   6) = (   1.4106739   4.0722648  12.3036208  )
         7           W1  tau(   7) = (  -1.4106739   4.0722648  12.3036208  )
         8           Os1 tau(   8) = (  -0.0000000   1.6289059  12.3036208  )
         9           W1  tau(   9) = (  -0.0000000   3.2578118  14.6072417  )
        10           W1  tau(  10) = (   1.4106739   0.8144530  14.6072417  )
        11           W1  tau(  11) = (   4.2320217   0.8144530  14.6072417  )
        12           Os1 tau(  12) = (   2.8213478   3.2578118  14.6072417  )

     number of k points=    20  Fermi-Dirac smearing, width (Ry)=  0.0110
                       cart. coord. in units 2pi/alat
        k(    1) = (   0.0000000   0.0000000   0.0000000), wk =   0.0555556
        k(    2) = (   0.0000000   0.0341061   0.0000000), wk =   0.1111111
        k(    3) = (   0.0000000   0.0682121   0.0000000), wk =   0.1111111
        k(    4) = (   0.0000000  -0.1023182   0.0000000), wk =   0.0555556
        k(    5) = (   0.0295367   0.0170530   0.0000000), wk =   0.1111111
        k(    6) = (   0.0295367   0.0511591   0.0000000), wk =   0.1111111
        k(    7) = (   0.0295367   0.0852651   0.0000000), wk =   0.1111111
        k(    8) = (   0.0295367  -0.0852651   0.0000000), wk =   0.1111111
        k(    9) = (   0.0295367  -0.0511591   0.0000000), wk =   0.1111111
        k(   10) = (   0.0295367  -0.0170530   0.0000000), wk =   0.1111111
        k(   11) = (   0.0590734   0.0341061   0.0000000), wk =   0.1111111
        k(   12) = (   0.0590734   0.0682121   0.0000000), wk =   0.1111111
        k(   13) = (   0.0590734   0.1023182   0.0000000), wk =   0.1111111
        k(   14) = (   0.0590734  -0.0682121   0.0000000), wk =   0.1111111
        k(   15) = (   0.0590734  -0.0341061   0.0000000), wk =   0.1111111
        k(   16) = (   0.0590734   0.0000000   0.0000000), wk =   0.1111111
        k(   17) = (  -0.0886101  -0.0511591   0.0000000), wk =   0.0555556
        k(   18) = (  -0.0886101  -0.0170530   0.0000000), wk =   0.1111111
        k(   19) = (  -0.0886101   0.0170530   0.0000000), wk =   0.1111111
        k(   20) = (  -0.0886101  -0.1534772   0.0000000), wk =   0.0555556

     Largest allocated arrays     est. size (Mb)     dimensions
     Largest temporary arrays     est. size (Mb)     dimensions

     Initial potential from superposition of free atoms
     Check: negative starting charge=   -0.944324

     starting charge  171.59683, renormalised to  174.00000

     negative rho (up, down):  9.575E-01 0.000E+00

     *
     * You are using vdW-DF for exchange-correlation in this calculation.
     * Please cite the following three references that made this development
     * possible:
     *
     *   M. Dion, H. Rydberg, E. Schroder, D. C. Langreth, and
     *   B. I. Lundqvist, Phys. Rev. Lett. 92, 246401 (2004).
     *
     *   T. Thonhauser, V. R. Cooper, S. Li, A. Puzder, P. Hyldgaard, and
     *   D. C. Langreth, Phys. Rev. B 76, 125112 (2007).
     *
     *   G. Roman-Perez and J. M. Soler, Phys. Rev. Lett. 103, 096102 (2009).
     *
     *
     * If you are using vdW-DF2, please also cite:
     *
     *   K. Lee, E. D. Murray, L. Kong, B. I. Lundqvist, and
     *   D. C. Langreth, Phys. Rev. B 82, 081101(R) (2010).
     *
     *
     * If you are calculating the stress with vdW-DF, please also cite:
     *
     *   R. Sabatini, E. Kucukbenli, B. Kolb, T. Thonhauser, and
     *   S. de Gironcoli, J. Phys.: Condens. Matter 24, 424209 (2012).
     *

     Carrying out vdW-DF run using the following parameters:

     Nqs =      20    Nr_points =    1024   r_max =   100.000
     q_mesh =
               0.00001000     0.04494208     0.09755937     0.15916263
               0.23128650     0.31572767     0.41458969     0.53033537
               0.66584808     0.82450364     1.01025438     1.22772762
               1.48234092     1.78043706     2.12944203     2.53805004
               3.01644009     3.57652955     4.23227104     5.00000000

     Gradients computed in reciprocal space

     Adding external electric field

     Computed dipole along edir(3) :
        Dipole                0.0000 Ry au,          0.0000 Debye
        Dipole field          0.0000 Ry au

        Potential amp.       -0.0000 Ry
        Total length         45.3384 bohr

     Starting wfc are  156 randomized atomic wfcs

     Self-consistent Calculation

     iteration #  1     ecut=    36.75 Ry     beta=0.10
     Davidson diagonalization with overlap
     ethr =  1.00E-02,  avg # of iterations =  2.0

[...]

     total energy              =   -2042.88147510 Ry
     Harris-Foulkes estimate   =   -2043.44071601 Ry
     estimated scf accuracy    <       3.37930856 Ry

[...]

     End of self-consistent calculation

          k = 0.0000 0.0000 0.0000 ( 17279 PWs)   bands (ev):

   -83.7849 -83.5684 -83.5683 -71.7505 -71.7398 -71.6848 -71.6848 -71.6819
   -71.6819 -71.6688 -71.6175 -71.6175 -43.0707 -43.0652 -43.0652 -42.8988
   -42.8934 -42.8063 -42.8063 -42.8049 -42.8049 -36.3576 -36.1772 -36.1759
   -36.1055 -36.1055 -36.0958 -36.0207 -36.0207 -35.9563 -35.9179 -35.9179
   -35.8549 -35.8549 -35.7627 -35.7627 -35.6280 -35.5324 -35.5243 -35.5243
   -35.5240 -35.4319 -35.3955 -35.3955 -35.3429 -35.3429 -35.3362 -35.3362
    -5.9218  -4.1089  -3.3797  -2.8793  -2.8793  -2.8648  -2.6303  -2.6303
    -2.5998  -1.9094  -1.9094  -1.8977  -1.8619  -1.8619  -1.7591  -0.4665
    -0.4665  -0.1959   0.5106   0.5106   0.5776   0.6874   1.0421   1.5102
     1.5128   1.5128   1.7353   1.7353   1.8119   1.8119   1.8713   1.8713
     1.9613   2.0929   2.0929   2.3328   3.0194   3.0256   3.1836   3.1836
     3.3661   3.3661   4.0708   4.0708   4.2144   4.3506   4.3506   4.4076
     4.5724   5.0776   5.0776   5.2340   5.2340   5.9465   5.9465   6.2426
     6.2426   6.5490   6.6760   6.6903   6.6903   6.8034   6.8034   6.8498
     7.0076   7.0158   7.0158   7.0818   7.0818

[...]

          k =-0.0886-0.0512 0.0000 ( 17264 PWs)   bands (ev):

[...]

     the Fermi energy is     2.5330 ev

!    total energy              =   -2042.95633996 Ry
     Harris-Foulkes estimate   =   -2042.96346470 Ry
     estimated scf accuracy    <       0.00000058 Ry

     The total energy is the sum of the following terms:

     one-electron contribution =  -16144.52665721 Ry
     hartree contribution      =    8055.24543965 Ry
     xc contribution           =    -498.73098815 Ry
     ewald contribution        =    6545.13367669 Ry
     electric field correction =       0.00000000 Ry
     smearing contrib. (-TS)   =      -0.07781093 Ry

     convergence has been achieved in  15 iterations

 BEEF-vdW xc energy contributions
           1 :   -438.279131281743
           2 :    405.729065810549
           3 :   -348.290073659883
           4 :    278.473960620846
           5 :   -209.491875843943
           6 :    151.430844553071
           7 :   -109.048594591535
[...]
     Using radial grid of  923 points,  8 beta functions with:
                l(1) =   0
                l(2) =   0
                l(3) =   0
                l(4) =   1
                l(5) =   1
                l(6) =   2
                l(7) =   2
                l(8) =   3
     Q(r) pseudized with  6 coefficients,  rinner =    1.350   1.350   1.350
                                                       1.350   1.350   1.350
                                                       1.350

     PseudoPot. # 2 for Os read from file:
     /afs/slac.stanford.edu/u/if/mamunm/psp/gbrv1.5pbe/Os.UPF
     MD5 check sum: a3fb40a04f0c37c25c34bbc47164c9a8
     Pseudo is Ultrasoft + core correction, Zval = 16.0
     Generated by new atomic code, or converted to UPF format
     Using radial grid of  983 points,  8 beta functions with:
                l(1) =   0
                l(2) =   0
                l(3) =   1
                l(4) =   1
                l(5) =   2
                l(6) =   2
                l(7) =   3
                l(8) =   3
     Q(r) pseudized with  8 coefficients,  rinner =    1.150   1.150   1.150
                                                       1.150   1.150   1.150
                                                       1.150

     vdW kernel table read from file vdW_kernel_table
     MD5 check sum: 095c7af220d748ca6e76c0b4c6cfb241

     atomic species   valence    mass     pseudopotential
        W1            14.00   183.84000     W ( 1.00)
        Os1           16.00   190.23000     Os( 1.00)

     No symmetry found

   Cartesian axes

     site n.     atom                  positions (alat units)
         1           W1  tau(   1) = (   0.0000000   0.0000000  10.0000000  )
         2           W1  tau(   2) = (  -1.4106739   2.4433589  10.0000000  )
         3           W1  tau(   3) = (   1.4106739   2.4433589  10.0000000  )
         4           Os1 tau(   4) = (   2.8213478   0.0000000  10.0000000  )
         5           W1  tau(   5) = (   2.8213478   1.6289059  12.3036208  )
         6           W1  tau(   6) = (   1.4106739   4.0722648  12.3036208  )
         7           W1  tau(   7) = (  -1.4106739   4.0722648  12.3036208  )
         8           Os1 tau(   8) = (  -0.0000000   1.6289059  12.3036208  )
         9           W1  tau(   9) = (   0.0000004   3.2459168  14.5287603  )
        10           W1  tau(  10) = (   1.4003707   0.8204034  14.5287614  )
        11           W1  tau(  11) = (   4.2423275   0.8203952  14.5287597  )
        12           Os1 tau(  12) = (   2.8213439   3.2578127  14.5461641  )

     number of k points=    20  Fermi-Dirac smearing, width (Ry)=  0.0110
                       cart. coord. in units 2pi/alat
        k(    1) = (   0.0000000   0.0000000   0.0000000), wk =   0.0555556
        k(    2) = (   0.0000000   0.0341061   0.0000000), wk =   0.1111111
        k(    3) = (   0.0000000   0.0682121   0.0000000), wk =   0.1111111
        k(    4) = (   0.0000000  -0.1023182   0.0000000), wk =   0.0555556
        k(    5) = (   0.0295367   0.0170530   0.0000000), wk =   0.1111111
        k(    6) = (   0.0295367   0.0511591   0.0000000), wk =   0.1111111
        k(    7) = (   0.0295367   0.0852651   0.0000000), wk =   0.1111111
        k(    8) = (   0.0295367  -0.0852651   0.0000000), wk =   0.1111111
        k(    9) = (   0.0295367  -0.0511591   0.0000000), wk =   0.1111111
        k(   10) = (   0.0295367  -0.0170530   0.0000000), wk =   0.1111111
        k(   11) = (   0.0590734   0.0341061   0.0000000), wk =   0.1111111
        k(   12) = (   0.0590734   0.0682121   0.0000000), wk =   0.1111111
        k(   13) = (   0.0590734   0.1023182   0.0000000), wk =   0.1111111
        k(   14) = (   0.0590734  -0.0682121   0.0000000), wk =   0.1111111
        k(   15) = (   0.0590734  -0.0341061   0.0000000), wk =   0.1111111
        k(   16) = (   0.0590734   0.0000000   0.0000000), wk =   0.1111111
        k(   17) = (  -0.0886101  -0.0511591   0.0000000), wk =   0.0555556
        k(   18) = (  -0.0886101  -0.0170530   0.0000000), wk =   0.1111111
        k(   19) = (  -0.0886101   0.0170530   0.0000000), wk =   0.1111111
        k(   20) = (  -0.0886101  -0.1534772   0.0000000), wk =   0.0555556

     Largest allocated arrays     est. size (Mb)     dimensions
     Largest temporary arrays     est. size (Mb)     dimensions

     Initial potential from superposition of free atoms
     Check: negative starting charge=   -0.942433

     starting charge  171.59683, renormalised to  174.00000

[...]

     *
     * You are using vdW-DF for exchange-correlation in this calculation.
     * Please cite the following three references that made this development
     * possible:
     *
     *   M. Dion, H. Rydberg, E. Schroder, D. C. Langreth, and
     *   B. I. Lundqvist, Phys. Rev. Lett. 92, 246401 (2004).
     *
     *   T. Thonhauser, V. R. Cooper, S. Li, A. Puzder, P. Hyldgaard, and
     *   D. C. Langreth, Phys. Rev. B 76, 125112 (2007).
     *
     *   G. Roman-Perez and J. M. Soler, Phys. Rev. Lett. 103, 096102 (2009).
     *
     *
     * If you are using vdW-DF2, please also cite:
     *
     *   K. Lee, E. D. Murray, L. Kong, B. I. Lundqvist, and
     *   D. C. Langreth, Phys. Rev. B 82, 081101(R) (2010).
     *
     *
     * If you are calculating the stress with vdW-DF, please also cite:
     *
     *   R. Sabatini, E. Kucukbenli, B. Kolb, T. Thonhauser, and
     *   S. de Gironcoli, J. Phys.: Condens. Matter 24, 424209 (2012).
     *

     Carrying out vdW-DF run using the following parameters:

     Nqs =      20    Nr_points =    1024   r_max =   100.000
     q_mesh =
               0.00001000     0.04494208     0.09755937     0.15916263
               0.23128650     0.31572767     0.41458969     0.53033537
               0.66584808     0.82450364     1.01025438     1.22772762
               1.48234092     1.78043706     2.12944203     2.53805004
               3.01644009     3.57652955     4.23227104     5.00000000

     Gradients computed in reciprocal space

[...]

     Starting wfc are  156 randomized atomic wfcs

     Self-consistent Calculation

[...]

     total energy              =   -2042.97023215 Ry
     Harris-Foulkes estimate   =   -2042.97023100 Ry
     estimated scf accuracy    <       0.00000213 Ry

     iteration # 15     ecut=    36.75 Ry     beta=0.10
     Davidson diagonalization with overlap
     ethr =  1.22E-09,  avg # of iterations =  2.0

[...]

     negative rho (up, down):  9.701E-01 0.000E+00

     Adding external electric field

     Computed dipole along edir(3) :
        Dipole                0.0152 Ry au,          0.0385 Debye
        Dipole field          0.0000 Ry au

        Potential amp.       -0.0038 Ry
        Total length         45.3384 bohr

     End of self-consistent calculation

[...]

          k = 0.0591 0.0000 0.0000 ( 17226 PWs)   bands (ev):

[...]

          k =-0.0886-0.1535 0.0000 ( 17264 PWs)   bands (ev):

   -83.7490 -83.5569 -83.4905 -71.7185 -71.6988 -71.6786 -71.6073 -71.5894
   -71.5623 -71.5535 -71.5435 -71.5263 -43.0436 -43.0390 -43.0339 -42.8836
   -42.8243 -42.7919 -42.7866 -42.7392 -42.7340 -36.1583 -36.1046 -36.0405
   -35.9740 -35.9611 -35.9287 -35.9041 -35.8953 -35.8272 -35.8111 -35.7766
   -35.7416 -35.6995 -35.6963 -35.6815 -35.6813 -35.6610 -35.6112 -35.5625
   -35.5542 -35.5314 -35.4019 -35.3972 -35.3695 -35.3549 -35.3167 -35.2602
    -4.0304  -3.9471  -2.4814  -2.4259  -1.8932  -1.8504  -1.8003  -1.7525
    -1.6439  -1.5905  -1.0785  -0.8690  -0.8080  -0.6021  -0.5468  -0.4010
    -0.3377  -0.1063   0.0118   0.0521   0.0802   0.4835   0.6248   0.6931
     0.7573   0.8792   1.0562   1.2262   1.2630   1.2772   1.4132   1.4464
     1.5777   1.6409   1.6794   1.7440   1.8857   1.9786   2.2691   2.4046
     2.8308   2.8819   3.0765   3.2996   3.4587   3.4610   3.7490   3.8133
     3.9288   4.0252   4.2125   4.2800   4.4148   4.5365   4.6488   4.9527
     5.0067   5.3874   5.5032   5.5751   6.2587   6.4207   6.5240   6.5701
     6.6436   7.3809   7.8104   8.0329   8.0636

     the Fermi energy is     2.5471 ev

!    total energy              =   -2042.97023406 Ry
     Harris-Foulkes estimate   =   -2042.97023262 Ry
     estimated scf accuracy    <       0.00000075 Ry

     The total energy is the sum of the following terms:

     one-electron contribution =  -16316.55921181 Ry
     hartree contribution      =    8141.60290940 Ry
     xc contribution           =    -498.95327687 Ry
     ewald contribution        =    6631.01490117 Ry
     electric field correction =       0.00000063 Ry
     smearing contrib. (-TS)   =      -0.07555659 Ry

     convergence has been achieved in  15 iterations

 BEEF-vdW xc energy contributions
           1 :   -438.706463553865
           2 :    406.217514416582
           3 :   -348.858547100197
           4 :    279.080358569949
           5 :   -210.049101121198
           6 :    151.851108641106
           7 :   -109.292586333175
           8 :    81.8121128262692
           9 :   -65.1867054913556
          10 :    54.0634915788781
          11 :   -44.2027098083871
          12 :    33.6483493333901
          13 :   -22.6510488692433
          14 :    12.7051929250694
          15 :   -5.33534673140196
          16 :    1.20712965761629
          17 :   0.132462998669325
          18 :   8.242493167938392E-002
          19 :  -0.494396909274258
          20 :   0.229895092465199
          21 :   0.828895867531571
          22 :   -2.18928587505343
          23 :    3.16990839035714
          24 :   -3.34123429467741
          25 :    2.75267351052310
          26 :   -1.85996017995160
          27 :    1.23247619072805
          28 :   -1.22818821064254
          29 :    1.81704145379001
          30 :   -2.63451383400275
          31 :   -40.0635360628302
          32 :   -30.1655928389987

     Forces acting on atoms (Ry/au):

     negative rho (up, down):  9.701E-01 0.000E+00
     atom    1 type  1   force =    -0.00000011    0.00860159    0.02384795
     atom    2 type  1   force =     0.00744997   -0.00430007    0.02384778
     atom    3 type  1   force =    -0.00744978   -0.00430003    0.02384813
     atom    4 type  2   force =     0.00000026   -0.00000142    0.01358465
     atom    5 type  1   force =    -0.00000015    0.00103260   -0.02009630
     atom    6 type  1   force =     0.00089299   -0.00051658   -0.02009813
     atom    7 type  1   force =    -0.00089333   -0.00051658   -0.02009710
     atom    8 type  2   force =     0.00000051    0.00000102   -0.02308036
     atom    9 type  1   force =    -0.00000243   -0.00063418   -0.00034076
     atom   10 type  1   force =    -0.00054798    0.00031648   -0.00034051
     atom   11 type  1   force =     0.00054807    0.00031847   -0.00034056
     atom   12 type  2   force =     0.00000199   -0.00000129   -0.00073479

     Total force =     0.062148     Total SCF correction =     0.003967

     entering subroutine stress ...

     negative rho (up, down):  9.701E-01 0.000E+00
          total   stress  (Ry/bohr**3)                   (kbar)     P=  -41.06
  -0.00034500   0.00000000  -0.00000000        -50.75      0.00     -0.00
   0.00000000  -0.00034500  -0.00000000          0.00    -50.75     -0.00
  -0.00000000  -0.00000000  -0.00014745         -0.00     -0.00    -21.69

 !ASE

     Writing output data file calc.save

     General routines

     Parallel routines

   This run was terminated on:  10:11:22   2Jan2019

   JOB DONE.
Job  /afs/slac/g/suncat/bin/suncat-tsmpirun -x LD_LIBRARY_PATH -wdir /scratch/qe649369_sl4aY pw.x -in pw.inp

TID   HOST_NAME   COMMAND_LINE            STATUS            TERMINATION_TIME
00000 suncat0068 pw.x -in pw.inp   Done                     01/02/2019 10:11:22
00001 suncat0068 pw.x -in pw.inp   Done                     01/02/2019 10:11:22
00002 suncat0068 pw.x -in pw.inp   Done                     01/02/2019 10:11:22
00003 suncat0068 pw.x -in pw.inp   Done                     01/02/2019 10:11:22
00004 suncat0068 pw.x -in pw.inp   Done                     01/02/2019 10:11:22
00005 suncat0068 pw.x -in pw.inp   Done                     01/02/2019 10:11:22
00006 suncat0068 pw.x -in pw.inp   Done                     01/02/2019 10:11:22
00007 suncat0068 pw.x -in pw.inp   Done                     01/02/2019 10:11:22
00008 suncat0065 pw.x -in pw.inp   Done                     01/02/2019 10:11:22
00009 suncat0065 pw.x -in pw.inp   Done                     01/02/2019 10:11:22
00010 suncat0065 pw.x -in pw.inp   Done                     01/02/2019 10:11:22
00011 suncat0065 pw.x -in pw.inp   Done                     01/02/2019 10:11:22
00012 suncat0065 pw.x -in pw.inp   Done                     01/02/2019 10:11:22
00013 suncat0065 pw.x -in pw.inp   Done                     01/02/2019 10:11:22
00014 suncat0065 pw.x -in pw.inp   Done                     01/02/2019 10:11:22
00015 suncat0065 pw.x -in pw.inp   Done                     01/02/2019 10:11:22
00016 suncat0064 pw.x -in pw.inp   Done                     01/02/2019 10:11:22
00017 suncat0064 pw.x -in pw.inp   Done                     01/02/2019 10:11:22
00018 suncat0064 pw.x -in pw.inp   Done                     01/02/2019 10:11:22
00019 suncat0064 pw.x -in pw.inp   Done                     01/02/2019 10:11:22
00020 suncat0064 pw.x -in pw.inp   Done                     01/02/2019 10:11:22
00021 suncat0064 pw.x -in pw.inp   Done                     01/02/2019 10:11:22
00022 suncat0064 pw.x -in pw.inp   Done                     01/02/2019 10:11:22
00023 suncat0064 pw.x -in pw.inp   Done                     01/02/2019 10:11:22
00024 suncat0059 pw.x -in pw.inp   Done                     01/02/2019 10:11:22
00025 suncat0059 pw.x -in pw.inp   Done                     01/02/2019 10:11:22
00026 suncat0059 pw.x -in pw.inp   Done                     01/02/2019 10:11:22
00027 suncat0059 pw.x -in pw.inp   Done                     01/02/2019 10:11:22
00028 suncat0059 pw.x -in pw.inp   Done                     01/02/2019 10:11:22
00029 suncat0059 pw.x -in pw.inp   Done                     01/02/2019 10:11:22
00030 suncat0059 pw.x -in pw.inp   Done                     01/02/2019 10:11:22
00031 suncat0059 pw.x -in pw.inp   Done                     01/02/2019 10:11:22
00032 suncat0169 pw.x -in pw.inp   Done                     01/02/2019 10:11:22
00033 suncat0169 pw.x -in pw.inp   Done                     01/02/2019 10:11:22
00034 suncat0169 pw.x -in pw.inp   Done                     01/02/2019 10:11:22
00035 suncat0169 pw.x -in pw.inp   Done                     01/02/2019 10:11:22
00036 suncat0169 pw.x -in pw.inp   Done                     01/02/2019 10:11:22
00037 suncat0169 pw.x -in pw.inp   Done                     01/02/2019 10:11:22
00038 suncat0169 pw.x -in pw.inp   Done                     01/02/2019 10:11:22
00039 suncat0169 pw.x -in pw.inp   Done                     01/02/2019 10:11:22
00040 suncat0168 pw.x -in pw.inp   Done                     01/02/2019 10:11:22
00041 suncat0168 pw.x -in pw.inp   Done                     01/02/2019 10:11:22
00042 suncat0168 pw.x -in pw.inp   Done                     01/02/2019 10:11:22
00043 suncat0168 pw.x -in pw.inp   Done                     01/02/2019 10:11:22
00044 suncat0168 pw.x -in pw.inp   Done                     01/02/2019 10:11:22
00045 suncat0168 pw.x -in pw.inp   Done                     01/02/2019 10:11:22
00046 suncat0168 pw.x -in pw.inp   Done                     01/02/2019 10:11:22
00047 suncat0168 pw.x -in pw.inp   Done                     01/02/2019 10:11:22
00048 suncat0156 pw.x -in pw.inp   Done                     01/02/2019 10:11:22
00049 suncat0156 pw.x -in pw.inp   Done                     01/02/2019 10:11:22
00050 suncat0156 pw.x -in pw.inp   Done                     01/02/2019 10:11:22
00051 suncat0156 pw.x -in pw.inp   Done                     01/02/2019 10:11:22
00052 suncat0156 pw.x -in pw.inp   Done                     01/02/2019 10:11:22
00053 suncat0156 pw.x -in pw.inp   Done                     01/02/2019 10:11:22
00054 suncat0156 pw.x -in pw.inp   Done                     01/02/2019 10:11:22
00055 suncat0156 pw.x -in pw.inp   Done                     01/02/2019 10:11:22
00056 suncat0153 pw.x -in pw.inp   Done                     01/02/2019 10:11:22
00057 suncat0153 pw.x -in pw.inp   Done                     01/02/2019 10:11:22
00058 suncat0153 pw.x -in pw.inp   Done                     01/02/2019 10:11:22
00059 suncat0153 pw.x -in pw.inp   Done                     01/02/2019 10:11:22
00060 suncat0153 pw.x -in pw.inp   Done                     01/02/2019 10:11:22
00061 suncat0153 pw.x -in pw.inp   Done                     01/02/2019 10:11:22
00062 suncat0153 pw.x -in pw.inp   Done                     01/02/2019 10:11:22
00063 suncat0153 pw.x -in pw.inp   Done                     01/02/2019 10:11:22