     Program PWSCF v.5.1rc2 (svn rev. 11289) starts on  2Jan2019 at  9: 5:52

     Current dimensions of program PWSCF are:
     Max number of different atomic species (ntypx) = 10
     Max number of k-points (npk) =  40000
     Max angular momentum in pseudopotentials (lmaxx) =  3
     Presently stress not available with electric field

     IMPORTANT: XC functional enforced from input :
     Exchange-correlation      = BEEF-VDW ( 1  4 27 13 2)
     Any further DFT definition will be discarded
     Please, verify this is what you really want

     Subspace diagonalization in iterative solution of the eigenvalue problem:
     a serial algorithm will be used

     bravais-lattice index     =            0
     lattice parameter (alat)  =       1.8897  a.u.
     unit-cell volume          =    4827.3509 (a.u.)^3
     number of atoms/cell      =           12
     number of atomic types    =            2
     number of electrons       =       165.00
     number of Kohn-Sham states=          112
     kinetic-energy cutoff     =      36.7493  Ry
     charge density cutoff     =     367.4932  Ry
     convergence threshold     =      1.0E-06
     mixing beta               =       0.1000
     number of iterations used =           10  plain     mixing
     Exchange-correlation      = BEEF-VDW ( 1  4 27 13 2)
     nstep                     =           50

     celldm(1)=   1.889726  celldm(2)=   0.000000  celldm(3)=   0.000000
     celldm(4)=   0.000000  celldm(5)=   0.000000  celldm(6)=   0.000000

     crystal axes: (cart. coord. in units of alat)
               a(1) = (   5.780540   0.000000   0.000000 )
               a(2) = (  -2.890270   5.006095   0.000000 )
               a(3) = (   0.000000   0.000000  24.719791 )

     reciprocal axes: (cart. coord. in units 2 pi/alat)
               b(1) = (  0.172994  0.099878  0.000000 )
               b(2) = (  0.000000  0.199757  0.000000 )
               b(3) = (  0.000000  0.000000  0.040453 )

     PseudoPot. # 1 for W  read from file:
     /afs/slac.stanford.edu/u/if/mamunm/psp/gbrv1.5pbe/W.UPF
     MD5 check sum: 9c083fa34c2a2ea0f02f1f893e16e1c8
     Pseudo is Ultrasoft + core correction, Zval = 14.0
     Generated by new atomic code, or converted to UPF format
     Using radial grid of  923 points,  8 beta functions with:
                l(1) =   0
                l(2) =   0
                l(3) =   0
                l(4) =   1
                l(5) =   1
                l(6) =   2
                l(7) =   2
                l(8) =   3
     Q(r) pseudized with  6 coefficients,  rinner =    1.350   1.350   1.350
                                                       1.350   1.350   1.350
                                                       1.350

     PseudoPot. # 2 for Nb read from file:
     /afs/slac.stanford.edu/u/if/mamunm/psp/gbrv1.5pbe/Nb.UPF
     MD5 check sum: 573aab8a2fa660278ed4a62cd769473f
     Pseudo is Ultrasoft + core correction, Zval = 13.0
     Generated by new atomic code, or converted to UPF format
     Using radial grid of  887 points,  6 beta functions with:
                l(1) =   0
                l(2) =   0
                l(3) =   1
                l(4) =   1
                l(5) =   2
                l(6) =   2
     Q(r) pseudized with  6 coefficients,  rinner =    1.000   1.000   1.000
                                                       1.000   1.000

     vdW kernel table read from file vdW_kernel_table
     MD5 check sum: 095c7af220d748ca6e76c0b4c6cfb241

     atomic species   valence    mass     pseudopotential
        W1            14.00   183.84000     W ( 1.00)
        Nb1           13.00    92.90637     Nb( 1.00)

     No symmetry found

   Cartesian axes

     site n.     atom                  positions (alat units)
         1           W1  tau(   1) = (   0.0000000   0.0000000  10.0000000  )
         2           W1  tau(   2) = (  -1.4451350   2.5030473  10.0000000  )
         3           W1  tau(   3) = (   1.4451350   2.5030473  10.0000000  )
         4           Nb1 tau(   4) = (   2.8902700   0.0000000  10.0000000  )
         5           W1  tau(   5) = (   2.8902700   1.6686982  12.3598956  )
         6           W1  tau(   6) = (   1.4451350   4.1717455  12.3598956  )
         7           W1  tau(   7) = (  -1.4451350   4.1717455  12.3598956  )
         8           Nb1 tau(   8) = (   0.0000000   1.6686982  12.3598956  )
         9           W1  tau(   9) = (  -0.0000000   3.3373964  14.7197912  )
        10           W1  tau(  10) = (   1.4451350   0.8343491  14.7197912  )
        11           W1  tau(  11) = (   4.3354051   0.8343491  14.7197912  )
        12           Nb1 tau(  12) = (   2.8902700   3.3373964  14.7197912  )

     number of k points=    20  Fermi-Dirac smearing, width (Ry)=  0.0110
                       cart. coord. in units 2pi/alat
        k(    1) = (   0.0000000   0.0000000   0.0000000), wk =   0.0555556
        k(    2) = (   0.0000000   0.0332928   0.0000000), wk =   0.1111111
        k(    3) = (   0.0000000   0.0665855   0.0000000), wk =   0.1111111
        k(    4) = (   0.0000000  -0.0998783   0.0000000), wk =   0.0555556
        k(    5) = (   0.0288324   0.0166464   0.0000000), wk =   0.1111111
        k(    6) = (   0.0288324   0.0499391   0.0000000), wk =   0.1111111
        k(    7) = (   0.0288324   0.0832319   0.0000000), wk =   0.1111111
        k(    8) = (   0.0288324  -0.0832319   0.0000000), wk =   0.1111111
        k(    9) = (   0.0288324  -0.0499391   0.0000000), wk =   0.1111111
        k(   10) = (   0.0288324  -0.0166464   0.0000000), wk =   0.1111111
        k(   11) = (   0.0576647   0.0332928   0.0000000), wk =   0.1111111
        k(   12) = (   0.0576647   0.0665855   0.0000000), wk =   0.1111111
        k(   13) = (   0.0576647   0.0998783   0.0000000), wk =   0.1111111
        k(   14) = (   0.0576647  -0.0665855   0.0000000), wk =   0.1111111
        k(   15) = (   0.0576647  -0.0332928   0.0000000), wk =   0.1111111
        k(   16) = (   0.0576647   0.0000000   0.0000000), wk =   0.1111111
        k(   17) = (  -0.0864971  -0.0499391   0.0000000), wk =   0.0555556
        k(   18) = (  -0.0864971  -0.0166464   0.0000000), wk =   0.1111111
        k(   19) = (  -0.0864971   0.0166464   0.0000000), wk =   0.1111111
        k(   20) = (  -0.0864971  -0.1498174   0.0000000), wk =   0.0555556

     Largest allocated arrays     est. size (Mb)     dimensions
     Largest temporary arrays     est. size (Mb)     dimensions

     Initial potential from superposition of free atoms
     Check: negative starting charge=   -0.574390

     starting charge  164.08874, renormalised to  165.00000

     negative rho (up, down):  5.776E-01 0.000E+00

     *
     * You are using vdW-DF for exchange-correlation in this calculation.
     * Please cite the following three references that made this development
     * possible:
     *
     *   M. Dion, H. Rydberg, E. Schroder, D. C. Langreth, and
     *   B. I. Lundqvist, Phys. Rev. Lett. 92, 246401 (2004).
     *
     *   T. Thonhauser, V. R. Cooper, S. Li, A. Puzder, P. Hyldgaard, and
     *   D. C. Langreth, Phys. Rev. B 76, 125112 (2007).
     *
     *   G. Roman-Perez and J. M. Soler, Phys. Rev. Lett. 103, 096102 (2009).
     *
     *
     * If you are using vdW-DF2, please also cite:
     *
     *   K. Lee, E. D. Murray, L. Kong, B. I. Lundqvist, and
     *   D. C. Langreth, Phys. Rev. B 82, 081101(R) (2010).
     *
     *
     * If you are calculating the stress with vdW-DF, please also cite:
     *
     *   R. Sabatini, E. Kucukbenli, B. Kolb, T. Thonhauser, and
     *   S. de Gironcoli, J. Phys.: Condens. Matter 24, 424209 (2012).
     *

     Carrying out vdW-DF run using the following parameters:

     Nqs =      20    Nr_points =    1024   r_max =   100.000
     q_mesh =
               0.00001000     0.04494208     0.09755937     0.15916263
               0.23128650     0.31572767     0.41458969     0.53033537
               0.66584808     0.82450364     1.01025438     1.22772762
               1.48234092     1.78043706     2.12944203     2.53805004
               3.01644009     3.57652955     4.23227104     5.00000000

     Gradients computed in reciprocal space

     Adding external electric field

     Computed dipole along edir(3) :
        Dipole               -0.0000 Ry au,         -0.0000 Debye
        Dipole field         -0.0000 Ry au

        Potential amp.        0.0000 Ry
        Total length         45.5458 bohr

     Starting wfc are  156 randomized atomic wfcs

     Self-consistent Calculation

     iteration #  1     ecut=    36.75 Ry     beta=0.10
     Davidson diagonalization with overlap
     ethr =  1.00E-02,  avg # of iterations =  2.0

[...]

     total energy              =   -1798.71673740 Ry
     Harris-Foulkes estimate   =   -1799.56368221 Ry
     estimated scf accuracy    <       4.94489859 Ry

[...]

     End of self-consistent calculation

          k = 0.0000 0.0000 0.0000 ( 18151 PWs)   bands (ev):

   -71.9973 -71.9507 -71.9507 -71.9179 -71.9127 -71.8756 -71.8756 -71.8743
   -71.8743 -52.6986 -52.6982 -52.6331 -36.5054 -36.3315 -36.3168 -36.3168
   -36.3029 -36.2607 -36.2220 -36.2220 -36.0914 -36.0914 -36.0900 -36.0118
   -36.0118 -35.9799 -35.9799 -35.9150 -35.8431 -35.8302 -35.8302 -35.7642
   -35.7642 -35.7475 -35.7101 -35.6382 -35.6382 -35.6343 -35.6343 -28.8128
   -28.7885 -28.6711 -28.6649 -28.6649 -28.6606 -28.6606 -28.6554 -28.6554
    -5.2815  -3.6463  -2.9620  -2.4501  -2.4501  -2.2433  -2.2433  -2.1970
    -1.7193  -1.4740  -1.4740  -1.4347  -1.4233  -1.4233  -1.2027  -0.0803
     0.0096   0.0096   1.0190   1.0837   1.0837   1.1194   1.4414   1.8688
     1.8688   1.8940   1.8940   1.9146   2.0880   2.1813   2.1813   2.2172
     2.3379   2.3379   2.4167   2.4167   2.8735   3.1443   3.1746   3.1746
     3.8406   4.0368   4.0368   4.1047   4.3154   4.3154   4.5857   4.5857
     4.9511   4.9511   5.0601   5.0601   5.3603   5.9384   6.1575   6.1575
     6.3322   6.3322   6.3686   6.5107   6.6042   6.6042   6.7029   6.9442

[...]

          k =-0.0865-0.0499 0.0000 ( 18156 PWs)   bands (ev):

[...]

     the Fermi energy is     2.2431 ev

!    total energy              =   -1799.01222249 Ry
     Harris-Foulkes estimate   =   -1799.01222289 Ry
     estimated scf accuracy    <       0.00000081 Ry

     The total energy is the sum of the following terms:

     one-electron contribution =  -13709.20269474 Ry
     hartree contribution      =    6839.55176853 Ry
     xc contribution           =    -439.59646488 Ry
     ewald contribution        =    5510.33949630 Ry
     electric field correction =       0.00000000 Ry
     smearing contrib. (-TS)   =      -0.10432770 Ry

     convergence has been achieved in  16 iterations

 BEEF-vdW xc energy contributions
           1 :   -385.389692418818
           2 :    355.831283005661
           3 :   -303.962574363833
           4 :    241.486419744331
           5 :   -180.498652653695
           6 :    129.842274887546
           7 :   -93.1927526111721
           8 :    69.2908383897756
           9 :   -53.8632120364840
          10 :    42.1508266212684
          11 :   -30.9224497931444
          12 :    19.2682635875425
[...]
     MD5 check sum: 9c083fa34c2a2ea0f02f1f893e16e1c8
     Pseudo is Ultrasoft + core correction, Zval = 14.0
     Generated by new atomic code, or converted to UPF format
     Using radial grid of  923 points,  8 beta functions with:
                l(1) =   0
                l(2) =   0
                l(3) =   0
                l(4) =   1
                l(5) =   1
                l(6) =   2
                l(7) =   2
                l(8) =   3
     Q(r) pseudized with  6 coefficients,  rinner =    1.350   1.350   1.350
                                                       1.350   1.350   1.350
                                                       1.350

     PseudoPot. # 2 for Nb read from file:
     /afs/slac.stanford.edu/u/if/mamunm/psp/gbrv1.5pbe/Nb.UPF
     MD5 check sum: 573aab8a2fa660278ed4a62cd769473f
     Pseudo is Ultrasoft + core correction, Zval = 13.0
     Generated by new atomic code, or converted to UPF format
     Using radial grid of  887 points,  6 beta functions with:
                l(1) =   0
                l(2) =   0
                l(3) =   1
                l(4) =   1
                l(5) =   2
                l(6) =   2
     Q(r) pseudized with  6 coefficients,  rinner =    1.000   1.000   1.000
                                                       1.000   1.000

     vdW kernel table read from file vdW_kernel_table
     MD5 check sum: 095c7af220d748ca6e76c0b4c6cfb241

     atomic species   valence    mass     pseudopotential
        W1            14.00   183.84000     W ( 1.00)
        Nb1           13.00    92.90637     Nb( 1.00)

     No symmetry found

   Cartesian axes

     site n.     atom                  positions (alat units)
         1           W1  tau(   1) = (   0.0000000   0.0000000  10.0000000  )
         2           W1  tau(   2) = (  -1.4451350   2.5030473  10.0000000  )
         3           W1  tau(   3) = (   1.4451350   2.5030473  10.0000000  )
         4           Nb1 tau(   4) = (   2.8902700   0.0000000  10.0000000  )
         5           W1  tau(   5) = (   2.8902700   1.6686982  12.3598956  )
         6           W1  tau(   6) = (   1.4451350   4.1717455  12.3598956  )
         7           W1  tau(   7) = (  -1.4451350   4.1717455  12.3598956  )
         8           Nb1 tau(   8) = (   0.0000000   1.6686982  12.3598956  )
         9           W1  tau(   9) = (  -0.0000003   3.3833474  14.6723487  )
        10           W1  tau(  10) = (   1.4849285   0.8113675  14.6723460  )
        11           W1  tau(  11) = (   4.2956055   0.8113772  14.6723491  )
        12           Nb1 tau(  12) = (   2.8902623   3.3374002  14.9049765  )

     number of k points=    20  Fermi-Dirac smearing, width (Ry)=  0.0110
                       cart. coord. in units 2pi/alat
        k(    1) = (   0.0000000   0.0000000   0.0000000), wk =   0.0555556
        k(    2) = (   0.0000000   0.0332928   0.0000000), wk =   0.1111111
        k(    3) = (   0.0000000   0.0665855   0.0000000), wk =   0.1111111
        k(    4) = (   0.0000000  -0.0998783   0.0000000), wk =   0.0555556
        k(    5) = (   0.0288324   0.0166464   0.0000000), wk =   0.1111111
        k(    6) = (   0.0288324   0.0499391   0.0000000), wk =   0.1111111
        k(    7) = (   0.0288324   0.0832319   0.0000000), wk =   0.1111111
        k(    8) = (   0.0288324  -0.0832319   0.0000000), wk =   0.1111111
        k(    9) = (   0.0288324  -0.0499391   0.0000000), wk =   0.1111111
        k(   10) = (   0.0288324  -0.0166464   0.0000000), wk =   0.1111111
        k(   11) = (   0.0576647   0.0332928   0.0000000), wk =   0.1111111
        k(   12) = (   0.0576647   0.0665855   0.0000000), wk =   0.1111111
        k(   13) = (   0.0576647   0.0998783   0.0000000), wk =   0.1111111
        k(   14) = (   0.0576647  -0.0665855   0.0000000), wk =   0.1111111
        k(   15) = (   0.0576647  -0.0332928   0.0000000), wk =   0.1111111
        k(   16) = (   0.0576647   0.0000000   0.0000000), wk =   0.1111111
        k(   17) = (  -0.0864971  -0.0499391   0.0000000), wk =   0.0555556
        k(   18) = (  -0.0864971  -0.0166464   0.0000000), wk =   0.1111111
        k(   19) = (  -0.0864971   0.0166464   0.0000000), wk =   0.1111111
        k(   20) = (  -0.0864971  -0.1498174   0.0000000), wk =   0.0555556

     Largest allocated arrays     est. size (Mb)     dimensions
     Largest temporary arrays     est. size (Mb)     dimensions

     Initial potential from superposition of free atoms
     Check: negative starting charge=   -0.570742

     starting charge  164.08874, renormalised to  165.00000

[...]

     *
     * You are using vdW-DF for exchange-correlation in this calculation.
     * Please cite the following three references that made this development
     * possible:
     *
     *   M. Dion, H. Rydberg, E. Schroder, D. C. Langreth, and
     *   B. I. Lundqvist, Phys. Rev. Lett. 92, 246401 (2004).
     *
     *   T. Thonhauser, V. R. Cooper, S. Li, A. Puzder, P. Hyldgaard, and
     *   D. C. Langreth, Phys. Rev. B 76, 125112 (2007).
     *
     *   G. Roman-Perez and J. M. Soler, Phys. Rev. Lett. 103, 096102 (2009).
     *
     *
     * If you are using vdW-DF2, please also cite:
     *
     *   K. Lee, E. D. Murray, L. Kong, B. I. Lundqvist, and
     *   D. C. Langreth, Phys. Rev. B 82, 081101(R) (2010).
     *
     *
     * If you are calculating the stress with vdW-DF, please also cite:
     *
     *   R. Sabatini, E. Kucukbenli, B. Kolb, T. Thonhauser, and
     *   S. de Gironcoli, J. Phys.: Condens. Matter 24, 424209 (2012).
     *

     Carrying out vdW-DF run using the following parameters:

     Nqs =      20    Nr_points =    1024   r_max =   100.000
     q_mesh =
               0.00001000     0.04494208     0.09755937     0.15916263
               0.23128650     0.31572767     0.41458969     0.53033537
               0.66584808     0.82450364     1.01025438     1.22772762
               1.48234092     1.78043706     2.12944203     2.53805004
               3.01644009     3.57652955     4.23227104     5.00000000

     Gradients computed in reciprocal space

[...]

     Starting wfc are  156 randomized atomic wfcs

     Self-consistent Calculation

[...]

     total energy              =   -1799.02703501 Ry
     Harris-Foulkes estimate   =   -1799.02703492 Ry
     estimated scf accuracy    <       0.00000114 Ry

     iteration # 17     ecut=    36.75 Ry     beta=0.10
     Davidson diagonalization with overlap
     ethr =  6.93E-10,  avg # of iterations =  2.0

[...]

     negative rho (up, down):  5.938E-01 0.000E+00

     Adding external electric field

     Computed dipole along edir(3) :
        Dipole                0.0389 Ry au,          0.0990 Debye
        Dipole field          0.0001 Ry au

        Potential amp.       -0.0092 Ry
        Total length         45.5458 bohr

     End of self-consistent calculation

[...]

          k = 0.0577 0.0000 0.0000 ( 18169 PWs)   bands (ev):

[...]

          k =-0.0865-0.1498 0.0000 ( 18156 PWs)   bands (ev):

   -71.9443 -71.9294 -71.9132 -71.8517 -71.8411 -71.8378 -71.8246 -71.8219
   -71.8098 -52.8298 -52.6476 -52.5745 -36.3532 -36.2759 -36.2187 -36.1694
   -36.1346 -36.1231 -36.1169 -36.0885 -36.0475 -36.0231 -35.9817 -35.9630
   -35.9069 -35.9024 -35.8753 -35.8707 -35.8624 -35.8600 -35.8269 -35.8121
   -35.7926 -35.7596 -35.7402 -35.7321 -35.7097 -35.6087 -35.6023 -28.9706
   -28.7815 -28.7590 -28.7484 -28.6482 -28.6360 -28.6238 -28.6153 -28.6112
    -3.5754  -3.3155  -2.0608  -1.9327  -1.4587  -1.3716  -1.2664  -1.1927
    -1.1902  -0.8885  -0.4436  -0.4104  -0.2237  -0.1663  -0.0153   0.0265
     0.2227   0.3602   0.4624   0.5228   0.6083   0.6662   0.9545   1.1785
     1.1810   1.3025   1.3385   1.3959   1.4682   1.4823   1.6425   1.6452
     1.6828   1.9480   2.0330   2.0549   2.1639   2.4018   2.7610   2.8073
     3.1168   3.3062   3.4619   3.5234   3.5809   3.6812   3.8337   3.8923
     4.0276   4.2221   4.3354   4.3593   4.4511   4.5640   4.7016   4.8046
     5.2186   5.3468   5.4106   5.4682   6.1034   6.3504   6.5777   6.6834

     the Fermi energy is     2.2928 ev

!    total energy              =   -1799.02703479 Ry
     Harris-Foulkes estimate   =   -1799.02703458 Ry
     estimated scf accuracy    <       0.00000049 Ry

     The total energy is the sum of the following terms:

     one-electron contribution =  -13692.79036490 Ry
     hartree contribution      =    6831.56310403 Ry
     xc contribution           =    -439.60046795 Ry
     ewald contribution        =    5501.90203473 Ry
     electric field correction =       0.00000395 Ry
     smearing contrib. (-TS)   =      -0.10134465 Ry

     convergence has been achieved in  17 iterations

 BEEF-vdW xc energy contributions
           1 :   -385.595353836116
           2 :    356.032458212057
           3 :   -304.160678914919
           4 :    241.687707896703
           5 :   -180.706608766252
           6 :    130.050575014329
           7 :   -93.3880959477848
           8 :    69.4630907249807
           9 :   -54.0124922027090
          10 :    42.2857190722797
          11 :   -31.0535016439301
          12 :    19.4030679583369
          13 :   -8.28791359086836
          14 :  -0.663685537195192
          15 :    6.34917060481985
          16 :   -8.83224926652167
          17 :    9.22869112963917
          18 :   -9.04892042040547
          19 :    9.42552271153897
          20 :   -10.6446390739933
          21 :    12.1775899084088
          22 :   -13.1335841187985
          23 :    12.8451982209425
          24 :   -11.2670794113658
          25 :    8.99268073287772
          26 :   -6.91641093978751
          27 :    5.74991519531409
          28 :   -5.66616230892214
          29 :    6.25333570499595
          30 :   -6.78510320487675
          31 :   -36.0478900889078
          32 :   -27.0343873850624

     Forces acting on atoms (Ry/au):

     negative rho (up, down):  5.938E-01 0.000E+00
     atom    1 type  1   force =     0.00000001   -0.01316506    0.00399121
     atom    2 type  1   force =    -0.01140121    0.00658327    0.00399164
     atom    3 type  1   force =     0.01140084    0.00658212    0.00399086
     atom    4 type  2   force =    -0.00000001   -0.00000015   -0.03408225
     atom    5 type  1   force =     0.00000086    0.01630189    0.01020731
     atom    6 type  1   force =     0.01411876   -0.00815030    0.01020791
     atom    7 type  1   force =    -0.01411834   -0.00815151    0.01020786
     atom    8 type  2   force =     0.00000000    0.00000022   -0.00636574
     atom    9 type  1   force =    -0.00000023    0.00063563   -0.00043840
     atom   10 type  1   force =     0.00055109   -0.00031851   -0.00043735
     atom   11 type  1   force =    -0.00055238   -0.00031679   -0.00043774
     atom   12 type  2   force =     0.00000062   -0.00000081   -0.00083532

     Total force =     0.053686     Total SCF correction =     0.002251

     entering subroutine stress ...

     negative rho (up, down):  5.938E-01 0.000E+00
          total   stress  (Ry/bohr**3)                   (kbar)     P=  -44.45
  -0.00043233   0.00000000  -0.00000000        -63.60      0.00     -0.00
   0.00000000  -0.00043233  -0.00000000          0.00    -63.60     -0.00
  -0.00000000  -0.00000000  -0.00004178         -0.00     -0.00     -6.15

 !ASE

     Writing output data file calc.save

     General routines

     Parallel routines

   This run was terminated on:  10:18:10   2Jan2019

   JOB DONE.
Job  /afs/slac/g/suncat/bin/suncat-tsmpirun -x LD_LIBRARY_PATH -wdir /scratch/qe649365_Vp31U pw.x -in pw.inp

TID   HOST_NAME   COMMAND_LINE            STATUS            TERMINATION_TIME
00000 suncat0031 pw.x -in pw.inp   Done                     01/02/2019 10:18:10
00001 suncat0031 pw.x -in pw.inp   Done                     01/02/2019 10:18:10
00002 suncat0031 pw.x -in pw.inp   Done                     01/02/2019 10:18:10
00003 suncat0031 pw.x -in pw.inp   Done                     01/02/2019 10:18:10
00004 suncat0031 pw.x -in pw.inp   Done                     01/02/2019 10:18:10
00005 suncat0031 pw.x -in pw.inp   Done                     01/02/2019 10:18:11
00006 suncat0031 pw.x -in pw.inp   Done                     01/02/2019 10:18:10
00007 suncat0031 pw.x -in pw.inp   Done                     01/02/2019 10:18:10
00008 suncat0030 pw.x -in pw.inp   Done                     01/02/2019 10:18:10
00009 suncat0030 pw.x -in pw.inp   Done                     01/02/2019 10:18:10
00010 suncat0030 pw.x -in pw.inp   Done                     01/02/2019 10:18:10
00011 suncat0030 pw.x -in pw.inp   Done                     01/02/2019 10:18:10
00012 suncat0030 pw.x -in pw.inp   Done                     01/02/2019 10:18:10
00013 suncat0030 pw.x -in pw.inp   Done                     01/02/2019 10:18:10
00014 suncat0030 pw.x -in pw.inp   Done                     01/02/2019 10:18:10
00015 suncat0030 pw.x -in pw.inp   Done                     01/02/2019 10:18:10
00016 suncat0192 pw.x -in pw.inp   Done                     01/02/2019 10:18:11
00017 suncat0192 pw.x -in pw.inp   Done                     01/02/2019 10:18:11
00018 suncat0192 pw.x -in pw.inp   Done                     01/02/2019 10:18:11
00019 suncat0192 pw.x -in pw.inp   Done                     01/02/2019 10:18:11
00020 suncat0192 pw.x -in pw.inp   Done                     01/02/2019 10:18:11
00021 suncat0192 pw.x -in pw.inp   Done                     01/02/2019 10:18:11
00022 suncat0192 pw.x -in pw.inp   Done                     01/02/2019 10:18:11
00023 suncat0192 pw.x -in pw.inp   Done                     01/02/2019 10:18:11
00024 suncat0185 pw.x -in pw.inp   Done                     01/02/2019 10:18:10
00025 suncat0185 pw.x -in pw.inp   Done                     01/02/2019 10:18:10
00026 suncat0185 pw.x -in pw.inp   Done                     01/02/2019 10:18:10
00027 suncat0185 pw.x -in pw.inp   Done                     01/02/2019 10:18:10
00028 suncat0185 pw.x -in pw.inp   Done                     01/02/2019 10:18:10
00029 suncat0185 pw.x -in pw.inp   Done                     01/02/2019 10:18:10
00030 suncat0185 pw.x -in pw.inp   Done                     01/02/2019 10:18:10
00031 suncat0185 pw.x -in pw.inp   Done                     01/02/2019 10:18:10
00032 suncat0184 pw.x -in pw.inp   Done                     01/02/2019 10:18:10
00033 suncat0184 pw.x -in pw.inp   Done                     01/02/2019 10:18:10
00034 suncat0184 pw.x -in pw.inp   Done                     01/02/2019 10:18:10
00035 suncat0184 pw.x -in pw.inp   Done                     01/02/2019 10:18:10
00036 suncat0184 pw.x -in pw.inp   Done                     01/02/2019 10:18:10
00037 suncat0184 pw.x -in pw.inp   Done                     01/02/2019 10:18:10
00038 suncat0184 pw.x -in pw.inp   Done                     01/02/2019 10:18:10
00039 suncat0184 pw.x -in pw.inp   Done                     01/02/2019 10:18:10
00040 suncat0183 pw.x -in pw.inp   Done                     01/02/2019 10:18:10
00041 suncat0183 pw.x -in pw.inp   Done                     01/02/2019 10:18:10
00042 suncat0183 pw.x -in pw.inp   Done                     01/02/2019 10:18:10
00043 suncat0183 pw.x -in pw.inp   Done                     01/02/2019 10:18:10
00044 suncat0183 pw.x -in pw.inp   Done                     01/02/2019 10:18:10
00045 suncat0183 pw.x -in pw.inp   Done                     01/02/2019 10:18:10
00046 suncat0183 pw.x -in pw.inp   Done                     01/02/2019 10:18:10
00047 suncat0183 pw.x -in pw.inp   Done                     01/02/2019 10:18:10
00048 suncat0172 pw.x -in pw.inp   Done                     01/02/2019 10:18:10
00049 suncat0172 pw.x -in pw.inp   Done                     01/02/2019 10:18:10
00050 suncat0172 pw.x -in pw.inp   Done                     01/02/2019 10:18:10
00051 suncat0172 pw.x -in pw.inp   Done                     01/02/2019 10:18:10
00052 suncat0172 pw.x -in pw.inp   Done                     01/02/2019 10:18:10
00053 suncat0172 pw.x -in pw.inp   Done                     01/02/2019 10:18:10
00054 suncat0172 pw.x -in pw.inp   Done                     01/02/2019 10:18:10
00055 suncat0172 pw.x -in pw.inp   Done                     01/02/2019 10:18:10
00056 suncat0171 pw.x -in pw.inp   Done                     01/02/2019 10:18:10
00057 suncat0171 pw.x -in pw.inp   Done                     01/02/2019 10:18:10
00058 suncat0171 pw.x -in pw.inp   Done                     01/02/2019 10:18:11
00059 suncat0171 pw.x -in pw.inp   Done                     01/02/2019 10:18:10
00060 suncat0171 pw.x -in pw.inp   Done                     01/02/2019 10:18:10
00061 suncat0171 pw.x -in pw.inp   Done                     01/02/2019 10:18:10
00062 suncat0171 pw.x -in pw.inp   Done                     01/02/2019 10:18:10
00063 suncat0171 pw.x -in pw.inp   Done                     01/02/2019 10:18:10