     Program PWSCF v.5.1rc2 (svn rev. 11289) starts on 27Dec2018 at  5: 3:52

     Current dimensions of program PWSCF are:
     Max number of different atomic species (ntypx) = 10
     Max number of k-points (npk) =  40000
     Max angular momentum in pseudopotentials (lmaxx) =  3
     Presently stress not available with electric field

     IMPORTANT: XC functional enforced from input :
     Exchange-correlation      = BEEF-VDW ( 1  4 27 13 2)
     Any further DFT definition will be discarded
     Please, verify this is what you really want

     Subspace diagonalization in iterative solution of the eigenvalue problem:
     a serial algorithm will be used

     bravais-lattice index     =            0
     lattice parameter (alat)  =       1.8897  a.u.
     unit-cell volume          =    4657.0648 (a.u.)^3
     number of atoms/cell      =           12
     number of atomic types    =            2
     number of electrons       =       168.00
     number of Kohn-Sham states=          114
     kinetic-energy cutoff     =      36.7493  Ry
     charge density cutoff     =     367.4932  Ry
     convergence threshold     =      1.0E-06
     mixing beta               =       0.1000
     number of iterations used =           10  plain     mixing
     Exchange-correlation      = BEEF-VDW ( 1  4 27 13 2)
     nstep                     =           50

     celldm(1)=   1.889726  celldm(2)=   0.000000  celldm(3)=   0.000000
     celldm(4)=   0.000000  celldm(5)=   0.000000  celldm(6)=   0.000000

     crystal axes: (cart. coord. in units of alat)
               a(1) = (   5.686507   0.000000   0.000000 )
               a(2) = (  -2.843254   4.924660   0.000000 )
               a(3) = (   0.000000   0.000000  24.643014 )

     reciprocal axes: (cart. coord. in units 2 pi/alat)
               b(1) = (  0.175855  0.101530  0.000000 )
               b(2) = (  0.000000  0.203060  0.000000 )
               b(3) = (  0.000000  0.000000  0.040579 )

     PseudoPot. # 1 for Mo read from file:
     /afs/slac.stanford.edu/u/if/mamunm/psp/gbrv1.5pbe/Mo.UPF
     MD5 check sum: 30c4dcd161f5d35cd49bb5239c51a633
     Pseudo is Ultrasoft + core correction, Zval = 14.0
     Generated by new atomic code, or converted to UPF format
     Using radial grid of  889 points,  6 beta functions with:
                l(1) =   0
                l(2) =   0
                l(3) =   1
                l(4) =   1
                l(5) =   2
                l(6) =   2
     Q(r) pseudized with  6 coefficients,  rinner =    1.000   1.000   1.000
                                                       1.000   1.000

     PseudoPot. # 2 for W  read from file:
     /afs/slac.stanford.edu/u/if/mamunm/psp/gbrv1.5pbe/W.UPF
     MD5 check sum: 9c083fa34c2a2ea0f02f1f893e16e1c8
     Pseudo is Ultrasoft + core correction, Zval = 14.0
     Generated by new atomic code, or converted to UPF format
     Using radial grid of  923 points,  8 beta functions with:
                l(1) =   0
                l(2) =   0
                l(3) =   0
                l(4) =   1
                l(5) =   1
                l(6) =   2
                l(7) =   2
                l(8) =   3
     Q(r) pseudized with  6 coefficients,  rinner =    1.350   1.350   1.350
                                                       1.350   1.350   1.350
                                                       1.350

     vdW kernel table read from file vdW_kernel_table
     MD5 check sum: 095c7af220d748ca6e76c0b4c6cfb241

     atomic species   valence    mass     pseudopotential
        Mo1           14.00    95.95000     Mo( 1.00)
        W1            14.00   183.84000     W ( 1.00)

     No symmetry found

   Cartesian axes

     site n.     atom                  positions (alat units)
         1           Mo1 tau(   1) = (   0.0000000   0.0000000  10.0000000  )
         2           Mo1 tau(   2) = (  -1.4216269   2.4623300  10.0000000  )
         3           Mo1 tau(   3) = (   1.4216269   2.4623300  10.0000000  )
         4           W1  tau(   4) = (   2.8432537   0.0000000  10.0000000  )
         5           Mo1 tau(   5) = (   2.8432537   1.6415533  12.3215070  )
         6           Mo1 tau(   6) = (   1.4216269   4.1038833  12.3215070  )
         7           Mo1 tau(   7) = (  -1.4216269   4.1038833  12.3215070  )
         8           W1  tau(   8) = (   0.0000000   1.6415533  12.3215070  )
         9           Mo1 tau(   9) = (  -0.0000000   3.2831066  14.6430139  )
        10           Mo1 tau(  10) = (   1.4216269   0.8207767  14.6430139  )
        11           Mo1 tau(  11) = (   4.2648806   0.8207767  14.6430139  )
        12           W1  tau(  12) = (   2.8432537   3.2831066  14.6430139  )

     number of k points=    20  Fermi-Dirac smearing, width (Ry)=  0.0110
                       cart. coord. in units 2pi/alat
        k(    1) = (   0.0000000   0.0000000   0.0000000), wk =   0.0555556
        k(    2) = (   0.0000000   0.0338433   0.0000000), wk =   0.1111111
        k(    3) = (   0.0000000   0.0676866   0.0000000), wk =   0.1111111
        k(    4) = (   0.0000000  -0.1015299   0.0000000), wk =   0.0555556
        k(    5) = (   0.0293091   0.0169216   0.0000000), wk =   0.1111111
        k(    6) = (   0.0293091   0.0507649   0.0000000), wk =   0.1111111
        k(    7) = (   0.0293091   0.0846082   0.0000000), wk =   0.1111111
        k(    8) = (   0.0293091  -0.0846082   0.0000000), wk =   0.1111111
        k(    9) = (   0.0293091  -0.0507649   0.0000000), wk =   0.1111111
        k(   10) = (   0.0293091  -0.0169216   0.0000000), wk =   0.1111111
        k(   11) = (   0.0586183   0.0338433   0.0000000), wk =   0.1111111
        k(   12) = (   0.0586183   0.0676866   0.0000000), wk =   0.1111111
        k(   13) = (   0.0586183   0.1015299   0.0000000), wk =   0.1111111
        k(   14) = (   0.0586183  -0.0676866   0.0000000), wk =   0.1111111
        k(   15) = (   0.0586183  -0.0338433   0.0000000), wk =   0.1111111
        k(   16) = (   0.0586183   0.0000000   0.0000000), wk =   0.1111111
        k(   17) = (  -0.0879274  -0.0507649   0.0000000), wk =   0.0555556
        k(   18) = (  -0.0879274  -0.0169216   0.0000000), wk =   0.1111111
        k(   19) = (  -0.0879274   0.0169216   0.0000000), wk =   0.1111111
        k(   20) = (  -0.0879274  -0.1522948   0.0000000), wk =   0.0555556

     Largest allocated arrays     est. size (Mb)     dimensions
     Largest temporary arrays     est. size (Mb)     dimensions

     Initial potential from superposition of free atoms
     Check: negative starting charge=   -0.194112

     starting charge  167.68941, renormalised to  168.00000

     negative rho (up, down):  1.945E-01 0.000E+00

     *
     * You are using vdW-DF for exchange-correlation in this calculation.
     * Please cite the following three references that made this development
     * possible:
     *
     *   M. Dion, H. Rydberg, E. Schroder, D. C. Langreth, and
     *   B. I. Lundqvist, Phys. Rev. Lett. 92, 246401 (2004).
     *
     *   T. Thonhauser, V. R. Cooper, S. Li, A. Puzder, P. Hyldgaard, and
     *   D. C. Langreth, Phys. Rev. B 76, 125112 (2007).
     *
     *   G. Roman-Perez and J. M. Soler, Phys. Rev. Lett. 103, 096102 (2009).
     *
     *
     * If you are using vdW-DF2, please also cite:
     *
     *   K. Lee, E. D. Murray, L. Kong, B. I. Lundqvist, and
     *   D. C. Langreth, Phys. Rev. B 82, 081101(R) (2010).
     *
     *
     * If you are calculating the stress with vdW-DF, please also cite:
     *
     *   R. Sabatini, E. Kucukbenli, B. Kolb, T. Thonhauser, and
     *   S. de Gironcoli, J. Phys.: Condens. Matter 24, 424209 (2012).
     *

     Carrying out vdW-DF run using the following parameters:

     Nqs =      20    Nr_points =    1024   r_max =   100.000
     q_mesh =
               0.00001000     0.04494208     0.09755937     0.15916263
               0.23128650     0.31572767     0.41458969     0.53033537
               0.66584808     0.82450364     1.01025438     1.22772762
               1.48234092     1.78043706     2.12944203     2.53805004
               3.01644009     3.57652955     4.23227104     5.00000000

     Gradients computed in reciprocal space

     Adding external electric field

     Computed dipole along edir(3) :
        Dipole               -0.0000 Ry au,         -0.0000 Debye
        Dipole field         -0.0000 Ry au

        Potential amp.        0.0000 Ry
        Total length         45.4043 bohr

     Starting wfc are  156 randomized atomic wfcs

     Self-consistent Calculation

     iteration #  1     ecut=    36.75 Ry     beta=0.10
     Davidson diagonalization with overlap
     ethr =  1.00E-02,  avg # of iterations =  2.0

[...]

     total energy              =   -1739.98398953 Ry
     Harris-Foulkes estimate   =   -1741.15016505 Ry
     estimated scf accuracy    <       6.55600783 Ry

[...]

     End of self-consistent calculation

          k = 0.0000 0.0000 0.0000 ( 17603 PWs)   bands (ev):

   -71.9399 -71.9397 -71.9314 -58.7785 -58.6870 -58.6611 -58.6583 -58.6583
   -58.5854 -58.5854 -58.5777 -58.5776 -36.1192 -36.0919 -36.0731 -36.0731
   -36.0412 -36.0145 -36.0145 -36.0094 -36.0094 -33.2963 -33.1120 -33.0928
   -33.0019 -33.0019 -32.9651 -32.9028 -32.9028 -32.7860 -32.7799 -32.7799
   -32.6833 -32.6833 -32.6561 -32.6561 -32.5706 -32.4691 -32.4623 -32.4623
   -32.4049 -32.3655 -32.3655 -32.3485 -32.2739 -32.2739 -32.2652 -32.2652
    -4.3645  -2.9224  -2.6688  -2.2381  -2.2381  -2.2239  -1.9764  -1.7823
    -1.7823  -1.5370  -1.5370  -1.5276  -1.3748  -1.2907  -1.2907  -0.1248
    -0.1248  -0.0966   0.8916   0.8916   0.8956   0.9306   1.1921   1.5716
     1.5716   1.8578   1.8578   1.8984   1.9705   1.9705   2.0350   2.0647
     2.0690   2.0690   2.0922   2.0922   3.1410   3.1495   3.1495   3.3054
     3.4720   3.6041   3.6041   4.0793   4.0793   4.5289   4.5289   4.5747
     4.5747   4.7559   4.7809   4.7809   4.8938   5.2698   5.6246   5.6246
     5.7014   5.7014   6.0848   6.2670   6.2783   6.3973   6.4945   6.4946
     6.6702   6.6704

[...]

          k =-0.0879-0.0508 0.0000 ( 17472 PWs)   bands (ev):

[...]

     the Fermi energy is     2.2209 ev

!    total energy              =   -1740.56170798 Ry
     Harris-Foulkes estimate   =   -1740.56378221 Ry
     estimated scf accuracy    <       0.00000082 Ry

     The total energy is the sum of the following terms:

     one-electron contribution =  -14800.05424159 Ry
     hartree contribution      =    7390.64814330 Ry
     xc contribution           =    -307.34740120 Ry
     ewald contribution        =    5976.29530487 Ry
     electric field correction =       0.00000001 Ry
     smearing contrib. (-TS)   =      -0.10351336 Ry

     convergence has been achieved in  15 iterations

 BEEF-vdW xc energy contributions
           1 :   -266.587844435851
           2 :    244.815139839590
           3 :   -207.108783247273
           4 :    162.802198939083
           5 :   -121.391019435951
           6 :    89.5493342771903
           7 :   -69.6116137127563
           8 :    59.8312404798559
           9 :   -56.0319317630028
          10 :    53.7494868588839
          11 :   -49.9636102272219
[...]
     Generated by new atomic code, or converted to UPF format
     Using radial grid of  889 points,  6 beta functions with:
                l(1) =   0
                l(2) =   0
                l(3) =   1
                l(4) =   1
                l(5) =   2
                l(6) =   2
     Q(r) pseudized with  6 coefficients,  rinner =    1.000   1.000   1.000
                                                       1.000   1.000

     PseudoPot. # 2 for W  read from file:
     /afs/slac.stanford.edu/u/if/mamunm/psp/gbrv1.5pbe/W.UPF
     MD5 check sum: 9c083fa34c2a2ea0f02f1f893e16e1c8
     Pseudo is Ultrasoft + core correction, Zval = 14.0
     Generated by new atomic code, or converted to UPF format
     Using radial grid of  923 points,  8 beta functions with:
                l(1) =   0
                l(2) =   0
                l(3) =   0
                l(4) =   1
                l(5) =   1
                l(6) =   2
                l(7) =   2
                l(8) =   3
     Q(r) pseudized with  6 coefficients,  rinner =    1.350   1.350   1.350
                                                       1.350   1.350   1.350
                                                       1.350

     vdW kernel table read from file vdW_kernel_table
     MD5 check sum: 095c7af220d748ca6e76c0b4c6cfb241

     atomic species   valence    mass     pseudopotential
        Mo1           14.00    95.95000     Mo( 1.00)
        W1            14.00   183.84000     W ( 1.00)

     No symmetry found

   Cartesian axes

     site n.     atom                  positions (alat units)
         1           Mo1 tau(   1) = (   0.0000000   0.0000000  10.0000000  )
         2           Mo1 tau(   2) = (  -1.4216269   2.4623300  10.0000000  )
         3           Mo1 tau(   3) = (   1.4216269   2.4623300  10.0000000  )
         4           W1  tau(   4) = (   2.8432537   0.0000000  10.0000000  )
         5           Mo1 tau(   5) = (   2.8432537   1.6415533  12.3215070  )
         6           Mo1 tau(   6) = (   1.4216269   4.1038833  12.3215070  )
         7           Mo1 tau(   7) = (  -1.4216269   4.1038833  12.3215070  )
         8           W1  tau(   8) = (   0.0000000   1.6415533  12.3215070  )
         9           Mo1 tau(   9) = (  -0.0000091   3.2786157  14.6358504  )
        10           Mo1 tau(  10) = (   1.4177382   0.8230132  14.6358454  )
        11           Mo1 tau(  11) = (   4.2687651   0.8230173  14.6358423  )
        12           W1  tau(  12) = (   2.8432449   3.2830919  14.5873897  )

     number of k points=    20  Fermi-Dirac smearing, width (Ry)=  0.0110
                       cart. coord. in units 2pi/alat
        k(    1) = (   0.0000000   0.0000000   0.0000000), wk =   0.0555556
        k(    2) = (   0.0000000   0.0338433   0.0000000), wk =   0.1111111
        k(    3) = (   0.0000000   0.0676866   0.0000000), wk =   0.1111111
        k(    4) = (   0.0000000  -0.1015299   0.0000000), wk =   0.0555556
        k(    5) = (   0.0293091   0.0169216   0.0000000), wk =   0.1111111
        k(    6) = (   0.0293091   0.0507649   0.0000000), wk =   0.1111111
        k(    7) = (   0.0293091   0.0846082   0.0000000), wk =   0.1111111
        k(    8) = (   0.0293091  -0.0846082   0.0000000), wk =   0.1111111
        k(    9) = (   0.0293091  -0.0507649   0.0000000), wk =   0.1111111
        k(   10) = (   0.0293091  -0.0169216   0.0000000), wk =   0.1111111
        k(   11) = (   0.0586183   0.0338433   0.0000000), wk =   0.1111111
        k(   12) = (   0.0586183   0.0676866   0.0000000), wk =   0.1111111
        k(   13) = (   0.0586183   0.1015299   0.0000000), wk =   0.1111111
        k(   14) = (   0.0586183  -0.0676866   0.0000000), wk =   0.1111111
        k(   15) = (   0.0586183  -0.0338433   0.0000000), wk =   0.1111111
        k(   16) = (   0.0586183   0.0000000   0.0000000), wk =   0.1111111
        k(   17) = (  -0.0879274  -0.0507649   0.0000000), wk =   0.0555556
        k(   18) = (  -0.0879274  -0.0169216   0.0000000), wk =   0.1111111
        k(   19) = (  -0.0879274   0.0169216   0.0000000), wk =   0.1111111
        k(   20) = (  -0.0879274  -0.1522948   0.0000000), wk =   0.0555556

     Largest allocated arrays     est. size (Mb)     dimensions
     Largest temporary arrays     est. size (Mb)     dimensions

     Initial potential from superposition of free atoms
     Check: negative starting charge=   -0.193565

     starting charge  167.68941, renormalised to  168.00000

[...]

     *
     * You are using vdW-DF for exchange-correlation in this calculation.
     * Please cite the following three references that made this development
     * possible:
     *
     *   M. Dion, H. Rydberg, E. Schroder, D. C. Langreth, and
     *   B. I. Lundqvist, Phys. Rev. Lett. 92, 246401 (2004).
     *
     *   T. Thonhauser, V. R. Cooper, S. Li, A. Puzder, P. Hyldgaard, and
     *   D. C. Langreth, Phys. Rev. B 76, 125112 (2007).
     *
     *   G. Roman-Perez and J. M. Soler, Phys. Rev. Lett. 103, 096102 (2009).
     *
     *
     * If you are using vdW-DF2, please also cite:
     *
     *   K. Lee, E. D. Murray, L. Kong, B. I. Lundqvist, and
     *   D. C. Langreth, Phys. Rev. B 82, 081101(R) (2010).
     *
     *
     * If you are calculating the stress with vdW-DF, please also cite:
     *
     *   R. Sabatini, E. Kucukbenli, B. Kolb, T. Thonhauser, and
     *   S. de Gironcoli, J. Phys.: Condens. Matter 24, 424209 (2012).
     *

     Carrying out vdW-DF run using the following parameters:

     Nqs =      20    Nr_points =    1024   r_max =   100.000
     q_mesh =
               0.00001000     0.04494208     0.09755937     0.15916263
               0.23128650     0.31572767     0.41458969     0.53033537
               0.66584808     0.82450364     1.01025438     1.22772762
               1.48234092     1.78043706     2.12944203     2.53805004
               3.01644009     3.57652955     4.23227104     5.00000000

     Gradients computed in reciprocal space

[...]

     Starting wfc are  156 randomized atomic wfcs

     Self-consistent Calculation

[...]

     total energy              =   -1740.56544648 Ry
     Harris-Foulkes estimate   =   -1740.56544556 Ry
     estimated scf accuracy    <       0.00000203 Ry

     iteration # 15     ecut=    36.75 Ry     beta=0.10
     Davidson diagonalization with overlap
     ethr =  1.21E-09,  avg # of iterations =  2.1

[...]

     negative rho (up, down):  2.013E-01 0.000E+00

     Adding external electric field

     Computed dipole along edir(3) :
        Dipole                0.0080 Ry au,          0.0204 Debye
        Dipole field          0.0000 Ry au

        Potential amp.       -0.0020 Ry
        Total length         45.4043 bohr

     End of self-consistent calculation

[...]

          k = 0.0586 0.0000 0.0000 ( 17543 PWs)   bands (ev):

[...]

          k =-0.0879-0.1523 0.0000 ( 17472 PWs)   bands (ev):

   -71.9314 -71.9170 -71.8901 -58.7115 -58.6844 -58.6355 -58.6328 -58.6118
   -58.6085 -58.5886 -58.5753 -58.5582 -36.0959 -36.0576 -36.0449 -36.0278
   -36.0187 -35.9917 -35.9674 -35.9642 -35.9413 -33.1127 -33.0443 -32.9669
   -32.9232 -32.8849 -32.8432 -32.8280 -32.8083 -32.7464 -32.7154 -32.6927
   -32.6772 -32.6375 -32.6299 -32.6100 -32.6095 -32.5926 -32.5765 -32.5547
   -32.5284 -32.5231 -32.4408 -32.4053 -32.3979 -32.3573 -32.2933 -32.2782
    -2.8205  -2.5580  -1.6379  -1.5336  -1.2203  -1.2203  -1.1836  -1.0113
    -0.9520  -0.8377  -0.5045  -0.4356  -0.3346  -0.2582  -0.1884  -0.1474
     0.2989   0.3049   0.3255   0.4551   0.4931   0.5642   0.9592   1.0404
     1.2350   1.2508   1.3313   1.3649   1.3881   1.4324   1.4977   1.5140
     1.7024   1.7088   1.8017   1.8325   1.9071   1.9336   2.3688   2.4236
     2.8782   3.0059   3.0850   3.0963   3.2379   3.3225   3.5204   3.7174
     3.7589   3.8221   3.8789   3.8891   4.0598   4.0950   4.1656   4.3978
     4.5995   4.8428   5.0537   5.1018   5.7835   5.8799   5.9681   5.9717
     6.0700   6.3659

     the Fermi energy is     2.2282 ev

!    total energy              =   -1740.56544680 Ry
     Harris-Foulkes estimate   =   -1740.56544665 Ry
     estimated scf accuracy    <       0.00000098 Ry

     The total energy is the sum of the following terms:

     one-electron contribution =  -14841.05225957 Ry
     hartree contribution      =    7411.24971241 Ry
     xc contribution           =    -307.39961347 Ry
     ewald contribution        =    5996.74094531 Ry
     electric field correction =       0.00000017 Ry
     smearing contrib. (-TS)   =      -0.10423167 Ry

     convergence has been achieved in  15 iterations

 BEEF-vdW xc energy contributions
           1 :   -266.726394093792
           2 :    244.967646200691
           3 :   -207.279599508826
           4 :    162.981552643550
           5 :   -121.558544656067
           6 :    89.6843782959998
           7 :   -69.7053369173346
           8 :    59.8932293283713
           9 :   -56.0866247946017
          10 :    53.8238892970015
          11 :   -50.0728363675095
          12 :    43.9634186664038
          13 :   -36.4719375328255
          14 :    29.4123134084680
          15 :   -24.3113537256293
          16 :    21.6636726166029
          17 :   -20.8261366090686
          18 :    20.4825068278352
          19 :   -19.3765473002057
          20 :    16.9190684458663
          21 :   -13.3911581256934
          22 :    9.68607871516934
          23 :   -6.77498284858950
          24 :    5.19019186206202
          25 :   -4.78671868019933
          26 :    4.86944530697838
          27 :   -4.58826264624986
          28 :    3.37596734243147
          29 :   -1.20819096824459
          30 :   -1.43110446742566
          31 :   -27.7448508371194
          32 :   -21.0880809099737

     Forces acting on atoms (Ry/au):

     negative rho (up, down):  2.013E-01 0.000E+00
     atom    1 type  1   force =    -0.00000001    0.00150013    0.00215428
     atom    2 type  1   force =     0.00129943   -0.00075025    0.00215386
     atom    3 type  1   force =    -0.00130162   -0.00075089    0.00215070
     atom    4 type  2   force =     0.00000108    0.00000006    0.01475449
     atom    5 type  1   force =    -0.00000041   -0.00296926   -0.00655393
     atom    6 type  1   force =    -0.00257197    0.00148409   -0.00655205
     atom    7 type  1   force =     0.00257031    0.00148398   -0.00655097
     atom    8 type  2   force =     0.00000975    0.00001101   -0.00136056
     atom    9 type  1   force =    -0.00000118    0.00004752    0.00018770
     atom   10 type  1   force =     0.00003980   -0.00002597    0.00018748
     atom   11 type  1   force =    -0.00004283   -0.00002620    0.00018711
     atom   12 type  2   force =    -0.00000233   -0.00000423   -0.00075810

     Total force =     0.019903     Total SCF correction =     0.004149
     SCF correction compared to forces is large: reduce conv_thr to get better values

     entering subroutine stress ...

     negative rho (up, down):  2.013E-01 0.000E+00
          total   stress  (Ry/bohr**3)                   (kbar)     P=  -35.33
  -0.00033979   0.00000000  -0.00000000        -49.99      0.00     -0.00
   0.00000000  -0.00033980  -0.00000000          0.00    -49.99     -0.00
  -0.00000000  -0.00000000  -0.00004085         -0.00     -0.00     -6.01

 !ASE

     Writing output data file calc.save

     General routines

     Parallel routines

   This run was terminated on:   5:31:32  27Dec2018

   JOB DONE.
Job  /afs/slac/g/suncat/bin/suncat-tsmpirun -x LD_LIBRARY_PATH -wdir /scratch/qe110162_kqW0L pw.x -in pw.inp

TID   HOST_NAME   COMMAND_LINE            STATUS            TERMINATION_TIME
00000 suncat0024 pw.x -in pw.inp   Done                     12/27/2018 05:31:32
00001 suncat0024 pw.x -in pw.inp   Done                     12/27/2018 05:31:32
00002 suncat0024 pw.x -in pw.inp   Done                     12/27/2018 05:31:32
00003 suncat0024 pw.x -in pw.inp   Done                     12/27/2018 05:31:32
00004 suncat0024 pw.x -in pw.inp   Done                     12/27/2018 05:31:32
00005 suncat0024 pw.x -in pw.inp   Done                     12/27/2018 05:31:32
00006 suncat0024 pw.x -in pw.inp   Done                     12/27/2018 05:31:32
00007 suncat0024 pw.x -in pw.inp   Done                     12/27/2018 05:31:32
00008 suncat0023 pw.x -in pw.inp   Done                     12/27/2018 05:31:32
00009 suncat0023 pw.x -in pw.inp   Done                     12/27/2018 05:31:32
00010 suncat0023 pw.x -in pw.inp   Done                     12/27/2018 05:31:32
00011 suncat0023 pw.x -in pw.inp   Done                     12/27/2018 05:31:32
00012 suncat0023 pw.x -in pw.inp   Done                     12/27/2018 05:31:32
00013 suncat0023 pw.x -in pw.inp   Done                     12/27/2018 05:31:32
00014 suncat0023 pw.x -in pw.inp   Done                     12/27/2018 05:31:32
00015 suncat0023 pw.x -in pw.inp   Done                     12/27/2018 05:31:32
00016 suncat0022 pw.x -in pw.inp   Done                     12/27/2018 05:31:32
00017 suncat0022 pw.x -in pw.inp   Done                     12/27/2018 05:31:32
00018 suncat0022 pw.x -in pw.inp   Done                     12/27/2018 05:31:32
00019 suncat0022 pw.x -in pw.inp   Done                     12/27/2018 05:31:32
00020 suncat0022 pw.x -in pw.inp   Done                     12/27/2018 05:31:32
00021 suncat0022 pw.x -in pw.inp   Done                     12/27/2018 05:31:32
00022 suncat0022 pw.x -in pw.inp   Done                     12/27/2018 05:31:32
00023 suncat0022 pw.x -in pw.inp   Done                     12/27/2018 05:31:32
00024 suncat0018 pw.x -in pw.inp   Done                     12/27/2018 05:31:32
00025 suncat0018 pw.x -in pw.inp   Done                     12/27/2018 05:31:32
00026 suncat0018 pw.x -in pw.inp   Done                     12/27/2018 05:31:32
00027 suncat0018 pw.x -in pw.inp   Done                     12/27/2018 05:31:32
00028 suncat0018 pw.x -in pw.inp   Done                     12/27/2018 05:31:32
00029 suncat0018 pw.x -in pw.inp   Done                     12/27/2018 05:31:32
00030 suncat0018 pw.x -in pw.inp   Done                     12/27/2018 05:31:32
00031 suncat0018 pw.x -in pw.inp   Done                     12/27/2018 05:31:32
00032 suncat0017 pw.x -in pw.inp   Done                     12/27/2018 05:31:32
00033 suncat0017 pw.x -in pw.inp   Done                     12/27/2018 05:31:32
00034 suncat0017 pw.x -in pw.inp   Done                     12/27/2018 05:31:32
00035 suncat0017 pw.x -in pw.inp   Done                     12/27/2018 05:31:32
00036 suncat0017 pw.x -in pw.inp   Done                     12/27/2018 05:31:32
00037 suncat0017 pw.x -in pw.inp   Done                     12/27/2018 05:31:32
00038 suncat0017 pw.x -in pw.inp   Done                     12/27/2018 05:31:32
00039 suncat0017 pw.x -in pw.inp   Done                     12/27/2018 05:31:32
00040 suncat0016 pw.x -in pw.inp   Done                     12/27/2018 05:31:32
00041 suncat0016 pw.x -in pw.inp   Done                     12/27/2018 05:31:32
00042 suncat0016 pw.x -in pw.inp   Done                     12/27/2018 05:31:32
00043 suncat0016 pw.x -in pw.inp   Done                     12/27/2018 05:31:32
00044 suncat0016 pw.x -in pw.inp   Done                     12/27/2018 05:31:32
00045 suncat0016 pw.x -in pw.inp   Done                     12/27/2018 05:31:32
00046 suncat0016 pw.x -in pw.inp   Done                     12/27/2018 05:31:32
00047 suncat0016 pw.x -in pw.inp   Done                     12/27/2018 05:31:32
00048 suncat0014 pw.x -in pw.inp   Done                     12/27/2018 05:31:32
00049 suncat0014 pw.x -in pw.inp   Done                     12/27/2018 05:31:32
00050 suncat0014 pw.x -in pw.inp   Done                     12/27/2018 05:31:32
00051 suncat0014 pw.x -in pw.inp   Done                     12/27/2018 05:31:32
00052 suncat0014 pw.x -in pw.inp   Done                     12/27/2018 05:31:32
00053 suncat0014 pw.x -in pw.inp   Done                     12/27/2018 05:31:32
00054 suncat0014 pw.x -in pw.inp   Done                     12/27/2018 05:31:32
00055 suncat0014 pw.x -in pw.inp   Done                     12/27/2018 05:31:32
00056 suncat0198 pw.x -in pw.inp   Done                     12/27/2018 05:31:32
00057 suncat0198 pw.x -in pw.inp   Done                     12/27/2018 05:31:32
00058 suncat0198 pw.x -in pw.inp   Done                     12/27/2018 05:31:32
00059 suncat0198 pw.x -in pw.inp   Done                     12/27/2018 05:31:32
00060 suncat0198 pw.x -in pw.inp   Done                     12/27/2018 05:31:32
00061 suncat0198 pw.x -in pw.inp   Done                     12/27/2018 05:31:32
00062 suncat0198 pw.x -in pw.inp   Done                     12/27/2018 05:31:32
00063 suncat0198 pw.x -in pw.inp   Done                     12/27/2018 05:31:32