     Program PWSCF v.5.1rc2 (svn rev. 11289) starts on  2Jan2019 at 14:10:50

     Current dimensions of program PWSCF are:
     Max number of different atomic species (ntypx) = 10
     Max number of k-points (npk) =  40000
     Max angular momentum in pseudopotentials (lmaxx) =  3
     Presently stress not available with electric field

     IMPORTANT: XC functional enforced from input :
     Exchange-correlation      = BEEF-VDW ( 1  4 27 13 2)
     Any further DFT definition will be discarded
     Please, verify this is what you really want

     Subspace diagonalization in iterative solution of the eigenvalue problem:
     a serial algorithm will be used

     bravais-lattice index     =            0
     lattice parameter (alat)  =       1.8897  a.u.
     unit-cell volume          =    6956.1206 (a.u.)^3
     number of atoms/cell      =           12
     number of atomic types    =            2
     number of electrons       =       135.00
     number of Kohn-Sham states=           97
     kinetic-energy cutoff     =      36.7493  Ry
     charge density cutoff     =     367.4932  Ry
     convergence threshold     =      1.0E-06
     mixing beta               =       0.1000
     number of iterations used =           10  plain     mixing
     Exchange-correlation      = BEEF-VDW ( 1  4 27 13 2)
     nstep                     =           50

     celldm(1)=   1.889726  celldm(2)=   0.000000  celldm(3)=   0.000000
     celldm(4)=   0.000000  celldm(5)=   0.000000  celldm(6)=   0.000000

     crystal axes: (cart. coord. in units of alat)
               a(1) = (   6.822590   0.000000   0.000000 )
               a(2) = (  -3.411295   5.908537   0.000000 )
               a(3) = (   0.000000   0.000000  25.570622 )

     reciprocal axes: (cart. coord. in units 2 pi/alat)
               b(1) = (  0.146572  0.084623  0.000000 )
               b(2) = (  0.000000  0.169247  0.000000 )
               b(3) = (  0.000000  0.000000  0.039107 )

     PseudoPot. # 1 for Y  read from file:
     /afs/slac.stanford.edu/u/if/mamunm/psp/gbrv1.5pbe/Y.UPF
     MD5 check sum: d034151ed7554c50b6e82763ed42c788
     Pseudo is Ultrasoft + core correction, Zval = 11.0
     Generated by new atomic code, or converted to UPF format
     Using radial grid of  885 points,  6 beta functions with:
                l(1) =   0
                l(2) =   0
                l(3) =   1
                l(4) =   1
                l(5) =   2
                l(6) =   2
     Q(r) pseudized with  8 coefficients,  rinner =    1.200   1.200   1.200
                                                       1.200   1.200

     PseudoPot. # 2 for Ti read from file:
     /afs/slac.stanford.edu/u/if/mamunm/psp/gbrv1.5pbe/Ti.UPF
     MD5 check sum: 88a00a6731bd790ddea75d31a80cb452
     Pseudo is Ultrasoft + core correction, Zval = 12.0
     Generated by new atomic code, or converted to UPF format
     Using radial grid of  851 points,  6 beta functions with:
                l(1) =   0
                l(2) =   0
                l(3) =   1
                l(4) =   1
                l(5) =   2
                l(6) =   2
     Q(r) pseudized with  6 coefficients,  rinner =    1.000   1.000   1.000
                                                       1.000   1.000

     vdW kernel table read from file vdW_kernel_table
     MD5 check sum: 095c7af220d748ca6e76c0b4c6cfb241

     atomic species   valence    mass     pseudopotential
        Y1            11.00    88.90584     Y ( 1.00)
        Ti1           12.00    47.86700     Ti( 1.00)

     No symmetry found

   Cartesian axes

     site n.     atom                  positions (alat units)
         1           Y1  tau(   1) = (   0.0000000   0.0000000  10.0000000  )
         2           Y1  tau(   2) = (  -1.7056476   2.9542683  10.0000000  )
         3           Y1  tau(   3) = (   1.7056476   2.9542683  10.0000000  )
         4           Ti1 tau(   4) = (   3.4112951   0.0000000  10.0000000  )
         5           Y1  tau(   5) = (   3.4112951   1.9695122  12.7853108  )
         6           Y1  tau(   6) = (   1.7056476   4.9237804  12.7853108  )
         7           Y1  tau(   7) = (  -1.7056476   4.9237804  12.7853108  )
         8           Ti1 tau(   8) = (   0.0000000   1.9695122  12.7853108  )
         9           Y1  tau(   9) = (  -0.0000000   3.9390243  15.5706216  )
        10           Y1  tau(  10) = (   1.7056476   0.9847561  15.5706216  )
        11           Y1  tau(  11) = (   5.1169427   0.9847561  15.5706216  )
        12           Ti1 tau(  12) = (   3.4112951   3.9390243  15.5706216  )

     number of k points=    20  Fermi-Dirac smearing, width (Ry)=  0.0110
                       cart. coord. in units 2pi/alat
        k(    1) = (   0.0000000   0.0000000   0.0000000), wk =   0.0555556
        k(    2) = (   0.0000000   0.0282078   0.0000000), wk =   0.1111111
        k(    3) = (   0.0000000   0.0564155   0.0000000), wk =   0.1111111
        k(    4) = (   0.0000000  -0.0846233   0.0000000), wk =   0.0555556
        k(    5) = (   0.0244286   0.0141039   0.0000000), wk =   0.1111111
        k(    6) = (   0.0244286   0.0423117   0.0000000), wk =   0.1111111
        k(    7) = (   0.0244286   0.0705194   0.0000000), wk =   0.1111111
        k(    8) = (   0.0244286  -0.0705194   0.0000000), wk =   0.1111111
        k(    9) = (   0.0244286  -0.0423117   0.0000000), wk =   0.1111111
        k(   10) = (   0.0244286  -0.0141039   0.0000000), wk =   0.1111111
        k(   11) = (   0.0488573   0.0282078   0.0000000), wk =   0.1111111
        k(   12) = (   0.0488573   0.0564155   0.0000000), wk =   0.1111111
        k(   13) = (   0.0488573   0.0846233   0.0000000), wk =   0.1111111
        k(   14) = (   0.0488573  -0.0564155   0.0000000), wk =   0.1111111
        k(   15) = (   0.0488573  -0.0282078   0.0000000), wk =   0.1111111
        k(   16) = (   0.0488573   0.0000000   0.0000000), wk =   0.1111111
        k(   17) = (  -0.0732859  -0.0423117   0.0000000), wk =   0.0555556
        k(   18) = (  -0.0732859  -0.0141039   0.0000000), wk =   0.1111111
        k(   19) = (  -0.0732859   0.0141039   0.0000000), wk =   0.1111111
        k(   20) = (  -0.0732859  -0.1269350   0.0000000), wk =   0.0555556

     Largest allocated arrays     est. size (Mb)     dimensions
     Largest temporary arrays     est. size (Mb)     dimensions

     Check: negative/imaginary core charge=   -0.000002    0.000000

     Initial potential from superposition of free atoms
     Check: negative starting charge=   -0.004958

     starting charge  131.95965, renormalised to  135.00000

     negative rho (up, down):  5.073E-03 0.000E+00

     *
     * You are using vdW-DF for exchange-correlation in this calculation.
     * Please cite the following three references that made this development
     * possible:
     *
     *   M. Dion, H. Rydberg, E. Schroder, D. C. Langreth, and
     *   B. I. Lundqvist, Phys. Rev. Lett. 92, 246401 (2004).
     *
     *   T. Thonhauser, V. R. Cooper, S. Li, A. Puzder, P. Hyldgaard, and
     *   D. C. Langreth, Phys. Rev. B 76, 125112 (2007).
     *
     *   G. Roman-Perez and J. M. Soler, Phys. Rev. Lett. 103, 096102 (2009).
     *
     *
     * If you are using vdW-DF2, please also cite:
     *
     *   K. Lee, E. D. Murray, L. Kong, B. I. Lundqvist, and
     *   D. C. Langreth, Phys. Rev. B 82, 081101(R) (2010).
     *
     *
     * If you are calculating the stress with vdW-DF, please also cite:
     *
     *   R. Sabatini, E. Kucukbenli, B. Kolb, T. Thonhauser, and
     *   S. de Gironcoli, J. Phys.: Condens. Matter 24, 424209 (2012).
     *

     Carrying out vdW-DF run using the following parameters:

     Nqs =      20    Nr_points =    1024   r_max =   100.000
     q_mesh =
               0.00001000     0.04494208     0.09755937     0.15916263
               0.23128650     0.31572767     0.41458969     0.53033537
               0.66584808     0.82450364     1.01025438     1.22772762
               1.48234092     1.78043706     2.12944203     2.53805004
               3.01644009     3.57652955     4.23227104     5.00000000

     Gradients computed in reciprocal space

     Adding external electric field

     Computed dipole along edir(3) :
        Dipole                0.0000 Ry au,          0.0000 Debye
        Dipole field          0.0000 Ry au

        Potential amp.       -0.0000 Ry
        Total length         47.1134 bohr

     Starting wfc are  147 randomized atomic wfcs

     Self-consistent Calculation

     iteration #  1     ecut=    36.75 Ry     beta=0.10
     Davidson diagonalization with overlap
     ethr =  1.00E-02,  avg # of iterations =  3.0

[...]

     total energy              =   -1195.20321939 Ry
     Harris-Foulkes estimate   =   -1206.45505746 Ry
     estimated scf accuracy    <      62.57726860 Ry

[...]

     End of self-consistent calculation

          k = 0.0000 0.0000 0.0000 ( 26181 PWs)   bands (ev):

   -56.4058 -56.4056 -56.2729 -42.1395 -42.1383 -42.0811 -42.0811 -42.0808
   -42.0808 -41.5814 -41.5238 -41.5238 -32.6752 -32.6748 -32.5881 -32.5881
   -32.5879 -32.5879 -32.4844 -32.4590 -32.4590 -22.4273 -22.4058 -22.2238
   -22.1947 -22.1947 -22.1634 -22.1633 -22.1558 -22.1219 -22.1219 -22.0809
   -22.0809 -21.8760 -21.8672 -21.8592 -21.8054 -21.8054 -21.8001 -21.8001
   -21.6121 -21.6121 -21.5076 -21.4626 -21.4626 -21.3331 -21.2810 -21.2810
    -3.4865  -2.5240  -1.4932  -0.9520  -0.9220  -0.5653  -0.5653  -0.5526
    -0.4735  -0.4735  -0.1811  -0.1811   0.1188   0.1625   0.1625   0.5091
     0.6267   0.6267   1.0719   1.1661   1.4156   1.4156   1.4382   1.5927
     1.6706   1.6706   1.8044   1.8658   1.9801   1.9801   2.2064   2.2456
     2.2456   2.3027   2.3027   2.3867   2.3867   2.4710   2.4997   2.4997
     2.6267   2.6267   2.8836   2.8836   3.1712   3.2116   3.3172   3.3172
     3.9151

[...]

          k =-0.0733-0.0423 0.0000 ( 26122 PWs)   bands (ev):

[...]

     the Fermi energy is     0.9711 ev

!    total energy              =   -1202.66239697 Ry
     Harris-Foulkes estimate   =   -1202.66239459 Ry
     estimated scf accuracy    <       0.00000081 Ry

     The total energy is the sum of the following terms:

     one-electron contribution =   -6359.86672593 Ry
     hartree contribution      =    3170.61934953 Ry
     xc contribution           =    -310.30309597 Ry
     ewald contribution        =    2297.03422659 Ry
     electric field correction =       0.00000000 Ry
     smearing contrib. (-TS)   =      -0.14615120 Ry

     convergence has been achieved in  26 iterations

 BEEF-vdW xc energy contributions
           1 :   -270.027560814166
           2 :    242.334001258263
           3 :   -195.024665271334
           4 :    140.313796725796
           5 :   -89.3211650862841
           6 :    48.5060934857029
           7 :   -19.2587475565832
           8 :  -6.670909881671605E-002
           9 :    11.6096256796387
          10 :   -16.6301424952650
          11 :    15.7246777805545
          12 :   -9.89416249268118
          13 :    1.31208552695750
          14 :    6.91299651537656
          15 :   -11.8602178574734
          16 :    12.0254746222022
          17 :   -7.83989752714626
[...]
               b(2) = (  0.000000  0.169247  0.000000 )
               b(3) = (  0.000000  0.000000  0.039107 )

     PseudoPot. # 1 for Y  read from file:
     /afs/slac.stanford.edu/u/if/mamunm/psp/gbrv1.5pbe/Y.UPF
     MD5 check sum: d034151ed7554c50b6e82763ed42c788
     Pseudo is Ultrasoft + core correction, Zval = 11.0
     Generated by new atomic code, or converted to UPF format
     Using radial grid of  885 points,  6 beta functions with:
                l(1) =   0
                l(2) =   0
                l(3) =   1
                l(4) =   1
                l(5) =   2
                l(6) =   2
     Q(r) pseudized with  8 coefficients,  rinner =    1.200   1.200   1.200
                                                       1.200   1.200

     PseudoPot. # 2 for Ti read from file:
     /afs/slac.stanford.edu/u/if/mamunm/psp/gbrv1.5pbe/Ti.UPF
     MD5 check sum: 88a00a6731bd790ddea75d31a80cb452
     Pseudo is Ultrasoft + core correction, Zval = 12.0
     Generated by new atomic code, or converted to UPF format
     Using radial grid of  851 points,  6 beta functions with:
                l(1) =   0
                l(2) =   0
                l(3) =   1
                l(4) =   1
                l(5) =   2
                l(6) =   2
     Q(r) pseudized with  6 coefficients,  rinner =    1.000   1.000   1.000
                                                       1.000   1.000

     vdW kernel table read from file vdW_kernel_table
     MD5 check sum: 095c7af220d748ca6e76c0b4c6cfb241

     atomic species   valence    mass     pseudopotential
        Y1            11.00    88.90584     Y ( 1.00)
        Ti1           12.00    47.86700     Ti( 1.00)

     No symmetry found

   Cartesian axes

     site n.     atom                  positions (alat units)
         1           Y1  tau(   1) = (   0.0000000   0.0000000  10.0000000  )
         2           Y1  tau(   2) = (  -1.7056476   2.9542683  10.0000000  )
         3           Y1  tau(   3) = (   1.7056476   2.9542683  10.0000000  )
         4           Ti1 tau(   4) = (   3.4112951   0.0000000  10.0000000  )
         5           Y1  tau(   5) = (   3.4112951   1.9695122  12.7853108  )
         6           Y1  tau(   6) = (   1.7056476   4.9237804  12.7853108  )
         7           Y1  tau(   7) = (  -1.7056476   4.9237804  12.7853108  )
         8           Ti1 tau(   8) = (   0.0000000   1.9695122  12.7853108  )
         9           Y1  tau(   9) = (   0.0000368   3.9102174  15.5458134  )
        10           Y1  tau(  10) = (   1.6807008   0.9991832  15.5458363  )
        11           Y1  tau(  11) = (   5.1419204   0.9991522  15.5458360  )
        12           Ti1 tau(  12) = (   3.4113109   3.9390311  15.2600165  )

     number of k points=    20  Fermi-Dirac smearing, width (Ry)=  0.0110
                       cart. coord. in units 2pi/alat
        k(    1) = (   0.0000000   0.0000000   0.0000000), wk =   0.0555556
        k(    2) = (   0.0000000   0.0282078   0.0000000), wk =   0.1111111
        k(    3) = (   0.0000000   0.0564155   0.0000000), wk =   0.1111111
        k(    4) = (   0.0000000  -0.0846233   0.0000000), wk =   0.0555556
        k(    5) = (   0.0244286   0.0141039   0.0000000), wk =   0.1111111
        k(    6) = (   0.0244286   0.0423117   0.0000000), wk =   0.1111111
        k(    7) = (   0.0244286   0.0705194   0.0000000), wk =   0.1111111
        k(    8) = (   0.0244286  -0.0705194   0.0000000), wk =   0.1111111
        k(    9) = (   0.0244286  -0.0423117   0.0000000), wk =   0.1111111
        k(   10) = (   0.0244286  -0.0141039   0.0000000), wk =   0.1111111
        k(   11) = (   0.0488573   0.0282078   0.0000000), wk =   0.1111111
        k(   12) = (   0.0488573   0.0564155   0.0000000), wk =   0.1111111
        k(   13) = (   0.0488573   0.0846233   0.0000000), wk =   0.1111111
        k(   14) = (   0.0488573  -0.0564155   0.0000000), wk =   0.1111111
        k(   15) = (   0.0488573  -0.0282078   0.0000000), wk =   0.1111111
        k(   16) = (   0.0488573   0.0000000   0.0000000), wk =   0.1111111
        k(   17) = (  -0.0732859  -0.0423117   0.0000000), wk =   0.0555556
        k(   18) = (  -0.0732859  -0.0141039   0.0000000), wk =   0.1111111
        k(   19) = (  -0.0732859   0.0141039   0.0000000), wk =   0.1111111
        k(   20) = (  -0.0732859  -0.1269350   0.0000000), wk =   0.0555556

     Largest allocated arrays     est. size (Mb)     dimensions
     Largest temporary arrays     est. size (Mb)     dimensions

     Check: negative/imaginary core charge=   -0.000002    0.000000

     Initial potential from superposition of free atoms
     Check: negative starting charge=   -0.004877

     starting charge  131.95965, renormalised to  135.00000

[...]

     *
     * You are using vdW-DF for exchange-correlation in this calculation.
     * Please cite the following three references that made this development
     * possible:
     *
     *   M. Dion, H. Rydberg, E. Schroder, D. C. Langreth, and
     *   B. I. Lundqvist, Phys. Rev. Lett. 92, 246401 (2004).
     *
     *   T. Thonhauser, V. R. Cooper, S. Li, A. Puzder, P. Hyldgaard, and
     *   D. C. Langreth, Phys. Rev. B 76, 125112 (2007).
     *
     *   G. Roman-Perez and J. M. Soler, Phys. Rev. Lett. 103, 096102 (2009).
     *
     *
     * If you are using vdW-DF2, please also cite:
     *
     *   K. Lee, E. D. Murray, L. Kong, B. I. Lundqvist, and
     *   D. C. Langreth, Phys. Rev. B 82, 081101(R) (2010).
     *
     *
     * If you are calculating the stress with vdW-DF, please also cite:
     *
     *   R. Sabatini, E. Kucukbenli, B. Kolb, T. Thonhauser, and
     *   S. de Gironcoli, J. Phys.: Condens. Matter 24, 424209 (2012).
     *

     Carrying out vdW-DF run using the following parameters:

     Nqs =      20    Nr_points =    1024   r_max =   100.000
     q_mesh =
               0.00001000     0.04494208     0.09755937     0.15916263
               0.23128650     0.31572767     0.41458969     0.53033537
               0.66584808     0.82450364     1.01025438     1.22772762
               1.48234092     1.78043706     2.12944203     2.53805004
               3.01644009     3.57652955     4.23227104     5.00000000

     Gradients computed in reciprocal space

[...]

     Starting wfc are  147 randomized atomic wfcs

     Self-consistent Calculation

[...]

     total energy              =   -1202.67255648 Ry
     Harris-Foulkes estimate   =   -1202.67255557 Ry
     estimated scf accuracy    <       0.00000218 Ry

     iteration # 25     ecut=    36.75 Ry     beta=0.10
     Davidson diagonalization with overlap
     ethr =  1.61E-09,  avg # of iterations =  2.4

[...]

     negative rho (up, down):  2.852E-03 0.000E+00

     Adding external electric field

     Computed dipole along edir(3) :
        Dipole                0.0267 Ry au,          0.0679 Debye
        Dipole field          0.0000 Ry au

        Potential amp.       -0.0045 Ry
        Total length         47.1134 bohr

     End of self-consistent calculation

[...]

          k = 0.0489 0.0000 0.0000 ( 26183 PWs)   bands (ev):

[...]

          k =-0.0733-0.1269 0.0000 ( 26122 PWs)   bands (ev):

   -56.4080 -56.2628 -56.2429 -42.1199 -42.1033 -42.1006 -42.0818 -42.0812
   -42.0631 -41.4595 -41.4402 -41.4207 -32.6827 -32.5880 -32.5877 -32.4934
   -32.4751 -32.4747 -32.4557 -32.4300 -32.4296 -22.2897 -22.2665 -22.1804
   -22.1503 -22.1436 -22.1114 -22.1073 -22.0903 -22.0645 -22.0552 -22.0517
   -22.0253 -22.0144 -22.0107 -22.0010 -21.9777 -21.8166 -21.7985 -21.6463
   -21.4520 -21.4277 -21.3963 -21.3853 -21.3848 -21.3831 -21.3640 -21.1979
    -2.2036  -2.1913  -1.3364  -1.2872  -0.6015  -0.4179  -0.3225  -0.1841
    -0.1396   0.0351   0.4684   0.5876   0.5984   0.6680   0.6774   0.7248
     0.8289   0.8438   0.8722   0.9184   0.9865   0.9874   1.0387   1.1073
     1.1479   1.2875   1.3204   1.3516   1.4601   1.5139   1.6682   1.7143
     1.7595   1.8709   1.9724   2.1188   2.3132   2.3639   2.5553   2.6773
     2.7565   2.9481   2.9557   3.0158   3.1404   3.1634   3.1646   3.3066
     3.4736

     the Fermi energy is     0.9800 ev

!    total energy              =   -1202.67255698 Ry
     Harris-Foulkes estimate   =   -1202.67255633 Ry
     estimated scf accuracy    <       0.00000083 Ry

     The total energy is the sum of the following terms:

     one-electron contribution =   -6449.28159039 Ry
     hartree contribution      =    3215.53316334 Ry
     xc contribution           =    -310.38995701 Ry
     ewald contribution        =    2341.60951690 Ry
     electric field correction =       0.00000129 Ry
     smearing contrib. (-TS)   =      -0.14369110 Ry

     convergence has been achieved in  25 iterations

 BEEF-vdW xc energy contributions
           1 :   -270.115936235153
           2 :    242.453502396075
           3 :   -195.166492355087
           4 :    140.429493584947
           5 :   -89.3622873703071
           6 :    48.4668288866097
           7 :   -19.1835353143378
           8 :  -0.116247372920952
           9 :    11.6000939492353
          10 :   -16.5786981439671
          11 :    15.6836357743699
          12 :   -9.91092091145896
          13 :    1.39350974786788
          14 :    6.80672067400917
          15 :   -11.7870566004738
          16 :    12.0179996386930
          17 :   -7.87927708026376
          18 :    1.21567747960944
          19 :    5.71176849959193
          20 :   -11.1843430769317
          21 :    14.3989633827295
          22 :   -15.2669852603094
          23 :    14.0125291797514
          24 :   -10.9491658225917
          25 :    6.52971842238179
          26 :   -1.48882137396731
          27 :   -3.17667167822884
          28 :    6.48246156002352
          29 :   -7.85071433498541
          30 :    7.36184501071216
          31 :   -26.2820725506484
          32 :   -18.1221353825824

     Forces acting on atoms (Ry/au):

     negative rho (up, down):  2.852E-03 0.000E+00
     atom    1 type  1   force =     0.00000199    0.01014550   -0.00087153
     atom    2 type  1   force =     0.00878130   -0.00506992   -0.00087268
     atom    3 type  1   force =    -0.00878383   -0.00507787   -0.00087089
     atom    4 type  2   force =     0.00000111   -0.00000145    0.02461124
     atom    5 type  1   force =     0.00000087   -0.00055714   -0.00718496
     atom    6 type  1   force =    -0.00047980    0.00027882   -0.00718707
     atom    7 type  1   force =     0.00048204    0.00027602   -0.00719046
     atom    8 type  2   force =     0.00000024    0.00000166    0.00298674
     atom    9 type  1   force =    -0.00000368   -0.00074441   -0.00105695
     atom   10 type  1   force =    -0.00064088    0.00037093   -0.00106087
     atom   11 type  1   force =     0.00064183    0.00037726   -0.00106278
     atom   12 type  2   force =    -0.00000119    0.00000062   -0.00023980

     Total force =     0.032964     Total SCF correction =     0.002017

     entering subroutine stress ...

     negative rho (up, down):  2.852E-03 0.000E+00
          total   stress  (Ry/bohr**3)                   (kbar)     P=   -3.08
  -0.00002088  -0.00000000  -0.00000000         -3.07     -0.00     -0.00
  -0.00000000  -0.00002088   0.00000000         -0.00     -3.07      0.00
  -0.00000000   0.00000000  -0.00002098         -0.00      0.00     -3.09

 !ASE

     Writing output data file calc.save

     General routines

     Parallel routines

   This run was terminated on:  16: 8:18   2Jan2019

   JOB DONE.
Job  /afs/slac/g/suncat/bin/suncat-tsmpirun -x LD_LIBRARY_PATH -wdir /scratch/qe649453_IhEyW pw.x -in pw.inp

TID   HOST_NAME   COMMAND_LINE            STATUS            TERMINATION_TIME
00000 suncat0062 pw.x -in pw.inp   Done                     01/02/2019 16:08:18
00001 suncat0062 pw.x -in pw.inp   Done                     01/02/2019 16:08:18
00002 suncat0062 pw.x -in pw.inp   Done                     01/02/2019 16:08:18
00003 suncat0062 pw.x -in pw.inp   Done                     01/02/2019 16:08:18
00004 suncat0062 pw.x -in pw.inp   Done                     01/02/2019 16:08:18
00005 suncat0062 pw.x -in pw.inp   Done                     01/02/2019 16:08:18
00006 suncat0062 pw.x -in pw.inp   Done                     01/02/2019 16:08:18
00007 suncat0062 pw.x -in pw.inp   Done                     01/02/2019 16:08:18
00008 suncat0061 pw.x -in pw.inp   Done                     01/02/2019 16:08:18
00009 suncat0061 pw.x -in pw.inp   Done                     01/02/2019 16:08:18
00010 suncat0061 pw.x -in pw.inp   Done                     01/02/2019 16:08:18
00011 suncat0061 pw.x -in pw.inp   Done                     01/02/2019 16:08:18
00012 suncat0061 pw.x -in pw.inp   Done                     01/02/2019 16:08:18
00013 suncat0061 pw.x -in pw.inp   Done                     01/02/2019 16:08:18
00014 suncat0061 pw.x -in pw.inp   Done                     01/02/2019 16:08:18
00015 suncat0061 pw.x -in pw.inp   Done                     01/02/2019 16:08:18
00016 suncat0060 pw.x -in pw.inp   Done                     01/02/2019 16:08:18
00017 suncat0060 pw.x -in pw.inp   Done                     01/02/2019 16:08:18
00018 suncat0060 pw.x -in pw.inp   Done                     01/02/2019 16:08:18
00019 suncat0060 pw.x -in pw.inp   Done                     01/02/2019 16:08:18
00020 suncat0060 pw.x -in pw.inp   Done                     01/02/2019 16:08:18
00021 suncat0060 pw.x -in pw.inp   Done                     01/02/2019 16:08:18
00022 suncat0060 pw.x -in pw.inp   Done                     01/02/2019 16:08:18
00023 suncat0060 pw.x -in pw.inp   Done                     01/02/2019 16:08:18
00024 suncat0057 pw.x -in pw.inp   Done                     01/02/2019 16:08:18
00025 suncat0057 pw.x -in pw.inp   Done                     01/02/2019 16:08:18
00026 suncat0057 pw.x -in pw.inp   Done                     01/02/2019 16:08:18
00027 suncat0057 pw.x -in pw.inp   Done                     01/02/2019 16:08:18
00028 suncat0057 pw.x -in pw.inp   Done                     01/02/2019 16:08:18
00029 suncat0057 pw.x -in pw.inp   Done                     01/02/2019 16:08:18
00030 suncat0057 pw.x -in pw.inp   Done                     01/02/2019 16:08:18
00031 suncat0057 pw.x -in pw.inp   Done                     01/02/2019 16:08:18
00032 suncat0016 pw.x -in pw.inp   Done                     01/02/2019 16:08:18
00033 suncat0016 pw.x -in pw.inp   Done                     01/02/2019 16:08:18
00034 suncat0016 pw.x -in pw.inp   Done                     01/02/2019 16:08:18
00035 suncat0016 pw.x -in pw.inp   Done                     01/02/2019 16:08:18
00036 suncat0016 pw.x -in pw.inp   Done                     01/02/2019 16:08:18
00037 suncat0016 pw.x -in pw.inp   Done                     01/02/2019 16:08:18
00038 suncat0016 pw.x -in pw.inp   Done                     01/02/2019 16:08:18
00039 suncat0016 pw.x -in pw.inp   Done                     01/02/2019 16:08:18
00040 suncat0198 pw.x -in pw.inp   Done                     01/02/2019 16:08:18
00041 suncat0198 pw.x -in pw.inp   Done                     01/02/2019 16:08:18
00042 suncat0198 pw.x -in pw.inp   Done                     01/02/2019 16:08:18
00043 suncat0198 pw.x -in pw.inp   Done                     01/02/2019 16:08:18
00044 suncat0198 pw.x -in pw.inp   Done                     01/02/2019 16:08:18
00045 suncat0198 pw.x -in pw.inp   Done                     01/02/2019 16:08:18
00046 suncat0198 pw.x -in pw.inp   Done                     01/02/2019 16:08:18
00047 suncat0198 pw.x -in pw.inp   Done                     01/02/2019 16:08:18
00048 suncat0194 pw.x -in pw.inp   Done                     01/02/2019 16:08:18
00049 suncat0194 pw.x -in pw.inp   Done                     01/02/2019 16:08:18
00050 suncat0194 pw.x -in pw.inp   Done                     01/02/2019 16:08:18
00051 suncat0194 pw.x -in pw.inp   Done                     01/02/2019 16:08:18
00052 suncat0194 pw.x -in pw.inp   Done                     01/02/2019 16:08:18
00053 suncat0194 pw.x -in pw.inp   Done                     01/02/2019 16:08:18
00054 suncat0194 pw.x -in pw.inp   Done                     01/02/2019 16:08:18
00055 suncat0194 pw.x -in pw.inp   Done                     01/02/2019 16:08:18
00056 suncat0193 pw.x -in pw.inp   Done                     01/02/2019 16:08:18
00057 suncat0193 pw.x -in pw.inp   Done                     01/02/2019 16:08:18
00058 suncat0193 pw.x -in pw.inp   Done                     01/02/2019 16:08:18
00059 suncat0193 pw.x -in pw.inp   Done                     01/02/2019 16:08:18
00060 suncat0193 pw.x -in pw.inp   Done                     01/02/2019 16:08:18
00061 suncat0193 pw.x -in pw.inp   Done                     01/02/2019 16:08:18
00062 suncat0193 pw.x -in pw.inp   Done                     01/02/2019 16:08:18
00063 suncat0193 pw.x -in pw.inp   Done                     01/02/2019 16:08:18