     Program PWSCF v.5.1rc2 (svn rev. 11289) starts on 26Dec2018 at 18:25:44

     Current dimensions of program PWSCF are:
     Max number of different atomic species (ntypx) = 10
     Max number of k-points (npk) =  40000
     Max angular momentum in pseudopotentials (lmaxx) =  3
     Presently stress not available with electric field

     IMPORTANT: XC functional enforced from input :
     Exchange-correlation      = BEEF-VDW ( 1  4 27 13 2)
     Any further DFT definition will be discarded
     Please, verify this is what you really want

     Subspace diagonalization in iterative solution of the eigenvalue problem:
     a serial algorithm will be used

     bravais-lattice index     =            0
     lattice parameter (alat)  =       1.8897  a.u.
     unit-cell volume          =    7289.9683 (a.u.)^3
     number of atoms/cell      =           12
     number of atomic types    =            2
     number of electrons       =       138.00
     number of Kohn-Sham states=           99
     kinetic-energy cutoff     =      36.7493  Ry
     charge density cutoff     =     367.4932  Ry
     convergence threshold     =      1.0E-06
     mixing beta               =       0.1000
     number of iterations used =           10  plain     mixing
     Exchange-correlation      = BEEF-VDW ( 1  4 27 13 2)
     nstep                     =           50

     celldm(1)=   1.889726  celldm(2)=   0.000000  celldm(3)=   0.000000
     celldm(4)=   0.000000  celldm(5)=   0.000000  celldm(6)=   0.000000

     crystal axes: (cart. coord. in units of alat)
               a(1) = (   6.968210   0.000000   0.000000 )
               a(2) = (  -3.484105   6.034647   0.000000 )
               a(3) = (   0.000000   0.000000  25.689519 )

     reciprocal axes: (cart. coord. in units 2 pi/alat)
               b(1) = (  0.143509  0.082855  0.000000 )
               b(2) = (  0.000000  0.165710  0.000000 )
               b(3) = (  0.000000  0.000000  0.038926 )

     PseudoPot. # 1 for La read from file:
     /afs/slac.stanford.edu/u/if/mamunm/psp/gbrv1.5pbe/La.UPF
     MD5 check sum: 5937b0c7494ba0601a847275249473aa
     Pseudo is Ultrasoft + core correction, Zval = 11.0
     Generated by new atomic code, or converted to UPF format
     Using radial grid of  995 points,  8 beta functions with:
                l(1) =   0
                l(2) =   0
                l(3) =   1
                l(4) =   1
                l(5) =   2
                l(6) =   2
                l(7) =   3
                l(8) =   3
     Q(r) pseudized with  8 coefficients,  rinner =    1.700   1.700   1.700
                                                       1.700   1.700   1.700
                                                       1.700

     PseudoPot. # 2 for V  read from file:
     /afs/slac.stanford.edu/u/if/mamunm/psp/gbrv1.5pbe/V.UPF
     MD5 check sum: 22b79981416ebb76fdaf5b1b8640f6fb
     Pseudo is Ultrasoft + core correction, Zval = 13.0
     Generated by new atomic code, or converted to UPF format
     Using radial grid of  853 points,  6 beta functions with:
                l(1) =   0
                l(2) =   0
                l(3) =   1
                l(4) =   1
                l(5) =   2
                l(6) =   2
     Q(r) pseudized with  8 coefficients,  rinner =    1.100   1.100   1.100
                                                       1.100   1.100

     vdW kernel table read from file vdW_kernel_table
     MD5 check sum: 095c7af220d748ca6e76c0b4c6cfb241

     atomic species   valence    mass     pseudopotential
        La1           11.00   138.90547     La( 1.00)
        V1            13.00    50.94150     V ( 1.00)

     No symmetry found

   Cartesian axes

     site n.     atom                  positions (alat units)
         1           La1 tau(   1) = (   0.0000000   0.0000000  10.0000000  )
         2           La1 tau(   2) = (  -1.7420524   3.0173233  10.0000000  )
         3           La1 tau(   3) = (   1.7420524   3.0173233  10.0000000  )
         4           V1  tau(   4) = (   3.4841049   0.0000000  10.0000000  )
         5           La1 tau(   5) = (   3.4841049   2.0115489  12.8447597  )
         6           La1 tau(   6) = (   1.7420524   5.0288722  12.8447597  )
         7           La1 tau(   7) = (  -1.7420524   5.0288722  12.8447597  )
         8           V1  tau(   8) = (   0.0000000   2.0115489  12.8447597  )
         9           La1 tau(   9) = (  -0.0000000   4.0230978  15.6895194  )
        10           La1 tau(  10) = (   1.7420524   1.0057744  15.6895194  )
        11           La1 tau(  11) = (   5.2261573   1.0057744  15.6895194  )
        12           V1  tau(  12) = (   3.4841049   4.0230978  15.6895194  )

     number of k points=    20  Fermi-Dirac smearing, width (Ry)=  0.0110
                       cart. coord. in units 2pi/alat
        k(    1) = (   0.0000000   0.0000000   0.0000000), wk =   0.0555556
        k(    2) = (   0.0000000   0.0276183   0.0000000), wk =   0.1111111
        k(    3) = (   0.0000000   0.0552366   0.0000000), wk =   0.1111111
        k(    4) = (   0.0000000  -0.0828549   0.0000000), wk =   0.0555556
        k(    5) = (   0.0239181   0.0138091   0.0000000), wk =   0.1111111
        k(    6) = (   0.0239181   0.0414274   0.0000000), wk =   0.1111111
        k(    7) = (   0.0239181   0.0690457   0.0000000), wk =   0.1111111
        k(    8) = (   0.0239181  -0.0690457   0.0000000), wk =   0.1111111
        k(    9) = (   0.0239181  -0.0414274   0.0000000), wk =   0.1111111
        k(   10) = (   0.0239181  -0.0138091   0.0000000), wk =   0.1111111
        k(   11) = (   0.0478363   0.0276183   0.0000000), wk =   0.1111111
        k(   12) = (   0.0478363   0.0552366   0.0000000), wk =   0.1111111
        k(   13) = (   0.0478363   0.0828549   0.0000000), wk =   0.1111111
        k(   14) = (   0.0478363  -0.0552366   0.0000000), wk =   0.1111111
        k(   15) = (   0.0478363  -0.0276183   0.0000000), wk =   0.1111111
        k(   16) = (   0.0478363   0.0000000   0.0000000), wk =   0.1111111
        k(   17) = (  -0.0717544  -0.0414274   0.0000000), wk =   0.0555556
        k(   18) = (  -0.0717544  -0.0138091   0.0000000), wk =   0.1111111
        k(   19) = (  -0.0717544   0.0138091   0.0000000), wk =   0.1111111
        k(   20) = (  -0.0717544  -0.1242823   0.0000000), wk =   0.0555556

     Largest allocated arrays     est. size (Mb)     dimensions
     Largest temporary arrays     est. size (Mb)     dimensions

     Initial potential from superposition of free atoms
     Check: negative starting charge=   -0.625324

     starting charge  137.70770, renormalised to  138.00000

     negative rho (up, down):  6.267E-01 0.000E+00

     *
     * You are using vdW-DF for exchange-correlation in this calculation.
     * Please cite the following three references that made this development
     * possible:
     *
     *   M. Dion, H. Rydberg, E. Schroder, D. C. Langreth, and
     *   B. I. Lundqvist, Phys. Rev. Lett. 92, 246401 (2004).
     *
     *   T. Thonhauser, V. R. Cooper, S. Li, A. Puzder, P. Hyldgaard, and
     *   D. C. Langreth, Phys. Rev. B 76, 125112 (2007).
     *
     *   G. Roman-Perez and J. M. Soler, Phys. Rev. Lett. 103, 096102 (2009).
     *
     *
     * If you are using vdW-DF2, please also cite:
     *
     *   K. Lee, E. D. Murray, L. Kong, B. I. Lundqvist, and
     *   D. C. Langreth, Phys. Rev. B 82, 081101(R) (2010).
     *
     *
     * If you are calculating the stress with vdW-DF, please also cite:
     *
     *   R. Sabatini, E. Kucukbenli, B. Kolb, T. Thonhauser, and
     *   S. de Gironcoli, J. Phys.: Condens. Matter 24, 424209 (2012).
     *

     Carrying out vdW-DF run using the following parameters:

     Nqs =      20    Nr_points =    1024   r_max =   100.000
     q_mesh =
               0.00001000     0.04494208     0.09755937     0.15916263
               0.23128650     0.31572767     0.41458969     0.53033537
               0.66584808     0.82450364     1.01025438     1.22772762
               1.48234092     1.78043706     2.12944203     2.53805004
               3.01644009     3.57652955     4.23227104     5.00000000

     Gradients computed in reciprocal space

     Adding external electric field

     Computed dipole along edir(3) :
        Dipole               -0.0000 Ry au,         -0.0000 Debye
        Dipole field         -0.0000 Ry au

        Potential amp.        0.0000 Ry
        Total length         47.3325 bohr

     Starting wfc are  210 randomized atomic wfcs

     Self-consistent Calculation

     iteration #  1     ecut=    36.75 Ry     beta=0.10
     Davidson diagonalization with overlap
     ethr =  1.00E-02,  avg # of iterations =  2.0

[...]

     total energy              =   -1371.38925982 Ry
     Harris-Foulkes estimate   =   -1373.96332101 Ry
     estimated scf accuracy    <      14.14978295 Ry

[...]

     End of self-consistent calculation

          k = 0.0000 0.0000 0.0000 ( 27483 PWs)   bands (ev):

   -62.5462 -62.5266 -62.5264 -36.3827 -36.3826 -36.3449 -36.3449 -36.3267
   -36.3146 -36.3146 -36.3144 -36.3144 -31.3474 -31.3266 -31.1222 -31.1222
   -31.1173 -31.1173 -30.8838 -30.6876 -30.6869 -15.9729 -15.8359 -15.5395
   -15.3614 -15.3614 -15.2156 -15.2006 -15.2006 -15.1957 -15.1957 -15.0257
   -14.7838 -14.7838 -14.5050 -14.5050 -14.4030 -14.3298 -14.1867 -14.1767
   -14.1767 -14.1570 -14.1569 -14.0858 -14.0858 -13.8707 -13.7607 -13.7607
    -1.5257  -0.8820  -0.7495  -0.5204   0.1250   0.3035   0.3202   0.3203
     0.5165   0.6075   0.6075   0.7510   0.7510   0.7884   0.7884   0.9829
     1.4871   1.4872   1.7961   1.9507   1.9697   1.9697   2.0381   2.3496
     2.3868   2.5912   2.5912   2.7162   2.7162   2.7657   2.7657   2.9549
     2.9549   2.9825   2.9825   3.1321   3.1644   3.1819   3.1819   3.2611
     3.2705   3.2950   3.3250   3.3581   3.3582   3.3782   3.3784   3.4969
     3.5209   3.5220   3.5330

[...]

          k =-0.0718-0.0414 0.0000 ( 27402 PWs)   bands (ev):

[...]

     the Fermi energy is     1.8332 ev

!    total energy              =   -1372.99210237 Ry
     Harris-Foulkes estimate   =   -1372.99210760 Ry
     estimated scf accuracy    <       0.00000081 Ry

     The total energy is the sum of the following terms:

     one-electron contribution =   -6227.74836449 Ry
     hartree contribution      =    3120.88444216 Ry
     xc contribution           =    -517.73273932 Ry
     ewald contribution        =    2251.76259143 Ry
     electric field correction =       0.00000002 Ry
     smearing contrib. (-TS)   =      -0.15803216 Ry

     convergence has been achieved in  23 iterations

 BEEF-vdW xc energy contributions
           1 :   -457.245943125078
           2 :    419.554044280033
           3 :   -353.460272557386
           4 :    273.908397054913
           5 :   -196.271512361323
           6 :    131.931576740106
           7 :   -86.2221034233899
           8 :    58.8336182016003
           9 :   -45.7562327098193
          10 :    41.5435288235456
          11 :   -41.0479893393186
          12 :    40.3398268236024
          13 :   -36.9944590222633
          14 :    30.0814720982067
          15 :   -20.0609168720691
[...]
     Generated by new atomic code, or converted to UPF format
     Using radial grid of  995 points,  8 beta functions with:
                l(1) =   0
                l(2) =   0
                l(3) =   1
                l(4) =   1
                l(5) =   2
                l(6) =   2
                l(7) =   3
                l(8) =   3
     Q(r) pseudized with  8 coefficients,  rinner =    1.700   1.700   1.700
                                                       1.700   1.700   1.700
                                                       1.700

     PseudoPot. # 2 for V  read from file:
     /afs/slac.stanford.edu/u/if/mamunm/psp/gbrv1.5pbe/V.UPF
     MD5 check sum: 22b79981416ebb76fdaf5b1b8640f6fb
     Pseudo is Ultrasoft + core correction, Zval = 13.0
     Generated by new atomic code, or converted to UPF format
     Using radial grid of  853 points,  6 beta functions with:
                l(1) =   0
                l(2) =   0
                l(3) =   1
                l(4) =   1
                l(5) =   2
                l(6) =   2
     Q(r) pseudized with  8 coefficients,  rinner =    1.100   1.100   1.100
                                                       1.100   1.100

     vdW kernel table read from file vdW_kernel_table
     MD5 check sum: 095c7af220d748ca6e76c0b4c6cfb241

     atomic species   valence    mass     pseudopotential
        La1           11.00   138.90547     La( 1.00)
        V1            13.00    50.94150     V ( 1.00)

     No symmetry found

   Cartesian axes

     site n.     atom                  positions (alat units)
         1           La1 tau(   1) = (   0.0000000   0.0000000  10.0000000  )
         2           La1 tau(   2) = (  -1.7420524   3.0173233  10.0000000  )
         3           La1 tau(   3) = (   1.7420524   3.0173233  10.0000000  )
         4           V1  tau(   4) = (   3.4841049   0.0000000  10.0000000  )
         5           La1 tau(   5) = (   3.4841049   2.0115489  12.8447597  )
         6           La1 tau(   6) = (   1.7420524   5.0288722  12.8447597  )
         7           La1 tau(   7) = (  -1.7420524   5.0288722  12.8447597  )
         8           V1  tau(   8) = (   0.0000000   2.0115489  12.8447597  )
         9           La1 tau(   9) = (   0.0000209   3.9282632  15.6820889  )
        10           La1 tau(  10) = (   1.6596841   1.0532223  15.6820431  )
        11           La1 tau(  11) = (   5.3085430   1.0532099  15.6820751  )
        12           V1  tau(  12) = (   3.4841163   4.0231369  15.2000985  )

     number of k points=    20  Fermi-Dirac smearing, width (Ry)=  0.0110
                       cart. coord. in units 2pi/alat
        k(    1) = (   0.0000000   0.0000000   0.0000000), wk =   0.0555556
        k(    2) = (   0.0000000   0.0276183   0.0000000), wk =   0.1111111
        k(    3) = (   0.0000000   0.0552366   0.0000000), wk =   0.1111111
        k(    4) = (   0.0000000  -0.0828549   0.0000000), wk =   0.0555556
        k(    5) = (   0.0239181   0.0138091   0.0000000), wk =   0.1111111
        k(    6) = (   0.0239181   0.0414274   0.0000000), wk =   0.1111111
        k(    7) = (   0.0239181   0.0690457   0.0000000), wk =   0.1111111
        k(    8) = (   0.0239181  -0.0690457   0.0000000), wk =   0.1111111
        k(    9) = (   0.0239181  -0.0414274   0.0000000), wk =   0.1111111
        k(   10) = (   0.0239181  -0.0138091   0.0000000), wk =   0.1111111
        k(   11) = (   0.0478363   0.0276183   0.0000000), wk =   0.1111111
        k(   12) = (   0.0478363   0.0552366   0.0000000), wk =   0.1111111
        k(   13) = (   0.0478363   0.0828549   0.0000000), wk =   0.1111111
        k(   14) = (   0.0478363  -0.0552366   0.0000000), wk =   0.1111111
        k(   15) = (   0.0478363  -0.0276183   0.0000000), wk =   0.1111111
        k(   16) = (   0.0478363   0.0000000   0.0000000), wk =   0.1111111
        k(   17) = (  -0.0717544  -0.0414274   0.0000000), wk =   0.0555556
        k(   18) = (  -0.0717544  -0.0138091   0.0000000), wk =   0.1111111
        k(   19) = (  -0.0717544   0.0138091   0.0000000), wk =   0.1111111
        k(   20) = (  -0.0717544  -0.1242823   0.0000000), wk =   0.0555556

     Largest allocated arrays     est. size (Mb)     dimensions
     Largest temporary arrays     est. size (Mb)     dimensions

     Initial potential from superposition of free atoms
     Check: negative starting charge=   -0.624959

     starting charge  137.70770, renormalised to  138.00000

[...]

     *
     * You are using vdW-DF for exchange-correlation in this calculation.
     * Please cite the following three references that made this development
     * possible:
     *
     *   M. Dion, H. Rydberg, E. Schroder, D. C. Langreth, and
     *   B. I. Lundqvist, Phys. Rev. Lett. 92, 246401 (2004).
     *
     *   T. Thonhauser, V. R. Cooper, S. Li, A. Puzder, P. Hyldgaard, and
     *   D. C. Langreth, Phys. Rev. B 76, 125112 (2007).
     *
     *   G. Roman-Perez and J. M. Soler, Phys. Rev. Lett. 103, 096102 (2009).
     *
     *
     * If you are using vdW-DF2, please also cite:
     *
     *   K. Lee, E. D. Murray, L. Kong, B. I. Lundqvist, and
     *   D. C. Langreth, Phys. Rev. B 82, 081101(R) (2010).
     *
     *
     * If you are calculating the stress with vdW-DF, please also cite:
     *
     *   R. Sabatini, E. Kucukbenli, B. Kolb, T. Thonhauser, and
     *   S. de Gironcoli, J. Phys.: Condens. Matter 24, 424209 (2012).
     *

     Carrying out vdW-DF run using the following parameters:

     Nqs =      20    Nr_points =    1024   r_max =   100.000
     q_mesh =
               0.00001000     0.04494208     0.09755937     0.15916263
               0.23128650     0.31572767     0.41458969     0.53033537
               0.66584808     0.82450364     1.01025438     1.22772762
               1.48234092     1.78043706     2.12944203     2.53805004
               3.01644009     3.57652955     4.23227104     5.00000000

     Gradients computed in reciprocal space

[...]

     Starting wfc are  210 randomized atomic wfcs

     Self-consistent Calculation

[...]

     iteration # 17     ecut=    36.75 Ry     beta=0.10
     Davidson diagonalization with overlap
     c_bands:  1 eigenvalues not converged
     c_bands:  1 eigenvalues not converged
     ethr =  3.53E-07,  avg # of iterations =  5.1

[...]

     total energy              =   -1373.02126793 Ry
     Harris-Foulkes estimate   =   -1373.02126876 Ry
     estimated scf accuracy    <       0.00000260 Ry

     iteration # 25     ecut=    36.75 Ry     beta=0.10
     Davidson diagonalization with overlap
     ethr =  1.88E-09,  avg # of iterations =  3.0

[...]

     negative rho (up, down):  4.012E-01 0.000E+00

     Adding external electric field

     Computed dipole along edir(3) :
        Dipole                0.0782 Ry au,          0.1988 Debye
        Dipole field          0.0001 Ry au

        Potential amp.       -0.0128 Ry
        Total length         47.3325 bohr

     End of self-consistent calculation

[...]

          k = 0.0478 0.0000 0.0000 ( 27459 PWs)   bands (ev):

[...]

          k =-0.0718-0.1243 0.0000 ( 27402 PWs)   bands (ev):

   -62.4883 -62.4809 -62.3712 -36.3386 -36.2868 -36.2868 -36.2731 -36.2693
   -36.2692 -36.1928 -36.1928 -36.1834 -31.2644 -31.2226 -31.1540 -31.1390
   -31.0819 -31.0772 -30.6688 -30.6050 -30.5350 -15.5984 -15.4974 -15.3439
   -15.1620 -15.1133 -15.0202 -15.0175 -14.9373 -14.8916 -14.8826 -14.8703
   -14.8109 -14.7889 -14.7791 -14.7027 -14.6652 -14.6210 -14.3709 -14.2202
   -14.2198 -14.1562 -14.1366 -14.0548 -14.0383 -13.9995 -13.9468 -13.6637
    -0.2703  -0.2591   0.2568   0.4477   0.5520   0.6685   0.9799   1.0117
     1.0389   1.1003   1.1145   1.1882   1.2805   1.3405   1.5185   1.5353
     1.6247   1.6419   1.6836   1.7915   1.8563   1.9094   1.9105   1.9950
     2.0385   2.0731   2.1370   2.2592   2.3821   2.4160   2.4288   2.5852
     2.6496   2.6764   2.7134   2.7478   2.9002   2.9472   3.0497   3.0813
     3.0923   3.2200   3.2772   3.3036   3.4052   3.4390   3.4539   3.4575
     3.5149   3.5256   3.5500

     the Fermi energy is     1.8800 ev

!    total energy              =   -1373.02126458 Ry
     Harris-Foulkes estimate   =   -1373.02126857 Ry
     estimated scf accuracy    <       0.00000043 Ry

     The total energy is the sum of the following terms:

     one-electron contribution =   -6352.92236000 Ry
     hartree contribution      =    3183.86330639 Ry
     xc contribution           =    -517.87071743 Ry
     ewald contribution        =    2314.06061694 Ry
     electric field correction =       0.00001055 Ry
     smearing contrib. (-TS)   =      -0.15212103 Ry

     convergence has been achieved in  25 iterations

 BEEF-vdW xc energy contributions
           1 :   -457.523373424321
           2 :    419.877556177281
           3 :   -353.831915358176
           4 :    274.276097253126
           5 :   -196.559493972430
           6 :    132.089856199330
           7 :   -86.2613719705773
           8 :    58.8207825671634
           9 :   -45.7728167940311
          10 :    41.6358458153450
          11 :   -41.2039633301158
          12 :    40.5059435342066
          13 :   -37.1164332376350
          14 :    30.1380481359830
          15 :   -20.0708185436766
          16 :    8.54970744647790
          17 :    2.16132884870365
          18 :   -9.91087904938206
          19 :    13.4023225036098
          20 :   -12.6219631087305
          21 :    8.76663520784592
          22 :   -3.73637625710751
          23 :  -0.563242154507293
          24 :    2.82383976568133
          25 :   -2.64978655590926
          26 :   0.530176157918731
          27 :    2.46108100633330
          28 :   -5.10119699929595
          29 :    6.44521624925318
          30 :   -6.12911931063661
          31 :   -39.7477993186467
          32 :   -28.5650964216056

     Forces acting on atoms (Ry/au):

     negative rho (up, down):  4.012E-01 0.000E+00
     atom    1 type  1   force =     0.00000106    0.01681771   -0.00703567
     atom    2 type  1   force =     0.01455925   -0.00840730   -0.00704928
     atom    3 type  1   force =    -0.01455877   -0.00840901   -0.00704820
     atom    4 type  2   force =     0.00000043    0.00000975    0.03450074
     atom    5 type  1   force =    -0.00000418   -0.00738090   -0.00548099
     atom    6 type  1   force =    -0.00639098    0.00368485   -0.00548959
     atom    7 type  1   force =     0.00639188    0.00368942   -0.00548585
     atom    8 type  2   force =     0.00000089    0.00000722    0.00365878
     atom    9 type  1   force =    -0.00000072    0.00015472   -0.00048954
     atom   10 type  1   force =     0.00013910   -0.00009157   -0.00051433
     atom   11 type  1   force =    -0.00013852   -0.00009248   -0.00051282
     atom   12 type  2   force =     0.00000055    0.00001759    0.00094676

     Total force =     0.049559     Total SCF correction =     0.001568

     entering subroutine stress ...

     negative rho (up, down):  4.012E-01 0.000E+00
          total   stress  (Ry/bohr**3)                   (kbar)     P=   -3.10
  -0.00002561   0.00000000  -0.00000000         -3.77      0.00     -0.00
   0.00000000  -0.00002563  -0.00000000          0.00     -3.77     -0.00
  -0.00000000  -0.00000000  -0.00001191         -0.00     -0.00     -1.75

 !ASE

     Writing output data file calc.save

     General routines

     Parallel routines

   This run was terminated on:  22:25:35  26Dec2018

   JOB DONE.
Job  /afs/slac/g/suncat/bin/suncat-tsmpirun -x LD_LIBRARY_PATH -wdir /scratch/qe110038_1dA9R pw.x -in pw.inp

TID   HOST_NAME   COMMAND_LINE            STATUS            TERMINATION_TIME
00000 suncat0095 pw.x -in pw.inp   Done                     12/26/2018 22:25:35
00001 suncat0095 pw.x -in pw.inp   Done                     12/26/2018 22:25:35
00002 suncat0095 pw.x -in pw.inp   Done                     12/26/2018 22:25:35
00003 suncat0095 pw.x -in pw.inp   Done                     12/26/2018 22:25:35
00004 suncat0095 pw.x -in pw.inp   Done                     12/26/2018 22:25:35
00005 suncat0095 pw.x -in pw.inp   Done                     12/26/2018 22:25:35
00006 suncat0095 pw.x -in pw.inp   Done                     12/26/2018 22:25:35
00007 suncat0095 pw.x -in pw.inp   Done                     12/26/2018 22:25:35
00008 suncat0094 pw.x -in pw.inp   Done                     12/26/2018 22:25:35
00009 suncat0094 pw.x -in pw.inp   Done                     12/26/2018 22:25:35
00010 suncat0094 pw.x -in pw.inp   Done                     12/26/2018 22:25:35
00011 suncat0094 pw.x -in pw.inp   Done                     12/26/2018 22:25:35
00012 suncat0094 pw.x -in pw.inp   Done                     12/26/2018 22:25:35
00013 suncat0094 pw.x -in pw.inp   Done                     12/26/2018 22:25:35
00014 suncat0094 pw.x -in pw.inp   Done                     12/26/2018 22:25:35
00015 suncat0094 pw.x -in pw.inp   Done                     12/26/2018 22:25:35
00016 suncat0093 pw.x -in pw.inp   Done                     12/26/2018 22:25:35
00017 suncat0093 pw.x -in pw.inp   Done                     12/26/2018 22:25:35
00018 suncat0093 pw.x -in pw.inp   Done                     12/26/2018 22:25:35
00019 suncat0093 pw.x -in pw.inp   Done                     12/26/2018 22:25:35
00020 suncat0093 pw.x -in pw.inp   Done                     12/26/2018 22:25:35
00021 suncat0093 pw.x -in pw.inp   Done                     12/26/2018 22:25:35
00022 suncat0093 pw.x -in pw.inp   Done                     12/26/2018 22:25:35
00023 suncat0093 pw.x -in pw.inp   Done                     12/26/2018 22:25:35
00024 suncat0089 pw.x -in pw.inp   Done                     12/26/2018 22:25:35
00025 suncat0089 pw.x -in pw.inp   Done                     12/26/2018 22:25:35
00026 suncat0089 pw.x -in pw.inp   Done                     12/26/2018 22:25:35
00027 suncat0089 pw.x -in pw.inp   Done                     12/26/2018 22:25:35
00028 suncat0089 pw.x -in pw.inp   Done                     12/26/2018 22:25:35
00029 suncat0089 pw.x -in pw.inp   Done                     12/26/2018 22:25:35
00030 suncat0089 pw.x -in pw.inp   Done                     12/26/2018 22:25:35
00031 suncat0089 pw.x -in pw.inp   Done                     12/26/2018 22:25:35
00032 suncat0088 pw.x -in pw.inp   Done                     12/26/2018 22:25:35
00033 suncat0088 pw.x -in pw.inp   Done                     12/26/2018 22:25:35
00034 suncat0088 pw.x -in pw.inp   Done                     12/26/2018 22:25:35
00035 suncat0088 pw.x -in pw.inp   Done                     12/26/2018 22:25:35
00036 suncat0088 pw.x -in pw.inp   Done                     12/26/2018 22:25:35
00037 suncat0088 pw.x -in pw.inp   Done                     12/26/2018 22:25:35
00038 suncat0088 pw.x -in pw.inp   Done                     12/26/2018 22:25:35
00039 suncat0088 pw.x -in pw.inp   Done                     12/26/2018 22:25:35
00040 suncat0129 pw.x -in pw.inp   Done                     12/26/2018 22:25:35
00041 suncat0129 pw.x -in pw.inp   Done                     12/26/2018 22:25:35
00042 suncat0129 pw.x -in pw.inp   Done                     12/26/2018 22:25:35
00043 suncat0129 pw.x -in pw.inp   Done                     12/26/2018 22:25:35
00044 suncat0129 pw.x -in pw.inp   Done                     12/26/2018 22:25:35
00045 suncat0129 pw.x -in pw.inp   Done                     12/26/2018 22:25:35
00046 suncat0129 pw.x -in pw.inp   Done                     12/26/2018 22:25:35
00047 suncat0129 pw.x -in pw.inp   Done                     12/26/2018 22:25:35
00048 suncat0254 pw.x -in pw.inp   Done                     12/26/2018 22:25:35
00049 suncat0254 pw.x -in pw.inp   Done                     12/26/2018 22:25:35
00050 suncat0254 pw.x -in pw.inp   Done                     12/26/2018 22:25:35
00051 suncat0254 pw.x -in pw.inp   Done                     12/26/2018 22:25:35
00052 suncat0254 pw.x -in pw.inp   Done                     12/26/2018 22:25:35
00053 suncat0254 pw.x -in pw.inp   Done                     12/26/2018 22:25:35
00054 suncat0254 pw.x -in pw.inp   Done                     12/26/2018 22:25:35
00055 suncat0254 pw.x -in pw.inp   Done                     12/26/2018 22:25:35
00056 suncat0253 pw.x -in pw.inp   Done                     12/26/2018 22:25:35
00057 suncat0253 pw.x -in pw.inp   Done                     12/26/2018 22:25:35
00058 suncat0253 pw.x -in pw.inp   Done                     12/26/2018 22:25:35
00059 suncat0253 pw.x -in pw.inp   Done                     12/26/2018 22:25:35
00060 suncat0253 pw.x -in pw.inp   Done                     12/26/2018 22:25:35
00061 suncat0253 pw.x -in pw.inp   Done                     12/26/2018 22:25:35
00062 suncat0253 pw.x -in pw.inp   Done                     12/26/2018 22:25:35
00063 suncat0253 pw.x -in pw.inp   Done                     12/26/2018 22:25:35