     Program PWSCF v.5.1rc2 (svn rev. 11289) starts on  2Jan2019 at  6: 7:18

     Current dimensions of program PWSCF are:
     Max number of different atomic species (ntypx) = 10
     Max number of k-points (npk) =  40000
     Max angular momentum in pseudopotentials (lmaxx) =  3
     Presently stress not available with electric field

     IMPORTANT: XC functional enforced from input :
     Exchange-correlation      = BEEF-VDW ( 1  4 27 13 2)
     Any further DFT definition will be discarded
     Please, verify this is what you really want

     Subspace diagonalization in iterative solution of the eigenvalue problem:
     a serial algorithm will be used

     bravais-lattice index     =            0
     lattice parameter (alat)  =       1.8897  a.u.
     unit-cell volume          =    4207.6745 (a.u.)^3
     number of atoms/cell      =           12
     number of atomic types    =            2
     number of electrons       =       162.00
     number of Kohn-Sham states=          111
     kinetic-energy cutoff     =      36.7493  Ry
     charge density cutoff     =     367.4932  Ry
     convergence threshold     =      1.0E-06
     mixing beta               =       0.1000
     number of iterations used =           10  plain     mixing
     Exchange-correlation      = BEEF-VDW ( 1  4 27 13 2)
     nstep                     =           50

     celldm(1)=   1.889726  celldm(2)=   0.000000  celldm(3)=   0.000000
     celldm(4)=   0.000000  celldm(5)=   0.000000  celldm(6)=   0.000000

     crystal axes: (cart. coord. in units of alat)
               a(1) = (   5.428442   0.000000   0.000000 )
               a(2) = (  -2.714221   4.701169   0.000000 )
               a(3) = (   0.000000   0.000000  24.432305 )

     reciprocal axes: (cart. coord. in units 2 pi/alat)
               b(1) = (  0.184215  0.106357  0.000000 )
               b(2) = (  0.000000  0.212713  0.000000 )
               b(3) = (  0.000000  0.000000  0.040929 )

     PseudoPot. # 1 for V  read from file:
     /afs/slac.stanford.edu/u/if/mamunm/psp/gbrv1.5pbe/V.UPF
     MD5 check sum: 22b79981416ebb76fdaf5b1b8640f6fb
     Pseudo is Ultrasoft + core correction, Zval = 13.0
     Generated by new atomic code, or converted to UPF format
     Using radial grid of  853 points,  6 beta functions with:
                l(1) =   0
                l(2) =   0
                l(3) =   1
                l(4) =   1
                l(5) =   2
                l(6) =   2
     Q(r) pseudized with  8 coefficients,  rinner =    1.100   1.100   1.100
                                                       1.100   1.100

     PseudoPot. # 2 for Tc read from file:
     /afs/slac.stanford.edu/u/if/mamunm/psp/gbrv1.5pbe/Tc.UPF
     MD5 check sum: 9eb49e5b028550b2339a02317eb7b844
     Pseudo is Ultrasoft + core correction, Zval = 15.0
     Generated by new atomic code, or converted to UPF format
     Using radial grid of  965 points,  6 beta functions with:
                l(1) =   0
                l(2) =   0
                l(3) =   1
                l(4) =   1
                l(5) =   2
                l(6) =   2
     Q(r) pseudized with  8 coefficients,  rinner =    1.300   1.300   1.300
                                                       1.300   1.300

     vdW kernel table read from file vdW_kernel_table
     MD5 check sum: 095c7af220d748ca6e76c0b4c6cfb241

     atomic species   valence    mass     pseudopotential
        V1            13.00    50.94150     V ( 1.00)
        Tc1           15.00    97.90721     Tc( 1.00)

     No symmetry found

   Cartesian axes

     site n.     atom                  positions (alat units)
         1           V1  tau(   1) = (   0.0000000   0.0000000  10.0000000  )
         2           V1  tau(   2) = (  -1.3571106   2.3505845  10.0000000  )
         3           V1  tau(   3) = (   1.3571106   2.3505845  10.0000000  )
         4           Tc1 tau(   4) = (   2.7142212   0.0000000  10.0000000  )
         5           V1  tau(   5) = (   2.7142212   1.5670563  12.2161523  )
         6           V1  tau(   6) = (   1.3571106   3.9176409  12.2161523  )
         7           V1  tau(   7) = (  -1.3571106   3.9176409  12.2161523  )
         8           Tc1 tau(   8) = (   0.0000000   1.5670563  12.2161523  )
         9           V1  tau(   9) = (  -0.0000000   3.1341127  14.4323047  )
        10           V1  tau(  10) = (   1.3571106   0.7835282  14.4323047  )
        11           V1  tau(  11) = (   4.0713318   0.7835282  14.4323047  )
        12           Tc1 tau(  12) = (   2.7142212   3.1341127  14.4323047  )

     number of k points=    20  Fermi-Dirac smearing, width (Ry)=  0.0110
                       cart. coord. in units 2pi/alat
        k(    1) = (   0.0000000   0.0000000   0.0000000), wk =   0.0555556
        k(    2) = (   0.0000000   0.0354522   0.0000000), wk =   0.1111111
        k(    3) = (   0.0000000   0.0709043   0.0000000), wk =   0.1111111
        k(    4) = (   0.0000000  -0.1063565   0.0000000), wk =   0.0555556
        k(    5) = (   0.0307025   0.0177261   0.0000000), wk =   0.1111111
        k(    6) = (   0.0307025   0.0531783   0.0000000), wk =   0.1111111
        k(    7) = (   0.0307025   0.0886304   0.0000000), wk =   0.1111111
        k(    8) = (   0.0307025  -0.0886304   0.0000000), wk =   0.1111111
        k(    9) = (   0.0307025  -0.0531783   0.0000000), wk =   0.1111111
        k(   10) = (   0.0307025  -0.0177261   0.0000000), wk =   0.1111111
        k(   11) = (   0.0614050   0.0354522   0.0000000), wk =   0.1111111
        k(   12) = (   0.0614050   0.0709043   0.0000000), wk =   0.1111111
        k(   13) = (   0.0614050   0.1063565   0.0000000), wk =   0.1111111
        k(   14) = (   0.0614050  -0.0709043   0.0000000), wk =   0.1111111
        k(   15) = (   0.0614050  -0.0354522   0.0000000), wk =   0.1111111
        k(   16) = (   0.0614050  -0.0000000   0.0000000), wk =   0.1111111
        k(   17) = (  -0.0921075  -0.0531783   0.0000000), wk =   0.0555556
        k(   18) = (  -0.0921075  -0.0177261   0.0000000), wk =   0.1111111
        k(   19) = (  -0.0921075   0.0177261   0.0000000), wk =   0.1111111
        k(   20) = (  -0.0921075  -0.1595348   0.0000000), wk =   0.0555556

     Largest allocated arrays     est. size (Mb)     dimensions
     Largest temporary arrays     est. size (Mb)     dimensions

     Check: negative/imaginary core charge=   -0.000011    0.000000

     Initial potential from superposition of free atoms
     Check: negative starting charge=   -0.382185

     starting charge  158.98887, renormalised to  162.00000

     negative rho (up, down):  3.894E-01 0.000E+00

     *
     * You are using vdW-DF for exchange-correlation in this calculation.
     * Please cite the following three references that made this development
     * possible:
     *
     *   M. Dion, H. Rydberg, E. Schroder, D. C. Langreth, and
     *   B. I. Lundqvist, Phys. Rev. Lett. 92, 246401 (2004).
     *
     *   T. Thonhauser, V. R. Cooper, S. Li, A. Puzder, P. Hyldgaard, and
     *   D. C. Langreth, Phys. Rev. B 76, 125112 (2007).
     *
     *   G. Roman-Perez and J. M. Soler, Phys. Rev. Lett. 103, 096102 (2009).
     *
     *
     * If you are using vdW-DF2, please also cite:
     *
     *   K. Lee, E. D. Murray, L. Kong, B. I. Lundqvist, and
     *   D. C. Langreth, Phys. Rev. B 82, 081101(R) (2010).
     *
     *
     * If you are calculating the stress with vdW-DF, please also cite:
     *
     *   R. Sabatini, E. Kucukbenli, B. Kolb, T. Thonhauser, and
     *   S. de Gironcoli, J. Phys.: Condens. Matter 24, 424209 (2012).
     *

     Carrying out vdW-DF run using the following parameters:

     Nqs =      20    Nr_points =    1024   r_max =   100.000
     q_mesh =
               0.00001000     0.04494208     0.09755937     0.15916263
               0.23128650     0.31572767     0.41458969     0.53033537
               0.66584808     0.82450364     1.01025438     1.22772762
               1.48234092     1.78043706     2.12944203     2.53805004
               3.01644009     3.57652955     4.23227104     5.00000000

     Gradients computed in reciprocal space

     Adding external electric field

     Computed dipole along edir(3) :
        Dipole                0.0000 Ry au,          0.0000 Debye
        Dipole field          0.0000 Ry au

        Potential amp.       -0.0000 Ry
        Total length         45.0161 bohr

     Starting wfc are  129 randomized atomic wfcs

     Self-consistent Calculation

     iteration #  1     ecut=    36.75 Ry     beta=0.10
     Davidson diagonalization with overlap
     ethr =  1.00E-02,  avg # of iterations =  2.4

[...]

     total energy              =   -1836.99922238 Ry
     Harris-Foulkes estimate   =   -1838.55381043 Ry
     estimated scf accuracy    <       8.93837115 Ry

[...]

     End of self-consistent calculation

          k = 0.0000 0.0000 0.0000 ( 15785 PWs)   bands (ev):

   -65.4583 -65.2062 -65.2057 -63.0113 -62.9577 -62.9365 -62.9264 -62.9263
   -62.8856 -62.8855 -62.8785 -62.8784 -37.6425 -37.6425 -37.5828 -37.4275
   -37.4275 -37.3951 -37.3951 -37.3793 -37.2341 -37.0796 -36.9614 -36.8868
   -36.8476 -36.8476 -36.8389 -36.7944 -36.7817 -36.7816 -36.7433 -36.7433
   -36.6863 -36.6863 -36.6737 -36.6640 -36.6640 -36.6056 -36.6055 -36.5949
   -36.5726 -36.5377 -36.4966 -36.4965 -36.4338 -36.4338 -36.4249 -36.4249
    -4.8331  -3.3108  -2.5724  -2.5459  -2.5459  -2.2210  -2.2210  -1.7547
    -1.6932  -1.6932  -1.6499  -1.6499  -1.5941  -1.4575  -1.0203  -0.7395
    -0.7395  -0.1491   0.2192   0.2192   0.2650   0.5570   0.8149   1.1458
     1.1877   1.2040   1.2040   1.3307   1.3307   1.3544   1.3544   1.4896
     1.4896   1.5285   1.5285   1.6222   1.9886   1.9902   2.2627   2.2627
     2.4849   2.4849   2.6242   2.8697   2.8697   3.1517   3.1517   3.2683
     3.4461   3.4462   3.4811   3.5364   3.5364   3.7021   3.7554   3.7554
     3.8638   3.8638   4.1733   4.2867   4.2867   4.3407   4.4343

[...]

          k =-0.0921-0.0532 0.0000 ( 15860 PWs)   bands (ev):

[...]

     the Fermi energy is     1.3264 ev

!    total energy              =   -1837.50141041 Ry
     Harris-Foulkes estimate   =   -1837.50140708 Ry
     estimated scf accuracy    <       0.00000076 Ry

     The total energy is the sum of the following terms:

     one-electron contribution =  -15690.24750654 Ry
     hartree contribution      =    7834.80475820 Ry
     xc contribution           =    -282.33537446 Ry
     ewald contribution        =    6300.41843562 Ry
     electric field correction =       0.00000000 Ry
     smearing contrib. (-TS)   =      -0.14172322 Ry

     convergence has been achieved in  21 iterations

 BEEF-vdW xc energy contributions
           1 :   -244.788772394066
           2 :    221.586501912698
           3 :   -182.372232008159
           4 :    138.077902021405
           5 :   -98.7426933682681
           6 :    69.9298683392588
           7 :   -51.8477489005438
           8 :    41.0154294566619
           9 :   -33.1335552140721
          10 :    25.4313620414852
          11 :   -17.5009921016850
          12 :    10.6052411259366
          13 :   -6.27331975669341
          14 :    5.12655333249830
[...]
     MD5 check sum: 22b79981416ebb76fdaf5b1b8640f6fb
     Pseudo is Ultrasoft + core correction, Zval = 13.0
     Generated by new atomic code, or converted to UPF format
     Using radial grid of  853 points,  6 beta functions with:
                l(1) =   0
                l(2) =   0
                l(3) =   1
                l(4) =   1
                l(5) =   2
                l(6) =   2
     Q(r) pseudized with  8 coefficients,  rinner =    1.100   1.100   1.100
                                                       1.100   1.100

     PseudoPot. # 2 for Tc read from file:
     /afs/slac.stanford.edu/u/if/mamunm/psp/gbrv1.5pbe/Tc.UPF
     MD5 check sum: 9eb49e5b028550b2339a02317eb7b844
     Pseudo is Ultrasoft + core correction, Zval = 15.0
     Generated by new atomic code, or converted to UPF format
     Using radial grid of  965 points,  6 beta functions with:
                l(1) =   0
                l(2) =   0
                l(3) =   1
                l(4) =   1
                l(5) =   2
                l(6) =   2
     Q(r) pseudized with  8 coefficients,  rinner =    1.300   1.300   1.300
                                                       1.300   1.300

     vdW kernel table read from file vdW_kernel_table
     MD5 check sum: 095c7af220d748ca6e76c0b4c6cfb241

     atomic species   valence    mass     pseudopotential
        V1            13.00    50.94150     V ( 1.00)
        Tc1           15.00    97.90721     Tc( 1.00)

     No symmetry found

   Cartesian axes

     site n.     atom                  positions (alat units)
         1           V1  tau(   1) = (   0.0000000   0.0000000  10.0000000  )
         2           V1  tau(   2) = (  -1.3571106   2.3505845  10.0000000  )
         3           V1  tau(   3) = (   1.3571106   2.3505845  10.0000000  )
         4           Tc1 tau(   4) = (   2.7142212   0.0000000  10.0000000  )
         5           V1  tau(   5) = (   2.7142212   1.5670563  12.2161523  )
         6           V1  tau(   6) = (   1.3571106   3.9176409  12.2161523  )
         7           V1  tau(   7) = (  -1.3571106   3.9176409  12.2161523  )
         8           Tc1 tau(   8) = (   0.0000000   1.5670563  12.2161523  )
         9           V1  tau(   9) = (   0.0000384   3.1232379  14.4537081  )
        10           V1  tau(  10) = (   1.3476712   0.7890097  14.4537477  )
        11           V1  tau(  11) = (   4.0807537   0.7889559  14.4536940  )
        12           Tc1 tau(  12) = (   2.7141407   3.1341135  14.3782471  )

     number of k points=    20  Fermi-Dirac smearing, width (Ry)=  0.0110
                       cart. coord. in units 2pi/alat
        k(    1) = (   0.0000000   0.0000000   0.0000000), wk =   0.0555556
        k(    2) = (   0.0000000   0.0354522   0.0000000), wk =   0.1111111
        k(    3) = (   0.0000000   0.0709043   0.0000000), wk =   0.1111111
        k(    4) = (   0.0000000  -0.1063565   0.0000000), wk =   0.0555556
        k(    5) = (   0.0307025   0.0177261   0.0000000), wk =   0.1111111
        k(    6) = (   0.0307025   0.0531783   0.0000000), wk =   0.1111111
        k(    7) = (   0.0307025   0.0886304   0.0000000), wk =   0.1111111
        k(    8) = (   0.0307025  -0.0886304   0.0000000), wk =   0.1111111
        k(    9) = (   0.0307025  -0.0531783   0.0000000), wk =   0.1111111
        k(   10) = (   0.0307025  -0.0177261   0.0000000), wk =   0.1111111
        k(   11) = (   0.0614050   0.0354522   0.0000000), wk =   0.1111111
        k(   12) = (   0.0614050   0.0709043   0.0000000), wk =   0.1111111
        k(   13) = (   0.0614050   0.1063565   0.0000000), wk =   0.1111111
        k(   14) = (   0.0614050  -0.0709043   0.0000000), wk =   0.1111111
        k(   15) = (   0.0614050  -0.0354522   0.0000000), wk =   0.1111111
        k(   16) = (   0.0614050  -0.0000000   0.0000000), wk =   0.1111111
        k(   17) = (  -0.0921075  -0.0531783   0.0000000), wk =   0.0555556
        k(   18) = (  -0.0921075  -0.0177261   0.0000000), wk =   0.1111111
        k(   19) = (  -0.0921075   0.0177261   0.0000000), wk =   0.1111111
        k(   20) = (  -0.0921075  -0.1595348   0.0000000), wk =   0.0555556

     Largest allocated arrays     est. size (Mb)     dimensions
     Largest temporary arrays     est. size (Mb)     dimensions

     Check: negative/imaginary core charge=   -0.000011    0.000000

     Initial potential from superposition of free atoms
     Check: negative starting charge=   -0.383285

     starting charge  158.98887, renormalised to  162.00000

[...]

     *
     * You are using vdW-DF for exchange-correlation in this calculation.
     * Please cite the following three references that made this development
     * possible:
     *
     *   M. Dion, H. Rydberg, E. Schroder, D. C. Langreth, and
     *   B. I. Lundqvist, Phys. Rev. Lett. 92, 246401 (2004).
     *
     *   T. Thonhauser, V. R. Cooper, S. Li, A. Puzder, P. Hyldgaard, and
     *   D. C. Langreth, Phys. Rev. B 76, 125112 (2007).
     *
     *   G. Roman-Perez and J. M. Soler, Phys. Rev. Lett. 103, 096102 (2009).
     *
     *
     * If you are using vdW-DF2, please also cite:
     *
     *   K. Lee, E. D. Murray, L. Kong, B. I. Lundqvist, and
     *   D. C. Langreth, Phys. Rev. B 82, 081101(R) (2010).
     *
     *
     * If you are calculating the stress with vdW-DF, please also cite:
     *
     *   R. Sabatini, E. Kucukbenli, B. Kolb, T. Thonhauser, and
     *   S. de Gironcoli, J. Phys.: Condens. Matter 24, 424209 (2012).
     *

     Carrying out vdW-DF run using the following parameters:

     Nqs =      20    Nr_points =    1024   r_max =   100.000
     q_mesh =
               0.00001000     0.04494208     0.09755937     0.15916263
               0.23128650     0.31572767     0.41458969     0.53033537
               0.66584808     0.82450364     1.01025438     1.22772762
               1.48234092     1.78043706     2.12944203     2.53805004
               3.01644009     3.57652955     4.23227104     5.00000000

     Gradients computed in reciprocal space

[...]

     Starting wfc are  129 randomized atomic wfcs

     Self-consistent Calculation

[...]

     total energy              =   -1837.50186217 Ry
     Harris-Foulkes estimate   =   -1837.50186127 Ry
     estimated scf accuracy    <       0.00000183 Ry

     iteration # 21     ecut=    36.75 Ry     beta=0.10
     Davidson diagonalization with overlap
     ethr =  1.13E-09,  avg # of iterations =  2.2

[...]

     negative rho (up, down):  4.050E-01 0.000E+00

     Adding external electric field

     Computed dipole along edir(3) :
        Dipole                0.0070 Ry au,          0.0177 Debye
        Dipole field          0.0000 Ry au

        Potential amp.       -0.0019 Ry
        Total length         45.0161 bohr

     End of self-consistent calculation

[...]

          k = 0.0614-0.0000 0.0000 ( 15830 PWs)   bands (ev):

[...]

          k =-0.0921-0.1595 0.0000 ( 15860 PWs)   bands (ev):

   -65.4518 -65.1957 -65.1926 -62.9691 -62.9498 -62.9183 -62.9138 -62.9022
   -62.8962 -62.8869 -62.8725 -62.8653 -37.5780 -37.5528 -37.4955 -37.3639
   -37.3410 -37.3208 -37.2919 -37.2253 -37.2198 -36.9855 -36.9271 -36.9036
   -36.8569 -36.8498 -36.7945 -36.7706 -36.7698 -36.7575 -36.7365 -36.7169
   -36.7038 -36.7007 -36.6785 -36.6777 -36.6718 -36.6498 -36.6394 -36.6214
   -36.6075 -36.5828 -36.5779 -36.5737 -36.5451 -36.4959 -36.4467 -36.4409
    -3.2024  -3.0551  -2.1114  -1.8780  -1.8363  -1.7303  -1.4660  -1.2624
    -1.1481  -1.1324  -0.9721  -0.8065  -0.7893  -0.7127  -0.5193  -0.3837
    -0.2942  -0.2472  -0.2181   0.0502   0.1899   0.2223   0.3343   0.4580
     0.4922   0.5710   0.7297   0.8484   0.8863   0.8984   1.0199   1.0868
     1.1345   1.2092   1.2841   1.2877   1.3612   1.3901   1.7401   1.8160
     2.0103   2.1467   2.2113   2.2659   2.3898   2.3977   2.5436   2.6763
     2.7226   2.7754   2.7867   2.8540   2.8743   2.8813   3.0218   3.0662
     3.2609   3.2905   3.5447   3.5919   3.9058   3.9541   4.1398

     the Fermi energy is     1.3407 ev

!    total energy              =   -1837.50186556 Ry
     Harris-Foulkes estimate   =   -1837.50186231 Ry
     estimated scf accuracy    <       0.00000093 Ry

     The total energy is the sum of the following terms:

     one-electron contribution =  -15688.97700077 Ry
     hartree contribution      =    7834.23474191 Ry
     xc contribution           =    -282.33712419 Ry
     ewald contribution        =    6299.71889163 Ry
     electric field correction =       0.00000014 Ry
     smearing contrib. (-TS)   =      -0.14137429 Ry

     convergence has been achieved in  21 iterations

 BEEF-vdW xc energy contributions
           1 :   -244.790583787011
           2 :    221.589199376087
           3 :   -182.377095828105
           4 :    138.086123497007
           5 :   -98.7513538494262
           6 :    69.9316371108087
           7 :   -51.8356871179429
           8 :    40.9895403755219
           9 :   -33.1019924017225
          10 :    25.4043136168735
          11 :   -17.4834633134192
          12 :    10.5947564924388
          13 :   -6.26286918781972
          14 :    5.10981938540488
          15 :   -6.52690801895204
          16 :    9.16732931300720
          17 :   -11.7816736220385
          18 :    13.7819917552621
          19 :   -15.2337407112850
          20 :    16.4021226198549
          21 :   -17.2865044018836
          22 :    17.5050885675184
          23 :   -16.5851442709045
          24 :    14.3811062546091
          25 :   -11.2815039335803
          26 :    8.04230227051852
          27 :   -5.37924200761938
          28 :    3.60718055771855
          29 :   -2.56892609056780
          30 :    1.87647327401027
          31 :   -24.5610301244172
          32 :   -17.8024444158764

     Forces acting on atoms (Ry/au):

     negative rho (up, down):  4.050E-01 0.000E+00
     atom    1 type  1   force =    -0.00000072    0.00144427   -0.00255079
     atom    2 type  1   force =     0.00124759   -0.00072230   -0.00254650
     atom    3 type  1   force =    -0.00125062   -0.00072261   -0.00254577
     atom    4 type  2   force =    -0.00000419    0.00000176    0.00662533
     atom    5 type  1   force =    -0.00000271   -0.00362941   -0.00091321
     atom    6 type  1   force =    -0.00314195    0.00181219   -0.00092397
     atom    7 type  1   force =     0.00314345    0.00181599   -0.00090137
     atom    8 type  2   force =     0.00000643    0.00000084    0.00458878
     atom    9 type  1   force =    -0.00001405    0.00032299   -0.00049353
     atom   10 type  1   force =     0.00028192   -0.00016922   -0.00050205
     atom   11 type  1   force =    -0.00027933   -0.00015154   -0.00049778
     atom   12 type  2   force =     0.00001418   -0.00000295    0.00066088

     Total force =     0.011583     Total SCF correction =     0.003134
     SCF correction compared to forces is large: reduce conv_thr to get better values

     entering subroutine stress ...

     negative rho (up, down):  4.050E-01 0.000E+00
          total   stress  (Ry/bohr**3)                   (kbar)     P=  -26.99
  -0.00027107  -0.00000002  -0.00000001        -39.88     -0.00     -0.00
  -0.00000002  -0.00027105  -0.00000001         -0.00    -39.87     -0.00
  -0.00000001  -0.00000001  -0.00000824         -0.00     -0.00     -1.21

 !ASE

     Writing output data file calc.save

     General routines

     Parallel routines

   This run was terminated on:   7: 8:50   2Jan2019

   JOB DONE.
Job  /afs/slac/g/suncat/bin/suncat-tsmpirun -x LD_LIBRARY_PATH -wdir /scratch/qe649331_TAgmW pw.x -in pw.inp

TID   HOST_NAME   COMMAND_LINE            STATUS            TERMINATION_TIME
00000 suncat0146 pw.x -in pw.inp   Done                     01/02/2019 07:08:50
00001 suncat0146 pw.x -in pw.inp   Done                     01/02/2019 07:08:50
00002 suncat0146 pw.x -in pw.inp   Done                     01/02/2019 07:08:50
00003 suncat0146 pw.x -in pw.inp   Done                     01/02/2019 07:08:50
00004 suncat0146 pw.x -in pw.inp   Done                     01/02/2019 07:08:50
00005 suncat0146 pw.x -in pw.inp   Done                     01/02/2019 07:08:50
00006 suncat0146 pw.x -in pw.inp   Done                     01/02/2019 07:08:50
00007 suncat0146 pw.x -in pw.inp   Done                     01/02/2019 07:08:50
00008 suncat0136 pw.x -in pw.inp   Done                     01/02/2019 07:08:50
00009 suncat0136 pw.x -in pw.inp   Done                     01/02/2019 07:08:50
00010 suncat0136 pw.x -in pw.inp   Done                     01/02/2019 07:08:50
00011 suncat0136 pw.x -in pw.inp   Done                     01/02/2019 07:08:50
00012 suncat0136 pw.x -in pw.inp   Done                     01/02/2019 07:08:50
00013 suncat0136 pw.x -in pw.inp   Done                     01/02/2019 07:08:50
00014 suncat0136 pw.x -in pw.inp   Done                     01/02/2019 07:08:50
00015 suncat0136 pw.x -in pw.inp   Done                     01/02/2019 07:08:50
00016 suncat0248 pw.x -in pw.inp   Done                     01/02/2019 07:08:50
00017 suncat0248 pw.x -in pw.inp   Done                     01/02/2019 07:08:50
00018 suncat0248 pw.x -in pw.inp   Done                     01/02/2019 07:08:50
00019 suncat0248 pw.x -in pw.inp   Done                     01/02/2019 07:08:50
00020 suncat0248 pw.x -in pw.inp   Done                     01/02/2019 07:08:50
00021 suncat0248 pw.x -in pw.inp   Done                     01/02/2019 07:08:50
00022 suncat0248 pw.x -in pw.inp   Done                     01/02/2019 07:08:50
00023 suncat0248 pw.x -in pw.inp   Done                     01/02/2019 07:08:50
00024 suncat0247 pw.x -in pw.inp   Done                     01/02/2019 07:08:50
00025 suncat0247 pw.x -in pw.inp   Done                     01/02/2019 07:08:50
00026 suncat0247 pw.x -in pw.inp   Done                     01/02/2019 07:08:50
00027 suncat0247 pw.x -in pw.inp   Done                     01/02/2019 07:08:50
00028 suncat0247 pw.x -in pw.inp   Done                     01/02/2019 07:08:50
00029 suncat0247 pw.x -in pw.inp   Done                     01/02/2019 07:08:50
00030 suncat0247 pw.x -in pw.inp   Done                     01/02/2019 07:08:50
00031 suncat0247 pw.x -in pw.inp   Done                     01/02/2019 07:08:50
00032 suncat0246 pw.x -in pw.inp   Done                     01/02/2019 07:08:50
00033 suncat0246 pw.x -in pw.inp   Done                     01/02/2019 07:08:50
00034 suncat0246 pw.x -in pw.inp   Done                     01/02/2019 07:08:50
00035 suncat0246 pw.x -in pw.inp   Done                     01/02/2019 07:08:50
00036 suncat0246 pw.x -in pw.inp   Done                     01/02/2019 07:08:50
00037 suncat0246 pw.x -in pw.inp   Done                     01/02/2019 07:08:50
00038 suncat0246 pw.x -in pw.inp   Done                     01/02/2019 07:08:50
00039 suncat0246 pw.x -in pw.inp   Done                     01/02/2019 07:08:50
00040 suncat0245 pw.x -in pw.inp   Done                     01/02/2019 07:08:50
00041 suncat0245 pw.x -in pw.inp   Done                     01/02/2019 07:08:50
00042 suncat0245 pw.x -in pw.inp   Done                     01/02/2019 07:08:50
00043 suncat0245 pw.x -in pw.inp   Done                     01/02/2019 07:08:50
00044 suncat0245 pw.x -in pw.inp   Done                     01/02/2019 07:08:50
00045 suncat0245 pw.x -in pw.inp   Done                     01/02/2019 07:08:50
00046 suncat0245 pw.x -in pw.inp   Done                     01/02/2019 07:08:50
00047 suncat0245 pw.x -in pw.inp   Done                     01/02/2019 07:08:50
00048 suncat0214 pw.x -in pw.inp   Done                     01/02/2019 07:08:50
00049 suncat0214 pw.x -in pw.inp   Done                     01/02/2019 07:08:50
00050 suncat0214 pw.x -in pw.inp   Done                     01/02/2019 07:08:50
00051 suncat0214 pw.x -in pw.inp   Done                     01/02/2019 07:08:50
00052 suncat0214 pw.x -in pw.inp   Done                     01/02/2019 07:08:50
00053 suncat0214 pw.x -in pw.inp   Done                     01/02/2019 07:08:50
00054 suncat0214 pw.x -in pw.inp   Done                     01/02/2019 07:08:50
00055 suncat0214 pw.x -in pw.inp   Done                     01/02/2019 07:08:50
00056 suncat0213 pw.x -in pw.inp   Done                     01/02/2019 07:08:50
00057 suncat0213 pw.x -in pw.inp   Done                     01/02/2019 07:08:50
00058 suncat0213 pw.x -in pw.inp   Done                     01/02/2019 07:08:50
00059 suncat0213 pw.x -in pw.inp   Done                     01/02/2019 07:08:50
00060 suncat0213 pw.x -in pw.inp   Done                     01/02/2019 07:08:50
00061 suncat0213 pw.x -in pw.inp   Done                     01/02/2019 07:08:50
00062 suncat0213 pw.x -in pw.inp   Done                     01/02/2019 07:08:50
00063 suncat0213 pw.x -in pw.inp   Done                     01/02/2019 07:08:50