     Program PWSCF v.5.1rc2 (svn rev. 11289) starts on  2Jan2019 at 22:17:44

     Current dimensions of program PWSCF are:
     Max number of different atomic species (ntypx) = 10
     Max number of k-points (npk) =  40000
     Max angular momentum in pseudopotentials (lmaxx) =  3
     Presently stress not available with electric field

     IMPORTANT: XC functional enforced from input :
     Exchange-correlation      = BEEF-VDW ( 1  4 27 13 2)
     Any further DFT definition will be discarded
     Please, verify this is what you really want

     Subspace diagonalization in iterative solution of the eigenvalue problem:
     a serial algorithm will be used

     bravais-lattice index     =            0
     lattice parameter (alat)  =       1.8897  a.u.
     unit-cell volume          =    5642.6422 (a.u.)^3
     number of atoms/cell      =           12
     number of atomic types    =            2
     number of electrons       =       150.00
     number of Kohn-Sham states=          105
     kinetic-energy cutoff     =      36.7493  Ry
     charge density cutoff     =     367.4932  Ry
     convergence threshold     =      1.0E-06
     mixing beta               =       0.1000
     number of iterations used =           10  plain     mixing
     Exchange-correlation      = BEEF-VDW ( 1  4 27 13 2)
     nstep                     =           50

     celldm(1)=   1.889726  celldm(2)=   0.000000  celldm(3)=   0.000000
     celldm(4)=   0.000000  celldm(5)=   0.000000  celldm(6)=   0.000000

     crystal axes: (cart. coord. in units of alat)
               a(1) = (   6.206171   0.000000   0.000000 )
               a(2) = (  -3.103085   5.374701   0.000000 )
               a(3) = (   0.000000   0.000000  25.067317 )

     reciprocal axes: (cart. coord. in units 2 pi/alat)
               b(1) = (  0.161130  0.093028  0.000000 )
               b(2) = (  0.000000  0.186057  0.000000 )
               b(3) = (  0.000000  0.000000  0.039893 )

     PseudoPot. # 1 for Zr read from file:
     /afs/slac.stanford.edu/u/if/mamunm/psp/gbrv1.5pbe/Zr.UPF
     MD5 check sum: 5db81b1e868ab7776c4564c113de050b
     Pseudo is Ultrasoft + core correction, Zval = 12.0
     Generated by new atomic code, or converted to UPF format
     Using radial grid of  887 points,  6 beta functions with:
                l(1) =   0
                l(2) =   0
                l(3) =   1
                l(4) =   1
                l(5) =   2
                l(6) =   2
     Q(r) pseudized with  6 coefficients,  rinner =    1.200   1.200   1.200
                                                       1.200   1.200

     PseudoPot. # 2 for W  read from file:
     /afs/slac.stanford.edu/u/if/mamunm/psp/gbrv1.5pbe/W.UPF
     MD5 check sum: 9c083fa34c2a2ea0f02f1f893e16e1c8
     Pseudo is Ultrasoft + core correction, Zval = 14.0
     Generated by new atomic code, or converted to UPF format
     Using radial grid of  923 points,  8 beta functions with:
                l(1) =   0
                l(2) =   0
                l(3) =   0
                l(4) =   1
                l(5) =   1
                l(6) =   2
                l(7) =   2
                l(8) =   3
     Q(r) pseudized with  6 coefficients,  rinner =    1.350   1.350   1.350
                                                       1.350   1.350   1.350
                                                       1.350

     vdW kernel table read from file vdW_kernel_table
     MD5 check sum: 095c7af220d748ca6e76c0b4c6cfb241

     atomic species   valence    mass     pseudopotential
        Zr1           12.00    91.22400     Zr( 1.00)
        W1            14.00   183.84000     W ( 1.00)

     No symmetry found

   Cartesian axes

     site n.     atom                  positions (alat units)
         1           Zr1 tau(   1) = (   0.0000000   0.0000000  10.0000000  )
         2           Zr1 tau(   2) = (  -1.5515427   2.6873507  10.0000000  )
         3           Zr1 tau(   3) = (   1.5515427   2.6873507  10.0000000  )
         4           W1  tau(   4) = (   3.1030853   0.0000000  10.0000000  )
         5           Zr1 tau(   5) = (   3.1030853   1.7915671  12.5336586  )
         6           Zr1 tau(   6) = (   1.5515427   4.4789179  12.5336586  )
         7           Zr1 tau(   7) = (  -1.5515427   4.4789179  12.5336586  )
         8           W1  tau(   8) = (   0.0000000   1.7915671  12.5336586  )
         9           Zr1 tau(   9) = (  -0.0000000   3.5831343  15.0673171  )
        10           Zr1 tau(  10) = (   1.5515427   0.8957836  15.0673171  )
        11           Zr1 tau(  11) = (   4.6546280   0.8957836  15.0673171  )
        12           W1  tau(  12) = (   3.1030853   3.5831343  15.0673171  )

     number of k points=    20  Fermi-Dirac smearing, width (Ry)=  0.0110
                       cart. coord. in units 2pi/alat
        k(    1) = (   0.0000000   0.0000000   0.0000000), wk =   0.0555556
        k(    2) = (   0.0000000   0.0310095   0.0000000), wk =   0.1111111
        k(    3) = (   0.0000000   0.0620189   0.0000000), wk =   0.1111111
        k(    4) = (   0.0000000  -0.0930284   0.0000000), wk =   0.0555556
        k(    5) = (   0.0268550   0.0155047   0.0000000), wk =   0.1111111
        k(    6) = (   0.0268550   0.0465142   0.0000000), wk =   0.1111111
        k(    7) = (   0.0268550   0.0775237   0.0000000), wk =   0.1111111
        k(    8) = (   0.0268550  -0.0775237   0.0000000), wk =   0.1111111
        k(    9) = (   0.0268550  -0.0465142   0.0000000), wk =   0.1111111
        k(   10) = (   0.0268550  -0.0155047   0.0000000), wk =   0.1111111
        k(   11) = (   0.0537100   0.0310095   0.0000000), wk =   0.1111111
        k(   12) = (   0.0537100   0.0620189   0.0000000), wk =   0.1111111
        k(   13) = (   0.0537100   0.0930284   0.0000000), wk =   0.1111111
        k(   14) = (   0.0537100  -0.0620189   0.0000000), wk =   0.1111111
        k(   15) = (   0.0537100  -0.0310095   0.0000000), wk =   0.1111111
        k(   16) = (   0.0537100  -0.0000000   0.0000000), wk =   0.1111111
        k(   17) = (  -0.0805650  -0.0465142   0.0000000), wk =   0.0555556
        k(   18) = (  -0.0805650  -0.0155047   0.0000000), wk =   0.1111111
        k(   19) = (  -0.0805650   0.0155047   0.0000000), wk =   0.1111111
        k(   20) = (  -0.0805650  -0.1395426   0.0000000), wk =   0.0555556

     Largest allocated arrays     est. size (Mb)     dimensions
     Largest temporary arrays     est. size (Mb)     dimensions

     Initial potential from superposition of free atoms
     Check: negative starting charge=   -0.744587

     starting charge  149.67964, renormalised to  150.00000

     negative rho (up, down):  7.462E-01 0.000E+00

     *
     * You are using vdW-DF for exchange-correlation in this calculation.
     * Please cite the following three references that made this development
     * possible:
     *
     *   M. Dion, H. Rydberg, E. Schroder, D. C. Langreth, and
     *   B. I. Lundqvist, Phys. Rev. Lett. 92, 246401 (2004).
     *
     *   T. Thonhauser, V. R. Cooper, S. Li, A. Puzder, P. Hyldgaard, and
     *   D. C. Langreth, Phys. Rev. B 76, 125112 (2007).
     *
     *   G. Roman-Perez and J. M. Soler, Phys. Rev. Lett. 103, 096102 (2009).
     *
     *
     * If you are using vdW-DF2, please also cite:
     *
     *   K. Lee, E. D. Murray, L. Kong, B. I. Lundqvist, and
     *   D. C. Langreth, Phys. Rev. B 82, 081101(R) (2010).
     *
     *
     * If you are calculating the stress with vdW-DF, please also cite:
     *
     *   R. Sabatini, E. Kucukbenli, B. Kolb, T. Thonhauser, and
     *   S. de Gironcoli, J. Phys.: Condens. Matter 24, 424209 (2012).
     *

     Carrying out vdW-DF run using the following parameters:

     Nqs =      20    Nr_points =    1024   r_max =   100.000
     q_mesh =
               0.00001000     0.04494208     0.09755937     0.15916263
               0.23128650     0.31572767     0.41458969     0.53033537
               0.66584808     0.82450364     1.01025438     1.22772762
               1.48234092     1.78043706     2.12944203     2.53805004
               3.01644009     3.57652955     4.23227104     5.00000000

     Gradients computed in reciprocal space

     Adding external electric field

     Computed dipole along edir(3) :
        Dipole                0.0000 Ry au,          0.0000 Debye
        Dipole field          0.0000 Ry au

        Potential amp.       -0.0000 Ry
        Total length         46.1861 bohr

     Starting wfc are  156 randomized atomic wfcs

     Self-consistent Calculation

     iteration #  1     ecut=    36.75 Ry     beta=0.10
     Davidson diagonalization with overlap
     ethr =  1.00E-02,  avg # of iterations =  2.0

[...]

     total energy              =   -1377.99677556 Ry
     Harris-Foulkes estimate   =   -1379.25937222 Ry
     estimated scf accuracy    <       7.07820360 Ry

[...]

     End of self-consistent calculation

          k = 0.0000 0.0000 0.0000 ( 21247 PWs)   bands (ev):

   -72.4517 -72.3597 -72.3596 -47.4721 -47.4653 -47.3685 -47.3685 -47.3669
   -47.3669 -47.1647 -47.0707 -47.0707 -36.5037 -36.5037 -36.4855 -36.4550
   -36.4530 -36.3980 -36.3980 -36.3976 -36.3976 -25.9475 -25.8898 -25.7130
   -25.6289 -25.6289 -25.5496 -25.5496 -25.5403 -25.5403 -25.5360 -25.5018
   -25.3908 -25.3908 -25.1800 -25.1800 -25.1509 -25.1205 -25.0258 -25.0258
   -25.0199 -25.0199 -24.9974 -24.9566 -24.9566 -24.8232 -24.7564 -24.7564
    -3.9977  -2.7808  -2.2139  -1.4822  -1.3616  -1.3373  -1.3373  -1.0979
    -1.0979  -0.8725  -0.6726  -0.6726  -0.6322  -0.6322  -0.6109   0.3670
     0.3670   0.4576   1.2170   1.3856   1.3856   1.4591   1.7025   1.9126
     1.9966   2.3235   2.3235   2.3479   2.3479   2.4813   2.4813   2.4822
     2.5613   2.5613   2.6295   2.6295   2.9169   3.0032   3.0032   3.0429
     3.6602   3.6602   3.7425   3.7425   3.7819   4.3324   4.4250   4.5067
     4.5067   5.0756   5.0756   5.0928   5.0928   5.4483   5.4913   5.7724
     5.8627

[...]

          k =-0.0806-0.0465 0.0000 ( 21228 PWs)   bands (ev):

[...]

     the Fermi energy is     1.7099 ev

!    total energy              =   -1378.70785118 Ry
     Harris-Foulkes estimate   =   -1378.70784848 Ry
     estimated scf accuracy    <       0.00000070 Ry

     The total energy is the sum of the following terms:

     one-electron contribution =   -9613.24554890 Ry
     hartree contribution      =    4795.73366583 Ry
     xc contribution           =    -292.92522637 Ry
     ewald contribution        =    3731.84539490 Ry
     electric field correction =       0.00000009 Ry
     smearing contrib. (-TS)   =      -0.11613674 Ry

     convergence has been achieved in  17 iterations

 BEEF-vdW xc energy contributions
           1 :   -253.842021176990
           2 :    232.052732878389
           3 :   -194.592669355220
           4 :    151.001940020174
           5 :   -110.453723487496
           6 :    78.7202202551039
           7 :   -57.0612759173156
           8 :    43.1533396150413
           9 :   -33.2253000918492
          10 :    24.1942543944440
          11 :   -14.8568735080888
          12 :    5.82811326886281
          13 :    1.43514549481677
          14 :   -5.82356223938666
[...]
     /afs/slac.stanford.edu/u/if/mamunm/psp/gbrv1.5pbe/Zr.UPF
     MD5 check sum: 5db81b1e868ab7776c4564c113de050b
     Pseudo is Ultrasoft + core correction, Zval = 12.0
     Generated by new atomic code, or converted to UPF format
     Using radial grid of  887 points,  6 beta functions with:
                l(1) =   0
                l(2) =   0
                l(3) =   1
                l(4) =   1
                l(5) =   2
                l(6) =   2
     Q(r) pseudized with  6 coefficients,  rinner =    1.200   1.200   1.200
                                                       1.200   1.200

     PseudoPot. # 2 for W  read from file:
     /afs/slac.stanford.edu/u/if/mamunm/psp/gbrv1.5pbe/W.UPF
     MD5 check sum: 9c083fa34c2a2ea0f02f1f893e16e1c8
     Pseudo is Ultrasoft + core correction, Zval = 14.0
     Generated by new atomic code, or converted to UPF format
     Using radial grid of  923 points,  8 beta functions with:
                l(1) =   0
                l(2) =   0
                l(3) =   0
                l(4) =   1
                l(5) =   1
                l(6) =   2
                l(7) =   2
                l(8) =   3
     Q(r) pseudized with  6 coefficients,  rinner =    1.350   1.350   1.350
                                                       1.350   1.350   1.350
                                                       1.350

     vdW kernel table read from file vdW_kernel_table
     MD5 check sum: 095c7af220d748ca6e76c0b4c6cfb241

     atomic species   valence    mass     pseudopotential
        Zr1           12.00    91.22400     Zr( 1.00)
        W1            14.00   183.84000     W ( 1.00)

     No symmetry found

   Cartesian axes

     site n.     atom                  positions (alat units)
         1           Zr1 tau(   1) = (   0.0000000   0.0000000  10.0000000  )
         2           Zr1 tau(   2) = (  -1.5515427   2.6873507  10.0000000  )
         3           Zr1 tau(   3) = (   1.5515427   2.6873507  10.0000000  )
         4           W1  tau(   4) = (   3.1030853   0.0000000  10.0000000  )
         5           Zr1 tau(   5) = (   3.1030853   1.7915671  12.5336586  )
         6           Zr1 tau(   6) = (   1.5515427   4.4789179  12.5336586  )
         7           Zr1 tau(   7) = (  -1.5515427   4.4789179  12.5336586  )
         8           W1  tau(   8) = (   0.0000000   1.7915671  12.5336586  )
         9           Zr1 tau(   9) = (   0.0000056   3.5178261  15.0632716  )
        10           Zr1 tau(  10) = (   1.4949809   0.9284419  15.0632717  )
        11           Zr1 tau(  11) = (   4.7111878   0.9284324  15.0632730  )
        12           W1  tau(  12) = (   3.1030771   3.5831385  14.7421495  )

     number of k points=    20  Fermi-Dirac smearing, width (Ry)=  0.0110
                       cart. coord. in units 2pi/alat
        k(    1) = (   0.0000000   0.0000000   0.0000000), wk =   0.0555556
        k(    2) = (   0.0000000   0.0310095   0.0000000), wk =   0.1111111
        k(    3) = (   0.0000000   0.0620189   0.0000000), wk =   0.1111111
        k(    4) = (   0.0000000  -0.0930284   0.0000000), wk =   0.0555556
        k(    5) = (   0.0268550   0.0155047   0.0000000), wk =   0.1111111
        k(    6) = (   0.0268550   0.0465142   0.0000000), wk =   0.1111111
        k(    7) = (   0.0268550   0.0775237   0.0000000), wk =   0.1111111
        k(    8) = (   0.0268550  -0.0775237   0.0000000), wk =   0.1111111
        k(    9) = (   0.0268550  -0.0465142   0.0000000), wk =   0.1111111
        k(   10) = (   0.0268550  -0.0155047   0.0000000), wk =   0.1111111
        k(   11) = (   0.0537100   0.0310095   0.0000000), wk =   0.1111111
        k(   12) = (   0.0537100   0.0620189   0.0000000), wk =   0.1111111
        k(   13) = (   0.0537100   0.0930284   0.0000000), wk =   0.1111111
        k(   14) = (   0.0537100  -0.0620189   0.0000000), wk =   0.1111111
        k(   15) = (   0.0537100  -0.0310095   0.0000000), wk =   0.1111111
        k(   16) = (   0.0537100  -0.0000000   0.0000000), wk =   0.1111111
        k(   17) = (  -0.0805650  -0.0465142   0.0000000), wk =   0.0555556
        k(   18) = (  -0.0805650  -0.0155047   0.0000000), wk =   0.1111111
        k(   19) = (  -0.0805650   0.0155047   0.0000000), wk =   0.1111111
        k(   20) = (  -0.0805650  -0.1395426   0.0000000), wk =   0.0555556

     Largest allocated arrays     est. size (Mb)     dimensions
     Largest temporary arrays     est. size (Mb)     dimensions

     Initial potential from superposition of free atoms
     Check: negative starting charge=   -0.742805

     starting charge  149.67964, renormalised to  150.00000

[...]

     *
     * You are using vdW-DF for exchange-correlation in this calculation.
     * Please cite the following three references that made this development
     * possible:
     *
     *   M. Dion, H. Rydberg, E. Schroder, D. C. Langreth, and
     *   B. I. Lundqvist, Phys. Rev. Lett. 92, 246401 (2004).
     *
     *   T. Thonhauser, V. R. Cooper, S. Li, A. Puzder, P. Hyldgaard, and
     *   D. C. Langreth, Phys. Rev. B 76, 125112 (2007).
     *
     *   G. Roman-Perez and J. M. Soler, Phys. Rev. Lett. 103, 096102 (2009).
     *
     *
     * If you are using vdW-DF2, please also cite:
     *
     *   K. Lee, E. D. Murray, L. Kong, B. I. Lundqvist, and
     *   D. C. Langreth, Phys. Rev. B 82, 081101(R) (2010).
     *
     *
     * If you are calculating the stress with vdW-DF, please also cite:
     *
     *   R. Sabatini, E. Kucukbenli, B. Kolb, T. Thonhauser, and
     *   S. de Gironcoli, J. Phys.: Condens. Matter 24, 424209 (2012).
     *

     Carrying out vdW-DF run using the following parameters:

     Nqs =      20    Nr_points =    1024   r_max =   100.000
     q_mesh =
               0.00001000     0.04494208     0.09755937     0.15916263
               0.23128650     0.31572767     0.41458969     0.53033537
               0.66584808     0.82450364     1.01025438     1.22772762
               1.48234092     1.78043706     2.12944203     2.53805004
               3.01644009     3.57652955     4.23227104     5.00000000

     Gradients computed in reciprocal space

[...]

     Starting wfc are  156 randomized atomic wfcs

     Self-consistent Calculation

[...]

     total energy              =   -1378.73228967 Ry
     Harris-Foulkes estimate   =   -1378.73228889 Ry
     estimated scf accuracy    <       0.00000171 Ry

     iteration # 18     ecut=    36.75 Ry     beta=0.10
     Davidson diagonalization with overlap
     ethr =  1.14E-09,  avg # of iterations =  2.0

[...]

     negative rho (up, down):  7.651E-01 0.000E+00

     Adding external electric field

     Computed dipole along edir(3) :
        Dipole                0.0936 Ry au,          0.2378 Debye
        Dipole field          0.0002 Ry au

        Potential amp.       -0.0192 Ry
        Total length         46.1861 bohr

     End of self-consistent calculation

[...]

          k = 0.0537-0.0000 0.0000 ( 21227 PWs)   bands (ev):

[...]

          k =-0.0806-0.1395 0.0000 ( 21228 PWs)   bands (ev):

   -72.4114 -72.2765 -72.1329 -47.4209 -47.3683 -47.3635 -47.3399 -47.3299
   -47.2962 -46.9869 -46.9549 -46.9223 -36.4633 -36.4612 -36.4468 -36.3662
   -36.3177 -36.3156 -36.2265 -36.2259 -36.2240 -25.7212 -25.6606 -25.5793
   -25.5212 -25.4933 -25.4434 -25.4428 -25.3971 -25.3845 -25.3837 -25.3452
   -25.3259 -25.3020 -25.2726 -25.2609 -25.2487 -25.2337 -25.0174 -24.9888
   -24.9881 -24.9343 -24.8894 -24.8662 -24.8597 -24.8501 -24.8227 -24.6404
    -2.5833  -2.3500  -1.5000  -1.1493  -0.7841  -0.5738  -0.4500  -0.4277
    -0.4224  -0.3435   0.1107   0.1850   0.2026   0.3339   0.4513   0.4898
     0.6334   0.7917   0.9237   0.9521   0.9587   1.0542   1.1595   1.2413
     1.3368   1.3777   1.5502   1.6795   1.7102   1.7125   1.8827   1.9308
     2.0434   2.1848   2.3178   2.3602   2.6066   2.6234   2.9653   3.0500
     3.1014   3.4314   3.5442   3.6452   3.8243   3.8350   3.9427   4.1206
     4.1646   4.2202   4.3750   4.5204   4.5786   4.6049   4.7612   4.9507
     5.2671

     the Fermi energy is     1.7733 ev

!    total energy              =   -1378.73229223 Ry
     Harris-Foulkes estimate   =   -1378.73228774 Ry
     estimated scf accuracy    <       0.00000052 Ry

     The total energy is the sum of the following terms:

     one-electron contribution =   -9741.14777278 Ry
     hartree contribution      =    4860.14755855 Ry
     xc contribution           =    -293.09416850 Ry
     ewald contribution        =    3795.47395481 Ry
     electric field correction =       0.00001949 Ry
     smearing contrib. (-TS)   =      -0.11188381 Ry

     convergence has been achieved in  18 iterations

 BEEF-vdW xc energy contributions
           1 :   -254.122310610950
           2 :    232.383280082635
           3 :   -194.985382505545
           4 :    151.414581289925
           5 :   -110.805434389211
           6 :    78.9340733903658
           7 :   -57.1132136777108
           8 :    43.0949620761369
           9 :   -33.1593304017167
          10 :    24.2137982320262
          11 :   -14.9882262139768
          12 :    6.01668220613499
          13 :    1.28673045087436
          14 :   -5.79244964274523
          15 :    7.40600940966192
          16 :   -7.07799741289540
          17 :    6.19762126299213
          18 :   -5.81915920151050
          19 :    6.19826734855980
          20 :   -6.86028452702647
          21 :    7.07532687095994
          22 :   -6.39721132637692
          23 :    4.94086545867685
          24 :   -3.27698542509552
          25 :    2.06358480559805
          26 :   -1.66596529823443
          27 :    1.98624174685585
          28 :   -2.57560357327145
          29 :    2.93215395414586
          30 :   -2.79063139806470
          31 :   -26.5354684921129
          32 :   -19.8198915031459

     Forces acting on atoms (Ry/au):

     negative rho (up, down):  7.651E-01 0.000E+00
     atom    1 type  1   force =    -0.00000082    0.01956088   -0.00236577
     atom    2 type  1   force =     0.01694082   -0.00978044   -0.00236620
     atom    3 type  1   force =    -0.01694089   -0.00977957   -0.00236542
     atom    4 type  2   force =     0.00000050   -0.00000062    0.04298736
     atom    5 type  1   force =     0.00000027   -0.01759030   -0.01200767
     atom    6 type  1   force =    -0.01523437    0.00879471   -0.01200935
     atom    7 type  1   force =     0.01523460    0.00879450   -0.01200711
     atom    8 type  2   force =    -0.00000028    0.00000089    0.00164767
     atom    9 type  1   force =     0.00000011   -0.00034588   -0.00053772
     atom   10 type  1   force =    -0.00029877    0.00017281   -0.00053713
     atom   11 type  1   force =     0.00029916    0.00017325   -0.00053755
     atom   12 type  2   force =    -0.00000032   -0.00000024    0.00009887

     Total force =     0.066162     Total SCF correction =     0.003194

     entering subroutine stress ...

     negative rho (up, down):  7.651E-01 0.000E+00
          total   stress  (Ry/bohr**3)                   (kbar)     P=  -14.19
  -0.00012011  -0.00000000   0.00000000        -17.67     -0.00      0.00
  -0.00000000  -0.00012011  -0.00000000         -0.00    -17.67     -0.00
   0.00000000  -0.00000000  -0.00004918          0.00     -0.00     -7.24

 !ASE

     Writing output data file calc.save

     General routines

     Parallel routines

   This run was terminated on:  23:29:33   2Jan2019

   JOB DONE.
Job  /afs/slac/g/suncat/bin/suncat-tsmpirun -x LD_LIBRARY_PATH -wdir /scratch/qe649578_6YS0i pw.x -in pw.inp

TID   HOST_NAME   COMMAND_LINE            STATUS            TERMINATION_TIME
00000 suncat0059 pw.x -in pw.inp   Done                     01/02/2019 23:29:33
00001 suncat0059 pw.x -in pw.inp   Done                     01/02/2019 23:29:33
00002 suncat0059 pw.x -in pw.inp   Done                     01/02/2019 23:29:33
00003 suncat0059 pw.x -in pw.inp   Done                     01/02/2019 23:29:33
00004 suncat0059 pw.x -in pw.inp   Done                     01/02/2019 23:29:33
00005 suncat0059 pw.x -in pw.inp   Done                     01/02/2019 23:29:33
00006 suncat0059 pw.x -in pw.inp   Done                     01/02/2019 23:29:33
00007 suncat0059 pw.x -in pw.inp   Done                     01/02/2019 23:29:33
00008 suncat0054 pw.x -in pw.inp   Done                     01/02/2019 23:29:33
00009 suncat0054 pw.x -in pw.inp   Done                     01/02/2019 23:29:33
00010 suncat0054 pw.x -in pw.inp   Done                     01/02/2019 23:29:33
00011 suncat0054 pw.x -in pw.inp   Done                     01/02/2019 23:29:33
00012 suncat0054 pw.x -in pw.inp   Done                     01/02/2019 23:29:33
00013 suncat0054 pw.x -in pw.inp   Done                     01/02/2019 23:29:33
00014 suncat0054 pw.x -in pw.inp   Done                     01/02/2019 23:29:33
00015 suncat0054 pw.x -in pw.inp   Done                     01/02/2019 23:29:33
00016 suncat0052 pw.x -in pw.inp   Done                     01/02/2019 23:29:33
00017 suncat0052 pw.x -in pw.inp   Done                     01/02/2019 23:29:33
00018 suncat0052 pw.x -in pw.inp   Done                     01/02/2019 23:29:33
00019 suncat0052 pw.x -in pw.inp   Done                     01/02/2019 23:29:33
00020 suncat0052 pw.x -in pw.inp   Done                     01/02/2019 23:29:33
00021 suncat0052 pw.x -in pw.inp   Done                     01/02/2019 23:29:33
00022 suncat0052 pw.x -in pw.inp   Done                     01/02/2019 23:29:33
00023 suncat0052 pw.x -in pw.inp   Done                     01/02/2019 23:29:33
00024 suncat0048 pw.x -in pw.inp   Done                     01/02/2019 23:29:33
00025 suncat0048 pw.x -in pw.inp   Done                     01/02/2019 23:29:33
00026 suncat0048 pw.x -in pw.inp   Done                     01/02/2019 23:29:33
00027 suncat0048 pw.x -in pw.inp   Done                     01/02/2019 23:29:33
00028 suncat0048 pw.x -in pw.inp   Done                     01/02/2019 23:29:33
00029 suncat0048 pw.x -in pw.inp   Done                     01/02/2019 23:29:33
00030 suncat0048 pw.x -in pw.inp   Done                     01/02/2019 23:29:33
00031 suncat0048 pw.x -in pw.inp   Done                     01/02/2019 23:29:33
00032 suncat0169 pw.x -in pw.inp   Done                     01/02/2019 23:29:33
00033 suncat0169 pw.x -in pw.inp   Done                     01/02/2019 23:29:33
00034 suncat0169 pw.x -in pw.inp   Done                     01/02/2019 23:29:33
00035 suncat0169 pw.x -in pw.inp   Done                     01/02/2019 23:29:33
00036 suncat0169 pw.x -in pw.inp   Done                     01/02/2019 23:29:33
00037 suncat0169 pw.x -in pw.inp   Done                     01/02/2019 23:29:33
00038 suncat0169 pw.x -in pw.inp   Done                     01/02/2019 23:29:33
00039 suncat0169 pw.x -in pw.inp   Done                     01/02/2019 23:29:33
00040 suncat0168 pw.x -in pw.inp   Done                     01/02/2019 23:29:33
00041 suncat0168 pw.x -in pw.inp   Done                     01/02/2019 23:29:33
00042 suncat0168 pw.x -in pw.inp   Done                     01/02/2019 23:29:33
00043 suncat0168 pw.x -in pw.inp   Done                     01/02/2019 23:29:33
00044 suncat0168 pw.x -in pw.inp   Done                     01/02/2019 23:29:33
00045 suncat0168 pw.x -in pw.inp   Done                     01/02/2019 23:29:33
00046 suncat0168 pw.x -in pw.inp   Done                     01/02/2019 23:29:33
00047 suncat0168 pw.x -in pw.inp   Done                     01/02/2019 23:29:33
00048 suncat0156 pw.x -in pw.inp   Done                     01/02/2019 23:29:33
00049 suncat0156 pw.x -in pw.inp   Done                     01/02/2019 23:29:33
00050 suncat0156 pw.x -in pw.inp   Done                     01/02/2019 23:29:33
00051 suncat0156 pw.x -in pw.inp   Done                     01/02/2019 23:29:33
00052 suncat0156 pw.x -in pw.inp   Done                     01/02/2019 23:29:33
00053 suncat0156 pw.x -in pw.inp   Done                     01/02/2019 23:29:33
00054 suncat0156 pw.x -in pw.inp   Done                     01/02/2019 23:29:33
00055 suncat0156 pw.x -in pw.inp   Done                     01/02/2019 23:29:33
00056 suncat0153 pw.x -in pw.inp   Done                     01/02/2019 23:29:33
00057 suncat0153 pw.x -in pw.inp   Done                     01/02/2019 23:29:33
00058 suncat0153 pw.x -in pw.inp   Done                     01/02/2019 23:29:33
00059 suncat0153 pw.x -in pw.inp   Done                     01/02/2019 23:29:33
00060 suncat0153 pw.x -in pw.inp   Done                     01/02/2019 23:29:33
00061 suncat0153 pw.x -in pw.inp   Done                     01/02/2019 23:29:33
00062 suncat0153 pw.x -in pw.inp   Done                     01/02/2019 23:29:33
00063 suncat0153 pw.x -in pw.inp   Done                     01/02/2019 23:29:33