     Program PWSCF v.5.1rc2 (svn rev. 11289) starts on  2Jan2019 at 10:18:26

     Current dimensions of program PWSCF are:
     Max number of different atomic species (ntypx) = 10
     Max number of k-points (npk) =  40000
     Max angular momentum in pseudopotentials (lmaxx) =  3
     Presently stress not available with electric field

     IMPORTANT: XC functional enforced from input :
     Exchange-correlation      = BEEF-VDW ( 1  4 27 13 2)
     Any further DFT definition will be discarded
     Please, verify this is what you really want

     Subspace diagonalization in iterative solution of the eigenvalue problem:
     a serial algorithm will be used

     bravais-lattice index     =            0
     lattice parameter (alat)  =       1.8897  a.u.
     unit-cell volume          =    4606.7265 (a.u.)^3
     number of atoms/cell      =           12
     number of atomic types    =            2
     number of electrons       =       171.00
     number of Kohn-Sham states=          115
     kinetic-energy cutoff     =      36.7493  Ry
     charge density cutoff     =     367.4932  Ry
     convergence threshold     =      1.0E-06
     mixing beta               =       0.1000
     number of iterations used =           10  plain     mixing
     Exchange-correlation      = BEEF-VDW ( 1  4 27 13 2)
     nstep                     =           50

     celldm(1)=   1.889726  celldm(2)=   0.000000  celldm(3)=   0.000000
     celldm(4)=   0.000000  celldm(5)=   0.000000  celldm(6)=   0.000000

     crystal axes: (cart. coord. in units of alat)
               a(1) = (   5.658333   0.000000   0.000000 )
               a(2) = (  -2.829166   4.900260   0.000000 )
               a(3) = (   0.000000   0.000000  24.620009 )

     reciprocal axes: (cart. coord. in units 2 pi/alat)
               b(1) = (  0.176731  0.102035  0.000000 )
               b(2) = (  0.000000  0.204071  0.000000 )
               b(3) = (  0.000000  0.000000  0.040617 )

     PseudoPot. # 1 for W  read from file:
     /afs/slac.stanford.edu/u/if/mamunm/psp/gbrv1.5pbe/W.UPF
     MD5 check sum: 9c083fa34c2a2ea0f02f1f893e16e1c8
     Pseudo is Ultrasoft + core correction, Zval = 14.0
     Generated by new atomic code, or converted to UPF format
     Using radial grid of  923 points,  8 beta functions with:
                l(1) =   0
                l(2) =   0
                l(3) =   0
                l(4) =   1
                l(5) =   1
                l(6) =   2
                l(7) =   2
                l(8) =   3
     Q(r) pseudized with  6 coefficients,  rinner =    1.350   1.350   1.350
                                                       1.350   1.350   1.350
                                                       1.350

     PseudoPot. # 2 for Tc read from file:
     /afs/slac.stanford.edu/u/if/mamunm/psp/gbrv1.5pbe/Tc.UPF
     MD5 check sum: 9eb49e5b028550b2339a02317eb7b844
     Pseudo is Ultrasoft + core correction, Zval = 15.0
     Generated by new atomic code, or converted to UPF format
     Using radial grid of  965 points,  6 beta functions with:
                l(1) =   0
                l(2) =   0
                l(3) =   1
                l(4) =   1
                l(5) =   2
                l(6) =   2
     Q(r) pseudized with  8 coefficients,  rinner =    1.300   1.300   1.300
                                                       1.300   1.300

     vdW kernel table read from file vdW_kernel_table
     MD5 check sum: 095c7af220d748ca6e76c0b4c6cfb241

     atomic species   valence    mass     pseudopotential
        W1            14.00   183.84000     W ( 1.00)
        Tc1           15.00    97.90721     Tc( 1.00)

     No symmetry found

   Cartesian axes

     site n.     atom                  positions (alat units)
         1           W1  tau(   1) = (   0.0000000   0.0000000  10.0000000  )
         2           W1  tau(   2) = (  -1.4145832   2.4501300  10.0000000  )
         3           W1  tau(   3) = (   1.4145832   2.4501300  10.0000000  )
         4           Tc1 tau(   4) = (   2.8291664   0.0000000  10.0000000  )
         5           W1  tau(   5) = (   2.8291664   1.6334200  12.3100047  )
         6           W1  tau(   6) = (   1.4145832   4.0835500  12.3100047  )
         7           W1  tau(   7) = (  -1.4145832   4.0835500  12.3100047  )
         8           Tc1 tau(   8) = (   0.0000000   1.6334200  12.3100047  )
         9           W1  tau(   9) = (  -0.0000000   3.2668400  14.6200094  )
        10           W1  tau(  10) = (   1.4145832   0.8167100  14.6200094  )
        11           W1  tau(  11) = (   4.2437496   0.8167100  14.6200094  )
        12           Tc1 tau(  12) = (   2.8291664   3.2668400  14.6200094  )

     number of k points=    20  Fermi-Dirac smearing, width (Ry)=  0.0110
                       cart. coord. in units 2pi/alat
        k(    1) = (   0.0000000   0.0000000   0.0000000), wk =   0.0555556
        k(    2) = (   0.0000000   0.0340118   0.0000000), wk =   0.1111111
        k(    3) = (   0.0000000   0.0680236   0.0000000), wk =   0.1111111
        k(    4) = (   0.0000000  -0.1020354   0.0000000), wk =   0.0555556
        k(    5) = (   0.0294551   0.0170059   0.0000000), wk =   0.1111111
        k(    6) = (   0.0294551   0.0510177   0.0000000), wk =   0.1111111
        k(    7) = (   0.0294551   0.0850295   0.0000000), wk =   0.1111111
        k(    8) = (   0.0294551  -0.0850295   0.0000000), wk =   0.1111111
        k(    9) = (   0.0294551  -0.0510177   0.0000000), wk =   0.1111111
        k(   10) = (   0.0294551  -0.0170059   0.0000000), wk =   0.1111111
        k(   11) = (   0.0589102   0.0340118   0.0000000), wk =   0.1111111
        k(   12) = (   0.0589102   0.0680236   0.0000000), wk =   0.1111111
        k(   13) = (   0.0589102   0.1020354   0.0000000), wk =   0.1111111
        k(   14) = (   0.0589102  -0.0680236   0.0000000), wk =   0.1111111
        k(   15) = (   0.0589102  -0.0340118   0.0000000), wk =   0.1111111
        k(   16) = (   0.0589102   0.0000000   0.0000000), wk =   0.1111111
        k(   17) = (  -0.0883653  -0.0510177   0.0000000), wk =   0.0555556
        k(   18) = (  -0.0883653  -0.0170059   0.0000000), wk =   0.1111111
        k(   19) = (  -0.0883653   0.0170059   0.0000000), wk =   0.1111111
        k(   20) = (  -0.0883653  -0.1530531   0.0000000), wk =   0.0555556

     Largest allocated arrays     est. size (Mb)     dimensions
     Largest temporary arrays     est. size (Mb)     dimensions

     Check: negative/imaginary core charge=   -0.000007    0.000000

     Initial potential from superposition of free atoms
     Check: negative starting charge=   -0.950693

     starting charge  167.09686, renormalised to  171.00000

     negative rho (up, down):  9.729E-01 0.000E+00

     *
     * You are using vdW-DF for exchange-correlation in this calculation.
     * Please cite the following three references that made this development
     * possible:
     *
     *   M. Dion, H. Rydberg, E. Schroder, D. C. Langreth, and
     *   B. I. Lundqvist, Phys. Rev. Lett. 92, 246401 (2004).
     *
     *   T. Thonhauser, V. R. Cooper, S. Li, A. Puzder, P. Hyldgaard, and
     *   D. C. Langreth, Phys. Rev. B 76, 125112 (2007).
     *
     *   G. Roman-Perez and J. M. Soler, Phys. Rev. Lett. 103, 096102 (2009).
     *
     *
     * If you are using vdW-DF2, please also cite:
     *
     *   K. Lee, E. D. Murray, L. Kong, B. I. Lundqvist, and
     *   D. C. Langreth, Phys. Rev. B 82, 081101(R) (2010).
     *
     *
     * If you are calculating the stress with vdW-DF, please also cite:
     *
     *   R. Sabatini, E. Kucukbenli, B. Kolb, T. Thonhauser, and
     *   S. de Gironcoli, J. Phys.: Condens. Matter 24, 424209 (2012).
     *

     Carrying out vdW-DF run using the following parameters:

     Nqs =      20    Nr_points =    1024   r_max =   100.000
     q_mesh =
               0.00001000     0.04494208     0.09755937     0.15916263
               0.23128650     0.31572767     0.41458969     0.53033537
               0.66584808     0.82450364     1.01025438     1.22772762
               1.48234092     1.78043706     2.12944203     2.53805004
               3.01644009     3.57652955     4.23227104     5.00000000

     Gradients computed in reciprocal space

     Adding external electric field

     Computed dipole along edir(3) :
        Dipole                0.0000 Ry au,          0.0000 Debye
        Dipole field          0.0000 Ry au

        Potential amp.       -0.0000 Ry
        Total length         45.3619 bohr

     Starting wfc are  156 randomized atomic wfcs

     Self-consistent Calculation

     iteration #  1     ecut=    36.75 Ry     beta=0.10
     Davidson diagonalization with overlap
     ethr =  1.00E-02,  avg # of iterations =  2.0

[...]

     total energy              =   -1969.57227615 Ry
     Harris-Foulkes estimate   =   -1970.09434948 Ry
     estimated scf accuracy    <       3.36630172 Ry

[...]

     End of self-consistent calculation

          k = 0.0000 0.0000 0.0000 ( 17387 PWs)   bands (ev):

   -71.8556 -71.8385 -71.7958 -71.7878 -71.7878 -71.7824 -71.7824 -71.7503
   -71.7503 -64.4690 -64.2854 -64.2853 -36.7134 -36.7134 -36.6496 -36.5619
   -36.5323 -36.5323 -36.4793 -36.4793 -36.4462 -36.3617 -36.2801 -36.1409
   -36.0469 -36.0469 -36.0312 -35.9836 -35.9407 -35.9407 -35.8645 -35.8645
   -35.8361 -35.8361 -35.8198 -35.8198 -35.7499 -35.6489 -35.6489 -35.6417
   -35.6358 -35.5556 -35.5190 -35.5190 -35.4505 -35.4505 -35.4358 -35.4358
    -5.4380  -3.7398  -3.1081  -2.6454  -2.6454  -2.5027  -2.4360  -2.4360
    -2.0453  -1.7094  -1.7027  -1.7027  -1.6662  -1.6662  -1.4508  -0.2427
    -0.2427  -0.2058   0.7978   0.7978   0.8224   0.8294   1.1472   1.5686
     1.5686   1.7716   1.8215   1.8215   1.8786   1.8786   1.9329   1.9329
     1.9600   2.1196   2.1196   2.2284   2.9919   3.0184   3.2339   3.2339
     3.4318   3.4318   4.0856   4.0856   4.0927   4.3211   4.4707   4.4707
     4.6891   4.9648   4.9648   5.1009   5.1009   5.7984   5.7984   6.0857
     6.0857   6.3932   6.4105   6.5173   6.5173   6.6298   6.6738   6.6738
     6.7178   6.8703   6.8703

[...]

          k =-0.0884-0.0510 0.0000 ( 17336 PWs)   bands (ev):

[...]

     the Fermi energy is     2.3710 ev

!    total energy              =   -1969.37752061 Ry
     Harris-Foulkes estimate   =   -1969.38367306 Ry
     estimated scf accuracy    <       0.00000038 Ry

     The total energy is the sum of the following terms:

     one-electron contribution =  -15499.93833434 Ry
     hartree contribution      =    7736.88289269 Ry
     xc contribution           =    -481.87414375 Ry
     ewald contribution        =    6275.64256704 Ry
     electric field correction =       0.00000000 Ry
     smearing contrib. (-TS)   =      -0.09050226 Ry

     convergence has been achieved in  16 iterations

 BEEF-vdW xc energy contributions
           1 :   -423.477883105367
           2 :    391.374276118029
           3 :   -334.643569217446
           4 :    265.434191216788
           5 :   -196.557403128431
           6 :    137.738156753741
           7 :   -93.5431960975003
           8 :    63.4261383588795
           9 :   -43.5253179323851
[...]
     Generated by new atomic code, or converted to UPF format
     Using radial grid of  923 points,  8 beta functions with:
                l(1) =   0
                l(2) =   0
                l(3) =   0
                l(4) =   1
                l(5) =   1
                l(6) =   2
                l(7) =   2
                l(8) =   3
     Q(r) pseudized with  6 coefficients,  rinner =    1.350   1.350   1.350
                                                       1.350   1.350   1.350
                                                       1.350

     PseudoPot. # 2 for Tc read from file:
     /afs/slac.stanford.edu/u/if/mamunm/psp/gbrv1.5pbe/Tc.UPF
     MD5 check sum: 9eb49e5b028550b2339a02317eb7b844
     Pseudo is Ultrasoft + core correction, Zval = 15.0
     Generated by new atomic code, or converted to UPF format
     Using radial grid of  965 points,  6 beta functions with:
                l(1) =   0
                l(2) =   0
                l(3) =   1
                l(4) =   1
                l(5) =   2
                l(6) =   2
     Q(r) pseudized with  8 coefficients,  rinner =    1.300   1.300   1.300
                                                       1.300   1.300

     vdW kernel table read from file vdW_kernel_table
     MD5 check sum: 095c7af220d748ca6e76c0b4c6cfb241

     atomic species   valence    mass     pseudopotential
        W1            14.00   183.84000     W ( 1.00)
        Tc1           15.00    97.90721     Tc( 1.00)

     No symmetry found

   Cartesian axes

     site n.     atom                  positions (alat units)
         1           W1  tau(   1) = (   0.0000000   0.0000000  10.0000000  )
         2           W1  tau(   2) = (  -1.4145832   2.4501300  10.0000000  )
         3           W1  tau(   3) = (   1.4145832   2.4501300  10.0000000  )
         4           Tc1 tau(   4) = (   2.8291664   0.0000000  10.0000000  )
         5           W1  tau(   5) = (   2.8291664   1.6334200  12.3100047  )
         6           W1  tau(   6) = (   1.4145832   4.0835500  12.3100047  )
         7           W1  tau(   7) = (  -1.4145832   4.0835500  12.3100047  )
         8           Tc1 tau(   8) = (   0.0000000   1.6334200  12.3100047  )
         9           W1  tau(   9) = (   0.0000027   3.2595334  14.5651517  )
        10           W1  tau(  10) = (   1.4082535   0.8203634  14.5651571  )
        11           W1  tau(  11) = (   4.2500797   0.8203611  14.5651512  )
        12           Tc1 tau(  12) = (   2.8291681   3.2668407  14.5945893  )

     number of k points=    20  Fermi-Dirac smearing, width (Ry)=  0.0110
                       cart. coord. in units 2pi/alat
        k(    1) = (   0.0000000   0.0000000   0.0000000), wk =   0.0555556
        k(    2) = (   0.0000000   0.0340118   0.0000000), wk =   0.1111111
        k(    3) = (   0.0000000   0.0680236   0.0000000), wk =   0.1111111
        k(    4) = (   0.0000000  -0.1020354   0.0000000), wk =   0.0555556
        k(    5) = (   0.0294551   0.0170059   0.0000000), wk =   0.1111111
        k(    6) = (   0.0294551   0.0510177   0.0000000), wk =   0.1111111
        k(    7) = (   0.0294551   0.0850295   0.0000000), wk =   0.1111111
        k(    8) = (   0.0294551  -0.0850295   0.0000000), wk =   0.1111111
        k(    9) = (   0.0294551  -0.0510177   0.0000000), wk =   0.1111111
        k(   10) = (   0.0294551  -0.0170059   0.0000000), wk =   0.1111111
        k(   11) = (   0.0589102   0.0340118   0.0000000), wk =   0.1111111
        k(   12) = (   0.0589102   0.0680236   0.0000000), wk =   0.1111111
        k(   13) = (   0.0589102   0.1020354   0.0000000), wk =   0.1111111
        k(   14) = (   0.0589102  -0.0680236   0.0000000), wk =   0.1111111
        k(   15) = (   0.0589102  -0.0340118   0.0000000), wk =   0.1111111
        k(   16) = (   0.0589102   0.0000000   0.0000000), wk =   0.1111111
        k(   17) = (  -0.0883653  -0.0510177   0.0000000), wk =   0.0555556
        k(   18) = (  -0.0883653  -0.0170059   0.0000000), wk =   0.1111111
        k(   19) = (  -0.0883653   0.0170059   0.0000000), wk =   0.1111111
        k(   20) = (  -0.0883653  -0.1530531   0.0000000), wk =   0.0555556

     Largest allocated arrays     est. size (Mb)     dimensions
     Largest temporary arrays     est. size (Mb)     dimensions

     Check: negative/imaginary core charge=   -0.000007    0.000000

     Initial potential from superposition of free atoms
     Check: negative starting charge=   -0.946761

     starting charge  167.09686, renormalised to  171.00000

[...]

     *
     * You are using vdW-DF for exchange-correlation in this calculation.
     * Please cite the following three references that made this development
     * possible:
     *
     *   M. Dion, H. Rydberg, E. Schroder, D. C. Langreth, and
     *   B. I. Lundqvist, Phys. Rev. Lett. 92, 246401 (2004).
     *
     *   T. Thonhauser, V. R. Cooper, S. Li, A. Puzder, P. Hyldgaard, and
     *   D. C. Langreth, Phys. Rev. B 76, 125112 (2007).
     *
     *   G. Roman-Perez and J. M. Soler, Phys. Rev. Lett. 103, 096102 (2009).
     *
     *
     * If you are using vdW-DF2, please also cite:
     *
     *   K. Lee, E. D. Murray, L. Kong, B. I. Lundqvist, and
     *   D. C. Langreth, Phys. Rev. B 82, 081101(R) (2010).
     *
     *
     * If you are calculating the stress with vdW-DF, please also cite:
     *
     *   R. Sabatini, E. Kucukbenli, B. Kolb, T. Thonhauser, and
     *   S. de Gironcoli, J. Phys.: Condens. Matter 24, 424209 (2012).
     *

     Carrying out vdW-DF run using the following parameters:

     Nqs =      20    Nr_points =    1024   r_max =   100.000
     q_mesh =
               0.00001000     0.04494208     0.09755937     0.15916263
               0.23128650     0.31572767     0.41458969     0.53033537
               0.66584808     0.82450364     1.01025438     1.22772762
               1.48234092     1.78043706     2.12944203     2.53805004
               3.01644009     3.57652955     4.23227104     5.00000000

     Gradients computed in reciprocal space

[...]

     Starting wfc are  156 randomized atomic wfcs

     Self-consistent Calculation

[...]

     total energy              =   -1969.38825277 Ry
     Harris-Foulkes estimate   =   -1969.38825185 Ry
     estimated scf accuracy    <       0.00000195 Ry

     iteration # 16     ecut=    36.75 Ry     beta=0.10
     Davidson diagonalization with overlap
     ethr =  1.14E-09,  avg # of iterations =  2.3

[...]

     negative rho (up, down):  9.885E-01 0.000E+00

     Adding external electric field

     Computed dipole along edir(3) :
        Dipole                0.0151 Ry au,          0.0385 Debye
        Dipole field          0.0000 Ry au

        Potential amp.       -0.0037 Ry
        Total length         45.3619 bohr

     End of self-consistent calculation

[...]

          k = 0.0589 0.0000 0.0000 ( 17340 PWs)   bands (ev):

[...]

          k =-0.0884-0.1531 0.0000 ( 17336 PWs)   bands (ev):

   -71.8124 -71.7936 -71.7730 -71.7546 -71.7378 -71.7114 -71.7095 -71.7032
   -71.6861 -64.4235 -64.2767 -64.2273 -36.5957 -36.5783 -36.4897 -36.4552
   -36.4201 -36.3830 -36.3503 -36.2749 -36.2665 -36.2398 -36.1907 -36.1119
   -36.0887 -36.0530 -35.9401 -35.9313 -35.9053 -35.8890 -35.8697 -35.8325
   -35.8181 -35.7936 -35.7890 -35.7863 -35.7771 -35.7266 -35.7067 -35.6940
   -35.6730 -35.6517 -35.5575 -35.5434 -35.5201 -35.4950 -35.4638 -35.4188
    -3.6805  -3.4525  -2.1799  -2.0836  -1.6272  -1.5836  -1.5260  -1.5066
    -1.3778  -1.1625  -0.7661  -0.6276  -0.4822  -0.3929  -0.3502  -0.3146
     0.0566   0.0868   0.1528   0.1795   0.3400   0.5535   0.8235   1.0305
     1.0861   1.1368   1.1971   1.2477   1.2647   1.3308   1.3805   1.4203
     1.6375   1.7441   1.7687   1.7981   1.8743   1.9687   2.3367   2.4641
     2.8606   2.9371   3.0967   3.3347   3.4239   3.4422   3.6405   3.7855
     3.8603   3.9454   4.1149   4.1654   4.3470   4.4097   4.5276   4.8270
     4.8475   5.2937   5.3491   5.4086   6.1098   6.2512   6.3342   6.3403
     6.4202   7.1543   7.5331

     the Fermi energy is     2.3818 ev

!    total energy              =   -1969.38825554 Ry
     Harris-Foulkes estimate   =   -1969.38825286 Ry
     estimated scf accuracy    <       0.00000087 Ry

     The total energy is the sum of the following terms:

     one-electron contribution =  -15605.37348981 Ry
     hartree contribution      =    7789.85488063 Ry
     xc contribution           =    -482.01473608 Ry
     ewald contribution        =    6328.23590017 Ry
     electric field correction =       0.00000063 Ry
     smearing contrib. (-TS)   =      -0.09081107 Ry

     convergence has been achieved in  16 iterations

 BEEF-vdW xc energy contributions
           1 :   -423.864762076396
           2 :    391.798378778739
           3 :   -335.115753637009
           4 :    265.927061196094
           5 :   -197.016048327082
           6 :    138.108934623650
           7 :   -93.8053385111266
           8 :    63.6071234029291
           9 :   -43.6898448944085
          10 :    29.3641273254434
          11 :   -17.1574852805238
          12 :    5.76721558538969
          13 :    4.19934094842114
          14 :   -11.2922282629208
          15 :    14.4133723973399
          16 :   -13.5833297258750
          17 :    10.0049060204870
          18 :   -5.53495367202839
          19 :    1.89791873655355
          20 :  -5.509024570517340E-002
          21 :  -1.922197496355693E-003
          22 :   -1.01297504479328
          23 :    2.21477937180720
          24 :   -3.05473033646433
          25 :    3.54227166792418
          26 :   -4.10911701440898
          27 :    5.23111972899500
          28 :   -7.05131390070585
          29 :    9.21764370935227
          30 :   -11.0196131660332
          31 :   -38.6857746975259
          32 :   -28.8632562706845

     Forces acting on atoms (Ry/au):

     negative rho (up, down):  9.885E-01 0.000E+00
     atom    1 type  1   force =    -0.00000049    0.00465091    0.01561921
     atom    2 type  1   force =     0.00402721   -0.00232630    0.01561902
     atom    3 type  1   force =    -0.00402739   -0.00232511    0.01562047
     atom    4 type  2   force =     0.00000031    0.00000021    0.00566916
     atom    5 type  1   force =    -0.00000002    0.00231861   -0.01291250
     atom    6 type  1   force =     0.00200826   -0.00115935   -0.01291374
     atom    7 type  1   force =    -0.00200832   -0.00115912   -0.01291185
     atom    8 type  2   force =    -0.00000000   -0.00000029   -0.01627723
     atom    9 type  1   force =     0.00000042   -0.00095479    0.00062908
     atom   10 type  1   force =    -0.00082504    0.00047822    0.00062765
     atom   11 type  1   force =     0.00082503    0.00047802    0.00062776
     atom   12 type  2   force =     0.00000003   -0.00000102    0.00060298

     Total force =     0.040181     Total SCF correction =     0.003150

     entering subroutine stress ...

     negative rho (up, down):  9.885E-01 0.000E+00
          total   stress  (Ry/bohr**3)                   (kbar)     P=  -42.34
  -0.00037676   0.00000000   0.00000000        -55.42      0.00      0.00
   0.00000000  -0.00037676   0.00000000          0.00    -55.42      0.00
   0.00000000   0.00000000  -0.00010996          0.00      0.00    -16.18

 !ASE

     Writing output data file calc.save

     General routines

     Parallel routines

   This run was terminated on:  10:58:49   2Jan2019

   JOB DONE.
Job  /afs/slac/g/suncat/bin/suncat-tsmpirun -x LD_LIBRARY_PATH -wdir /scratch/qe649393_wFthE pw.x -in pw.inp

TID   HOST_NAME   COMMAND_LINE            STATUS            TERMINATION_TIME
00000 suncat0031 pw.x -in pw.inp   Done                     01/02/2019 10:58:49
00001 suncat0031 pw.x -in pw.inp   Done                     01/02/2019 10:58:49
00002 suncat0031 pw.x -in pw.inp   Done                     01/02/2019 10:58:49
00003 suncat0031 pw.x -in pw.inp   Done                     01/02/2019 10:58:49
00004 suncat0031 pw.x -in pw.inp   Done                     01/02/2019 10:58:49
00005 suncat0031 pw.x -in pw.inp   Done                     01/02/2019 10:58:49
00006 suncat0031 pw.x -in pw.inp   Done                     01/02/2019 10:58:49
00007 suncat0031 pw.x -in pw.inp   Done                     01/02/2019 10:58:49
00008 suncat0030 pw.x -in pw.inp   Done                     01/02/2019 10:58:49
00009 suncat0030 pw.x -in pw.inp   Done                     01/02/2019 10:58:49
00010 suncat0030 pw.x -in pw.inp   Done                     01/02/2019 10:58:49
00011 suncat0030 pw.x -in pw.inp   Done                     01/02/2019 10:58:49
00012 suncat0030 pw.x -in pw.inp   Done                     01/02/2019 10:58:49
00013 suncat0030 pw.x -in pw.inp   Done                     01/02/2019 10:58:49
00014 suncat0030 pw.x -in pw.inp   Done                     01/02/2019 10:58:49
00015 suncat0030 pw.x -in pw.inp   Done                     01/02/2019 10:58:49
00016 suncat0192 pw.x -in pw.inp   Done                     01/02/2019 10:58:49
00017 suncat0192 pw.x -in pw.inp   Done                     01/02/2019 10:58:49
00018 suncat0192 pw.x -in pw.inp   Done                     01/02/2019 10:58:49
00019 suncat0192 pw.x -in pw.inp   Done                     01/02/2019 10:58:49
00020 suncat0192 pw.x -in pw.inp   Done                     01/02/2019 10:58:49
00021 suncat0192 pw.x -in pw.inp   Done                     01/02/2019 10:58:49
00022 suncat0192 pw.x -in pw.inp   Done                     01/02/2019 10:58:49
00023 suncat0192 pw.x -in pw.inp   Done                     01/02/2019 10:58:49
00024 suncat0185 pw.x -in pw.inp   Done                     01/02/2019 10:58:49
00025 suncat0185 pw.x -in pw.inp   Done                     01/02/2019 10:58:49
00026 suncat0185 pw.x -in pw.inp   Done                     01/02/2019 10:58:49
00027 suncat0185 pw.x -in pw.inp   Done                     01/02/2019 10:58:49
00028 suncat0185 pw.x -in pw.inp   Done                     01/02/2019 10:58:49
00029 suncat0185 pw.x -in pw.inp   Done                     01/02/2019 10:58:49
00030 suncat0185 pw.x -in pw.inp   Done                     01/02/2019 10:58:49
00031 suncat0185 pw.x -in pw.inp   Done                     01/02/2019 10:58:49
00032 suncat0184 pw.x -in pw.inp   Done                     01/02/2019 10:58:49
00033 suncat0184 pw.x -in pw.inp   Done                     01/02/2019 10:58:49
00034 suncat0184 pw.x -in pw.inp   Done                     01/02/2019 10:58:49
00035 suncat0184 pw.x -in pw.inp   Done                     01/02/2019 10:58:49
00036 suncat0184 pw.x -in pw.inp   Done                     01/02/2019 10:58:49
00037 suncat0184 pw.x -in pw.inp   Done                     01/02/2019 10:58:49
00038 suncat0184 pw.x -in pw.inp   Done                     01/02/2019 10:58:49
00039 suncat0184 pw.x -in pw.inp   Done                     01/02/2019 10:58:49
00040 suncat0183 pw.x -in pw.inp   Done                     01/02/2019 10:58:49
00041 suncat0183 pw.x -in pw.inp   Done                     01/02/2019 10:58:49
00042 suncat0183 pw.x -in pw.inp   Done                     01/02/2019 10:58:49
00043 suncat0183 pw.x -in pw.inp   Done                     01/02/2019 10:58:49
00044 suncat0183 pw.x -in pw.inp   Done                     01/02/2019 10:58:49
00045 suncat0183 pw.x -in pw.inp   Done                     01/02/2019 10:58:49
00046 suncat0183 pw.x -in pw.inp   Done                     01/02/2019 10:58:49
00047 suncat0183 pw.x -in pw.inp   Done                     01/02/2019 10:58:49
00048 suncat0172 pw.x -in pw.inp   Done                     01/02/2019 10:58:49
00049 suncat0172 pw.x -in pw.inp   Done                     01/02/2019 10:58:49
00050 suncat0172 pw.x -in pw.inp   Done                     01/02/2019 10:58:49
00051 suncat0172 pw.x -in pw.inp   Done                     01/02/2019 10:58:49
00052 suncat0172 pw.x -in pw.inp   Done                     01/02/2019 10:58:49
00053 suncat0172 pw.x -in pw.inp   Done                     01/02/2019 10:58:49
00054 suncat0172 pw.x -in pw.inp   Done                     01/02/2019 10:58:49
00055 suncat0172 pw.x -in pw.inp   Done                     01/02/2019 10:58:49
00056 suncat0171 pw.x -in pw.inp   Done                     01/02/2019 10:58:49
00057 suncat0171 pw.x -in pw.inp   Done                     01/02/2019 10:58:49
00058 suncat0171 pw.x -in pw.inp   Done                     01/02/2019 10:58:49
00059 suncat0171 pw.x -in pw.inp   Done                     01/02/2019 10:58:49
00060 suncat0171 pw.x -in pw.inp   Done                     01/02/2019 10:58:49
00061 suncat0171 pw.x -in pw.inp   Done                     01/02/2019 10:58:49
00062 suncat0171 pw.x -in pw.inp   Done                     01/02/2019 10:58:49
00063 suncat0171 pw.x -in pw.inp   Done                     01/02/2019 10:58:49