     Program PWSCF v.5.1rc2 (svn rev. 11289) starts on  2Jan2019 at 22:15:36

     Current dimensions of program PWSCF are:
     Max number of different atomic species (ntypx) = 10
     Max number of k-points (npk) =  40000
     Max angular momentum in pseudopotentials (lmaxx) =  3
     Presently stress not available with electric field

     IMPORTANT: XC functional enforced from input :
     Exchange-correlation      = BEEF-VDW ( 1  4 27 13 2)
     Any further DFT definition will be discarded
     Please, verify this is what you really want

     Subspace diagonalization in iterative solution of the eigenvalue problem:
     a serial algorithm will be used

     bravais-lattice index     =            0
     lattice parameter (alat)  =       1.8897  a.u.
     unit-cell volume          =    5603.0209 (a.u.)^3
     number of atoms/cell      =           12
     number of atomic types    =            2
     number of electrons       =       147.00
     number of Kohn-Sham states=          103
     kinetic-energy cutoff     =      36.7493  Ry
     charge density cutoff     =     367.4932  Ry
     convergence threshold     =      1.0E-06
     mixing beta               =       0.1000
     number of iterations used =           10  plain     mixing
     Exchange-correlation      = BEEF-VDW ( 1  4 27 13 2)
     nstep                     =           50

     celldm(1)=   1.889726  celldm(2)=   0.000000  celldm(3)=   0.000000
     celldm(4)=   0.000000  celldm(5)=   0.000000  celldm(6)=   0.000000

     crystal axes: (cart. coord. in units of alat)
               a(1) = (   6.186341   0.000000   0.000000 )
               a(2) = (  -3.093171   5.357529   0.000000 )
               a(3) = (   0.000000   0.000000  25.051126 )

     reciprocal axes: (cart. coord. in units 2 pi/alat)
               b(1) = (  0.161646  0.093327  0.000000 )
               b(2) = (  0.000000  0.186653  0.000000 )
               b(3) = (  0.000000  0.000000  0.039918 )

     PseudoPot. # 1 for Zr read from file:
     /afs/slac.stanford.edu/u/if/mamunm/psp/gbrv1.5pbe/Zr.UPF
     MD5 check sum: 5db81b1e868ab7776c4564c113de050b
     Pseudo is Ultrasoft + core correction, Zval = 12.0
     Generated by new atomic code, or converted to UPF format
     Using radial grid of  887 points,  6 beta functions with:
                l(1) =   0
                l(2) =   0
                l(3) =   1
                l(4) =   1
                l(5) =   2
                l(6) =   2
     Q(r) pseudized with  6 coefficients,  rinner =    1.200   1.200   1.200
                                                       1.200   1.200

     PseudoPot. # 2 for V  read from file:
     /afs/slac.stanford.edu/u/if/mamunm/psp/gbrv1.5pbe/V.UPF
     MD5 check sum: 22b79981416ebb76fdaf5b1b8640f6fb
     Pseudo is Ultrasoft + core correction, Zval = 13.0
     Generated by new atomic code, or converted to UPF format
     Using radial grid of  853 points,  6 beta functions with:
                l(1) =   0
                l(2) =   0
                l(3) =   1
                l(4) =   1
                l(5) =   2
                l(6) =   2
     Q(r) pseudized with  8 coefficients,  rinner =    1.100   1.100   1.100
                                                       1.100   1.100

     vdW kernel table read from file vdW_kernel_table
     MD5 check sum: 095c7af220d748ca6e76c0b4c6cfb241

     atomic species   valence    mass     pseudopotential
        Zr1           12.00    91.22400     Zr( 1.00)
        V1            13.00    50.94150     V ( 1.00)

     No symmetry found

   Cartesian axes

     site n.     atom                  positions (alat units)
         1           Zr1 tau(   1) = (   0.0000000   0.0000000  10.0000000  )
         2           Zr1 tau(   2) = (  -1.5465853   2.6787644  10.0000000  )
         3           Zr1 tau(   3) = (   1.5465853   2.6787644  10.0000000  )
         4           V1  tau(   4) = (   3.0931706   0.0000000  10.0000000  )
         5           Zr1 tau(   5) = (   3.0931706   1.7858429  12.5255632  )
         6           Zr1 tau(   6) = (   1.5465853   4.4646073  12.5255632  )
         7           Zr1 tau(   7) = (  -1.5465853   4.4646073  12.5255632  )
         8           V1  tau(   8) = (   0.0000000   1.7858429  12.5255632  )
         9           Zr1 tau(   9) = (  -0.0000000   3.5716858  15.0511265  )
        10           Zr1 tau(  10) = (   1.5465853   0.8929215  15.0511265  )
        11           Zr1 tau(  11) = (   4.6397560   0.8929215  15.0511265  )
        12           V1  tau(  12) = (   3.0931706   3.5716858  15.0511265  )

     number of k points=    20  Fermi-Dirac smearing, width (Ry)=  0.0110
                       cart. coord. in units 2pi/alat
        k(    1) = (   0.0000000   0.0000000   0.0000000), wk =   0.0555556
        k(    2) = (   0.0000000   0.0311089   0.0000000), wk =   0.1111111
        k(    3) = (   0.0000000   0.0622177   0.0000000), wk =   0.1111111
        k(    4) = (   0.0000000  -0.0933266   0.0000000), wk =   0.0555556
        k(    5) = (   0.0269411   0.0155544   0.0000000), wk =   0.1111111
        k(    6) = (   0.0269411   0.0466633   0.0000000), wk =   0.1111111
        k(    7) = (   0.0269411   0.0777722   0.0000000), wk =   0.1111111
        k(    8) = (   0.0269411  -0.0777722   0.0000000), wk =   0.1111111
        k(    9) = (   0.0269411  -0.0466633   0.0000000), wk =   0.1111111
        k(   10) = (   0.0269411  -0.0155544   0.0000000), wk =   0.1111111
        k(   11) = (   0.0538821   0.0311089   0.0000000), wk =   0.1111111
        k(   12) = (   0.0538821   0.0622177   0.0000000), wk =   0.1111111
        k(   13) = (   0.0538821   0.0933266   0.0000000), wk =   0.1111111
        k(   14) = (   0.0538821  -0.0622177   0.0000000), wk =   0.1111111
        k(   15) = (   0.0538821  -0.0311089   0.0000000), wk =   0.1111111
        k(   16) = (   0.0538821   0.0000000   0.0000000), wk =   0.1111111
        k(   17) = (  -0.0808232  -0.0466633   0.0000000), wk =   0.0555556
        k(   18) = (  -0.0808232  -0.0155544   0.0000000), wk =   0.1111111
        k(   19) = (  -0.0808232   0.0155544   0.0000000), wk =   0.1111111
        k(   20) = (  -0.0808232  -0.1399899   0.0000000), wk =   0.0555556

     Largest allocated arrays     est. size (Mb)     dimensions
     Largest temporary arrays     est. size (Mb)     dimensions

     Initial potential from superposition of free atoms
     Check: negative starting charge=   -0.556579

     starting charge  146.97697, renormalised to  147.00000

     negative rho (up, down):  5.567E-01 0.000E+00

     *
     * You are using vdW-DF for exchange-correlation in this calculation.
     * Please cite the following three references that made this development
     * possible:
     *
     *   M. Dion, H. Rydberg, E. Schroder, D. C. Langreth, and
     *   B. I. Lundqvist, Phys. Rev. Lett. 92, 246401 (2004).
     *
     *   T. Thonhauser, V. R. Cooper, S. Li, A. Puzder, P. Hyldgaard, and
     *   D. C. Langreth, Phys. Rev. B 76, 125112 (2007).
     *
     *   G. Roman-Perez and J. M. Soler, Phys. Rev. Lett. 103, 096102 (2009).
     *
     *
     * If you are using vdW-DF2, please also cite:
     *
     *   K. Lee, E. D. Murray, L. Kong, B. I. Lundqvist, and
     *   D. C. Langreth, Phys. Rev. B 82, 081101(R) (2010).
     *
     *
     * If you are calculating the stress with vdW-DF, please also cite:
     *
     *   R. Sabatini, E. Kucukbenli, B. Kolb, T. Thonhauser, and
     *   S. de Gironcoli, J. Phys.: Condens. Matter 24, 424209 (2012).
     *

     Carrying out vdW-DF run using the following parameters:

     Nqs =      20    Nr_points =    1024   r_max =   100.000
     q_mesh =
               0.00001000     0.04494208     0.09755937     0.15916263
               0.23128650     0.31572767     0.41458969     0.53033537
               0.66584808     0.82450364     1.01025438     1.22772762
               1.48234092     1.78043706     2.12944203     2.53805004
               3.01644009     3.57652955     4.23227104     5.00000000

     Gradients computed in reciprocal space

     Adding external electric field

     Computed dipole along edir(3) :
        Dipole               -0.0000 Ry au,         -0.0000 Debye
        Dipole field         -0.0000 Ry au

        Potential amp.        0.0000 Ry
        Total length         46.1563 bohr

     Starting wfc are  147 randomized atomic wfcs

     Self-consistent Calculation

     iteration #  1     ecut=    36.75 Ry     beta=0.10
     Davidson diagonalization with overlap
     ethr =  1.00E-02,  avg # of iterations =  2.0

[...]

     total energy              =   -1333.54632147 Ry
     Harris-Foulkes estimate   =   -1335.42763958 Ry
     estimated scf accuracy    <      10.43387200 Ry

[...]

     iteration # 12     ecut=    36.75 Ry     beta=0.10
     Davidson diagonalization with overlap
     c_bands:  1 eigenvalues not converged
     ethr =  1.16E-05,  avg # of iterations =  8.2

[...]

     End of self-consistent calculation

          k = 0.0000 0.0000 0.0000 ( 21043 PWs)   bands (ev):

   -63.0365 -62.9824 -62.9821 -47.8175 -47.8107 -47.7104 -47.7104 -47.7088
   -47.7087 -47.4870 -47.3895 -47.3895 -36.8275 -36.8265 -36.8202 -36.8202
   -36.8156 -36.7622 -36.7622 -36.7619 -36.7619 -26.2975 -26.2410 -26.0564
   -25.9877 -25.9877 -25.9130 -25.9130 -25.8882 -25.8882 -25.8759 -25.8446
   -25.7306 -25.7306 -25.5121 -25.5121 -25.5017 -25.4730 -25.3589 -25.3589
   -25.3488 -25.3488 -25.3193 -25.2799 -25.2799 -25.1447 -25.0657 -25.0657
    -3.7923  -2.6159  -1.8398  -1.6929  -1.4031  -1.0682  -1.0682  -1.0196
    -0.9560  -0.9560  -0.5956  -0.5278  -0.5278  -0.4889  -0.4889   0.1012
     0.4038   0.4038   1.1128   1.2897   1.3272   1.3272   1.3362   1.6406
     1.7359   1.9432   1.9432   1.9633   1.9633   2.0714   2.0714   2.1261
     2.1482   2.1482   2.1823   2.1823   2.5157   2.5501   2.5501   2.7308
     2.8958   2.8958   3.2158   3.2158   3.3344   3.3344   3.4374   3.5420
     4.1033   4.5309   4.5310   4.6664   4.6665   4.9612   4.9864

[...]

          k =-0.0808-0.0467 0.0000 ( 21072 PWs)   bands (ev):

[...]

     the Fermi energy is     1.3411 ev

!    total energy              =   -1334.72479499 Ry
     Harris-Foulkes estimate   =   -1334.72479518 Ry
     estimated scf accuracy    <       0.00000082 Ry

     The total energy is the sum of the following terms:

     one-electron contribution =   -9433.27315317 Ry
     hartree contribution      =    4706.65670739 Ry
     xc contribution           =    -226.39597057 Ry
     ewald contribution        =    3618.42974865 Ry
     electric field correction =       0.00000001 Ry
     smearing contrib. (-TS)   =      -0.14212730 Ry

     convergence has been achieved in  22 iterations

 BEEF-vdW xc energy contributions
           1 :   -194.225336977175
           2 :    175.421795961901
           3 :   -143.904927892159
           4 :    108.869646286638
           5 :   -78.5331742946026
           6 :    57.1289949709403
           7 :   -44.2860104398784
           8 :    36.6393359280429
           9 :   -30.4023154430739
          10 :    23.3838024110835
          11 :   -15.5752047284513
          12 :    8.38749459299112
[...]
               b(2) = (  0.000000  0.186653  0.000000 )
               b(3) = (  0.000000  0.000000  0.039918 )

     PseudoPot. # 1 for Zr read from file:
     /afs/slac.stanford.edu/u/if/mamunm/psp/gbrv1.5pbe/Zr.UPF
     MD5 check sum: 5db81b1e868ab7776c4564c113de050b
     Pseudo is Ultrasoft + core correction, Zval = 12.0
     Generated by new atomic code, or converted to UPF format
     Using radial grid of  887 points,  6 beta functions with:
                l(1) =   0
                l(2) =   0
                l(3) =   1
                l(4) =   1
                l(5) =   2
                l(6) =   2
     Q(r) pseudized with  6 coefficients,  rinner =    1.200   1.200   1.200
                                                       1.200   1.200

     PseudoPot. # 2 for V  read from file:
     /afs/slac.stanford.edu/u/if/mamunm/psp/gbrv1.5pbe/V.UPF
     MD5 check sum: 22b79981416ebb76fdaf5b1b8640f6fb
     Pseudo is Ultrasoft + core correction, Zval = 13.0
     Generated by new atomic code, or converted to UPF format
     Using radial grid of  853 points,  6 beta functions with:
                l(1) =   0
                l(2) =   0
                l(3) =   1
                l(4) =   1
                l(5) =   2
                l(6) =   2
     Q(r) pseudized with  8 coefficients,  rinner =    1.100   1.100   1.100
                                                       1.100   1.100

     vdW kernel table read from file vdW_kernel_table
     MD5 check sum: 095c7af220d748ca6e76c0b4c6cfb241

     atomic species   valence    mass     pseudopotential
        Zr1           12.00    91.22400     Zr( 1.00)
        V1            13.00    50.94150     V ( 1.00)

     No symmetry found

   Cartesian axes

     site n.     atom                  positions (alat units)
         1           Zr1 tau(   1) = (   0.0000000   0.0000000  10.0000000  )
         2           Zr1 tau(   2) = (  -1.5465853   2.6787644  10.0000000  )
         3           Zr1 tau(   3) = (   1.5465853   2.6787644  10.0000000  )
         4           V1  tau(   4) = (   3.0931706   0.0000000  10.0000000  )
         5           Zr1 tau(   5) = (   3.0931706   1.7858429  12.5255632  )
         6           Zr1 tau(   6) = (   1.5465853   4.4646073  12.5255632  )
         7           Zr1 tau(   7) = (  -1.5465853   4.4646073  12.5255632  )
         8           V1  tau(   8) = (   0.0000000   1.7858429  12.5255632  )
         9           Zr1 tau(   9) = (  -0.0000006   3.5048841  14.9963680  )
        10           Zr1 tau(  10) = (   1.4887347   0.9263229  14.9963670  )
        11           Zr1 tau(  11) = (   4.6976047   0.9263240  14.9963660  )
        12           V1  tau(  12) = (   3.0931708   3.5716852  14.7363260  )

     number of k points=    20  Fermi-Dirac smearing, width (Ry)=  0.0110
                       cart. coord. in units 2pi/alat
        k(    1) = (   0.0000000   0.0000000   0.0000000), wk =   0.0555556
        k(    2) = (   0.0000000   0.0311089   0.0000000), wk =   0.1111111
        k(    3) = (   0.0000000   0.0622177   0.0000000), wk =   0.1111111
        k(    4) = (   0.0000000  -0.0933266   0.0000000), wk =   0.0555556
        k(    5) = (   0.0269411   0.0155544   0.0000000), wk =   0.1111111
        k(    6) = (   0.0269411   0.0466633   0.0000000), wk =   0.1111111
        k(    7) = (   0.0269411   0.0777722   0.0000000), wk =   0.1111111
        k(    8) = (   0.0269411  -0.0777722   0.0000000), wk =   0.1111111
        k(    9) = (   0.0269411  -0.0466633   0.0000000), wk =   0.1111111
        k(   10) = (   0.0269411  -0.0155544   0.0000000), wk =   0.1111111
        k(   11) = (   0.0538821   0.0311089   0.0000000), wk =   0.1111111
        k(   12) = (   0.0538821   0.0622177   0.0000000), wk =   0.1111111
        k(   13) = (   0.0538821   0.0933266   0.0000000), wk =   0.1111111
        k(   14) = (   0.0538821  -0.0622177   0.0000000), wk =   0.1111111
        k(   15) = (   0.0538821  -0.0311089   0.0000000), wk =   0.1111111
        k(   16) = (   0.0538821   0.0000000   0.0000000), wk =   0.1111111
        k(   17) = (  -0.0808232  -0.0466633   0.0000000), wk =   0.0555556
        k(   18) = (  -0.0808232  -0.0155544   0.0000000), wk =   0.1111111
        k(   19) = (  -0.0808232   0.0155544   0.0000000), wk =   0.1111111
        k(   20) = (  -0.0808232  -0.1399899   0.0000000), wk =   0.0555556

     Largest allocated arrays     est. size (Mb)     dimensions
     Largest temporary arrays     est. size (Mb)     dimensions

     Initial potential from superposition of free atoms
     Check: negative starting charge=   -0.554076

     starting charge  146.97697, renormalised to  147.00000

[...]

     *
     * You are using vdW-DF for exchange-correlation in this calculation.
     * Please cite the following three references that made this development
     * possible:
     *
     *   M. Dion, H. Rydberg, E. Schroder, D. C. Langreth, and
     *   B. I. Lundqvist, Phys. Rev. Lett. 92, 246401 (2004).
     *
     *   T. Thonhauser, V. R. Cooper, S. Li, A. Puzder, P. Hyldgaard, and
     *   D. C. Langreth, Phys. Rev. B 76, 125112 (2007).
     *
     *   G. Roman-Perez and J. M. Soler, Phys. Rev. Lett. 103, 096102 (2009).
     *
     *
     * If you are using vdW-DF2, please also cite:
     *
     *   K. Lee, E. D. Murray, L. Kong, B. I. Lundqvist, and
     *   D. C. Langreth, Phys. Rev. B 82, 081101(R) (2010).
     *
     *
     * If you are calculating the stress with vdW-DF, please also cite:
     *
     *   R. Sabatini, E. Kucukbenli, B. Kolb, T. Thonhauser, and
     *   S. de Gironcoli, J. Phys.: Condens. Matter 24, 424209 (2012).
     *

     Carrying out vdW-DF run using the following parameters:

     Nqs =      20    Nr_points =    1024   r_max =   100.000
     q_mesh =
               0.00001000     0.04494208     0.09755937     0.15916263
               0.23128650     0.31572767     0.41458969     0.53033537
               0.66584808     0.82450364     1.01025438     1.22772762
               1.48234092     1.78043706     2.12944203     2.53805004
               3.01644009     3.57652955     4.23227104     5.00000000

     Gradients computed in reciprocal space

[...]

     Starting wfc are  147 randomized atomic wfcs

     Self-consistent Calculation

[...]

     total energy              =   -1334.74350441 Ry
     Harris-Foulkes estimate   =   -1334.74350391 Ry
     estimated scf accuracy    <       0.00000109 Ry

     iteration # 22     ecut=    36.75 Ry     beta=0.10
     Davidson diagonalization with overlap
     ethr =  7.38E-10,  avg # of iterations =  2.2

[...]

     negative rho (up, down):  5.678E-01 0.000E+00

     Adding external electric field

     Computed dipole along edir(3) :
        Dipole                0.0500 Ry au,          0.1270 Debye
        Dipole field          0.0001 Ry au

        Potential amp.       -0.0103 Ry
        Total length         46.1563 bohr

     End of self-consistent calculation

[...]

          k = 0.0539 0.0000 0.0000 ( 21059 PWs)   bands (ev):

[...]

          k =-0.0808-0.1400 0.0000 ( 21072 PWs)   bands (ev):

   -63.0029 -62.9375 -62.8436 -47.7647 -47.7370 -47.7102 -47.7018 -47.6798
   -47.6672 -47.3559 -47.3236 -47.2901 -36.7873 -36.7865 -36.7864 -36.7778
   -36.7204 -36.7195 -36.6565 -36.6562 -36.6556 -26.0974 -26.0360 -25.9616
   -25.8838 -25.8676 -25.8133 -25.8047 -25.7630 -25.7509 -25.7397 -25.7230
   -25.6946 -25.6833 -25.6392 -25.6271 -25.6111 -25.6043 -25.3714 -25.3558
   -25.3463 -25.2925 -25.2536 -25.2189 -25.2181 -25.1966 -25.1711 -24.9979
    -2.2910  -2.2803  -1.3223  -1.2274  -0.8424  -0.6947  -0.5464  -0.4856
    -0.3387  -0.3008   0.0018   0.2063   0.2721   0.2991   0.3493   0.3686
     0.6344   0.6626   0.7063   0.7465   0.7558   0.9527   1.0803   1.0925
     1.1198   1.1806   1.3094   1.3325   1.3695   1.4063   1.5543   1.6314
     1.6846   1.8324   1.9306   1.9906   2.1246   2.2104   2.4451   2.5215
     2.5762   2.8390   3.0001   3.0402   3.1422   3.2009   3.2326   3.3846
     3.4922   3.8057   3.8793   3.9670   4.0844   4.2252   4.3383

     the Fermi energy is     1.3735 ev

!    total energy              =   -1334.74350303 Ry
     Harris-Foulkes estimate   =   -1334.74350502 Ry
     estimated scf accuracy    <       0.00000036 Ry

     The total energy is the sum of the following terms:

     one-electron contribution =   -9598.49246559 Ry
     hartree contribution      =    4789.55695321 Ry
     xc contribution           =    -226.56250935 Ry
     ewald contribution        =    3700.88945055 Ry
     electric field correction =       0.00000560 Ry
     smearing contrib. (-TS)   =      -0.13493745 Ry

     convergence has been achieved in  22 iterations

 BEEF-vdW xc energy contributions
           1 :   -194.453632821866
           2 :    175.705568307580
           3 :   -144.244099560275
           4 :    109.197571095835
           5 :   -78.7592009152781
           6 :    57.2023583209913
           7 :   -44.2349298249904
           8 :    36.5568734488456
           9 :   -30.3886039051210
          10 :    23.4835767501345
          11 :   -15.7522018454881
          12 :    8.55121987476775
          13 :   -3.38236919750997
          14 :   0.859062608888024
          15 :  -0.446644338177663
          16 :   0.936847380858097
          17 :   -1.22337171816363
          18 :   0.861485394701248
          19 :  -0.124779251721662
          20 :  -0.378104018810490
          21 :   0.206159906632621
          22 :   0.624044223511163
          23 :   -1.70108305798624
          24 :    2.52234746067114
          25 :   -2.80033262658296
          26 :    2.58157163939100
          27 :   -2.14885092813168
          28 :    1.81269590842325
          29 :   -1.73718697412968
          30 :    1.88599461403462
          31 :   -21.8248237771541
          32 :   -16.1536082058677

     Forces acting on atoms (Ry/au):

     negative rho (up, down):  5.678E-01 0.000E+00
     atom    1 type  1   force =     0.00000137    0.01849061    0.00264601
     atom    2 type  1   force =     0.01601398   -0.00924403    0.00264639
     atom    3 type  1   force =    -0.01601395   -0.00924578    0.00264542
     atom    4 type  2   force =    -0.00000005   -0.00000010    0.02992933
     atom    5 type  1   force =    -0.00000023   -0.00971762   -0.01134096
     atom    6 type  1   force =    -0.00841620    0.00485853   -0.01134047
     atom    7 type  1   force =     0.00841601    0.00485889   -0.01133969
     atom    8 type  2   force =     0.00000008    0.00000004   -0.00214127
     atom    9 type  1   force =    -0.00000140   -0.00013726   -0.00055667
     atom   10 type  1   force =    -0.00011976    0.00006746   -0.00055693
     atom   11 type  1   force =     0.00011995    0.00006916   -0.00055593
     atom   12 type  2   force =     0.00000020    0.00000009   -0.00003523

     Total force =     0.051159     Total SCF correction =     0.002016

     entering subroutine stress ...

     negative rho (up, down):  5.678E-01 0.000E+00
          total   stress  (Ry/bohr**3)                   (kbar)     P=   -8.42
  -0.00006731  -0.00000000  -0.00000000         -9.90     -0.00     -0.00
  -0.00000000  -0.00006731  -0.00000000         -0.00     -9.90     -0.00
  -0.00000000  -0.00000000  -0.00003699         -0.00     -0.00     -5.44

 !ASE

     Writing output data file calc.save

     General routines

     Parallel routines

   This run was terminated on:   0:14:58   3Jan2019

   JOB DONE.
Job  /afs/slac/g/suncat/bin/suncat-tsmpirun -x LD_LIBRARY_PATH -wdir /scratch/qe649576_ODp2l pw.x -in pw.inp

TID   HOST_NAME   COMMAND_LINE            STATUS            TERMINATION_TIME
00000 suncat0077 pw.x -in pw.inp   Done                     01/03/2019 00:14:58
00001 suncat0077 pw.x -in pw.inp   Done                     01/03/2019 00:14:58
00002 suncat0077 pw.x -in pw.inp   Done                     01/03/2019 00:14:58
00003 suncat0077 pw.x -in pw.inp   Done                     01/03/2019 00:14:58
00004 suncat0077 pw.x -in pw.inp   Done                     01/03/2019 00:14:58
00005 suncat0077 pw.x -in pw.inp   Done                     01/03/2019 00:14:58
00006 suncat0077 pw.x -in pw.inp   Done                     01/03/2019 00:14:58
00007 suncat0077 pw.x -in pw.inp   Done                     01/03/2019 00:14:58
00008 suncat0068 pw.x -in pw.inp   Done                     01/03/2019 00:14:58
00009 suncat0068 pw.x -in pw.inp   Done                     01/03/2019 00:14:58
00010 suncat0068 pw.x -in pw.inp   Done                     01/03/2019 00:14:58
00011 suncat0068 pw.x -in pw.inp   Done                     01/03/2019 00:14:58
00012 suncat0068 pw.x -in pw.inp   Done                     01/03/2019 00:14:58
00013 suncat0068 pw.x -in pw.inp   Done                     01/03/2019 00:14:58
00014 suncat0068 pw.x -in pw.inp   Done                     01/03/2019 00:14:58
00015 suncat0068 pw.x -in pw.inp   Done                     01/03/2019 00:14:58
00016 suncat0065 pw.x -in pw.inp   Done                     01/03/2019 00:14:58
00017 suncat0065 pw.x -in pw.inp   Done                     01/03/2019 00:14:58
00018 suncat0065 pw.x -in pw.inp   Done                     01/03/2019 00:14:58
00019 suncat0065 pw.x -in pw.inp   Done                     01/03/2019 00:14:58
00020 suncat0065 pw.x -in pw.inp   Done                     01/03/2019 00:14:58
00021 suncat0065 pw.x -in pw.inp   Done                     01/03/2019 00:14:58
00022 suncat0065 pw.x -in pw.inp   Done                     01/03/2019 00:14:58
00023 suncat0065 pw.x -in pw.inp   Done                     01/03/2019 00:14:58
00024 suncat0064 pw.x -in pw.inp   Done                     01/03/2019 00:14:58
00025 suncat0064 pw.x -in pw.inp   Done                     01/03/2019 00:14:58
00026 suncat0064 pw.x -in pw.inp   Done                     01/03/2019 00:14:58
00027 suncat0064 pw.x -in pw.inp   Done                     01/03/2019 00:14:58
00028 suncat0064 pw.x -in pw.inp   Done                     01/03/2019 00:14:58
00029 suncat0064 pw.x -in pw.inp   Done                     01/03/2019 00:14:58
00030 suncat0064 pw.x -in pw.inp   Done                     01/03/2019 00:14:58
00031 suncat0064 pw.x -in pw.inp   Done                     01/03/2019 00:14:58
00032 suncat0029 pw.x -in pw.inp   Done                     01/03/2019 00:14:58
00033 suncat0029 pw.x -in pw.inp   Done                     01/03/2019 00:14:58
00034 suncat0029 pw.x -in pw.inp   Done                     01/03/2019 00:14:58
00035 suncat0029 pw.x -in pw.inp   Done                     01/03/2019 00:14:58
00036 suncat0029 pw.x -in pw.inp   Done                     01/03/2019 00:14:58
00037 suncat0029 pw.x -in pw.inp   Done                     01/03/2019 00:14:58
00038 suncat0029 pw.x -in pw.inp   Done                     01/03/2019 00:14:58
00039 suncat0029 pw.x -in pw.inp   Done                     01/03/2019 00:14:58
00040 suncat0019 pw.x -in pw.inp   Done                     01/03/2019 00:14:58
00041 suncat0019 pw.x -in pw.inp   Done                     01/03/2019 00:14:58
00042 suncat0019 pw.x -in pw.inp   Done                     01/03/2019 00:14:58
00043 suncat0019 pw.x -in pw.inp   Done                     01/03/2019 00:14:58
00044 suncat0019 pw.x -in pw.inp   Done                     01/03/2019 00:14:58
00045 suncat0019 pw.x -in pw.inp   Done                     01/03/2019 00:14:58
00046 suncat0019 pw.x -in pw.inp   Done                     01/03/2019 00:14:58
00047 suncat0019 pw.x -in pw.inp   Done                     01/03/2019 00:14:58
00048 suncat0018 pw.x -in pw.inp   Done                     01/03/2019 00:14:58
00049 suncat0018 pw.x -in pw.inp   Done                     01/03/2019 00:14:58
00050 suncat0018 pw.x -in pw.inp   Done                     01/03/2019 00:14:58
00051 suncat0018 pw.x -in pw.inp   Done                     01/03/2019 00:14:58
00052 suncat0018 pw.x -in pw.inp   Done                     01/03/2019 00:14:58
00053 suncat0018 pw.x -in pw.inp   Done                     01/03/2019 00:14:58
00054 suncat0018 pw.x -in pw.inp   Done                     01/03/2019 00:14:58
00055 suncat0018 pw.x -in pw.inp   Done                     01/03/2019 00:14:58
00056 suncat0001 pw.x -in pw.inp   Done                     01/03/2019 00:14:58
00057 suncat0001 pw.x -in pw.inp   Done                     01/03/2019 00:14:58
00058 suncat0001 pw.x -in pw.inp   Done                     01/03/2019 00:14:58
00059 suncat0001 pw.x -in pw.inp   Done                     01/03/2019 00:14:58
00060 suncat0001 pw.x -in pw.inp   Done                     01/03/2019 00:14:58
00061 suncat0001 pw.x -in pw.inp   Done                     01/03/2019 00:14:58
00062 suncat0001 pw.x -in pw.inp   Done                     01/03/2019 00:14:58
00063 suncat0001 pw.x -in pw.inp   Done                     01/03/2019 00:14:58