     Program PWSCF v.5.1rc2 (svn rev. 11289) starts on  2Jan2019 at 13: 9: 1

     Current dimensions of program PWSCF are:
     Max number of different atomic species (ntypx) = 10
     Max number of k-points (npk) =  40000
     Max angular momentum in pseudopotentials (lmaxx) =  3
     Presently stress not available with electric field

     IMPORTANT: XC functional enforced from input :
     Exchange-correlation      = BEEF-VDW ( 1  4 27 13 2)
     Any further DFT definition will be discarded
     Please, verify this is what you really want

     Subspace diagonalization in iterative solution of the eigenvalue problem:
     a serial algorithm will be used

     bravais-lattice index     =            0
     lattice parameter (alat)  =       1.8897  a.u.
     unit-cell volume          =    6485.0266 (a.u.)^3
     number of atoms/cell      =           12
     number of atomic types    =            2
     number of electrons       =       144.00
     number of Kohn-Sham states=          102
     kinetic-energy cutoff     =      36.7493  Ry
     charge density cutoff     =     367.4932  Ry
     convergence threshold     =      1.0E-06
     mixing beta               =       0.1000
     number of iterations used =           10  plain     mixing
     Exchange-correlation      = BEEF-VDW ( 1  4 27 13 2)
     nstep                     =           50

     celldm(1)=   1.889726  celldm(2)=   0.000000  celldm(3)=   0.000000
     celldm(4)=   0.000000  celldm(5)=   0.000000  celldm(6)=   0.000000

     crystal axes: (cart. coord. in units of alat)
               a(1) = (   6.609989   0.000000   0.000000 )
               a(2) = (  -3.304995   5.724419   0.000000 )
               a(3) = (   0.000000   0.000000  25.397034 )

     reciprocal axes: (cart. coord. in units 2 pi/alat)
               b(1) = (  0.151286  0.087345  0.000000 )
               b(2) = (  0.000000  0.174690  0.000000 )
               b(3) = (  0.000000  0.000000  0.039375 )

     PseudoPot. # 1 for Y  read from file:
     /afs/slac.stanford.edu/u/if/mamunm/psp/gbrv1.5pbe/Y.UPF
     MD5 check sum: d034151ed7554c50b6e82763ed42c788
     Pseudo is Ultrasoft + core correction, Zval = 11.0
     Generated by new atomic code, or converted to UPF format
     Using radial grid of  885 points,  6 beta functions with:
                l(1) =   0
                l(2) =   0
                l(3) =   1
                l(4) =   1
                l(5) =   2
                l(6) =   2
     Q(r) pseudized with  8 coefficients,  rinner =    1.200   1.200   1.200
                                                       1.200   1.200

     PseudoPot. # 2 for Rh read from file:
     /afs/slac.stanford.edu/u/if/mamunm/psp/gbrv1.5pbe/Rh.UPF
     MD5 check sum: 761627e959a2e3a1f56b0b5fe687810e
     Pseudo is Ultrasoft + core correction, Zval = 15.0
     Generated by new atomic code, or converted to UPF format
     Using radial grid of  969 points,  7 beta functions with:
                l(1) =   0
                l(2) =   0
                l(3) =   1
                l(4) =   1
                l(5) =   2
                l(6) =   2
                l(7) =   2
     Q(r) pseudized with  8 coefficients,  rinner =    1.200   1.200   1.200
                                                       1.200   1.200

     vdW kernel table read from file vdW_kernel_table
     MD5 check sum: 095c7af220d748ca6e76c0b4c6cfb241

     atomic species   valence    mass     pseudopotential
        Y1            11.00    88.90584     Y ( 1.00)
        Rh1           15.00   102.90550     Rh( 1.00)

     No symmetry found

   Cartesian axes

     site n.     atom                  positions (alat units)
         1           Y1  tau(   1) = (   0.0000000   0.0000000  10.0000000  )
         2           Y1  tau(   2) = (  -1.6524974   2.8622094  10.0000000  )
         3           Y1  tau(   3) = (   1.6524974   2.8622094  10.0000000  )
         4           Rh1 tau(   4) = (   3.3049947   0.0000000  10.0000000  )
         5           Y1  tau(   5) = (   3.3049947   1.9081396  12.6985169  )
         6           Y1  tau(   6) = (   1.6524974   4.7703490  12.6985169  )
         7           Y1  tau(   7) = (  -1.6524974   4.7703490  12.6985169  )
         8           Rh1 tau(   8) = (   0.0000000   1.9081396  12.6985169  )
         9           Y1  tau(   9) = (   0.0000000   3.8162792  15.3970338  )
        10           Y1  tau(  10) = (   1.6524974   0.9540698  15.3970338  )
        11           Y1  tau(  11) = (   4.9574921   0.9540698  15.3970338  )
        12           Rh1 tau(  12) = (   3.3049947   3.8162792  15.3970338  )

     number of k points=    20  Fermi-Dirac smearing, width (Ry)=  0.0110
                       cart. coord. in units 2pi/alat
        k(    1) = (   0.0000000   0.0000000   0.0000000), wk =   0.0555556
        k(    2) = (   0.0000000   0.0291150   0.0000000), wk =   0.1111111
        k(    3) = (   0.0000000   0.0582301   0.0000000), wk =   0.1111111
        k(    4) = (   0.0000000  -0.0873451   0.0000000), wk =   0.0555556
        k(    5) = (   0.0252144   0.0145575   0.0000000), wk =   0.1111111
        k(    6) = (   0.0252144   0.0436726   0.0000000), wk =   0.1111111
        k(    7) = (   0.0252144   0.0727876   0.0000000), wk =   0.1111111
        k(    8) = (   0.0252144  -0.0727876   0.0000000), wk =   0.1111111
        k(    9) = (   0.0252144  -0.0436726   0.0000000), wk =   0.1111111
        k(   10) = (   0.0252144  -0.0145575   0.0000000), wk =   0.1111111
        k(   11) = (   0.0504287   0.0291150   0.0000000), wk =   0.1111111
        k(   12) = (   0.0504287   0.0582301   0.0000000), wk =   0.1111111
        k(   13) = (   0.0504287   0.0873451   0.0000000), wk =   0.1111111
        k(   14) = (   0.0504287  -0.0582301   0.0000000), wk =   0.1111111
        k(   15) = (   0.0504287  -0.0291150   0.0000000), wk =   0.1111111
        k(   16) = (   0.0504287   0.0000000   0.0000000), wk =   0.1111111
        k(   17) = (  -0.0756431  -0.0436726   0.0000000), wk =   0.0555556
        k(   18) = (  -0.0756431  -0.0145575   0.0000000), wk =   0.1111111
        k(   19) = (  -0.0756431   0.0145575   0.0000000), wk =   0.1111111
        k(   20) = (  -0.0756431  -0.1310177   0.0000000), wk =   0.0555556

     Largest allocated arrays     est. size (Mb)     dimensions
     Largest temporary arrays     est. size (Mb)     dimensions

     Initial potential from superposition of free atoms
     Check: negative starting charge=   -0.163409

     starting charge  142.45948, renormalised to  144.00000

     negative rho (up, down):  1.652E-01 0.000E+00

     *
     * You are using vdW-DF for exchange-correlation in this calculation.
     * Please cite the following three references that made this development
     * possible:
     *
     *   M. Dion, H. Rydberg, E. Schroder, D. C. Langreth, and
     *   B. I. Lundqvist, Phys. Rev. Lett. 92, 246401 (2004).
     *
     *   T. Thonhauser, V. R. Cooper, S. Li, A. Puzder, P. Hyldgaard, and
     *   D. C. Langreth, Phys. Rev. B 76, 125112 (2007).
     *
     *   G. Roman-Perez and J. M. Soler, Phys. Rev. Lett. 103, 096102 (2009).
     *
     *
     * If you are using vdW-DF2, please also cite:
     *
     *   K. Lee, E. D. Murray, L. Kong, B. I. Lundqvist, and
     *   D. C. Langreth, Phys. Rev. B 82, 081101(R) (2010).
     *
     *
     * If you are calculating the stress with vdW-DF, please also cite:
     *
     *   R. Sabatini, E. Kucukbenli, B. Kolb, T. Thonhauser, and
     *   S. de Gironcoli, J. Phys.: Condens. Matter 24, 424209 (2012).
     *

     Carrying out vdW-DF run using the following parameters:

     Nqs =      20    Nr_points =    1024   r_max =   100.000
     q_mesh =
               0.00001000     0.04494208     0.09755937     0.15916263
               0.23128650     0.31572767     0.41458969     0.53033537
               0.66584808     0.82450364     1.01025438     1.22772762
               1.48234092     1.78043706     2.12944203     2.53805004
               3.01644009     3.57652955     4.23227104     5.00000000

     Gradients computed in reciprocal space

     Adding external electric field

     Computed dipole along edir(3) :
        Dipole                0.0000 Ry au,          0.0000 Debye
        Dipole field          0.0000 Ry au

        Potential amp.       -0.0000 Ry
        Total length         46.7936 bohr

     Starting wfc are  153 randomized atomic wfcs

     Self-consistent Calculation

     iteration #  1     ecut=    36.75 Ry     beta=0.10
     Davidson diagonalization with overlap
     ethr =  1.00E-02,  avg # of iterations =  2.0

[...]

     total energy              =   -1359.64489595 Ry
     Harris-Foulkes estimate   =   -1360.47636830 Ry
     estimated scf accuracy    <       4.72852675 Ry

[...]

     End of self-consistent calculation

          k = 0.0000 0.0000 0.0000 ( 24261 PWs)   bands (ev):

   -44.4644 -44.4644 -44.4623 -44.2324 -44.2324 -44.2321 -44.2321 -44.1490
   -44.1485 -41.8938 -41.8903 -41.8083 -41.8082 -41.8075 -41.8074 -41.4366
   -41.3547 -41.3547 -22.2751 -22.2312 -22.0531 -22.0113 -22.0113 -21.9580
   -21.9580 -21.9185 -21.9098 -21.9097 -21.8162 -21.8162 -21.8112 -21.5882
   -21.5724 -21.4957 -21.4957 -21.4487 -21.4487 -21.4174 -21.4174 -21.3175
   -21.2691 -21.2691 -21.1149 -21.0558 -21.0558  -3.2417  -2.1946  -1.4697
    -1.1323  -1.1323  -1.0483  -1.0483  -1.0124  -0.9881  -0.7549  -0.7549
    -0.6907  -0.6907  -0.5596  -0.4759  -0.1519  -0.1519   0.0451   0.0451
     0.1979   0.5531   0.7488   1.3240   1.4337   1.4337   1.7079   1.7079
     1.7277   1.7659   1.8446   1.8446   2.1943   2.1943   2.2688   2.2715
     2.2715   2.4047   2.6714   2.6714   2.8440   2.8440   3.1192   3.1808
     3.1808   3.2971   3.2971   3.4722   3.4972   4.5110   4.5316   4.6993
     4.6993   4.7099   4.8704   5.1707   5.1708   5.2535

[...]

          k =-0.0756-0.0437 0.0000 ( 24396 PWs)   bands (ev):

[...]

     the Fermi energy is     1.4090 ev

!    total energy              =   -1359.93912553 Ry
     Harris-Foulkes estimate   =   -1359.93912514 Ry
     estimated scf accuracy    <       0.00000036 Ry

     The total energy is the sum of the following terms:

     one-electron contribution =   -7759.80080767 Ry
     hartree contribution      =    3886.42010867 Ry
     xc contribution           =    -347.58355596 Ry
     ewald contribution        =    2861.13184339 Ry
     electric field correction =       0.00000000 Ry
     smearing contrib. (-TS)   =      -0.10671396 Ry

     convergence has been achieved in  17 iterations

 BEEF-vdW xc energy contributions
           1 :   -303.143997018611
           2 :    273.853426857519
           3 :   -223.214555393336
           4 :    163.586452661794
           5 :   -106.907784342359
           6 :    61.0667109619917
           7 :   -28.8361573541677
           8 :    9.08754201618854
           9 :    1.03150454316165
          10 :   -4.30921991403869
          11 :    2.75264326838698
          12 :    2.16356841878883
          13 :   -8.89030736808678
          14 :    15.4882210062038
          15 :   -19.9066020736139
          16 :    20.6612232180742
          17 :   -17.4199908077241
[...]
               b(2) = (  0.000000  0.174690  0.000000 )
               b(3) = (  0.000000  0.000000  0.039375 )

     PseudoPot. # 1 for Y  read from file:
     /afs/slac.stanford.edu/u/if/mamunm/psp/gbrv1.5pbe/Y.UPF
     MD5 check sum: d034151ed7554c50b6e82763ed42c788
     Pseudo is Ultrasoft + core correction, Zval = 11.0
     Generated by new atomic code, or converted to UPF format
     Using radial grid of  885 points,  6 beta functions with:
                l(1) =   0
                l(2) =   0
                l(3) =   1
                l(4) =   1
                l(5) =   2
                l(6) =   2
     Q(r) pseudized with  8 coefficients,  rinner =    1.200   1.200   1.200
                                                       1.200   1.200

     PseudoPot. # 2 for Rh read from file:
     /afs/slac.stanford.edu/u/if/mamunm/psp/gbrv1.5pbe/Rh.UPF
     MD5 check sum: 761627e959a2e3a1f56b0b5fe687810e
     Pseudo is Ultrasoft + core correction, Zval = 15.0
     Generated by new atomic code, or converted to UPF format
     Using radial grid of  969 points,  7 beta functions with:
                l(1) =   0
                l(2) =   0
                l(3) =   1
                l(4) =   1
                l(5) =   2
                l(6) =   2
                l(7) =   2
     Q(r) pseudized with  8 coefficients,  rinner =    1.200   1.200   1.200
                                                       1.200   1.200

     vdW kernel table read from file vdW_kernel_table
     MD5 check sum: 095c7af220d748ca6e76c0b4c6cfb241

     atomic species   valence    mass     pseudopotential
        Y1            11.00    88.90584     Y ( 1.00)
        Rh1           15.00   102.90550     Rh( 1.00)

     No symmetry found

   Cartesian axes

     site n.     atom                  positions (alat units)
         1           Y1  tau(   1) = (   0.0000000   0.0000000  10.0000000  )
         2           Y1  tau(   2) = (  -1.6524974   2.8622094  10.0000000  )
         3           Y1  tau(   3) = (   1.6524974   2.8622094  10.0000000  )
         4           Rh1 tau(   4) = (   3.3049947   0.0000000  10.0000000  )
         5           Y1  tau(   5) = (   3.3049947   1.9081396  12.6985169  )
         6           Y1  tau(   6) = (   1.6524974   4.7703490  12.6985169  )
         7           Y1  tau(   7) = (  -1.6524974   4.7703490  12.6985169  )
         8           Rh1 tau(   8) = (   0.0000000   1.9081396  12.6985169  )
         9           Y1  tau(   9) = (   0.0000119   3.7708200  15.4237926  )
        10           Y1  tau(  10) = (   1.6131836   0.9767529  15.4238788  )
        11           Y1  tau(  11) = (   4.9968493   0.9767555  15.4238208  )
        12           Rh1 tau(  12) = (   3.3049819   3.8163012  14.8323938  )

     number of k points=    20  Fermi-Dirac smearing, width (Ry)=  0.0110
                       cart. coord. in units 2pi/alat
        k(    1) = (   0.0000000   0.0000000   0.0000000), wk =   0.0555556
        k(    2) = (   0.0000000   0.0291150   0.0000000), wk =   0.1111111
        k(    3) = (   0.0000000   0.0582301   0.0000000), wk =   0.1111111
        k(    4) = (   0.0000000  -0.0873451   0.0000000), wk =   0.0555556
        k(    5) = (   0.0252144   0.0145575   0.0000000), wk =   0.1111111
        k(    6) = (   0.0252144   0.0436726   0.0000000), wk =   0.1111111
        k(    7) = (   0.0252144   0.0727876   0.0000000), wk =   0.1111111
        k(    8) = (   0.0252144  -0.0727876   0.0000000), wk =   0.1111111
        k(    9) = (   0.0252144  -0.0436726   0.0000000), wk =   0.1111111
        k(   10) = (   0.0252144  -0.0145575   0.0000000), wk =   0.1111111
        k(   11) = (   0.0504287   0.0291150   0.0000000), wk =   0.1111111
        k(   12) = (   0.0504287   0.0582301   0.0000000), wk =   0.1111111
        k(   13) = (   0.0504287   0.0873451   0.0000000), wk =   0.1111111
        k(   14) = (   0.0504287  -0.0582301   0.0000000), wk =   0.1111111
        k(   15) = (   0.0504287  -0.0291150   0.0000000), wk =   0.1111111
        k(   16) = (   0.0504287   0.0000000   0.0000000), wk =   0.1111111
        k(   17) = (  -0.0756431  -0.0436726   0.0000000), wk =   0.0555556
        k(   18) = (  -0.0756431  -0.0145575   0.0000000), wk =   0.1111111
        k(   19) = (  -0.0756431   0.0145575   0.0000000), wk =   0.1111111
        k(   20) = (  -0.0756431  -0.1310177   0.0000000), wk =   0.0555556

     Largest allocated arrays     est. size (Mb)     dimensions
     Largest temporary arrays     est. size (Mb)     dimensions

     Initial potential from superposition of free atoms
     Check: negative starting charge=   -0.163057

     starting charge  142.45948, renormalised to  144.00000

[...]

     *
     * You are using vdW-DF for exchange-correlation in this calculation.
     * Please cite the following three references that made this development
     * possible:
     *
     *   M. Dion, H. Rydberg, E. Schroder, D. C. Langreth, and
     *   B. I. Lundqvist, Phys. Rev. Lett. 92, 246401 (2004).
     *
     *   T. Thonhauser, V. R. Cooper, S. Li, A. Puzder, P. Hyldgaard, and
     *   D. C. Langreth, Phys. Rev. B 76, 125112 (2007).
     *
     *   G. Roman-Perez and J. M. Soler, Phys. Rev. Lett. 103, 096102 (2009).
     *
     *
     * If you are using vdW-DF2, please also cite:
     *
     *   K. Lee, E. D. Murray, L. Kong, B. I. Lundqvist, and
     *   D. C. Langreth, Phys. Rev. B 82, 081101(R) (2010).
     *
     *
     * If you are calculating the stress with vdW-DF, please also cite:
     *
     *   R. Sabatini, E. Kucukbenli, B. Kolb, T. Thonhauser, and
     *   S. de Gironcoli, J. Phys.: Condens. Matter 24, 424209 (2012).
     *

     Carrying out vdW-DF run using the following parameters:

     Nqs =      20    Nr_points =    1024   r_max =   100.000
     q_mesh =
               0.00001000     0.04494208     0.09755937     0.15916263
               0.23128650     0.31572767     0.41458969     0.53033537
               0.66584808     0.82450364     1.01025438     1.22772762
               1.48234092     1.78043706     2.12944203     2.53805004
               3.01644009     3.57652955     4.23227104     5.00000000

     Gradients computed in reciprocal space

[...]

     Starting wfc are  153 randomized atomic wfcs

     Self-consistent Calculation

[...]

     total energy              =   -1359.97685889 Ry
     Harris-Foulkes estimate   =   -1359.97685802 Ry
     estimated scf accuracy    <       0.00000118 Ry

     iteration # 19     ecut=    36.75 Ry     beta=0.10
     Davidson diagonalization with overlap
     ethr =  8.17E-10,  avg # of iterations =  3.0

[...]

     negative rho (up, down):  1.669E-01 0.000E+00

     Adding external electric field

     Computed dipole along edir(3) :
        Dipole                0.0713 Ry au,          0.1812 Debye
        Dipole field          0.0001 Ry au

        Potential amp.       -0.0129 Ry
        Total length         46.7936 bohr

     End of self-consistent calculation

[...]

          k = 0.0504 0.0000 0.0000 ( 24438 PWs)   bands (ev):

[...]

          k =-0.0756-0.1310 0.0000 ( 24396 PWs)   bands (ev):

   -44.4433 -44.4126 -44.4123 -44.3976 -44.3930 -44.3927 -44.1508 -44.1505
   -44.0600 -41.8481 -41.8127 -41.8094 -41.7870 -41.7820 -41.7537 -41.2325
   -41.2055 -41.1776 -22.0643 -22.0287 -21.9369 -21.9017 -21.8774 -21.8377
   -21.8349 -21.8160 -21.8057 -21.7992 -21.7669 -21.7371 -21.7243 -21.7091
   -21.7016 -21.6912 -21.4902 -21.4395 -21.4230 -21.2413 -21.1977 -21.1441
   -21.1411 -21.1393 -21.1346 -21.1045 -20.9134  -1.9087  -1.8405  -1.0923
    -1.0007  -0.8094  -0.7467  -0.7084  -0.6765  -0.6401  -0.4696  -0.4552
    -0.3016  -0.2550  -0.2281  -0.1983  -0.1159  -0.0049   0.0465   0.0847
     0.1170   0.2929   0.5687   0.7441   1.0222   1.1208   1.2435   1.4160
     1.4382   1.5294   1.5956   1.7351   1.8446   1.8727   1.9321   2.0815
     2.1252   2.3820   2.4029   2.5693   2.5753   2.6121   3.1113   3.1414
     3.2530   3.2965   3.3794   3.4045   3.4280   3.5254   4.1597   4.2985
     4.4569   4.5642   4.5854   4.6618   4.7959   4.8686

     the Fermi energy is     1.4743 ev

!    total energy              =   -1359.97686073 Ry
     Harris-Foulkes estimate   =   -1359.97685825 Ry
     estimated scf accuracy    <       0.00000060 Ry

     The total energy is the sum of the following terms:

     one-electron contribution =   -7923.73191752 Ry
     hartree contribution      =    3968.63067977 Ry
     xc contribution           =    -347.68723112 Ry
     ewald contribution        =    2942.91333240 Ry
     electric field correction =       0.00000985 Ry
     smearing contrib. (-TS)   =      -0.10173410 Ry

     convergence has been achieved in  19 iterations

 BEEF-vdW xc energy contributions
           1 :   -303.256285955376
           2 :    274.020082993566
           3 :   -223.436765110970
           4 :    163.795978101659
           5 :   -106.999312632992
           6 :    60.9622174114403
           7 :   -28.5427660496464
           8 :    8.70551342499880
           9 :    1.36311897777369
          10 :   -4.49332337885318
          11 :    2.78347642911888
          12 :    2.21356773835390
          13 :   -8.92784812405245
          14 :    15.4546063743717
          15 :   -19.7986585901630
          16 :    20.5176161023354
          17 :   -17.2930569646772
          18 :    11.0260977239878
          19 :   -3.41458647928516
          20 :   -3.70567300041773
          21 :    8.90957137771625
          22 :   -11.4488303235889
          23 :    11.2625001805055
          24 :   -8.84790066112805
          25 :    5.08045600344292
          26 :   -1.01281405809908
          27 :   -2.35079246998578
          28 :    4.29061530394245
          29 :   -4.55693146838155
          30 :    3.41533452740441
          31 :   -29.1991506769419
          32 :   -20.4526800414270

     Forces acting on atoms (Ry/au):

     negative rho (up, down):  1.669E-01 0.000E+00
     atom    1 type  1   force =    -0.00000041    0.02100419   -0.01072673
     atom    2 type  1   force =     0.01819053   -0.01050222   -0.01072778
     atom    3 type  1   force =    -0.01819094   -0.01050073   -0.01072550
     atom    4 type  2   force =    -0.00000022   -0.00000126    0.04755549
     atom    5 type  1   force =    -0.00000132   -0.00284846   -0.00310178
     atom    6 type  1   force =    -0.00246783    0.00142510   -0.00311041
     atom    7 type  1   force =     0.00246625    0.00142587   -0.00310495
     atom    8 type  2   force =    -0.00000120    0.00000128   -0.00231752
     atom    9 type  1   force =     0.00000319    0.00001332   -0.00153153
     atom   10 type  1   force =     0.00001047   -0.00000721   -0.00153086
     atom   11 type  1   force =    -0.00000940   -0.00001016   -0.00153264
     atom   12 type  2   force =     0.00000088    0.00000029    0.00085420

     Total force =     0.063219     Total SCF correction =     0.001913

     entering subroutine stress ...

     negative rho (up, down):  1.669E-01 0.000E+00
          total   stress  (Ry/bohr**3)                   (kbar)     P=   -7.69
  -0.00005767  -0.00000000   0.00000000         -8.48     -0.00      0.00
  -0.00000000  -0.00005767  -0.00000000         -0.00     -8.48     -0.00
   0.00000000  -0.00000000  -0.00004145          0.00     -0.00     -6.10

 !ASE

     Writing output data file calc.save

     General routines

     Parallel routines

   This run was terminated on:  15:16:36   2Jan2019

   JOB DONE.
Job  /afs/slac/g/suncat/bin/suncat-tsmpirun -x LD_LIBRARY_PATH -wdir /scratch/qe649442_F1P8o pw.x -in pw.inp

TID   HOST_NAME   COMMAND_LINE            STATUS            TERMINATION_TIME
00000 suncat0078 pw.x -in pw.inp   Done                     01/02/2019 15:16:36
00001 suncat0078 pw.x -in pw.inp   Done                     01/02/2019 15:16:36
00002 suncat0078 pw.x -in pw.inp   Done                     01/02/2019 15:16:36
00003 suncat0078 pw.x -in pw.inp   Done                     01/02/2019 15:16:36
00004 suncat0078 pw.x -in pw.inp   Done                     01/02/2019 15:16:36
00005 suncat0078 pw.x -in pw.inp   Done                     01/02/2019 15:16:36
00006 suncat0078 pw.x -in pw.inp   Done                     01/02/2019 15:16:36
00007 suncat0078 pw.x -in pw.inp   Done                     01/02/2019 15:16:36
00008 suncat0077 pw.x -in pw.inp   Done                     01/02/2019 15:16:36
00009 suncat0077 pw.x -in pw.inp   Done                     01/02/2019 15:16:36
00010 suncat0077 pw.x -in pw.inp   Done                     01/02/2019 15:16:36
00011 suncat0077 pw.x -in pw.inp   Done                     01/02/2019 15:16:36
00012 suncat0077 pw.x -in pw.inp   Done                     01/02/2019 15:16:36
00013 suncat0077 pw.x -in pw.inp   Done                     01/02/2019 15:16:36
00014 suncat0077 pw.x -in pw.inp   Done                     01/02/2019 15:16:36
00015 suncat0077 pw.x -in pw.inp   Done                     01/02/2019 15:16:36
00016 suncat0076 pw.x -in pw.inp   Done                     01/02/2019 15:16:36
00017 suncat0076 pw.x -in pw.inp   Done                     01/02/2019 15:16:36
00018 suncat0076 pw.x -in pw.inp   Done                     01/02/2019 15:16:36
00019 suncat0076 pw.x -in pw.inp   Done                     01/02/2019 15:16:36
00020 suncat0076 pw.x -in pw.inp   Done                     01/02/2019 15:16:36
00021 suncat0076 pw.x -in pw.inp   Done                     01/02/2019 15:16:36
00022 suncat0076 pw.x -in pw.inp   Done                     01/02/2019 15:16:36
00023 suncat0076 pw.x -in pw.inp   Done                     01/02/2019 15:16:36
00024 suncat0074 pw.x -in pw.inp   Done                     01/02/2019 15:16:36
00025 suncat0074 pw.x -in pw.inp   Done                     01/02/2019 15:16:36
00026 suncat0074 pw.x -in pw.inp   Done                     01/02/2019 15:16:36
00027 suncat0074 pw.x -in pw.inp   Done                     01/02/2019 15:16:36
00028 suncat0074 pw.x -in pw.inp   Done                     01/02/2019 15:16:36
00029 suncat0074 pw.x -in pw.inp   Done                     01/02/2019 15:16:36
00030 suncat0074 pw.x -in pw.inp   Done                     01/02/2019 15:16:36
00031 suncat0074 pw.x -in pw.inp   Done                     01/02/2019 15:16:36
00032 suncat0073 pw.x -in pw.inp   Done                     01/02/2019 15:16:36
00033 suncat0073 pw.x -in pw.inp   Done                     01/02/2019 15:16:36
00034 suncat0073 pw.x -in pw.inp   Done                     01/02/2019 15:16:36
00035 suncat0073 pw.x -in pw.inp   Done                     01/02/2019 15:16:36
00036 suncat0073 pw.x -in pw.inp   Done                     01/02/2019 15:16:36
00037 suncat0073 pw.x -in pw.inp   Done                     01/02/2019 15:16:36
00038 suncat0073 pw.x -in pw.inp   Done                     01/02/2019 15:16:36
00039 suncat0073 pw.x -in pw.inp   Done                     01/02/2019 15:16:36
00040 suncat0069 pw.x -in pw.inp   Done                     01/02/2019 15:16:36
00041 suncat0069 pw.x -in pw.inp   Done                     01/02/2019 15:16:36
00042 suncat0069 pw.x -in pw.inp   Done                     01/02/2019 15:16:36
00043 suncat0069 pw.x -in pw.inp   Done                     01/02/2019 15:16:36
00044 suncat0069 pw.x -in pw.inp   Done                     01/02/2019 15:16:36
00045 suncat0069 pw.x -in pw.inp   Done                     01/02/2019 15:16:36
00046 suncat0069 pw.x -in pw.inp   Done                     01/02/2019 15:16:36
00047 suncat0069 pw.x -in pw.inp   Done                     01/02/2019 15:16:36
00048 suncat0217 pw.x -in pw.inp   Done                     01/02/2019 15:16:36
00049 suncat0217 pw.x -in pw.inp   Done                     01/02/2019 15:16:36
00050 suncat0217 pw.x -in pw.inp   Done                     01/02/2019 15:16:36
00051 suncat0217 pw.x -in pw.inp   Done                     01/02/2019 15:16:36
00052 suncat0217 pw.x -in pw.inp   Done                     01/02/2019 15:16:36
00053 suncat0217 pw.x -in pw.inp   Done                     01/02/2019 15:16:36
00054 suncat0217 pw.x -in pw.inp   Done                     01/02/2019 15:16:36
00055 suncat0217 pw.x -in pw.inp   Done                     01/02/2019 15:16:36
00056 suncat0216 pw.x -in pw.inp   Done                     01/02/2019 15:16:36
00057 suncat0216 pw.x -in pw.inp   Done                     01/02/2019 15:16:36
00058 suncat0216 pw.x -in pw.inp   Done                     01/02/2019 15:16:36
00059 suncat0216 pw.x -in pw.inp   Done                     01/02/2019 15:16:36
00060 suncat0216 pw.x -in pw.inp   Done                     01/02/2019 15:16:36
00061 suncat0216 pw.x -in pw.inp   Done                     01/02/2019 15:16:36
00062 suncat0216 pw.x -in pw.inp   Done                     01/02/2019 15:16:36
00063 suncat0216 pw.x -in pw.inp   Done                     01/02/2019 15:16:36