     Program PWSCF v.5.1rc2 (svn rev. 11289) starts on 27Dec2018 at 23: 8:22

     Current dimensions of program PWSCF are:
     Max number of different atomic species (ntypx) = 10
     Max number of k-points (npk) =  40000
     Max angular momentum in pseudopotentials (lmaxx) =  3
     Presently stress not available with electric field

     IMPORTANT: XC functional enforced from input :
     Exchange-correlation      = BEEF-VDW ( 1  4 27 13 2)
     Any further DFT definition will be discarded
     Please, verify this is what you really want

     Subspace diagonalization in iterative solution of the eigenvalue problem:
     a serial algorithm will be used

     bravais-lattice index     =            0
     lattice parameter (alat)  =       1.8897  a.u.
     unit-cell volume          =    6641.5810 (a.u.)^3
     number of atoms/cell      =           12
     number of atomic types    =            2
     number of electrons       =       132.00
     number of Kohn-Sham states=           96
     kinetic-energy cutoff     =      36.7493  Ry
     charge density cutoff     =     367.4932  Ry
     convergence threshold     =      1.0E-06
     mixing beta               =       0.1000
     number of iterations used =           10  plain     mixing
     Exchange-correlation      = BEEF-VDW ( 1  4 27 13 2)
     nstep                     =           50

     celldm(1)=   1.889726  celldm(2)=   0.000000  celldm(3)=   0.000000
     celldm(4)=   0.000000  celldm(5)=   0.000000  celldm(6)=   0.000000

     crystal axes: (cart. coord. in units of alat)
               a(1) = (   6.681611   0.000000   0.000000 )
               a(2) = (  -3.340806   5.786445   0.000000 )
               a(3) = (   0.000000   0.000000  25.455513 )

     reciprocal axes: (cart. coord. in units 2 pi/alat)
               b(1) = (  0.149665  0.086409  0.000000 )
               b(2) = (  0.000000  0.172818  0.000000 )
               b(3) = (  0.000000  0.000000  0.039284 )

     PseudoPot. # 1 for Sc read from file:
     /afs/slac.stanford.edu/u/if/mamunm/psp/gbrv1.5pbe/Sc.UPF
     MD5 check sum: db30a2753ba66ef00f23801d899b7e7f
     Pseudo is Ultrasoft + core correction, Zval = 11.0
     Generated by new atomic code, or converted to UPF format
     Using radial grid of  849 points,  6 beta functions with:
                l(1) =   0
                l(2) =   0
                l(3) =   1
                l(4) =   1
                l(5) =   2
                l(6) =   2
     Q(r) pseudized with  6 coefficients,  rinner =    1.200   1.200   1.200
                                                       1.200   1.200

     PseudoPot. # 2 for Y  read from file:
     /afs/slac.stanford.edu/u/if/mamunm/psp/gbrv1.5pbe/Y.UPF
     MD5 check sum: d034151ed7554c50b6e82763ed42c788
     Pseudo is Ultrasoft + core correction, Zval = 11.0
     Generated by new atomic code, or converted to UPF format
     Using radial grid of  885 points,  6 beta functions with:
                l(1) =   0
                l(2) =   0
                l(3) =   1
                l(4) =   1
                l(5) =   2
                l(6) =   2
     Q(r) pseudized with  8 coefficients,  rinner =    1.200   1.200   1.200
                                                       1.200   1.200

     vdW kernel table read from file vdW_kernel_table
     MD5 check sum: 095c7af220d748ca6e76c0b4c6cfb241

     atomic species   valence    mass     pseudopotential
        Sc1           11.00    44.95591     Sc( 1.00)
        Y1            11.00    88.90584     Y ( 1.00)

     No symmetry found

   Cartesian axes

     site n.     atom                  positions (alat units)
         1           Sc1 tau(   1) = (   0.0000000   0.0000000  10.0000000  )
         2           Sc1 tau(   2) = (  -1.6704028   2.8932225  10.0000000  )
         3           Sc1 tau(   3) = (   1.6704028   2.8932225  10.0000000  )
         4           Y1  tau(   4) = (   3.3408056   0.0000000  10.0000000  )
         5           Sc1 tau(   5) = (   3.3408056   1.9288150  12.7277563  )
         6           Sc1 tau(   6) = (   1.6704028   4.8220375  12.7277563  )
         7           Sc1 tau(   7) = (  -1.6704028   4.8220375  12.7277563  )
         8           Y1  tau(   8) = (   0.0000000   1.9288150  12.7277563  )
         9           Sc1 tau(   9) = (   0.0000000   3.8576300  15.4555126  )
        10           Sc1 tau(  10) = (   1.6704028   0.9644075  15.4555126  )
        11           Sc1 tau(  11) = (   5.0112084   0.9644075  15.4555126  )
        12           Y1  tau(  12) = (   3.3408056   3.8576300  15.4555126  )

     number of k points=    20  Fermi-Dirac smearing, width (Ry)=  0.0110
                       cart. coord. in units 2pi/alat
        k(    1) = (   0.0000000   0.0000000   0.0000000), wk =   0.0555556
        k(    2) = (   0.0000000   0.0288029   0.0000000), wk =   0.1111111
        k(    3) = (   0.0000000   0.0576059   0.0000000), wk =   0.1111111
        k(    4) = (   0.0000000  -0.0864088   0.0000000), wk =   0.0555556
        k(    5) = (   0.0249441   0.0144015   0.0000000), wk =   0.1111111
        k(    6) = (   0.0249441   0.0432044   0.0000000), wk =   0.1111111
        k(    7) = (   0.0249441   0.0720074   0.0000000), wk =   0.1111111
        k(    8) = (   0.0249441  -0.0720074   0.0000000), wk =   0.1111111
        k(    9) = (   0.0249441  -0.0432044   0.0000000), wk =   0.1111111
        k(   10) = (   0.0249441  -0.0144015   0.0000000), wk =   0.1111111
        k(   11) = (   0.0498882   0.0288029   0.0000000), wk =   0.1111111
        k(   12) = (   0.0498882   0.0576059   0.0000000), wk =   0.1111111
        k(   13) = (   0.0498882   0.0864088   0.0000000), wk =   0.1111111
        k(   14) = (   0.0498882  -0.0576059   0.0000000), wk =   0.1111111
        k(   15) = (   0.0498882  -0.0288029   0.0000000), wk =   0.1111111
        k(   16) = (   0.0498882   0.0000000   0.0000000), wk =   0.1111111
        k(   17) = (  -0.0748323  -0.0432044   0.0000000), wk =   0.0555556
        k(   18) = (  -0.0748323  -0.0144015   0.0000000), wk =   0.1111111
        k(   19) = (  -0.0748323   0.0144015   0.0000000), wk =   0.1111111
        k(   20) = (  -0.0748323  -0.1296133   0.0000000), wk =   0.0555556

     Largest allocated arrays     est. size (Mb)     dimensions
     Largest temporary arrays     est. size (Mb)     dimensions

     Initial potential from superposition of free atoms
     Check: negative starting charge=   -0.000398

     starting charge  131.96497, renormalised to  132.00000

     negative rho (up, down):  3.982E-04 0.000E+00

     *
     * You are using vdW-DF for exchange-correlation in this calculation.
     * Please cite the following three references that made this development
     * possible:
     *
     *   M. Dion, H. Rydberg, E. Schroder, D. C. Langreth, and
     *   B. I. Lundqvist, Phys. Rev. Lett. 92, 246401 (2004).
     *
     *   T. Thonhauser, V. R. Cooper, S. Li, A. Puzder, P. Hyldgaard, and
     *   D. C. Langreth, Phys. Rev. B 76, 125112 (2007).
     *
     *   G. Roman-Perez and J. M. Soler, Phys. Rev. Lett. 103, 096102 (2009).
     *
     *
     * If you are using vdW-DF2, please also cite:
     *
     *   K. Lee, E. D. Murray, L. Kong, B. I. Lundqvist, and
     *   D. C. Langreth, Phys. Rev. B 82, 081101(R) (2010).
     *
     *
     * If you are calculating the stress with vdW-DF, please also cite:
     *
     *   R. Sabatini, E. Kucukbenli, B. Kolb, T. Thonhauser, and
     *   S. de Gironcoli, J. Phys.: Condens. Matter 24, 424209 (2012).
     *

     Carrying out vdW-DF run using the following parameters:

     Nqs =      20    Nr_points =    1024   r_max =   100.000
     q_mesh =
               0.00001000     0.04494208     0.09755937     0.15916263
               0.23128650     0.31572767     0.41458969     0.53033537
               0.66584808     0.82450364     1.01025438     1.22772762
               1.48234092     1.78043706     2.12944203     2.53805004
               3.01644009     3.57652955     4.23227104     5.00000000

     Gradients computed in reciprocal space

     Adding external electric field

     Computed dipole along edir(3) :
        Dipole               -0.0000 Ry au,         -0.0000 Debye
        Dipole field         -0.0000 Ry au

        Potential amp.        0.0000 Ry
        Total length         46.9013 bohr

     Starting wfc are  156 randomized atomic wfcs

     Self-consistent Calculation

     iteration #  1     ecut=    36.75 Ry     beta=0.10
     Davidson diagonalization with overlap
     ethr =  1.00E-02,  avg # of iterations =  2.0

[...]

     total energy              =   -1133.60099735 Ry
     Harris-Foulkes estimate   =   -1134.74795755 Ry
     estimated scf accuracy    <       6.44144049 Ry

[...]

     End of self-consistent calculation

          k = 0.0000 0.0000 0.0000 ( 24897 PWs)   bands (ev):

   -49.5355 -49.5351 -49.5141 -49.5141 -49.5139 -49.5139 -49.1311 -49.1098
   -49.1098 -42.4031 -42.4029 -41.8338 -28.2003 -28.1957 -28.1891 -28.1771
   -28.1679 -28.1679 -28.1605 -28.1605 -28.1320 -28.1320 -28.1264 -28.1264
   -28.0214 -28.0199 -27.9816 -27.9816 -27.9808 -27.9807 -27.8094 -27.7566
   -27.7566 -27.7019 -27.6869 -27.6869 -27.6560 -27.5964 -27.5964 -22.4263
   -22.4197 -22.3280 -22.3280 -22.3263 -22.3263 -21.8189 -21.8099 -21.8098
    -3.9854  -2.9982  -1.7798  -1.0237  -1.0237  -0.9069  -0.9069  -0.6960
    -0.6296  -0.6296  -0.5366  -0.3571   0.0036   0.0036   0.0542   0.2680
     0.2680   0.3517   0.7006   0.7536   1.0746   1.0977   1.1380   1.2003
     1.2003   1.2847   1.2847   1.7709   1.7911   1.7911   1.8242   1.8302
     1.8501   1.8501   1.9765   1.9765   2.0537   2.0753   2.0753   2.2195
     2.2195   2.2938   2.2938   2.5844   2.7975   2.7975   3.0393   3.0394

[...]

          k =-0.0748-0.0432 0.0000 ( 25034 PWs)   bands (ev):

[...]

     the Fermi energy is     0.5844 ev

!    total energy              =   -1134.24416549 Ry
     Harris-Foulkes estimate   =   -1134.24416725 Ry
     estimated scf accuracy    <       0.00000073 Ry

     The total energy is the sum of the following terms:

     one-electron contribution =   -6490.75894366 Ry
     hartree contribution      =    3229.44627001 Ry
     xc contribution           =    -209.29245379 Ry
     ewald contribution        =    2336.50727738 Ry
     electric field correction =       0.00000002 Ry
     smearing contrib. (-TS)   =      -0.14631544 Ry

     convergence has been achieved in  18 iterations

 BEEF-vdW xc energy contributions
           1 :   -179.509860630603
           2 :    159.327309851878
           3 :   -126.690087026775
           4 :    92.4704381840466
           5 :   -64.9690897559023
           6 :    46.8368889484848
           7 :   -35.9832484279196
           8 :    28.8640937172514
           9 :   -23.3559037709782
          10 :    19.4606462983192
          11 :   -18.0797325705081
          12 :    19.3786175171828
          13 :   -22.1504618327263
          14 :    24.4929013003251
          15 :   -25.0338199708733
          16 :    23.6426295152899
          17 :   -21.1536656511551
          18 :    18.5064911951343
          19 :   -16.1137758948477
          20 :    13.9081205488571
[...]
     MD5 check sum: db30a2753ba66ef00f23801d899b7e7f
     Pseudo is Ultrasoft + core correction, Zval = 11.0
     Generated by new atomic code, or converted to UPF format
     Using radial grid of  849 points,  6 beta functions with:
                l(1) =   0
                l(2) =   0
                l(3) =   1
                l(4) =   1
                l(5) =   2
                l(6) =   2
     Q(r) pseudized with  6 coefficients,  rinner =    1.200   1.200   1.200
                                                       1.200   1.200

     PseudoPot. # 2 for Y  read from file:
     /afs/slac.stanford.edu/u/if/mamunm/psp/gbrv1.5pbe/Y.UPF
     MD5 check sum: d034151ed7554c50b6e82763ed42c788
     Pseudo is Ultrasoft + core correction, Zval = 11.0
     Generated by new atomic code, or converted to UPF format
     Using radial grid of  885 points,  6 beta functions with:
                l(1) =   0
                l(2) =   0
                l(3) =   1
                l(4) =   1
                l(5) =   2
                l(6) =   2
     Q(r) pseudized with  8 coefficients,  rinner =    1.200   1.200   1.200
                                                       1.200   1.200

     vdW kernel table read from file vdW_kernel_table
     MD5 check sum: 095c7af220d748ca6e76c0b4c6cfb241

     atomic species   valence    mass     pseudopotential
        Sc1           11.00    44.95591     Sc( 1.00)
        Y1            11.00    88.90584     Y ( 1.00)

     No symmetry found

   Cartesian axes

     site n.     atom                  positions (alat units)
         1           Sc1 tau(   1) = (   0.0000000   0.0000000  10.0000000  )
         2           Sc1 tau(   2) = (  -1.6704028   2.8932225  10.0000000  )
         3           Sc1 tau(   3) = (   1.6704028   2.8932225  10.0000000  )
         4           Y1  tau(   4) = (   3.3408056   0.0000000  10.0000000  )
         5           Sc1 tau(   5) = (   3.3408056   1.9288150  12.7277563  )
         6           Sc1 tau(   6) = (   1.6704028   4.8220375  12.7277563  )
         7           Sc1 tau(   7) = (  -1.6704028   4.8220375  12.7277563  )
         8           Y1  tau(   8) = (   0.0000000   1.9288150  12.7277563  )
         9           Sc1 tau(   9) = (  -0.0000543   3.8837458  15.3260944  )
        10           Sc1 tau(  10) = (   1.6930028   0.9513395  15.3260884  )
        11           Sc1 tau(  11) = (   4.9885722   0.9513786  15.3260767  )
        12           Y1  tau(  12) = (   3.3407482   3.8576417  15.4910803  )

     number of k points=    20  Fermi-Dirac smearing, width (Ry)=  0.0110
                       cart. coord. in units 2pi/alat
        k(    1) = (   0.0000000   0.0000000   0.0000000), wk =   0.0555556
        k(    2) = (   0.0000000   0.0288029   0.0000000), wk =   0.1111111
        k(    3) = (   0.0000000   0.0576059   0.0000000), wk =   0.1111111
        k(    4) = (   0.0000000  -0.0864088   0.0000000), wk =   0.0555556
        k(    5) = (   0.0249441   0.0144015   0.0000000), wk =   0.1111111
        k(    6) = (   0.0249441   0.0432044   0.0000000), wk =   0.1111111
        k(    7) = (   0.0249441   0.0720074   0.0000000), wk =   0.1111111
        k(    8) = (   0.0249441  -0.0720074   0.0000000), wk =   0.1111111
        k(    9) = (   0.0249441  -0.0432044   0.0000000), wk =   0.1111111
        k(   10) = (   0.0249441  -0.0144015   0.0000000), wk =   0.1111111
        k(   11) = (   0.0498882   0.0288029   0.0000000), wk =   0.1111111
        k(   12) = (   0.0498882   0.0576059   0.0000000), wk =   0.1111111
        k(   13) = (   0.0498882   0.0864088   0.0000000), wk =   0.1111111
        k(   14) = (   0.0498882  -0.0576059   0.0000000), wk =   0.1111111
        k(   15) = (   0.0498882  -0.0288029   0.0000000), wk =   0.1111111
        k(   16) = (   0.0498882   0.0000000   0.0000000), wk =   0.1111111
        k(   17) = (  -0.0748323  -0.0432044   0.0000000), wk =   0.0555556
        k(   18) = (  -0.0748323  -0.0144015   0.0000000), wk =   0.1111111
        k(   19) = (  -0.0748323   0.0144015   0.0000000), wk =   0.1111111
        k(   20) = (  -0.0748323  -0.1296133   0.0000000), wk =   0.0555556

     Largest allocated arrays     est. size (Mb)     dimensions
     Largest temporary arrays     est. size (Mb)     dimensions

     Initial potential from superposition of free atoms
     Check: negative starting charge=   -0.000391

     starting charge  131.96497, renormalised to  132.00000

[...]

     *
     * You are using vdW-DF for exchange-correlation in this calculation.
     * Please cite the following three references that made this development
     * possible:
     *
     *   M. Dion, H. Rydberg, E. Schroder, D. C. Langreth, and
     *   B. I. Lundqvist, Phys. Rev. Lett. 92, 246401 (2004).
     *
     *   T. Thonhauser, V. R. Cooper, S. Li, A. Puzder, P. Hyldgaard, and
     *   D. C. Langreth, Phys. Rev. B 76, 125112 (2007).
     *
     *   G. Roman-Perez and J. M. Soler, Phys. Rev. Lett. 103, 096102 (2009).
     *
     *
     * If you are using vdW-DF2, please also cite:
     *
     *   K. Lee, E. D. Murray, L. Kong, B. I. Lundqvist, and
     *   D. C. Langreth, Phys. Rev. B 82, 081101(R) (2010).
     *
     *
     * If you are calculating the stress with vdW-DF, please also cite:
     *
     *   R. Sabatini, E. Kucukbenli, B. Kolb, T. Thonhauser, and
     *   S. de Gironcoli, J. Phys.: Condens. Matter 24, 424209 (2012).
     *

     Carrying out vdW-DF run using the following parameters:

     Nqs =      20    Nr_points =    1024   r_max =   100.000
     q_mesh =
               0.00001000     0.04494208     0.09755937     0.15916263
               0.23128650     0.31572767     0.41458969     0.53033537
               0.66584808     0.82450364     1.01025438     1.22772762
               1.48234092     1.78043706     2.12944203     2.53805004
               3.01644009     3.57652955     4.23227104     5.00000000

     Gradients computed in reciprocal space

[...]

     Starting wfc are  156 randomized atomic wfcs

     Self-consistent Calculation

[...]

     iteration #  9     ecut=    36.75 Ry     beta=0.10
     Davidson diagonalization with overlap
     c_bands:  1 eigenvalues not converged
     ethr =  1.15E-05,  avg # of iterations =  7.7

[...]

     total energy              =   -1134.24749360 Ry
     Harris-Foulkes estimate   =   -1134.24749296 Ry
     estimated scf accuracy    <       0.00000132 Ry

     iteration # 19     ecut=    36.75 Ry     beta=0.10
     Davidson diagonalization with overlap
     ethr =  9.96E-10,  avg # of iterations =  3.7

[...]

     negative rho (up, down):  6.819E-05 0.000E+00

     Adding external electric field

     Computed dipole along edir(3) :
        Dipole                0.0244 Ry au,          0.0621 Debye
        Dipole field          0.0000 Ry au

        Potential amp.       -0.0043 Ry
        Total length         46.9013 bohr

     End of self-consistent calculation

[...]

          k = 0.0499 0.0000 0.0000 ( 24966 PWs)   bands (ev):

[...]

          k =-0.0748-0.1296 0.0000 ( 25034 PWs)   bands (ev):

   -49.5266 -49.5195 -49.5124 -49.4275 -49.4195 -49.4125 -49.0594 -49.0523
   -49.0453 -42.4461 -42.4013 -41.7455 -28.1837 -28.1743 -28.1647 -28.1455
   -28.0915 -28.0795 -28.0771 -28.0746 -28.0701 -28.0645 -28.0603 -28.0596
   -27.9972 -27.9908 -27.9859 -27.9686 -27.9677 -27.8947 -27.7123 -27.6500
   -27.6482 -27.6413 -27.6360 -27.6215 -27.6165 -27.6046 -27.5447 -22.4712
   -22.4240 -22.3740 -22.3677 -22.3338 -22.3273 -21.7512 -21.7359 -21.7292
    -2.7349  -2.7207  -1.8584  -1.7469  -0.9931  -0.8556  -0.6767  -0.6144
    -0.4545  -0.2950   0.2002   0.3035   0.3154   0.3691   0.4420   0.4689
     0.5747   0.5970   0.6199   0.6434   0.6723   0.7372   0.7975   0.8444
     0.9450   1.0018   1.0718   1.0934   1.1557   1.2082   1.3708   1.3820
     1.5961   1.6709   1.7838   1.8944   1.9623   2.0275   2.3698   2.3795
     2.4308   2.4696   2.5905   2.6592   2.6852   2.7628   2.8126   2.8238

     the Fermi energy is     0.5947 ev

!    total energy              =   -1134.24749080 Ry
     Harris-Foulkes estimate   =   -1134.24749364 Ry
     estimated scf accuracy    <       0.00000063 Ry

     The total energy is the sum of the following terms:

     one-electron contribution =   -6570.15051221 Ry
     hartree contribution      =    3269.34445906 Ry
     xc contribution           =    -209.37327006 Ry
     ewald contribution        =    2376.07672732 Ry
     electric field correction =       0.00000113 Ry
     smearing contrib. (-TS)   =      -0.14489605 Ry

     convergence has been achieved in  19 iterations

 BEEF-vdW xc energy contributions
           1 :   -179.590888320292
           2 :    159.433035233163
           3 :   -126.808073188001
           4 :    92.5563581706113
           5 :   -64.9884655604699
           6 :    46.7995999735988
           7 :   -35.9374814025802
           8 :    28.8573478197034
           9 :   -23.3982520515566
          10 :    19.5192856690647
          11 :   -18.1075849577159
          12 :    19.3542141558646
          13 :   -22.0966109973086
          14 :    24.4567453485921
          15 :   -25.0440681874653
          16 :    23.6835069902128
          17 :   -21.1818125726857
          18 :    18.4942515286554
          19 :   -16.0749161770752
          20 :    13.8813498916202
          21 :   -11.8389596150058
          22 :    10.1941606493645
          23 :   -9.40100732491936
          24 :    9.69582657586670
          25 :   -10.8059627025672
          26 :    12.0740088753319
          27 :   -12.8789984969742
          28 :    12.9870562080942
          29 :   -12.5675549330071
          30 :    11.9265228760616
          31 :   -19.4906194542355
          32 :   -13.7507293114644

     Forces acting on atoms (Ry/au):

     negative rho (up, down):  6.819E-05 0.000E+00
     atom    1 type  1   force =    -0.00000062   -0.00336899    0.00761257
     atom    2 type  1   force =    -0.00291081    0.00168801    0.00761559
     atom    3 type  1   force =     0.00291208    0.00168867    0.00761434
     atom    4 type  2   force =    -0.00000268    0.00000941   -0.00444451
     atom    5 type  1   force =    -0.00000089    0.00079626   -0.00299572
     atom    6 type  1   force =     0.00068609   -0.00039694   -0.00299759
     atom    7 type  1   force =    -0.00068951   -0.00039778   -0.00299708
     atom    8 type  2   force =    -0.00000322   -0.00000171   -0.01020479
     atom    9 type  1   force =     0.00000535   -0.00046069    0.00008552
     atom   10 type  1   force =    -0.00040711    0.00022965    0.00008847
     atom   11 type  1   force =     0.00040538    0.00022321    0.00008973
     atom   12 type  2   force =     0.00000596   -0.00000911    0.00053347

     Total force =     0.019016     Total SCF correction =     0.002272
     SCF correction compared to forces is large: reduce conv_thr to get better values

     entering subroutine stress ...

     negative rho (up, down):  6.819E-05 0.000E+00
          total   stress  (Ry/bohr**3)                   (kbar)     P=   -2.32
  -0.00001537  -0.00000000   0.00000000         -2.26     -0.00      0.00
  -0.00000000  -0.00001537  -0.00000000         -0.00     -2.26     -0.00
   0.00000000  -0.00000000  -0.00001667          0.00     -0.00     -2.45

 !ASE

     Writing output data file calc.save

     General routines

     Parallel routines

   This run was terminated on:   0:28:42  28Dec2018

   JOB DONE.
Job  /afs/slac/g/suncat/bin/suncat-tsmpirun -x LD_LIBRARY_PATH -wdir /scratch/qe110894_fgzQZ pw.x -in pw.inp

TID   HOST_NAME   COMMAND_LINE            STATUS            TERMINATION_TIME
00000 suncat0042 pw.x -in pw.inp   Done                     12/28/2018 00:28:42
00001 suncat0042 pw.x -in pw.inp   Done                     12/28/2018 00:28:42
00002 suncat0042 pw.x -in pw.inp   Done                     12/28/2018 00:28:42
00003 suncat0042 pw.x -in pw.inp   Done                     12/28/2018 00:28:42
00004 suncat0042 pw.x -in pw.inp   Done                     12/28/2018 00:28:42
00005 suncat0042 pw.x -in pw.inp   Done                     12/28/2018 00:28:42
00006 suncat0042 pw.x -in pw.inp   Done                     12/28/2018 00:28:42
00007 suncat0042 pw.x -in pw.inp   Done                     12/28/2018 00:28:42
00008 suncat0034 pw.x -in pw.inp   Done                     12/28/2018 00:28:42
00009 suncat0034 pw.x -in pw.inp   Done                     12/28/2018 00:28:42
00010 suncat0034 pw.x -in pw.inp   Done                     12/28/2018 00:28:42
00011 suncat0034 pw.x -in pw.inp   Done                     12/28/2018 00:28:42
00012 suncat0034 pw.x -in pw.inp   Done                     12/28/2018 00:28:42
00013 suncat0034 pw.x -in pw.inp   Done                     12/28/2018 00:28:42
00014 suncat0034 pw.x -in pw.inp   Done                     12/28/2018 00:28:42
00015 suncat0034 pw.x -in pw.inp   Done                     12/28/2018 00:28:42
00016 suncat0152 pw.x -in pw.inp   Done                     12/28/2018 00:28:42
00017 suncat0152 pw.x -in pw.inp   Done                     12/28/2018 00:28:42
00018 suncat0152 pw.x -in pw.inp   Done                     12/28/2018 00:28:42
00019 suncat0152 pw.x -in pw.inp   Done                     12/28/2018 00:28:42
00020 suncat0152 pw.x -in pw.inp   Done                     12/28/2018 00:28:42
00021 suncat0152 pw.x -in pw.inp   Done                     12/28/2018 00:28:42
00022 suncat0152 pw.x -in pw.inp   Done                     12/28/2018 00:28:42
00023 suncat0152 pw.x -in pw.inp   Done                     12/28/2018 00:28:42
00024 suncat0150 pw.x -in pw.inp   Done                     12/28/2018 00:28:42
00025 suncat0150 pw.x -in pw.inp   Done                     12/28/2018 00:28:42
00026 suncat0150 pw.x -in pw.inp   Done                     12/28/2018 00:28:42
00027 suncat0150 pw.x -in pw.inp   Done                     12/28/2018 00:28:42
00028 suncat0150 pw.x -in pw.inp   Done                     12/28/2018 00:28:42
00029 suncat0150 pw.x -in pw.inp   Done                     12/28/2018 00:28:42
00030 suncat0150 pw.x -in pw.inp   Done                     12/28/2018 00:28:42
00031 suncat0150 pw.x -in pw.inp   Done                     12/28/2018 00:28:42
00032 suncat0147 pw.x -in pw.inp   Done                     12/28/2018 00:28:42
00033 suncat0147 pw.x -in pw.inp   Done                     12/28/2018 00:28:42
00034 suncat0147 pw.x -in pw.inp   Done                     12/28/2018 00:28:42
00035 suncat0147 pw.x -in pw.inp   Done                     12/28/2018 00:28:42
00036 suncat0147 pw.x -in pw.inp   Done                     12/28/2018 00:28:42
00037 suncat0147 pw.x -in pw.inp   Done                     12/28/2018 00:28:42
00038 suncat0147 pw.x -in pw.inp   Done                     12/28/2018 00:28:42
00039 suncat0147 pw.x -in pw.inp   Done                     12/28/2018 00:28:42
00040 suncat0138 pw.x -in pw.inp   Done                     12/28/2018 00:28:42
00041 suncat0138 pw.x -in pw.inp   Done                     12/28/2018 00:28:42
00042 suncat0138 pw.x -in pw.inp   Done                     12/28/2018 00:28:42
00043 suncat0138 pw.x -in pw.inp   Done                     12/28/2018 00:28:42
00044 suncat0138 pw.x -in pw.inp   Done                     12/28/2018 00:28:42
00045 suncat0138 pw.x -in pw.inp   Done                     12/28/2018 00:28:42
00046 suncat0138 pw.x -in pw.inp   Done                     12/28/2018 00:28:42
00047 suncat0138 pw.x -in pw.inp   Done                     12/28/2018 00:28:42
00048 suncat0113 pw.x -in pw.inp   Done                     12/28/2018 00:28:42
00049 suncat0113 pw.x -in pw.inp   Done                     12/28/2018 00:28:42
00050 suncat0113 pw.x -in pw.inp   Done                     12/28/2018 00:28:42
00051 suncat0113 pw.x -in pw.inp   Done                     12/28/2018 00:28:42
00052 suncat0113 pw.x -in pw.inp   Done                     12/28/2018 00:28:42
00053 suncat0113 pw.x -in pw.inp   Done                     12/28/2018 00:28:42
00054 suncat0113 pw.x -in pw.inp   Done                     12/28/2018 00:28:42
00055 suncat0113 pw.x -in pw.inp   Done                     12/28/2018 00:28:42
00056 suncat0110 pw.x -in pw.inp   Done                     12/28/2018 00:28:42
00057 suncat0110 pw.x -in pw.inp   Done                     12/28/2018 00:28:42
00058 suncat0110 pw.x -in pw.inp   Done                     12/28/2018 00:28:42
00059 suncat0110 pw.x -in pw.inp   Done                     12/28/2018 00:28:42
00060 suncat0110 pw.x -in pw.inp   Done                     12/28/2018 00:28:42
00061 suncat0110 pw.x -in pw.inp   Done                     12/28/2018 00:28:42
00062 suncat0110 pw.x -in pw.inp   Done                     12/28/2018 00:28:42
00063 suncat0110 pw.x -in pw.inp   Done                     12/28/2018 00:28:42