     Program PWSCF v.5.1rc2 (svn rev. 11289) starts on  2Jan2019 at 10:22:57

     Current dimensions of program PWSCF are:
     Max number of different atomic species (ntypx) = 10
     Max number of k-points (npk) =  40000
     Max angular momentum in pseudopotentials (lmaxx) =  3
     Presently stress not available with electric field

     IMPORTANT: XC functional enforced from input :
     Exchange-correlation      = BEEF-VDW ( 1  4 27 13 2)
     Any further DFT definition will be discarded
     Please, verify this is what you really want

     Subspace diagonalization in iterative solution of the eigenvalue problem:
     a serial algorithm will be used

     bravais-lattice index     =            0
     lattice parameter (alat)  =       1.8897  a.u.
     unit-cell volume          =    4730.2691 (a.u.)^3
     number of atoms/cell      =           12
     number of atomic types    =            2
     number of electrons       =       162.00
     number of Kohn-Sham states=          111
     kinetic-energy cutoff     =      36.7493  Ry
     charge density cutoff     =     367.4932  Ry
     convergence threshold     =      1.0E-06
     mixing beta               =       0.1000
     number of iterations used =           10  plain     mixing
     Exchange-correlation      = BEEF-VDW ( 1  4 27 13 2)
     nstep                     =           50

     celldm(1)=   1.889726  celldm(2)=   0.000000  celldm(3)=   0.000000
     celldm(4)=   0.000000  celldm(5)=   0.000000  celldm(6)=   0.000000

     crystal axes: (cart. coord. in units of alat)
               a(1) = (   5.727170   0.000000   0.000000 )
               a(2) = (  -2.863585   4.959874   0.000000 )
               a(3) = (   0.000000   0.000000  24.676214 )

     reciprocal axes: (cart. coord. in units 2 pi/alat)
               b(1) = (  0.174606  0.100809  0.000000 )
               b(2) = (  0.000000  0.201618  0.000000 )
               b(3) = (  0.000000  0.000000  0.040525 )

     PseudoPot. # 1 for W  read from file:
     /afs/slac.stanford.edu/u/if/mamunm/psp/gbrv1.5pbe/W.UPF
     MD5 check sum: 9c083fa34c2a2ea0f02f1f893e16e1c8
     Pseudo is Ultrasoft + core correction, Zval = 14.0
     Generated by new atomic code, or converted to UPF format
     Using radial grid of  923 points,  8 beta functions with:
                l(1) =   0
                l(2) =   0
                l(3) =   0
                l(4) =   1
                l(5) =   1
                l(6) =   2
                l(7) =   2
                l(8) =   3
     Q(r) pseudized with  6 coefficients,  rinner =    1.350   1.350   1.350
                                                       1.350   1.350   1.350
                                                       1.350

     PseudoPot. # 2 for Ti read from file:
     /afs/slac.stanford.edu/u/if/mamunm/psp/gbrv1.5pbe/Ti.UPF
     MD5 check sum: 88a00a6731bd790ddea75d31a80cb452
     Pseudo is Ultrasoft + core correction, Zval = 12.0
     Generated by new atomic code, or converted to UPF format
     Using radial grid of  851 points,  6 beta functions with:
                l(1) =   0
                l(2) =   0
                l(3) =   1
                l(4) =   1
                l(5) =   2
                l(6) =   2
     Q(r) pseudized with  6 coefficients,  rinner =    1.000   1.000   1.000
                                                       1.000   1.000

     vdW kernel table read from file vdW_kernel_table
     MD5 check sum: 095c7af220d748ca6e76c0b4c6cfb241

     atomic species   valence    mass     pseudopotential
        W1            14.00   183.84000     W ( 1.00)
        Ti1           12.00    47.86700     Ti( 1.00)

     No symmetry found

   Cartesian axes

     site n.     atom                  positions (alat units)
         1           W1  tau(   1) = (   0.0000000   0.0000000  10.0000000  )
         2           W1  tau(   2) = (  -1.4317924   2.4799372  10.0000000  )
         3           W1  tau(   3) = (   1.4317924   2.4799372  10.0000000  )
         4           Ti1 tau(   4) = (   2.8635848   0.0000000  10.0000000  )
         5           W1  tau(   5) = (   2.8635848   1.6532914  12.3381072  )
         6           W1  tau(   6) = (   1.4317924   4.1332286  12.3381072  )
         7           W1  tau(   7) = (  -1.4317924   4.1332286  12.3381072  )
         8           Ti1 tau(   8) = (   0.0000000   1.6532914  12.3381072  )
         9           W1  tau(   9) = (  -0.0000000   3.3065829  14.6762144  )
        10           W1  tau(  10) = (   1.4317924   0.8266457  14.6762144  )
        11           W1  tau(  11) = (   4.2953772   0.8266457  14.6762144  )
        12           Ti1 tau(  12) = (   2.8635848   3.3065829  14.6762144  )

     number of k points=    20  Fermi-Dirac smearing, width (Ry)=  0.0110
                       cart. coord. in units 2pi/alat
        k(    1) = (   0.0000000   0.0000000   0.0000000), wk =   0.0555556
        k(    2) = (   0.0000000   0.0336030   0.0000000), wk =   0.1111111
        k(    3) = (   0.0000000   0.0672060   0.0000000), wk =   0.1111111
        k(    4) = (   0.0000000  -0.1008090   0.0000000), wk =   0.0555556
        k(    5) = (   0.0291011   0.0168015   0.0000000), wk =   0.1111111
        k(    6) = (   0.0291011   0.0504045   0.0000000), wk =   0.1111111
        k(    7) = (   0.0291011   0.0840075   0.0000000), wk =   0.1111111
        k(    8) = (   0.0291011  -0.0840075   0.0000000), wk =   0.1111111
        k(    9) = (   0.0291011  -0.0504045   0.0000000), wk =   0.1111111
        k(   10) = (   0.0291011  -0.0168015   0.0000000), wk =   0.1111111
        k(   11) = (   0.0582021   0.0336030   0.0000000), wk =   0.1111111
        k(   12) = (   0.0582021   0.0672060   0.0000000), wk =   0.1111111
        k(   13) = (   0.0582021   0.1008090   0.0000000), wk =   0.1111111
        k(   14) = (   0.0582021  -0.0672060   0.0000000), wk =   0.1111111
        k(   15) = (   0.0582021  -0.0336030   0.0000000), wk =   0.1111111
        k(   16) = (   0.0582021  -0.0000000   0.0000000), wk =   0.1111111
        k(   17) = (  -0.0873032  -0.0504045   0.0000000), wk =   0.0555556
        k(   18) = (  -0.0873032  -0.0168015   0.0000000), wk =   0.1111111
        k(   19) = (  -0.0873032   0.0168015   0.0000000), wk =   0.1111111
        k(   20) = (  -0.0873032  -0.1512135   0.0000000), wk =   0.0555556

     Largest allocated arrays     est. size (Mb)     dimensions
     Largest temporary arrays     est. size (Mb)     dimensions

     Check: negative/imaginary core charge=   -0.000002    0.000000

     Initial potential from superposition of free atoms
     Check: negative starting charge=   -0.575038

     starting charge  158.09681, renormalised to  162.00000

     negative rho (up, down):  5.892E-01 0.000E+00

     *
     * You are using vdW-DF for exchange-correlation in this calculation.
     * Please cite the following three references that made this development
     * possible:
     *
     *   M. Dion, H. Rydberg, E. Schroder, D. C. Langreth, and
     *   B. I. Lundqvist, Phys. Rev. Lett. 92, 246401 (2004).
     *
     *   T. Thonhauser, V. R. Cooper, S. Li, A. Puzder, P. Hyldgaard, and
     *   D. C. Langreth, Phys. Rev. B 76, 125112 (2007).
     *
     *   G. Roman-Perez and J. M. Soler, Phys. Rev. Lett. 103, 096102 (2009).
     *
     *
     * If you are using vdW-DF2, please also cite:
     *
     *   K. Lee, E. D. Murray, L. Kong, B. I. Lundqvist, and
     *   D. C. Langreth, Phys. Rev. B 82, 081101(R) (2010).
     *
     *
     * If you are calculating the stress with vdW-DF, please also cite:
     *
     *   R. Sabatini, E. Kucukbenli, B. Kolb, T. Thonhauser, and
     *   S. de Gironcoli, J. Phys.: Condens. Matter 24, 424209 (2012).
     *

     Carrying out vdW-DF run using the following parameters:

     Nqs =      20    Nr_points =    1024   r_max =   100.000
     q_mesh =
               0.00001000     0.04494208     0.09755937     0.15916263
               0.23128650     0.31572767     0.41458969     0.53033537
               0.66584808     0.82450364     1.01025438     1.22772762
               1.48234092     1.78043706     2.12944203     2.53805004
               3.01644009     3.57652955     4.23227104     5.00000000

     Gradients computed in reciprocal space

     Adding external electric field

     Computed dipole along edir(3) :
        Dipole                0.0000 Ry au,          0.0000 Debye
        Dipole field          0.0000 Ry au

        Potential amp.       -0.0000 Ry
        Total length         45.4655 bohr

     Starting wfc are  147 randomized atomic wfcs

     Self-consistent Calculation

     iteration #  1     ecut=    36.75 Ry     beta=0.10
     Davidson diagonalization with overlap
     ethr =  1.00E-02,  avg # of iterations =  2.0

[...]

     total energy              =   -1797.94284918 Ry
     Harris-Foulkes estimate   =   -1806.20276356 Ry
     estimated scf accuracy    <      46.03043082 Ry

[...]

     End of self-consistent calculation

          k = 0.0000 0.0000 0.0000 ( 17837 PWs)   bands (ev):

   -72.2971 -72.2454 -72.2454 -72.1768 -72.1724 -72.1289 -72.1289 -72.1279
   -72.1279 -55.0286 -55.0284 -54.9020 -36.8487 -36.6449 -36.6225 -36.6225
   -36.6042 -36.5497 -36.5186 -36.5186 -36.3719 -36.3719 -36.3443 -36.2574
   -36.2574 -36.2485 -36.2485 -36.1932 -36.0943 -36.0831 -36.0831 -36.0440
   -36.0440 -35.9991 -35.9609 -35.8761 -35.8761 -35.8721 -35.8721 -31.3332
   -31.3179 -31.1925 -31.1925 -31.1888 -31.1888 -31.1235 -31.1094 -31.1094
    -5.6283  -3.9577  -3.0914  -2.6194  -2.4065  -2.4065  -2.1452  -2.1152
    -2.1152  -1.5517  -1.5429  -1.4273  -1.4273  -1.4195  -1.4195  -0.4761
     0.0072   0.0072   0.7942   0.9211   0.9211   0.9527   1.4078   1.5742
     1.5742   1.6616   1.8505   1.8627   1.8627   2.1077   2.1077   2.2561
     2.3369   2.3369   2.3594   2.3594   2.4822   2.8089   2.8089   3.0102
     3.6654   3.7488   3.7488   3.7928   3.7928   3.8536   4.2683   4.2683
     4.6514   4.6514   4.7161   4.7252   4.7252   5.4314   5.4314   5.7342
     5.7342   5.8142   6.0654   6.1017   6.1445   6.1445   6.2292

[...]

          k =-0.0873-0.0504 0.0000 ( 17784 PWs)   bands (ev):

[...]

     the Fermi energy is     1.9669 ev

!    total energy              =   -1803.13850880 Ry
     Harris-Foulkes estimate   =   -1803.14483087 Ry
     estimated scf accuracy    <       0.00000098 Ry

     The total energy is the sum of the following terms:

     one-electron contribution =  -13588.56626964 Ry
     hartree contribution      =    6777.17600290 Ry
     xc contribution           =    -438.69449246 Ry
     ewald contribution        =    5447.05357004 Ry
     electric field correction =       0.00000000 Ry
     smearing contrib. (-TS)   =      -0.10731965 Ry

     convergence has been achieved in  18 iterations

 BEEF-vdW xc energy contributions
           1 :   -384.725895148425
           2 :    354.428425255460
           3 :   -301.618630046499
           4 :    238.656558078737
           5 :   -177.906677222149
           6 :    127.900512593084
           7 :   -91.6595404525478
           8 :    67.3998272277336
           9 :   -50.8159711812621
          10 :    37.6348674425825
[...]
     Pseudo is Ultrasoft + core correction, Zval = 14.0
     Generated by new atomic code, or converted to UPF format
     Using radial grid of  923 points,  8 beta functions with:
                l(1) =   0
                l(2) =   0
                l(3) =   0
                l(4) =   1
                l(5) =   1
                l(6) =   2
                l(7) =   2
                l(8) =   3
     Q(r) pseudized with  6 coefficients,  rinner =    1.350   1.350   1.350
                                                       1.350   1.350   1.350
                                                       1.350

     PseudoPot. # 2 for Ti read from file:
     /afs/slac.stanford.edu/u/if/mamunm/psp/gbrv1.5pbe/Ti.UPF
     MD5 check sum: 88a00a6731bd790ddea75d31a80cb452
     Pseudo is Ultrasoft + core correction, Zval = 12.0
     Generated by new atomic code, or converted to UPF format
     Using radial grid of  851 points,  6 beta functions with:
                l(1) =   0
                l(2) =   0
                l(3) =   1
                l(4) =   1
                l(5) =   2
                l(6) =   2
     Q(r) pseudized with  6 coefficients,  rinner =    1.000   1.000   1.000
                                                       1.000   1.000

     vdW kernel table read from file vdW_kernel_table
     MD5 check sum: 095c7af220d748ca6e76c0b4c6cfb241

     atomic species   valence    mass     pseudopotential
        W1            14.00   183.84000     W ( 1.00)
        Ti1           12.00    47.86700     Ti( 1.00)

     No symmetry found

   Cartesian axes

     site n.     atom                  positions (alat units)
         1           W1  tau(   1) = (   0.0000000   0.0000000  10.0000000  )
         2           W1  tau(   2) = (  -1.4317924   2.4799372  10.0000000  )
         3           W1  tau(   3) = (   1.4317924   2.4799372  10.0000000  )
         4           Ti1 tau(   4) = (   2.8635848   0.0000000  10.0000000  )
         5           W1  tau(   5) = (   2.8635848   1.6532914  12.3381072  )
         6           W1  tau(   6) = (   1.4317924   4.1332286  12.3381072  )
         7           W1  tau(   7) = (  -1.4317924   4.1332286  12.3381072  )
         8           Ti1 tau(   8) = (   0.0000000   1.6532914  12.3381072  )
         9           W1  tau(   9) = (   0.0000007   3.3519136  14.5861353  )
        10           W1  tau(  10) = (   1.4710537   0.8039805  14.5861355  )
        11           W1  tau(  11) = (   4.2561223   0.8039807  14.5861361  )
        12           Ti1 tau(  12) = (   2.8635829   3.3065808  14.9498742  )

     number of k points=    20  Fermi-Dirac smearing, width (Ry)=  0.0110
                       cart. coord. in units 2pi/alat
        k(    1) = (   0.0000000   0.0000000   0.0000000), wk =   0.0555556
        k(    2) = (   0.0000000   0.0336030   0.0000000), wk =   0.1111111
        k(    3) = (   0.0000000   0.0672060   0.0000000), wk =   0.1111111
        k(    4) = (   0.0000000  -0.1008090   0.0000000), wk =   0.0555556
        k(    5) = (   0.0291011   0.0168015   0.0000000), wk =   0.1111111
        k(    6) = (   0.0291011   0.0504045   0.0000000), wk =   0.1111111
        k(    7) = (   0.0291011   0.0840075   0.0000000), wk =   0.1111111
        k(    8) = (   0.0291011  -0.0840075   0.0000000), wk =   0.1111111
        k(    9) = (   0.0291011  -0.0504045   0.0000000), wk =   0.1111111
        k(   10) = (   0.0291011  -0.0168015   0.0000000), wk =   0.1111111
        k(   11) = (   0.0582021   0.0336030   0.0000000), wk =   0.1111111
        k(   12) = (   0.0582021   0.0672060   0.0000000), wk =   0.1111111
        k(   13) = (   0.0582021   0.1008090   0.0000000), wk =   0.1111111
        k(   14) = (   0.0582021  -0.0672060   0.0000000), wk =   0.1111111
        k(   15) = (   0.0582021  -0.0336030   0.0000000), wk =   0.1111111
        k(   16) = (   0.0582021  -0.0000000   0.0000000), wk =   0.1111111
        k(   17) = (  -0.0873032  -0.0504045   0.0000000), wk =   0.0555556
        k(   18) = (  -0.0873032  -0.0168015   0.0000000), wk =   0.1111111
        k(   19) = (  -0.0873032   0.0168015   0.0000000), wk =   0.1111111
        k(   20) = (  -0.0873032  -0.1512135   0.0000000), wk =   0.0555556

     Largest allocated arrays     est. size (Mb)     dimensions
     Largest temporary arrays     est. size (Mb)     dimensions

     Check: negative/imaginary core charge=   -0.000002    0.000000

     Initial potential from superposition of free atoms
     Check: negative starting charge=   -0.573834

     starting charge  158.09681, renormalised to  162.00000

[...]

     *
     * You are using vdW-DF for exchange-correlation in this calculation.
     * Please cite the following three references that made this development
     * possible:
     *
     *   M. Dion, H. Rydberg, E. Schroder, D. C. Langreth, and
     *   B. I. Lundqvist, Phys. Rev. Lett. 92, 246401 (2004).
     *
     *   T. Thonhauser, V. R. Cooper, S. Li, A. Puzder, P. Hyldgaard, and
     *   D. C. Langreth, Phys. Rev. B 76, 125112 (2007).
     *
     *   G. Roman-Perez and J. M. Soler, Phys. Rev. Lett. 103, 096102 (2009).
     *
     *
     * If you are using vdW-DF2, please also cite:
     *
     *   K. Lee, E. D. Murray, L. Kong, B. I. Lundqvist, and
     *   D. C. Langreth, Phys. Rev. B 82, 081101(R) (2010).
     *
     *
     * If you are calculating the stress with vdW-DF, please also cite:
     *
     *   R. Sabatini, E. Kucukbenli, B. Kolb, T. Thonhauser, and
     *   S. de Gironcoli, J. Phys.: Condens. Matter 24, 424209 (2012).
     *

     Carrying out vdW-DF run using the following parameters:

     Nqs =      20    Nr_points =    1024   r_max =   100.000
     q_mesh =
               0.00001000     0.04494208     0.09755937     0.15916263
               0.23128650     0.31572767     0.41458969     0.53033537
               0.66584808     0.82450364     1.01025438     1.22772762
               1.48234092     1.78043706     2.12944203     2.53805004
               3.01644009     3.57652955     4.23227104     5.00000000

     Gradients computed in reciprocal space

[...]

     Starting wfc are  147 randomized atomic wfcs

     Self-consistent Calculation

[...]

     total energy              =   -1803.16047665 Ry
     Harris-Foulkes estimate   =   -1803.16047720 Ry
     estimated scf accuracy    <       0.00000142 Ry

     iteration # 21     ecut=    36.75 Ry     beta=0.10
     Davidson diagonalization with overlap
     ethr =  8.76E-10,  avg # of iterations =  2.5

[...]

     negative rho (up, down):  5.944E-01 0.000E+00

     Adding external electric field

     Computed dipole along edir(3) :
        Dipole                0.0815 Ry au,          0.2072 Debye
        Dipole field          0.0002 Ry au

        Potential amp.       -0.0197 Ry
        Total length         45.4655 bohr

     End of self-consistent calculation

[...]

          k = 0.0582-0.0000 0.0000 ( 17813 PWs)   bands (ev):

[...]

          k =-0.0873-0.1512 0.0000 ( 17784 PWs)   bands (ev):

   -72.1666 -72.1496 -72.1315 -72.0581 -72.0431 -72.0275 -72.0027 -71.9815
   -71.9678 -55.1525 -54.9100 -54.7829 -36.6201 -36.5274 -36.4618 -36.4094
   -36.3642 -36.3528 -36.3453 -36.3006 -36.2754 -36.2527 -36.1708 -36.1578
   -36.1128 -36.0973 -36.0862 -36.0768 -36.0581 -36.0411 -36.0139 -35.9805
   -35.9715 -35.9206 -35.9164 -35.8865 -35.8758 -35.7967 -35.7561 -31.5354
   -31.2717 -31.2589 -31.2050 -31.0956 -31.0800 -31.0177 -31.0123 -30.9970
    -3.9138  -3.5641  -2.3786  -2.0532  -1.6411  -1.6120  -1.3542  -1.3014
    -1.0837  -1.0387  -0.7735  -0.4519  -0.4219  -0.2837  -0.0813   0.0434
     0.1119   0.1471   0.2740   0.4125   0.5491   0.7511   0.7632   0.9739
     1.0801   1.1309   1.2019   1.2744   1.2794   1.3674   1.4694   1.5792
     1.7710   1.8531   2.0445   2.1325   2.2783   2.4951   2.6800   2.7334
     3.0285   3.2194   3.2969   3.4121   3.4492   3.4915   3.7124   3.7706
     3.7821   3.9996   4.1194   4.1306   4.2105   4.2445   4.3890   4.5706
     4.8070   4.9576   5.0669   5.2337   5.6719   5.7670   5.8219

     the Fermi energy is     2.0667 ev

!    total energy              =   -1803.16047214 Ry
     Harris-Foulkes estimate   =   -1803.16047715 Ry
     estimated scf accuracy    <       0.00000029 Ry

     The total energy is the sum of the following terms:

     one-electron contribution =  -13602.00298456 Ry
     hartree contribution      =    6784.47124021 Ry
     xc contribution           =    -438.77235629 Ry
     ewald contribution        =    5453.24703699 Ry
     electric field correction =       0.00001766 Ry
     smearing contrib. (-TS)   =      -0.10342614 Ry

     convergence has been achieved in  21 iterations

 BEEF-vdW xc energy contributions
           1 :   -385.011334471077
           2 :    354.727688110265
           3 :   -301.948552525210
           4 :    239.018445591900
           5 :   -178.264170409002
           6 :    128.190978431193
           7 :   -91.8402402864984
           8 :    67.4838741750848
           9 :   -50.8626584580865
          10 :    37.7079377350756
          11 :   -25.4533336203654
          12 :    13.6247323506434
          13 :   -3.12782335702013
          14 :   -4.88863011346791
          15 :    9.89613696277399
          16 :   -12.2402966848913
          17 :    12.8589431599402
          18 :   -12.7777168681008
          19 :    12.6870160982049
          20 :   -12.7721106608120
          21 :    12.8035234471944
          22 :   -12.3895988864081
          23 :    11.2496052642995
          24 :   -9.39279398397855
          25 :    7.14057612858289
          26 :   -4.99545910482334
          27 :    3.41544425369386
          28 :   -2.59956115654154
          29 :    2.39405837675002
          30 :   -2.37977047049287
          31 :   -35.5384475156847
          32 :   -26.4172096303896

     Forces acting on atoms (Ry/au):

     negative rho (up, down):  5.944E-01 0.000E+00
     atom    1 type  1   force =    -0.00000029   -0.01286200    0.01298275
     atom    2 type  1   force =    -0.01113801    0.00643092    0.01298169
     atom    3 type  1   force =     0.01113773    0.00643149    0.01298210
     atom    4 type  2   force =    -0.00000001    0.00000019   -0.03457380
     atom    5 type  1   force =    -0.00000027    0.02118103    0.00460156
     atom    6 type  1   force =     0.01834370   -0.01059053    0.00460134
     atom    7 type  1   force =    -0.01834349   -0.01059014    0.00460228
     atom    8 type  2   force =    -0.00000007    0.00000006   -0.01602736
     atom    9 type  1   force =     0.00000007    0.00055722   -0.00052881
     atom   10 type  1   force =     0.00048143   -0.00027917   -0.00052795
     atom   11 type  1   force =    -0.00048146   -0.00027946   -0.00052865
     atom   12 type  2   force =     0.00000068    0.00000040   -0.00056515

     Total force =     0.062174     Total SCF correction =     0.001731

     entering subroutine stress ...

     negative rho (up, down):  5.944E-01 0.000E+00
          total   stress  (Ry/bohr**3)                   (kbar)     P=  -39.19
  -0.00036643  -0.00000000   0.00000000        -53.90     -0.00      0.00
  -0.00000000  -0.00036643  -0.00000000         -0.00    -53.90     -0.00
   0.00000000  -0.00000000  -0.00006632          0.00     -0.00     -9.76

 !ASE

     Writing output data file calc.save

     General routines

     Parallel routines

   This run was terminated on:  12: 9:30   2Jan2019

   JOB DONE.
Job  /afs/slac/g/suncat/bin/suncat-tsmpirun -x LD_LIBRARY_PATH -wdir /scratch/qe649395_sCPFR pw.x -in pw.inp

TID   HOST_NAME   COMMAND_LINE            STATUS            TERMINATION_TIME
00000 suncat0243 pw.x -in pw.inp   Done                     01/02/2019 12:09:30
00001 suncat0243 pw.x -in pw.inp   Done                     01/02/2019 12:09:30
00002 suncat0243 pw.x -in pw.inp   Done                     01/02/2019 12:09:30
00003 suncat0243 pw.x -in pw.inp   Done                     01/02/2019 12:09:30
00004 suncat0243 pw.x -in pw.inp   Done                     01/02/2019 12:09:30
00005 suncat0243 pw.x -in pw.inp   Done                     01/02/2019 12:09:30
00006 suncat0243 pw.x -in pw.inp   Done                     01/02/2019 12:09:30
00007 suncat0243 pw.x -in pw.inp   Done                     01/02/2019 12:09:30
00008 suncat0242 pw.x -in pw.inp   Done                     01/02/2019 12:09:30
00009 suncat0242 pw.x -in pw.inp   Done                     01/02/2019 12:09:30
00010 suncat0242 pw.x -in pw.inp   Done                     01/02/2019 12:09:30
00011 suncat0242 pw.x -in pw.inp   Done                     01/02/2019 12:09:30
00012 suncat0242 pw.x -in pw.inp   Done                     01/02/2019 12:09:30
00013 suncat0242 pw.x -in pw.inp   Done                     01/02/2019 12:09:30
00014 suncat0242 pw.x -in pw.inp   Done                     01/02/2019 12:09:30
00015 suncat0242 pw.x -in pw.inp   Done                     01/02/2019 12:09:30
00016 suncat0241 pw.x -in pw.inp   Done                     01/02/2019 12:09:30
00017 suncat0241 pw.x -in pw.inp   Done                     01/02/2019 12:09:30
00018 suncat0241 pw.x -in pw.inp   Done                     01/02/2019 12:09:30
00019 suncat0241 pw.x -in pw.inp   Done                     01/02/2019 12:09:30
00020 suncat0241 pw.x -in pw.inp   Done                     01/02/2019 12:09:30
00021 suncat0241 pw.x -in pw.inp   Done                     01/02/2019 12:09:30
00022 suncat0241 pw.x -in pw.inp   Done                     01/02/2019 12:09:30
00023 suncat0241 pw.x -in pw.inp   Done                     01/02/2019 12:09:30
00024 suncat0240 pw.x -in pw.inp   Done                     01/02/2019 12:09:30
00025 suncat0240 pw.x -in pw.inp   Done                     01/02/2019 12:09:30
00026 suncat0240 pw.x -in pw.inp   Done                     01/02/2019 12:09:30
00027 suncat0240 pw.x -in pw.inp   Done                     01/02/2019 12:09:30
00028 suncat0240 pw.x -in pw.inp   Done                     01/02/2019 12:09:30
00029 suncat0240 pw.x -in pw.inp   Done                     01/02/2019 12:09:30
00030 suncat0240 pw.x -in pw.inp   Done                     01/02/2019 12:09:30
00031 suncat0240 pw.x -in pw.inp   Done                     01/02/2019 12:09:30
00032 suncat0209 pw.x -in pw.inp   Done                     01/02/2019 12:09:30
00033 suncat0209 pw.x -in pw.inp   Done                     01/02/2019 12:09:30
00034 suncat0209 pw.x -in pw.inp   Done                     01/02/2019 12:09:30
00035 suncat0209 pw.x -in pw.inp   Done                     01/02/2019 12:09:30
00036 suncat0209 pw.x -in pw.inp   Done                     01/02/2019 12:09:30
00037 suncat0209 pw.x -in pw.inp   Done                     01/02/2019 12:09:30
00038 suncat0209 pw.x -in pw.inp   Done                     01/02/2019 12:09:30
00039 suncat0209 pw.x -in pw.inp   Done                     01/02/2019 12:09:30
00040 suncat0205 pw.x -in pw.inp   Done                     01/02/2019 12:09:30
00041 suncat0205 pw.x -in pw.inp   Done                     01/02/2019 12:09:30
00042 suncat0205 pw.x -in pw.inp   Done                     01/02/2019 12:09:30
00043 suncat0205 pw.x -in pw.inp   Done                     01/02/2019 12:09:30
00044 suncat0205 pw.x -in pw.inp   Done                     01/02/2019 12:09:30
00045 suncat0205 pw.x -in pw.inp   Done                     01/02/2019 12:09:30
00046 suncat0205 pw.x -in pw.inp   Done                     01/02/2019 12:09:30
00047 suncat0205 pw.x -in pw.inp   Done                     01/02/2019 12:09:30
00048 suncat0204 pw.x -in pw.inp   Done                     01/02/2019 12:09:30
00049 suncat0204 pw.x -in pw.inp   Done                     01/02/2019 12:09:30
00050 suncat0204 pw.x -in pw.inp   Done                     01/02/2019 12:09:30
00051 suncat0204 pw.x -in pw.inp   Done                     01/02/2019 12:09:30
00052 suncat0204 pw.x -in pw.inp   Done                     01/02/2019 12:09:30
00053 suncat0204 pw.x -in pw.inp   Done                     01/02/2019 12:09:30
00054 suncat0204 pw.x -in pw.inp   Done                     01/02/2019 12:09:30
00055 suncat0204 pw.x -in pw.inp   Done                     01/02/2019 12:09:30
00056 suncat0203 pw.x -in pw.inp   Done                     01/02/2019 12:09:30
00057 suncat0203 pw.x -in pw.inp   Done                     01/02/2019 12:09:30
00058 suncat0203 pw.x -in pw.inp   Done                     01/02/2019 12:09:30
00059 suncat0203 pw.x -in pw.inp   Done                     01/02/2019 12:09:30
00060 suncat0203 pw.x -in pw.inp   Done                     01/02/2019 12:09:30
00061 suncat0203 pw.x -in pw.inp   Done                     01/02/2019 12:09:30
00062 suncat0203 pw.x -in pw.inp   Done                     01/02/2019 12:09:30
00063 suncat0203 pw.x -in pw.inp   Done                     01/02/2019 12:09:30