     Program PWSCF v.5.1rc2 (svn rev. 11289) starts on  2Jan2019 at  5:11: 0

     Current dimensions of program PWSCF are:
     Max number of different atomic species (ntypx) = 10
     Max number of k-points (npk) =  40000
     Max angular momentum in pseudopotentials (lmaxx) =  3
     Presently stress not available with electric field

     IMPORTANT: XC functional enforced from input :
     Exchange-correlation      = BEEF-VDW ( 1  4 27 13 2)
     Any further DFT definition will be discarded
     Please, verify this is what you really want

     Subspace diagonalization in iterative solution of the eigenvalue problem:
     a serial algorithm will be used

     Generating pointlists ...
     new r_m :   0.4125 (alat units)  0.7795 (a.u.) for type    1
     new r_m :   0.4125 (alat units)  0.7795 (a.u.) for type    2

     bravais-lattice index     =            0
     lattice parameter (alat)  =       1.8897  a.u.
     unit-cell volume          =    3944.3242 (a.u.)^3
     number of atoms/cell      =           12
     number of atomic types    =            2
     number of electrons       =       171.00
     number of Kohn-Sham states=          115
     kinetic-energy cutoff     =      36.7493  Ry
     charge density cutoff     =     367.4932  Ry
     convergence threshold     =      1.0E-06
     mixing beta               =       0.1000
     number of iterations used =           10  plain     mixing
     Exchange-correlation      = BEEF-VDW ( 1  4 27 13 2)
     nstep                     =           50

     celldm(1)=   1.889726  celldm(2)=   0.000000  celldm(3)=   0.000000
     celldm(4)=   0.000000  celldm(5)=   0.000000  celldm(6)=   0.000000

     crystal axes: (cart. coord. in units of alat)
               a(1) = (   5.269807   0.000000   0.000000 )
               a(2) = (  -2.634904   4.563787   0.000000 )
               a(3) = (   0.000000   0.000000  24.302779 )

     reciprocal axes: (cart. coord. in units 2 pi/alat)
               b(1) = (  0.189760  0.109558  0.000000 )
               b(2) = (  0.000000  0.219116  0.000000 )
               b(3) = (  0.000000  0.000000  0.041148 )

     PseudoPot. # 1 for V  read from file:
     /afs/slac.stanford.edu/u/if/mamunm/psp/gbrv1.5pbe/V.UPF
     MD5 check sum: 22b79981416ebb76fdaf5b1b8640f6fb
     Pseudo is Ultrasoft + core correction, Zval = 13.0
     Generated by new atomic code, or converted to UPF format
     Using radial grid of  853 points,  6 beta functions with:
                l(1) =   0
                l(2) =   0
                l(3) =   1
                l(4) =   1
                l(5) =   2
                l(6) =   2
     Q(r) pseudized with  8 coefficients,  rinner =    1.100   1.100   1.100
                                                       1.100   1.100

     PseudoPot. # 2 for Ni read from file:
     /afs/slac.stanford.edu/u/if/mamunm/psp/gbrv1.5pbe/Ni.UPF
     MD5 check sum: 1ee80287db30b12d2bc1f57a5b5d6409
     Pseudo is Ultrasoft + core correction, Zval = 18.0
     Generated by new atomic code, or converted to UPF format
     Using radial grid of  865 points,  6 beta functions with:
                l(1) =   0
                l(2) =   0
                l(3) =   1
                l(4) =   1
                l(5) =   2
                l(6) =   2
     Q(r) pseudized with 10 coefficients,  rinner =    0.980   0.980   0.980
                                                       0.980   0.980

     vdW kernel table read from file vdW_kernel_table
     MD5 check sum: 095c7af220d748ca6e76c0b4c6cfb241

     atomic species   valence    mass     pseudopotential
        V1            13.00    50.94150     V ( 1.00)
        Ni1           18.00    58.69340     Ni( 1.00)

     Starting magnetic structure
     atomic species   magnetization
        V1           0.154
        Ni1          0.111

     No symmetry found

   Cartesian axes

     site n.     atom                  positions (alat units)
         1           V1  tau(   1) = (   0.0000000   0.0000000  10.0000000  )
         2           V1  tau(   2) = (  -1.3174518   2.2818934  10.0000000  )
         3           V1  tau(   3) = (   1.3174518   2.2818934  10.0000000  )
         4           Ni1 tau(   4) = (   2.6349035   0.0000000  10.0000000  )
         5           V1  tau(   5) = (   2.6349035   1.5212622  12.1513897  )
         6           V1  tau(   6) = (   1.3174518   3.8031556  12.1513897  )
         7           V1  tau(   7) = (  -1.3174518   3.8031556  12.1513897  )
         8           Ni1 tau(   8) = (   0.0000000   1.5212622  12.1513897  )
         9           V1  tau(   9) = (  -0.0000000   3.0425245  14.3027794  )
        10           V1  tau(  10) = (   1.3174518   0.7606311  14.3027794  )
        11           V1  tau(  11) = (   3.9523553   0.7606311  14.3027794  )
        12           Ni1 tau(  12) = (   2.6349035   3.0425245  14.3027794  )

     number of k points=    40  Fermi-Dirac smearing, width (Ry)=  0.0110
                       cart. coord. in units 2pi/alat
        k(    1) = (   0.0000000   0.0000000   0.0000000), wk =   0.0277778
        k(    2) = (   0.0000000   0.0365194   0.0000000), wk =   0.0555556
        k(    3) = (   0.0000000   0.0730388   0.0000000), wk =   0.0555556
        k(    4) = (   0.0000000  -0.1095581   0.0000000), wk =   0.0277778
        k(    5) = (   0.0316267   0.0182597   0.0000000), wk =   0.0555556
        k(    6) = (   0.0316267   0.0547791   0.0000000), wk =   0.0555556
        k(    7) = (   0.0316267   0.0912985   0.0000000), wk =   0.0555556
        k(    8) = (   0.0316267  -0.0912985   0.0000000), wk =   0.0555556
        k(    9) = (   0.0316267  -0.0547791   0.0000000), wk =   0.0555556
        k(   10) = (   0.0316267  -0.0182597   0.0000000), wk =   0.0555556
        k(   11) = (   0.0632534   0.0365194   0.0000000), wk =   0.0555556
        k(   12) = (   0.0632534   0.0730388   0.0000000), wk =   0.0555556
        k(   13) = (   0.0632534   0.1095581   0.0000000), wk =   0.0555556
        k(   14) = (   0.0632534  -0.0730388   0.0000000), wk =   0.0555556
        k(   15) = (   0.0632534  -0.0365194   0.0000000), wk =   0.0555556
        k(   16) = (   0.0632534   0.0000000   0.0000000), wk =   0.0555556
        k(   17) = (  -0.0948801  -0.0547791   0.0000000), wk =   0.0277778
        k(   18) = (  -0.0948801  -0.0182597   0.0000000), wk =   0.0555556
        k(   19) = (  -0.0948801   0.0182597   0.0000000), wk =   0.0555556
        k(   20) = (  -0.0948801  -0.1643372   0.0000000), wk =   0.0277778
        k(   21) = (   0.0000000   0.0000000   0.0000000), wk =   0.0277778
        k(   22) = (   0.0000000   0.0365194   0.0000000), wk =   0.0555556
        k(   23) = (   0.0000000   0.0730388   0.0000000), wk =   0.0555556
        k(   24) = (   0.0000000  -0.1095581   0.0000000), wk =   0.0277778
        k(   25) = (   0.0316267   0.0182597   0.0000000), wk =   0.0555556
        k(   26) = (   0.0316267   0.0547791   0.0000000), wk =   0.0555556
        k(   27) = (   0.0316267   0.0912985   0.0000000), wk =   0.0555556
        k(   28) = (   0.0316267  -0.0912985   0.0000000), wk =   0.0555556
        k(   29) = (   0.0316267  -0.0547791   0.0000000), wk =   0.0555556
        k(   30) = (   0.0316267  -0.0182597   0.0000000), wk =   0.0555556
        k(   31) = (   0.0632534   0.0365194   0.0000000), wk =   0.0555556
        k(   32) = (   0.0632534   0.0730388   0.0000000), wk =   0.0555556
        k(   33) = (   0.0632534   0.1095581   0.0000000), wk =   0.0555556
        k(   34) = (   0.0632534  -0.0730388   0.0000000), wk =   0.0555556
        k(   35) = (   0.0632534  -0.0365194   0.0000000), wk =   0.0555556
        k(   36) = (   0.0632534   0.0000000   0.0000000), wk =   0.0555556
        k(   37) = (  -0.0948801  -0.0547791   0.0000000), wk =   0.0277778
        k(   38) = (  -0.0948801  -0.0182597   0.0000000), wk =   0.0555556
        k(   39) = (  -0.0948801   0.0182597   0.0000000), wk =   0.0555556
        k(   40) = (  -0.0948801  -0.1643372   0.0000000), wk =   0.0277778

     Largest allocated arrays     est. size (Mb)     dimensions
     Largest temporary arrays     est. size (Mb)     dimensions

     Check: negative/imaginary core charge=   -0.000001    0.000000

     Initial potential from superposition of free atoms
     Check: negative starting charge=(component1):   -0.003790
     Check: negative starting charge=(component2):   -0.002782

     starting charge  164.98895, renormalised to  171.00000

     negative rho (up, down):  3.928E-03 2.883E-03

     *
     * You are using vdW-DF for exchange-correlation in this calculation.
     * Please cite the following three references that made this development
     * possible:
     *
     *   M. Dion, H. Rydberg, E. Schroder, D. C. Langreth, and
     *   B. I. Lundqvist, Phys. Rev. Lett. 92, 246401 (2004).
     *
     *   T. Thonhauser, V. R. Cooper, S. Li, A. Puzder, P. Hyldgaard, and
     *   D. C. Langreth, Phys. Rev. B 76, 125112 (2007).
     *
     *   G. Roman-Perez and J. M. Soler, Phys. Rev. Lett. 103, 096102 (2009).
     *
     *
     * If you are using vdW-DF2, please also cite:
     *
     *   K. Lee, E. D. Murray, L. Kong, B. I. Lundqvist, and
     *   D. C. Langreth, Phys. Rev. B 82, 081101(R) (2010).
     *
     *
     * If you are calculating the stress with vdW-DF, please also cite:
     *
     *   R. Sabatini, E. Kucukbenli, B. Kolb, T. Thonhauser, and
     *   S. de Gironcoli, J. Phys.: Condens. Matter 24, 424209 (2012).
     *

     Carrying out vdW-DF run using the following parameters:

     Nqs =      20    Nr_points =    1024   r_max =   100.000
     q_mesh =
               0.00001000     0.04494208     0.09755937     0.15916263
               0.23128650     0.31572767     0.41458969     0.53033537
               0.66584808     0.82450364     1.01025438     1.22772762
               1.48234092     1.78043706     2.12944203     2.53805004
               3.01644009     3.57652955     4.23227104     5.00000000

     Gradients computed in reciprocal space

     Adding external electric field

     Computed dipole along edir(3) :
        Dipole               -0.0000 Ry au,         -0.0000 Debye
        Dipole field         -0.0000 Ry au

        Potential amp.        0.0000 Ry
        Total length         44.7775 bohr

[...]

     Starting wfc are  129 randomized atomic wfcs

     Self-consistent Calculation

     iteration #  1     ecut=    36.75 Ry     beta=0.10
     Davidson diagonalization with overlap
     ethr =  1.00E-02,  avg # of iterations =  3.4

[...]

     Magnetic moment per site:
     atom:    1    charge:    4.1102    magn:    0.5969    constr:    0.0000
     atom:    2    charge:    4.1102    magn:    0.5970    constr:    0.0000
     atom:    3    charge:    4.1102    magn:    0.5969    constr:    0.0000
     atom:    4    charge:    9.4992    magn:    1.0374    constr:    0.0000
     atom:    5    charge:    4.1338    magn:    0.6010    constr:    0.0000
     atom:    6    charge:    4.1338    magn:    0.6010    constr:    0.0000
     atom:    7    charge:    4.1338    magn:    0.6010    constr:    0.0000
     atom:    8    charge:    9.4901    magn:    1.0355    constr:    0.0000
[...]
        k(    2) = (   0.0000000   0.0365194   0.0000000), wk =   0.0555556
        k(    3) = (   0.0000000   0.0730388   0.0000000), wk =   0.0555556
        k(    4) = (   0.0000000  -0.1095581   0.0000000), wk =   0.0277778
        k(    5) = (   0.0316267   0.0182597   0.0000000), wk =   0.0555556
        k(    6) = (   0.0316267   0.0547791   0.0000000), wk =   0.0555556
        k(    7) = (   0.0316267   0.0912985   0.0000000), wk =   0.0555556
        k(    8) = (   0.0316267  -0.0912985   0.0000000), wk =   0.0555556
        k(    9) = (   0.0316267  -0.0547791   0.0000000), wk =   0.0555556
        k(   10) = (   0.0316267  -0.0182597   0.0000000), wk =   0.0555556
        k(   11) = (   0.0632534   0.0365194   0.0000000), wk =   0.0555556
        k(   12) = (   0.0632534   0.0730388   0.0000000), wk =   0.0555556
        k(   13) = (   0.0632534   0.1095581   0.0000000), wk =   0.0555556
        k(   14) = (   0.0632534  -0.0730388   0.0000000), wk =   0.0555556
        k(   15) = (   0.0632534  -0.0365194   0.0000000), wk =   0.0555556
        k(   16) = (   0.0632534   0.0000000   0.0000000), wk =   0.0555556
        k(   17) = (  -0.0948801  -0.0547791   0.0000000), wk =   0.0277778
        k(   18) = (  -0.0948801  -0.0182597   0.0000000), wk =   0.0555556
        k(   19) = (  -0.0948801   0.0182597   0.0000000), wk =   0.0555556
        k(   20) = (  -0.0948801  -0.1643372   0.0000000), wk =   0.0277778
        k(   21) = (   0.0000000   0.0000000   0.0000000), wk =   0.0277778
        k(   22) = (   0.0000000   0.0365194   0.0000000), wk =   0.0555556
        k(   23) = (   0.0000000   0.0730388   0.0000000), wk =   0.0555556
        k(   24) = (   0.0000000  -0.1095581   0.0000000), wk =   0.0277778
        k(   25) = (   0.0316267   0.0182597   0.0000000), wk =   0.0555556
        k(   26) = (   0.0316267   0.0547791   0.0000000), wk =   0.0555556
        k(   27) = (   0.0316267   0.0912985   0.0000000), wk =   0.0555556
        k(   28) = (   0.0316267  -0.0912985   0.0000000), wk =   0.0555556
        k(   29) = (   0.0316267  -0.0547791   0.0000000), wk =   0.0555556
        k(   30) = (   0.0316267  -0.0182597   0.0000000), wk =   0.0555556
        k(   31) = (   0.0632534   0.0365194   0.0000000), wk =   0.0555556
        k(   32) = (   0.0632534   0.0730388   0.0000000), wk =   0.0555556
        k(   33) = (   0.0632534   0.1095581   0.0000000), wk =   0.0555556
        k(   34) = (   0.0632534  -0.0730388   0.0000000), wk =   0.0555556
        k(   35) = (   0.0632534  -0.0365194   0.0000000), wk =   0.0555556
        k(   36) = (   0.0632534   0.0000000   0.0000000), wk =   0.0555556
        k(   37) = (  -0.0948801  -0.0547791   0.0000000), wk =   0.0277778
        k(   38) = (  -0.0948801  -0.0182597   0.0000000), wk =   0.0555556
        k(   39) = (  -0.0948801   0.0182597   0.0000000), wk =   0.0555556
        k(   40) = (  -0.0948801  -0.1643372   0.0000000), wk =   0.0277778

     Largest allocated arrays     est. size (Mb)     dimensions
     Largest temporary arrays     est. size (Mb)     dimensions

     Check: negative/imaginary core charge=   -0.000001    0.000000

     Initial potential from superposition of free atoms
     Check: negative starting charge=(component1):   -0.005058
     Check: negative starting charge=(component2):   -0.003712

     starting charge  164.98895, renormalised to  171.00000

[...]

     *
     * You are using vdW-DF for exchange-correlation in this calculation.
     * Please cite the following three references that made this development
     * possible:
     *
     *   M. Dion, H. Rydberg, E. Schroder, D. C. Langreth, and
     *   B. I. Lundqvist, Phys. Rev. Lett. 92, 246401 (2004).
     *
     *   T. Thonhauser, V. R. Cooper, S. Li, A. Puzder, P. Hyldgaard, and
     *   D. C. Langreth, Phys. Rev. B 76, 125112 (2007).
     *
     *   G. Roman-Perez and J. M. Soler, Phys. Rev. Lett. 103, 096102 (2009).
     *
     *
     * If you are using vdW-DF2, please also cite:
     *
     *   K. Lee, E. D. Murray, L. Kong, B. I. Lundqvist, and
     *   D. C. Langreth, Phys. Rev. B 82, 081101(R) (2010).
     *
     *
     * If you are calculating the stress with vdW-DF, please also cite:
     *
     *   R. Sabatini, E. Kucukbenli, B. Kolb, T. Thonhauser, and
     *   S. de Gironcoli, J. Phys.: Condens. Matter 24, 424209 (2012).
     *

     Carrying out vdW-DF run using the following parameters:

     Nqs =      20    Nr_points =    1024   r_max =   100.000
     q_mesh =
               0.00001000     0.04494208     0.09755937     0.15916263
               0.23128650     0.31572767     0.41458969     0.53033537
               0.66584808     0.82450364     1.01025438     1.22772762
               1.48234092     1.78043706     2.12944203     2.53805004
               3.01644009     3.57652955     4.23227104     5.00000000

     Gradients computed in reciprocal space

[...]

     Starting wfc are  129 randomized atomic wfcs

     Self-consistent Calculation

[...]

     total energy              =   -2344.97163332 Ry
     Harris-Foulkes estimate   =   -2344.97163582 Ry
     estimated scf accuracy    <       0.00000115 Ry

[...]

     iteration # 57     ecut=    36.75 Ry     beta=0.10
     Davidson diagonalization with overlap
     ethr =  6.73E-10,  avg # of iterations =  3.0

[...]

     negative rho (up, down):  5.565E-03 5.628E-03

[...]

     Adding external electric field

     Computed dipole along edir(3) :
        Dipole                0.0096 Ry au,          0.0243 Debye
        Dipole field          0.0000 Ry au

        Potential amp.       -0.0027 Ry
        Total length         44.7775 bohr

     Magnetic moment per site:
     atom:    1    charge:    4.0069    magn:    0.0051    constr:    0.0000
     atom:    2    charge:    4.0070    magn:    0.0050    constr:    0.0000
     atom:    3    charge:    4.0070    magn:    0.0050    constr:    0.0000
     atom:    4    charge:    9.3447    magn:   -0.0002    constr:    0.0000
     atom:    5    charge:    4.0017    magn:    0.0008    constr:    0.0000
     atom:    6    charge:    4.0017    magn:    0.0008    constr:    0.0000
     atom:    7    charge:    4.0017    magn:    0.0008    constr:    0.0000
     atom:    8    charge:    9.3334    magn:    0.0009    constr:    0.0000
     atom:    9    charge:    3.9973    magn:    0.0042    constr:    0.0000
     atom:   10    charge:    3.9973    magn:    0.0042    constr:    0.0000
     atom:   11    charge:    3.9974    magn:    0.0043    constr:    0.0000
     atom:   12    charge:    9.3407    magn:   -0.0003    constr:    0.0000

     End of self-consistent calculation

 ------ SPIN UP ------------

[...]

 ------ SPIN DOWN ----------

[...]

          k = 0.0633 0.0000 0.0000 ( 14845 PWs)   bands (ev):

[...]

          k =-0.0949-0.1643 0.0000 ( 14814 PWs)   bands (ev):

  -102.5779-102.2839-102.2700 -63.1810 -63.1671 -63.1507 -63.1179 -63.1042
   -63.0789 -63.0633 -63.0480 -63.0176 -62.9694 -62.9112 -62.9080 -62.6631
   -62.6611 -62.6492 -62.6473 -62.6302 -62.6152 -37.2476 -37.2287 -37.1952
   -37.1308 -37.1159 -37.1095 -37.0993 -37.0852 -37.0361 -37.0217 -36.9913
   -36.9708 -36.9533 -36.9222 -36.9150 -36.8894 -36.8766 -36.8283 -36.8195
   -36.8194 -36.7923 -36.6935 -36.6861 -36.6446 -36.6225 -36.5949 -36.5583
    -3.9355  -3.7321  -2.5923  -2.3778  -1.9351  -1.8846  -1.7667  -1.7649
    -1.6184  -1.5260  -1.4835  -1.3810  -1.3160  -1.2061  -1.0849  -0.9886
    -0.9798  -0.8766  -0.8695  -0.7335  -0.6487  -0.6398  -0.4355  -0.3797
    -0.2573  -0.0933   0.2103   0.2472   0.2661   0.2887   0.4213   0.4497
     0.4839   0.5517   0.6646   0.6833   0.8014   0.8913   0.9306   1.1179
     1.2248   1.4355   1.5184   1.5893   1.6634   1.7265   1.8187   1.8427
     2.1088   2.3073   2.3898   2.5985   2.6648   2.7034   2.7451   2.7512
     2.8419   2.8667   2.9211   2.9333   3.2068   3.5354   3.6848   3.6964
     4.1752   4.1890   4.2666

     the Fermi energy is     1.0466 ev

!    total energy              =   -2344.97163827 Ry
     Harris-Foulkes estimate   =   -2344.97163752 Ry
     estimated scf accuracy    <       0.00000093 Ry

     The total energy is the sum of the following terms:

     one-electron contribution =  -19377.57077440 Ry
     hartree contribution      =    9682.40023835 Ry
     xc contribution           =    -293.53478294 Ry
     ewald contribution        =    7643.85854837 Ry
     electric field correction =       0.00000029 Ry
     smearing contrib. (-TS)   =      -0.12486795 Ry

     total magnetization       =     0.13 Bohr mag/cell
     absolute magnetization    =     0.14 Bohr mag/cell

     convergence has been achieved in  57 iterations

 BEEF-vdW xc energy contributions
           1 :   -255.155251719450
           2 :    229.999543395971
           3 :   -188.087772667923
           4 :    142.137473165468
           5 :   -103.527536833313
           6 :    78.0360881419952
           7 :   -64.8922786996800
           8 :    59.0017248649634
           9 :   -54.6277060516769
          10 :    48.3690615473403
          11 :   -40.1138272301800
          12 :    31.9584839567717
          13 :   -26.1786914094866
          14 :    23.6001773135259
          15 :   -23.2432240066858
          16 :    23.1960842015619
          17 :   -21.9592139332974
          18 :    19.3126477675386
          19 :   -16.2197427636552
          20 :    13.9630392925393
          21 :   -13.2019453156240
          22 :    13.5847271109556
          23 :   -14.1008227783637
          24 :    13.8292178831450
          25 :   -12.5376462357250
          26 :    10.7498846949231
          27 :   -9.30844448222138
          28 :    8.77239152284278
          29 :   -9.06904231250076
          30 :    9.59925275574216
          31 :   -24.3798539364207
          32 :   -17.4210872898100

     Forces acting on atoms (Ry/au):

     negative rho (up, down):  5.565E-03 5.628E-03
     atom    1 type  1   force =    -0.00000504    0.01350003    0.00837634
     atom    2 type  1   force =     0.01168505   -0.00674759    0.00836879
     atom    3 type  1   force =    -0.01169268   -0.00674614    0.00836996
     atom    4 type  2   force =    -0.00001862   -0.00001722    0.00652996
     atom    5 type  1   force =     0.00000299   -0.00069196   -0.00546944
     atom    6 type  1   force =    -0.00060754    0.00035405   -0.00546534
     atom    7 type  1   force =     0.00059563    0.00034374   -0.00547233
     atom    8 type  2   force =     0.00006596   -0.00000876   -0.01405100
     atom    9 type  1   force =    -0.00000717    0.00100121   -0.00072021
     atom   10 type  1   force =     0.00086142   -0.00049965   -0.00072068
     atom   11 type  1   force =    -0.00088813   -0.00050685   -0.00071243
     atom   12 type  2   force =     0.00000814    0.00001913    0.00096637

     Total force =     0.033069     Total SCF correction =     0.003293

     entering subroutine stress ...

     negative rho (up, down):  5.565E-03 5.628E-03
          total   stress  (Ry/bohr**3)                   (kbar)     P=  -29.84
  -0.00023612  -0.00000001  -0.00000000        -34.73     -0.00     -0.00
  -0.00000001  -0.00023609  -0.00000001         -0.00    -34.73     -0.00
  -0.00000000  -0.00000001  -0.00013637         -0.00     -0.00    -20.06

 !ASE

     Writing output data file calc.save

     General routines

     Parallel routines

   This run was terminated on:   9:25:27   2Jan2019

   JOB DONE.
Job  /afs/slac/g/suncat/bin/suncat-tsmpirun -x LD_LIBRARY_PATH -wdir /scratch/qe649315_Gkzj6 pw.x -in pw.inp

TID   HOST_NAME   COMMAND_LINE            STATUS            TERMINATION_TIME
00000 suncat0182 pw.x -in pw.inp   Done                     01/02/2019 09:25:27
00001 suncat0182 pw.x -in pw.inp   Done                     01/02/2019 09:25:27
00002 suncat0182 pw.x -in pw.inp   Done                     01/02/2019 09:25:27
00003 suncat0182 pw.x -in pw.inp   Done                     01/02/2019 09:25:27
00004 suncat0182 pw.x -in pw.inp   Done                     01/02/2019 09:25:27
00005 suncat0182 pw.x -in pw.inp   Done                     01/02/2019 09:25:27
00006 suncat0182 pw.x -in pw.inp   Done                     01/02/2019 09:25:27
00007 suncat0182 pw.x -in pw.inp   Done                     01/02/2019 09:25:27
00008 suncat0181 pw.x -in pw.inp   Done                     01/02/2019 09:25:27
00009 suncat0181 pw.x -in pw.inp   Done                     01/02/2019 09:25:27
00010 suncat0181 pw.x -in pw.inp   Done                     01/02/2019 09:25:27
00011 suncat0181 pw.x -in pw.inp   Done                     01/02/2019 09:25:27
00012 suncat0181 pw.x -in pw.inp   Done                     01/02/2019 09:25:27
00013 suncat0181 pw.x -in pw.inp   Done                     01/02/2019 09:25:27
00014 suncat0181 pw.x -in pw.inp   Done                     01/02/2019 09:25:27
00015 suncat0181 pw.x -in pw.inp   Done                     01/02/2019 09:25:27
00016 suncat0132 pw.x -in pw.inp   Done                     01/02/2019 09:25:27
00017 suncat0132 pw.x -in pw.inp   Done                     01/02/2019 09:25:27
00018 suncat0132 pw.x -in pw.inp   Done                     01/02/2019 09:25:27
00019 suncat0132 pw.x -in pw.inp   Done                     01/02/2019 09:25:27
00020 suncat0132 pw.x -in pw.inp   Done                     01/02/2019 09:25:27
00021 suncat0132 pw.x -in pw.inp   Done                     01/02/2019 09:25:27
00022 suncat0132 pw.x -in pw.inp   Done                     01/02/2019 09:25:27
00023 suncat0132 pw.x -in pw.inp   Done                     01/02/2019 09:25:27
00024 suncat0131 pw.x -in pw.inp   Done                     01/02/2019 09:25:27
00025 suncat0131 pw.x -in pw.inp   Done                     01/02/2019 09:25:27
00026 suncat0131 pw.x -in pw.inp   Done                     01/02/2019 09:25:27
00027 suncat0131 pw.x -in pw.inp   Done                     01/02/2019 09:25:27
00028 suncat0131 pw.x -in pw.inp   Done                     01/02/2019 09:25:27
00029 suncat0131 pw.x -in pw.inp   Done                     01/02/2019 09:25:27
00030 suncat0131 pw.x -in pw.inp   Done                     01/02/2019 09:25:27
00031 suncat0131 pw.x -in pw.inp   Done                     01/02/2019 09:25:27
00032 suncat0130 pw.x -in pw.inp   Done                     01/02/2019 09:25:27
00033 suncat0130 pw.x -in pw.inp   Done                     01/02/2019 09:25:27
00034 suncat0130 pw.x -in pw.inp   Done                     01/02/2019 09:25:27
00035 suncat0130 pw.x -in pw.inp   Done                     01/02/2019 09:25:27
00036 suncat0130 pw.x -in pw.inp   Done                     01/02/2019 09:25:27
00037 suncat0130 pw.x -in pw.inp   Done                     01/02/2019 09:25:27
00038 suncat0130 pw.x -in pw.inp   Done                     01/02/2019 09:25:27
00039 suncat0130 pw.x -in pw.inp   Done                     01/02/2019 09:25:27
00040 suncat0124 pw.x -in pw.inp   Done                     01/02/2019 09:25:27
00041 suncat0124 pw.x -in pw.inp   Done                     01/02/2019 09:25:27
00042 suncat0124 pw.x -in pw.inp   Done                     01/02/2019 09:25:27
00043 suncat0124 pw.x -in pw.inp   Done                     01/02/2019 09:25:27
00044 suncat0124 pw.x -in pw.inp   Done                     01/02/2019 09:25:27
00045 suncat0124 pw.x -in pw.inp   Done                     01/02/2019 09:25:27
00046 suncat0124 pw.x -in pw.inp   Done                     01/02/2019 09:25:27
00047 suncat0124 pw.x -in pw.inp   Done                     01/02/2019 09:25:27
00048 suncat0280 pw.x -in pw.inp   Done                     01/02/2019 09:25:27
00049 suncat0280 pw.x -in pw.inp   Done                     01/02/2019 09:25:27
00050 suncat0280 pw.x -in pw.inp   Done                     01/02/2019 09:25:27
00051 suncat0280 pw.x -in pw.inp   Done                     01/02/2019 09:25:27
00052 suncat0280 pw.x -in pw.inp   Done                     01/02/2019 09:25:27
00053 suncat0280 pw.x -in pw.inp   Done                     01/02/2019 09:25:27
00054 suncat0280 pw.x -in pw.inp   Done                     01/02/2019 09:25:27
00055 suncat0280 pw.x -in pw.inp   Done                     01/02/2019 09:25:27
00056 suncat0279 pw.x -in pw.inp   Done                     01/02/2019 09:25:27
00057 suncat0279 pw.x -in pw.inp   Done                     01/02/2019 09:25:27
00058 suncat0279 pw.x -in pw.inp   Done                     01/02/2019 09:25:27
00059 suncat0279 pw.x -in pw.inp   Done                     01/02/2019 09:25:27
00060 suncat0279 pw.x -in pw.inp   Done                     01/02/2019 09:25:27
00061 suncat0279 pw.x -in pw.inp   Done                     01/02/2019 09:25:27
00062 suncat0279 pw.x -in pw.inp   Done                     01/02/2019 09:25:27
00063 suncat0279 pw.x -in pw.inp   Done                     01/02/2019 09:25:27