     Program PWSCF v.5.1rc2 (svn rev. 11289) starts on 26Dec2018 at  4:37:49

     Current dimensions of program PWSCF are:
     Max number of different atomic species (ntypx) = 10
     Max number of k-points (npk) =  40000
     Max angular momentum in pseudopotentials (lmaxx) =  3
     Presently stress not available with electric field

     IMPORTANT: XC functional enforced from input :
     Exchange-correlation      = BEEF-VDW ( 1  4 27 13 2)
     Any further DFT definition will be discarded
     Please, verify this is what you really want

     Subspace diagonalization in iterative solution of the eigenvalue problem:
     a serial algorithm will be used

     bravais-lattice index     =            0
     lattice parameter (alat)  =       1.8897  a.u.
     unit-cell volume          =    5395.2023 (a.u.)^3
     number of atoms/cell      =           12
     number of atomic types    =            2
     number of electrons       =       204.00
     number of Kohn-Sham states=          132
     kinetic-energy cutoff     =      36.7493  Ry
     charge density cutoff     =     367.4932  Ry
     convergence threshold     =      1.0E-06
     mixing beta               =       0.1000
     number of iterations used =           10  plain     mixing
     Exchange-correlation      = BEEF-VDW ( 1  4 27 13 2)
     nstep                     =           50

     celldm(1)=   1.889726  celldm(2)=   0.000000  celldm(3)=   0.000000
     celldm(4)=   0.000000  celldm(5)=   0.000000  celldm(6)=   0.000000

     crystal axes: (cart. coord. in units of alat)
               a(1) = (   6.080980   0.000000   0.000000 )
               a(2) = (  -3.040490   5.266283   0.000000 )
               a(3) = (   0.000000   0.000000  24.965100 )

     reciprocal axes: (cart. coord. in units 2 pi/alat)
               b(1) = (  0.164447  0.094944  0.000000 )
               b(2) = (  0.000000  0.189887  0.000000 )
               b(3) = (  0.000000  0.000000  0.040056 )

     PseudoPot. # 1 for Ga read from file:
     /afs/slac.stanford.edu/u/if/mamunm/psp/gbrv1.5pbe/Ga.UPF
     MD5 check sum: ccd671392a58a050fbb373893b4fcd66
     Pseudo is Ultrasoft + core correction, Zval = 19.0
     Generated by new atomic code, or converted to UPF format
     Using radial grid of  871 points,  6 beta functions with:
                l(1) =   0
                l(2) =   0
                l(3) =   1
                l(4) =   1
                l(5) =   2
                l(6) =   2
     Q(r) pseudized with  8 coefficients,  rinner =    1.250   1.250   1.250
                                                       1.250   1.250

     PseudoPot. # 2 for Y  read from file:
     /afs/slac.stanford.edu/u/if/mamunm/psp/gbrv1.5pbe/Y.UPF
     MD5 check sum: d034151ed7554c50b6e82763ed42c788
     Pseudo is Ultrasoft + core correction, Zval = 11.0
     Generated by new atomic code, or converted to UPF format
     Using radial grid of  885 points,  6 beta functions with:
                l(1) =   0
                l(2) =   0
                l(3) =   1
                l(4) =   1
                l(5) =   2
                l(6) =   2
     Q(r) pseudized with  8 coefficients,  rinner =    1.200   1.200   1.200
                                                       1.200   1.200

     vdW kernel table read from file vdW_kernel_table
     MD5 check sum: 095c7af220d748ca6e76c0b4c6cfb241

     atomic species   valence    mass     pseudopotential
        Ga1           19.00    69.72300     Ga( 1.00)
        Y1            11.00    88.90584     Y ( 1.00)

     No symmetry found

   Cartesian axes

     site n.     atom                  positions (alat units)
         1           Ga1 tau(   1) = (   0.0000000   0.0000000  10.0000000  )
         2           Ga1 tau(   2) = (  -1.5202451   2.6331417  10.0000000  )
         3           Ga1 tau(   3) = (   1.5202451   2.6331417  10.0000000  )
         4           Y1  tau(   4) = (   3.0404902   0.0000000  10.0000000  )
         5           Ga1 tau(   5) = (   3.0404902   1.7554278  12.4825498  )
         6           Ga1 tau(   6) = (   1.5202451   4.3885696  12.4825498  )
         7           Ga1 tau(   7) = (  -1.5202451   4.3885696  12.4825498  )
         8           Y1  tau(   8) = (   0.0000000   1.7554278  12.4825498  )
         9           Ga1 tau(   9) = (  -0.0000000   3.5108556  14.9650997  )
        10           Ga1 tau(  10) = (   1.5202451   0.8777139  14.9650997  )
        11           Ga1 tau(  11) = (   4.5607353   0.8777139  14.9650997  )
        12           Y1  tau(  12) = (   3.0404902   3.5108556  14.9650997  )

     number of k points=    20  Fermi-Dirac smearing, width (Ry)=  0.0110
                       cart. coord. in units 2pi/alat
        k(    1) = (   0.0000000   0.0000000   0.0000000), wk =   0.0555556
        k(    2) = (   0.0000000   0.0316479   0.0000000), wk =   0.1111111
        k(    3) = (   0.0000000   0.0632957   0.0000000), wk =   0.1111111
        k(    4) = (   0.0000000  -0.0949436   0.0000000), wk =   0.0555556
        k(    5) = (   0.0274079   0.0158239   0.0000000), wk =   0.1111111
        k(    6) = (   0.0274079   0.0474718   0.0000000), wk =   0.1111111
        k(    7) = (   0.0274079   0.0791197   0.0000000), wk =   0.1111111
        k(    8) = (   0.0274079  -0.0791197   0.0000000), wk =   0.1111111
        k(    9) = (   0.0274079  -0.0474718   0.0000000), wk =   0.1111111
        k(   10) = (   0.0274079  -0.0158239   0.0000000), wk =   0.1111111
        k(   11) = (   0.0548157   0.0316479   0.0000000), wk =   0.1111111
        k(   12) = (   0.0548157   0.0632957   0.0000000), wk =   0.1111111
        k(   13) = (   0.0548157   0.0949436   0.0000000), wk =   0.1111111
        k(   14) = (   0.0548157  -0.0632957   0.0000000), wk =   0.1111111
        k(   15) = (   0.0548157  -0.0316479   0.0000000), wk =   0.1111111
        k(   16) = (   0.0548157   0.0000000   0.0000000), wk =   0.1111111
        k(   17) = (  -0.0822236  -0.0474718   0.0000000), wk =   0.0555556
        k(   18) = (  -0.0822236  -0.0158239   0.0000000), wk =   0.1111111
        k(   19) = (  -0.0822236   0.0158239   0.0000000), wk =   0.1111111
        k(   20) = (  -0.0822236  -0.1424154   0.0000000), wk =   0.0555556

     Largest allocated arrays     est. size (Mb)     dimensions
     Largest temporary arrays     est. size (Mb)     dimensions

     Initial potential from superposition of free atoms
     Check: negative starting charge=   -0.000970

     starting charge  194.98658, renormalised to  204.00000

     negative rho (up, down):  1.015E-03 0.000E+00

     *
     * You are using vdW-DF for exchange-correlation in this calculation.
     * Please cite the following three references that made this development
     * possible:
     *
     *   M. Dion, H. Rydberg, E. Schroder, D. C. Langreth, and
     *   B. I. Lundqvist, Phys. Rev. Lett. 92, 246401 (2004).
     *
     *   T. Thonhauser, V. R. Cooper, S. Li, A. Puzder, P. Hyldgaard, and
     *   D. C. Langreth, Phys. Rev. B 76, 125112 (2007).
     *
     *   G. Roman-Perez and J. M. Soler, Phys. Rev. Lett. 103, 096102 (2009).
     *
     *
     * If you are using vdW-DF2, please also cite:
     *
     *   K. Lee, E. D. Murray, L. Kong, B. I. Lundqvist, and
     *   D. C. Langreth, Phys. Rev. B 82, 081101(R) (2010).
     *
     *
     * If you are calculating the stress with vdW-DF, please also cite:
     *
     *   R. Sabatini, E. Kucukbenli, B. Kolb, T. Thonhauser, and
     *   S. de Gironcoli, J. Phys.: Condens. Matter 24, 424209 (2012).
     *

     Carrying out vdW-DF run using the following parameters:

     Nqs =      20    Nr_points =    1024   r_max =   100.000
     q_mesh =
               0.00001000     0.04494208     0.09755937     0.15916263
               0.23128650     0.31572767     0.41458969     0.53033537
               0.66584808     0.82450364     1.01025438     1.22772762
               1.48234092     1.78043706     2.12944203     2.53805004
               3.01644009     3.57652955     4.23227104     5.00000000

     Gradients computed in reciprocal space

     Adding external electric field

     Computed dipole along edir(3) :
        Dipole               -0.0000 Ry au,         -0.0000 Debye
        Dipole field         -0.0000 Ry au

        Potential amp.        0.0000 Ry
        Total length         45.9978 bohr

     Starting wfc are  147 randomized atomic wfcs

     Self-consistent Calculation

     iteration #  1     ecut=    36.75 Ry     beta=0.10
     Davidson diagonalization with overlap
     ethr =  1.00E-02,  avg # of iterations =  8.0

[...]

     total energy              =   -4031.32850571 Ry
     Harris-Foulkes estimate   =   -4043.27957499 Ry
     estimated scf accuracy    <      66.85767800 Ry

[...]

     End of self-consistent calculation

          k = 0.0000 0.0000 0.0000 ( 20287 PWs)   bands (ev):

   -93.7763 -93.7750 -93.7750 -93.7747 -93.7745 -93.7743 -93.7743 -93.7742
   -93.7742 -93.7571 -93.7571 -93.7560 -93.7560 -93.7560 -93.7560 -93.7519
   -93.7519 -93.7514 -93.7401 -93.7396 -93.7396 -93.7285 -93.7285 -93.7284
   -93.7284 -93.7279 -93.7279 -42.2396 -42.2395 -41.9561 -22.3233 -22.3186
   -22.1695 -22.1695 -22.1693 -22.1693 -22.0296 -21.9573 -21.9573 -14.2437
   -14.2275 -14.2275 -14.2227 -14.2126 -14.1961 -14.1706 -14.1705 -14.1677
   -14.1648 -14.1648 -14.1495 -14.1456 -14.1456 -14.1387 -14.1387 -14.1183
   -14.1170 -14.1036 -14.1036 -14.0932 -14.0837 -14.0768 -14.0768 -14.0590
   -14.0590 -14.0550 -14.0550 -14.0522 -14.0522 -14.0477 -14.0477 -14.0438
   -14.0363 -14.0363 -14.0150 -14.0150 -13.9834 -13.9834 -13.9757 -13.9658
   -13.9658 -13.9592 -13.9357 -13.9344  -8.6157  -7.2205  -5.5704  -4.5254
    -4.5254  -3.7289  -3.7289  -2.9244  -2.9244  -2.3599  -1.6865  -1.2330
    -0.9216  -0.9216  -0.7115   0.4854   0.4854   0.4876   0.5135   0.5135
     1.8567   1.8568   1.8727   1.8727   2.3659   3.1119   3.7326   3.7326
     3.7441   4.1528   4.1528   4.1990   4.2802   4.4208   4.4208   4.4841
     4.4872   4.8613   5.1213   5.1213   5.3415   5.3415   5.4957   5.6871
     5.9287   6.0590   6.3019   6.3236

[...]

          k =-0.0822-0.0475 0.0000 ( 20340 PWs)   bands (ev):

[...]

     the Fermi energy is     0.7357 ev

!    total energy              =   -4030.68975432 Ry
     Harris-Foulkes estimate   =   -4030.68975163 Ry
     estimated scf accuracy    <       0.00000004 Ry

     The total energy is the sum of the following terms:

     one-electron contribution =  -21563.81993247 Ry
     hartree contribution      =   10788.06041706 Ry
     xc contribution           =    -532.70608297 Ry
     ewald contribution        =    7277.81655402 Ry
     electric field correction =       0.00000000 Ry
     smearing contrib. (-TS)   =      -0.04070996 Ry

     convergence has been achieved in  17 iterations

 BEEF-vdW xc energy contributions
           1 :   -473.853035282916
           2 :    429.878256486081
           3 :   -355.562522568148
           4 :    271.623993099548
           5 :   -196.765790755529
           6 :    140.922917828631
           7 :   -103.858448144443
           8 :    78.8424702274852
           9 :   -58.5184924825843
          10 :    39.3272657692066
[...]
     Using radial grid of  871 points,  6 beta functions with:
                l(1) =   0
                l(2) =   0
                l(3) =   1
                l(4) =   1
                l(5) =   2
                l(6) =   2
     Q(r) pseudized with  8 coefficients,  rinner =    1.250   1.250   1.250
                                                       1.250   1.250

     PseudoPot. # 2 for Y  read from file:
     /afs/slac.stanford.edu/u/if/mamunm/psp/gbrv1.5pbe/Y.UPF
     MD5 check sum: d034151ed7554c50b6e82763ed42c788
     Pseudo is Ultrasoft + core correction, Zval = 11.0
     Generated by new atomic code, or converted to UPF format
     Using radial grid of  885 points,  6 beta functions with:
                l(1) =   0
                l(2) =   0
                l(3) =   1
                l(4) =   1
                l(5) =   2
                l(6) =   2
     Q(r) pseudized with  8 coefficients,  rinner =    1.200   1.200   1.200
                                                       1.200   1.200

     vdW kernel table read from file vdW_kernel_table
     MD5 check sum: 095c7af220d748ca6e76c0b4c6cfb241

     atomic species   valence    mass     pseudopotential
        Ga1           19.00    69.72300     Ga( 1.00)
        Y1            11.00    88.90584     Y ( 1.00)

     No symmetry found

   Cartesian axes

     site n.     atom                  positions (alat units)
         1           Ga1 tau(   1) = (   0.0000000   0.0000000  10.0000000  )
         2           Ga1 tau(   2) = (  -1.5202451   2.6331417  10.0000000  )
         3           Ga1 tau(   3) = (   1.5202451   2.6331417  10.0000000  )
         4           Y1  tau(   4) = (   3.0404902   0.0000000  10.0000000  )
         5           Ga1 tau(   5) = (   3.0404902   1.7554278  12.4825498  )
         6           Ga1 tau(   6) = (   1.5202451   4.3885696  12.4825498  )
         7           Ga1 tau(   7) = (  -1.5202451   4.3885696  12.4825498  )
         8           Y1  tau(   8) = (   0.0000000   1.7554278  12.4825498  )
         9           Ga1 tau(   9) = (   0.0000040   3.6194688  15.0362594  )
        10           Ga1 tau(  10) = (   1.6142330   0.8233328  15.0362984  )
        11           Ga1 tau(  11) = (   4.4666439   0.8234177  15.0363016  )
        12           Y1  tau(  12) = (   3.0404774   3.5108262  14.9076156  )

     number of k points=    20  Fermi-Dirac smearing, width (Ry)=  0.0110
                       cart. coord. in units 2pi/alat
        k(    1) = (   0.0000000   0.0000000   0.0000000), wk =   0.0555556
        k(    2) = (   0.0000000   0.0316479   0.0000000), wk =   0.1111111
        k(    3) = (   0.0000000   0.0632957   0.0000000), wk =   0.1111111
        k(    4) = (   0.0000000  -0.0949436   0.0000000), wk =   0.0555556
        k(    5) = (   0.0274079   0.0158239   0.0000000), wk =   0.1111111
        k(    6) = (   0.0274079   0.0474718   0.0000000), wk =   0.1111111
        k(    7) = (   0.0274079   0.0791197   0.0000000), wk =   0.1111111
        k(    8) = (   0.0274079  -0.0791197   0.0000000), wk =   0.1111111
        k(    9) = (   0.0274079  -0.0474718   0.0000000), wk =   0.1111111
        k(   10) = (   0.0274079  -0.0158239   0.0000000), wk =   0.1111111
        k(   11) = (   0.0548157   0.0316479   0.0000000), wk =   0.1111111
        k(   12) = (   0.0548157   0.0632957   0.0000000), wk =   0.1111111
        k(   13) = (   0.0548157   0.0949436   0.0000000), wk =   0.1111111
        k(   14) = (   0.0548157  -0.0632957   0.0000000), wk =   0.1111111
        k(   15) = (   0.0548157  -0.0316479   0.0000000), wk =   0.1111111
        k(   16) = (   0.0548157   0.0000000   0.0000000), wk =   0.1111111
        k(   17) = (  -0.0822236  -0.0474718   0.0000000), wk =   0.0555556
        k(   18) = (  -0.0822236  -0.0158239   0.0000000), wk =   0.1111111
        k(   19) = (  -0.0822236   0.0158239   0.0000000), wk =   0.1111111
        k(   20) = (  -0.0822236  -0.1424154   0.0000000), wk =   0.0555556

     Largest allocated arrays     est. size (Mb)     dimensions
     Largest temporary arrays     est. size (Mb)     dimensions

     Initial potential from superposition of free atoms
     Check: negative starting charge=   -0.000970

     starting charge  194.98658, renormalised to  204.00000

[...]

     *
     * You are using vdW-DF for exchange-correlation in this calculation.
     * Please cite the following three references that made this development
     * possible:
     *
     *   M. Dion, H. Rydberg, E. Schroder, D. C. Langreth, and
     *   B. I. Lundqvist, Phys. Rev. Lett. 92, 246401 (2004).
     *
     *   T. Thonhauser, V. R. Cooper, S. Li, A. Puzder, P. Hyldgaard, and
     *   D. C. Langreth, Phys. Rev. B 76, 125112 (2007).
     *
     *   G. Roman-Perez and J. M. Soler, Phys. Rev. Lett. 103, 096102 (2009).
     *
     *
     * If you are using vdW-DF2, please also cite:
     *
     *   K. Lee, E. D. Murray, L. Kong, B. I. Lundqvist, and
     *   D. C. Langreth, Phys. Rev. B 82, 081101(R) (2010).
     *
     *
     * If you are calculating the stress with vdW-DF, please also cite:
     *
     *   R. Sabatini, E. Kucukbenli, B. Kolb, T. Thonhauser, and
     *   S. de Gironcoli, J. Phys.: Condens. Matter 24, 424209 (2012).
     *

     Carrying out vdW-DF run using the following parameters:

     Nqs =      20    Nr_points =    1024   r_max =   100.000
     q_mesh =
               0.00001000     0.04494208     0.09755937     0.15916263
               0.23128650     0.31572767     0.41458969     0.53033537
               0.66584808     0.82450364     1.01025438     1.22772762
               1.48234092     1.78043706     2.12944203     2.53805004
               3.01644009     3.57652955     4.23227104     5.00000000

     Gradients computed in reciprocal space

[...]

     Starting wfc are  147 randomized atomic wfcs

     Self-consistent Calculation

[...]

     total energy              =   -4030.72447892 Ry
     Harris-Foulkes estimate   =   -4030.72448082 Ry
     estimated scf accuracy    <       0.00000437 Ry

     iteration # 16     ecut=    36.75 Ry     beta=0.10
     Davidson diagonalization with overlap
     ethr =  2.14E-09,  avg # of iterations =  2.0

[...]

     negative rho (up, down):  7.460E-04 0.000E+00

     Adding external electric field

     Computed dipole along edir(3) :
        Dipole                0.0001 Ry au,          0.0003 Debye
        Dipole field          0.0000 Ry au

        Potential amp.       -0.0000 Ry
        Total length         45.9978 bohr

     End of self-consistent calculation

[...]

          k = 0.0548 0.0000 0.0000 ( 20317 PWs)   bands (ev):

[...]

          k =-0.0822-0.1424 0.0000 ( 20340 PWs)   bands (ev):

   -93.7944 -93.7942 -93.7941 -93.7802 -93.7797 -93.7796 -93.7778 -93.7774
   -93.7770 -93.7770 -93.7766 -93.7763 -93.7569 -93.7557 -93.7554 -93.7530
   -93.7528 -93.7525 -93.7491 -93.7488 -93.7486 -93.7412 -93.7411 -93.7409
   -93.7260 -93.7258 -93.7252 -42.2363 -42.1459 -42.0481 -22.3162 -22.2375
   -22.1811 -22.1733 -22.1127 -22.0902 -22.0794 -22.0396 -22.0312 -14.2254
   -14.2037 -14.1980 -14.1877 -14.1808 -14.1701 -14.1642 -14.1609 -14.1525
   -14.1476 -14.1440 -14.1339 -14.1258 -14.1225 -14.1171 -14.1160 -14.1124
   -14.1062 -14.1056 -14.1002 -14.0987 -14.0915 -14.0892 -14.0875 -14.0850
   -14.0810 -14.0769 -14.0726 -14.0674 -14.0667 -14.0625 -14.0568 -14.0537
   -14.0524 -14.0508 -14.0433 -14.0381 -14.0378 -14.0280 -14.0242 -14.0196
   -13.9997 -13.9901 -13.9723 -13.9561  -7.4370  -7.1423  -6.0503  -5.6610
    -4.8280  -4.7301  -4.3424  -3.6744  -2.2742  -2.0826  -1.7084  -1.0140
    -0.2735  -0.2282  -0.1111   0.2229   0.3349   0.7502   1.2498   1.4122
     1.6878   2.2632   2.3738   2.5805   3.0197   3.1258   3.2670   3.3846
     3.5718   3.6809   3.7501   3.8343   3.8746   4.0282   4.2422   4.3913
     4.4464   4.7902   4.9254   5.1928   5.3230   5.4740   5.5408   5.6604
     5.7963   5.8903   5.9747   6.1764

     the Fermi energy is     0.7088 ev

!    total energy              =   -4030.72448202 Ry
     Harris-Foulkes estimate   =   -4030.72447930 Ry
     estimated scf accuracy    <       0.00000070 Ry

     The total energy is the sum of the following terms:

     one-electron contribution =  -21438.07783355 Ry
     hartree contribution      =   10725.14241477 Ry
     xc contribution           =    -532.71926856 Ry
     ewald contribution        =    7214.97017347 Ry
     electric field correction =       0.00000000 Ry
     smearing contrib. (-TS)   =      -0.03996816 Ry

     convergence has been achieved in  16 iterations

 BEEF-vdW xc energy contributions
           1 :   -474.641897113899
           2 :    430.655804726661
           3 :   -356.326800952319
           4 :    272.384297855348
           5 :   -197.535430088711
           6 :    141.707664904163
           7 :   -104.650220063639
           8 :    79.6256719089623
           9 :   -59.2842768762263
          10 :    40.0824192657043
          11 :   -23.0458538008886
          12 :    11.2302784302765
          13 :   -6.25405770565203
          14 :    6.48229312192950
          15 :   -7.91785774531519
          16 :    6.82214258258045
          17 :   -2.00937037651056
          18 :   -4.77491242263221
          19 :    10.4600299160180
          20 :   -12.9199095213766
          21 :    12.2650687993757
          22 :   -10.3895341210364
          23 :    9.32309469271058
          24 :   -9.72995261411563
          25 :    10.6369238527453
          26 :   -10.4624270341859
          27 :    8.44072256552420
          28 :   -5.31578607526831
          29 :    2.81011068181817
          30 :   -2.33191699398219
          31 :   -36.5451097451258
          32 :   -24.9391567531529

     Forces acting on atoms (Ry/au):

     negative rho (up, down):  7.460E-04 0.000E+00
     atom    1 type  1   force =    -0.00000645   -0.01554843   -0.00779329
     atom    2 type  1   force =    -0.01343788    0.00778003   -0.00777598
     atom    3 type  1   force =     0.01345890    0.00776873   -0.00779171
     atom    4 type  2   force =     0.00000160   -0.00000050    0.00689251
     atom    5 type  1   force =    -0.00000113   -0.00283338   -0.00207220
     atom    6 type  1   force =    -0.00246054    0.00142107   -0.00207264
     atom    7 type  1   force =     0.00245267    0.00141723   -0.00204063
     atom    8 type  2   force =     0.00000293   -0.00000169    0.02206839
     atom    9 type  1   force =    -0.00000688   -0.00024426    0.00011233
     atom   10 type  1   force =    -0.00021390    0.00011675    0.00011579
     atom   11 type  1   force =     0.00021361    0.00012666    0.00011445
     atom   12 type  2   force =    -0.00000293   -0.00000221    0.00024299

     Total force =     0.038444     Total SCF correction =     0.005307
     SCF correction compared to forces is large: reduce conv_thr to get better values

     entering subroutine stress ...

     negative rho (up, down):  7.460E-04 0.000E+00
          total   stress  (Ry/bohr**3)                   (kbar)     P=   -5.09
  -0.00005754  -0.00000000   0.00000000         -8.46     -0.00      0.00
  -0.00000000  -0.00005753   0.00000000         -0.00     -8.46      0.00
   0.00000000   0.00000000   0.00001123          0.00      0.00      1.65

 !ASE

     Writing output data file calc.save

     General routines

     Parallel routines

   This run was terminated on:   7: 7:54  26Dec2018

   JOB DONE.
Job  /afs/slac/g/suncat/bin/suncat-tsmpirun -x LD_LIBRARY_PATH -wdir /scratch/qe109717_vSCM3 pw.x -in pw.inp

TID   HOST_NAME   COMMAND_LINE            STATUS            TERMINATION_TIME
00000 suncat0048 pw.x -in pw.inp   Done                     12/26/2018 07:07:54
00001 suncat0048 pw.x -in pw.inp   Done                     12/26/2018 07:07:54
00002 suncat0048 pw.x -in pw.inp   Done                     12/26/2018 07:07:54
00003 suncat0048 pw.x -in pw.inp   Done                     12/26/2018 07:07:54
00004 suncat0048 pw.x -in pw.inp   Done                     12/26/2018 07:07:54
00005 suncat0048 pw.x -in pw.inp   Done                     12/26/2018 07:07:54
00006 suncat0048 pw.x -in pw.inp   Done                     12/26/2018 07:07:54
00007 suncat0048 pw.x -in pw.inp   Done                     12/26/2018 07:07:54
00008 suncat0047 pw.x -in pw.inp   Done                     12/26/2018 07:07:54
00009 suncat0047 pw.x -in pw.inp   Done                     12/26/2018 07:07:54
00010 suncat0047 pw.x -in pw.inp   Done                     12/26/2018 07:07:54
00011 suncat0047 pw.x -in pw.inp   Done                     12/26/2018 07:07:54
00012 suncat0047 pw.x -in pw.inp   Done                     12/26/2018 07:07:54
00013 suncat0047 pw.x -in pw.inp   Done                     12/26/2018 07:07:54
00014 suncat0047 pw.x -in pw.inp   Done                     12/26/2018 07:07:54
00015 suncat0047 pw.x -in pw.inp   Done                     12/26/2018 07:07:54
00016 suncat0193 pw.x -in pw.inp   Done                     12/26/2018 07:07:54
00017 suncat0193 pw.x -in pw.inp   Done                     12/26/2018 07:07:54
00018 suncat0193 pw.x -in pw.inp   Done                     12/26/2018 07:07:54
00019 suncat0193 pw.x -in pw.inp   Done                     12/26/2018 07:07:54
00020 suncat0193 pw.x -in pw.inp   Done                     12/26/2018 07:07:54
00021 suncat0193 pw.x -in pw.inp   Done                     12/26/2018 07:07:54
00022 suncat0193 pw.x -in pw.inp   Done                     12/26/2018 07:07:54
00023 suncat0193 pw.x -in pw.inp   Done                     12/26/2018 07:07:54
00024 suncat0192 pw.x -in pw.inp   Done                     12/26/2018 07:07:54
00025 suncat0192 pw.x -in pw.inp   Done                     12/26/2018 07:07:54
00026 suncat0192 pw.x -in pw.inp   Done                     12/26/2018 07:07:54
00027 suncat0192 pw.x -in pw.inp   Done                     12/26/2018 07:07:54
00028 suncat0192 pw.x -in pw.inp   Done                     12/26/2018 07:07:54
00029 suncat0192 pw.x -in pw.inp   Done                     12/26/2018 07:07:54
00030 suncat0192 pw.x -in pw.inp   Done                     12/26/2018 07:07:54
00031 suncat0192 pw.x -in pw.inp   Done                     12/26/2018 07:07:54
00032 suncat0155 pw.x -in pw.inp   Done                     12/26/2018 07:07:54
00033 suncat0155 pw.x -in pw.inp   Done                     12/26/2018 07:07:54
00034 suncat0155 pw.x -in pw.inp   Done                     12/26/2018 07:07:54
00035 suncat0155 pw.x -in pw.inp   Done                     12/26/2018 07:07:54
00036 suncat0155 pw.x -in pw.inp   Done                     12/26/2018 07:07:54
00037 suncat0155 pw.x -in pw.inp   Done                     12/26/2018 07:07:54
00038 suncat0155 pw.x -in pw.inp   Done                     12/26/2018 07:07:54
00039 suncat0155 pw.x -in pw.inp   Done                     12/26/2018 07:07:54
00040 suncat0154 pw.x -in pw.inp   Done                     12/26/2018 07:07:54
00041 suncat0154 pw.x -in pw.inp   Done                     12/26/2018 07:07:54
00042 suncat0154 pw.x -in pw.inp   Done                     12/26/2018 07:07:54
00043 suncat0154 pw.x -in pw.inp   Done                     12/26/2018 07:07:54
00044 suncat0154 pw.x -in pw.inp   Done                     12/26/2018 07:07:54
00045 suncat0154 pw.x -in pw.inp   Done                     12/26/2018 07:07:54
00046 suncat0154 pw.x -in pw.inp   Done                     12/26/2018 07:07:54
00047 suncat0154 pw.x -in pw.inp   Done                     12/26/2018 07:07:54
00048 suncat0209 pw.x -in pw.inp   Done                     12/26/2018 07:07:54
00049 suncat0209 pw.x -in pw.inp   Done                     12/26/2018 07:07:54
00050 suncat0209 pw.x -in pw.inp   Done                     12/26/2018 07:07:54
00051 suncat0209 pw.x -in pw.inp   Done                     12/26/2018 07:07:54
00052 suncat0209 pw.x -in pw.inp   Done                     12/26/2018 07:07:54
00053 suncat0209 pw.x -in pw.inp   Done                     12/26/2018 07:07:54
00054 suncat0209 pw.x -in pw.inp   Done                     12/26/2018 07:07:54
00055 suncat0209 pw.x -in pw.inp   Done                     12/26/2018 07:07:54
00056 suncat0203 pw.x -in pw.inp   Done                     12/26/2018 07:07:54
00057 suncat0203 pw.x -in pw.inp   Done                     12/26/2018 07:07:54
00058 suncat0203 pw.x -in pw.inp   Done                     12/26/2018 07:07:54
00059 suncat0203 pw.x -in pw.inp   Done                     12/26/2018 07:07:54
00060 suncat0203 pw.x -in pw.inp   Done                     12/26/2018 07:07:54
00061 suncat0203 pw.x -in pw.inp   Done                     12/26/2018 07:07:54
00062 suncat0203 pw.x -in pw.inp   Done                     12/26/2018 07:07:54
00063 suncat0203 pw.x -in pw.inp   Done                     12/26/2018 07:07:54