     Program PWSCF v.5.1rc2 (svn rev. 11289) starts on  2Jan2019 at  7:19: 3

     Current dimensions of program PWSCF are:
     Max number of different atomic species (ntypx) = 10
     Max number of k-points (npk) =  40000
     Max angular momentum in pseudopotentials (lmaxx) =  3
     Presently stress not available with electric field

     IMPORTANT: XC functional enforced from input :
     Exchange-correlation      = BEEF-VDW ( 1  4 27 13 2)
     Any further DFT definition will be discarded
     Please, verify this is what you really want

     Subspace diagonalization in iterative solution of the eigenvalue problem:
     a serial algorithm will be used

     bravais-lattice index     =            0
     lattice parameter (alat)  =       1.8897  a.u.
     unit-cell volume          =    4499.2351 (a.u.)^3
     number of atoms/cell      =           12
     number of atomic types    =            2
     number of electrons       =       168.00
     number of Kohn-Sham states=          114
     kinetic-energy cutoff     =      36.7493  Ry
     charge density cutoff     =     367.4932  Ry
     convergence threshold     =      1.0E-06
     mixing beta               =       0.1000
     number of iterations used =           10  plain     mixing
     Exchange-correlation      = BEEF-VDW ( 1  4 27 13 2)
     nstep                     =           50

     celldm(1)=   1.889726  celldm(2)=   0.000000  celldm(3)=   0.000000
     celldm(4)=   0.000000  celldm(5)=   0.000000  celldm(6)=   0.000000

     crystal axes: (cart. coord. in units of alat)
               a(1) = (   5.597571   0.000000   0.000000 )
               a(2) = (  -2.798786   4.847639   0.000000 )
               a(3) = (   0.000000   0.000000  24.570398 )

     reciprocal axes: (cart. coord. in units 2 pi/alat)
               b(1) = (  0.178649  0.103143  0.000000 )
               b(2) = (  0.000000  0.206286  0.000000 )
               b(3) = (  0.000000  0.000000  0.040699 )

     PseudoPot. # 1 for W  read from file:
     /afs/slac.stanford.edu/u/if/mamunm/psp/gbrv1.5pbe/W.UPF
     MD5 check sum: 9c083fa34c2a2ea0f02f1f893e16e1c8
     Pseudo is Ultrasoft + core correction, Zval = 14.0
     Generated by new atomic code, or converted to UPF format
     Using radial grid of  923 points,  8 beta functions with:
                l(1) =   0
                l(2) =   0
                l(3) =   0
                l(4) =   1
                l(5) =   1
                l(6) =   2
                l(7) =   2
                l(8) =   3
     Q(r) pseudized with  6 coefficients,  rinner =    1.350   1.350   1.350
                                                       1.350   1.350   1.350
                                                       1.350

     PseudoPot. # 2 for Cr read from file:
     /afs/slac.stanford.edu/u/if/mamunm/psp/gbrv1.5pbe/Cr.UPF
     MD5 check sum: 0d52af634a40206e4dee301ad30da4bf
     Pseudo is Ultrasoft + core correction, Zval = 14.0
     Generated by new atomic code, or converted to UPF format
     Using radial grid of  857 points,  6 beta functions with:
                l(1) =   0
                l(2) =   0
                l(3) =   1
                l(4) =   1
                l(5) =   2
                l(6) =   2
     Q(r) pseudized with  8 coefficients,  rinner =    0.950   0.950   0.950
                                                       0.950   0.950

     vdW kernel table read from file vdW_kernel_table
     MD5 check sum: 095c7af220d748ca6e76c0b4c6cfb241

     atomic species   valence    mass     pseudopotential
        W1            14.00   183.84000     W ( 1.00)
        Cr1           14.00    51.99610     Cr( 1.00)

     No symmetry found

   Cartesian axes

     site n.     atom                  positions (alat units)
         1           W1  tau(   1) = (   0.0000000   0.0000000  10.0000000  )
         2           W1  tau(   2) = (  -1.3993928   2.4238195  10.0000000  )
         3           W1  tau(   3) = (   1.3993928   2.4238195  10.0000000  )
         4           Cr1 tau(   4) = (   2.7987857   0.0000000  10.0000000  )
         5           W1  tau(   5) = (   2.7987857   1.6158797  12.2851989  )
         6           W1  tau(   6) = (   1.3993928   4.0396991  12.2851989  )
         7           W1  tau(   7) = (  -1.3993928   4.0396991  12.2851989  )
         8           Cr1 tau(   8) = (   0.0000000   1.6158797  12.2851989  )
         9           W1  tau(   9) = (  -0.0000000   3.2317593  14.5703978  )
        10           W1  tau(  10) = (   1.3993928   0.8079398  14.5703978  )
        11           W1  tau(  11) = (   4.1981785   0.8079398  14.5703978  )
        12           Cr1 tau(  12) = (   2.7987857   3.2317593  14.5703978  )

     number of k points=    20  Fermi-Dirac smearing, width (Ry)=  0.0110
                       cart. coord. in units 2pi/alat
        k(    1) = (   0.0000000   0.0000000   0.0000000), wk =   0.0555556
        k(    2) = (   0.0000000   0.0343810   0.0000000), wk =   0.1111111
        k(    3) = (   0.0000000   0.0687620   0.0000000), wk =   0.1111111
        k(    4) = (   0.0000000  -0.1031430   0.0000000), wk =   0.0555556
        k(    5) = (   0.0297748   0.0171905   0.0000000), wk =   0.1111111
        k(    6) = (   0.0297748   0.0515715   0.0000000), wk =   0.1111111
        k(    7) = (   0.0297748   0.0859525   0.0000000), wk =   0.1111111
        k(    8) = (   0.0297748  -0.0859525   0.0000000), wk =   0.1111111
        k(    9) = (   0.0297748  -0.0515715   0.0000000), wk =   0.1111111
        k(   10) = (   0.0297748  -0.0171905   0.0000000), wk =   0.1111111
        k(   11) = (   0.0595496   0.0343810   0.0000000), wk =   0.1111111
        k(   12) = (   0.0595496   0.0687620   0.0000000), wk =   0.1111111
        k(   13) = (   0.0595496   0.1031430   0.0000000), wk =   0.1111111
        k(   14) = (   0.0595496  -0.0687620   0.0000000), wk =   0.1111111
        k(   15) = (   0.0595496  -0.0343810   0.0000000), wk =   0.1111111
        k(   16) = (   0.0595496   0.0000000   0.0000000), wk =   0.1111111
        k(   17) = (  -0.0893245  -0.0515715   0.0000000), wk =   0.0555556
        k(   18) = (  -0.0893245  -0.0171905   0.0000000), wk =   0.1111111
        k(   19) = (  -0.0893245   0.0171905   0.0000000), wk =   0.1111111
        k(   20) = (  -0.0893245  -0.1547145   0.0000000), wk =   0.0555556

     Largest allocated arrays     est. size (Mb)     dimensions
     Largest temporary arrays     est. size (Mb)     dimensions

     Check: negative/imaginary core charge=   -0.000001    0.000000

     Initial potential from superposition of free atoms
     Check: negative starting charge=   -0.569095

     starting charge  164.09689, renormalised to  168.00000

     negative rho (up, down):  5.826E-01 0.000E+00

     *
     * You are using vdW-DF for exchange-correlation in this calculation.
     * Please cite the following three references that made this development
     * possible:
     *
     *   M. Dion, H. Rydberg, E. Schroder, D. C. Langreth, and
     *   B. I. Lundqvist, Phys. Rev. Lett. 92, 246401 (2004).
     *
     *   T. Thonhauser, V. R. Cooper, S. Li, A. Puzder, P. Hyldgaard, and
     *   D. C. Langreth, Phys. Rev. B 76, 125112 (2007).
     *
     *   G. Roman-Perez and J. M. Soler, Phys. Rev. Lett. 103, 096102 (2009).
     *
     *
     * If you are using vdW-DF2, please also cite:
     *
     *   K. Lee, E. D. Murray, L. Kong, B. I. Lundqvist, and
     *   D. C. Langreth, Phys. Rev. B 82, 081101(R) (2010).
     *
     *
     * If you are calculating the stress with vdW-DF, please also cite:
     *
     *   R. Sabatini, E. Kucukbenli, B. Kolb, T. Thonhauser, and
     *   S. de Gironcoli, J. Phys.: Condens. Matter 24, 424209 (2012).
     *

     Carrying out vdW-DF run using the following parameters:

     Nqs =      20    Nr_points =    1024   r_max =   100.000
     q_mesh =
               0.00001000     0.04494208     0.09755937     0.15916263
               0.23128650     0.31572767     0.41458969     0.53033537
               0.66584808     0.82450364     1.01025438     1.22772762
               1.48234092     1.78043706     2.12944203     2.53805004
               3.01644009     3.57652955     4.23227104     5.00000000

     Gradients computed in reciprocal space

     Adding external electric field

     Computed dipole along edir(3) :
        Dipole                0.0000 Ry au,          0.0000 Debye
        Dipole field          0.0000 Ry au

        Potential amp.       -0.0000 Ry
        Total length         45.2705 bohr

     Starting wfc are  147 randomized atomic wfcs

     Self-consistent Calculation

     iteration #  1     ecut=    36.75 Ry     beta=0.10
     Davidson diagonalization with overlap
     ethr =  1.00E-02,  avg # of iterations =  2.0

[...]

     total energy              =   -1970.06857518 Ry
     Harris-Foulkes estimate   =   -1973.79286798 Ry
     estimated scf accuracy    <      20.84459927 Ry

[...]

     End of self-consistent calculation

          k = 0.0000 0.0000 0.0000 ( 16847 PWs)   bands (ev):

   -72.1468 -72.0941 -72.0757 -72.0684 -72.0684 -72.0294 -72.0294 -72.0234
   -72.0234 -69.6189 -69.5074 -69.5072 -40.9211 -40.9211 -40.9138 -40.9071
   -40.9031 -40.7612 -40.7612 -40.7597 -40.7597 -36.8428 -36.6177 -36.6146
   -36.5392 -36.5392 -36.4937 -36.4396 -36.4396 -36.3023 -36.3023 -36.2910
   -36.1807 -36.1807 -36.1298 -36.1298 -36.0224 -35.9312 -35.9192 -35.9192
   -35.8639 -35.8112 -35.8112 -35.7935 -35.7068 -35.7068 -35.7000 -35.7000
    -5.8458  -4.0919  -3.2017  -3.0136  -2.5581  -2.4868  -2.4868  -2.2032
    -2.2032  -1.8444  -1.7482  -1.5947  -1.5947  -1.4788  -1.4788  -0.6574
    -0.0928  -0.0928   0.7247   0.7978   0.8899   0.8899   1.1916   1.5539
     1.5539   1.6039   1.6039   1.6646   1.8046   1.8485   1.8485   1.8685
     1.8685   1.9651   2.0568   2.0568   2.6041   2.7451   2.7847   2.7847
     3.0679   3.0679   3.5364   3.5364   3.9229   3.9229   3.9293   3.9932
     4.0442   4.7240   4.7240   4.7583   4.7583   5.2699   5.2699   5.4910
     5.4910   5.7348   5.7348   5.7683   5.7683   6.0513   6.0683   6.0683
     6.3011   6.3098

[...]

          k =-0.0893-0.0516 0.0000 ( 16928 PWs)   bands (ev):

[...]

     the Fermi energy is     2.0473 ev

!    total energy              =   -1972.20531193 Ry
     Harris-Foulkes estimate   =   -1972.20531861 Ry
     estimated scf accuracy    <       0.00000040 Ry

     The total energy is the sum of the following terms:

     one-electron contribution =  -15486.60758251 Ry
     hartree contribution      =    7727.95920225 Ry
     xc contribution           =    -452.34752698 Ry
     ewald contribution        =    6238.90529449 Ry
     electric field correction =       0.00000000 Ry
     smearing contrib. (-TS)   =      -0.11469919 Ry

     convergence has been achieved in  22 iterations

 BEEF-vdW xc energy contributions
           1 :   -396.917716594967
           2 :    365.753645350931
           3 :   -311.391007322596
           4 :    246.568499235320
           5 :   -184.168647174939
           6 :    133.222672990390
           7 :   -97.0188549654608
           8 :    73.6940094300797
           9 :   -58.5791555627488
[...]
     Using radial grid of  923 points,  8 beta functions with:
                l(1) =   0
                l(2) =   0
                l(3) =   0
                l(4) =   1
                l(5) =   1
                l(6) =   2
                l(7) =   2
                l(8) =   3
     Q(r) pseudized with  6 coefficients,  rinner =    1.350   1.350   1.350
                                                       1.350   1.350   1.350
                                                       1.350

     PseudoPot. # 2 for Cr read from file:
     /afs/slac.stanford.edu/u/if/mamunm/psp/gbrv1.5pbe/Cr.UPF
     MD5 check sum: 0d52af634a40206e4dee301ad30da4bf
     Pseudo is Ultrasoft + core correction, Zval = 14.0
     Generated by new atomic code, or converted to UPF format
     Using radial grid of  857 points,  6 beta functions with:
                l(1) =   0
                l(2) =   0
                l(3) =   1
                l(4) =   1
                l(5) =   2
                l(6) =   2
     Q(r) pseudized with  8 coefficients,  rinner =    0.950   0.950   0.950
                                                       0.950   0.950

     vdW kernel table read from file vdW_kernel_table
     MD5 check sum: 095c7af220d748ca6e76c0b4c6cfb241

     atomic species   valence    mass     pseudopotential
        W1            14.00   183.84000     W ( 1.00)
        Cr1           14.00    51.99610     Cr( 1.00)

     No symmetry found

   Cartesian axes

     site n.     atom                  positions (alat units)
         1           W1  tau(   1) = (   0.0000000   0.0000000  10.0000000  )
         2           W1  tau(   2) = (  -1.3993928   2.4238195  10.0000000  )
         3           W1  tau(   3) = (   1.3993928   2.4238195  10.0000000  )
         4           Cr1 tau(   4) = (   2.7987857   0.0000000  10.0000000  )
         5           W1  tau(   5) = (   2.7987857   1.6158797  12.2851989  )
         6           W1  tau(   6) = (   1.3993928   4.0396991  12.2851989  )
         7           W1  tau(   7) = (  -1.3993928   4.0396991  12.2851989  )
         8           Cr1 tau(   8) = (   0.0000000   1.6158797  12.2851989  )
         9           W1  tau(   9) = (  -0.0000000   3.2131872  14.5614235  )
        10           W1  tau(  10) = (   1.3833085   0.8172258  14.5614227  )
        11           W1  tau(  11) = (   4.2142624   0.8172255  14.5614229  )
        12           Cr1 tau(  12) = (   2.7987859   3.2317592  14.5732470  )

     number of k points=    20  Fermi-Dirac smearing, width (Ry)=  0.0110
                       cart. coord. in units 2pi/alat
        k(    1) = (   0.0000000   0.0000000   0.0000000), wk =   0.0555556
        k(    2) = (   0.0000000   0.0343810   0.0000000), wk =   0.1111111
        k(    3) = (   0.0000000   0.0687620   0.0000000), wk =   0.1111111
        k(    4) = (   0.0000000  -0.1031430   0.0000000), wk =   0.0555556
        k(    5) = (   0.0297748   0.0171905   0.0000000), wk =   0.1111111
        k(    6) = (   0.0297748   0.0515715   0.0000000), wk =   0.1111111
        k(    7) = (   0.0297748   0.0859525   0.0000000), wk =   0.1111111
        k(    8) = (   0.0297748  -0.0859525   0.0000000), wk =   0.1111111
        k(    9) = (   0.0297748  -0.0515715   0.0000000), wk =   0.1111111
        k(   10) = (   0.0297748  -0.0171905   0.0000000), wk =   0.1111111
        k(   11) = (   0.0595496   0.0343810   0.0000000), wk =   0.1111111
        k(   12) = (   0.0595496   0.0687620   0.0000000), wk =   0.1111111
        k(   13) = (   0.0595496   0.1031430   0.0000000), wk =   0.1111111
        k(   14) = (   0.0595496  -0.0687620   0.0000000), wk =   0.1111111
        k(   15) = (   0.0595496  -0.0343810   0.0000000), wk =   0.1111111
        k(   16) = (   0.0595496   0.0000000   0.0000000), wk =   0.1111111
        k(   17) = (  -0.0893245  -0.0515715   0.0000000), wk =   0.0555556
        k(   18) = (  -0.0893245  -0.0171905   0.0000000), wk =   0.1111111
        k(   19) = (  -0.0893245   0.0171905   0.0000000), wk =   0.1111111
        k(   20) = (  -0.0893245  -0.1547145   0.0000000), wk =   0.0555556

     Largest allocated arrays     est. size (Mb)     dimensions
     Largest temporary arrays     est. size (Mb)     dimensions

     Check: negative/imaginary core charge=   -0.000001    0.000000

     Initial potential from superposition of free atoms
     Check: negative starting charge=   -0.570331

     starting charge  164.09689, renormalised to  168.00000

[...]

     *
     * You are using vdW-DF for exchange-correlation in this calculation.
     * Please cite the following three references that made this development
     * possible:
     *
     *   M. Dion, H. Rydberg, E. Schroder, D. C. Langreth, and
     *   B. I. Lundqvist, Phys. Rev. Lett. 92, 246401 (2004).
     *
     *   T. Thonhauser, V. R. Cooper, S. Li, A. Puzder, P. Hyldgaard, and
     *   D. C. Langreth, Phys. Rev. B 76, 125112 (2007).
     *
     *   G. Roman-Perez and J. M. Soler, Phys. Rev. Lett. 103, 096102 (2009).
     *
     *
     * If you are using vdW-DF2, please also cite:
     *
     *   K. Lee, E. D. Murray, L. Kong, B. I. Lundqvist, and
     *   D. C. Langreth, Phys. Rev. B 82, 081101(R) (2010).
     *
     *
     * If you are calculating the stress with vdW-DF, please also cite:
     *
     *   R. Sabatini, E. Kucukbenli, B. Kolb, T. Thonhauser, and
     *   S. de Gironcoli, J. Phys.: Condens. Matter 24, 424209 (2012).
     *

     Carrying out vdW-DF run using the following parameters:

     Nqs =      20    Nr_points =    1024   r_max =   100.000
     q_mesh =
               0.00001000     0.04494208     0.09755937     0.15916263
               0.23128650     0.31572767     0.41458969     0.53033537
               0.66584808     0.82450364     1.01025438     1.22772762
               1.48234092     1.78043706     2.12944203     2.53805004
               3.01644009     3.57652955     4.23227104     5.00000000

     Gradients computed in reciprocal space

[...]

     Starting wfc are  147 randomized atomic wfcs

     Self-consistent Calculation

[...]

     total energy              =   -1972.21242450 Ry
     Harris-Foulkes estimate   =   -1972.21242483 Ry
     estimated scf accuracy    <       0.00000149 Ry

     iteration # 20     ecut=    36.75 Ry     beta=0.10
     Davidson diagonalization with overlap
     ethr =  8.88E-10,  avg # of iterations =  2.0

[...]

     negative rho (up, down):  5.917E-01 0.000E+00

     Adding external electric field

     Computed dipole along edir(3) :
        Dipole                0.0025 Ry au,          0.0064 Debye
        Dipole field          0.0000 Ry au

        Potential amp.       -0.0006 Ry
        Total length         45.2705 bohr

     End of self-consistent calculation

[...]

          k = 0.0595 0.0000 0.0000 ( 16918 PWs)   bands (ev):

[...]

          k =-0.0893-0.1547 0.0000 ( 16928 PWs)   bands (ev):

   -72.1120 -72.0948 -72.0632 -72.0623 -72.0497 -72.0443 -72.0334 -72.0229
   -72.0154 -69.6066 -69.5052 -69.4981 -40.9091 -40.9049 -40.9031 -40.8981
   -40.8962 -40.7552 -40.7500 -40.7480 -40.7430 -36.6502 -36.5698 -36.4805
   -36.4287 -36.4007 -36.3610 -36.3454 -36.3354 -36.2507 -36.2207 -36.2067
   -36.1655 -36.1362 -36.0991 -36.0958 -36.0819 -36.0788 -36.0685 -36.0315
   -36.0117 -35.9914 -35.9164 -35.8627 -35.8623 -35.8221 -35.7303 -35.7234
    -4.0967  -3.7819  -2.5827  -2.2606  -1.8512  -1.7766  -1.5987  -1.5337
    -1.2979  -1.2276  -0.9811  -0.6690  -0.5539  -0.4264  -0.2999  -0.1244
    -0.0689  -0.0260   0.0870   0.2001   0.3307   0.6188   0.6657   0.8847
     0.9300   0.9783   1.0245   1.0807   1.1193   1.1547   1.3466   1.3684
     1.6178   1.6481   1.7048   1.7302   1.7495   1.7671   2.2684   2.3479
     2.5851   2.7229   2.7934   3.0075   3.0373   3.1639   3.3388   3.3874
     3.4179   3.6319   3.7887   3.8087   3.9124   4.0146   4.2688   4.5109
     4.6213   4.6372   4.8128   5.0912   5.1586   5.4887   5.7853   5.9715
     5.9752   6.4860

     the Fermi energy is     2.0512 ev

!    total energy              =   -1972.21242217 Ry
     Harris-Foulkes estimate   =   -1972.21242461 Ry
     estimated scf accuracy    <       0.00000074 Ry

     The total energy is the sum of the following terms:

     one-electron contribution =  -15500.00824329 Ry
     hartree contribution      =    7734.68567205 Ry
     xc contribution           =    -452.36880182 Ry
     ewald contribution        =    6245.59384067 Ry
     electric field correction =       0.00000002 Ry
     smearing contrib. (-TS)   =      -0.11488980 Ry

     convergence has been achieved in  20 iterations

 BEEF-vdW xc energy contributions
           1 :   -397.127434065402
           2 :    365.968248414229
           3 :   -311.611451179291
           4 :    246.790482189106
           5 :   -184.384797527752
           6 :    133.427031118249
           7 :   -97.2109462340220
           8 :    73.8797003985539
           9 :   -58.7674427806754
          10 :    47.1432076070752
          11 :   -36.1183267254224
          12 :    25.1293508907889
          13 :   -15.1950947004989
          14 :    7.65416761951383
          15 :   -3.14427125860476
          16 :    1.25987107614014
          17 :  -0.876107132342497
          18 :   0.793752822608553
          19 :  -0.288768448211385
          20 :  -0.697768629514599
          21 :    1.74536249771040
          22 :   -2.33614540654344
          23 :    2.19320637856413
          24 :   -1.41588485476814
          25 :   0.392263951496489
          26 :   0.418819248197792
          27 :  -0.708354255272070
          28 :   0.440059247120985
          29 :   0.162897500395616
          30 :  -0.743907783576276
          31 :   -36.3742703531212
          32 :   -27.0609263887924

     Forces acting on atoms (Ry/au):

     negative rho (up, down):  5.917E-01 0.000E+00
     atom    1 type  1   force =     0.00000018    0.00984512    0.00305328
     atom    2 type  1   force =     0.00852615   -0.00492252    0.00305340
     atom    3 type  1   force =    -0.00852620   -0.00492245    0.00305320
     atom    4 type  2   force =     0.00000004    0.00000002   -0.00093254
     atom    5 type  1   force =    -0.00000006   -0.00002088   -0.00051961
     atom    6 type  1   force =    -0.00001810    0.00001036   -0.00051949
     atom    7 type  1   force =     0.00001809    0.00001045   -0.00051961
     atom    8 type  2   force =     0.00000005    0.00000005   -0.00473281
     atom    9 type  1   force =    -0.00000009    0.00091513   -0.00074106
     atom   10 type  1   force =     0.00079252   -0.00045761   -0.00074079
     atom   11 type  1   force =    -0.00079265   -0.00045763   -0.00074090
     atom   12 type  2   force =     0.00000007   -0.00000003    0.00028693

     Total force =     0.018630     Total SCF correction =     0.002345
     SCF correction compared to forces is large: reduce conv_thr to get better values

     entering subroutine stress ...

     negative rho (up, down):  5.917E-01 0.000E+00
          total   stress  (Ry/bohr**3)                   (kbar)     P=  -44.59
  -0.00041788  -0.00000000  -0.00000000        -61.47     -0.00     -0.00
  -0.00000000  -0.00041788  -0.00000000         -0.00    -61.47     -0.00
  -0.00000000  -0.00000000  -0.00007354         -0.00     -0.00    -10.82

 !ASE

     Writing output data file calc.save

     General routines

     Parallel routines

   This run was terminated on:   9:22:45   2Jan2019

   JOB DONE.
Job  /afs/slac/g/suncat/bin/suncat-tsmpirun -x LD_LIBRARY_PATH -wdir /scratch/qe649345_45fu0 pw.x -in pw.inp

TID   HOST_NAME   COMMAND_LINE            STATUS            TERMINATION_TIME
00000 suncat0024 pw.x -in pw.inp   Done                     01/02/2019 09:22:45
00001 suncat0024 pw.x -in pw.inp   Done                     01/02/2019 09:22:45
00002 suncat0024 pw.x -in pw.inp   Done                     01/02/2019 09:22:45
00003 suncat0024 pw.x -in pw.inp   Done                     01/02/2019 09:22:45
00004 suncat0024 pw.x -in pw.inp   Done                     01/02/2019 09:22:45
00005 suncat0024 pw.x -in pw.inp   Done                     01/02/2019 09:22:45
00006 suncat0024 pw.x -in pw.inp   Done                     01/02/2019 09:22:45
00007 suncat0024 pw.x -in pw.inp   Done                     01/02/2019 09:22:45
00008 suncat0023 pw.x -in pw.inp   Done                     01/02/2019 09:22:45
00009 suncat0023 pw.x -in pw.inp   Done                     01/02/2019 09:22:45
00010 suncat0023 pw.x -in pw.inp   Done                     01/02/2019 09:22:45
00011 suncat0023 pw.x -in pw.inp   Done                     01/02/2019 09:22:45
00012 suncat0023 pw.x -in pw.inp   Done                     01/02/2019 09:22:45
00013 suncat0023 pw.x -in pw.inp   Done                     01/02/2019 09:22:45
00014 suncat0023 pw.x -in pw.inp   Done                     01/02/2019 09:22:45
00015 suncat0023 pw.x -in pw.inp   Done                     01/02/2019 09:22:45
00016 suncat0190 pw.x -in pw.inp   Done                     01/02/2019 09:22:45
00017 suncat0190 pw.x -in pw.inp   Done                     01/02/2019 09:22:45
00018 suncat0190 pw.x -in pw.inp   Done                     01/02/2019 09:22:45
00019 suncat0190 pw.x -in pw.inp   Done                     01/02/2019 09:22:45
00020 suncat0190 pw.x -in pw.inp   Done                     01/02/2019 09:22:45
00021 suncat0190 pw.x -in pw.inp   Done                     01/02/2019 09:22:45
00022 suncat0190 pw.x -in pw.inp   Done                     01/02/2019 09:22:45
00023 suncat0190 pw.x -in pw.inp   Done                     01/02/2019 09:22:45
00024 suncat0009 pw.x -in pw.inp   Done                     01/02/2019 09:22:45
00025 suncat0009 pw.x -in pw.inp   Done                     01/02/2019 09:22:45
00026 suncat0009 pw.x -in pw.inp   Done                     01/02/2019 09:22:45
00027 suncat0009 pw.x -in pw.inp   Done                     01/02/2019 09:22:45
00028 suncat0009 pw.x -in pw.inp   Done                     01/02/2019 09:22:45
00029 suncat0009 pw.x -in pw.inp   Done                     01/02/2019 09:22:45
00030 suncat0009 pw.x -in pw.inp   Done                     01/02/2019 09:22:45
00031 suncat0009 pw.x -in pw.inp   Done                     01/02/2019 09:22:45
00032 suncat0166 pw.x -in pw.inp   Done                     01/02/2019 09:22:45
00033 suncat0166 pw.x -in pw.inp   Done                     01/02/2019 09:22:45
00034 suncat0166 pw.x -in pw.inp   Done                     01/02/2019 09:22:45
00035 suncat0166 pw.x -in pw.inp   Done                     01/02/2019 09:22:45
00036 suncat0166 pw.x -in pw.inp   Done                     01/02/2019 09:22:45
00037 suncat0166 pw.x -in pw.inp   Done                     01/02/2019 09:22:45
00038 suncat0166 pw.x -in pw.inp   Done                     01/02/2019 09:22:45
00039 suncat0166 pw.x -in pw.inp   Done                     01/02/2019 09:22:45
00040 suncat0149 pw.x -in pw.inp   Done                     01/02/2019 09:22:45
00041 suncat0149 pw.x -in pw.inp   Done                     01/02/2019 09:22:45
00042 suncat0149 pw.x -in pw.inp   Done                     01/02/2019 09:22:45
00043 suncat0149 pw.x -in pw.inp   Done                     01/02/2019 09:22:45
00044 suncat0149 pw.x -in pw.inp   Done                     01/02/2019 09:22:45
00045 suncat0149 pw.x -in pw.inp   Done                     01/02/2019 09:22:45
00046 suncat0149 pw.x -in pw.inp   Done                     01/02/2019 09:22:45
00047 suncat0149 pw.x -in pw.inp   Done                     01/02/2019 09:22:45
00048 suncat0148 pw.x -in pw.inp   Done                     01/02/2019 09:22:45
00049 suncat0148 pw.x -in pw.inp   Done                     01/02/2019 09:22:45
00050 suncat0148 pw.x -in pw.inp   Done                     01/02/2019 09:22:45
00051 suncat0148 pw.x -in pw.inp   Done                     01/02/2019 09:22:45
00052 suncat0148 pw.x -in pw.inp   Done                     01/02/2019 09:22:45
00053 suncat0148 pw.x -in pw.inp   Done                     01/02/2019 09:22:45
00054 suncat0148 pw.x -in pw.inp   Done                     01/02/2019 09:22:45
00055 suncat0148 pw.x -in pw.inp   Done                     01/02/2019 09:22:45
00056 suncat0142 pw.x -in pw.inp   Done                     01/02/2019 09:22:45
00057 suncat0142 pw.x -in pw.inp   Done                     01/02/2019 09:22:45
00058 suncat0142 pw.x -in pw.inp   Done                     01/02/2019 09:22:45
00059 suncat0142 pw.x -in pw.inp   Done                     01/02/2019 09:22:45
00060 suncat0142 pw.x -in pw.inp   Done                     01/02/2019 09:22:45
00061 suncat0142 pw.x -in pw.inp   Done                     01/02/2019 09:22:45
00062 suncat0142 pw.x -in pw.inp   Done                     01/02/2019 09:22:45
00063 suncat0142 pw.x -in pw.inp   Done                     01/02/2019 09:22:45