     Program PWSCF v.5.1rc2 (svn rev. 11289) starts on 19Dec2018 at 19:55:16

     Current dimensions of program PWSCF are:
     Max number of different atomic species (ntypx) = 10
     Max number of k-points (npk) =  40000
     Max angular momentum in pseudopotentials (lmaxx) =  3
     Presently stress not available with electric field

     IMPORTANT: XC functional enforced from input :
     Exchange-correlation      = BEEF-VDW ( 1  4 27 13 2)
     Any further DFT definition will be discarded
     Please, verify this is what you really want

     Subspace diagonalization in iterative solution of the eigenvalue problem:
     a serial algorithm will be used

     bravais-lattice index     =            0
     lattice parameter (alat)  =       1.8897  a.u.
     unit-cell volume          =    4927.0739 (a.u.)^3
     number of atoms/cell      =           12
     number of atomic types    =            2
     number of electrons       =       138.00
     number of Kohn-Sham states=           99
     kinetic-energy cutoff     =      36.7493  Ry
     charge density cutoff     =     367.4932  Ry
     convergence threshold     =      1.0E-06
     mixing beta               =       0.1000
     number of iterations used =           10  plain     mixing
     Exchange-correlation      = BEEF-VDW ( 1  4 27 13 2)
     nstep                     =           50

     celldm(1)=   1.889726  celldm(2)=   0.000000  celldm(3)=   0.000000
     celldm(4)=   0.000000  celldm(5)=   0.000000  celldm(6)=   0.000000

     crystal axes: (cart. coord. in units of alat)
               a(1) = (   5.834723   0.000000   0.000000 )
               a(2) = (  -2.917362   5.053018   0.000000 )
               a(3) = (   0.000000   0.000000  24.764031 )

     reciprocal axes: (cart. coord. in units 2 pi/alat)
               b(1) = (  0.171388  0.098951  0.000000 )
               b(2) = (  0.000000  0.197902  0.000000 )
               b(3) = (  0.000000  0.000000  0.040381 )

     PseudoPot. # 1 for Au read from file:
     /afs/slac.stanford.edu/u/if/mamunm/psp/gbrv1.5pbe/Au.UPF
     MD5 check sum: 9d7f43293ad2c663164586bc4b293ffc
     Pseudo is Ultrasoft + core correction, Zval = 11.0
     Generated by new atomic code, or converted to UPF format
     Using radial grid of  985 points,  7 beta functions with:
                l(1) =   0
                l(2) =   0
                l(3) =   1
                l(4) =   1
                l(5) =   2
                l(6) =   2
                l(7) =   3
     Q(r) pseudized with  6 coefficients,  rinner =    1.900   1.900   1.900
                                                       1.900   1.900   1.900
                                                       1.900

     PseudoPot. # 2 for V  read from file:
     /afs/slac.stanford.edu/u/if/mamunm/psp/gbrv1.5pbe/V.UPF
     MD5 check sum: 22b79981416ebb76fdaf5b1b8640f6fb
     Pseudo is Ultrasoft + core correction, Zval = 13.0
     Generated by new atomic code, or converted to UPF format
     Using radial grid of  853 points,  6 beta functions with:
                l(1) =   0
                l(2) =   0
                l(3) =   1
                l(4) =   1
                l(5) =   2
                l(6) =   2
     Q(r) pseudized with  8 coefficients,  rinner =    1.100   1.100   1.100
                                                       1.100   1.100

     vdW kernel table read from file vdW_kernel_table
     MD5 check sum: 095c7af220d748ca6e76c0b4c6cfb241

     atomic species   valence    mass     pseudopotential
        Au1           11.00   196.96657     Au( 1.00)
        V1            13.00    50.94150     V ( 1.00)

     No symmetry found

   Cartesian axes

     site n.     atom                  positions (alat units)
         1           Au1 tau(   1) = (   0.0000000   0.0000000  10.0000000  )
         2           Au1 tau(   2) = (  -1.4586808   2.5265092  10.0000000  )
         3           Au1 tau(   3) = (   1.4586808   2.5265092  10.0000000  )
         4           V1  tau(   4) = (   2.9173615   0.0000000  10.0000000  )
         5           Au1 tau(   5) = (   2.9173615   1.6843395  12.3820157  )
         6           Au1 tau(   6) = (   1.4586808   4.2108487  12.3820157  )
         7           Au1 tau(   7) = (  -1.4586808   4.2108487  12.3820157  )
         8           V1  tau(   8) = (   0.0000000   1.6843395  12.3820157  )
         9           Au1 tau(   9) = (  -0.0000000   3.3686789  14.7640314  )
        10           Au1 tau(  10) = (   1.4586808   0.8421697  14.7640314  )
        11           Au1 tau(  11) = (   4.3760423   0.8421697  14.7640314  )
        12           V1  tau(  12) = (   2.9173615   3.3686789  14.7640314  )

     number of k points=    20  Fermi-Dirac smearing, width (Ry)=  0.0110
                       cart. coord. in units 2pi/alat
        k(    1) = (   0.0000000   0.0000000   0.0000000), wk =   0.0555556
        k(    2) = (   0.0000000   0.0329836   0.0000000), wk =   0.1111111
        k(    3) = (   0.0000000   0.0659672   0.0000000), wk =   0.1111111
        k(    4) = (   0.0000000  -0.0989508   0.0000000), wk =   0.0555556
        k(    5) = (   0.0285646   0.0164918   0.0000000), wk =   0.1111111
        k(    6) = (   0.0285646   0.0494754   0.0000000), wk =   0.1111111
        k(    7) = (   0.0285646   0.0824590   0.0000000), wk =   0.1111111
        k(    8) = (   0.0285646  -0.0824590   0.0000000), wk =   0.1111111
        k(    9) = (   0.0285646  -0.0494754   0.0000000), wk =   0.1111111
        k(   10) = (   0.0285646  -0.0164918   0.0000000), wk =   0.1111111
        k(   11) = (   0.0571292   0.0329836   0.0000000), wk =   0.1111111
        k(   12) = (   0.0571292   0.0659672   0.0000000), wk =   0.1111111
        k(   13) = (   0.0571292   0.0989508   0.0000000), wk =   0.1111111
        k(   14) = (   0.0571292  -0.0659672   0.0000000), wk =   0.1111111
        k(   15) = (   0.0571292  -0.0329836   0.0000000), wk =   0.1111111
        k(   16) = (   0.0571292   0.0000000   0.0000000), wk =   0.1111111
        k(   17) = (  -0.0856939  -0.0494754   0.0000000), wk =   0.0555556
        k(   18) = (  -0.0856939  -0.0164918   0.0000000), wk =   0.1111111
        k(   19) = (  -0.0856939   0.0164918   0.0000000), wk =   0.1111111
        k(   20) = (  -0.0856939  -0.1484261   0.0000000), wk =   0.0555556

     Largest allocated arrays     est. size (Mb)     dimensions
     Largest temporary arrays     est. size (Mb)     dimensions

     Check: negative/imaginary core charge=   -0.000002    0.000000

     Initial potential from superposition of free atoms
     Check: negative starting charge=   -0.002998

     starting charge  137.99522, renormalised to  138.00000

     negative rho (up, down):  2.998E-03 0.000E+00

     *
     * You are using vdW-DF for exchange-correlation in this calculation.
     * Please cite the following three references that made this development
     * possible:
     *
     *   M. Dion, H. Rydberg, E. Schroder, D. C. Langreth, and
     *   B. I. Lundqvist, Phys. Rev. Lett. 92, 246401 (2004).
     *
     *   T. Thonhauser, V. R. Cooper, S. Li, A. Puzder, P. Hyldgaard, and
     *   D. C. Langreth, Phys. Rev. B 76, 125112 (2007).
     *
     *   G. Roman-Perez and J. M. Soler, Phys. Rev. Lett. 103, 096102 (2009).
     *
     *
     * If you are using vdW-DF2, please also cite:
     *
     *   K. Lee, E. D. Murray, L. Kong, B. I. Lundqvist, and
     *   D. C. Langreth, Phys. Rev. B 82, 081101(R) (2010).
     *
     *
     * If you are calculating the stress with vdW-DF, please also cite:
     *
     *   R. Sabatini, E. Kucukbenli, B. Kolb, T. Thonhauser, and
     *   S. de Gironcoli, J. Phys.: Condens. Matter 24, 424209 (2012).
     *

     Carrying out vdW-DF run using the following parameters:

     Nqs =      20    Nr_points =    1024   r_max =   100.000
     q_mesh =
               0.00001000     0.04494208     0.09755937     0.15916263
               0.23128650     0.31572767     0.41458969     0.53033537
               0.66584808     0.82450364     1.01025438     1.22772762
               1.48234092     1.78043706     2.12944203     2.53805004
               3.01644009     3.57652955     4.23227104     5.00000000

     Gradients computed in reciprocal space

     Adding external electric field

     Computed dipole along edir(3) :
        Dipole                0.0000 Ry au,          0.0000 Debye
        Dipole field          0.0000 Ry au

        Potential amp.       -0.0000 Ry
        Total length         45.6273 bohr

     Starting wfc are  111 randomized atomic wfcs

     Self-consistent Calculation

     iteration #  1     ecut=    36.75 Ry     beta=0.10
     Davidson diagonalization with overlap
     ethr =  1.00E-02,  avg # of iterations =  8.8

[...]

     total energy              =   -1486.61328294 Ry
     Harris-Foulkes estimate   =   -1487.87491369 Ry
     estimated scf accuracy    <       7.01637047 Ry

[...]

     End of self-consistent calculation

          k = 0.0000 0.0000 0.0000 ( 18535 PWs)   bands (ev):

   -64.2586 -64.1628 -64.1627 -38.1268 -38.0197 -38.0197 -37.9945 -37.9937
   -37.9573 -37.9573 -37.9570 -37.9570  -7.5286  -6.1422  -5.7981  -5.5670
    -5.4470  -5.4132  -5.4132  -5.2363  -5.2363  -5.1309  -5.0028  -5.0028
    -4.9984  -4.8490  -4.8490  -4.2575  -4.0223  -4.0223  -3.8738  -3.8738
    -3.6606  -3.5960  -3.4416  -3.4261  -3.2518  -3.2518  -3.1530  -3.1530
    -3.0459  -3.0459  -2.8883  -2.8883  -2.8654  -2.8654  -2.6324  -2.3244
    -2.3244  -2.2473  -2.2473  -2.0412  -2.0412  -1.8240  -1.5962  -1.5962
    -1.4818  -1.2999  -1.2470  -1.2413  -0.1610   0.3266   0.5523   0.5523
     0.6401   0.6401   0.7832   0.7832   0.8527   0.8527   0.9497   1.1370
     1.1370   1.2063   1.3625   1.3625   1.3866   1.3866   1.4201   2.3760
     2.3760   2.4897   2.4897   2.8128   2.8402   4.2178   4.2178   4.4209
     4.7546   4.7546   4.8285   5.0565   5.5877   5.5877   5.9566   5.9916
     6.3756   6.7980   7.1514

[...]

          k =-0.0857-0.0495 0.0000 ( 18512 PWs)   bands (ev):

[...]

     the Fermi energy is     0.6659 ev

!    total energy              =   -1487.40704573 Ry
     Harris-Foulkes estimate   =   -1487.40704584 Ry
     estimated scf accuracy    <       0.00000043 Ry

     The total energy is the sum of the following terms:

     one-electron contribution =   -9345.54190348 Ry
     hartree contribution      =    4740.54840198 Ry
     xc contribution           =    -636.75927007 Ry
     ewald contribution        =    3754.47913155 Ry
     electric field correction =       0.00000002 Ry
     smearing contrib. (-TS)   =      -0.13340573 Ry

     convergence has been achieved in  19 iterations

 BEEF-vdW xc energy contributions
           1 :   -566.843119288753
           2 :    525.290278998587
           3 :   -451.683865423834
           4 :    361.296268263073
           5 :   -269.987493883309
           6 :    189.851309725188
           7 :   -127.149941241086
           8 :    82.6213438662663
           9 :   -53.3431084649853
          10 :    34.9844181354691
          11 :   -23.5509396309400
          12 :    16.2149115916976
          13 :   -11.3458999357919
          14 :    8.10696154870095
[...]

     PseudoPot. # 1 for Au read from file:
     /afs/slac.stanford.edu/u/if/mamunm/psp/gbrv1.5pbe/Au.UPF
     MD5 check sum: 9d7f43293ad2c663164586bc4b293ffc
     Pseudo is Ultrasoft + core correction, Zval = 11.0
     Generated by new atomic code, or converted to UPF format
     Using radial grid of  985 points,  7 beta functions with:
                l(1) =   0
                l(2) =   0
                l(3) =   1
                l(4) =   1
                l(5) =   2
                l(6) =   2
                l(7) =   3
     Q(r) pseudized with  6 coefficients,  rinner =    1.900   1.900   1.900
                                                       1.900   1.900   1.900
                                                       1.900

     PseudoPot. # 2 for V  read from file:
     /afs/slac.stanford.edu/u/if/mamunm/psp/gbrv1.5pbe/V.UPF
     MD5 check sum: 22b79981416ebb76fdaf5b1b8640f6fb
     Pseudo is Ultrasoft + core correction, Zval = 13.0
     Generated by new atomic code, or converted to UPF format
     Using radial grid of  853 points,  6 beta functions with:
                l(1) =   0
                l(2) =   0
                l(3) =   1
                l(4) =   1
                l(5) =   2
                l(6) =   2
     Q(r) pseudized with  8 coefficients,  rinner =    1.100   1.100   1.100
                                                       1.100   1.100

     vdW kernel table read from file vdW_kernel_table
     MD5 check sum: 095c7af220d748ca6e76c0b4c6cfb241

     atomic species   valence    mass     pseudopotential
        Au1           11.00   196.96657     Au( 1.00)
        V1            13.00    50.94150     V ( 1.00)

     No symmetry found

   Cartesian axes

     site n.     atom                  positions (alat units)
         1           Au1 tau(   1) = (   0.0000000   0.0000000  10.0000000  )
         2           Au1 tau(   2) = (  -1.4586808   2.5265092  10.0000000  )
         3           Au1 tau(   3) = (   1.4586808   2.5265092  10.0000000  )
         4           V1  tau(   4) = (   2.9173615   0.0000000  10.0000000  )
         5           Au1 tau(   5) = (   2.9173615   1.6843395  12.3820157  )
         6           Au1 tau(   6) = (   1.4586808   4.2108487  12.3820157  )
         7           Au1 tau(   7) = (  -1.4586808   4.2108487  12.3820157  )
         8           V1  tau(   8) = (   0.0000000   1.6843395  12.3820157  )
         9           Au1 tau(   9) = (  -0.0000064   3.3512312  14.8138568  )
        10           Au1 tau(  10) = (   1.4435750   0.8509006  14.8138759  )
        11           Au1 tau(  11) = (   4.3911646   0.8509027  14.8138764  )
        12           V1  tau(  12) = (   2.9173664   3.3686753  14.5848566  )

     number of k points=    20  Fermi-Dirac smearing, width (Ry)=  0.0110
                       cart. coord. in units 2pi/alat
        k(    1) = (   0.0000000   0.0000000   0.0000000), wk =   0.0555556
        k(    2) = (   0.0000000   0.0329836   0.0000000), wk =   0.1111111
        k(    3) = (   0.0000000   0.0659672   0.0000000), wk =   0.1111111
        k(    4) = (   0.0000000  -0.0989508   0.0000000), wk =   0.0555556
        k(    5) = (   0.0285646   0.0164918   0.0000000), wk =   0.1111111
        k(    6) = (   0.0285646   0.0494754   0.0000000), wk =   0.1111111
        k(    7) = (   0.0285646   0.0824590   0.0000000), wk =   0.1111111
        k(    8) = (   0.0285646  -0.0824590   0.0000000), wk =   0.1111111
        k(    9) = (   0.0285646  -0.0494754   0.0000000), wk =   0.1111111
        k(   10) = (   0.0285646  -0.0164918   0.0000000), wk =   0.1111111
        k(   11) = (   0.0571292   0.0329836   0.0000000), wk =   0.1111111
        k(   12) = (   0.0571292   0.0659672   0.0000000), wk =   0.1111111
        k(   13) = (   0.0571292   0.0989508   0.0000000), wk =   0.1111111
        k(   14) = (   0.0571292  -0.0659672   0.0000000), wk =   0.1111111
        k(   15) = (   0.0571292  -0.0329836   0.0000000), wk =   0.1111111
        k(   16) = (   0.0571292   0.0000000   0.0000000), wk =   0.1111111
        k(   17) = (  -0.0856939  -0.0494754   0.0000000), wk =   0.0555556
        k(   18) = (  -0.0856939  -0.0164918   0.0000000), wk =   0.1111111
        k(   19) = (  -0.0856939   0.0164918   0.0000000), wk =   0.1111111
        k(   20) = (  -0.0856939  -0.1484261   0.0000000), wk =   0.0555556

     Largest allocated arrays     est. size (Mb)     dimensions
     Largest temporary arrays     est. size (Mb)     dimensions

     Check: negative/imaginary core charge=   -0.000002    0.000000

     Initial potential from superposition of free atoms
     Check: negative starting charge=   -0.003062

     starting charge  137.99522, renormalised to  138.00000

[...]

     *
     * You are using vdW-DF for exchange-correlation in this calculation.
     * Please cite the following three references that made this development
     * possible:
     *
     *   M. Dion, H. Rydberg, E. Schroder, D. C. Langreth, and
     *   B. I. Lundqvist, Phys. Rev. Lett. 92, 246401 (2004).
     *
     *   T. Thonhauser, V. R. Cooper, S. Li, A. Puzder, P. Hyldgaard, and
     *   D. C. Langreth, Phys. Rev. B 76, 125112 (2007).
     *
     *   G. Roman-Perez and J. M. Soler, Phys. Rev. Lett. 103, 096102 (2009).
     *
     *
     * If you are using vdW-DF2, please also cite:
     *
     *   K. Lee, E. D. Murray, L. Kong, B. I. Lundqvist, and
     *   D. C. Langreth, Phys. Rev. B 82, 081101(R) (2010).
     *
     *
     * If you are calculating the stress with vdW-DF, please also cite:
     *
     *   R. Sabatini, E. Kucukbenli, B. Kolb, T. Thonhauser, and
     *   S. de Gironcoli, J. Phys.: Condens. Matter 24, 424209 (2012).
     *

     Carrying out vdW-DF run using the following parameters:

     Nqs =      20    Nr_points =    1024   r_max =   100.000
     q_mesh =
               0.00001000     0.04494208     0.09755937     0.15916263
               0.23128650     0.31572767     0.41458969     0.53033537
               0.66584808     0.82450364     1.01025438     1.22772762
               1.48234092     1.78043706     2.12944203     2.53805004
               3.01644009     3.57652955     4.23227104     5.00000000

     Gradients computed in reciprocal space

[...]

     Starting wfc are  111 randomized atomic wfcs

     Self-consistent Calculation

[...]

     total energy              =   -1487.43007920 Ry
     Harris-Foulkes estimate   =   -1487.43007906 Ry
     estimated scf accuracy    <       0.00000114 Ry

     iteration # 19     ecut=    36.75 Ry     beta=0.10
     Davidson diagonalization with overlap
     ethr =  8.30E-10,  avg # of iterations =  1.5

[...]

     negative rho (up, down):  3.126E-03 0.000E+00

     Adding external electric field

     Computed dipole along edir(3) :
        Dipole               -0.0404 Ry au,         -0.1028 Debye
        Dipole field         -0.0001 Ry au

        Potential amp.        0.0094 Ry
        Total length         45.6273 bohr

     End of self-consistent calculation

[...]

          k = 0.0571 0.0000 0.0000 ( 18535 PWs)   bands (ev):

[...]

          k =-0.0857-0.1484 0.0000 ( 18512 PWs)   bands (ev):

   -64.3197 -64.2214 -64.2151 -38.1963 -38.0779 -38.0771 -38.0500 -38.0433
   -38.0200 -38.0193 -38.0133 -38.0125  -6.3000  -5.9634  -5.2750  -5.0819
    -5.0455  -5.0274  -4.9051  -4.8094  -4.7668  -4.6531  -4.6375  -4.5637
    -4.3247  -4.3003  -4.2843  -4.2632  -4.2195  -4.2057  -3.9768  -3.9125
    -3.6111  -3.6079  -3.5501  -3.5387  -3.5298  -3.4481  -3.4246  -3.3688
    -3.3484  -3.3344  -3.3044  -3.2574  -3.2228  -3.1187  -3.1162  -3.0676
    -2.9651  -2.8948  -2.8877  -2.7983  -2.7165  -2.6967  -2.5798  -2.5157
    -2.2254  -2.0876  -1.7984  -1.7820  -1.5186  -1.3337  -0.5215  -0.2571
    -0.0328   0.3190   0.3327   0.4673   0.5586   0.6030   0.6402   0.6588
     0.6606   0.8124   0.9369   1.0384   1.3071   1.4880   1.8534   1.9240
     2.4297   2.8778   3.7946   3.8492   3.9739   4.3831   5.7266   5.7752
     6.1385   6.3919   6.4345   6.5176   6.5236   6.5982   6.8985   7.0456
     7.1298   7.4025   7.6519

     the Fermi energy is     0.6062 ev

!    total energy              =   -1487.43007944 Ry
     Harris-Foulkes estimate   =   -1487.43007897 Ry
     estimated scf accuracy    <       0.00000033 Ry

     The total energy is the sum of the following terms:

     one-electron contribution =   -9362.94130664 Ry
     hartree contribution      =    4748.98521936 Ry
     xc contribution           =    -636.78751958 Ry
     ewald contribution        =    3763.44716240 Ry
     electric field correction =       0.00000417 Ry
     smearing contrib. (-TS)   =      -0.13363915 Ry

     convergence has been achieved in  19 iterations

 BEEF-vdW xc energy contributions
           1 :   -567.388328179528
           2 :    525.829255888036
           3 :   -452.215119057285
           4 :    361.821628241037
           5 :   -270.510759507403
           6 :    190.378111512307
           7 :   -127.684238178691
           8 :    83.1595215695578
           9 :   -53.8738399864357
          10 :    35.4976566135898
          11 :   -24.0485940749937
          12 :    16.7132342328229
          13 :   -11.8658516731537
          14 :    8.65952354202932
          15 :   -6.57666019385795
          16 :    5.13162052671032
          17 :   -3.76862571424442
          18 :    1.91796236340826
          19 :   0.821853766711115
          20 :   -4.45494819998942
          21 :    8.44416246156641
          22 :   -11.8052937270694
          23 :    13.4768446057793
          24 :   -12.8276550255675
          25 :    10.0280370722996
          26 :   -6.05257382484217
          27 :    2.27513342746613
          28 :   0.139334952148147
          29 :  -0.722792508640964
          30 :  -0.183160613667496
          31 :   -46.0406023762880
          32 :   -33.5101281711131

     Forces acting on atoms (Ry/au):

     negative rho (up, down):  3.126E-03 0.000E+00
     atom    1 type  1   force =    -0.00000009    0.00817384   -0.00736198
     atom    2 type  1   force =     0.00707787   -0.00408813   -0.00736305
     atom    3 type  1   force =    -0.00707915   -0.00408571   -0.00736258
     atom    4 type  2   force =     0.00000061   -0.00000045    0.01676300
     atom    5 type  1   force =     0.00000134   -0.00846561    0.00010988
     atom    6 type  1   force =    -0.00733271    0.00423272    0.00010724
     atom    7 type  1   force =     0.00733024    0.00423434    0.00011043
     atom    8 type  2   force =     0.00000075   -0.00000077    0.00350604
     atom    9 type  1   force =     0.00000092    0.00005751    0.00031569
     atom   10 type  1   force =     0.00005156   -0.00002825    0.00031465
     atom   11 type  1   force =    -0.00005136   -0.00002980    0.00031473
     atom   12 type  2   force =     0.00000001    0.00000031    0.00054595

     Total force =     0.029530     Total SCF correction =     0.001687

     entering subroutine stress ...

     negative rho (up, down):  3.126E-03 0.000E+00
          total   stress  (Ry/bohr**3)                   (kbar)     P=  -11.91
  -0.00012325  -0.00000000  -0.00000000        -18.13     -0.00     -0.00
  -0.00000000  -0.00012325  -0.00000000         -0.00    -18.13     -0.00
  -0.00000000  -0.00000000   0.00000364         -0.00     -0.00      0.54

 !ASE

     Writing output data file calc.save

     General routines

     Parallel routines

   This run was terminated on:  21: 5:29  19Dec2018

   JOB DONE.
Job  /afs/slac/g/suncat/bin/suncat-tsmpirun -x LD_LIBRARY_PATH -wdir /scratch/qe773402_AcShs pw.x -in pw.inp

TID   HOST_NAME   COMMAND_LINE            STATUS            TERMINATION_TIME
00000 suncat0226 pw.x -in pw.inp   Done                     12/19/2018 21:05:29
00001 suncat0226 pw.x -in pw.inp   Done                     12/19/2018 21:05:29
00002 suncat0226 pw.x -in pw.inp   Done                     12/19/2018 21:05:29
00003 suncat0226 pw.x -in pw.inp   Done                     12/19/2018 21:05:29
00004 suncat0226 pw.x -in pw.inp   Done                     12/19/2018 21:05:29
00005 suncat0226 pw.x -in pw.inp   Done                     12/19/2018 21:05:29
00006 suncat0226 pw.x -in pw.inp   Done                     12/19/2018 21:05:29
00007 suncat0226 pw.x -in pw.inp   Done                     12/19/2018 21:05:29
00008 suncat0225 pw.x -in pw.inp   Done                     12/19/2018 21:05:29
00009 suncat0225 pw.x -in pw.inp   Done                     12/19/2018 21:05:29
00010 suncat0225 pw.x -in pw.inp   Done                     12/19/2018 21:05:29
00011 suncat0225 pw.x -in pw.inp   Done                     12/19/2018 21:05:29
00012 suncat0225 pw.x -in pw.inp   Done                     12/19/2018 21:05:29
00013 suncat0225 pw.x -in pw.inp   Done                     12/19/2018 21:05:29
00014 suncat0225 pw.x -in pw.inp   Done                     12/19/2018 21:05:29
00015 suncat0225 pw.x -in pw.inp   Done                     12/19/2018 21:05:29
00016 suncat0224 pw.x -in pw.inp   Done                     12/19/2018 21:05:29
00017 suncat0224 pw.x -in pw.inp   Done                     12/19/2018 21:05:29
00018 suncat0224 pw.x -in pw.inp   Done                     12/19/2018 21:05:29
00019 suncat0224 pw.x -in pw.inp   Done                     12/19/2018 21:05:29
00020 suncat0224 pw.x -in pw.inp   Done                     12/19/2018 21:05:29
00021 suncat0224 pw.x -in pw.inp   Done                     12/19/2018 21:05:29
00022 suncat0224 pw.x -in pw.inp   Done                     12/19/2018 21:05:29
00023 suncat0224 pw.x -in pw.inp   Done                     12/19/2018 21:05:29
00024 suncat0223 pw.x -in pw.inp   Done                     12/19/2018 21:05:29
00025 suncat0223 pw.x -in pw.inp   Done                     12/19/2018 21:05:29
00026 suncat0223 pw.x -in pw.inp   Done                     12/19/2018 21:05:29
00027 suncat0223 pw.x -in pw.inp   Done                     12/19/2018 21:05:29
00028 suncat0223 pw.x -in pw.inp   Done                     12/19/2018 21:05:29
00029 suncat0223 pw.x -in pw.inp   Done                     12/19/2018 21:05:29
00030 suncat0223 pw.x -in pw.inp   Done                     12/19/2018 21:05:29
00031 suncat0223 pw.x -in pw.inp   Done                     12/19/2018 21:05:29
00032 suncat0222 pw.x -in pw.inp   Done                     12/19/2018 21:05:29
00033 suncat0222 pw.x -in pw.inp   Done                     12/19/2018 21:05:29
00034 suncat0222 pw.x -in pw.inp   Done                     12/19/2018 21:05:29
00035 suncat0222 pw.x -in pw.inp   Done                     12/19/2018 21:05:29
00036 suncat0222 pw.x -in pw.inp   Done                     12/19/2018 21:05:29
00037 suncat0222 pw.x -in pw.inp   Done                     12/19/2018 21:05:29
00038 suncat0222 pw.x -in pw.inp   Done                     12/19/2018 21:05:29
00039 suncat0222 pw.x -in pw.inp   Done                     12/19/2018 21:05:29
00040 suncat0221 pw.x -in pw.inp   Done                     12/19/2018 21:05:29
00041 suncat0221 pw.x -in pw.inp   Done                     12/19/2018 21:05:29
00042 suncat0221 pw.x -in pw.inp   Done                     12/19/2018 21:05:29
00043 suncat0221 pw.x -in pw.inp   Done                     12/19/2018 21:05:29
00044 suncat0221 pw.x -in pw.inp   Done                     12/19/2018 21:05:29
00045 suncat0221 pw.x -in pw.inp   Done                     12/19/2018 21:05:29
00046 suncat0221 pw.x -in pw.inp   Done                     12/19/2018 21:05:29
00047 suncat0221 pw.x -in pw.inp   Done                     12/19/2018 21:05:29
00048 suncat0220 pw.x -in pw.inp   Done                     12/19/2018 21:05:29
00049 suncat0220 pw.x -in pw.inp   Done                     12/19/2018 21:05:29
00050 suncat0220 pw.x -in pw.inp   Done                     12/19/2018 21:05:29
00051 suncat0220 pw.x -in pw.inp   Done                     12/19/2018 21:05:29
00052 suncat0220 pw.x -in pw.inp   Done                     12/19/2018 21:05:29
00053 suncat0220 pw.x -in pw.inp   Done                     12/19/2018 21:05:29
00054 suncat0220 pw.x -in pw.inp   Done                     12/19/2018 21:05:29
00055 suncat0220 pw.x -in pw.inp   Done                     12/19/2018 21:05:29
00056 suncat0219 pw.x -in pw.inp   Done                     12/19/2018 21:05:29
00057 suncat0219 pw.x -in pw.inp   Done                     12/19/2018 21:05:29
00058 suncat0219 pw.x -in pw.inp   Done                     12/19/2018 21:05:29
00059 suncat0219 pw.x -in pw.inp   Done                     12/19/2018 21:05:29
00060 suncat0219 pw.x -in pw.inp   Done                     12/19/2018 21:05:29
00061 suncat0219 pw.x -in pw.inp   Done                     12/19/2018 21:05:29
00062 suncat0219 pw.x -in pw.inp   Done                     12/19/2018 21:05:29
00063 suncat0219 pw.x -in pw.inp   Done                     12/19/2018 21:05:29