     Program PWSCF v.5.1rc2 (svn rev. 11289) starts on  2Jan2019 at 12: 9:52

     Current dimensions of program PWSCF are:
     Max number of different atomic species (ntypx) = 10
     Max number of k-points (npk) =  40000
     Max angular momentum in pseudopotentials (lmaxx) =  3
     Presently stress not available with electric field

     IMPORTANT: XC functional enforced from input :
     Exchange-correlation      = BEEF-VDW ( 1  4 27 13 2)
     Any further DFT definition will be discarded
     Please, verify this is what you really want

     Subspace diagonalization in iterative solution of the eigenvalue problem:
     a serial algorithm will be used

     bravais-lattice index     =            0
     lattice parameter (alat)  =       1.8897  a.u.
     unit-cell volume          =    8008.0388 (a.u.)^3
     number of atoms/cell      =           12
     number of atomic types    =            2
     number of electrons       =       132.00
     number of Kohn-Sham states=           96
     kinetic-energy cutoff     =      36.7493  Ry
     charge density cutoff     =     367.4932  Ry
     convergence threshold     =      1.0E-06
     mixing beta               =       0.1000
     number of iterations used =           10  plain     mixing
     Exchange-correlation      = BEEF-VDW ( 1  4 27 13 2)
     nstep                     =           50

     celldm(1)=   1.889726  celldm(2)=   0.000000  celldm(3)=   0.000000
     celldm(4)=   0.000000  celldm(5)=   0.000000  celldm(6)=   0.000000

     crystal axes: (cart. coord. in units of alat)
               a(1) = (   7.268710   0.000000   0.000000 )
               a(2) = (  -3.634355   6.294888   0.000000 )
               a(3) = (   0.000000   0.000000  25.934877 )

     reciprocal axes: (cart. coord. in units 2 pi/alat)
               b(1) = (  0.137576  0.079430  0.000000 )
               b(2) = (  0.000000  0.158859  0.000000 )
               b(3) = (  0.000000  0.000000  0.038558 )

     PseudoPot. # 1 for Y  read from file:
     /afs/slac.stanford.edu/u/if/mamunm/psp/gbrv1.5pbe/Y.UPF
     MD5 check sum: d034151ed7554c50b6e82763ed42c788
     Pseudo is Ultrasoft + core correction, Zval = 11.0
     Generated by new atomic code, or converted to UPF format
     Using radial grid of  885 points,  6 beta functions with:
                l(1) =   0
                l(2) =   0
                l(3) =   1
                l(4) =   1
                l(5) =   2
                l(6) =   2
     Q(r) pseudized with  8 coefficients,  rinner =    1.200   1.200   1.200
                                                       1.200   1.200

     PseudoPot. # 2 for La read from file:
     /afs/slac.stanford.edu/u/if/mamunm/psp/gbrv1.5pbe/La.UPF
     MD5 check sum: 5937b0c7494ba0601a847275249473aa
     Pseudo is Ultrasoft + core correction, Zval = 11.0
     Generated by new atomic code, or converted to UPF format
     Using radial grid of  995 points,  8 beta functions with:
                l(1) =   0
                l(2) =   0
                l(3) =   1
                l(4) =   1
                l(5) =   2
                l(6) =   2
                l(7) =   3
                l(8) =   3
     Q(r) pseudized with  8 coefficients,  rinner =    1.700   1.700   1.700
                                                       1.700   1.700   1.700
                                                       1.700

     vdW kernel table read from file vdW_kernel_table
     MD5 check sum: 095c7af220d748ca6e76c0b4c6cfb241

     atomic species   valence    mass     pseudopotential
        Y1            11.00    88.90584     Y ( 1.00)
        La1           11.00   138.90547     La( 1.00)

     No symmetry found

   Cartesian axes

     site n.     atom                  positions (alat units)
         1           Y1  tau(   1) = (   0.0000000   0.0000000  10.0000000  )
         2           Y1  tau(   2) = (  -1.8171776   3.1474440  10.0000000  )
         3           Y1  tau(   3) = (   1.8171776   3.1474440  10.0000000  )
         4           La1 tau(   4) = (   3.6343552   0.0000000  10.0000000  )
         5           Y1  tau(   5) = (   3.6343552   2.0982960  12.9674386  )
         6           Y1  tau(   6) = (   1.8171776   5.2457399  12.9674386  )
         7           Y1  tau(   7) = (  -1.8171776   5.2457399  12.9674386  )
         8           La1 tau(   8) = (   0.0000000   2.0982960  12.9674386  )
         9           Y1  tau(   9) = (  -0.0000000   4.1965919  15.9348772  )
        10           Y1  tau(  10) = (   1.8171776   1.0491480  15.9348772  )
        11           Y1  tau(  11) = (   5.4515328   1.0491480  15.9348772  )
        12           La1 tau(  12) = (   3.6343552   4.1965919  15.9348772  )

     number of k points=    20  Fermi-Dirac smearing, width (Ry)=  0.0110
                       cart. coord. in units 2pi/alat
        k(    1) = (   0.0000000   0.0000000   0.0000000), wk =   0.0555556
        k(    2) = (   0.0000000   0.0264765   0.0000000), wk =   0.1111111
        k(    3) = (   0.0000000   0.0529530   0.0000000), wk =   0.1111111
        k(    4) = (   0.0000000  -0.0794295   0.0000000), wk =   0.0555556
        k(    5) = (   0.0229293   0.0132383   0.0000000), wk =   0.1111111
        k(    6) = (   0.0229293   0.0397148   0.0000000), wk =   0.1111111
        k(    7) = (   0.0229293   0.0661913   0.0000000), wk =   0.1111111
        k(    8) = (   0.0229293  -0.0661913   0.0000000), wk =   0.1111111
        k(    9) = (   0.0229293  -0.0397148   0.0000000), wk =   0.1111111
        k(   10) = (   0.0229293  -0.0132383   0.0000000), wk =   0.1111111
        k(   11) = (   0.0458587   0.0264765   0.0000000), wk =   0.1111111
        k(   12) = (   0.0458587   0.0529530   0.0000000), wk =   0.1111111
        k(   13) = (   0.0458587   0.0794295   0.0000000), wk =   0.1111111
        k(   14) = (   0.0458587  -0.0529530   0.0000000), wk =   0.1111111
        k(   15) = (   0.0458587  -0.0264765   0.0000000), wk =   0.1111111
        k(   16) = (   0.0458587   0.0000000   0.0000000), wk =   0.1111111
        k(   17) = (  -0.0687880  -0.0397148   0.0000000), wk =   0.0555556
        k(   18) = (  -0.0687880  -0.0132383   0.0000000), wk =   0.1111111
        k(   19) = (  -0.0687880   0.0132383   0.0000000), wk =   0.1111111
        k(   20) = (  -0.0687880  -0.1191443   0.0000000), wk =   0.0555556

     Largest allocated arrays     est. size (Mb)     dimensions
     Largest temporary arrays     est. size (Mb)     dimensions

     Initial potential from superposition of free atoms
     Check: negative starting charge=   -0.211551

     starting charge  131.86357, renormalised to  132.00000

     negative rho (up, down):  2.118E-01 0.000E+00

     *
     * You are using vdW-DF for exchange-correlation in this calculation.
     * Please cite the following three references that made this development
     * possible:
     *
     *   M. Dion, H. Rydberg, E. Schroder, D. C. Langreth, and
     *   B. I. Lundqvist, Phys. Rev. Lett. 92, 246401 (2004).
     *
     *   T. Thonhauser, V. R. Cooper, S. Li, A. Puzder, P. Hyldgaard, and
     *   D. C. Langreth, Phys. Rev. B 76, 125112 (2007).
     *
     *   G. Roman-Perez and J. M. Soler, Phys. Rev. Lett. 103, 096102 (2009).
     *
     *
     * If you are using vdW-DF2, please also cite:
     *
     *   K. Lee, E. D. Murray, L. Kong, B. I. Lundqvist, and
     *   D. C. Langreth, Phys. Rev. B 82, 081101(R) (2010).
     *
     *
     * If you are calculating the stress with vdW-DF, please also cite:
     *
     *   R. Sabatini, E. Kucukbenli, B. Kolb, T. Thonhauser, and
     *   S. de Gironcoli, J. Phys.: Condens. Matter 24, 424209 (2012).
     *

     Carrying out vdW-DF run using the following parameters:

     Nqs =      20    Nr_points =    1024   r_max =   100.000
     q_mesh =
               0.00001000     0.04494208     0.09755937     0.15916263
               0.23128650     0.31572767     0.41458969     0.53033537
               0.66584808     0.82450364     1.01025438     1.22772762
               1.48234092     1.78043706     2.12944203     2.53805004
               3.01644009     3.57652955     4.23227104     5.00000000

     Gradients computed in reciprocal space

     Adding external electric field

     Computed dipole along edir(3) :
        Dipole                0.0000 Ry au,          0.0000 Debye
        Dipole field          0.0000 Ry au

        Potential amp.       -0.0000 Ry
        Total length         47.7846 bohr

     Starting wfc are  177 randomized atomic wfcs

     Self-consistent Calculation

     iteration #  1     ecut=    36.75 Ry     beta=0.10
     Davidson diagonalization with overlap
     ethr =  1.00E-02,  avg # of iterations =  1.2

[...]

     total energy              =   -1154.33981223 Ry
     Harris-Foulkes estimate   =   -1155.86467457 Ry
     estimated scf accuracy    <       8.52273735 Ry

[...]

     iteration # 11     ecut=    36.75 Ry     beta=0.10
     Davidson diagonalization with overlap
     c_bands:  1 eigenvalues not converged
     c_bands:  1 eigenvalues not converged
     ethr =  2.18E-06,  avg # of iterations = 14.5

[...]

     End of self-consistent calculation

          k = 0.0000 0.0000 0.0000 ( 30089 PWs)   bands (ev):

   -42.1956 -42.1953 -42.1695 -42.1695 -42.1695 -42.1694 -41.6650 -41.6388
   -41.6388 -31.9480 -31.9476 -31.4727 -22.2628 -22.2582 -22.2195 -22.1918
   -22.1804 -22.1803 -22.1722 -22.1721 -22.1717 -22.1717 -22.1550 -22.1549
   -22.0085 -22.0057 -21.9376 -21.9376 -21.9358 -21.9358 -21.7736 -21.6860
   -21.6860 -21.5852 -21.5608 -21.5608 -21.5282 -21.4415 -21.4415 -15.5905
   -15.5713 -15.5202 -15.5202 -15.5154 -15.5153 -15.1097 -15.0916 -15.0916
    -2.7140  -1.8841  -1.0386  -0.5368  -0.5368  -0.4188  -0.4188  -0.1071
    -0.1071   0.0366   0.1758   0.3671   0.4351   0.4351   0.5267   0.8895
     0.8895   1.0225   1.3996   1.4726   1.7734   1.7884   1.9146   1.9146
     2.0339   2.2283   2.2283   2.3671   2.4537   2.5379   2.5636   2.5636
     2.7215   2.7215   2.7782   2.7783   2.7893   2.7893   2.7991   2.8408
     2.8409   2.8744   2.8763   2.8764   2.8858   2.9026   2.9028   2.9506

[...]

          k =-0.0688-0.0397 0.0000 ( 30144 PWs)   bands (ev):

[...]

     the Fermi energy is     1.2037 ev

!    total energy              =   -1155.18931225 Ry
     Harris-Foulkes estimate   =   -1155.18931733 Ry
     estimated scf accuracy    <       0.00000096 Ry

     The total energy is the sum of the following terms:

     one-electron contribution =   -5117.58089272 Ry
     hartree contribution      =    2555.27183695 Ry
     xc contribution           =    -406.05978492 Ry
     ewald contribution        =    1813.31570279 Ry
     electric field correction =       0.00000000 Ry
     smearing contrib. (-TS)   =      -0.13617436 Ry

     convergence has been achieved in  20 iterations

 BEEF-vdW xc energy contributions
           1 :   -355.986307494666
           2 :    322.720403888378
           3 :   -264.866570454879
           4 :    195.970217875909
           5 :   -129.242685182310
           6 :    73.7114387531616
           7 :   -33.1446069989267
           8 :    7.30307656764455
           9 :    5.99524181404223
[...]
                l(2) =   0
                l(3) =   1
                l(4) =   1
                l(5) =   2
                l(6) =   2
     Q(r) pseudized with  8 coefficients,  rinner =    1.200   1.200   1.200
                                                       1.200   1.200

     PseudoPot. # 2 for La read from file:
     /afs/slac.stanford.edu/u/if/mamunm/psp/gbrv1.5pbe/La.UPF
     MD5 check sum: 5937b0c7494ba0601a847275249473aa
     Pseudo is Ultrasoft + core correction, Zval = 11.0
     Generated by new atomic code, or converted to UPF format
     Using radial grid of  995 points,  8 beta functions with:
                l(1) =   0
                l(2) =   0
                l(3) =   1
                l(4) =   1
                l(5) =   2
                l(6) =   2
                l(7) =   3
                l(8) =   3
     Q(r) pseudized with  8 coefficients,  rinner =    1.700   1.700   1.700
                                                       1.700   1.700   1.700
                                                       1.700

     vdW kernel table read from file vdW_kernel_table
     MD5 check sum: 095c7af220d748ca6e76c0b4c6cfb241

     atomic species   valence    mass     pseudopotential
        Y1            11.00    88.90584     Y ( 1.00)
        La1           11.00   138.90547     La( 1.00)

     No symmetry found

   Cartesian axes

     site n.     atom                  positions (alat units)
         1           Y1  tau(   1) = (   0.0000000   0.0000000  10.0000000  )
         2           Y1  tau(   2) = (  -1.8171776   3.1474440  10.0000000  )
         3           Y1  tau(   3) = (   1.8171776   3.1474440  10.0000000  )
         4           La1 tau(   4) = (   3.6343552   0.0000000  10.0000000  )
         5           Y1  tau(   5) = (   3.6343552   2.0982960  12.9674386  )
         6           Y1  tau(   6) = (   1.8171776   5.2457399  12.9674386  )
         7           Y1  tau(   7) = (  -1.8171776   5.2457399  12.9674386  )
         8           La1 tau(   8) = (   0.0000000   2.0982960  12.9674386  )
         9           Y1  tau(   9) = (  -0.0000405   4.2030020  15.8189965  )
        10           Y1  tau(  10) = (   1.8227336   1.0459726  15.8189249  )
        11           Y1  tau(  11) = (   5.4459143   1.0459793  15.8190164  )
        12           La1 tau(  12) = (   3.6343871   4.1965536  15.9534413  )

     number of k points=    20  Fermi-Dirac smearing, width (Ry)=  0.0110
                       cart. coord. in units 2pi/alat
        k(    1) = (   0.0000000   0.0000000   0.0000000), wk =   0.0555556
        k(    2) = (   0.0000000   0.0264765   0.0000000), wk =   0.1111111
        k(    3) = (   0.0000000   0.0529530   0.0000000), wk =   0.1111111
        k(    4) = (   0.0000000  -0.0794295   0.0000000), wk =   0.0555556
        k(    5) = (   0.0229293   0.0132383   0.0000000), wk =   0.1111111
        k(    6) = (   0.0229293   0.0397148   0.0000000), wk =   0.1111111
        k(    7) = (   0.0229293   0.0661913   0.0000000), wk =   0.1111111
        k(    8) = (   0.0229293  -0.0661913   0.0000000), wk =   0.1111111
        k(    9) = (   0.0229293  -0.0397148   0.0000000), wk =   0.1111111
        k(   10) = (   0.0229293  -0.0132383   0.0000000), wk =   0.1111111
        k(   11) = (   0.0458587   0.0264765   0.0000000), wk =   0.1111111
        k(   12) = (   0.0458587   0.0529530   0.0000000), wk =   0.1111111
        k(   13) = (   0.0458587   0.0794295   0.0000000), wk =   0.1111111
        k(   14) = (   0.0458587  -0.0529530   0.0000000), wk =   0.1111111
        k(   15) = (   0.0458587  -0.0264765   0.0000000), wk =   0.1111111
        k(   16) = (   0.0458587   0.0000000   0.0000000), wk =   0.1111111
        k(   17) = (  -0.0687880  -0.0397148   0.0000000), wk =   0.0555556
        k(   18) = (  -0.0687880  -0.0132383   0.0000000), wk =   0.1111111
        k(   19) = (  -0.0687880   0.0132383   0.0000000), wk =   0.1111111
        k(   20) = (  -0.0687880  -0.1191443   0.0000000), wk =   0.0555556

     Largest allocated arrays     est. size (Mb)     dimensions
     Largest temporary arrays     est. size (Mb)     dimensions

     Initial potential from superposition of free atoms
     Check: negative starting charge=   -0.211192

     starting charge  131.86357, renormalised to  132.00000

[...]

     *
     * You are using vdW-DF for exchange-correlation in this calculation.
     * Please cite the following three references that made this development
     * possible:
     *
     *   M. Dion, H. Rydberg, E. Schroder, D. C. Langreth, and
     *   B. I. Lundqvist, Phys. Rev. Lett. 92, 246401 (2004).
     *
     *   T. Thonhauser, V. R. Cooper, S. Li, A. Puzder, P. Hyldgaard, and
     *   D. C. Langreth, Phys. Rev. B 76, 125112 (2007).
     *
     *   G. Roman-Perez and J. M. Soler, Phys. Rev. Lett. 103, 096102 (2009).
     *
     *
     * If you are using vdW-DF2, please also cite:
     *
     *   K. Lee, E. D. Murray, L. Kong, B. I. Lundqvist, and
     *   D. C. Langreth, Phys. Rev. B 82, 081101(R) (2010).
     *
     *
     * If you are calculating the stress with vdW-DF, please also cite:
     *
     *   R. Sabatini, E. Kucukbenli, B. Kolb, T. Thonhauser, and
     *   S. de Gironcoli, J. Phys.: Condens. Matter 24, 424209 (2012).
     *

     Carrying out vdW-DF run using the following parameters:

     Nqs =      20    Nr_points =    1024   r_max =   100.000
     q_mesh =
               0.00001000     0.04494208     0.09755937     0.15916263
               0.23128650     0.31572767     0.41458969     0.53033537
               0.66584808     0.82450364     1.01025438     1.22772762
               1.48234092     1.78043706     2.12944203     2.53805004
               3.01644009     3.57652955     4.23227104     5.00000000

     Gradients computed in reciprocal space

[...]

     Starting wfc are  177 randomized atomic wfcs

     Self-consistent Calculation

[...]

     iteration # 11     ecut=    36.75 Ry     beta=0.10
     Davidson diagonalization with overlap
     c_bands:  1 eigenvalues not converged
     c_bands:  1 eigenvalues not converged
     c_bands:  1 eigenvalues not converged
     c_bands:  1 eigenvalues not converged
     c_bands:  1 eigenvalues not converged
     c_bands:  1 eigenvalues not converged
     ethr =  3.62E-06,  avg # of iterations = 14.3

[...]

     total energy              =   -1155.20597513 Ry
     Harris-Foulkes estimate   =   -1155.20597605 Ry
     estimated scf accuracy    <       0.00000284 Ry

     iteration # 19     ecut=    36.75 Ry     beta=0.10
     Davidson diagonalization with overlap
     ethr =  2.15E-09,  avg # of iterations =  4.5

[...]

     negative rho (up, down):  1.515E-01 0.000E+00

     Adding external electric field

     Computed dipole along edir(3) :
        Dipole                0.0103 Ry au,          0.0262 Debye
        Dipole field          0.0000 Ry au

        Potential amp.       -0.0015 Ry
        Total length         47.7846 bohr

     End of self-consistent calculation

[...]

          k = 0.0459 0.0000 0.0000 ( 30129 PWs)   bands (ev):

[...]

          k =-0.0688-0.1191 0.0000 ( 30144 PWs)   bands (ev):

   -42.1944 -42.1857 -42.1771 -42.1064 -42.0975 -42.0888 -41.6099 -41.6013
   -41.5925 -31.9803 -31.9527 -31.4136 -22.2097 -22.1981 -22.1881 -22.1721
   -22.1331 -22.1263 -22.1119 -22.1043 -22.1028 -22.0973 -22.0784 -22.0765
   -22.0294 -22.0278 -22.0019 -21.9987 -21.9555 -21.8764 -21.6689 -21.5719
   -21.5657 -21.5581 -21.5486 -21.5231 -21.5129 -21.5036 -21.4117 -15.6144
   -15.5884 -15.5731 -15.5559 -15.5498 -15.5310 -15.0715 -15.0685 -15.0486
    -1.5463  -1.5041  -0.8040  -0.7223  -0.1969   0.0264   0.0380   0.1833
     0.4050   0.5316   0.7372   0.9208   0.9520   0.9872   1.0652   1.1282
     1.1320   1.1857   1.2069   1.2198   1.2672   1.3338   1.4568   1.4775
     1.5327   1.5764   1.6853   1.7730   1.8619   1.8884   2.0216   2.0843
     2.1238   2.1888   2.3679   2.4573   2.5845   2.6144   2.6682   2.6924
     2.7619   2.7661   2.7960   2.8244   2.8576   2.8698   2.9993   3.0489

     the Fermi energy is     1.2038 ev

!    total energy              =   -1155.20596946 Ry
     Harris-Foulkes estimate   =   -1155.20597581 Ry
     estimated scf accuracy    <       0.00000085 Ry

     The total energy is the sum of the following terms:

     one-electron contribution =   -5178.22956542 Ry
     hartree contribution      =    2585.76245174 Ry
     xc contribution           =    -406.14914292 Ry
     ewald contribution        =    1843.54560821 Ry
     electric field correction =       0.00000017 Ry
     smearing contrib. (-TS)   =      -0.13532125 Ry

     convergence has been achieved in  19 iterations

 BEEF-vdW xc energy contributions
           1 :   -356.480410731739
           2 :    323.239662095282
           3 :   -265.405073386803
           4 :    196.490276201025
           5 :   -129.705453591779
           6 :    74.1101899686335
           7 :   -33.5115617798340
           8 :    7.68525787747501
           9 :    5.56948883989810
          10 :   -8.92277291278225
          11 :    5.05124829296926
          12 :    3.14785812082749
          13 :   -12.3986878043128
          14 :    19.4348692342604
          15 :   -21.8668421967626
          16 :    18.9885871615678
          17 :   -11.9486464258881
          18 :    3.11224045206887
          19 :    5.02295483937218
          20 :   -10.7483708559446
          21 :    13.4802908334378
          22 :   -13.5230885609489
          23 :    11.5958563585937
          24 :   -8.47581951110419
          25 :    4.88260793394511
          26 :   -1.49421655747045
          27 :   -1.08087383763797
          28 :    2.43651344470578
          29 :   -2.51615076774675
          30 :    1.63186142406033
          31 :   -32.5813610719205
          32 :   -22.6853124799860

     Forces acting on atoms (Ry/au):

     negative rho (up, down):  1.515E-01 0.000E+00
     atom    1 type  1   force =    -0.00000160   -0.00104673    0.00623954
     atom    2 type  1   force =    -0.00090663    0.00052150    0.00623503
     atom    3 type  1   force =     0.00090745    0.00052409    0.00623828
     atom    4 type  2   force =    -0.00000115    0.00000004   -0.00173347
     atom    5 type  1   force =     0.00000312    0.00094858   -0.00392244
     atom    6 type  1   force =     0.00082338   -0.00046955   -0.00391465
     atom    7 type  1   force =    -0.00082335   -0.00047240   -0.00392023
     atom    8 type  2   force =    -0.00000289    0.00000000   -0.00606536
     atom    9 type  1   force =     0.00000352   -0.00112772    0.00002772
     atom   10 type  1   force =    -0.00098027    0.00056112    0.00003330
     atom   11 type  1   force =     0.00098364    0.00055612    0.00002369
     atom   12 type  2   force =    -0.00000524    0.00000495    0.00075860

     Total force =     0.014594     Total SCF correction =     0.001297

     entering subroutine stress ...

     negative rho (up, down):  1.515E-01 0.000E+00
          total   stress  (Ry/bohr**3)                   (kbar)     P=   -2.68
  -0.00002107  -0.00000000   0.00000000         -3.10     -0.00      0.00
  -0.00000000  -0.00002108  -0.00000000         -0.00     -3.10     -0.00
   0.00000000  -0.00000000  -0.00001253          0.00     -0.00     -1.84

 !ASE

     Writing output data file calc.save

     General routines

     Parallel routines

   This run was terminated on:  14:11:38   2Jan2019

   JOB DONE.
Job  /afs/slac/g/suncat/bin/suncat-tsmpirun -x LD_LIBRARY_PATH -wdir /scratch/qe649424_dxyip pw.x -in pw.inp

TID   HOST_NAME   COMMAND_LINE            STATUS            TERMINATION_TIME
00000 suncat0243 pw.x -in pw.inp   Done                     01/02/2019 14:11:38
00001 suncat0243 pw.x -in pw.inp   Done                     01/02/2019 14:11:38
00002 suncat0243 pw.x -in pw.inp   Done                     01/02/2019 14:11:38
00003 suncat0243 pw.x -in pw.inp   Done                     01/02/2019 14:11:38
00004 suncat0243 pw.x -in pw.inp   Done                     01/02/2019 14:11:38
00005 suncat0243 pw.x -in pw.inp   Done                     01/02/2019 14:11:38
00006 suncat0243 pw.x -in pw.inp   Done                     01/02/2019 14:11:38
00007 suncat0243 pw.x -in pw.inp   Done                     01/02/2019 14:11:38
00008 suncat0242 pw.x -in pw.inp   Done                     01/02/2019 14:11:38
00009 suncat0242 pw.x -in pw.inp   Done                     01/02/2019 14:11:38
00010 suncat0242 pw.x -in pw.inp   Done                     01/02/2019 14:11:38
00011 suncat0242 pw.x -in pw.inp   Done                     01/02/2019 14:11:38
00012 suncat0242 pw.x -in pw.inp   Done                     01/02/2019 14:11:38
00013 suncat0242 pw.x -in pw.inp   Done                     01/02/2019 14:11:38
00014 suncat0242 pw.x -in pw.inp   Done                     01/02/2019 14:11:38
00015 suncat0242 pw.x -in pw.inp   Done                     01/02/2019 14:11:38
00016 suncat0241 pw.x -in pw.inp   Done                     01/02/2019 14:11:38
00017 suncat0241 pw.x -in pw.inp   Done                     01/02/2019 14:11:38
00018 suncat0241 pw.x -in pw.inp   Done                     01/02/2019 14:11:38
00019 suncat0241 pw.x -in pw.inp   Done                     01/02/2019 14:11:38
00020 suncat0241 pw.x -in pw.inp   Done                     01/02/2019 14:11:38
00021 suncat0241 pw.x -in pw.inp   Done                     01/02/2019 14:11:38
00022 suncat0241 pw.x -in pw.inp   Done                     01/02/2019 14:11:38
00023 suncat0241 pw.x -in pw.inp   Done                     01/02/2019 14:11:38
00024 suncat0240 pw.x -in pw.inp   Done                     01/02/2019 14:11:38
00025 suncat0240 pw.x -in pw.inp   Done                     01/02/2019 14:11:38
00026 suncat0240 pw.x -in pw.inp   Done                     01/02/2019 14:11:38
00027 suncat0240 pw.x -in pw.inp   Done                     01/02/2019 14:11:38
00028 suncat0240 pw.x -in pw.inp   Done                     01/02/2019 14:11:38
00029 suncat0240 pw.x -in pw.inp   Done                     01/02/2019 14:11:38
00030 suncat0240 pw.x -in pw.inp   Done                     01/02/2019 14:11:38
00031 suncat0240 pw.x -in pw.inp   Done                     01/02/2019 14:11:38
00032 suncat0209 pw.x -in pw.inp   Done                     01/02/2019 14:11:38
00033 suncat0209 pw.x -in pw.inp   Done                     01/02/2019 14:11:38
00034 suncat0209 pw.x -in pw.inp   Done                     01/02/2019 14:11:38
00035 suncat0209 pw.x -in pw.inp   Done                     01/02/2019 14:11:38
00036 suncat0209 pw.x -in pw.inp   Done                     01/02/2019 14:11:38
00037 suncat0209 pw.x -in pw.inp   Done                     01/02/2019 14:11:38
00038 suncat0209 pw.x -in pw.inp   Done                     01/02/2019 14:11:38
00039 suncat0209 pw.x -in pw.inp   Done                     01/02/2019 14:11:38
00040 suncat0205 pw.x -in pw.inp   Done                     01/02/2019 14:11:38
00041 suncat0205 pw.x -in pw.inp   Done                     01/02/2019 14:11:38
00042 suncat0205 pw.x -in pw.inp   Done                     01/02/2019 14:11:38
00043 suncat0205 pw.x -in pw.inp   Done                     01/02/2019 14:11:38
00044 suncat0205 pw.x -in pw.inp   Done                     01/02/2019 14:11:38
00045 suncat0205 pw.x -in pw.inp   Done                     01/02/2019 14:11:38
00046 suncat0205 pw.x -in pw.inp   Done                     01/02/2019 14:11:38
00047 suncat0205 pw.x -in pw.inp   Done                     01/02/2019 14:11:38
00048 suncat0204 pw.x -in pw.inp   Done                     01/02/2019 14:11:38
00049 suncat0204 pw.x -in pw.inp   Done                     01/02/2019 14:11:38
00050 suncat0204 pw.x -in pw.inp   Done                     01/02/2019 14:11:38
00051 suncat0204 pw.x -in pw.inp   Done                     01/02/2019 14:11:38
00052 suncat0204 pw.x -in pw.inp   Done                     01/02/2019 14:11:38
00053 suncat0204 pw.x -in pw.inp   Done                     01/02/2019 14:11:38
00054 suncat0204 pw.x -in pw.inp   Done                     01/02/2019 14:11:38
00055 suncat0204 pw.x -in pw.inp   Done                     01/02/2019 14:11:38
00056 suncat0203 pw.x -in pw.inp   Done                     01/02/2019 14:11:38
00057 suncat0203 pw.x -in pw.inp   Done                     01/02/2019 14:11:38
00058 suncat0203 pw.x -in pw.inp   Done                     01/02/2019 14:11:38
00059 suncat0203 pw.x -in pw.inp   Done                     01/02/2019 14:11:38
00060 suncat0203 pw.x -in pw.inp   Done                     01/02/2019 14:11:38
00061 suncat0203 pw.x -in pw.inp   Done                     01/02/2019 14:11:38
00062 suncat0203 pw.x -in pw.inp   Done                     01/02/2019 14:11:38
00063 suncat0203 pw.x -in pw.inp   Done                     01/02/2019 14:11:38