     Program PWSCF v.5.1rc2 (svn rev. 11289) starts on 27Dec2018 at  7:37:40

     Current dimensions of program PWSCF are:
     Max number of different atomic species (ntypx) = 10
     Max number of k-points (npk) =  40000
     Max angular momentum in pseudopotentials (lmaxx) =  3
     Presently stress not available with electric field

     IMPORTANT: XC functional enforced from input :
     Exchange-correlation      = BEEF-VDW ( 1  4 27 13 2)
     Any further DFT definition will be discarded
     Please, verify this is what you really want

     Subspace diagonalization in iterative solution of the eigenvalue problem:
     a serial algorithm will be used

     bravais-lattice index     =            0
     lattice parameter (alat)  =       1.8897  a.u.
     unit-cell volume          =    4969.9755 (a.u.)^3
     number of atoms/cell      =           12
     number of atomic types    =            2
     number of electrons       =       156.00
     number of Kohn-Sham states=          108
     kinetic-energy cutoff     =      36.7493  Ry
     charge density cutoff     =     367.4932  Ry
     convergence threshold     =      1.0E-06
     mixing beta               =       0.1000
     number of iterations used =           10  plain     mixing
     Exchange-correlation      = BEEF-VDW ( 1  4 27 13 2)
     nstep                     =           50

     celldm(1)=   1.889726  celldm(2)=   0.000000  celldm(3)=   0.000000
     celldm(4)=   0.000000  celldm(5)=   0.000000  celldm(6)=   0.000000

     crystal axes: (cart. coord. in units of alat)
               a(1) = (   5.857839   0.000000   0.000000 )
               a(2) = (  -2.928919   5.073037   0.000000 )
               a(3) = (   0.000000   0.000000  24.782905 )

     reciprocal axes: (cart. coord. in units 2 pi/alat)
               b(1) = (  0.170711  0.098560  0.000000 )
               b(2) = (  0.000000  0.197121  0.000000 )
               b(3) = (  0.000000  0.000000  0.040350 )

     PseudoPot. # 1 for Nb read from file:
     /afs/slac.stanford.edu/u/if/mamunm/psp/gbrv1.5pbe/Nb.UPF
     MD5 check sum: 573aab8a2fa660278ed4a62cd769473f
     Pseudo is Ultrasoft + core correction, Zval = 13.0
     Generated by new atomic code, or converted to UPF format
     Using radial grid of  887 points,  6 beta functions with:
                l(1) =   0
                l(2) =   0
                l(3) =   1
                l(4) =   1
                l(5) =   2
                l(6) =   2
     Q(r) pseudized with  6 coefficients,  rinner =    1.000   1.000   1.000
                                                       1.000   1.000

     PseudoPot. # 2 for V  read from file:
     /afs/slac.stanford.edu/u/if/mamunm/psp/gbrv1.5pbe/V.UPF
     MD5 check sum: 22b79981416ebb76fdaf5b1b8640f6fb
     Pseudo is Ultrasoft + core correction, Zval = 13.0
     Generated by new atomic code, or converted to UPF format
     Using radial grid of  853 points,  6 beta functions with:
                l(1) =   0
                l(2) =   0
                l(3) =   1
                l(4) =   1
                l(5) =   2
                l(6) =   2
     Q(r) pseudized with  8 coefficients,  rinner =    1.100   1.100   1.100
                                                       1.100   1.100

     vdW kernel table read from file vdW_kernel_table
     MD5 check sum: 095c7af220d748ca6e76c0b4c6cfb241

     atomic species   valence    mass     pseudopotential
        Nb1           13.00    92.90637     Nb( 1.00)
        V1            13.00    50.94150     V ( 1.00)

     No symmetry found

   Cartesian axes

     site n.     atom                  positions (alat units)
         1           Nb1 tau(   1) = (   0.0000000   0.0000000  10.0000000  )
         2           Nb1 tau(   2) = (  -1.4644596   2.5365185  10.0000000  )
         3           Nb1 tau(   3) = (   1.4644596   2.5365185  10.0000000  )
         4           V1  tau(   4) = (   2.9289193   0.0000000  10.0000000  )
         5           Nb1 tau(   5) = (   2.9289193   1.6910123  12.3914526  )
         6           Nb1 tau(   6) = (   1.4644596   4.2275309  12.3914526  )
         7           Nb1 tau(   7) = (  -1.4644596   4.2275309  12.3914526  )
         8           V1  tau(   8) = (   0.0000000   1.6910123  12.3914526  )
         9           Nb1 tau(   9) = (  -0.0000000   3.3820247  14.7829052  )
        10           Nb1 tau(  10) = (   1.4644596   0.8455062  14.7829052  )
        11           Nb1 tau(  11) = (   4.3933789   0.8455062  14.7829052  )
        12           V1  tau(  12) = (   2.9289193   3.3820247  14.7829052  )

     number of k points=    20  Fermi-Dirac smearing, width (Ry)=  0.0110
                       cart. coord. in units 2pi/alat
        k(    1) = (   0.0000000   0.0000000   0.0000000), wk =   0.0555556
        k(    2) = (   0.0000000   0.0328534   0.0000000), wk =   0.1111111
        k(    3) = (   0.0000000   0.0657069   0.0000000), wk =   0.1111111
        k(    4) = (   0.0000000  -0.0985603   0.0000000), wk =   0.0555556
        k(    5) = (   0.0284519   0.0164267   0.0000000), wk =   0.1111111
        k(    6) = (   0.0284519   0.0492801   0.0000000), wk =   0.1111111
        k(    7) = (   0.0284519   0.0821336   0.0000000), wk =   0.1111111
        k(    8) = (   0.0284519  -0.0821336   0.0000000), wk =   0.1111111
        k(    9) = (   0.0284519  -0.0492801   0.0000000), wk =   0.1111111
        k(   10) = (   0.0284519  -0.0164267   0.0000000), wk =   0.1111111
        k(   11) = (   0.0569038   0.0328534   0.0000000), wk =   0.1111111
        k(   12) = (   0.0569038   0.0657069   0.0000000), wk =   0.1111111
        k(   13) = (   0.0569038   0.0985603   0.0000000), wk =   0.1111111
        k(   14) = (   0.0569038  -0.0657069   0.0000000), wk =   0.1111111
        k(   15) = (   0.0569038  -0.0328534   0.0000000), wk =   0.1111111
        k(   16) = (   0.0569038   0.0000000   0.0000000), wk =   0.1111111
        k(   17) = (  -0.0853557  -0.0492801   0.0000000), wk =   0.0555556
        k(   18) = (  -0.0853557  -0.0164267   0.0000000), wk =   0.1111111
        k(   19) = (  -0.0853557   0.0164267   0.0000000), wk =   0.1111111
        k(   20) = (  -0.0853557  -0.1478404   0.0000000), wk =   0.0555556

     Largest allocated arrays     est. size (Mb)     dimensions
     Largest temporary arrays     est. size (Mb)     dimensions

     Initial potential from superposition of free atoms
     Check: negative starting charge=   -0.006464

     starting charge  155.97172, renormalised to  156.00000

     negative rho (up, down):  6.465E-03 0.000E+00

     *
     * You are using vdW-DF for exchange-correlation in this calculation.
     * Please cite the following three references that made this development
     * possible:
     *
     *   M. Dion, H. Rydberg, E. Schroder, D. C. Langreth, and
     *   B. I. Lundqvist, Phys. Rev. Lett. 92, 246401 (2004).
     *
     *   T. Thonhauser, V. R. Cooper, S. Li, A. Puzder, P. Hyldgaard, and
     *   D. C. Langreth, Phys. Rev. B 76, 125112 (2007).
     *
     *   G. Roman-Perez and J. M. Soler, Phys. Rev. Lett. 103, 096102 (2009).
     *
     *
     * If you are using vdW-DF2, please also cite:
     *
     *   K. Lee, E. D. Murray, L. Kong, B. I. Lundqvist, and
     *   D. C. Langreth, Phys. Rev. B 82, 081101(R) (2010).
     *
     *
     * If you are calculating the stress with vdW-DF, please also cite:
     *
     *   R. Sabatini, E. Kucukbenli, B. Kolb, T. Thonhauser, and
     *   S. de Gironcoli, J. Phys.: Condens. Matter 24, 424209 (2012).
     *

     Carrying out vdW-DF run using the following parameters:

     Nqs =      20    Nr_points =    1024   r_max =   100.000
     q_mesh =
               0.00001000     0.04494208     0.09755937     0.15916263
               0.23128650     0.31572767     0.41458969     0.53033537
               0.66584808     0.82450364     1.01025438     1.22772762
               1.48234092     1.78043706     2.12944203     2.53805004
               3.01644009     3.57652955     4.23227104     5.00000000

     Gradients computed in reciprocal space

     Adding external electric field

     Computed dipole along edir(3) :
        Dipole                0.0000 Ry au,          0.0000 Debye
        Dipole field          0.0000 Ry au

        Potential amp.       -0.0000 Ry
        Total length         45.6621 bohr

     Starting wfc are  147 randomized atomic wfcs

     Self-consistent Calculation

     iteration #  1     ecut=    36.75 Ry     beta=0.10
     Davidson diagonalization with overlap
     ethr =  1.00E-02,  avg # of iterations =  2.2

[...]

     total energy              =   -1501.03016302 Ry
     Harris-Foulkes estimate   =   -1504.96320827 Ry
     estimated scf accuracy    <      21.93858064 Ry

[...]

     End of self-consistent calculation

          k = 0.0000 0.0000 0.0000 ( 18847 PWs)   bands (ev):

   -62.7398 -62.6756 -62.6755 -53.4376 -53.4022 -53.3186 -53.2989 -53.2989
   -53.2872 -53.2872 -53.2269 -53.2269 -36.5480 -36.5445 -36.5410 -36.5410
   -36.5128 -36.4480 -36.4480 -36.4471 -36.4471 -30.0134 -29.8715 -29.8122
   -29.6984 -29.6984 -29.6838 -29.6442 -29.6442 -29.5448 -29.5448 -29.4899
   -29.3704 -29.3704 -29.2977 -29.2977 -29.1813 -29.0876 -29.0866 -29.0709
   -29.0709 -28.9678 -28.9376 -28.9376 -28.9352 -28.9352 -28.9146 -28.9146
    -3.9510  -2.6232  -2.1794  -2.0955  -1.7531  -1.5441  -1.5441  -1.3067
    -1.2960  -1.2960  -1.1242  -1.0021  -1.0021  -0.8139  -0.8139  -0.2005
     0.1961   0.1961   0.9706   1.0417   1.1407   1.1407   1.3908   1.5979
     1.7437   1.7437   1.9280   1.9466   1.9466   1.9500   1.9500   1.9873
     1.9873   2.0949   2.0949   2.1597   2.4921   2.7362   2.7362   2.7707
     3.0377   3.0377   3.5174   3.5174   3.7093   3.7487   3.7487   3.8121
     4.0602   4.3590   4.3590   4.5093   4.5093   4.9646   4.9646   5.0710
     5.0710   5.3308   5.3308   5.3693

[...]

          k =-0.0854-0.0493 0.0000 ( 18672 PWs)   bands (ev):

[...]

     the Fermi energy is     1.6414 ev

!    total energy              =   -1503.74064632 Ry
     Harris-Foulkes estimate   =   -1503.74064625 Ry
     estimated scf accuracy    <       0.00000039 Ry

     The total energy is the sum of the following terms:

     one-electron contribution =  -12021.35278208 Ry
     hartree contribution      =    6001.06748969 Ry
     xc contribution           =    -232.05864638 Ry
     ewald contribution        =    4748.74019775 Ry
     electric field correction =       0.00000000 Ry
     smearing contrib. (-TS)   =      -0.13690531 Ry

     convergence has been achieved in  22 iterations

 BEEF-vdW xc energy contributions
           1 :   -199.210178925211
           2 :    180.522953763869
           3 :   -148.966247325082
           4 :    113.462537807466
           5 :   -82.3236056881926
           6 :    60.3072707144095
           7 :   -47.7100168559837
           8 :    41.4978964070939
           9 :   -37.5540592369729
          10 :    32.7551725696477
          11 :   -26.0034913896916
          12 :    18.0249809977313
          13 :   -10.3858215168832
          14 :    4.40248975315745
          15 :  -0.501573934869896
          16 :   -1.78947050652272
[...]
               b(3) = (  0.000000  0.000000  0.040350 )

     PseudoPot. # 1 for Nb read from file:
     /afs/slac.stanford.edu/u/if/mamunm/psp/gbrv1.5pbe/Nb.UPF
     MD5 check sum: 573aab8a2fa660278ed4a62cd769473f
     Pseudo is Ultrasoft + core correction, Zval = 13.0
     Generated by new atomic code, or converted to UPF format
     Using radial grid of  887 points,  6 beta functions with:
                l(1) =   0
                l(2) =   0
                l(3) =   1
                l(4) =   1
                l(5) =   2
                l(6) =   2
     Q(r) pseudized with  6 coefficients,  rinner =    1.000   1.000   1.000
                                                       1.000   1.000

     PseudoPot. # 2 for V  read from file:
     /afs/slac.stanford.edu/u/if/mamunm/psp/gbrv1.5pbe/V.UPF
     MD5 check sum: 22b79981416ebb76fdaf5b1b8640f6fb
     Pseudo is Ultrasoft + core correction, Zval = 13.0
     Generated by new atomic code, or converted to UPF format
     Using radial grid of  853 points,  6 beta functions with:
                l(1) =   0
                l(2) =   0
                l(3) =   1
                l(4) =   1
                l(5) =   2
                l(6) =   2
     Q(r) pseudized with  8 coefficients,  rinner =    1.100   1.100   1.100
                                                       1.100   1.100

     vdW kernel table read from file vdW_kernel_table
     MD5 check sum: 095c7af220d748ca6e76c0b4c6cfb241

     atomic species   valence    mass     pseudopotential
        Nb1           13.00    92.90637     Nb( 1.00)
        V1            13.00    50.94150     V ( 1.00)

     No symmetry found

   Cartesian axes

     site n.     atom                  positions (alat units)
         1           Nb1 tau(   1) = (   0.0000000   0.0000000  10.0000000  )
         2           Nb1 tau(   2) = (  -1.4644596   2.5365185  10.0000000  )
         3           Nb1 tau(   3) = (   1.4644596   2.5365185  10.0000000  )
         4           V1  tau(   4) = (   2.9289193   0.0000000  10.0000000  )
         5           Nb1 tau(   5) = (   2.9289193   1.6910123  12.3914526  )
         6           Nb1 tau(   6) = (   1.4644596   4.2275309  12.3914526  )
         7           Nb1 tau(   7) = (  -1.4644596   4.2275309  12.3914526  )
         8           V1  tau(   8) = (   0.0000000   1.6910123  12.3914526  )
         9           Nb1 tau(   9) = (   0.0000041   3.3256007  14.8208757  )
        10           Nb1 tau(  10) = (   1.4155994   0.8737235  14.8208737  )
        11           Nb1 tau(  11) = (   4.4422402   0.8737158  14.8208738  )
        12           V1  tau(  12) = (   2.9289191   3.3820225  14.5683820  )

     number of k points=    20  Fermi-Dirac smearing, width (Ry)=  0.0110
                       cart. coord. in units 2pi/alat
        k(    1) = (   0.0000000   0.0000000   0.0000000), wk =   0.0555556
        k(    2) = (   0.0000000   0.0328534   0.0000000), wk =   0.1111111
        k(    3) = (   0.0000000   0.0657069   0.0000000), wk =   0.1111111
        k(    4) = (   0.0000000  -0.0985603   0.0000000), wk =   0.0555556
        k(    5) = (   0.0284519   0.0164267   0.0000000), wk =   0.1111111
        k(    6) = (   0.0284519   0.0492801   0.0000000), wk =   0.1111111
        k(    7) = (   0.0284519   0.0821336   0.0000000), wk =   0.1111111
        k(    8) = (   0.0284519  -0.0821336   0.0000000), wk =   0.1111111
        k(    9) = (   0.0284519  -0.0492801   0.0000000), wk =   0.1111111
        k(   10) = (   0.0284519  -0.0164267   0.0000000), wk =   0.1111111
        k(   11) = (   0.0569038   0.0328534   0.0000000), wk =   0.1111111
        k(   12) = (   0.0569038   0.0657069   0.0000000), wk =   0.1111111
        k(   13) = (   0.0569038   0.0985603   0.0000000), wk =   0.1111111
        k(   14) = (   0.0569038  -0.0657069   0.0000000), wk =   0.1111111
        k(   15) = (   0.0569038  -0.0328534   0.0000000), wk =   0.1111111
        k(   16) = (   0.0569038   0.0000000   0.0000000), wk =   0.1111111
        k(   17) = (  -0.0853557  -0.0492801   0.0000000), wk =   0.0555556
        k(   18) = (  -0.0853557  -0.0164267   0.0000000), wk =   0.1111111
        k(   19) = (  -0.0853557   0.0164267   0.0000000), wk =   0.1111111
        k(   20) = (  -0.0853557  -0.1478404   0.0000000), wk =   0.0555556

     Largest allocated arrays     est. size (Mb)     dimensions
     Largest temporary arrays     est. size (Mb)     dimensions

     Initial potential from superposition of free atoms
     Check: negative starting charge=   -0.006652

     starting charge  155.97172, renormalised to  156.00000

[...]

     *
     * You are using vdW-DF for exchange-correlation in this calculation.
     * Please cite the following three references that made this development
     * possible:
     *
     *   M. Dion, H. Rydberg, E. Schroder, D. C. Langreth, and
     *   B. I. Lundqvist, Phys. Rev. Lett. 92, 246401 (2004).
     *
     *   T. Thonhauser, V. R. Cooper, S. Li, A. Puzder, P. Hyldgaard, and
     *   D. C. Langreth, Phys. Rev. B 76, 125112 (2007).
     *
     *   G. Roman-Perez and J. M. Soler, Phys. Rev. Lett. 103, 096102 (2009).
     *
     *
     * If you are using vdW-DF2, please also cite:
     *
     *   K. Lee, E. D. Murray, L. Kong, B. I. Lundqvist, and
     *   D. C. Langreth, Phys. Rev. B 82, 081101(R) (2010).
     *
     *
     * If you are calculating the stress with vdW-DF, please also cite:
     *
     *   R. Sabatini, E. Kucukbenli, B. Kolb, T. Thonhauser, and
     *   S. de Gironcoli, J. Phys.: Condens. Matter 24, 424209 (2012).
     *

     Carrying out vdW-DF run using the following parameters:

     Nqs =      20    Nr_points =    1024   r_max =   100.000
     q_mesh =
               0.00001000     0.04494208     0.09755937     0.15916263
               0.23128650     0.31572767     0.41458969     0.53033537
               0.66584808     0.82450364     1.01025438     1.22772762
               1.48234092     1.78043706     2.12944203     2.53805004
               3.01644009     3.57652955     4.23227104     5.00000000

     Gradients computed in reciprocal space

[...]

     Starting wfc are  147 randomized atomic wfcs

     Self-consistent Calculation

[...]

     total energy              =   -1503.74726640 Ry
     Harris-Foulkes estimate   =   -1503.74726562 Ry
     estimated scf accuracy    <       0.00000135 Ry

     iteration # 22     ecut=    36.75 Ry     beta=0.10
     Davidson diagonalization with overlap
     ethr =  8.66E-10,  avg # of iterations =  2.6

[...]

     negative rho (up, down):  6.643E-03 0.000E+00

     Adding external electric field

     Computed dipole along edir(3) :
        Dipole                0.0216 Ry au,          0.0550 Debye
        Dipole field          0.0001 Ry au

        Potential amp.       -0.0050 Ry
        Total length         45.6621 bohr

     End of self-consistent calculation

[...]

          k = 0.0569 0.0000 0.0000 ( 18681 PWs)   bands (ev):

[...]

          k =-0.0854-0.1478 0.0000 ( 18672 PWs)   bands (ev):

   -62.7161 -62.6464 -62.5835 -53.3897 -53.3500 -53.3358 -53.3038 -53.2975
   -53.2603 -53.2486 -53.2294 -53.1928 -36.5168 -36.5128 -36.5095 -36.4933
   -36.4174 -36.4147 -36.4112 -36.3899 -36.3869 -29.7605 -29.7545 -29.6768
   -29.6119 -29.5553 -29.5319 -29.4975 -29.4744 -29.4556 -29.4289 -29.3996
   -29.3701 -29.3548 -29.3090 -29.2934 -29.2861 -29.2635 -29.2485 -29.1809
   -29.1573 -29.1471 -29.0681 -29.0179 -29.0118 -28.9594 -28.9303 -28.9021
    -2.3838  -2.3225  -1.3847  -1.2769  -1.0805  -0.9995  -0.7564  -0.7350
    -0.6181  -0.4873  -0.3928  -0.1391  -0.0274   0.0496   0.1328   0.1507
     0.3922   0.4225   0.5448   0.5478   0.6817   0.8837   0.9388   1.0911
     1.1148   1.1278   1.2435   1.3003   1.3606   1.4169   1.4918   1.5764
     1.6280   1.7941   1.8105   1.8640   1.9462   2.0714   2.3563   2.4027
     2.5985   2.7857   2.9169   3.0079   3.0955   3.1056   3.1527   3.3491
     3.3848   3.5742   3.6026   3.7413   3.7944   3.9142   4.0332   4.2166
     4.3607   4.4055   4.5192   4.7395

     the Fermi energy is     1.6695 ev

!    total energy              =   -1503.74726688 Ry
     Harris-Foulkes estimate   =   -1503.74726658 Ry
     estimated scf accuracy    <       0.00000070 Ry

     The total energy is the sum of the following terms:

     one-electron contribution =  -12062.69851849 Ry
     hartree contribution      =    6021.89516263 Ry
     xc contribution           =    -232.09505805 Ry
     ewald contribution        =    4769.28359230 Ry
     electric field correction =       0.00000118 Ry
     smearing contrib. (-TS)   =      -0.13244645 Ry

     convergence has been achieved in  22 iterations

 BEEF-vdW xc energy contributions
           1 :   -199.316053893630
           2 :    180.638304309344
           3 :   -149.089724912381
           4 :    113.580243036091
           5 :   -82.4194716773976
           6 :    60.3738362469028
           7 :   -47.7519514588512
           8 :    41.5279365668860
           9 :   -37.5867036224654
          10 :    32.8012052913063
          11 :   -26.0667092443821
          12 :    18.1002770850426
          13 :   -10.4612462713279
          14 :    4.46558154142423
          15 :  -0.547160323041936
          16 :   -1.75599792034461
          17 :    3.34472169582750
          18 :   -4.98781228242837
          19 :    6.95293916562923
          20 :   -8.98719219227507
          21 :    10.5681043958275
          22 :   -11.2342886620526
          23 :    10.8079531635648
          24 :   -9.44187863688018
          25 :    7.52187789414438
          26 :   -5.50926624049740
          27 :    3.78786368937807
          28 :   -2.55749587699839
          29 :    1.79361978986927
          30 :   -1.29102096170340
          31 :   -22.3237522229388
          32 :   -16.6821617537869

     Forces acting on atoms (Ry/au):

     negative rho (up, down):  6.643E-03 0.000E+00
     atom    1 type  1   force =     0.00000032    0.01400177   -0.00191998
     atom    2 type  1   force =     0.01212621   -0.00700059   -0.00192005
     atom    3 type  1   force =    -0.01212597   -0.00700087   -0.00192031
     atom    4 type  2   force =    -0.00000017   -0.00000021    0.01109642
     atom    5 type  1   force =     0.00000020   -0.01489096   -0.00130573
     atom    6 type  1   force =    -0.01289612    0.00744583   -0.00130505
     atom    7 type  1   force =     0.01289579    0.00744550   -0.00130407
     atom    8 type  2   force =    -0.00000012   -0.00000016    0.00104751
     atom    9 type  1   force =    -0.00000102    0.00014928   -0.00067171
     atom   10 type  1   force =     0.00012860   -0.00007571   -0.00067118
     atom   11 type  1   force =    -0.00012851   -0.00007444   -0.00067071
     atom   12 type  2   force =     0.00000077    0.00000055   -0.00045514

     Total force =     0.037355     Total SCF correction =     0.001559

     entering subroutine stress ...

     negative rho (up, down):  6.643E-03 0.000E+00
          total   stress  (Ry/bohr**3)                   (kbar)     P=  -22.56
  -0.00022583   0.00000000  -0.00000000        -33.22      0.00     -0.00
   0.00000000  -0.00022583  -0.00000000          0.00    -33.22     -0.00
  -0.00000000  -0.00000000  -0.00000838         -0.00     -0.00     -1.23

 !ASE

     Writing output data file calc.save

     General routines

     Parallel routines

   This run was terminated on:   9:51:12  27Dec2018

   JOB DONE.
Job  /afs/slac/g/suncat/bin/suncat-tsmpirun -x LD_LIBRARY_PATH -wdir /scratch/qe110221_9EBw2 pw.x -in pw.inp

TID   HOST_NAME   COMMAND_LINE            STATUS            TERMINATION_TIME
00000 suncat0152 pw.x -in pw.inp   Done                     12/27/2018 09:51:12
00001 suncat0152 pw.x -in pw.inp   Done                     12/27/2018 09:51:12
00002 suncat0152 pw.x -in pw.inp   Done                     12/27/2018 09:51:12
00003 suncat0152 pw.x -in pw.inp   Done                     12/27/2018 09:51:12
00004 suncat0152 pw.x -in pw.inp   Done                     12/27/2018 09:51:12
00005 suncat0152 pw.x -in pw.inp   Done                     12/27/2018 09:51:12
00006 suncat0152 pw.x -in pw.inp   Done                     12/27/2018 09:51:12
00007 suncat0152 pw.x -in pw.inp   Done                     12/27/2018 09:51:12
00008 suncat0150 pw.x -in pw.inp   Done                     12/27/2018 09:51:12
00009 suncat0150 pw.x -in pw.inp   Done                     12/27/2018 09:51:12
00010 suncat0150 pw.x -in pw.inp   Done                     12/27/2018 09:51:12
00011 suncat0150 pw.x -in pw.inp   Done                     12/27/2018 09:51:12
00012 suncat0150 pw.x -in pw.inp   Done                     12/27/2018 09:51:12
00013 suncat0150 pw.x -in pw.inp   Done                     12/27/2018 09:51:12
00014 suncat0150 pw.x -in pw.inp   Done                     12/27/2018 09:51:12
00015 suncat0150 pw.x -in pw.inp   Done                     12/27/2018 09:51:12
00016 suncat0248 pw.x -in pw.inp   Done                     12/27/2018 09:51:12
00017 suncat0248 pw.x -in pw.inp   Done                     12/27/2018 09:51:12
00018 suncat0248 pw.x -in pw.inp   Done                     12/27/2018 09:51:12
00019 suncat0248 pw.x -in pw.inp   Done                     12/27/2018 09:51:12
00020 suncat0248 pw.x -in pw.inp   Done                     12/27/2018 09:51:12
00021 suncat0248 pw.x -in pw.inp   Done                     12/27/2018 09:51:12
00022 suncat0248 pw.x -in pw.inp   Done                     12/27/2018 09:51:12
00023 suncat0248 pw.x -in pw.inp   Done                     12/27/2018 09:51:12
00024 suncat0247 pw.x -in pw.inp   Done                     12/27/2018 09:51:12
00025 suncat0247 pw.x -in pw.inp   Done                     12/27/2018 09:51:12
00026 suncat0247 pw.x -in pw.inp   Done                     12/27/2018 09:51:12
00027 suncat0247 pw.x -in pw.inp   Done                     12/27/2018 09:51:12
00028 suncat0247 pw.x -in pw.inp   Done                     12/27/2018 09:51:12
00029 suncat0247 pw.x -in pw.inp   Done                     12/27/2018 09:51:12
00030 suncat0247 pw.x -in pw.inp   Done                     12/27/2018 09:51:12
00031 suncat0247 pw.x -in pw.inp   Done                     12/27/2018 09:51:12
00032 suncat0246 pw.x -in pw.inp   Done                     12/27/2018 09:51:12
00033 suncat0246 pw.x -in pw.inp   Done                     12/27/2018 09:51:12
00034 suncat0246 pw.x -in pw.inp   Done                     12/27/2018 09:51:12
00035 suncat0246 pw.x -in pw.inp   Done                     12/27/2018 09:51:12
00036 suncat0246 pw.x -in pw.inp   Done                     12/27/2018 09:51:12
00037 suncat0246 pw.x -in pw.inp   Done                     12/27/2018 09:51:12
00038 suncat0246 pw.x -in pw.inp   Done                     12/27/2018 09:51:12
00039 suncat0246 pw.x -in pw.inp   Done                     12/27/2018 09:51:12
00040 suncat0245 pw.x -in pw.inp   Done                     12/27/2018 09:51:12
00041 suncat0245 pw.x -in pw.inp   Done                     12/27/2018 09:51:12
00042 suncat0245 pw.x -in pw.inp   Done                     12/27/2018 09:51:12
00043 suncat0245 pw.x -in pw.inp   Done                     12/27/2018 09:51:12
00044 suncat0245 pw.x -in pw.inp   Done                     12/27/2018 09:51:12
00045 suncat0245 pw.x -in pw.inp   Done                     12/27/2018 09:51:12
00046 suncat0245 pw.x -in pw.inp   Done                     12/27/2018 09:51:12
00047 suncat0245 pw.x -in pw.inp   Done                     12/27/2018 09:51:12
00048 suncat0214 pw.x -in pw.inp   Done                     12/27/2018 09:51:12
00049 suncat0214 pw.x -in pw.inp   Done                     12/27/2018 09:51:12
00050 suncat0214 pw.x -in pw.inp   Done                     12/27/2018 09:51:12
00051 suncat0214 pw.x -in pw.inp   Done                     12/27/2018 09:51:12
00052 suncat0214 pw.x -in pw.inp   Done                     12/27/2018 09:51:12
00053 suncat0214 pw.x -in pw.inp   Done                     12/27/2018 09:51:12
00054 suncat0214 pw.x -in pw.inp   Done                     12/27/2018 09:51:12
00055 suncat0214 pw.x -in pw.inp   Done                     12/27/2018 09:51:12
00056 suncat0213 pw.x -in pw.inp   Done                     12/27/2018 09:51:12
00057 suncat0213 pw.x -in pw.inp   Done                     12/27/2018 09:51:12
00058 suncat0213 pw.x -in pw.inp   Done                     12/27/2018 09:51:12
00059 suncat0213 pw.x -in pw.inp   Done                     12/27/2018 09:51:12
00060 suncat0213 pw.x -in pw.inp   Done                     12/27/2018 09:51:12
00061 suncat0213 pw.x -in pw.inp   Done                     12/27/2018 09:51:12
00062 suncat0213 pw.x -in pw.inp   Done                     12/27/2018 09:51:12
00063 suncat0213 pw.x -in pw.inp   Done                     12/27/2018 09:51:12