     Program PWSCF v.5.1rc2 (svn rev. 11289) starts on 27Dec2018 at 22: 8:31

     Current dimensions of program PWSCF are:
     Max number of different atomic species (ntypx) = 10
     Max number of k-points (npk) =  40000
     Max angular momentum in pseudopotentials (lmaxx) =  3
     Presently stress not available with electric field

     IMPORTANT: XC functional enforced from input :
     Exchange-correlation      = BEEF-VDW ( 1  4 27 13 2)
     Any further DFT definition will be discarded
     Please, verify this is what you really want

     Subspace diagonalization in iterative solution of the eigenvalue problem:
     a serial algorithm will be used

     bravais-lattice index     =            0
     lattice parameter (alat)  =       1.8897  a.u.
     unit-cell volume          =    4278.7362 (a.u.)^3
     number of atoms/cell      =           12
     number of atomic types    =            2
     number of electrons       =       186.00
     number of Kohn-Sham states=          123
     kinetic-energy cutoff     =      36.7493  Ry
     charge density cutoff     =     367.4932  Ry
     convergence threshold     =      1.0E-06
     mixing beta               =       0.1000
     number of iterations used =           10  plain     mixing
     Exchange-correlation      = BEEF-VDW ( 1  4 27 13 2)
     nstep                     =           50

     celldm(1)=   1.889726  celldm(2)=   0.000000  celldm(3)=   0.000000
     celldm(4)=   0.000000  celldm(5)=   0.000000  celldm(6)=   0.000000

     crystal axes: (cart. coord. in units of alat)
               a(1) = (   5.470268   0.000000   0.000000 )
               a(2) = (  -2.735134   4.737391   0.000000 )
               a(3) = (   0.000000   0.000000  24.466455 )

     reciprocal axes: (cart. coord. in units 2 pi/alat)
               b(1) = (  0.182806  0.105543  0.000000 )
               b(2) = (  0.000000  0.211087  0.000000 )
               b(3) = (  0.000000  0.000000  0.040872 )

     PseudoPot. # 1 for Ru read from file:
     /afs/slac.stanford.edu/u/if/mamunm/psp/gbrv1.5pbe/Ru.UPF
     MD5 check sum: 7158a806dd851261a58e6920c40ebe78
     Pseudo is Ultrasoft + core correction, Zval = 16.0
     Generated by new atomic code, or converted to UPF format
     Using radial grid of  967 points,  6 beta functions with:
                l(1) =   0
                l(2) =   0
                l(3) =   1
                l(4) =   1
                l(5) =   2
                l(6) =   2
     Q(r) pseudized with  8 coefficients,  rinner =    1.300   1.300   1.300
                                                       1.300   1.300

     PseudoPot. # 2 for W  read from file:
     /afs/slac.stanford.edu/u/if/mamunm/psp/gbrv1.5pbe/W.UPF
     MD5 check sum: 9c083fa34c2a2ea0f02f1f893e16e1c8
     Pseudo is Ultrasoft + core correction, Zval = 14.0
     Generated by new atomic code, or converted to UPF format
     Using radial grid of  923 points,  8 beta functions with:
                l(1) =   0
                l(2) =   0
                l(3) =   0
                l(4) =   1
                l(5) =   1
                l(6) =   2
                l(7) =   2
                l(8) =   3
     Q(r) pseudized with  6 coefficients,  rinner =    1.350   1.350   1.350
                                                       1.350   1.350   1.350
                                                       1.350

     vdW kernel table read from file vdW_kernel_table
     MD5 check sum: 095c7af220d748ca6e76c0b4c6cfb241

     atomic species   valence    mass     pseudopotential
        Ru1           16.00   101.07000     Ru( 1.00)
        W1            14.00   183.84000     W ( 1.00)

     No symmetry found

   Cartesian axes

     site n.     atom                  positions (alat units)
         1           Ru1 tau(   1) = (   0.0000000   0.0000000  10.0000000  )
         2           Ru1 tau(   2) = (  -1.3675670   2.3686956  10.0000000  )
         3           Ru1 tau(   3) = (   1.3675670   2.3686956  10.0000000  )
         4           W1  tau(   4) = (   2.7351340   0.0000000  10.0000000  )
         5           Ru1 tau(   5) = (   2.7351340   1.5791304  12.2332276  )
         6           Ru1 tau(   6) = (   1.3675670   3.9478260  12.2332276  )
         7           Ru1 tau(   7) = (  -1.3675670   3.9478260  12.2332276  )
         8           W1  tau(   8) = (   0.0000000   1.5791304  12.2332276  )
         9           Ru1 tau(   9) = (  -0.0000000   3.1582608  14.4664552  )
        10           Ru1 tau(  10) = (   1.3675670   0.7895652  14.4664552  )
        11           Ru1 tau(  11) = (   4.1027011   0.7895652  14.4664552  )
        12           W1  tau(  12) = (   2.7351340   3.1582608  14.4664552  )

     number of k points=    20  Fermi-Dirac smearing, width (Ry)=  0.0110
                       cart. coord. in units 2pi/alat
        k(    1) = (   0.0000000   0.0000000   0.0000000), wk =   0.0555556
        k(    2) = (   0.0000000   0.0351811   0.0000000), wk =   0.1111111
        k(    3) = (   0.0000000   0.0703622   0.0000000), wk =   0.1111111
        k(    4) = (   0.0000000  -0.1055433   0.0000000), wk =   0.0555556
        k(    5) = (   0.0304677   0.0175906   0.0000000), wk =   0.1111111
        k(    6) = (   0.0304677   0.0527717   0.0000000), wk =   0.1111111
        k(    7) = (   0.0304677   0.0879528   0.0000000), wk =   0.1111111
        k(    8) = (   0.0304677  -0.0879528   0.0000000), wk =   0.1111111
        k(    9) = (   0.0304677  -0.0527717   0.0000000), wk =   0.1111111
        k(   10) = (   0.0304677  -0.0175906   0.0000000), wk =   0.1111111
        k(   11) = (   0.0609355   0.0351811   0.0000000), wk =   0.1111111
        k(   12) = (   0.0609355   0.0703622   0.0000000), wk =   0.1111111
        k(   13) = (   0.0609355   0.1055433   0.0000000), wk =   0.1111111
        k(   14) = (   0.0609355  -0.0703622   0.0000000), wk =   0.1111111
        k(   15) = (   0.0609355  -0.0351811   0.0000000), wk =   0.1111111
        k(   16) = (   0.0609355   0.0000000   0.0000000), wk =   0.1111111
        k(   17) = (  -0.0914032  -0.0527717   0.0000000), wk =   0.0555556
        k(   18) = (  -0.0914032  -0.0175906   0.0000000), wk =   0.1111111
        k(   19) = (  -0.0914032   0.0175906   0.0000000), wk =   0.1111111
        k(   20) = (  -0.0914032  -0.1583150   0.0000000), wk =   0.0555556

     Largest allocated arrays     est. size (Mb)     dimensions
     Largest temporary arrays     est. size (Mb)     dimensions

     Initial potential from superposition of free atoms
     Check: negative starting charge=   -0.846740

     starting charge  176.69884, renormalised to  186.00000

     negative rho (up, down):  8.913E-01 0.000E+00

     *
     * You are using vdW-DF for exchange-correlation in this calculation.
     * Please cite the following three references that made this development
     * possible:
     *
     *   M. Dion, H. Rydberg, E. Schroder, D. C. Langreth, and
     *   B. I. Lundqvist, Phys. Rev. Lett. 92, 246401 (2004).
     *
     *   T. Thonhauser, V. R. Cooper, S. Li, A. Puzder, P. Hyldgaard, and
     *   D. C. Langreth, Phys. Rev. B 76, 125112 (2007).
     *
     *   G. Roman-Perez and J. M. Soler, Phys. Rev. Lett. 103, 096102 (2009).
     *
     *
     * If you are using vdW-DF2, please also cite:
     *
     *   K. Lee, E. D. Murray, L. Kong, B. I. Lundqvist, and
     *   D. C. Langreth, Phys. Rev. B 82, 081101(R) (2010).
     *
     *
     * If you are calculating the stress with vdW-DF, please also cite:
     *
     *   R. Sabatini, E. Kucukbenli, B. Kolb, T. Thonhauser, and
     *   S. de Gironcoli, J. Phys.: Condens. Matter 24, 424209 (2012).
     *

     Carrying out vdW-DF run using the following parameters:

     Nqs =      20    Nr_points =    1024   r_max =   100.000
     q_mesh =
               0.00001000     0.04494208     0.09755937     0.15916263
               0.23128650     0.31572767     0.41458969     0.53033537
               0.66584808     0.82450364     1.01025438     1.22772762
               1.48234092     1.78043706     2.12944203     2.53805004
               3.01644009     3.57652955     4.23227104     5.00000000

     Gradients computed in reciprocal space

     Adding external electric field

     Computed dipole along edir(3) :
        Dipole                0.0000 Ry au,          0.0000 Debye
        Dipole field          0.0000 Ry au

        Potential amp.       -0.0000 Ry
        Total length         45.0790 bohr

     Starting wfc are  156 randomized atomic wfcs

     Self-consistent Calculation

     iteration #  1     ecut=    36.75 Ry     beta=0.10
     Davidson diagonalization with overlap
     ethr =  1.00E-02,  avg # of iterations =  6.8

[...]

     total energy              =   -2238.66889477 Ry
     Harris-Foulkes estimate   =   -2240.17066594 Ry
     estimated scf accuracy    <       9.79169331 Ry

[...]

     End of self-consistent calculation

          k = 0.0000 0.0000 0.0000 ( 16037 PWs)   bands (ev):

   -72.4367 -72.3261 -72.3257 -70.6694 -70.6019 -70.6019 -70.2209 -70.2182
   -70.1542 -70.1542 -70.1536 -70.1536 -40.9238 -40.7872 -40.7871 -40.7545
   -40.6529 -40.6529 -40.4801 -40.4650 -40.4493 -40.3348 -40.3348 -40.3096
   -40.3096 -40.2388 -40.2388 -40.1822 -40.1136 -40.1136 -40.1025 -40.0653
   -40.0653 -39.9883 -39.9775 -39.8951 -39.8951 -39.8944 -39.8944 -36.4797
   -36.4797 -36.4791 -36.4510 -36.4006 -36.2730 -36.2730 -36.2665 -36.2665
    -4.8997  -3.3124  -3.2854  -3.0881  -3.0881  -2.9725  -2.7042  -2.6190
    -2.6190  -2.3829  -2.3829  -2.3216  -2.0043  -2.0043  -1.9960  -0.8400
    -0.8400  -0.7934  -0.1823  -0.1823  -0.0890   0.1385   0.2753   0.3529
     0.3529   0.5144   0.7059   0.7059   0.9599   0.9599   1.0124   1.0124
     1.2242   1.2243   1.6673   2.0038   2.1135   2.3417   2.3417   2.4363
     2.4363   2.5583   2.5583   2.9665   3.2847   3.4628   3.4766   3.4766
     3.7982   3.7982   3.9888   4.4200   4.4705   4.5152   4.5251   4.5251
     4.6092   4.6092   4.8369   4.8664   4.8664   5.2712   5.2712   5.6265
     5.6265   5.8608   5.8608   6.7967   6.8920   6.8920   6.9546   7.1053
     7.2400   7.2400   7.6326

[...]

          k =-0.0914-0.0528 0.0000 ( 16144 PWs)   bands (ev):

[...]

     the Fermi energy is     2.4270 ev

!    total energy              =   -2237.23506678 Ry
     Harris-Foulkes estimate   =   -2237.23507166 Ry
     estimated scf accuracy    <       0.00000067 Ry

     The total energy is the sum of the following terms:

     one-electron contribution =  -20000.05337017 Ry
     hartree contribution      =    9995.50994717 Ry
     xc contribution           =    -368.98593720 Ry
     ewald contribution        =    8136.38360811 Ry
     electric field correction =       0.00000000 Ry
     smearing contrib. (-TS)   =      -0.08931469 Ry

     convergence has been achieved in  17 iterations

 BEEF-vdW xc energy contributions
           1 :   -321.722058634414
           2 :    296.307915706268
           3 :   -251.972527285444
           4 :    199.196913061940
           5 :   -148.802916146476
           6 :    108.685815726417
           7 :   -82.0184852026122
           8 :    67.3569807112740
           9 :   -60.3020557368989
[...]
     Generated by new atomic code, or converted to UPF format
     Using radial grid of  967 points,  6 beta functions with:
                l(1) =   0
                l(2) =   0
                l(3) =   1
                l(4) =   1
                l(5) =   2
                l(6) =   2
     Q(r) pseudized with  8 coefficients,  rinner =    1.300   1.300   1.300
                                                       1.300   1.300

     PseudoPot. # 2 for W  read from file:
     /afs/slac.stanford.edu/u/if/mamunm/psp/gbrv1.5pbe/W.UPF
     MD5 check sum: 9c083fa34c2a2ea0f02f1f893e16e1c8
     Pseudo is Ultrasoft + core correction, Zval = 14.0
     Generated by new atomic code, or converted to UPF format
     Using radial grid of  923 points,  8 beta functions with:
                l(1) =   0
                l(2) =   0
                l(3) =   0
                l(4) =   1
                l(5) =   1
                l(6) =   2
                l(7) =   2
                l(8) =   3
     Q(r) pseudized with  6 coefficients,  rinner =    1.350   1.350   1.350
                                                       1.350   1.350   1.350
                                                       1.350

     vdW kernel table read from file vdW_kernel_table
     MD5 check sum: 095c7af220d748ca6e76c0b4c6cfb241

     atomic species   valence    mass     pseudopotential
        Ru1           16.00   101.07000     Ru( 1.00)
        W1            14.00   183.84000     W ( 1.00)

     No symmetry found

   Cartesian axes

     site n.     atom                  positions (alat units)
         1           Ru1 tau(   1) = (   0.0000000   0.0000000  10.0000000  )
         2           Ru1 tau(   2) = (  -1.3675670   2.3686956  10.0000000  )
         3           Ru1 tau(   3) = (   1.3675670   2.3686956  10.0000000  )
         4           W1  tau(   4) = (   2.7351340   0.0000000  10.0000000  )
         5           Ru1 tau(   5) = (   2.7351340   1.5791304  12.2332276  )
         6           Ru1 tau(   6) = (   1.3675670   3.9478260  12.2332276  )
         7           Ru1 tau(   7) = (  -1.3675670   3.9478260  12.2332276  )
         8           W1  tau(   8) = (   0.0000000   1.5791304  12.2332276  )
         9           Ru1 tau(   9) = (   0.0000022   3.1511418  14.3833042  )
        10           Ru1 tau(  10) = (   1.3614088   0.7931214  14.3832984  )
        11           Ru1 tau(  11) = (   4.1088706   0.7931259  14.3833098  )
        12           W1  tau(  12) = (   2.7351357   3.1582602  14.3009247  )

     number of k points=    20  Fermi-Dirac smearing, width (Ry)=  0.0110
                       cart. coord. in units 2pi/alat
        k(    1) = (   0.0000000   0.0000000   0.0000000), wk =   0.0555556
        k(    2) = (   0.0000000   0.0351811   0.0000000), wk =   0.1111111
        k(    3) = (   0.0000000   0.0703622   0.0000000), wk =   0.1111111
        k(    4) = (   0.0000000  -0.1055433   0.0000000), wk =   0.0555556
        k(    5) = (   0.0304677   0.0175906   0.0000000), wk =   0.1111111
        k(    6) = (   0.0304677   0.0527717   0.0000000), wk =   0.1111111
        k(    7) = (   0.0304677   0.0879528   0.0000000), wk =   0.1111111
        k(    8) = (   0.0304677  -0.0879528   0.0000000), wk =   0.1111111
        k(    9) = (   0.0304677  -0.0527717   0.0000000), wk =   0.1111111
        k(   10) = (   0.0304677  -0.0175906   0.0000000), wk =   0.1111111
        k(   11) = (   0.0609355   0.0351811   0.0000000), wk =   0.1111111
        k(   12) = (   0.0609355   0.0703622   0.0000000), wk =   0.1111111
        k(   13) = (   0.0609355   0.1055433   0.0000000), wk =   0.1111111
        k(   14) = (   0.0609355  -0.0703622   0.0000000), wk =   0.1111111
        k(   15) = (   0.0609355  -0.0351811   0.0000000), wk =   0.1111111
        k(   16) = (   0.0609355   0.0000000   0.0000000), wk =   0.1111111
        k(   17) = (  -0.0914032  -0.0527717   0.0000000), wk =   0.0555556
        k(   18) = (  -0.0914032  -0.0175906   0.0000000), wk =   0.1111111
        k(   19) = (  -0.0914032   0.0175906   0.0000000), wk =   0.1111111
        k(   20) = (  -0.0914032  -0.1583150   0.0000000), wk =   0.0555556

     Largest allocated arrays     est. size (Mb)     dimensions
     Largest temporary arrays     est. size (Mb)     dimensions

     Initial potential from superposition of free atoms
     Check: negative starting charge=   -0.847005

     starting charge  176.69884, renormalised to  186.00000

[...]

     *
     * You are using vdW-DF for exchange-correlation in this calculation.
     * Please cite the following three references that made this development
     * possible:
     *
     *   M. Dion, H. Rydberg, E. Schroder, D. C. Langreth, and
     *   B. I. Lundqvist, Phys. Rev. Lett. 92, 246401 (2004).
     *
     *   T. Thonhauser, V. R. Cooper, S. Li, A. Puzder, P. Hyldgaard, and
     *   D. C. Langreth, Phys. Rev. B 76, 125112 (2007).
     *
     *   G. Roman-Perez and J. M. Soler, Phys. Rev. Lett. 103, 096102 (2009).
     *
     *
     * If you are using vdW-DF2, please also cite:
     *
     *   K. Lee, E. D. Murray, L. Kong, B. I. Lundqvist, and
     *   D. C. Langreth, Phys. Rev. B 82, 081101(R) (2010).
     *
     *
     * If you are calculating the stress with vdW-DF, please also cite:
     *
     *   R. Sabatini, E. Kucukbenli, B. Kolb, T. Thonhauser, and
     *   S. de Gironcoli, J. Phys.: Condens. Matter 24, 424209 (2012).
     *

     Carrying out vdW-DF run using the following parameters:

     Nqs =      20    Nr_points =    1024   r_max =   100.000
     q_mesh =
               0.00001000     0.04494208     0.09755937     0.15916263
               0.23128650     0.31572767     0.41458969     0.53033537
               0.66584808     0.82450364     1.01025438     1.22772762
               1.48234092     1.78043706     2.12944203     2.53805004
               3.01644009     3.57652955     4.23227104     5.00000000

     Gradients computed in reciprocal space

[...]

     Starting wfc are  156 randomized atomic wfcs

     Self-consistent Calculation

[...]

     total energy              =   -2237.25042196 Ry
     Harris-Foulkes estimate   =   -2237.25042309 Ry
     estimated scf accuracy    <       0.00000105 Ry

     iteration # 18     ecut=    36.75 Ry     beta=0.10
     Davidson diagonalization with overlap
     ethr =  5.66E-10,  avg # of iterations =  2.1

[...]

     negative rho (up, down):  8.815E-01 0.000E+00

     Adding external electric field

     Computed dipole along edir(3) :
        Dipole                0.0345 Ry au,          0.0876 Debye
        Dipole field          0.0001 Ry au

        Potential amp.       -0.0091 Ry
        Total length         45.0790 bohr

     End of self-consistent calculation

[...]

          k = 0.0609 0.0000 0.0000 ( 16110 PWs)   bands (ev):

[...]

          k =-0.0914-0.1583 0.0000 ( 16144 PWs)   bands (ev):

   -72.4027 -72.3375 -72.2171 -70.6803 -70.6569 -70.6342 -70.1939 -70.1711
   -70.1601 -70.1494 -70.1376 -70.1155 -40.8659 -40.7722 -40.7466 -40.7000
   -40.6720 -40.6699 -40.6331 -40.6191 -40.3921 -40.3551 -40.3138 -40.1645
   -40.1438 -40.1398 -40.1383 -40.1341 -40.1135 -40.1096 -40.0974 -40.0947
   -40.0886 -40.0779 -40.0582 -40.0365 -40.0350 -39.9148 -39.8755 -36.5051
   -36.4862 -36.4755 -36.3678 -36.3648 -36.3194 -36.2915 -36.2379 -36.2084
    -3.4214  -3.1639  -2.3732  -2.1888  -2.1853  -2.1606  -2.0535  -1.9120
    -1.7895  -1.7299  -1.5890  -1.4739  -1.1756  -1.1743  -1.1514  -1.0345
    -0.7628  -0.7163  -0.6298  -0.4711  -0.3465  -0.1737   0.1322   0.2789
     0.4521   0.4522   0.5483   0.5718   0.6652   0.7087   0.8016   0.8109
     0.8226   0.8287   0.9520   0.9816   1.0682   1.0783   1.1765   1.3537
     1.5009   1.7109   1.7255   2.0697   2.2929   2.3324   2.3849   2.4480
     2.7841   2.8570   2.9577   3.0017   3.2686   3.4150   3.4156   3.6289
     3.6771   4.0479   4.0665   4.1810   4.3583   4.9095   4.9584   5.5245
     5.6003   5.8425   6.4735   7.2146   7.4857   7.5745   7.9573   8.0299
     8.4897   8.5742   9.0604

     the Fermi energy is     2.4459 ev

!    total energy              =   -2237.25041938 Ry
     Harris-Foulkes estimate   =   -2237.25042201 Ry
     estimated scf accuracy    <       0.00000078 Ry

     The total energy is the sum of the following terms:

     one-electron contribution =  -20290.60843301 Ry
     hartree contribution      =   10140.80849836 Ry
     xc contribution           =    -369.25007570 Ry
     ewald contribution        =    8281.88545484 Ry
     electric field correction =       0.00000349 Ry
     smearing contrib. (-TS)   =      -0.08586736 Ry

     convergence has been achieved in  18 iterations

 BEEF-vdW xc energy contributions
           1 :   -321.990994133962
           2 :    296.671329084291
           3 :   -252.464723059637
           4 :    199.763407853303
           5 :   -149.319760579648
           6 :    109.019691655762
           7 :   -82.0977318519722
           8 :    67.2149759321729
           9 :   -60.0674961568049
          10 :    55.6687180588370
          11 :   -50.3321483457779
          12 :    42.6710046062053
          13 :   -33.4504217126853
          14 :    24.6109112807511
          15 :   -18.0383513662267
          16 :    14.6338910426528
          17 :   -14.0071884774925
          18 :    14.8066203759410
          19 :   -15.4385271769488
          20 :    14.7998834290761
          21 :   -12.6891341070016
          22 :    9.74631256218481
          23 :   -7.01100666075178
          24 :    5.35374949009389
          25 :   -5.06380837378435
          26 :    5.76962078495325
          27 :   -6.69053326993031
          28 :    7.05968949015545
          29 :   -6.49245170669457
          30 :    5.12628888280733
          31 :   -31.8608276848063
          32 :   -24.1165764892767

     Forces acting on atoms (Ry/au):

     negative rho (up, down):  8.815E-01 0.000E+00
     atom    1 type  1   force =     0.00000114    0.00525163    0.01425333
     atom    2 type  1   force =     0.00454800   -0.00262490    0.01425300
     atom    3 type  1   force =    -0.00454833   -0.00262658    0.01425365
     atom    4 type  2   force =    -0.00000079   -0.00000018    0.04051817
     atom    5 type  1   force =     0.00000261   -0.00081645   -0.02317777
     atom    6 type  1   force =    -0.00070644    0.00040970   -0.02317624
     atom    7 type  1   force =     0.00070719    0.00040694   -0.02317935
     atom    8 type  2   force =    -0.00000268   -0.00000043   -0.01439692
     atom    9 type  1   force =    -0.00000041    0.00014710    0.00025821
     atom   10 type  1   force =     0.00012641   -0.00007345    0.00026033
     atom   11 type  1   force =    -0.00012761   -0.00007347    0.00025582
     atom   12 type  2   force =     0.00000090    0.00000008   -0.00012223

     Total force =     0.064460     Total SCF correction =     0.004550

     entering subroutine stress ...

     negative rho (up, down):  8.815E-01 0.000E+00
          total   stress  (Ry/bohr**3)                   (kbar)     P=  -22.23
  -0.00017364   0.00000000  -0.00000000        -25.54      0.00     -0.00
   0.00000000  -0.00017364   0.00000000          0.00    -25.54      0.00
  -0.00000000   0.00000000  -0.00010604         -0.00      0.00    -15.60

 !ASE

     Writing output data file calc.save

     General routines

     Parallel routines

   This run was terminated on:  23: 8: 0  27Dec2018

   JOB DONE.
Job  /afs/slac/g/suncat/bin/suncat-tsmpirun -x LD_LIBRARY_PATH -wdir /scratch/qe110815_3YNQe pw.x -in pw.inp

TID   HOST_NAME   COMMAND_LINE            STATUS            TERMINATION_TIME
00000 suncat0138 pw.x -in pw.inp   Done                     12/27/2018 23:08:00
00001 suncat0138 pw.x -in pw.inp   Done                     12/27/2018 23:08:00
00002 suncat0138 pw.x -in pw.inp   Done                     12/27/2018 23:08:00
00003 suncat0138 pw.x -in pw.inp   Done                     12/27/2018 23:08:00
00004 suncat0138 pw.x -in pw.inp   Done                     12/27/2018 23:08:00
00005 suncat0138 pw.x -in pw.inp   Done                     12/27/2018 23:08:00
00006 suncat0138 pw.x -in pw.inp   Done                     12/27/2018 23:08:00
00007 suncat0138 pw.x -in pw.inp   Done                     12/27/2018 23:08:00
00008 suncat0113 pw.x -in pw.inp   Done                     12/27/2018 23:08:00
00009 suncat0113 pw.x -in pw.inp   Done                     12/27/2018 23:08:00
00010 suncat0113 pw.x -in pw.inp   Done                     12/27/2018 23:08:00
00011 suncat0113 pw.x -in pw.inp   Done                     12/27/2018 23:08:00
00012 suncat0113 pw.x -in pw.inp   Done                     12/27/2018 23:08:00
00013 suncat0113 pw.x -in pw.inp   Done                     12/27/2018 23:08:00
00014 suncat0113 pw.x -in pw.inp   Done                     12/27/2018 23:08:00
00015 suncat0113 pw.x -in pw.inp   Done                     12/27/2018 23:08:00
00016 suncat0110 pw.x -in pw.inp   Done                     12/27/2018 23:08:00
00017 suncat0110 pw.x -in pw.inp   Done                     12/27/2018 23:08:00
00018 suncat0110 pw.x -in pw.inp   Done                     12/27/2018 23:08:00
00019 suncat0110 pw.x -in pw.inp   Done                     12/27/2018 23:08:00
00020 suncat0110 pw.x -in pw.inp   Done                     12/27/2018 23:08:00
00021 suncat0110 pw.x -in pw.inp   Done                     12/27/2018 23:08:00
00022 suncat0110 pw.x -in pw.inp   Done                     12/27/2018 23:08:00
00023 suncat0110 pw.x -in pw.inp   Done                     12/27/2018 23:08:00
00024 suncat0109 pw.x -in pw.inp   Done                     12/27/2018 23:08:00
00025 suncat0109 pw.x -in pw.inp   Done                     12/27/2018 23:08:00
00026 suncat0109 pw.x -in pw.inp   Done                     12/27/2018 23:08:00
00027 suncat0109 pw.x -in pw.inp   Done                     12/27/2018 23:08:00
00028 suncat0109 pw.x -in pw.inp   Done                     12/27/2018 23:08:00
00029 suncat0109 pw.x -in pw.inp   Done                     12/27/2018 23:08:00
00030 suncat0109 pw.x -in pw.inp   Done                     12/27/2018 23:08:00
00031 suncat0109 pw.x -in pw.inp   Done                     12/27/2018 23:08:00
00032 suncat0262 pw.x -in pw.inp   Done                     12/27/2018 23:08:00
00033 suncat0262 pw.x -in pw.inp   Done                     12/27/2018 23:08:00
00034 suncat0262 pw.x -in pw.inp   Done                     12/27/2018 23:08:00
00035 suncat0262 pw.x -in pw.inp   Done                     12/27/2018 23:08:00
00036 suncat0262 pw.x -in pw.inp   Done                     12/27/2018 23:08:00
00037 suncat0262 pw.x -in pw.inp   Done                     12/27/2018 23:08:00
00038 suncat0262 pw.x -in pw.inp   Done                     12/27/2018 23:08:00
00039 suncat0262 pw.x -in pw.inp   Done                     12/27/2018 23:08:00
00040 suncat0258 pw.x -in pw.inp   Done                     12/27/2018 23:08:00
00041 suncat0258 pw.x -in pw.inp   Done                     12/27/2018 23:08:00
00042 suncat0258 pw.x -in pw.inp   Done                     12/27/2018 23:08:00
00043 suncat0258 pw.x -in pw.inp   Done                     12/27/2018 23:08:00
00044 suncat0258 pw.x -in pw.inp   Done                     12/27/2018 23:08:00
00045 suncat0258 pw.x -in pw.inp   Done                     12/27/2018 23:08:00
00046 suncat0258 pw.x -in pw.inp   Done                     12/27/2018 23:08:00
00047 suncat0258 pw.x -in pw.inp   Done                     12/27/2018 23:08:00
00048 suncat0257 pw.x -in pw.inp   Done                     12/27/2018 23:08:00
00049 suncat0257 pw.x -in pw.inp   Done                     12/27/2018 23:08:00
00050 suncat0257 pw.x -in pw.inp   Done                     12/27/2018 23:08:00
00051 suncat0257 pw.x -in pw.inp   Done                     12/27/2018 23:08:00
00052 suncat0257 pw.x -in pw.inp   Done                     12/27/2018 23:08:00
00053 suncat0257 pw.x -in pw.inp   Done                     12/27/2018 23:08:00
00054 suncat0257 pw.x -in pw.inp   Done                     12/27/2018 23:08:00
00055 suncat0257 pw.x -in pw.inp   Done                     12/27/2018 23:08:00
00056 suncat0251 pw.x -in pw.inp   Done                     12/27/2018 23:08:00
00057 suncat0251 pw.x -in pw.inp   Done                     12/27/2018 23:08:00
00058 suncat0251 pw.x -in pw.inp   Done                     12/27/2018 23:08:00
00059 suncat0251 pw.x -in pw.inp   Done                     12/27/2018 23:08:00
00060 suncat0251 pw.x -in pw.inp   Done                     12/27/2018 23:08:00
00061 suncat0251 pw.x -in pw.inp   Done                     12/27/2018 23:08:00
00062 suncat0251 pw.x -in pw.inp   Done                     12/27/2018 23:08:00
00063 suncat0251 pw.x -in pw.inp   Done                     12/27/2018 23:08:00