     Program PWSCF v.5.1rc2 (svn rev. 11289) starts on  2Jan2019 at  3:59:51

     Current dimensions of program PWSCF are:
     Max number of different atomic species (ntypx) = 10
     Max number of k-points (npk) =  40000
     Max angular momentum in pseudopotentials (lmaxx) =  3
     Presently stress not available with electric field

     IMPORTANT: XC functional enforced from input :
     Exchange-correlation      = BEEF-VDW ( 1  4 27 13 2)
     Any further DFT definition will be discarded
     Please, verify this is what you really want

     Subspace diagonalization in iterative solution of the eigenvalue problem:
     a serial algorithm will be used

     bravais-lattice index     =            0
     lattice parameter (alat)  =       1.8897  a.u.
     unit-cell volume          =    4067.6673 (a.u.)^3
     number of atoms/cell      =           12
     number of atomic types    =            2
     number of electrons       =       159.00
     number of Kohn-Sham states=          109
     kinetic-energy cutoff     =      36.7493  Ry
     charge density cutoff     =     367.4932  Ry
     convergence threshold     =      1.0E-06
     mixing beta               =       0.1000
     number of iterations used =           10  plain     mixing
     Exchange-correlation      = BEEF-VDW ( 1  4 27 13 2)
     nstep                     =           50

     celldm(1)=   1.889726  celldm(2)=   0.000000  celldm(3)=   0.000000
     celldm(4)=   0.000000  celldm(5)=   0.000000  celldm(6)=   0.000000

     crystal axes: (cart. coord. in units of alat)
               a(1) = (   5.344837   0.000000   0.000000 )
               a(2) = (  -2.672418   4.628764   0.000000 )
               a(3) = (   0.000000   0.000000  24.364041 )

     reciprocal axes: (cart. coord. in units 2 pi/alat)
               b(1) = (  0.187096  0.108020  0.000000 )
               b(2) = (  0.000000  0.216040  0.000000 )
               b(3) = (  0.000000  0.000000  0.041044 )

     PseudoPot. # 1 for V  read from file:
     /afs/slac.stanford.edu/u/if/mamunm/psp/gbrv1.5pbe/V.UPF
     MD5 check sum: 22b79981416ebb76fdaf5b1b8640f6fb
     Pseudo is Ultrasoft + core correction, Zval = 13.0
     Generated by new atomic code, or converted to UPF format
     Using radial grid of  853 points,  6 beta functions with:
                l(1) =   0
                l(2) =   0
                l(3) =   1
                l(4) =   1
                l(5) =   2
                l(6) =   2
     Q(r) pseudized with  8 coefficients,  rinner =    1.100   1.100   1.100
                                                       1.100   1.100

     PseudoPot. # 2 for Cr read from file:
     /afs/slac.stanford.edu/u/if/mamunm/psp/gbrv1.5pbe/Cr.UPF
     MD5 check sum: 0d52af634a40206e4dee301ad30da4bf
     Pseudo is Ultrasoft + core correction, Zval = 14.0
     Generated by new atomic code, or converted to UPF format
     Using radial grid of  857 points,  6 beta functions with:
                l(1) =   0
                l(2) =   0
                l(3) =   1
                l(4) =   1
                l(5) =   2
                l(6) =   2
     Q(r) pseudized with  8 coefficients,  rinner =    0.950   0.950   0.950
                                                       0.950   0.950

     vdW kernel table read from file vdW_kernel_table
     MD5 check sum: 095c7af220d748ca6e76c0b4c6cfb241

     atomic species   valence    mass     pseudopotential
        V1            13.00    50.94150     V ( 1.00)
        Cr1           14.00    51.99610     Cr( 1.00)

     No symmetry found

   Cartesian axes

     site n.     atom                  positions (alat units)
         1           V1  tau(   1) = (   0.0000000   0.0000000  10.0000000  )
         2           V1  tau(   2) = (  -1.3362092   2.3143822  10.0000000  )
         3           V1  tau(   3) = (   1.3362092   2.3143822  10.0000000  )
         4           Cr1 tau(   4) = (   2.6724183   0.0000000  10.0000000  )
         5           V1  tau(   5) = (   2.6724183   1.5429214  12.1820204  )
         6           V1  tau(   6) = (   1.3362092   3.8573036  12.1820204  )
         7           V1  tau(   7) = (  -1.3362092   3.8573036  12.1820204  )
         8           Cr1 tau(   8) = (   0.0000000   1.5429214  12.1820204  )
         9           V1  tau(   9) = (  -0.0000000   3.0858429  14.3640409  )
        10           V1  tau(  10) = (   1.3362092   0.7714607  14.3640409  )
        11           V1  tau(  11) = (   4.0086275   0.7714607  14.3640409  )
        12           Cr1 tau(  12) = (   2.6724183   3.0858429  14.3640409  )

     number of k points=    20  Fermi-Dirac smearing, width (Ry)=  0.0110
                       cart. coord. in units 2pi/alat
        k(    1) = (   0.0000000   0.0000000   0.0000000), wk =   0.0555556
        k(    2) = (   0.0000000   0.0360067   0.0000000), wk =   0.1111111
        k(    3) = (   0.0000000   0.0720135   0.0000000), wk =   0.1111111
        k(    4) = (   0.0000000  -0.1080202   0.0000000), wk =   0.0555556
        k(    5) = (   0.0311827   0.0180034   0.0000000), wk =   0.1111111
        k(    6) = (   0.0311827   0.0540101   0.0000000), wk =   0.1111111
        k(    7) = (   0.0311827   0.0900168   0.0000000), wk =   0.1111111
        k(    8) = (   0.0311827  -0.0900168   0.0000000), wk =   0.1111111
        k(    9) = (   0.0311827  -0.0540101   0.0000000), wk =   0.1111111
        k(   10) = (   0.0311827  -0.0180034   0.0000000), wk =   0.1111111
        k(   11) = (   0.0623655   0.0360067   0.0000000), wk =   0.1111111
        k(   12) = (   0.0623655   0.0720135   0.0000000), wk =   0.1111111
        k(   13) = (   0.0623655   0.1080202   0.0000000), wk =   0.1111111
        k(   14) = (   0.0623655  -0.0720135   0.0000000), wk =   0.1111111
        k(   15) = (   0.0623655  -0.0360067   0.0000000), wk =   0.1111111
        k(   16) = (   0.0623655   0.0000000   0.0000000), wk =   0.1111111
        k(   17) = (  -0.0935482  -0.0540101   0.0000000), wk =   0.0555556
        k(   18) = (  -0.0935482  -0.0180034   0.0000000), wk =   0.1111111
        k(   19) = (  -0.0935482   0.0180034   0.0000000), wk =   0.1111111
        k(   20) = (  -0.0935482  -0.1620303   0.0000000), wk =   0.0555556

     Largest allocated arrays     est. size (Mb)     dimensions
     Largest temporary arrays     est. size (Mb)     dimensions

     Check: negative/imaginary core charge=   -0.000002    0.000000

     Initial potential from superposition of free atoms
     Check: negative starting charge=   -0.011648

     starting charge  155.98891, renormalised to  159.00000

     negative rho (up, down):  1.187E-02 0.000E+00

     *
     * You are using vdW-DF for exchange-correlation in this calculation.
     * Please cite the following three references that made this development
     * possible:
     *
     *   M. Dion, H. Rydberg, E. Schroder, D. C. Langreth, and
     *   B. I. Lundqvist, Phys. Rev. Lett. 92, 246401 (2004).
     *
     *   T. Thonhauser, V. R. Cooper, S. Li, A. Puzder, P. Hyldgaard, and
     *   D. C. Langreth, Phys. Rev. B 76, 125112 (2007).
     *
     *   G. Roman-Perez and J. M. Soler, Phys. Rev. Lett. 103, 096102 (2009).
     *
     *
     * If you are using vdW-DF2, please also cite:
     *
     *   K. Lee, E. D. Murray, L. Kong, B. I. Lundqvist, and
     *   D. C. Langreth, Phys. Rev. B 82, 081101(R) (2010).
     *
     *
     * If you are calculating the stress with vdW-DF, please also cite:
     *
     *   R. Sabatini, E. Kucukbenli, B. Kolb, T. Thonhauser, and
     *   S. de Gironcoli, J. Phys.: Condens. Matter 24, 424209 (2012).
     *

     Carrying out vdW-DF run using the following parameters:

     Nqs =      20    Nr_points =    1024   r_max =   100.000
     q_mesh =
               0.00001000     0.04494208     0.09755937     0.15916263
               0.23128650     0.31572767     0.41458969     0.53033537
               0.66584808     0.82450364     1.01025438     1.22772762
               1.48234092     1.78043706     2.12944203     2.53805004
               3.01644009     3.57652955     4.23227104     5.00000000

     Gradients computed in reciprocal space

     Adding external electric field

     Computed dipole along edir(3) :
        Dipole               -0.0000 Ry au,         -0.0000 Debye
        Dipole field         -0.0000 Ry au

        Potential amp.        0.0000 Ry
        Total length         44.8903 bohr

     Starting wfc are  120 randomized atomic wfcs

     Self-consistent Calculation

     iteration #  1     ecut=    36.75 Ry     beta=0.10
     Davidson diagonalization with overlap
     ethr =  1.00E-02,  avg # of iterations =  3.5

[...]

     total energy              =   -1836.67361580 Ry
     Harris-Foulkes estimate   =   -1842.60290366 Ry
     estimated scf accuracy    <      32.84747998 Ry

[...]

     iteration # 13     ecut=    36.75 Ry     beta=0.10
     Davidson diagonalization with overlap
     c_bands:  1 eigenvalues not converged
     ethr =  2.27E-06,  avg # of iterations =  3.4

[...]

     iteration # 14     ecut=    36.75 Ry     beta=0.10
     Davidson diagonalization with overlap
     c_bands:  1 eigenvalues not converged
     ethr =  5.24E-07,  avg # of iterations =  3.8

[...]

     End of self-consistent calculation

          k = 0.0000 0.0000 0.0000 ( 15317 PWs)   bands (ev):

   -70.6441 -70.4736 -70.4734 -63.3100 -63.2304 -63.2082 -63.2066 -63.2066
   -63.1424 -63.1424 -63.1359 -63.1359 -41.9581 -41.9581 -41.9291 -41.8332
   -41.8274 -41.7674 -41.7674 -41.7658 -41.7658 -37.4489 -37.3074 -37.3022
   -37.2626 -37.2626 -37.2373 -37.1935 -37.1935 -37.1057 -37.0928 -37.0928
   -37.0300 -37.0300 -36.9976 -36.9976 -36.9284 -36.8699 -36.8603 -36.8603
   -36.8061 -36.7821 -36.7821 -36.7683 -36.7014 -36.7014 -36.6973 -36.6973
    -5.2464  -3.6596  -2.5678  -2.2413  -2.1676  -2.1676  -1.9982  -1.8918
    -1.8918  -1.4521  -1.4351  -1.4340  -1.4340  -1.3917  -1.3917  -0.5515
    -0.5515  -0.5322   0.3011   0.4264   0.4264   0.4481   0.6735   0.7397
     0.9835   0.9835   0.9971   1.1416   1.1416   1.1528   1.1528   1.1717
     1.1717   1.3033   1.3033   1.3646   1.5358   1.7369   1.8417   1.8417
     2.1460   2.1460   2.4307   2.4977   2.4977   2.8810   2.8810   2.8961
     2.9758   2.9758   2.9985   3.1657   3.1657   3.3319   3.3319   3.4745
     3.4745   3.5565   3.6903   3.6904   3.8226

[...]

          k =-0.0935-0.0540 0.0000 ( 15334 PWs)   bands (ev):

[...]

     the Fermi energy is     0.9718 ev

!    total energy              =   -1840.30983506 Ry
     Harris-Foulkes estimate   =   -1840.30983577 Ry
     estimated scf accuracy    <       0.00000066 Ry

     The total energy is the sum of the following terms:

     one-electron contribution =  -15808.29360583 Ry
     hartree contribution      =    7891.75963985 Ry
     xc contribution           =    -252.82582037 Ry
     ewald contribution        =    6329.20192351 Ry
     electric field correction =       0.00000000 Ry
     smearing contrib. (-TS)   =      -0.15197222 Ry

     convergence has been achieved in  25 iterations

 BEEF-vdW xc energy contributions
           1 :   -218.193059978236
           2 :    195.993668838649
           3 :   -159.220857992213
[...]
     MD5 check sum: 22b79981416ebb76fdaf5b1b8640f6fb
     Pseudo is Ultrasoft + core correction, Zval = 13.0
     Generated by new atomic code, or converted to UPF format
     Using radial grid of  853 points,  6 beta functions with:
                l(1) =   0
                l(2) =   0
                l(3) =   1
                l(4) =   1
                l(5) =   2
                l(6) =   2
     Q(r) pseudized with  8 coefficients,  rinner =    1.100   1.100   1.100
                                                       1.100   1.100

     PseudoPot. # 2 for Cr read from file:
     /afs/slac.stanford.edu/u/if/mamunm/psp/gbrv1.5pbe/Cr.UPF
     MD5 check sum: 0d52af634a40206e4dee301ad30da4bf
     Pseudo is Ultrasoft + core correction, Zval = 14.0
     Generated by new atomic code, or converted to UPF format
     Using radial grid of  857 points,  6 beta functions with:
                l(1) =   0
                l(2) =   0
                l(3) =   1
                l(4) =   1
                l(5) =   2
                l(6) =   2
     Q(r) pseudized with  8 coefficients,  rinner =    0.950   0.950   0.950
                                                       0.950   0.950

     vdW kernel table read from file vdW_kernel_table
     MD5 check sum: 095c7af220d748ca6e76c0b4c6cfb241

     atomic species   valence    mass     pseudopotential
        V1            13.00    50.94150     V ( 1.00)
        Cr1           14.00    51.99610     Cr( 1.00)

     No symmetry found

   Cartesian axes

     site n.     atom                  positions (alat units)
         1           V1  tau(   1) = (   0.0000000   0.0000000  10.0000000  )
         2           V1  tau(   2) = (  -1.3362092   2.3143822  10.0000000  )
         3           V1  tau(   3) = (   1.3362092   2.3143822  10.0000000  )
         4           Cr1 tau(   4) = (   2.6724183   0.0000000  10.0000000  )
         5           V1  tau(   5) = (   2.6724183   1.5429214  12.1820204  )
         6           V1  tau(   6) = (   1.3362092   3.8573036  12.1820204  )
         7           V1  tau(   7) = (  -1.3362092   3.8573036  12.1820204  )
         8           Cr1 tau(   8) = (   0.0000000   1.5429214  12.1820204  )
         9           V1  tau(   9) = (   0.0000339   3.0473005  14.4082066  )
        10           V1  tau(  10) = (   1.3028618   0.7907805  14.4082104  )
        11           V1  tau(  11) = (   4.0421500   0.7908423  14.4081819  )
        12           Cr1 tau(  12) = (   2.6724378   3.0859051  13.9276017  )

     number of k points=    20  Fermi-Dirac smearing, width (Ry)=  0.0110
                       cart. coord. in units 2pi/alat
        k(    1) = (   0.0000000   0.0000000   0.0000000), wk =   0.0555556
        k(    2) = (   0.0000000   0.0360067   0.0000000), wk =   0.1111111
        k(    3) = (   0.0000000   0.0720135   0.0000000), wk =   0.1111111
        k(    4) = (   0.0000000  -0.1080202   0.0000000), wk =   0.0555556
        k(    5) = (   0.0311827   0.0180034   0.0000000), wk =   0.1111111
        k(    6) = (   0.0311827   0.0540101   0.0000000), wk =   0.1111111
        k(    7) = (   0.0311827   0.0900168   0.0000000), wk =   0.1111111
        k(    8) = (   0.0311827  -0.0900168   0.0000000), wk =   0.1111111
        k(    9) = (   0.0311827  -0.0540101   0.0000000), wk =   0.1111111
        k(   10) = (   0.0311827  -0.0180034   0.0000000), wk =   0.1111111
        k(   11) = (   0.0623655   0.0360067   0.0000000), wk =   0.1111111
        k(   12) = (   0.0623655   0.0720135   0.0000000), wk =   0.1111111
        k(   13) = (   0.0623655   0.1080202   0.0000000), wk =   0.1111111
        k(   14) = (   0.0623655  -0.0720135   0.0000000), wk =   0.1111111
        k(   15) = (   0.0623655  -0.0360067   0.0000000), wk =   0.1111111
        k(   16) = (   0.0623655   0.0000000   0.0000000), wk =   0.1111111
        k(   17) = (  -0.0935482  -0.0540101   0.0000000), wk =   0.0555556
        k(   18) = (  -0.0935482  -0.0180034   0.0000000), wk =   0.1111111
        k(   19) = (  -0.0935482   0.0180034   0.0000000), wk =   0.1111111
        k(   20) = (  -0.0935482  -0.1620303   0.0000000), wk =   0.0555556

     Largest allocated arrays     est. size (Mb)     dimensions
     Largest temporary arrays     est. size (Mb)     dimensions

     Check: negative/imaginary core charge=   -0.000002    0.000000

     Initial potential from superposition of free atoms
     Check: negative starting charge=   -0.010920

     starting charge  155.98891, renormalised to  159.00000

[...]

     *
     * You are using vdW-DF for exchange-correlation in this calculation.
     * Please cite the following three references that made this development
     * possible:
     *
     *   M. Dion, H. Rydberg, E. Schroder, D. C. Langreth, and
     *   B. I. Lundqvist, Phys. Rev. Lett. 92, 246401 (2004).
     *
     *   T. Thonhauser, V. R. Cooper, S. Li, A. Puzder, P. Hyldgaard, and
     *   D. C. Langreth, Phys. Rev. B 76, 125112 (2007).
     *
     *   G. Roman-Perez and J. M. Soler, Phys. Rev. Lett. 103, 096102 (2009).
     *
     *
     * If you are using vdW-DF2, please also cite:
     *
     *   K. Lee, E. D. Murray, L. Kong, B. I. Lundqvist, and
     *   D. C. Langreth, Phys. Rev. B 82, 081101(R) (2010).
     *
     *
     * If you are calculating the stress with vdW-DF, please also cite:
     *
     *   R. Sabatini, E. Kucukbenli, B. Kolb, T. Thonhauser, and
     *   S. de Gironcoli, J. Phys.: Condens. Matter 24, 424209 (2012).
     *

     Carrying out vdW-DF run using the following parameters:

     Nqs =      20    Nr_points =    1024   r_max =   100.000
     q_mesh =
               0.00001000     0.04494208     0.09755937     0.15916263
               0.23128650     0.31572767     0.41458969     0.53033537
               0.66584808     0.82450364     1.01025438     1.22772762
               1.48234092     1.78043706     2.12944203     2.53805004
               3.01644009     3.57652955     4.23227104     5.00000000

     Gradients computed in reciprocal space

[...]

     Starting wfc are  120 randomized atomic wfcs

     Self-consistent Calculation

[...]

     total energy              =   -1840.31666451 Ry
     Harris-Foulkes estimate   =   -1840.31666485 Ry
     estimated scf accuracy    <       0.00000242 Ry

     iteration # 27     ecut=    36.75 Ry     beta=0.10
     Davidson diagonalization with overlap
     ethr =  6.44E-10,  avg # of iterations =  2.0

[...]

     negative rho (up, down):  1.330E-02 0.000E+00

     Adding external electric field

     Computed dipole along edir(3) :
        Dipole                0.0620 Ry au,          0.1576 Debye
        Dipole field          0.0002 Ry au

        Potential amp.       -0.0172 Ry
        Total length         44.8903 bohr

     End of self-consistent calculation

[...]

          k = 0.0624 0.0000 0.0000 ( 15310 PWs)   bands (ev):

[...]

          k =-0.0935-0.1620 0.0000 ( 15334 PWs)   bands (ev):

   -70.6069 -70.3737 -70.3111 -63.1738 -63.1478 -63.1235 -63.1075 -63.1010
   -63.0698 -63.0637 -63.0627 -63.0339 -41.9116 -41.9063 -41.8956 -41.7354
   -41.6705 -41.6646 -41.6578 -41.6566 -41.6550 -37.2079 -37.1772 -37.1399
   -37.0906 -37.0753 -37.0696 -37.0432 -37.0337 -36.9935 -36.9927 -36.9795
   -36.9351 -36.9328 -36.8968 -36.8893 -36.8805 -36.8690 -36.8371 -36.8330
   -36.8146 -36.8108 -36.7632 -36.7280 -36.7219 -36.6720 -36.6303 -36.6203
    -3.4462  -3.3991  -2.1386  -2.1215  -1.5524  -1.4659  -1.4100  -1.3977
    -1.3407  -1.1880  -0.8518  -0.7648  -0.6121  -0.5797  -0.4626  -0.4019
    -0.2374  -0.0788  -0.0527  -0.0483   0.0669   0.0800   0.2270   0.3363
     0.4239   0.5110   0.5380   0.6240   0.6721   0.7817   0.8049   0.8602
     0.9238   1.0869   1.1499   1.1936   1.3600   1.4515   1.5140   1.5435
     1.8121   1.8686   1.9991   2.1368   2.2092   2.2671   2.3870   2.4222
     2.5396   2.5505   2.5853   2.7011   2.7080   2.7640   2.9516   2.9557
     3.0902   3.1985   3.2702   3.2716   3.6224

     the Fermi energy is     1.0600 ev

!    total energy              =   -1840.31666253 Ry
     Harris-Foulkes estimate   =   -1840.31666704 Ry
     estimated scf accuracy    <       0.00000099 Ry

     The total energy is the sum of the following terms:

     one-electron contribution =  -15976.73525345 Ry
     hartree contribution      =    7976.48543039 Ry
     xc contribution           =    -252.99800218 Ry
     ewald contribution        =    6413.06980522 Ry
     electric field correction =       0.00001187 Ry
     smearing contrib. (-TS)   =      -0.13865439 Ry

     convergence has been achieved in  27 iterations

 BEEF-vdW xc energy contributions
           1 :   -218.367777949661
           2 :    196.209980656857
           3 :   -159.476901230904
           4 :    119.586176209117
           5 :   -86.6310623988957
           6 :    65.5648006316865
           7 :   -55.4448520554696
           8 :    51.5461956694402
           9 :   -48.7119097415423
          10 :    43.9817855860980
          11 :   -37.3521641795998
          12 :    30.7400372593966
          13 :   -26.1590346463572
          14 :    24.3039168224158
          15 :   -24.2745596534039
          16 :    24.3760302291219
          17 :   -23.3124559087098
          18 :    20.9486137462813
          19 :   -18.2044645122125
          20 :    16.2619868627864
          21 :   -15.7022600353050
          22 :    16.1603264435629
          23 :   -16.6689345273705
          24 :    16.3738138992604
          25 :   -15.0949695751394
          26 :    13.3725751888101
          27 :   -12.0261557301681
          28 :    11.5714409750997
          29 :   -11.8977399627214
          30 :    12.3951900155339
          31 :   -22.2707972338725
          32 :   -16.0507497901191

     Forces acting on atoms (Ry/au):

     negative rho (up, down):  1.330E-02 0.000E+00
     atom    1 type  1   force =     0.00000076    0.00790292   -0.00199172
     atom    2 type  1   force =     0.00684334   -0.00395165   -0.00198727
     atom    3 type  1   force =    -0.00684429   -0.00395169   -0.00199267
     atom    4 type  2   force =    -0.00000109   -0.00000036    0.01647094
     atom    5 type  1   force =    -0.00000334   -0.02064541   -0.00931870
     atom    6 type  1   force =    -0.01788259    0.01032025   -0.00932489
     atom    7 type  1   force =     0.01787871    0.01032240   -0.00932128
     atom    8 type  2   force =     0.00000184   -0.00000436    0.01743676
     atom    9 type  1   force =     0.00000187   -0.00006931   -0.00004436
     atom   10 type  1   force =    -0.00006132    0.00003943   -0.00004751
     atom   11 type  1   force =     0.00006279    0.00003753   -0.00003653
     atom   12 type  2   force =     0.00000331    0.00000025    0.00015723

     Total force =     0.048104     Total SCF correction =     0.006853
     SCF correction compared to forces is large: reduce conv_thr to get better values

     entering subroutine stress ...

     negative rho (up, down):  1.330E-02 0.000E+00
          total   stress  (Ry/bohr**3)                   (kbar)     P=  -18.53
  -0.00017897  -0.00000001   0.00000001        -26.33     -0.00      0.00
  -0.00000001  -0.00017898   0.00000001         -0.00    -26.33      0.00
   0.00000001   0.00000001  -0.00001988          0.00      0.00     -2.92

 !ASE

     Writing output data file calc.save

     General routines

     Parallel routines

   This run was terminated on:   9:31:14   2Jan2019

   JOB DONE.
Job  /afs/slac/g/suncat/bin/suncat-tsmpirun -x LD_LIBRARY_PATH -wdir /scratch/qe649296_Z67Ro pw.x -in pw.inp

TID   HOST_NAME   COMMAND_LINE            STATUS            TERMINATION_TIME
00000 suncat0178 pw.x -in pw.inp   Done                     01/02/2019 09:31:14
00001 suncat0178 pw.x -in pw.inp   Done                     01/02/2019 09:31:14
00002 suncat0178 pw.x -in pw.inp   Done                     01/02/2019 09:31:14
00003 suncat0178 pw.x -in pw.inp   Done                     01/02/2019 09:31:14
00004 suncat0178 pw.x -in pw.inp   Done                     01/02/2019 09:31:14
00005 suncat0178 pw.x -in pw.inp   Done                     01/02/2019 09:31:14
00006 suncat0178 pw.x -in pw.inp   Done                     01/02/2019 09:31:14
00007 suncat0178 pw.x -in pw.inp   Done                     01/02/2019 09:31:14
00008 suncat0177 pw.x -in pw.inp   Done                     01/02/2019 09:31:14
00009 suncat0177 pw.x -in pw.inp   Done                     01/02/2019 09:31:14
00010 suncat0177 pw.x -in pw.inp   Done                     01/02/2019 09:31:14
00011 suncat0177 pw.x -in pw.inp   Done                     01/02/2019 09:31:14
00012 suncat0177 pw.x -in pw.inp   Done                     01/02/2019 09:31:14
00013 suncat0177 pw.x -in pw.inp   Done                     01/02/2019 09:31:14
00014 suncat0177 pw.x -in pw.inp   Done                     01/02/2019 09:31:14
00015 suncat0177 pw.x -in pw.inp   Done                     01/02/2019 09:31:14
00016 suncat0113 pw.x -in pw.inp   Done                     01/02/2019 09:31:14
00017 suncat0113 pw.x -in pw.inp   Done                     01/02/2019 09:31:14
00018 suncat0113 pw.x -in pw.inp   Done                     01/02/2019 09:31:14
00019 suncat0113 pw.x -in pw.inp   Done                     01/02/2019 09:31:14
00020 suncat0113 pw.x -in pw.inp   Done                     01/02/2019 09:31:14
00021 suncat0113 pw.x -in pw.inp   Done                     01/02/2019 09:31:14
00022 suncat0113 pw.x -in pw.inp   Done                     01/02/2019 09:31:14
00023 suncat0113 pw.x -in pw.inp   Done                     01/02/2019 09:31:14
00024 suncat0267 pw.x -in pw.inp   Done                     01/02/2019 09:31:14
00025 suncat0267 pw.x -in pw.inp   Done                     01/02/2019 09:31:14
00026 suncat0267 pw.x -in pw.inp   Done                     01/02/2019 09:31:14
00027 suncat0267 pw.x -in pw.inp   Done                     01/02/2019 09:31:14
00028 suncat0267 pw.x -in pw.inp   Done                     01/02/2019 09:31:14
00029 suncat0267 pw.x -in pw.inp   Done                     01/02/2019 09:31:14
00030 suncat0267 pw.x -in pw.inp   Done                     01/02/2019 09:31:14
00031 suncat0267 pw.x -in pw.inp   Done                     01/02/2019 09:31:14
00032 suncat0254 pw.x -in pw.inp   Done                     01/02/2019 09:31:14
00033 suncat0254 pw.x -in pw.inp   Done                     01/02/2019 09:31:14
00034 suncat0254 pw.x -in pw.inp   Done                     01/02/2019 09:31:14
00035 suncat0254 pw.x -in pw.inp   Done                     01/02/2019 09:31:14
00036 suncat0254 pw.x -in pw.inp   Done                     01/02/2019 09:31:14
00037 suncat0254 pw.x -in pw.inp   Done                     01/02/2019 09:31:14
00038 suncat0254 pw.x -in pw.inp   Done                     01/02/2019 09:31:14
00039 suncat0254 pw.x -in pw.inp   Done                     01/02/2019 09:31:14
00040 suncat0253 pw.x -in pw.inp   Done                     01/02/2019 09:31:14
00041 suncat0253 pw.x -in pw.inp   Done                     01/02/2019 09:31:14
00042 suncat0253 pw.x -in pw.inp   Done                     01/02/2019 09:31:14
00043 suncat0253 pw.x -in pw.inp   Done                     01/02/2019 09:31:14
00044 suncat0253 pw.x -in pw.inp   Done                     01/02/2019 09:31:14
00045 suncat0253 pw.x -in pw.inp   Done                     01/02/2019 09:31:14
00046 suncat0253 pw.x -in pw.inp   Done                     01/02/2019 09:31:14
00047 suncat0253 pw.x -in pw.inp   Done                     01/02/2019 09:31:14
00048 suncat0228 pw.x -in pw.inp   Done                     01/02/2019 09:31:14
00049 suncat0228 pw.x -in pw.inp   Done                     01/02/2019 09:31:14
00050 suncat0228 pw.x -in pw.inp   Done                     01/02/2019 09:31:14
00051 suncat0228 pw.x -in pw.inp   Done                     01/02/2019 09:31:14
00052 suncat0228 pw.x -in pw.inp   Done                     01/02/2019 09:31:14
00053 suncat0228 pw.x -in pw.inp   Done                     01/02/2019 09:31:14
00054 suncat0228 pw.x -in pw.inp   Done                     01/02/2019 09:31:14
00055 suncat0228 pw.x -in pw.inp   Done                     01/02/2019 09:31:14
00056 suncat0227 pw.x -in pw.inp   Done                     01/02/2019 09:31:14
00057 suncat0227 pw.x -in pw.inp   Done                     01/02/2019 09:31:14
00058 suncat0227 pw.x -in pw.inp   Done                     01/02/2019 09:31:14
00059 suncat0227 pw.x -in pw.inp   Done                     01/02/2019 09:31:14
00060 suncat0227 pw.x -in pw.inp   Done                     01/02/2019 09:31:14
00061 suncat0227 pw.x -in pw.inp   Done                     01/02/2019 09:31:14
00062 suncat0227 pw.x -in pw.inp   Done                     01/02/2019 09:31:14
00063 suncat0227 pw.x -in pw.inp   Done                     01/02/2019 09:31:14