     Program PWSCF v.5.1rc2 (svn rev. 11289) starts on  2Jan2019 at 18:41:35

     Current dimensions of program PWSCF are:
     Max number of different atomic species (ntypx) = 10
     Max number of k-points (npk) =  40000
     Max angular momentum in pseudopotentials (lmaxx) =  3
     Presently stress not available with electric field

     IMPORTANT: XC functional enforced from input :
     Exchange-correlation      = BEEF-VDW ( 1  4 27 13 2)
     Any further DFT definition will be discarded
     Please, verify this is what you really want

     Subspace diagonalization in iterative solution of the eigenvalue problem:
     a serial algorithm will be used

     bravais-lattice index     =            0
     lattice parameter (alat)  =       1.8897  a.u.
     unit-cell volume          =    4218.2565 (a.u.)^3
     number of atoms/cell      =           12
     number of atomic types    =            2
     number of electrons       =       219.00
     number of Kohn-Sham states=          139
     kinetic-energy cutoff     =      36.7493  Ry
     charge density cutoff     =     367.4932  Ry
     convergence threshold     =      1.0E-06
     mixing beta               =       0.1000
     number of iterations used =           10  plain     mixing
     Exchange-correlation      = BEEF-VDW ( 1  4 27 13 2)
     nstep                     =           50

     celldm(1)=   1.889726  celldm(2)=   0.000000  celldm(3)=   0.000000
     celldm(4)=   0.000000  celldm(5)=   0.000000  celldm(6)=   0.000000

     crystal axes: (cart. coord. in units of alat)
               a(1) = (   5.434696   0.000000   0.000000 )
               a(2) = (  -2.717348   4.706585   0.000000 )
               a(3) = (   0.000000   0.000000  24.437411 )

     reciprocal axes: (cart. coord. in units 2 pi/alat)
               b(1) = (  0.184003  0.106234  0.000000 )
               b(2) = (  0.000000  0.212468  0.000000 )
               b(3) = (  0.000000  0.000000  0.040921 )

     PseudoPot. # 1 for Zn read from file:
     /afs/slac.stanford.edu/u/if/mamunm/psp/gbrv1.5pbe/Zn.UPF
     MD5 check sum: df62231357ef9e81f77b2b3087fa5675
     Pseudo is Ultrasoft, Zval = 20.0
     Generated by new atomic code, or converted to UPF format
     Using radial grid of  943 points,  6 beta functions with:
                l(1) =   0
                l(2) =   0
                l(3) =   1
                l(4) =   1
                l(5) =   2
                l(6) =   2
     Q(r) pseudized with  8 coefficients,  rinner =    1.100   1.100   1.100
                                                       1.100   1.100

     PseudoPot. # 2 for V  read from file:
     /afs/slac.stanford.edu/u/if/mamunm/psp/gbrv1.5pbe/V.UPF
     MD5 check sum: 22b79981416ebb76fdaf5b1b8640f6fb
     Pseudo is Ultrasoft + core correction, Zval = 13.0
     Generated by new atomic code, or converted to UPF format
     Using radial grid of  853 points,  6 beta functions with:
                l(1) =   0
                l(2) =   0
                l(3) =   1
                l(4) =   1
                l(5) =   2
                l(6) =   2
     Q(r) pseudized with  8 coefficients,  rinner =    1.100   1.100   1.100
                                                       1.100   1.100

     vdW kernel table read from file vdW_kernel_table
     MD5 check sum: 095c7af220d748ca6e76c0b4c6cfb241

     atomic species   valence    mass     pseudopotential
        Zn1           20.00    65.38000     Zn( 1.00)
        V1            13.00    50.94150     V ( 1.00)

     No symmetry found

   Cartesian axes

     site n.     atom                  positions (alat units)
         1           Zn1 tau(   1) = (   0.0000000   0.0000000  10.0000000  )
         2           Zn1 tau(   2) = (  -1.3586741   2.3532925  10.0000000  )
         3           Zn1 tau(   3) = (   1.3586741   2.3532925  10.0000000  )
         4           V1  tau(   4) = (   2.7173481   0.0000000  10.0000000  )
         5           Zn1 tau(   5) = (   2.7173481   1.5688617  12.2187055  )
         6           Zn1 tau(   6) = (   1.3586741   3.9221542  12.2187055  )
         7           Zn1 tau(   7) = (  -1.3586741   3.9221542  12.2187055  )
         8           V1  tau(   8) = (   0.0000000   1.5688617  12.2187055  )
         9           Zn1 tau(   9) = (  -0.0000000   3.1377234  14.4374109  )
        10           Zn1 tau(  10) = (   1.3586741   0.7844308  14.4374109  )
        11           Zn1 tau(  11) = (   4.0760222   0.7844308  14.4374109  )
        12           V1  tau(  12) = (   2.7173481   3.1377234  14.4374109  )

     number of k points=    20  Fermi-Dirac smearing, width (Ry)=  0.0110
                       cart. coord. in units 2pi/alat
        k(    1) = (   0.0000000   0.0000000   0.0000000), wk =   0.0555556
        k(    2) = (   0.0000000   0.0354114   0.0000000), wk =   0.1111111
        k(    3) = (   0.0000000   0.0708228   0.0000000), wk =   0.1111111
        k(    4) = (   0.0000000  -0.1062341   0.0000000), wk =   0.0555556
        k(    5) = (   0.0306672   0.0177057   0.0000000), wk =   0.1111111
        k(    6) = (   0.0306672   0.0531171   0.0000000), wk =   0.1111111
        k(    7) = (   0.0306672   0.0885284   0.0000000), wk =   0.1111111
        k(    8) = (   0.0306672  -0.0885284   0.0000000), wk =   0.1111111
        k(    9) = (   0.0306672  -0.0531171   0.0000000), wk =   0.1111111
        k(   10) = (   0.0306672  -0.0177057   0.0000000), wk =   0.1111111
        k(   11) = (   0.0613343   0.0354114   0.0000000), wk =   0.1111111
        k(   12) = (   0.0613343   0.0708228   0.0000000), wk =   0.1111111
        k(   13) = (   0.0613343   0.1062341   0.0000000), wk =   0.1111111
        k(   14) = (   0.0613343  -0.0708228   0.0000000), wk =   0.1111111
        k(   15) = (   0.0613343  -0.0354114   0.0000000), wk =   0.1111111
        k(   16) = (   0.0613343   0.0000000   0.0000000), wk =   0.1111111
        k(   17) = (  -0.0920015  -0.0531171   0.0000000), wk =   0.0555556
        k(   18) = (  -0.0920015  -0.0177057   0.0000000), wk =   0.1111111
        k(   19) = (  -0.0920015   0.0177057   0.0000000), wk =   0.1111111
        k(   20) = (  -0.0920015  -0.1593512   0.0000000), wk =   0.0555556

     Largest allocated arrays     est. size (Mb)     dimensions
     Largest temporary arrays     est. size (Mb)     dimensions

     Initial potential from superposition of free atoms
     Check: negative starting charge=   -0.003707

     starting charge  218.99505, renormalised to  219.00000

     negative rho (up, down):  3.707E-03 0.000E+00

     *
     * You are using vdW-DF for exchange-correlation in this calculation.
     * Please cite the following three references that made this development
     * possible:
     *
     *   M. Dion, H. Rydberg, E. Schroder, D. C. Langreth, and
     *   B. I. Lundqvist, Phys. Rev. Lett. 92, 246401 (2004).
     *
     *   T. Thonhauser, V. R. Cooper, S. Li, A. Puzder, P. Hyldgaard, and
     *   D. C. Langreth, Phys. Rev. B 76, 125112 (2007).
     *
     *   G. Roman-Perez and J. M. Soler, Phys. Rev. Lett. 103, 096102 (2009).
     *
     *
     * If you are using vdW-DF2, please also cite:
     *
     *   K. Lee, E. D. Murray, L. Kong, B. I. Lundqvist, and
     *   D. C. Langreth, Phys. Rev. B 82, 081101(R) (2010).
     *
     *
     * If you are calculating the stress with vdW-DF, please also cite:
     *
     *   R. Sabatini, E. Kucukbenli, B. Kolb, T. Thonhauser, and
     *   S. de Gironcoli, J. Phys.: Condens. Matter 24, 424209 (2012).
     *

     Carrying out vdW-DF run using the following parameters:

     Nqs =      20    Nr_points =    1024   r_max =   100.000
     q_mesh =
               0.00001000     0.04494208     0.09755937     0.15916263
               0.23128650     0.31572767     0.41458969     0.53033537
               0.66584808     0.82450364     1.01025438     1.22772762
               1.48234092     1.78043706     2.12944203     2.53805004
               3.01644009     3.57652955     4.23227104     5.00000000

     Gradients computed in reciprocal space

     Adding external electric field

     Computed dipole along edir(3) :
        Dipole                0.0000 Ry au,          0.0000 Debye
        Dipole field          0.0000 Ry au

        Potential amp.       -0.0000 Ry
        Total length         45.0255 bohr

     Starting wfc are  147 randomized atomic wfcs

     Self-consistent Calculation

     iteration #  1     ecut=    36.75 Ry     beta=0.10
     Davidson diagonalization with overlap
     ethr =  1.00E-02,  avg # of iterations =  6.8

[...]

     total energy              =   -4601.65642668 Ry
     Harris-Foulkes estimate   =   -4602.57543201 Ry
     estimated scf accuracy    <       5.12987689 Ry

[...]

     End of self-consistent calculation

          k = 0.0000 0.0000 0.0000 ( 15821 PWs)   bands (ev):

  -125.5651-125.5636-125.5636-125.4499-125.4498-125.4484-125.4484-125.4484
  -125.4484 -79.7682 -79.7572 -79.7572 -79.7359 -79.7359 -79.7291 -79.7163
   -79.7085 -79.7085 -79.6458 -79.6453 -79.6367 -79.6367 -79.6363 -79.6363
   -79.6272 -79.6269 -79.6193 -79.6193 -79.6191 -79.6191 -79.6054 -79.6054
   -79.6052 -79.6052 -79.6000 -79.5999 -63.5735 -63.4911 -63.4911 -37.4650
   -37.4649 -37.4494 -37.3764 -37.3764 -37.2402 -37.2402 -37.2400 -37.2400
    -8.2916  -7.1934  -7.1776  -7.1504  -7.0658  -7.0658  -7.0367  -6.9697
    -6.9594  -6.9594  -6.8953  -6.8953  -6.8037  -6.8037  -6.7651  -6.6955
    -6.5976  -6.5976  -6.5066  -6.5066  -6.4969  -6.4364  -6.3887  -6.3444
    -6.3444  -6.3070  -6.3070  -6.2393  -6.2393  -6.1900  -6.1900  -6.1563
    -6.1371  -6.1371  -6.1071  -6.1071  -6.0938  -6.0938  -5.9855  -5.9855
    -5.9355  -5.9001  -5.8901  -5.8874  -5.8874  -5.7709  -5.7658  -3.3823
    -1.6867  -1.6867  -1.4158  -1.4158  -1.3889  -0.7163  -0.5540  -0.5540
    -0.3011   0.0176   0.0176   0.3027   1.0120   1.0737   1.0737   1.1749
     1.1749   1.2585   1.2585   1.8606   1.9641   1.9641   2.0267   2.1745
     2.1745   3.9472   4.0382   4.0382   4.2780   4.3483   4.3483   4.5831
     4.9433   5.0830   5.0830   5.5016   6.0118   6.0354   6.3946   7.7260
     7.7661   7.7661   8.0519

[...]

          k =-0.0920-0.0531 0.0000 ( 15896 PWs)   bands (ev):

[...]

     the Fermi energy is     0.8127 ev

!    total energy              =   -4602.10514028 Ry
     Harris-Foulkes estimate   =   -4602.10513788 Ry
     estimated scf accuracy    <       0.00000032 Ry

     The total energy is the sum of the following terms:

     one-electron contribution =  -31170.97022061 Ry
     hartree contribution      =   15570.38864376 Ry
     xc contribution           =    -451.95144434 Ry
     ewald contribution        =   11450.50604057 Ry
     electric field correction =       0.00000000 Ry
     smearing contrib. (-TS)   =      -0.07815965 Ry

     convergence has been achieved in  16 iterations

 BEEF-vdW xc energy contributions
           1 :   -400.059256902320
           2 :    362.360949878683
           3 :   -299.155674946455
           4 :    228.859796764849
           5 :   -167.834408534979
           6 :    124.268842884292
           7 :   -97.0234913753453
           8 :    79.1679158981609
[...]
     Generated by new atomic code, or converted to UPF format
     Using radial grid of  943 points,  6 beta functions with:
                l(1) =   0
                l(2) =   0
                l(3) =   1
                l(4) =   1
                l(5) =   2
                l(6) =   2
     Q(r) pseudized with  8 coefficients,  rinner =    1.100   1.100   1.100
                                                       1.100   1.100

     PseudoPot. # 2 for V  read from file:
     /afs/slac.stanford.edu/u/if/mamunm/psp/gbrv1.5pbe/V.UPF
     MD5 check sum: 22b79981416ebb76fdaf5b1b8640f6fb
     Pseudo is Ultrasoft + core correction, Zval = 13.0
     Generated by new atomic code, or converted to UPF format
     Using radial grid of  853 points,  6 beta functions with:
                l(1) =   0
                l(2) =   0
                l(3) =   1
                l(4) =   1
                l(5) =   2
                l(6) =   2
     Q(r) pseudized with  8 coefficients,  rinner =    1.100   1.100   1.100
                                                       1.100   1.100

     vdW kernel table read from file vdW_kernel_table
     MD5 check sum: 095c7af220d748ca6e76c0b4c6cfb241

     atomic species   valence    mass     pseudopotential
        Zn1           20.00    65.38000     Zn( 1.00)
        V1            13.00    50.94150     V ( 1.00)

     No symmetry found

   Cartesian axes

     site n.     atom                  positions (alat units)
         1           Zn1 tau(   1) = (   0.0000000   0.0000000  10.0000000  )
         2           Zn1 tau(   2) = (  -1.3586741   2.3532925  10.0000000  )
         3           Zn1 tau(   3) = (   1.3586741   2.3532925  10.0000000  )
         4           V1  tau(   4) = (   2.7173481   0.0000000  10.0000000  )
         5           Zn1 tau(   5) = (   2.7173481   1.5688617  12.2187055  )
         6           Zn1 tau(   6) = (   1.3586741   3.9221542  12.2187055  )
         7           Zn1 tau(   7) = (  -1.3586741   3.9221542  12.2187055  )
         8           V1  tau(   8) = (   0.0000000   1.5688617  12.2187055  )
         9           Zn1 tau(   9) = (  -0.0000014   3.1480348  14.5602728  )
        10           Zn1 tau(  10) = (   1.3675968   0.7792717  14.5602776  )
        11           Zn1 tau(  11) = (   4.0670942   0.7792691  14.5602794  )
        12           V1  tau(  12) = (   2.7173452   3.1377181  14.3088442  )

     number of k points=    20  Fermi-Dirac smearing, width (Ry)=  0.0110
                       cart. coord. in units 2pi/alat
        k(    1) = (   0.0000000   0.0000000   0.0000000), wk =   0.0555556
        k(    2) = (   0.0000000   0.0354114   0.0000000), wk =   0.1111111
        k(    3) = (   0.0000000   0.0708228   0.0000000), wk =   0.1111111
        k(    4) = (   0.0000000  -0.1062341   0.0000000), wk =   0.0555556
        k(    5) = (   0.0306672   0.0177057   0.0000000), wk =   0.1111111
        k(    6) = (   0.0306672   0.0531171   0.0000000), wk =   0.1111111
        k(    7) = (   0.0306672   0.0885284   0.0000000), wk =   0.1111111
        k(    8) = (   0.0306672  -0.0885284   0.0000000), wk =   0.1111111
        k(    9) = (   0.0306672  -0.0531171   0.0000000), wk =   0.1111111
        k(   10) = (   0.0306672  -0.0177057   0.0000000), wk =   0.1111111
        k(   11) = (   0.0613343   0.0354114   0.0000000), wk =   0.1111111
        k(   12) = (   0.0613343   0.0708228   0.0000000), wk =   0.1111111
        k(   13) = (   0.0613343   0.1062341   0.0000000), wk =   0.1111111
        k(   14) = (   0.0613343  -0.0708228   0.0000000), wk =   0.1111111
        k(   15) = (   0.0613343  -0.0354114   0.0000000), wk =   0.1111111
        k(   16) = (   0.0613343   0.0000000   0.0000000), wk =   0.1111111
        k(   17) = (  -0.0920015  -0.0531171   0.0000000), wk =   0.0555556
        k(   18) = (  -0.0920015  -0.0177057   0.0000000), wk =   0.1111111
        k(   19) = (  -0.0920015   0.0177057   0.0000000), wk =   0.1111111
        k(   20) = (  -0.0920015  -0.1593512   0.0000000), wk =   0.0555556

     Largest allocated arrays     est. size (Mb)     dimensions
     Largest temporary arrays     est. size (Mb)     dimensions

     Initial potential from superposition of free atoms
     Check: negative starting charge=   -0.003144

     starting charge  218.99505, renormalised to  219.00000

[...]

     *
     * You are using vdW-DF for exchange-correlation in this calculation.
     * Please cite the following three references that made this development
     * possible:
     *
     *   M. Dion, H. Rydberg, E. Schroder, D. C. Langreth, and
     *   B. I. Lundqvist, Phys. Rev. Lett. 92, 246401 (2004).
     *
     *   T. Thonhauser, V. R. Cooper, S. Li, A. Puzder, P. Hyldgaard, and
     *   D. C. Langreth, Phys. Rev. B 76, 125112 (2007).
     *
     *   G. Roman-Perez and J. M. Soler, Phys. Rev. Lett. 103, 096102 (2009).
     *
     *
     * If you are using vdW-DF2, please also cite:
     *
     *   K. Lee, E. D. Murray, L. Kong, B. I. Lundqvist, and
     *   D. C. Langreth, Phys. Rev. B 82, 081101(R) (2010).
     *
     *
     * If you are calculating the stress with vdW-DF, please also cite:
     *
     *   R. Sabatini, E. Kucukbenli, B. Kolb, T. Thonhauser, and
     *   S. de Gironcoli, J. Phys.: Condens. Matter 24, 424209 (2012).
     *

     Carrying out vdW-DF run using the following parameters:

     Nqs =      20    Nr_points =    1024   r_max =   100.000
     q_mesh =
               0.00001000     0.04494208     0.09755937     0.15916263
               0.23128650     0.31572767     0.41458969     0.53033537
               0.66584808     0.82450364     1.01025438     1.22772762
               1.48234092     1.78043706     2.12944203     2.53805004
               3.01644009     3.57652955     4.23227104     5.00000000

     Gradients computed in reciprocal space

[...]

     Starting wfc are  147 randomized atomic wfcs

     Self-consistent Calculation

[...]

     total energy              =   -4602.11369158 Ry
     Harris-Foulkes estimate   =   -4602.11369168 Ry
     estimated scf accuracy    <       0.00000147 Ry

     iteration # 19     ecut=    36.75 Ry     beta=0.10
     Davidson diagonalization with overlap
     ethr =  6.72E-10,  avg # of iterations =  2.5

[...]

     negative rho (up, down):  3.739E-03 0.000E+00

     Adding external electric field

     Computed dipole along edir(3) :
        Dipole               -0.0458 Ry au,         -0.1163 Debye
        Dipole field         -0.0001 Ry au

        Potential amp.        0.0123 Ry
        Total length         45.0255 bohr

     End of self-consistent calculation

[...]

          k = 0.0613 0.0000 0.0000 ( 15876 PWs)   bands (ev):

[...]

          k =-0.0920-0.1594 0.0000 ( 15896 PWs)   bands (ev):

  -125.5546-125.5541-125.5536-125.5167-125.5162-125.5158-125.3893-125.3888
  -125.3884 -79.7506 -79.7465 -79.7432 -79.7256 -79.7234 -79.7209 -79.7106
   -79.7087 -79.7052 -79.7050 -79.7045 -79.7018 -79.6920 -79.6886 -79.6852
   -79.6729 -79.6711 -79.6685 -79.5850 -79.5810 -79.5781 -79.5643 -79.5617
   -79.5591 -79.5459 -79.5440 -79.5413 -63.6754 -63.5389 -63.4699 -37.5442
   -37.5046 -37.4736 -37.4731 -37.4166 -37.2932 -37.2926 -37.2307 -37.2302
    -7.2199  -7.0268  -6.9272  -6.8676  -6.8407  -6.8252  -6.7657  -6.7639
    -6.7616  -6.7457  -6.7207  -6.7032  -6.6682  -6.6074  -6.5783  -6.5565
    -6.5329  -6.5303  -6.4887  -6.4543  -6.4317  -6.4242  -6.4089  -6.3745
    -6.3610  -6.3409  -6.3362  -6.3244  -6.3040  -6.2817  -6.2725  -6.2664
    -6.2593  -6.2502  -6.2326  -6.2270  -6.2144  -6.1766  -6.1600  -6.1358
    -6.0628  -6.0540  -6.0015  -5.9598  -5.9297  -5.8827  -5.8580  -4.5652
    -4.2670  -3.1068  -2.5084  -2.0153  -1.5623  -1.3033  -0.9138  -0.1275
     0.0869   0.2942   0.3331   0.4184   0.5334   0.6394   0.8361   0.9315
     1.3553   1.3916   1.7998   1.8422   2.2663   2.4484   2.8394   2.9502
     3.1500   3.4477   5.1546   5.2688   5.3042   5.5861   5.8401   5.9845
     6.0045   6.0260   6.1386   6.1954   6.4907   6.5359   7.0040   7.1053
     7.4250   7.4923   7.5064

     the Fermi energy is     0.7447 ev

!    total energy              =   -4602.11369231 Ry
     Harris-Foulkes estimate   =   -4602.11369103 Ry
     estimated scf accuracy    <       0.00000023 Ry

     The total energy is the sum of the following terms:

     one-electron contribution =  -30855.93910800 Ry
     hartree contribution      =   15412.83850032 Ry
     xc contribution           =    -451.90383623 Ry
     ewald contribution        =   11292.97143849 Ry
     electric field correction =       0.00000624 Ry
     smearing contrib. (-TS)   =      -0.08069313 Ry

     convergence has been achieved in  19 iterations

 BEEF-vdW xc energy contributions
           1 :   -400.008582521007
           2 :    362.279340616643
           3 :   -299.038324792892
           4 :    228.733764292289
           5 :   -167.739036619079
           6 :    124.225659531498
           7 :   -97.0169448857800
           8 :    79.1551064656387
           9 :   -63.4382456961909
          10 :    46.5370361789068
          11 :   -29.6902505586011
          12 :    16.3237057147145
          13 :   -8.76011541510985
          14 :    6.37090340903399
          15 :   -6.17339593828825
          16 :    5.04858488683016
          17 :   -1.77319102026530
          18 :   -2.54430473723835
          19 :    5.71143753649363
          20 :   -6.28286059619694
          21 :    4.60245730308174
          22 :   -2.41443733624993
          23 :    1.49097335171297
          24 :   -2.38123400183855
          25 :    4.17498605148853
          26 :   -5.34604736337093
          27 :    4.94881198256297
          28 :   -3.26239994948867
          29 :    1.46969499394038
          30 :  -0.704757155225536
          31 :   -32.2501153084673
          32 :   -22.2414815046697

     Forces acting on atoms (Ry/au):

     negative rho (up, down):  3.739E-03 0.000E+00
     atom    1 type  1   force =     0.00000045   -0.00501346   -0.01322373
     atom    2 type  1   force =    -0.00433989    0.00250856   -0.01322456
     atom    3 type  1   force =     0.00433965    0.00250772   -0.01322401
     atom    4 type  2   force =    -0.00000035   -0.00000006    0.02736024
     atom    5 type  1   force =     0.00000039   -0.00776258   -0.00102592
     atom    6 type  1   force =    -0.00672367    0.00388084   -0.00102503
     atom    7 type  1   force =     0.00672299    0.00388022   -0.00102685
     atom    8 type  2   force =    -0.00000037    0.00000005    0.01440925
     atom    9 type  1   force =     0.00000104    0.00107977    0.00033282
     atom   10 type  1   force =     0.00093494   -0.00053996    0.00033376
     atom   11 type  1   force =    -0.00093538   -0.00054120    0.00033304
     atom   12 type  2   force =     0.00000020    0.00000010   -0.00001901

     Total force =     0.041761     Total SCF correction =     0.004073

     entering subroutine stress ...

     negative rho (up, down):  3.739E-03 0.000E+00
          total   stress  (Ry/bohr**3)                   (kbar)     P=  -10.64
  -0.00009409  -0.00000000   0.00000000        -13.84     -0.00      0.00
  -0.00000000  -0.00009409   0.00000000         -0.00    -13.84      0.00
   0.00000000   0.00000000  -0.00002879          0.00      0.00     -4.24

 !ASE

     Writing output data file calc.save

     General routines

     Parallel routines

   This run was terminated on:  20:53:47   2Jan2019

   JOB DONE.
Job  /afs/slac/g/suncat/bin/suncat-tsmpirun -x LD_LIBRARY_PATH -wdir /scratch/qe649519_qx5Y5 pw.x -in pw.inp

TID   HOST_NAME   COMMAND_LINE            STATUS            TERMINATION_TIME
00000 suncat0243 pw.x -in pw.inp   Done                     01/02/2019 20:53:47
00001 suncat0243 pw.x -in pw.inp   Done                     01/02/2019 20:53:47
00002 suncat0243 pw.x -in pw.inp   Done                     01/02/2019 20:53:47
00003 suncat0243 pw.x -in pw.inp   Done                     01/02/2019 20:53:47
00004 suncat0243 pw.x -in pw.inp   Done                     01/02/2019 20:53:47
00005 suncat0243 pw.x -in pw.inp   Done                     01/02/2019 20:53:47
00006 suncat0243 pw.x -in pw.inp   Done                     01/02/2019 20:53:47
00007 suncat0243 pw.x -in pw.inp   Done                     01/02/2019 20:53:47
00008 suncat0242 pw.x -in pw.inp   Done                     01/02/2019 20:53:47
00009 suncat0242 pw.x -in pw.inp   Done                     01/02/2019 20:53:47
00010 suncat0242 pw.x -in pw.inp   Done                     01/02/2019 20:53:47
00011 suncat0242 pw.x -in pw.inp   Done                     01/02/2019 20:53:47
00012 suncat0242 pw.x -in pw.inp   Done                     01/02/2019 20:53:47
00013 suncat0242 pw.x -in pw.inp   Done                     01/02/2019 20:53:47
00014 suncat0242 pw.x -in pw.inp   Done                     01/02/2019 20:53:47
00015 suncat0242 pw.x -in pw.inp   Done                     01/02/2019 20:53:47
00016 suncat0241 pw.x -in pw.inp   Done                     01/02/2019 20:53:47
00017 suncat0241 pw.x -in pw.inp   Done                     01/02/2019 20:53:47
00018 suncat0241 pw.x -in pw.inp   Done                     01/02/2019 20:53:47
00019 suncat0241 pw.x -in pw.inp   Done                     01/02/2019 20:53:47
00020 suncat0241 pw.x -in pw.inp   Done                     01/02/2019 20:53:47
00021 suncat0241 pw.x -in pw.inp   Done                     01/02/2019 20:53:47
00022 suncat0241 pw.x -in pw.inp   Done                     01/02/2019 20:53:47
00023 suncat0241 pw.x -in pw.inp   Done                     01/02/2019 20:53:47
00024 suncat0240 pw.x -in pw.inp   Done                     01/02/2019 20:53:47
00025 suncat0240 pw.x -in pw.inp   Done                     01/02/2019 20:53:47
00026 suncat0240 pw.x -in pw.inp   Done                     01/02/2019 20:53:47
00027 suncat0240 pw.x -in pw.inp   Done                     01/02/2019 20:53:47
00028 suncat0240 pw.x -in pw.inp   Done                     01/02/2019 20:53:47
00029 suncat0240 pw.x -in pw.inp   Done                     01/02/2019 20:53:47
00030 suncat0240 pw.x -in pw.inp   Done                     01/02/2019 20:53:47
00031 suncat0240 pw.x -in pw.inp   Done                     01/02/2019 20:53:47
00032 suncat0209 pw.x -in pw.inp   Done                     01/02/2019 20:53:47
00033 suncat0209 pw.x -in pw.inp   Done                     01/02/2019 20:53:47
00034 suncat0209 pw.x -in pw.inp   Done                     01/02/2019 20:53:47
00035 suncat0209 pw.x -in pw.inp   Done                     01/02/2019 20:53:47
00036 suncat0209 pw.x -in pw.inp   Done                     01/02/2019 20:53:47
00037 suncat0209 pw.x -in pw.inp   Done                     01/02/2019 20:53:47
00038 suncat0209 pw.x -in pw.inp   Done                     01/02/2019 20:53:47
00039 suncat0209 pw.x -in pw.inp   Done                     01/02/2019 20:53:47
00040 suncat0205 pw.x -in pw.inp   Done                     01/02/2019 20:53:47
00041 suncat0205 pw.x -in pw.inp   Done                     01/02/2019 20:53:47
00042 suncat0205 pw.x -in pw.inp   Done                     01/02/2019 20:53:47
00043 suncat0205 pw.x -in pw.inp   Done                     01/02/2019 20:53:47
00044 suncat0205 pw.x -in pw.inp   Done                     01/02/2019 20:53:47
00045 suncat0205 pw.x -in pw.inp   Done                     01/02/2019 20:53:47
00046 suncat0205 pw.x -in pw.inp   Done                     01/02/2019 20:53:47
00047 suncat0205 pw.x -in pw.inp   Done                     01/02/2019 20:53:47
00048 suncat0204 pw.x -in pw.inp   Done                     01/02/2019 20:53:47
00049 suncat0204 pw.x -in pw.inp   Done                     01/02/2019 20:53:47
00050 suncat0204 pw.x -in pw.inp   Done                     01/02/2019 20:53:47
00051 suncat0204 pw.x -in pw.inp   Done                     01/02/2019 20:53:47
00052 suncat0204 pw.x -in pw.inp   Done                     01/02/2019 20:53:47
00053 suncat0204 pw.x -in pw.inp   Done                     01/02/2019 20:53:47
00054 suncat0204 pw.x -in pw.inp   Done                     01/02/2019 20:53:47
00055 suncat0204 pw.x -in pw.inp   Done                     01/02/2019 20:53:47
00056 suncat0203 pw.x -in pw.inp   Done                     01/02/2019 20:53:47
00057 suncat0203 pw.x -in pw.inp   Done                     01/02/2019 20:53:47
00058 suncat0203 pw.x -in pw.inp   Done                     01/02/2019 20:53:47
00059 suncat0203 pw.x -in pw.inp   Done                     01/02/2019 20:53:47
00060 suncat0203 pw.x -in pw.inp   Done                     01/02/2019 20:53:47
00061 suncat0203 pw.x -in pw.inp   Done                     01/02/2019 20:53:47
00062 suncat0203 pw.x -in pw.inp   Done                     01/02/2019 20:53:47
00063 suncat0203 pw.x -in pw.inp   Done                     01/02/2019 20:53:47