     Program PWSCF v.5.1rc2 (svn rev. 11289) starts on  2Jan2019 at  4:40: 9

     Current dimensions of program PWSCF are:
     Max number of different atomic species (ntypx) = 10
     Max number of k-points (npk) =  40000
     Max angular momentum in pseudopotentials (lmaxx) =  3
     Presently stress not available with electric field

     IMPORTANT: XC functional enforced from input :
     Exchange-correlation      = BEEF-VDW ( 1  4 27 13 2)
     Any further DFT definition will be discarded
     Please, verify this is what you really want

     Subspace diagonalization in iterative solution of the eigenvalue problem:
     a serial algorithm will be used

     bravais-lattice index     =            0
     lattice parameter (alat)  =       1.8897  a.u.
     unit-cell volume          =    5030.2340 (a.u.)^3
     number of atoms/cell      =           12
     number of atomic types    =            2
     number of electrons       =       150.00
     number of Kohn-Sham states=          105
     kinetic-energy cutoff     =      36.7493  Ry
     charge density cutoff     =     367.4932  Ry
     convergence threshold     =      1.0E-06
     mixing beta               =       0.1000
     number of iterations used =           10  plain     mixing
     Exchange-correlation      = BEEF-VDW ( 1  4 27 13 2)
     nstep                     =           50

     celldm(1)=   1.889726  celldm(2)=   0.000000  celldm(3)=   0.000000
     celldm(4)=   0.000000  celldm(5)=   0.000000  celldm(6)=   0.000000

     crystal axes: (cart. coord. in units of alat)
               a(1) = (   5.890113   0.000000   0.000000 )
               a(2) = (  -2.945056   5.100987   0.000000 )
               a(3) = (   0.000000   0.000000  24.809257 )

     reciprocal axes: (cart. coord. in units 2 pi/alat)
               b(1) = (  0.169776  0.098020  0.000000 )
               b(2) = (  0.000000  0.196040  0.000000 )
               b(3) = (  0.000000  0.000000  0.040308 )

     PseudoPot. # 1 for V  read from file:
     /afs/slac.stanford.edu/u/if/mamunm/psp/gbrv1.5pbe/V.UPF
     MD5 check sum: 22b79981416ebb76fdaf5b1b8640f6fb
     Pseudo is Ultrasoft + core correction, Zval = 13.0
     Generated by new atomic code, or converted to UPF format
     Using radial grid of  853 points,  6 beta functions with:
                l(1) =   0
                l(2) =   0
                l(3) =   1
                l(4) =   1
                l(5) =   2
                l(6) =   2
     Q(r) pseudized with  8 coefficients,  rinner =    1.100   1.100   1.100
                                                       1.100   1.100

     PseudoPot. # 2 for La read from file:
     /afs/slac.stanford.edu/u/if/mamunm/psp/gbrv1.5pbe/La.UPF
     MD5 check sum: 5937b0c7494ba0601a847275249473aa
     Pseudo is Ultrasoft + core correction, Zval = 11.0
     Generated by new atomic code, or converted to UPF format
     Using radial grid of  995 points,  8 beta functions with:
                l(1) =   0
                l(2) =   0
                l(3) =   1
                l(4) =   1
                l(5) =   2
                l(6) =   2
                l(7) =   3
                l(8) =   3
     Q(r) pseudized with  8 coefficients,  rinner =    1.700   1.700   1.700
                                                       1.700   1.700   1.700
                                                       1.700

     vdW kernel table read from file vdW_kernel_table
     MD5 check sum: 095c7af220d748ca6e76c0b4c6cfb241

     atomic species   valence    mass     pseudopotential
        V1            13.00    50.94150     V ( 1.00)
        La1           11.00   138.90547     La( 1.00)

     No symmetry found

   Cartesian axes

     site n.     atom                  positions (alat units)
         1           V1  tau(   1) = (   0.0000000   0.0000000  10.0000000  )
         2           V1  tau(   2) = (  -1.4725282   2.5504936  10.0000000  )
         3           V1  tau(   3) = (   1.4725282   2.5504936  10.0000000  )
         4           La1 tau(   4) = (   2.9450563   0.0000000  10.0000000  )
         5           V1  tau(   5) = (   2.9450563   1.7003291  12.4046284  )
         6           V1  tau(   6) = (   1.4725282   4.2508227  12.4046284  )
         7           V1  tau(   7) = (  -1.4725282   4.2508227  12.4046284  )
         8           La1 tau(   8) = (   0.0000000   1.7003291  12.4046284  )
         9           V1  tau(   9) = (  -0.0000000   3.4006581  14.8092568  )
        10           V1  tau(  10) = (   1.4725282   0.8501645  14.8092568  )
        11           V1  tau(  11) = (   4.4175845   0.8501645  14.8092568  )
        12           La1 tau(  12) = (   2.9450563   3.4006581  14.8092568  )

     number of k points=    20  Fermi-Dirac smearing, width (Ry)=  0.0110
                       cart. coord. in units 2pi/alat
        k(    1) = (   0.0000000   0.0000000   0.0000000), wk =   0.0555556
        k(    2) = (   0.0000000   0.0326734   0.0000000), wk =   0.1111111
        k(    3) = (   0.0000000   0.0653468   0.0000000), wk =   0.1111111
        k(    4) = (   0.0000000  -0.0980202   0.0000000), wk =   0.0555556
        k(    5) = (   0.0282960   0.0163367   0.0000000), wk =   0.1111111
        k(    6) = (   0.0282960   0.0490101   0.0000000), wk =   0.1111111
        k(    7) = (   0.0282960   0.0816835   0.0000000), wk =   0.1111111
        k(    8) = (   0.0282960  -0.0816835   0.0000000), wk =   0.1111111
        k(    9) = (   0.0282960  -0.0490101   0.0000000), wk =   0.1111111
        k(   10) = (   0.0282960  -0.0163367   0.0000000), wk =   0.1111111
        k(   11) = (   0.0565920   0.0326734   0.0000000), wk =   0.1111111
        k(   12) = (   0.0565920   0.0653468   0.0000000), wk =   0.1111111
        k(   13) = (   0.0565920   0.0980202   0.0000000), wk =   0.1111111
        k(   14) = (   0.0565920  -0.0653468   0.0000000), wk =   0.1111111
        k(   15) = (   0.0565920  -0.0326734   0.0000000), wk =   0.1111111
        k(   16) = (   0.0565920  -0.0000000   0.0000000), wk =   0.1111111
        k(   17) = (  -0.0848880  -0.0490101   0.0000000), wk =   0.0555556
        k(   18) = (  -0.0848880  -0.0163367   0.0000000), wk =   0.1111111
        k(   19) = (  -0.0848880   0.0163367   0.0000000), wk =   0.1111111
        k(   20) = (  -0.0848880  -0.1470304   0.0000000), wk =   0.0555556

     Largest allocated arrays     est. size (Mb)     dimensions
     Largest temporary arrays     est. size (Mb)     dimensions

     Check: negative/imaginary core charge=   -0.000001    0.000000

     Initial potential from superposition of free atoms
     Check: negative starting charge=   -0.212358

     starting charge  149.89275, renormalised to  150.00000

     negative rho (up, down):  2.125E-01 0.000E+00

     *
     * You are using vdW-DF for exchange-correlation in this calculation.
     * Please cite the following three references that made this development
     * possible:
     *
     *   M. Dion, H. Rydberg, E. Schroder, D. C. Langreth, and
     *   B. I. Lundqvist, Phys. Rev. Lett. 92, 246401 (2004).
     *
     *   T. Thonhauser, V. R. Cooper, S. Li, A. Puzder, P. Hyldgaard, and
     *   D. C. Langreth, Phys. Rev. B 76, 125112 (2007).
     *
     *   G. Roman-Perez and J. M. Soler, Phys. Rev. Lett. 103, 096102 (2009).
     *
     *
     * If you are using vdW-DF2, please also cite:
     *
     *   K. Lee, E. D. Murray, L. Kong, B. I. Lundqvist, and
     *   D. C. Langreth, Phys. Rev. B 82, 081101(R) (2010).
     *
     *
     * If you are calculating the stress with vdW-DF, please also cite:
     *
     *   R. Sabatini, E. Kucukbenli, B. Kolb, T. Thonhauser, and
     *   S. de Gironcoli, J. Phys.: Condens. Matter 24, 424209 (2012).
     *

     Carrying out vdW-DF run using the following parameters:

     Nqs =      20    Nr_points =    1024   r_max =   100.000
     q_mesh =
               0.00001000     0.04494208     0.09755937     0.15916263
               0.23128650     0.31572767     0.41458969     0.53033537
               0.66584808     0.82450364     1.01025438     1.22772762
               1.48234092     1.78043706     2.12944203     2.53805004
               3.01644009     3.57652955     4.23227104     5.00000000

     Gradients computed in reciprocal space

     Adding external electric field

     Computed dipole along edir(3) :
        Dipole               -0.0000 Ry au,         -0.0000 Debye
        Dipole field         -0.0000 Ry au

        Potential amp.        0.0000 Ry
        Total length         45.7106 bohr

     Starting wfc are  150 randomized atomic wfcs

     Self-consistent Calculation

     iteration #  1     ecut=    36.75 Ry     beta=0.10
     Davidson diagonalization with overlap
     ethr =  1.00E-02,  avg # of iterations =  2.2

[...]

     total energy              =   -1620.32663017 Ry
     Harris-Foulkes estimate   =   -1624.18411573 Ry
     estimated scf accuracy    <      21.06547300 Ry

[...]

     End of self-consistent calculation

          k = 0.0000 0.0000 0.0000 ( 18967 PWs)   bands (ev):

   -62.9173 -62.8923 -62.8854 -62.8850 -62.8847 -62.8649 -62.8648 -62.8628
   -62.8628 -36.8504 -36.8307 -36.8306 -36.8030 -36.7996 -36.7879 -36.7796
   -36.7796 -36.7506 -36.7505 -36.7416 -36.7165 -36.7165 -36.7038 -36.7038
   -36.6988 -36.6312 -36.6247 -36.6207 -36.6205 -36.6193 -36.5912 -36.5910
   -36.5621 -36.5621 -36.5607 -36.5606 -30.5724 -30.5594 -30.1370 -14.4292
   -14.4291 -14.4270 -14.4270 -14.4056 -14.3687 -14.1073 -14.0426 -14.0426
    -3.2338  -2.0622  -1.6318  -1.4639  -1.4638  -1.3517  -1.3517  -0.7303
    -0.7303  -0.4547  -0.4547  -0.4184  -0.2574   0.1611   0.2891   0.2892
     0.3077   0.4374   1.0505   1.0505   1.1195   1.2765   1.3627   1.5317
     1.6828   1.6945   1.7290   1.7291   1.7844   1.7844   1.8389   1.8389
     1.9326   1.9326   2.0322   2.0323   2.2722   2.3683   2.5495   2.5495
     2.7228   2.7229   2.8144   2.8144   3.0344   3.0344   3.0551   3.1106
     3.3766   3.5124   3.5810   3.6357   4.2453   4.2453   4.3513   4.4319
     4.5240

[...]

          k =-0.0849-0.0490 0.0000 ( 18924 PWs)   bands (ev):

[...]

     the Fermi energy is     1.4489 ev

!    total energy              =   -1623.16108180 Ry
     Harris-Foulkes estimate   =   -1623.16108227 Ry
     estimated scf accuracy    <       0.00000070 Ry

     The total energy is the sum of the following terms:

     one-electron contribution =  -11208.76177212 Ry
     hartree contribution      =    5599.97027284 Ry
     xc contribution           =    -335.85543666 Ry
     ewald contribution        =    4321.64244525 Ry
     electric field correction =       0.00000004 Ry
     smearing contrib. (-TS)   =      -0.15659115 Ry

     convergence has been achieved in  31 iterations

 BEEF-vdW xc energy contributions
           1 :   -293.053555484497
           2 :    266.124516628139
           3 :   -220.384038873699
           4 :    168.286329454811
           5 :   -121.402822361786
           6 :    86.4815503159795
           7 :   -64.4464214792594
           8 :    52.1218161096209
           9 :   -45.1363829832744
          10 :    40.2241772114673
          11 :   -35.9697757004903
          12 :    32.1808161845870
[...]
     MD5 check sum: 22b79981416ebb76fdaf5b1b8640f6fb
     Pseudo is Ultrasoft + core correction, Zval = 13.0
     Generated by new atomic code, or converted to UPF format
     Using radial grid of  853 points,  6 beta functions with:
                l(1) =   0
                l(2) =   0
                l(3) =   1
                l(4) =   1
                l(5) =   2
                l(6) =   2
     Q(r) pseudized with  8 coefficients,  rinner =    1.100   1.100   1.100
                                                       1.100   1.100

     PseudoPot. # 2 for La read from file:
     /afs/slac.stanford.edu/u/if/mamunm/psp/gbrv1.5pbe/La.UPF
     MD5 check sum: 5937b0c7494ba0601a847275249473aa
     Pseudo is Ultrasoft + core correction, Zval = 11.0
     Generated by new atomic code, or converted to UPF format
     Using radial grid of  995 points,  8 beta functions with:
                l(1) =   0
                l(2) =   0
                l(3) =   1
                l(4) =   1
                l(5) =   2
                l(6) =   2
                l(7) =   3
                l(8) =   3
     Q(r) pseudized with  8 coefficients,  rinner =    1.700   1.700   1.700
                                                       1.700   1.700   1.700
                                                       1.700

     vdW kernel table read from file vdW_kernel_table
     MD5 check sum: 095c7af220d748ca6e76c0b4c6cfb241

     atomic species   valence    mass     pseudopotential
        V1            13.00    50.94150     V ( 1.00)
        La1           11.00   138.90547     La( 1.00)

     No symmetry found

   Cartesian axes

     site n.     atom                  positions (alat units)
         1           V1  tau(   1) = (   0.0000000   0.0000000  10.0000000  )
         2           V1  tau(   2) = (  -1.4725282   2.5504936  10.0000000  )
         3           V1  tau(   3) = (   1.4725282   2.5504936  10.0000000  )
         4           La1 tau(   4) = (   2.9450563   0.0000000  10.0000000  )
         5           V1  tau(   5) = (   2.9450563   1.7003291  12.4046284  )
         6           V1  tau(   6) = (   1.4725282   4.2508227  12.4046284  )
         7           V1  tau(   7) = (  -1.4725282   4.2508227  12.4046284  )
         8           La1 tau(   8) = (   0.0000000   1.7003291  12.4046284  )
         9           V1  tau(   9) = (  -0.0000125   3.7052703  14.4556474  )
        10           V1  tau(  10) = (   1.7362218   0.6977067  14.4557271  )
        11           V1  tau(  11) = (   4.1538445   0.6976993  14.4557068  )
        12           La1 tau(  12) = (   2.9450565   3.4005996  15.4230568  )

     number of k points=    20  Fermi-Dirac smearing, width (Ry)=  0.0110
                       cart. coord. in units 2pi/alat
        k(    1) = (   0.0000000   0.0000000   0.0000000), wk =   0.0555556
        k(    2) = (   0.0000000   0.0326734   0.0000000), wk =   0.1111111
        k(    3) = (   0.0000000   0.0653468   0.0000000), wk =   0.1111111
        k(    4) = (   0.0000000  -0.0980202   0.0000000), wk =   0.0555556
        k(    5) = (   0.0282960   0.0163367   0.0000000), wk =   0.1111111
        k(    6) = (   0.0282960   0.0490101   0.0000000), wk =   0.1111111
        k(    7) = (   0.0282960   0.0816835   0.0000000), wk =   0.1111111
        k(    8) = (   0.0282960  -0.0816835   0.0000000), wk =   0.1111111
        k(    9) = (   0.0282960  -0.0490101   0.0000000), wk =   0.1111111
        k(   10) = (   0.0282960  -0.0163367   0.0000000), wk =   0.1111111
        k(   11) = (   0.0565920   0.0326734   0.0000000), wk =   0.1111111
        k(   12) = (   0.0565920   0.0653468   0.0000000), wk =   0.1111111
        k(   13) = (   0.0565920   0.0980202   0.0000000), wk =   0.1111111
        k(   14) = (   0.0565920  -0.0653468   0.0000000), wk =   0.1111111
        k(   15) = (   0.0565920  -0.0326734   0.0000000), wk =   0.1111111
        k(   16) = (   0.0565920  -0.0000000   0.0000000), wk =   0.1111111
        k(   17) = (  -0.0848880  -0.0490101   0.0000000), wk =   0.0555556
        k(   18) = (  -0.0848880  -0.0163367   0.0000000), wk =   0.1111111
        k(   19) = (  -0.0848880   0.0163367   0.0000000), wk =   0.1111111
        k(   20) = (  -0.0848880  -0.1470304   0.0000000), wk =   0.0555556

     Largest allocated arrays     est. size (Mb)     dimensions
     Largest temporary arrays     est. size (Mb)     dimensions

     Check: negative/imaginary core charge=   -0.000001    0.000000

     Initial potential from superposition of free atoms
     Check: negative starting charge=   -0.213245

     starting charge  149.89275, renormalised to  150.00000

[...]

     *
     * You are using vdW-DF for exchange-correlation in this calculation.
     * Please cite the following three references that made this development
     * possible:
     *
     *   M. Dion, H. Rydberg, E. Schroder, D. C. Langreth, and
     *   B. I. Lundqvist, Phys. Rev. Lett. 92, 246401 (2004).
     *
     *   T. Thonhauser, V. R. Cooper, S. Li, A. Puzder, P. Hyldgaard, and
     *   D. C. Langreth, Phys. Rev. B 76, 125112 (2007).
     *
     *   G. Roman-Perez and J. M. Soler, Phys. Rev. Lett. 103, 096102 (2009).
     *
     *
     * If you are using vdW-DF2, please also cite:
     *
     *   K. Lee, E. D. Murray, L. Kong, B. I. Lundqvist, and
     *   D. C. Langreth, Phys. Rev. B 82, 081101(R) (2010).
     *
     *
     * If you are calculating the stress with vdW-DF, please also cite:
     *
     *   R. Sabatini, E. Kucukbenli, B. Kolb, T. Thonhauser, and
     *   S. de Gironcoli, J. Phys.: Condens. Matter 24, 424209 (2012).
     *

     Carrying out vdW-DF run using the following parameters:

     Nqs =      20    Nr_points =    1024   r_max =   100.000
     q_mesh =
               0.00001000     0.04494208     0.09755937     0.15916263
               0.23128650     0.31572767     0.41458969     0.53033537
               0.66584808     0.82450364     1.01025438     1.22772762
               1.48234092     1.78043706     2.12944203     2.53805004
               3.01644009     3.57652955     4.23227104     5.00000000

     Gradients computed in reciprocal space

[...]

     Starting wfc are  150 randomized atomic wfcs

     Self-consistent Calculation

[...]

     total energy              =   -1623.32961078 Ry
     Harris-Foulkes estimate   =   -1623.32961083 Ry
     estimated scf accuracy    <       0.00000172 Ry

     iteration # 27     ecut=    36.75 Ry     beta=0.10
     Davidson diagonalization with overlap
     ethr =  1.15E-09,  avg # of iterations =  1.0

[...]

     negative rho (up, down):  1.222E-01 0.000E+00

     Adding external electric field

     Computed dipole along edir(3) :
        Dipole                0.3430 Ry au,          0.8718 Debye
        Dipole field          0.0009 Ry au

        Potential amp.       -0.0783 Ry
        Total length         45.7106 bohr

     End of self-consistent calculation

[...]

          k = 0.0566-0.0000 0.0000 ( 18929 PWs)   bands (ev):

[...]

          k =-0.0849-0.1470 0.0000 ( 18924 PWs)   bands (ev):

   -62.4772 -62.4682 -62.4579 -62.4468 -62.4316 -62.4218 -62.2666 -62.1443
   -62.1428 -36.5229 -36.4175 -36.3926 -36.3862 -36.3685 -36.3569 -36.3414
   -36.3256 -36.3016 -36.2940 -36.2841 -36.2839 -36.2739 -36.2621 -36.2538
   -36.2462 -36.2093 -36.1666 -36.1388 -36.0753 -36.0614 -35.9489 -35.9391
   -35.9319 -35.7921 -35.7713 -35.7525 -31.1122 -30.1712 -29.8212 -14.7946
   -14.7723 -14.7701 -14.1804 -14.1024 -14.0550 -13.8396 -13.8207 -13.7995
    -1.5632  -1.4502  -0.6413  -0.4514  -0.2346  -0.1977  -0.0546  -0.0090
     0.1590   0.2402   0.3378   0.3952   0.6277   0.6964   0.7353   0.8797
     0.8961   1.0329   1.0945   1.1770   1.1808   1.2977   1.4031   1.4846
     1.4930   1.5744   1.6453   1.8179   1.8528   2.0341   2.0890   2.1067
     2.2265   2.2844   2.3356   2.3487   2.4985   2.5518   2.6082   2.6260
     2.7480   2.8033   2.8211   2.9366   3.0245   3.0831   3.1503   3.4097
     3.4578   3.5653   3.5836   3.6797   3.7279   3.7355   3.8235   3.9346
     3.9472

     the Fermi energy is     1.8300 ev

!    total energy              =   -1623.32961051 Ry
     Harris-Foulkes estimate   =   -1623.32961017 Ry
     estimated scf accuracy    <       0.00000086 Ry

     The total energy is the sum of the following terms:

     one-electron contribution =  -11428.68391187 Ry
     hartree contribution      =    5711.92089034 Ry
     xc contribution           =    -336.00547862 Ry
     ewald contribution        =    4429.56525628 Ry
     electric field correction =       0.00029392 Ry
     smearing contrib. (-TS)   =      -0.12666056 Ry

     convergence has been achieved in  27 iterations

 BEEF-vdW xc energy contributions
           1 :   -293.396841500364
           2 :    266.532307389920
           3 :   -220.842391629025
           4 :    168.677751730119
           5 :   -121.569867723738
           6 :    86.3515305010070
           7 :   -64.1127698515679
           8 :    51.7947472256345
           9 :   -44.9933835720087
          10 :    40.2788309599663
          11 :   -36.0568232098686
          12 :    32.0654114410213
          13 :   -28.3709127683189
          14 :    24.7368303204086
          15 :   -20.7026269265153
          16 :    16.0784600452512
          17 :   -11.3107545443126
          18 :    7.35650229653896
          19 :   -5.13619078405611
          20 :    4.94891517532932
          21 :   -6.25565407398619
          22 :    7.96557311463351
          23 :   -9.02671925064323
          24 :    8.93683427276602
          25 :   -7.88203992699630
          26 :    6.47642281936174
          27 :   -5.33041783841799
          28 :    4.73753754759935
          29 :   -4.63427340170364
          30 :    4.77427793142118
          31 :   -27.7799447524355
          32 :   -20.0209739056188

     Forces acting on atoms (Ry/au):

     negative rho (up, down):  1.222E-01 0.000E+00
     atom    1 type  1   force =    -0.00000157   -0.03235760    0.02711460
     atom    2 type  1   force =    -0.02802525    0.01618027    0.02711401
     atom    3 type  1   force =     0.02802283    0.01617965    0.02711565
     atom    4 type  2   force =    -0.00000224    0.00000682   -0.07620031
     atom    5 type  1   force =    -0.00000225    0.03101190   -0.00092749
     atom    6 type  1   force =     0.02686201   -0.01550609   -0.00094388
     atom    7 type  1   force =    -0.02686511   -0.01550634   -0.00094501
     atom    8 type  2   force =     0.00000291   -0.00001602   -0.00089127
     atom    9 type  1   force =     0.00000394    0.00101281    0.00007133
     atom   10 type  1   force =     0.00090839   -0.00049230    0.00005361
     atom   11 type  1   force =    -0.00089889   -0.00049205    0.00006027
     atom   12 type  2   force =    -0.00000478   -0.00002105   -0.00162153

     Total force =     0.118527     Total SCF correction =     0.003170

     entering subroutine stress ...

     negative rho (up, down):  1.222E-01 0.000E+00
          total   stress  (Ry/bohr**3)                   (kbar)     P=   -6.57
  -0.00006123   0.00000001   0.00000000         -9.01      0.00      0.00
   0.00000001  -0.00006116  -0.00000002          0.00     -9.00     -0.00
   0.00000000  -0.00000002  -0.00001152          0.00     -0.00     -1.69

 !ASE

     Writing output data file calc.save

     General routines

     Parallel routines

   This run was terminated on:   7:59:33   2Jan2019

   JOB DONE.
Job  /afs/slac/g/suncat/bin/suncat-tsmpirun -x LD_LIBRARY_PATH -wdir /scratch/qe649311_emaNG pw.x -in pw.inp

TID   HOST_NAME   COMMAND_LINE            STATUS            TERMINATION_TIME
00000 suncat0068 pw.x -in pw.inp   Done                     01/02/2019 07:59:33
00001 suncat0068 pw.x -in pw.inp   Done                     01/02/2019 07:59:33
00002 suncat0068 pw.x -in pw.inp   Done                     01/02/2019 07:59:33
00003 suncat0068 pw.x -in pw.inp   Done                     01/02/2019 07:59:33
00004 suncat0068 pw.x -in pw.inp   Done                     01/02/2019 07:59:33
00005 suncat0068 pw.x -in pw.inp   Done                     01/02/2019 07:59:33
00006 suncat0068 pw.x -in pw.inp   Done                     01/02/2019 07:59:33
00007 suncat0068 pw.x -in pw.inp   Done                     01/02/2019 07:59:33
00008 suncat0065 pw.x -in pw.inp   Done                     01/02/2019 07:59:33
00009 suncat0065 pw.x -in pw.inp   Done                     01/02/2019 07:59:33
00010 suncat0065 pw.x -in pw.inp   Done                     01/02/2019 07:59:33
00011 suncat0065 pw.x -in pw.inp   Done                     01/02/2019 07:59:33
00012 suncat0065 pw.x -in pw.inp   Done                     01/02/2019 07:59:33
00013 suncat0065 pw.x -in pw.inp   Done                     01/02/2019 07:59:33
00014 suncat0065 pw.x -in pw.inp   Done                     01/02/2019 07:59:33
00015 suncat0065 pw.x -in pw.inp   Done                     01/02/2019 07:59:33
00016 suncat0064 pw.x -in pw.inp   Done                     01/02/2019 07:59:33
00017 suncat0064 pw.x -in pw.inp   Done                     01/02/2019 07:59:33
00018 suncat0064 pw.x -in pw.inp   Done                     01/02/2019 07:59:33
00019 suncat0064 pw.x -in pw.inp   Done                     01/02/2019 07:59:33
00020 suncat0064 pw.x -in pw.inp   Done                     01/02/2019 07:59:33
00021 suncat0064 pw.x -in pw.inp   Done                     01/02/2019 07:59:33
00022 suncat0064 pw.x -in pw.inp   Done                     01/02/2019 07:59:33
00023 suncat0064 pw.x -in pw.inp   Done                     01/02/2019 07:59:33
00024 suncat0059 pw.x -in pw.inp   Done                     01/02/2019 07:59:33
00025 suncat0059 pw.x -in pw.inp   Done                     01/02/2019 07:59:33
00026 suncat0059 pw.x -in pw.inp   Done                     01/02/2019 07:59:33
00027 suncat0059 pw.x -in pw.inp   Done                     01/02/2019 07:59:33
00028 suncat0059 pw.x -in pw.inp   Done                     01/02/2019 07:59:33
00029 suncat0059 pw.x -in pw.inp   Done                     01/02/2019 07:59:33
00030 suncat0059 pw.x -in pw.inp   Done                     01/02/2019 07:59:33
00031 suncat0059 pw.x -in pw.inp   Done                     01/02/2019 07:59:33
00032 suncat0169 pw.x -in pw.inp   Done                     01/02/2019 07:59:33
00033 suncat0169 pw.x -in pw.inp   Done                     01/02/2019 07:59:33
00034 suncat0169 pw.x -in pw.inp   Done                     01/02/2019 07:59:33
00035 suncat0169 pw.x -in pw.inp   Done                     01/02/2019 07:59:33
00036 suncat0169 pw.x -in pw.inp   Done                     01/02/2019 07:59:33
00037 suncat0169 pw.x -in pw.inp   Done                     01/02/2019 07:59:33
00038 suncat0169 pw.x -in pw.inp   Done                     01/02/2019 07:59:33
00039 suncat0169 pw.x -in pw.inp   Done                     01/02/2019 07:59:33
00040 suncat0168 pw.x -in pw.inp   Done                     01/02/2019 07:59:33
00041 suncat0168 pw.x -in pw.inp   Done                     01/02/2019 07:59:33
00042 suncat0168 pw.x -in pw.inp   Done                     01/02/2019 07:59:33
00043 suncat0168 pw.x -in pw.inp   Done                     01/02/2019 07:59:33
00044 suncat0168 pw.x -in pw.inp   Done                     01/02/2019 07:59:33
00045 suncat0168 pw.x -in pw.inp   Done                     01/02/2019 07:59:33
00046 suncat0168 pw.x -in pw.inp   Done                     01/02/2019 07:59:33
00047 suncat0168 pw.x -in pw.inp   Done                     01/02/2019 07:59:33
00048 suncat0156 pw.x -in pw.inp   Done                     01/02/2019 07:59:33
00049 suncat0156 pw.x -in pw.inp   Done                     01/02/2019 07:59:33
00050 suncat0156 pw.x -in pw.inp   Done                     01/02/2019 07:59:33
00051 suncat0156 pw.x -in pw.inp   Done                     01/02/2019 07:59:33
00052 suncat0156 pw.x -in pw.inp   Done                     01/02/2019 07:59:33
00053 suncat0156 pw.x -in pw.inp   Done                     01/02/2019 07:59:33
00054 suncat0156 pw.x -in pw.inp   Done                     01/02/2019 07:59:33
00055 suncat0156 pw.x -in pw.inp   Done                     01/02/2019 07:59:33
00056 suncat0153 pw.x -in pw.inp   Done                     01/02/2019 07:59:33
00057 suncat0153 pw.x -in pw.inp   Done                     01/02/2019 07:59:33
00058 suncat0153 pw.x -in pw.inp   Done                     01/02/2019 07:59:33
00059 suncat0153 pw.x -in pw.inp   Done                     01/02/2019 07:59:33
00060 suncat0153 pw.x -in pw.inp   Done                     01/02/2019 07:59:33
00061 suncat0153 pw.x -in pw.inp   Done                     01/02/2019 07:59:33
00062 suncat0153 pw.x -in pw.inp   Done                     01/02/2019 07:59:33
00063 suncat0153 pw.x -in pw.inp   Done                     01/02/2019 07:59:33