     Program PWSCF v.5.1rc2 (svn rev. 11289) starts on  2Jan2019 at 14:11:17

     Current dimensions of program PWSCF are:
     Max number of different atomic species (ntypx) = 10
     Max number of k-points (npk) =  40000
     Max angular momentum in pseudopotentials (lmaxx) =  3
     Presently stress not available with electric field

     IMPORTANT: XC functional enforced from input :
     Exchange-correlation      = BEEF-VDW ( 1  4 27 13 2)
     Any further DFT definition will be discarded
     Please, verify this is what you really want

     Subspace diagonalization in iterative solution of the eigenvalue problem:
     a serial algorithm will be used

     Generating pointlists ...
     new r_m :   0.4125 (alat units)  0.7795 (a.u.) for type    1
     new r_m :   0.4125 (alat units)  0.7795 (a.u.) for type    2

     bravais-lattice index     =            0
     lattice parameter (alat)  =       1.8897  a.u.
     unit-cell volume          =    7163.5332 (a.u.)^3
     number of atoms/cell      =           12
     number of atomic types    =            2
     number of electrons       =       138.00
     number of Kohn-Sham states=           99
     kinetic-energy cutoff     =      36.7493  Ry
     charge density cutoff     =     367.4932  Ry
     convergence threshold     =      1.0E-06
     mixing beta               =       0.1000
     number of iterations used =           10  plain     mixing
     Exchange-correlation      = BEEF-VDW ( 1  4 27 13 2)
     nstep                     =           50

     celldm(1)=   1.889726  celldm(2)=   0.000000  celldm(3)=   0.000000
     celldm(4)=   0.000000  celldm(5)=   0.000000  celldm(6)=   0.000000

     crystal axes: (cart. coord. in units of alat)
               a(1) = (   6.913528   0.000000   0.000000 )
               a(2) = (  -3.456764   5.987291   0.000000 )
               a(3) = (   0.000000   0.000000  25.644872 )

     reciprocal axes: (cart. coord. in units 2 pi/alat)
               b(1) = (  0.144644  0.083510  0.000000 )
               b(2) = (  0.000000  0.167020  0.000000 )
               b(3) = (  0.000000  0.000000  0.038994 )

     PseudoPot. # 1 for Y  read from file:
     /afs/slac.stanford.edu/u/if/mamunm/psp/gbrv1.5pbe/Y.UPF
     MD5 check sum: d034151ed7554c50b6e82763ed42c788
     Pseudo is Ultrasoft + core correction, Zval = 11.0
     Generated by new atomic code, or converted to UPF format
     Using radial grid of  885 points,  6 beta functions with:
                l(1) =   0
                l(2) =   0
                l(3) =   1
                l(4) =   1
                l(5) =   2
                l(6) =   2
     Q(r) pseudized with  8 coefficients,  rinner =    1.200   1.200   1.200
                                                       1.200   1.200

     PseudoPot. # 2 for Tl read from file:
     /afs/slac.stanford.edu/u/if/mamunm/psp/gbrv1.5pbe/Tl.UPF
     MD5 check sum: b76cf1f7e72655a2b2c53cf6385d7059
     Pseudo is Ultrasoft + core correction, Zval = 13.0
     Generated by new atomic code, or converted to UPF format
     Using radial grid of  899 points,  6 beta functions with:
                l(1) =   0
                l(2) =   0
                l(3) =   1
                l(4) =   1
                l(5) =   2
                l(6) =   2
     Q(r) pseudized with  6 coefficients,  rinner =    1.100   1.100   1.100
                                                       1.100   1.100

     vdW kernel table read from file vdW_kernel_table
     MD5 check sum: 095c7af220d748ca6e76c0b4c6cfb241

     atomic species   valence    mass     pseudopotential
        Y1            11.00    88.90584     Y ( 1.00)
        Tl1           13.00   204.38000     Tl( 1.00)

     Starting magnetic structure
     atomic species   magnetization
        Y1           0.182
        Tl1          0.154

     No symmetry found

   Cartesian axes

     site n.     atom                  positions (alat units)
         1           Y1  tau(   1) = (   0.0000000   0.0000000  10.0000000  )
         2           Y1  tau(   2) = (  -1.7283821   2.9936456  10.0000000  )
         3           Y1  tau(   3) = (   1.7283821   2.9936456  10.0000000  )
         4           Tl1 tau(   4) = (   3.4567642   0.0000000  10.0000000  )
         5           Y1  tau(   5) = (   3.4567642   1.9957638  12.8224362  )
         6           Y1  tau(   6) = (   1.7283821   4.9894094  12.8224362  )
         7           Y1  tau(   7) = (  -1.7283821   4.9894094  12.8224362  )
         8           Tl1 tau(   8) = (   0.0000000   1.9957638  12.8224362  )
         9           Y1  tau(   9) = (  -0.0000000   3.9915275  15.6448723  )
        10           Y1  tau(  10) = (   1.7283821   0.9978819  15.6448723  )
        11           Y1  tau(  11) = (   5.1851463   0.9978819  15.6448723  )
        12           Tl1 tau(  12) = (   3.4567642   3.9915275  15.6448723  )

     number of k points=    40  Fermi-Dirac smearing, width (Ry)=  0.0110
                       cart. coord. in units 2pi/alat
        k(    1) = (   0.0000000   0.0000000   0.0000000), wk =   0.0277778
        k(    2) = (   0.0000000   0.0278367   0.0000000), wk =   0.0555556
        k(    3) = (   0.0000000   0.0556735   0.0000000), wk =   0.0555556
        k(    4) = (   0.0000000  -0.0835102   0.0000000), wk =   0.0277778
        k(    5) = (   0.0241073   0.0139184   0.0000000), wk =   0.0555556
        k(    6) = (   0.0241073   0.0417551   0.0000000), wk =   0.0555556
        k(    7) = (   0.0241073   0.0695918   0.0000000), wk =   0.0555556
        k(    8) = (   0.0241073  -0.0695918   0.0000000), wk =   0.0555556
        k(    9) = (   0.0241073  -0.0417551   0.0000000), wk =   0.0555556
        k(   10) = (   0.0241073  -0.0139184   0.0000000), wk =   0.0555556
        k(   11) = (   0.0482146   0.0278367   0.0000000), wk =   0.0555556
        k(   12) = (   0.0482146   0.0556735   0.0000000), wk =   0.0555556
        k(   13) = (   0.0482146   0.0835102   0.0000000), wk =   0.0555556
        k(   14) = (   0.0482146  -0.0556735   0.0000000), wk =   0.0555556
        k(   15) = (   0.0482146  -0.0278367   0.0000000), wk =   0.0555556
        k(   16) = (   0.0482146  -0.0000000   0.0000000), wk =   0.0555556
        k(   17) = (  -0.0723220  -0.0417551   0.0000000), wk =   0.0277778
        k(   18) = (  -0.0723220  -0.0139184   0.0000000), wk =   0.0555556
        k(   19) = (  -0.0723220   0.0139184   0.0000000), wk =   0.0555556
        k(   20) = (  -0.0723220  -0.1252653   0.0000000), wk =   0.0277778
        k(   21) = (   0.0000000   0.0000000   0.0000000), wk =   0.0277778
        k(   22) = (   0.0000000   0.0278367   0.0000000), wk =   0.0555556
        k(   23) = (   0.0000000   0.0556735   0.0000000), wk =   0.0555556
        k(   24) = (   0.0000000  -0.0835102   0.0000000), wk =   0.0277778
        k(   25) = (   0.0241073   0.0139184   0.0000000), wk =   0.0555556
        k(   26) = (   0.0241073   0.0417551   0.0000000), wk =   0.0555556
        k(   27) = (   0.0241073   0.0695918   0.0000000), wk =   0.0555556
        k(   28) = (   0.0241073  -0.0695918   0.0000000), wk =   0.0555556
        k(   29) = (   0.0241073  -0.0417551   0.0000000), wk =   0.0555556
        k(   30) = (   0.0241073  -0.0139184   0.0000000), wk =   0.0555556
        k(   31) = (   0.0482146   0.0278367   0.0000000), wk =   0.0555556
        k(   32) = (   0.0482146   0.0556735   0.0000000), wk =   0.0555556
        k(   33) = (   0.0482146   0.0835102   0.0000000), wk =   0.0555556
        k(   34) = (   0.0482146  -0.0556735   0.0000000), wk =   0.0555556
        k(   35) = (   0.0482146  -0.0278367   0.0000000), wk =   0.0555556
        k(   36) = (   0.0482146  -0.0000000   0.0000000), wk =   0.0555556
        k(   37) = (  -0.0723220  -0.0417551   0.0000000), wk =   0.0277778
        k(   38) = (  -0.0723220  -0.0139184   0.0000000), wk =   0.0555556
        k(   39) = (  -0.0723220   0.0139184   0.0000000), wk =   0.0555556
        k(   40) = (  -0.0723220  -0.1252653   0.0000000), wk =   0.0277778

     Largest allocated arrays     est. size (Mb)     dimensions
     Largest temporary arrays     est. size (Mb)     dimensions

     Check: negative/imaginary core charge=   -0.000001    0.000000

     Initial potential from superposition of free atoms
     Check: negative starting charge=(component1):   -0.087268
     Check: negative starting charge=(component2):   -0.064030

     starting charge  137.94518, renormalised to  138.00000

     negative rho (up, down):  8.730E-02 6.406E-02

     *
     * You are using vdW-DF for exchange-correlation in this calculation.
     * Please cite the following three references that made this development
     * possible:
     *
     *   M. Dion, H. Rydberg, E. Schroder, D. C. Langreth, and
     *   B. I. Lundqvist, Phys. Rev. Lett. 92, 246401 (2004).
     *
     *   T. Thonhauser, V. R. Cooper, S. Li, A. Puzder, P. Hyldgaard, and
     *   D. C. Langreth, Phys. Rev. B 76, 125112 (2007).
     *
     *   G. Roman-Perez and J. M. Soler, Phys. Rev. Lett. 103, 096102 (2009).
     *
     *
     * If you are using vdW-DF2, please also cite:
     *
     *   K. Lee, E. D. Murray, L. Kong, B. I. Lundqvist, and
     *   D. C. Langreth, Phys. Rev. B 82, 081101(R) (2010).
     *
     *
     * If you are calculating the stress with vdW-DF, please also cite:
     *
     *   R. Sabatini, E. Kucukbenli, B. Kolb, T. Thonhauser, and
     *   S. de Gironcoli, J. Phys.: Condens. Matter 24, 424209 (2012).
     *

     Carrying out vdW-DF run using the following parameters:

     Nqs =      20    Nr_points =    1024   r_max =   100.000
     q_mesh =
               0.00001000     0.04494208     0.09755937     0.15916263
               0.23128650     0.31572767     0.41458969     0.53033537
               0.66584808     0.82450364     1.01025438     1.22772762
               1.48234092     1.78043706     2.12944203     2.53805004
               3.01644009     3.57652955     4.23227104     5.00000000

     Gradients computed in reciprocal space

     Adding external electric field

     Computed dipole along edir(3) :
        Dipole                0.0000 Ry au,          0.0000 Debye
        Dipole field          0.0000 Ry au

        Potential amp.       -0.0000 Ry
        Total length         47.2502 bohr

[...]

     Starting wfc are  144 randomized atomic wfcs

     Self-consistent Calculation

     iteration #  1     ecut=    36.75 Ry     beta=0.10
     Davidson diagonalization with overlap
     ethr =  1.00E-02,  avg # of iterations =  2.0

[...]

     Magnetic moment per site:
     atom:    1    charge:    0.8722    magn:    0.1445    constr:    0.0000
     atom:    2    charge:    0.8722    magn:    0.1445    constr:    0.0000
     atom:    3    charge:    0.8722    magn:    0.1445    constr:    0.0000
     atom:    4    charge:    1.4300    magn:    0.1996    constr:    0.0000
     atom:    5    charge:    0.8678    magn:    0.1441    constr:    0.0000
     atom:    6    charge:    0.8678    magn:    0.1441    constr:    0.0000
     atom:    7    charge:    0.8678    magn:    0.1441    constr:    0.0000
     atom:    8    charge:    1.4188    magn:    0.1978    constr:    0.0000
[...]
                       cart. coord. in units 2pi/alat
        k(    1) = (   0.0000000   0.0000000   0.0000000), wk =   0.0277778
        k(    2) = (   0.0000000   0.0278367   0.0000000), wk =   0.0555556
        k(    3) = (   0.0000000   0.0556735   0.0000000), wk =   0.0555556
        k(    4) = (   0.0000000  -0.0835102   0.0000000), wk =   0.0277778
        k(    5) = (   0.0241073   0.0139184   0.0000000), wk =   0.0555556
        k(    6) = (   0.0241073   0.0417551   0.0000000), wk =   0.0555556
        k(    7) = (   0.0241073   0.0695918   0.0000000), wk =   0.0555556
        k(    8) = (   0.0241073  -0.0695918   0.0000000), wk =   0.0555556
        k(    9) = (   0.0241073  -0.0417551   0.0000000), wk =   0.0555556
        k(   10) = (   0.0241073  -0.0139184   0.0000000), wk =   0.0555556
        k(   11) = (   0.0482146   0.0278367   0.0000000), wk =   0.0555556
        k(   12) = (   0.0482146   0.0556735   0.0000000), wk =   0.0555556
        k(   13) = (   0.0482146   0.0835102   0.0000000), wk =   0.0555556
        k(   14) = (   0.0482146  -0.0556735   0.0000000), wk =   0.0555556
        k(   15) = (   0.0482146  -0.0278367   0.0000000), wk =   0.0555556
        k(   16) = (   0.0482146  -0.0000000   0.0000000), wk =   0.0555556
        k(   17) = (  -0.0723220  -0.0417551   0.0000000), wk =   0.0277778
        k(   18) = (  -0.0723220  -0.0139184   0.0000000), wk =   0.0555556
        k(   19) = (  -0.0723220   0.0139184   0.0000000), wk =   0.0555556
        k(   20) = (  -0.0723220  -0.1252653   0.0000000), wk =   0.0277778
        k(   21) = (   0.0000000   0.0000000   0.0000000), wk =   0.0277778
        k(   22) = (   0.0000000   0.0278367   0.0000000), wk =   0.0555556
        k(   23) = (   0.0000000   0.0556735   0.0000000), wk =   0.0555556
        k(   24) = (   0.0000000  -0.0835102   0.0000000), wk =   0.0277778
        k(   25) = (   0.0241073   0.0139184   0.0000000), wk =   0.0555556
        k(   26) = (   0.0241073   0.0417551   0.0000000), wk =   0.0555556
        k(   27) = (   0.0241073   0.0695918   0.0000000), wk =   0.0555556
        k(   28) = (   0.0241073  -0.0695918   0.0000000), wk =   0.0555556
        k(   29) = (   0.0241073  -0.0417551   0.0000000), wk =   0.0555556
        k(   30) = (   0.0241073  -0.0139184   0.0000000), wk =   0.0555556
        k(   31) = (   0.0482146   0.0278367   0.0000000), wk =   0.0555556
        k(   32) = (   0.0482146   0.0556735   0.0000000), wk =   0.0555556
        k(   33) = (   0.0482146   0.0835102   0.0000000), wk =   0.0555556
        k(   34) = (   0.0482146  -0.0556735   0.0000000), wk =   0.0555556
        k(   35) = (   0.0482146  -0.0278367   0.0000000), wk =   0.0555556
        k(   36) = (   0.0482146  -0.0000000   0.0000000), wk =   0.0555556
        k(   37) = (  -0.0723220  -0.0417551   0.0000000), wk =   0.0277778
        k(   38) = (  -0.0723220  -0.0139184   0.0000000), wk =   0.0555556
        k(   39) = (  -0.0723220   0.0139184   0.0000000), wk =   0.0555556
        k(   40) = (  -0.0723220  -0.1252653   0.0000000), wk =   0.0277778

     Largest allocated arrays     est. size (Mb)     dimensions
     Largest temporary arrays     est. size (Mb)     dimensions

     Check: negative/imaginary core charge=   -0.000001    0.000000

     Initial potential from superposition of free atoms
     Check: negative starting charge=(component1):   -0.087223
     Check: negative starting charge=(component2):   -0.063997

     starting charge  137.94518, renormalised to  138.00000

[...]

     *
     * You are using vdW-DF for exchange-correlation in this calculation.
     * Please cite the following three references that made this development
     * possible:
     *
     *   M. Dion, H. Rydberg, E. Schroder, D. C. Langreth, and
     *   B. I. Lundqvist, Phys. Rev. Lett. 92, 246401 (2004).
     *
     *   T. Thonhauser, V. R. Cooper, S. Li, A. Puzder, P. Hyldgaard, and
     *   D. C. Langreth, Phys. Rev. B 76, 125112 (2007).
     *
     *   G. Roman-Perez and J. M. Soler, Phys. Rev. Lett. 103, 096102 (2009).
     *
     *
     * If you are using vdW-DF2, please also cite:
     *
     *   K. Lee, E. D. Murray, L. Kong, B. I. Lundqvist, and
     *   D. C. Langreth, Phys. Rev. B 82, 081101(R) (2010).
     *
     *
     * If you are calculating the stress with vdW-DF, please also cite:
     *
     *   R. Sabatini, E. Kucukbenli, B. Kolb, T. Thonhauser, and
     *   S. de Gironcoli, J. Phys.: Condens. Matter 24, 424209 (2012).
     *

     Carrying out vdW-DF run using the following parameters:

     Nqs =      20    Nr_points =    1024   r_max =   100.000
     q_mesh =
               0.00001000     0.04494208     0.09755937     0.15916263
               0.23128650     0.31572767     0.41458969     0.53033537
               0.66584808     0.82450364     1.01025438     1.22772762
               1.48234092     1.78043706     2.12944203     2.53805004
               3.01644009     3.57652955     4.23227104     5.00000000

     Gradients computed in reciprocal space

[...]

     Starting wfc are  144 randomized atomic wfcs

     Self-consistent Calculation

[...]

     total energy              =   -1283.70560528 Ry
     Harris-Foulkes estimate   =   -1283.70559774 Ry
     estimated scf accuracy    <       0.00000101 Ry

[...]

     iteration # 27     ecut=    36.75 Ry     beta=0.10
     Davidson diagonalization with overlap
     ethr =  7.31E-10,  avg # of iterations =  5.0

[...]

     negative rho (up, down):  8.143E-02 8.142E-02

[...]

     Adding external electric field

     Computed dipole along edir(3) :
        Dipole                0.0179 Ry au,          0.0455 Debye
        Dipole field          0.0000 Ry au

        Potential amp.       -0.0030 Ry
        Total length         47.2502 bohr

     Magnetic moment per site:
     atom:    1    charge:    0.8705    magn:    0.0029    constr:    0.0000
     atom:    2    charge:    0.8705    magn:    0.0029    constr:    0.0000
     atom:    3    charge:    0.8705    magn:    0.0029    constr:    0.0000
     atom:    4    charge:    1.4364    magn:    0.0004    constr:    0.0000
     atom:    5    charge:    0.8629    magn:    0.0007    constr:    0.0000
     atom:    6    charge:    0.8629    magn:    0.0007    constr:    0.0000
     atom:    7    charge:    0.8629    magn:    0.0007    constr:    0.0000
     atom:    8    charge:    1.4241    magn:   -0.0001    constr:    0.0000
     atom:    9    charge:    0.8648    magn:    0.0023    constr:    0.0000
     atom:   10    charge:    0.8648    magn:    0.0023    constr:    0.0000
     atom:   11    charge:    0.8648    magn:    0.0023    constr:    0.0000
     atom:   12    charge:    1.4240    magn:    0.0004    constr:    0.0000

     End of self-consistent calculation

 ------ SPIN UP ------------

[...]

 ------ SPIN DOWN ----------

[...]

          k = 0.0482-0.0000 0.0000 ( 26961 PWs)   bands (ev):

[...]

          k =-0.0723-0.1253 0.0000 ( 26922 PWs)   bands (ev):

   -42.2588 -42.2407 -42.2253 -42.2221 -42.2060 -42.1899 -41.7545 -41.7384
   -41.7221 -22.3355 -22.3055 -22.2855 -22.2798 -22.2582 -22.2412 -22.2267
   -22.2128 -22.1941 -22.1915 -22.1572 -22.1495 -22.1432 -22.1162 -22.0941
   -22.0730 -21.9160 -21.8896 -21.8870 -21.7228 -21.7210 -21.6924 -21.6866
   -21.6632 -21.6431 -21.6409 -21.4917 -10.1174 -10.1045 -10.0972 -10.0909
   -10.0865 -10.0831 -10.0754 -10.0617 -10.0515 -10.0513 -10.0472 -10.0396
   -10.0360 -10.0165 -10.0085  -5.2166  -5.0529  -4.8407  -1.8985  -1.3147
    -1.1562  -0.8861  -0.0837   0.0097   0.0911   0.2402   0.4380   0.4790
     0.5375   0.9120   0.9798   1.2423   1.2615   1.3342   1.5470   1.6623
     1.6678   1.6772   1.8588   1.9386   1.9859   1.9870   2.2911   2.4049
     2.4984   2.5374   2.7780   2.8833   2.9000   3.4655   3.5341   3.5672
     3.6703   3.7218   3.7740   3.8548   3.9295   4.0158   4.0414   4.0679
     4.1428   4.1868   4.3534

     the Fermi energy is     1.1937 ev

!    total energy              =   -1283.70561421 Ry
     Harris-Foulkes estimate   =   -1283.70561196 Ry
     estimated scf accuracy    <       0.00000074 Ry

     The total energy is the sum of the following terms:

     one-electron contribution =   -6311.18302610 Ry
     hartree contribution      =    3171.28453639 Ry
     xc contribution           =    -446.42589178 Ry
     ewald contribution        =    2302.71127829 Ry
     electric field correction =       0.00000056 Ry
     smearing contrib. (-TS)   =      -0.09251157 Ry

     total magnetization       =     1.31 Bohr mag/cell
     absolute magnetization    =     1.50 Bohr mag/cell

     convergence has been achieved in  27 iterations

 BEEF-vdW xc energy contributions
           1 :   -393.170770671766
           2 :    358.605723401654
           3 :   -298.441669180038
           4 :    226.627459392347
           5 :   -156.722967933290
           6 :    97.9193031503700
           7 :   -53.9108682078684
           8 :    24.1538690327299
           9 :   -6.07851052920034
          10 :   -3.11581764297000
          11 :    5.69452504407946
          12 :   -3.53649271061005
          13 :   -1.40716424887057
          14 :    6.93379804726936
          15 :   -10.9229503211345
          16 :    11.9186746879042
          17 :   -9.52915607414235
          18 :    4.38875755951273
          19 :    2.21167471295934
          20 :   -8.77404799612634
          21 :    13.9328902416077
          22 :   -16.6843224025381
          23 :    16.5604717113781
          24 :   -13.7665036723789
          25 :    9.18782718675436
          26 :   -4.17556257531464
          27 :   0.109668330237696
          28 :    2.08914550178110
          29 :   -2.26437204237345
          30 :   0.979785081582804
          31 :   -34.9015728080122
          32 :   -24.5738309308583

     Forces acting on atoms (Ry/au):

     negative rho (up, down):  8.143E-02 8.142E-02
     atom    1 type  1   force =    -0.00000021    0.00925947   -0.00501948
     atom    2 type  1   force =     0.00801719   -0.00463101   -0.00501734
     atom    3 type  1   force =    -0.00801697   -0.00463001   -0.00501768
     atom    4 type  2   force =    -0.00000028   -0.00000282    0.00808460
     atom    5 type  1   force =     0.00000145   -0.00148813    0.00230368
     atom    6 type  1   force =    -0.00128845    0.00074413    0.00230320
     atom    7 type  1   force =     0.00128822    0.00074307    0.00230321
     atom    8 type  2   force =     0.00000032   -0.00000099    0.00125630
     atom    9 type  1   force =     0.00000005    0.00093579   -0.00028077
     atom   10 type  1   force =     0.00081143   -0.00046723   -0.00028393
     atom   11 type  1   force =    -0.00081491   -0.00046912   -0.00028654
     atom   12 type  2   force =     0.00000217    0.00000685   -0.00034524

     Total force =     0.020621     Total SCF correction =     0.001146

     entering subroutine stress ...

     negative rho (up, down):  8.143E-02 8.142E-02
          total   stress  (Ry/bohr**3)                   (kbar)     P=   -5.37
  -0.00005101   0.00000000  -0.00000000         -7.50      0.00     -0.00
   0.00000000  -0.00005101   0.00000000          0.00     -7.50      0.00
  -0.00000000   0.00000000  -0.00000760         -0.00      0.00     -1.12

 !ASE

     Writing output data file calc.save

     General routines

     Parallel routines

   This run was terminated on:  18:34:55   2Jan2019

   JOB DONE.
Job  /afs/slac/g/suncat/bin/suncat-tsmpirun -x LD_LIBRARY_PATH -wdir /scratch/qe649454_IIgfw pw.x -in pw.inp

TID   HOST_NAME   COMMAND_LINE            STATUS            TERMINATION_TIME
00000 suncat0031 pw.x -in pw.inp   Done                     01/02/2019 18:34:55
00001 suncat0031 pw.x -in pw.inp   Done                     01/02/2019 18:34:55
00002 suncat0031 pw.x -in pw.inp   Done                     01/02/2019 18:34:55
00003 suncat0031 pw.x -in pw.inp   Done                     01/02/2019 18:34:55
00004 suncat0031 pw.x -in pw.inp   Done                     01/02/2019 18:34:55
00005 suncat0031 pw.x -in pw.inp   Done                     01/02/2019 18:34:55
00006 suncat0031 pw.x -in pw.inp   Done                     01/02/2019 18:34:55
00007 suncat0031 pw.x -in pw.inp   Done                     01/02/2019 18:34:55
00008 suncat0030 pw.x -in pw.inp   Done                     01/02/2019 18:34:55
00009 suncat0030 pw.x -in pw.inp   Done                     01/02/2019 18:34:55
00010 suncat0030 pw.x -in pw.inp   Done                     01/02/2019 18:34:55
00011 suncat0030 pw.x -in pw.inp   Done                     01/02/2019 18:34:55
00012 suncat0030 pw.x -in pw.inp   Done                     01/02/2019 18:34:55
00013 suncat0030 pw.x -in pw.inp   Done                     01/02/2019 18:34:55
00014 suncat0030 pw.x -in pw.inp   Done                     01/02/2019 18:34:55
00015 suncat0030 pw.x -in pw.inp   Done                     01/02/2019 18:34:55
00016 suncat0192 pw.x -in pw.inp   Done                     01/02/2019 18:34:55
00017 suncat0192 pw.x -in pw.inp   Done                     01/02/2019 18:34:55
00018 suncat0192 pw.x -in pw.inp   Done                     01/02/2019 18:34:55
00019 suncat0192 pw.x -in pw.inp   Done                     01/02/2019 18:34:55
00020 suncat0192 pw.x -in pw.inp   Done                     01/02/2019 18:34:55
00021 suncat0192 pw.x -in pw.inp   Done                     01/02/2019 18:34:55
00022 suncat0192 pw.x -in pw.inp   Done                     01/02/2019 18:34:55
00023 suncat0192 pw.x -in pw.inp   Done                     01/02/2019 18:34:55
00024 suncat0185 pw.x -in pw.inp   Done                     01/02/2019 18:34:55
00025 suncat0185 pw.x -in pw.inp   Done                     01/02/2019 18:34:55
00026 suncat0185 pw.x -in pw.inp   Done                     01/02/2019 18:34:55
00027 suncat0185 pw.x -in pw.inp   Done                     01/02/2019 18:34:55
00028 suncat0185 pw.x -in pw.inp   Done                     01/02/2019 18:34:55
00029 suncat0185 pw.x -in pw.inp   Done                     01/02/2019 18:34:55
00030 suncat0185 pw.x -in pw.inp   Done                     01/02/2019 18:34:55
00031 suncat0185 pw.x -in pw.inp   Done                     01/02/2019 18:34:55
00032 suncat0184 pw.x -in pw.inp   Done                     01/02/2019 18:34:55
00033 suncat0184 pw.x -in pw.inp   Done                     01/02/2019 18:34:55
00034 suncat0184 pw.x -in pw.inp   Done                     01/02/2019 18:34:55
00035 suncat0184 pw.x -in pw.inp   Done                     01/02/2019 18:34:55
00036 suncat0184 pw.x -in pw.inp   Done                     01/02/2019 18:34:55
00037 suncat0184 pw.x -in pw.inp   Done                     01/02/2019 18:34:55
00038 suncat0184 pw.x -in pw.inp   Done                     01/02/2019 18:34:55
00039 suncat0184 pw.x -in pw.inp   Done                     01/02/2019 18:34:55
00040 suncat0183 pw.x -in pw.inp   Done                     01/02/2019 18:34:55
00041 suncat0183 pw.x -in pw.inp   Done                     01/02/2019 18:34:55
00042 suncat0183 pw.x -in pw.inp   Done                     01/02/2019 18:34:55
00043 suncat0183 pw.x -in pw.inp   Done                     01/02/2019 18:34:55
00044 suncat0183 pw.x -in pw.inp   Done                     01/02/2019 18:34:55
00045 suncat0183 pw.x -in pw.inp   Done                     01/02/2019 18:34:55
00046 suncat0183 pw.x -in pw.inp   Done                     01/02/2019 18:34:55
00047 suncat0183 pw.x -in pw.inp   Done                     01/02/2019 18:34:55
00048 suncat0172 pw.x -in pw.inp   Done                     01/02/2019 18:34:55
00049 suncat0172 pw.x -in pw.inp   Done                     01/02/2019 18:34:55
00050 suncat0172 pw.x -in pw.inp   Done                     01/02/2019 18:34:55
00051 suncat0172 pw.x -in pw.inp   Done                     01/02/2019 18:34:55
00052 suncat0172 pw.x -in pw.inp   Done                     01/02/2019 18:34:55
00053 suncat0172 pw.x -in pw.inp   Done                     01/02/2019 18:34:55
00054 suncat0172 pw.x -in pw.inp   Done                     01/02/2019 18:34:55
00055 suncat0172 pw.x -in pw.inp   Done                     01/02/2019 18:34:55
00056 suncat0171 pw.x -in pw.inp   Done                     01/02/2019 18:34:55
00057 suncat0171 pw.x -in pw.inp   Done                     01/02/2019 18:34:55
00058 suncat0171 pw.x -in pw.inp   Done                     01/02/2019 18:34:55
00059 suncat0171 pw.x -in pw.inp   Done                     01/02/2019 18:34:55
00060 suncat0171 pw.x -in pw.inp   Done                     01/02/2019 18:34:55
00061 suncat0171 pw.x -in pw.inp   Done                     01/02/2019 18:34:55
00062 suncat0171 pw.x -in pw.inp   Done                     01/02/2019 18:34:55
00063 suncat0171 pw.x -in pw.inp   Done                     01/02/2019 18:34:55