     Program PWSCF v.5.1rc2 (svn rev. 11289) starts on 28Dec2018 at  2:14:52

     Current dimensions of program PWSCF are:
     Max number of different atomic species (ntypx) = 10
     Max number of k-points (npk) =  40000
     Max angular momentum in pseudopotentials (lmaxx) =  3
     Presently stress not available with electric field

     IMPORTANT: XC functional enforced from input :
     Exchange-correlation      = BEEF-VDW ( 1  4 27 13 2)
     Any further DFT definition will be discarded
     Please, verify this is what you really want

     Subspace diagonalization in iterative solution of the eigenvalue problem:
     a serial algorithm will be used

     bravais-lattice index     =            0
     lattice parameter (alat)  =       1.8897  a.u.
     unit-cell volume          =    5517.7626 (a.u.)^3
     number of atoms/cell      =           12
     number of atomic types    =            2
     number of electrons       =       141.00
     number of Kohn-Sham states=          100
     kinetic-energy cutoff     =      36.7493  Ry
     charge density cutoff     =     367.4932  Ry
     convergence threshold     =      1.0E-06
     mixing beta               =       0.1000
     number of iterations used =           10  plain     mixing
     Exchange-correlation      = BEEF-VDW ( 1  4 27 13 2)
     nstep                     =           50

     celldm(1)=   1.889726  celldm(2)=   0.000000  celldm(3)=   0.000000
     celldm(4)=   0.000000  celldm(5)=   0.000000  celldm(6)=   0.000000

     crystal axes: (cart. coord. in units of alat)
               a(1) = (   6.143395   0.000000   0.000000 )
               a(2) = (  -3.071697   5.320336   0.000000 )
               a(3) = (   0.000000   0.000000  25.016061 )

     reciprocal axes: (cart. coord. in units 2 pi/alat)
               b(1) = (  0.162776  0.093979  0.000000 )
               b(2) = (  0.000000  0.187958  0.000000 )
               b(3) = (  0.000000  0.000000  0.039974 )

     PseudoPot. # 1 for Ti read from file:
     /afs/slac.stanford.edu/u/if/mamunm/psp/gbrv1.5pbe/Ti.UPF
     MD5 check sum: 88a00a6731bd790ddea75d31a80cb452
     Pseudo is Ultrasoft + core correction, Zval = 12.0
     Generated by new atomic code, or converted to UPF format
     Using radial grid of  851 points,  6 beta functions with:
                l(1) =   0
                l(2) =   0
                l(3) =   1
                l(4) =   1
                l(5) =   2
                l(6) =   2
     Q(r) pseudized with  6 coefficients,  rinner =    1.000   1.000   1.000
                                                       1.000   1.000

     PseudoPot. # 2 for Y  read from file:
     /afs/slac.stanford.edu/u/if/mamunm/psp/gbrv1.5pbe/Y.UPF
     MD5 check sum: d034151ed7554c50b6e82763ed42c788
     Pseudo is Ultrasoft + core correction, Zval = 11.0
     Generated by new atomic code, or converted to UPF format
     Using radial grid of  885 points,  6 beta functions with:
                l(1) =   0
                l(2) =   0
                l(3) =   1
                l(4) =   1
                l(5) =   2
                l(6) =   2
     Q(r) pseudized with  8 coefficients,  rinner =    1.200   1.200   1.200
                                                       1.200   1.200

     vdW kernel table read from file vdW_kernel_table
     MD5 check sum: 095c7af220d748ca6e76c0b4c6cfb241

     atomic species   valence    mass     pseudopotential
        Ti1           12.00    47.86700     Ti( 1.00)
        Y1            11.00    88.90584     Y ( 1.00)

     No symmetry found

   Cartesian axes

     site n.     atom                  positions (alat units)
         1           Ti1 tau(   1) = (   0.0000000   0.0000000  10.0000000  )
         2           Ti1 tau(   2) = (  -1.5358487   2.6601680  10.0000000  )
         3           Ti1 tau(   3) = (   1.5358487   2.6601680  10.0000000  )
         4           Y1  tau(   4) = (   3.0716974   0.0000000  10.0000000  )
         5           Ti1 tau(   5) = (   3.0716974   1.7734453  12.5080304  )
         6           Ti1 tau(   6) = (   1.5358487   4.4336133  12.5080304  )
         7           Ti1 tau(   7) = (  -1.5358487   4.4336133  12.5080304  )
         8           Y1  tau(   8) = (   0.0000000   1.7734453  12.5080304  )
         9           Ti1 tau(   9) = (  -0.0000000   3.5468906  15.0160608  )
        10           Ti1 tau(  10) = (   1.5358487   0.8867227  15.0160608  )
        11           Ti1 tau(  11) = (   4.6075461   0.8867227  15.0160608  )
        12           Y1  tau(  12) = (   3.0716974   3.5468906  15.0160608  )

     number of k points=    20  Fermi-Dirac smearing, width (Ry)=  0.0110
                       cart. coord. in units 2pi/alat
        k(    1) = (   0.0000000   0.0000000   0.0000000), wk =   0.0555556
        k(    2) = (   0.0000000   0.0313263   0.0000000), wk =   0.1111111
        k(    3) = (   0.0000000   0.0626527   0.0000000), wk =   0.1111111
        k(    4) = (   0.0000000  -0.0939790   0.0000000), wk =   0.0555556
        k(    5) = (   0.0271294   0.0156632   0.0000000), wk =   0.1111111
        k(    6) = (   0.0271294   0.0469895   0.0000000), wk =   0.1111111
        k(    7) = (   0.0271294   0.0783159   0.0000000), wk =   0.1111111
        k(    8) = (   0.0271294  -0.0783159   0.0000000), wk =   0.1111111
        k(    9) = (   0.0271294  -0.0469895   0.0000000), wk =   0.1111111
        k(   10) = (   0.0271294  -0.0156632   0.0000000), wk =   0.1111111
        k(   11) = (   0.0542588   0.0313263   0.0000000), wk =   0.1111111
        k(   12) = (   0.0542588   0.0626527   0.0000000), wk =   0.1111111
        k(   13) = (   0.0542588   0.0939790   0.0000000), wk =   0.1111111
        k(   14) = (   0.0542588  -0.0626527   0.0000000), wk =   0.1111111
        k(   15) = (   0.0542588  -0.0313263   0.0000000), wk =   0.1111111
        k(   16) = (   0.0542588   0.0000000   0.0000000), wk =   0.1111111
        k(   17) = (  -0.0813882  -0.0469895   0.0000000), wk =   0.0555556
        k(   18) = (  -0.0813882  -0.0156632   0.0000000), wk =   0.1111111
        k(   19) = (  -0.0813882   0.0156632   0.0000000), wk =   0.1111111
        k(   20) = (  -0.0813882  -0.1409685   0.0000000), wk =   0.0555556

     Largest allocated arrays     est. size (Mb)     dimensions
     Largest temporary arrays     est. size (Mb)     dimensions

     Check: negative/imaginary core charge=   -0.000005    0.000000

     Initial potential from superposition of free atoms
     Check: negative starting charge=   -0.008484

     starting charge  131.98620, renormalised to  141.00000

     negative rho (up, down):  9.063E-03 0.000E+00

     *
     * You are using vdW-DF for exchange-correlation in this calculation.
     * Please cite the following three references that made this development
     * possible:
     *
     *   M. Dion, H. Rydberg, E. Schroder, D. C. Langreth, and
     *   B. I. Lundqvist, Phys. Rev. Lett. 92, 246401 (2004).
     *
     *   T. Thonhauser, V. R. Cooper, S. Li, A. Puzder, P. Hyldgaard, and
     *   D. C. Langreth, Phys. Rev. B 76, 125112 (2007).
     *
     *   G. Roman-Perez and J. M. Soler, Phys. Rev. Lett. 103, 096102 (2009).
     *
     *
     * If you are using vdW-DF2, please also cite:
     *
     *   K. Lee, E. D. Murray, L. Kong, B. I. Lundqvist, and
     *   D. C. Langreth, Phys. Rev. B 82, 081101(R) (2010).
     *
     *
     * If you are calculating the stress with vdW-DF, please also cite:
     *
     *   R. Sabatini, E. Kucukbenli, B. Kolb, T. Thonhauser, and
     *   S. de Gironcoli, J. Phys.: Condens. Matter 24, 424209 (2012).
     *

     Carrying out vdW-DF run using the following parameters:

     Nqs =      20    Nr_points =    1024   r_max =   100.000
     q_mesh =
               0.00001000     0.04494208     0.09755937     0.15916263
               0.23128650     0.31572767     0.41458969     0.53033537
               0.66584808     0.82450364     1.01025438     1.22772762
               1.48234092     1.78043706     2.12944203     2.53805004
               3.01644009     3.57652955     4.23227104     5.00000000

     Gradients computed in reciprocal space

     Adding external electric field

     Computed dipole along edir(3) :
        Dipole                0.0000 Ry au,          0.0000 Debye
        Dipole field          0.0000 Ry au

        Potential amp.       -0.0000 Ry
        Total length         46.0917 bohr

     Starting wfc are  129 randomized atomic wfcs

     Self-consistent Calculation

     iteration #  1     ecut=    36.75 Ry     beta=0.10
     Davidson diagonalization with overlap
     ethr =  1.00E-02,  avg # of iterations =  3.4

[...]

     total energy              =   -1360.05111273 Ry
     Harris-Foulkes estimate   =   -1360.99901319 Ry
     estimated scf accuracy    <       5.67926885 Ry

[...]

     End of self-consistent calculation

          k = 0.0000 0.0000 0.0000 ( 20803 PWs)   bands (ev):

   -56.3593 -56.3581 -56.3281 -56.3279 -56.3278 -56.3276 -56.1985 -56.1692
   -56.1691 -41.5927 -41.5921 -40.9525 -32.6723 -32.6692 -32.6667 -32.6410
   -32.6409 -32.6261 -32.6260 -32.6259 -32.6257 -32.6205 -32.5961 -32.5959
   -32.5205 -32.5016 -32.4958 -32.4573 -32.4573 -32.4059 -32.4058 -32.4017
   -32.4016 -32.3771 -32.3771 -32.3770 -32.3341 -32.2470 -32.2470 -21.6389
   -21.6257 -21.6000 -21.6000 -21.5967 -21.5967 -21.0241 -21.0050 -21.0050
    -4.1854  -3.0208  -1.8966  -1.3299  -1.3298  -1.2955  -1.2955  -0.8423
    -0.8404  -0.8404  -0.7396  -0.4573  -0.4255  -0.4254  -0.3750   0.1044
     0.1044   0.1931   0.8250   0.8370   1.0758   1.0759   1.1168   1.2526
     1.3958   1.3959   1.4305   1.5777   1.6072   1.6905   1.6906   1.8297
     1.8297   1.8586   1.8587   1.9137   1.9137   1.9739   2.0944   2.0944
     2.2804   2.4738   2.5374   2.5375   2.6292   2.6293   2.9122   2.9123
     2.9936   2.9937   3.2171   3.5909

[...]

          k =-0.0814-0.0470 0.0000 ( 20740 PWs)   bands (ev):

[...]

     the Fermi energy is     0.8200 ev

!    total energy              =   -1359.75383583 Ry
     Harris-Foulkes estimate   =   -1359.75383386 Ry
     estimated scf accuracy    <       0.00000086 Ry

     The total energy is the sum of the following terms:

     one-electron contribution =   -8977.58866988 Ry
     hartree contribution      =    4475.92095165 Ry
     xc contribution           =    -253.25505763 Ry
     ewald contribution        =    3395.31663462 Ry
     electric field correction =       0.00000000 Ry
     smearing contrib. (-TS)   =      -0.14769460 Ry

     convergence has been achieved in  23 iterations

 BEEF-vdW xc energy contributions
           1 :   -218.615660377016
           2 :    195.649825739905
           3 :   -157.370346679523
           4 :    115.057530228476
           5 :   -78.3172039609418
           6 :    51.5630651439525
           7 :   -33.9127065163115
           8 :    21.7592025965284
           9 :   -11.8895486501906
          10 :    3.18980127113153
          11 :    3.64478449251709
          12 :   -7.61172983603103
          13 :    8.75293711878601
          14 :   -8.42807263527482
          15 :    8.48763793063540
          16 :   -10.0994053839558
[...]
               b(3) = (  0.000000  0.000000  0.039974 )

     PseudoPot. # 1 for Ti read from file:
     /afs/slac.stanford.edu/u/if/mamunm/psp/gbrv1.5pbe/Ti.UPF
     MD5 check sum: 88a00a6731bd790ddea75d31a80cb452
     Pseudo is Ultrasoft + core correction, Zval = 12.0
     Generated by new atomic code, or converted to UPF format
     Using radial grid of  851 points,  6 beta functions with:
                l(1) =   0
                l(2) =   0
                l(3) =   1
                l(4) =   1
                l(5) =   2
                l(6) =   2
     Q(r) pseudized with  6 coefficients,  rinner =    1.000   1.000   1.000
                                                       1.000   1.000

     PseudoPot. # 2 for Y  read from file:
     /afs/slac.stanford.edu/u/if/mamunm/psp/gbrv1.5pbe/Y.UPF
     MD5 check sum: d034151ed7554c50b6e82763ed42c788
     Pseudo is Ultrasoft + core correction, Zval = 11.0
     Generated by new atomic code, or converted to UPF format
     Using radial grid of  885 points,  6 beta functions with:
                l(1) =   0
                l(2) =   0
                l(3) =   1
                l(4) =   1
                l(5) =   2
                l(6) =   2
     Q(r) pseudized with  8 coefficients,  rinner =    1.200   1.200   1.200
                                                       1.200   1.200

     vdW kernel table read from file vdW_kernel_table
     MD5 check sum: 095c7af220d748ca6e76c0b4c6cfb241

     atomic species   valence    mass     pseudopotential
        Ti1           12.00    47.86700     Ti( 1.00)
        Y1            11.00    88.90584     Y ( 1.00)

     No symmetry found

   Cartesian axes

     site n.     atom                  positions (alat units)
         1           Ti1 tau(   1) = (   0.0000000   0.0000000  10.0000000  )
         2           Ti1 tau(   2) = (  -1.5358487   2.6601680  10.0000000  )
         3           Ti1 tau(   3) = (   1.5358487   2.6601680  10.0000000  )
         4           Y1  tau(   4) = (   3.0716974   0.0000000  10.0000000  )
         5           Ti1 tau(   5) = (   3.0716974   1.7734453  12.5080304  )
         6           Ti1 tau(   6) = (   1.5358487   4.4336133  12.5080304  )
         7           Ti1 tau(   7) = (  -1.5358487   4.4336133  12.5080304  )
         8           Y1  tau(   8) = (   0.0000000   1.7734453  12.5080304  )
         9           Ti1 tau(   9) = (  -0.0000416   3.7314337  14.7697817  )
        10           Ti1 tau(  10) = (   1.6956186   0.7945331  14.7697587  )
        11           Ti1 tau(  11) = (   4.4477115   0.7945436  14.7697275  )
        12           Y1  tau(  12) = (   3.0716550   3.5469757  15.2701307  )

     number of k points=    20  Fermi-Dirac smearing, width (Ry)=  0.0110
                       cart. coord. in units 2pi/alat
        k(    1) = (   0.0000000   0.0000000   0.0000000), wk =   0.0555556
        k(    2) = (   0.0000000   0.0313263   0.0000000), wk =   0.1111111
        k(    3) = (   0.0000000   0.0626527   0.0000000), wk =   0.1111111
        k(    4) = (   0.0000000  -0.0939790   0.0000000), wk =   0.0555556
        k(    5) = (   0.0271294   0.0156632   0.0000000), wk =   0.1111111
        k(    6) = (   0.0271294   0.0469895   0.0000000), wk =   0.1111111
        k(    7) = (   0.0271294   0.0783159   0.0000000), wk =   0.1111111
        k(    8) = (   0.0271294  -0.0783159   0.0000000), wk =   0.1111111
        k(    9) = (   0.0271294  -0.0469895   0.0000000), wk =   0.1111111
        k(   10) = (   0.0271294  -0.0156632   0.0000000), wk =   0.1111111
        k(   11) = (   0.0542588   0.0313263   0.0000000), wk =   0.1111111
        k(   12) = (   0.0542588   0.0626527   0.0000000), wk =   0.1111111
        k(   13) = (   0.0542588   0.0939790   0.0000000), wk =   0.1111111
        k(   14) = (   0.0542588  -0.0626527   0.0000000), wk =   0.1111111
        k(   15) = (   0.0542588  -0.0313263   0.0000000), wk =   0.1111111
        k(   16) = (   0.0542588   0.0000000   0.0000000), wk =   0.1111111
        k(   17) = (  -0.0813882  -0.0469895   0.0000000), wk =   0.0555556
        k(   18) = (  -0.0813882  -0.0156632   0.0000000), wk =   0.1111111
        k(   19) = (  -0.0813882   0.0156632   0.0000000), wk =   0.1111111
        k(   20) = (  -0.0813882  -0.1409685   0.0000000), wk =   0.0555556

     Largest allocated arrays     est. size (Mb)     dimensions
     Largest temporary arrays     est. size (Mb)     dimensions

     Check: negative/imaginary core charge=   -0.000005    0.000000

     Initial potential from superposition of free atoms
     Check: negative starting charge=   -0.010056

     starting charge  131.98620, renormalised to  141.00000

[...]

     *
     * You are using vdW-DF for exchange-correlation in this calculation.
     * Please cite the following three references that made this development
     * possible:
     *
     *   M. Dion, H. Rydberg, E. Schroder, D. C. Langreth, and
     *   B. I. Lundqvist, Phys. Rev. Lett. 92, 246401 (2004).
     *
     *   T. Thonhauser, V. R. Cooper, S. Li, A. Puzder, P. Hyldgaard, and
     *   D. C. Langreth, Phys. Rev. B 76, 125112 (2007).
     *
     *   G. Roman-Perez and J. M. Soler, Phys. Rev. Lett. 103, 096102 (2009).
     *
     *
     * If you are using vdW-DF2, please also cite:
     *
     *   K. Lee, E. D. Murray, L. Kong, B. I. Lundqvist, and
     *   D. C. Langreth, Phys. Rev. B 82, 081101(R) (2010).
     *
     *
     * If you are calculating the stress with vdW-DF, please also cite:
     *
     *   R. Sabatini, E. Kucukbenli, B. Kolb, T. Thonhauser, and
     *   S. de Gironcoli, J. Phys.: Condens. Matter 24, 424209 (2012).
     *

     Carrying out vdW-DF run using the following parameters:

     Nqs =      20    Nr_points =    1024   r_max =   100.000
     q_mesh =
               0.00001000     0.04494208     0.09755937     0.15916263
               0.23128650     0.31572767     0.41458969     0.53033537
               0.66584808     0.82450364     1.01025438     1.22772762
               1.48234092     1.78043706     2.12944203     2.53805004
               3.01644009     3.57652955     4.23227104     5.00000000

     Gradients computed in reciprocal space

[...]

     Starting wfc are  129 randomized atomic wfcs

     Self-consistent Calculation

[...]

     total energy              =   -1359.80102740 Ry
     Harris-Foulkes estimate   =   -1359.80102600 Ry
     estimated scf accuracy    <       0.00000240 Ry

     iteration # 21     ecut=    36.75 Ry     beta=0.10
     Davidson diagonalization with overlap
     ethr =  1.70E-09,  avg # of iterations =  2.0

[...]

     negative rho (up, down):  6.684E-03 0.000E+00

     Adding external electric field

     Computed dipole along edir(3) :
        Dipole                0.1048 Ry au,          0.2665 Debye
        Dipole field          0.0002 Ry au

        Potential amp.       -0.0220 Ry
        Total length         46.0917 bohr

     End of self-consistent calculation

[...]

          k = 0.0543 0.0000 0.0000 ( 20729 PWs)   bands (ev):

[...]

          k =-0.0814-0.1410 0.0000 ( 20740 PWs)   bands (ev):

   -56.2446 -56.2343 -56.2242 -56.0294 -55.9960 -55.9834 -55.9718 -55.9501
   -55.9451 -41.8903 -41.4976 -40.8436 -32.5393 -32.5264 -32.5242 -32.5084
   -32.4679 -32.4537 -32.4443 -32.4303 -32.4051 -32.3612 -32.3511 -32.3481
   -32.3402 -32.3189 -32.3071 -32.2759 -32.2301 -32.2205 -32.1714 -32.1659
   -32.1257 -32.0885 -32.0883 -32.0621 -32.0549 -32.0460 -32.0201 -21.9070
   -21.8594 -21.8501 -21.5407 -21.5228 -21.5093 -20.9517 -20.9146 -20.9007
    -2.6567  -2.6105  -1.6499  -1.4767  -0.8967  -0.7557  -0.6093  -0.5281
    -0.4086  -0.3767   0.0554   0.0974   0.2101   0.2743   0.3030   0.3729
     0.4595   0.5779   0.6014   0.6104   0.6523   0.6796   0.7793   0.8808
     0.9411   0.9682   0.9789   1.1569   1.1834   1.2267   1.3863   1.4161
     1.5053   1.6749   1.7781   1.8918   2.0163   2.0785   2.1209   2.2357
     2.4272   2.4581   2.5252   2.6054   2.6742   2.6771   2.7736   2.8279
     2.9375   2.9725   3.1161   3.2181

     the Fermi energy is     0.9150 ev

!    total energy              =   -1359.80102928 Ry
     Harris-Foulkes estimate   =   -1359.80102723 Ry
     estimated scf accuracy    <       0.00000073 Ry

     The total energy is the sum of the following terms:

     one-electron contribution =   -9141.08884490 Ry
     hartree contribution      =    4558.45123027 Ry
     xc contribution           =    -253.43650891 Ry
     ewald contribution        =    3476.40862694 Ry
     electric field correction =       0.00002504 Ry
     smearing contrib. (-TS)   =      -0.13555772 Ry

     convergence has been achieved in  21 iterations

 BEEF-vdW xc energy contributions
           1 :   -218.997846611466
           2 :    196.090976637020
           3 :   -157.860615305281
           4 :    115.505684090082
           5 :   -78.6117519976683
           6 :    51.6646931795216
           7 :   -33.8995743299129
           8 :    21.7760156254079
           9 :   -12.0374808326902
          10 :    3.44995185491848
          11 :    3.39263516209735
          12 :   -7.49667852180738
          13 :    8.82035810019636
          14 :   -8.61098262547966
          15 :    8.65739113357967
          16 :   -10.1594217585851
          17 :    13.0621522671141
          18 :   -16.2651229495933
          19 :    18.4459488972559
          20 :   -18.8630773942821
          21 :    17.6115619432607
          22 :   -15.2846358565970
          23 :    12.4186676556798
          24 :   -9.18398365278773
          25 :    5.49645480243262
          26 :   -1.36511461781731
          27 :   -2.86972149851917
          28 :    6.60835824384915
          29 :   -9.30429183635789
          30 :    10.7625111130371
          31 :   -22.4192339572641
          32 :   -15.7686796807382

     Forces acting on atoms (Ry/au):

     negative rho (up, down):  6.684E-03 0.000E+00
     atom    1 type  1   force =     0.00000347   -0.01299808    0.01875114
     atom    2 type  1   force =    -0.01126231    0.00651150    0.01873445
     atom    3 type  1   force =     0.01126446    0.00650889    0.01872518
     atom    4 type  2   force =     0.00000993   -0.00000314   -0.02660025
     atom    5 type  1   force =    -0.00000416    0.00481602   -0.00456272
     atom    6 type  1   force =     0.00414816   -0.00239997   -0.00454728
     atom    7 type  1   force =    -0.00414917   -0.00239549   -0.00454638
     atom    8 type  2   force =    -0.00001674   -0.00007147   -0.01415401
     atom    9 type  1   force =     0.00000225   -0.00050281   -0.00032671
     atom   10 type  1   force =    -0.00043347    0.00025930   -0.00033136
     atom   11 type  1   force =     0.00043922    0.00025951   -0.00032158
     atom   12 type  2   force =    -0.00000164    0.00001572   -0.00082049

     Total force =     0.051006     Total SCF correction =     0.002113

     entering subroutine stress ...

     negative rho (up, down):  6.684E-03 0.000E+00
          total   stress  (Ry/bohr**3)                   (kbar)     P=   -4.23
  -0.00002915  -0.00000001  -0.00000000         -4.29     -0.00     -0.00
  -0.00000001  -0.00002913  -0.00000002         -0.00     -4.29     -0.00
  -0.00000000  -0.00000002  -0.00002808         -0.00     -0.00     -4.13

 !ASE

     Writing output data file calc.save

     General routines

     Parallel routines

   This run was terminated on:   3:47:34  28Dec2018

   JOB DONE.
Job  /afs/slac/g/suncat/bin/suncat-tsmpirun -x LD_LIBRARY_PATH -wdir /scratch/qe111156_JElv8 pw.x -in pw.inp

TID   HOST_NAME   COMMAND_LINE            STATUS            TERMINATION_TIME
00000 suncat0274 pw.x -in pw.inp   Done                     12/28/2018 03:47:34
00001 suncat0274 pw.x -in pw.inp   Done                     12/28/2018 03:47:34
00002 suncat0274 pw.x -in pw.inp   Done                     12/28/2018 03:47:34
00003 suncat0274 pw.x -in pw.inp   Done                     12/28/2018 03:47:34
00004 suncat0274 pw.x -in pw.inp   Done                     12/28/2018 03:47:34
00005 suncat0274 pw.x -in pw.inp   Done                     12/28/2018 03:47:34
00006 suncat0274 pw.x -in pw.inp   Done                     12/28/2018 03:47:34
00007 suncat0274 pw.x -in pw.inp   Done                     12/28/2018 03:47:34
00008 suncat0273 pw.x -in pw.inp   Done                     12/28/2018 03:47:34
00009 suncat0273 pw.x -in pw.inp   Done                     12/28/2018 03:47:34
00010 suncat0273 pw.x -in pw.inp   Done                     12/28/2018 03:47:34
00011 suncat0273 pw.x -in pw.inp   Done                     12/28/2018 03:47:34
00012 suncat0273 pw.x -in pw.inp   Done                     12/28/2018 03:47:34
00013 suncat0273 pw.x -in pw.inp   Done                     12/28/2018 03:47:34
00014 suncat0273 pw.x -in pw.inp   Done                     12/28/2018 03:47:34
00015 suncat0273 pw.x -in pw.inp   Done                     12/28/2018 03:47:34
00016 suncat0230 pw.x -in pw.inp   Done                     12/28/2018 03:47:34
00017 suncat0230 pw.x -in pw.inp   Done                     12/28/2018 03:47:34
00018 suncat0230 pw.x -in pw.inp   Done                     12/28/2018 03:47:34
00019 suncat0230 pw.x -in pw.inp   Done                     12/28/2018 03:47:34
00020 suncat0230 pw.x -in pw.inp   Done                     12/28/2018 03:47:34
00021 suncat0230 pw.x -in pw.inp   Done                     12/28/2018 03:47:34
00022 suncat0230 pw.x -in pw.inp   Done                     12/28/2018 03:47:34
00023 suncat0230 pw.x -in pw.inp   Done                     12/28/2018 03:47:34
00024 suncat0229 pw.x -in pw.inp   Done                     12/28/2018 03:47:34
00025 suncat0229 pw.x -in pw.inp   Done                     12/28/2018 03:47:34
00026 suncat0229 pw.x -in pw.inp   Done                     12/28/2018 03:47:34
00027 suncat0229 pw.x -in pw.inp   Done                     12/28/2018 03:47:34
00028 suncat0229 pw.x -in pw.inp   Done                     12/28/2018 03:47:34
00029 suncat0229 pw.x -in pw.inp   Done                     12/28/2018 03:47:34
00030 suncat0229 pw.x -in pw.inp   Done                     12/28/2018 03:47:34
00031 suncat0229 pw.x -in pw.inp   Done                     12/28/2018 03:47:34
00032 suncat0209 pw.x -in pw.inp   Done                     12/28/2018 03:47:34
00033 suncat0209 pw.x -in pw.inp   Done                     12/28/2018 03:47:34
00034 suncat0209 pw.x -in pw.inp   Done                     12/28/2018 03:47:34
00035 suncat0209 pw.x -in pw.inp   Done                     12/28/2018 03:47:34
00036 suncat0209 pw.x -in pw.inp   Done                     12/28/2018 03:47:34
00037 suncat0209 pw.x -in pw.inp   Done                     12/28/2018 03:47:34
00038 suncat0209 pw.x -in pw.inp   Done                     12/28/2018 03:47:34
00039 suncat0209 pw.x -in pw.inp   Done                     12/28/2018 03:47:34
00040 suncat0205 pw.x -in pw.inp   Done                     12/28/2018 03:47:34
00041 suncat0205 pw.x -in pw.inp   Done                     12/28/2018 03:47:34
00042 suncat0205 pw.x -in pw.inp   Done                     12/28/2018 03:47:34
00043 suncat0205 pw.x -in pw.inp   Done                     12/28/2018 03:47:34
00044 suncat0205 pw.x -in pw.inp   Done                     12/28/2018 03:47:34
00045 suncat0205 pw.x -in pw.inp   Done                     12/28/2018 03:47:34
00046 suncat0205 pw.x -in pw.inp   Done                     12/28/2018 03:47:34
00047 suncat0205 pw.x -in pw.inp   Done                     12/28/2018 03:47:34
00048 suncat0204 pw.x -in pw.inp   Done                     12/28/2018 03:47:34
00049 suncat0204 pw.x -in pw.inp   Done                     12/28/2018 03:47:34
00050 suncat0204 pw.x -in pw.inp   Done                     12/28/2018 03:47:34
00051 suncat0204 pw.x -in pw.inp   Done                     12/28/2018 03:47:34
00052 suncat0204 pw.x -in pw.inp   Done                     12/28/2018 03:47:34
00053 suncat0204 pw.x -in pw.inp   Done                     12/28/2018 03:47:34
00054 suncat0204 pw.x -in pw.inp   Done                     12/28/2018 03:47:34
00055 suncat0204 pw.x -in pw.inp   Done                     12/28/2018 03:47:34
00056 suncat0203 pw.x -in pw.inp   Done                     12/28/2018 03:47:34
00057 suncat0203 pw.x -in pw.inp   Done                     12/28/2018 03:47:34
00058 suncat0203 pw.x -in pw.inp   Done                     12/28/2018 03:47:34
00059 suncat0203 pw.x -in pw.inp   Done                     12/28/2018 03:47:34
00060 suncat0203 pw.x -in pw.inp   Done                     12/28/2018 03:47:34
00061 suncat0203 pw.x -in pw.inp   Done                     12/28/2018 03:47:34
00062 suncat0203 pw.x -in pw.inp   Done                     12/28/2018 03:47:34
00063 suncat0203 pw.x -in pw.inp   Done                     12/28/2018 03:47:34