     Program PWSCF v.5.1rc2 (svn rev. 11289) starts on 25Dec2018 at 14:26:18

     Current dimensions of program PWSCF are:
     Max number of different atomic species (ntypx) = 10
     Max number of k-points (npk) =  40000
     Max angular momentum in pseudopotentials (lmaxx) =  3
     Presently stress not available with electric field

     IMPORTANT: XC functional enforced from input :
     Exchange-correlation      = BEEF-VDW ( 1  4 27 13 2)
     Any further DFT definition will be discarded
     Please, verify this is what you really want

     Subspace diagonalization in iterative solution of the eigenvalue problem:
     a serial algorithm will be used

     bravais-lattice index     =            0
     lattice parameter (alat)  =       1.8897  a.u.
     unit-cell volume          =    4602.0892 (a.u.)^3
     number of atoms/cell      =           12
     number of atomic types    =            2
     number of electrons       =       159.00
     number of Kohn-Sham states=          109
     kinetic-energy cutoff     =      36.7493  Ry
     charge density cutoff     =     367.4932  Ry
     convergence threshold     =      1.0E-06
     mixing beta               =       0.1000
     number of iterations used =           10  plain     mixing
     Exchange-correlation      = BEEF-VDW ( 1  4 27 13 2)
     nstep                     =           50

     celldm(1)=   1.889726  celldm(2)=   0.000000  celldm(3)=   0.000000
     celldm(4)=   0.000000  celldm(5)=   0.000000  celldm(6)=   0.000000

     crystal axes: (cart. coord. in units of alat)
               a(1) = (   5.655728   0.000000   0.000000 )
               a(2) = (  -2.827864   4.898004   0.000000 )
               a(3) = (   0.000000   0.000000  24.617883 )

     reciprocal axes: (cart. coord. in units 2 pi/alat)
               b(1) = (  0.176812  0.102082  0.000000 )
               b(2) = (  0.000000  0.204165  0.000000 )
               b(3) = (  0.000000  0.000000  0.040621 )

     PseudoPot. # 1 for Cr read from file:
     /afs/slac.stanford.edu/u/if/mamunm/psp/gbrv1.5pbe/Cr.UPF
     MD5 check sum: 0d52af634a40206e4dee301ad30da4bf
     Pseudo is Ultrasoft + core correction, Zval = 14.0
     Generated by new atomic code, or converted to UPF format
     Using radial grid of  857 points,  6 beta functions with:
                l(1) =   0
                l(2) =   0
                l(3) =   1
                l(4) =   1
                l(5) =   2
                l(6) =   2
     Q(r) pseudized with  8 coefficients,  rinner =    0.950   0.950   0.950
                                                       0.950   0.950

     PseudoPot. # 2 for Y  read from file:
     /afs/slac.stanford.edu/u/if/mamunm/psp/gbrv1.5pbe/Y.UPF
     MD5 check sum: d034151ed7554c50b6e82763ed42c788
     Pseudo is Ultrasoft + core correction, Zval = 11.0
     Generated by new atomic code, or converted to UPF format
     Using radial grid of  885 points,  6 beta functions with:
                l(1) =   0
                l(2) =   0
                l(3) =   1
                l(4) =   1
                l(5) =   2
                l(6) =   2
     Q(r) pseudized with  8 coefficients,  rinner =    1.200   1.200   1.200
                                                       1.200   1.200

     vdW kernel table read from file vdW_kernel_table
     MD5 check sum: 095c7af220d748ca6e76c0b4c6cfb241

     atomic species   valence    mass     pseudopotential
        Cr1           14.00    51.99610     Cr( 1.00)
        Y1            11.00    88.90584     Y ( 1.00)

     No symmetry found

   Cartesian axes

     site n.     atom                  positions (alat units)
         1           Cr1 tau(   1) = (   0.0000000   0.0000000  10.0000000  )
         2           Cr1 tau(   2) = (  -1.4139321   2.4490022  10.0000000  )
         3           Cr1 tau(   3) = (   1.4139321   2.4490022  10.0000000  )
         4           Y1  tau(   4) = (   2.8278642   0.0000000  10.0000000  )
         5           Cr1 tau(   5) = (   2.8278642   1.6326682  12.3089415  )
         6           Cr1 tau(   6) = (   1.4139321   4.0816704  12.3089415  )
         7           Cr1 tau(   7) = (  -1.4139321   4.0816704  12.3089415  )
         8           Y1  tau(   8) = (   0.0000000   1.6326682  12.3089415  )
         9           Cr1 tau(   9) = (  -0.0000000   3.2653363  14.6178829  )
        10           Cr1 tau(  10) = (   1.4139321   0.8163341  14.6178829  )
        11           Cr1 tau(  11) = (   4.2417963   0.8163341  14.6178829  )
        12           Y1  tau(  12) = (   2.8278642   3.2653363  14.6178829  )

     number of k points=    20  Fermi-Dirac smearing, width (Ry)=  0.0110
                       cart. coord. in units 2pi/alat
        k(    1) = (   0.0000000   0.0000000   0.0000000), wk =   0.0555556
        k(    2) = (   0.0000000   0.0340275   0.0000000), wk =   0.1111111
        k(    3) = (   0.0000000   0.0680549   0.0000000), wk =   0.1111111
        k(    4) = (   0.0000000  -0.1020824   0.0000000), wk =   0.0555556
        k(    5) = (   0.0294686   0.0170137   0.0000000), wk =   0.1111111
        k(    6) = (   0.0294686   0.0510412   0.0000000), wk =   0.1111111
        k(    7) = (   0.0294686   0.0850687   0.0000000), wk =   0.1111111
        k(    8) = (   0.0294686  -0.0850687   0.0000000), wk =   0.1111111
        k(    9) = (   0.0294686  -0.0510412   0.0000000), wk =   0.1111111
        k(   10) = (   0.0294686  -0.0170137   0.0000000), wk =   0.1111111
        k(   11) = (   0.0589373   0.0340275   0.0000000), wk =   0.1111111
        k(   12) = (   0.0589373   0.0680549   0.0000000), wk =   0.1111111
        k(   13) = (   0.0589373   0.1020824   0.0000000), wk =   0.1111111
        k(   14) = (   0.0589373  -0.0680549   0.0000000), wk =   0.1111111
        k(   15) = (   0.0589373  -0.0340275   0.0000000), wk =   0.1111111
        k(   16) = (   0.0589373   0.0000000   0.0000000), wk =   0.1111111
        k(   17) = (  -0.0884059  -0.0510412   0.0000000), wk =   0.0555556
        k(   18) = (  -0.0884059  -0.0170137   0.0000000), wk =   0.1111111
        k(   19) = (  -0.0884059   0.0170137   0.0000000), wk =   0.1111111
        k(   20) = (  -0.0884059  -0.1531236   0.0000000), wk =   0.0555556

     Largest allocated arrays     est. size (Mb)     dimensions
     Largest temporary arrays     est. size (Mb)     dimensions

     Check: negative/imaginary core charge=   -0.000003    0.000000

     Initial potential from superposition of free atoms
     Check: negative starting charge=   -0.010221

     starting charge  149.98645, renormalised to  159.00000

     negative rho (up, down):  1.084E-02 0.000E+00

     *
     * You are using vdW-DF for exchange-correlation in this calculation.
     * Please cite the following three references that made this development
     * possible:
     *
     *   M. Dion, H. Rydberg, E. Schroder, D. C. Langreth, and
     *   B. I. Lundqvist, Phys. Rev. Lett. 92, 246401 (2004).
     *
     *   T. Thonhauser, V. R. Cooper, S. Li, A. Puzder, P. Hyldgaard, and
     *   D. C. Langreth, Phys. Rev. B 76, 125112 (2007).
     *
     *   G. Roman-Perez and J. M. Soler, Phys. Rev. Lett. 103, 096102 (2009).
     *
     *
     * If you are using vdW-DF2, please also cite:
     *
     *   K. Lee, E. D. Murray, L. Kong, B. I. Lundqvist, and
     *   D. C. Langreth, Phys. Rev. B 82, 081101(R) (2010).
     *
     *
     * If you are calculating the stress with vdW-DF, please also cite:
     *
     *   R. Sabatini, E. Kucukbenli, B. Kolb, T. Thonhauser, and
     *   S. de Gironcoli, J. Phys.: Condens. Matter 24, 424209 (2012).
     *

     Carrying out vdW-DF run using the following parameters:

     Nqs =      20    Nr_points =    1024   r_max =   100.000
     q_mesh =
               0.00001000     0.04494208     0.09755937     0.15916263
               0.23128650     0.31572767     0.41458969     0.53033537
               0.66584808     0.82450364     1.01025438     1.22772762
               1.48234092     1.78043706     2.12944203     2.53805004
               3.01644009     3.57652955     4.23227104     5.00000000

     Gradients computed in reciprocal space

     Adding external electric field

     Computed dipole along edir(3) :
        Dipole                0.0000 Ry au,          0.0000 Debye
        Dipole field          0.0000 Ry au

        Potential amp.       -0.0000 Ry
        Total length         45.3580 bohr

     Starting wfc are  129 randomized atomic wfcs

     Self-consistent Calculation

     iteration #  1     ecut=    36.75 Ry     beta=0.10
     Davidson diagonalization with overlap
     ethr =  1.00E-02,  avg # of iterations =  3.9

[...]

     total energy              =   -1867.15726318 Ry
     Harris-Foulkes estimate   =   -1870.44330607 Ry
     estimated scf accuracy    <      19.69868787 Ry

[...]

     End of self-consistent calculation

          k = 0.0000 0.0000 0.0000 ( 17351 PWs)   bands (ev):

   -70.5493 -70.5232 -70.5231 -70.4104 -70.4093 -70.3850 -70.3850 -70.3847
   -70.3847 -41.9934 -41.9092 -41.9091 -41.8792 -41.8384 -41.8384 -41.8343
   -41.8240 -41.7784 -41.7661 -41.7482 -41.7482 -41.7349 -41.7349 -41.7306
   -41.7306 -41.7196 -41.7196 -41.7113 -41.6931 -41.6931 -41.6102 -41.6061
   -41.6033 -41.6033 -41.6018 -41.6018 -40.7997 -40.7813 -40.1105 -20.9168
   -20.8949 -20.8720 -20.8720 -20.8673 -20.8673 -20.3120 -20.2627 -20.2627
    -4.4617  -3.0645  -2.1598  -1.7951  -1.7951  -1.6943  -1.6943  -1.2182
    -1.1147  -1.1147  -0.9254  -0.9253  -0.8957  -0.8363  -0.6529  -0.1555
    -0.1555  -0.1370   0.4981   0.4981   0.5337   0.6655   0.8155   0.9268
     0.9591   1.1093   1.1094   1.1193   1.1193   1.1829   1.1829   1.3226
     1.3226   1.4276   1.4276   1.4747   1.6993   1.8783   1.8783   1.9558
     1.9558   2.1076   2.1076   2.1873   2.2216   2.4011   2.4011   2.4568
     2.7574   2.8999   2.9278   3.1011   3.4522   3.4522   4.1286   4.1286
     4.3098   4.3569   4.3569   4.6535   4.6540

[...]

          k =-0.0884-0.0510 0.0000 ( 17320 PWs)   bands (ev):

[...]

     the Fermi energy is     1.0925 ev

!    total energy              =   -1866.66452933 Ry
     Harris-Foulkes estimate   =   -1866.66453068 Ry
     estimated scf accuracy    <       0.00000034 Ry

     The total energy is the sum of the following terms:

     one-electron contribution =  -13985.22975050 Ry
     hartree contribution      =    6985.54573229 Ry
     xc contribution           =    -294.14849447 Ry
     ewald contribution        =    5427.34705693 Ry
     electric field correction =       0.00000000 Ry
     smearing contrib. (-TS)   =      -0.17907359 Ry

     convergence has been achieved in  30 iterations

 BEEF-vdW xc energy contributions
           1 :   -255.087572581643
           2 :    229.269321337893
           3 :   -185.793904582152
           4 :    137.120003954404
           5 :   -94.6352819857186
           6 :    64.6087789807987
           7 :   -47.2138632726702
           8 :    38.4855211021557
           9 :   -33.6035085795926
          10 :    29.5239001063381
          11 :   -25.7625665702877
          12 :    23.4016257420171
          13 :   -23.3852719647002
          14 :    25.3519416323367
[...]

     PseudoPot. # 1 for Cr read from file:
     /afs/slac.stanford.edu/u/if/mamunm/psp/gbrv1.5pbe/Cr.UPF
     MD5 check sum: 0d52af634a40206e4dee301ad30da4bf
     Pseudo is Ultrasoft + core correction, Zval = 14.0
     Generated by new atomic code, or converted to UPF format
     Using radial grid of  857 points,  6 beta functions with:
                l(1) =   0
                l(2) =   0
                l(3) =   1
                l(4) =   1
                l(5) =   2
                l(6) =   2
     Q(r) pseudized with  8 coefficients,  rinner =    0.950   0.950   0.950
                                                       0.950   0.950

     PseudoPot. # 2 for Y  read from file:
     /afs/slac.stanford.edu/u/if/mamunm/psp/gbrv1.5pbe/Y.UPF
     MD5 check sum: d034151ed7554c50b6e82763ed42c788
     Pseudo is Ultrasoft + core correction, Zval = 11.0
     Generated by new atomic code, or converted to UPF format
     Using radial grid of  885 points,  6 beta functions with:
                l(1) =   0
                l(2) =   0
                l(3) =   1
                l(4) =   1
                l(5) =   2
                l(6) =   2
     Q(r) pseudized with  8 coefficients,  rinner =    1.200   1.200   1.200
                                                       1.200   1.200

     vdW kernel table read from file vdW_kernel_table
     MD5 check sum: 095c7af220d748ca6e76c0b4c6cfb241

     atomic species   valence    mass     pseudopotential
        Cr1           14.00    51.99610     Cr( 1.00)
        Y1            11.00    88.90584     Y ( 1.00)

     No symmetry found

   Cartesian axes

     site n.     atom                  positions (alat units)
         1           Cr1 tau(   1) = (   0.0000000   0.0000000  10.0000000  )
         2           Cr1 tau(   2) = (  -1.4139321   2.4490022  10.0000000  )
         3           Cr1 tau(   3) = (   1.4139321   2.4490022  10.0000000  )
         4           Y1  tau(   4) = (   2.8278642   0.0000000  10.0000000  )
         5           Cr1 tau(   5) = (   2.8278642   1.6326682  12.3089415  )
         6           Cr1 tau(   6) = (   1.4139321   4.0816704  12.3089415  )
         7           Cr1 tau(   7) = (  -1.4139321   4.0816704  12.3089415  )
         8           Y1  tau(   8) = (   0.0000000   1.6326682  12.3089415  )
         9           Cr1 tau(   9) = (  -0.0002552   3.5575238  14.1375214  )
        10           Cr1 tau(  10) = (   1.6674661   0.6700786  14.1378592  )
        11           Cr1 tau(  11) = (   3.9884422   0.6704740  14.1376848  )
        12           Y1  tau(  12) = (   2.8276964   3.2654169  15.0672245  )

     number of k points=    20  Fermi-Dirac smearing, width (Ry)=  0.0110
                       cart. coord. in units 2pi/alat
        k(    1) = (   0.0000000   0.0000000   0.0000000), wk =   0.0555556
        k(    2) = (   0.0000000   0.0340275   0.0000000), wk =   0.1111111
        k(    3) = (   0.0000000   0.0680549   0.0000000), wk =   0.1111111
        k(    4) = (   0.0000000  -0.1020824   0.0000000), wk =   0.0555556
        k(    5) = (   0.0294686   0.0170137   0.0000000), wk =   0.1111111
        k(    6) = (   0.0294686   0.0510412   0.0000000), wk =   0.1111111
        k(    7) = (   0.0294686   0.0850687   0.0000000), wk =   0.1111111
        k(    8) = (   0.0294686  -0.0850687   0.0000000), wk =   0.1111111
        k(    9) = (   0.0294686  -0.0510412   0.0000000), wk =   0.1111111
        k(   10) = (   0.0294686  -0.0170137   0.0000000), wk =   0.1111111
        k(   11) = (   0.0589373   0.0340275   0.0000000), wk =   0.1111111
        k(   12) = (   0.0589373   0.0680549   0.0000000), wk =   0.1111111
        k(   13) = (   0.0589373   0.1020824   0.0000000), wk =   0.1111111
        k(   14) = (   0.0589373  -0.0680549   0.0000000), wk =   0.1111111
        k(   15) = (   0.0589373  -0.0340275   0.0000000), wk =   0.1111111
        k(   16) = (   0.0589373   0.0000000   0.0000000), wk =   0.1111111
        k(   17) = (  -0.0884059  -0.0510412   0.0000000), wk =   0.0555556
        k(   18) = (  -0.0884059  -0.0170137   0.0000000), wk =   0.1111111
        k(   19) = (  -0.0884059   0.0170137   0.0000000), wk =   0.1111111
        k(   20) = (  -0.0884059  -0.1531236   0.0000000), wk =   0.0555556

     Largest allocated arrays     est. size (Mb)     dimensions
     Largest temporary arrays     est. size (Mb)     dimensions

     Check: negative/imaginary core charge=   -0.000003    0.000000

     Initial potential from superposition of free atoms
     Check: negative starting charge=   -0.009371

     starting charge  149.98645, renormalised to  159.00000

[...]

     *
     * You are using vdW-DF for exchange-correlation in this calculation.
     * Please cite the following three references that made this development
     * possible:
     *
     *   M. Dion, H. Rydberg, E. Schroder, D. C. Langreth, and
     *   B. I. Lundqvist, Phys. Rev. Lett. 92, 246401 (2004).
     *
     *   T. Thonhauser, V. R. Cooper, S. Li, A. Puzder, P. Hyldgaard, and
     *   D. C. Langreth, Phys. Rev. B 76, 125112 (2007).
     *
     *   G. Roman-Perez and J. M. Soler, Phys. Rev. Lett. 103, 096102 (2009).
     *
     *
     * If you are using vdW-DF2, please also cite:
     *
     *   K. Lee, E. D. Murray, L. Kong, B. I. Lundqvist, and
     *   D. C. Langreth, Phys. Rev. B 82, 081101(R) (2010).
     *
     *
     * If you are calculating the stress with vdW-DF, please also cite:
     *
     *   R. Sabatini, E. Kucukbenli, B. Kolb, T. Thonhauser, and
     *   S. de Gironcoli, J. Phys.: Condens. Matter 24, 424209 (2012).
     *

     Carrying out vdW-DF run using the following parameters:

     Nqs =      20    Nr_points =    1024   r_max =   100.000
     q_mesh =
               0.00001000     0.04494208     0.09755937     0.15916263
               0.23128650     0.31572767     0.41458969     0.53033537
               0.66584808     0.82450364     1.01025438     1.22772762
               1.48234092     1.78043706     2.12944203     2.53805004
               3.01644009     3.57652955     4.23227104     5.00000000

     Gradients computed in reciprocal space

[...]

     Starting wfc are  129 randomized atomic wfcs

     Self-consistent Calculation

[...]

     total energy              =   -1866.85152957 Ry
     Harris-Foulkes estimate   =   -1866.85153002 Ry
     estimated scf accuracy    <       0.00000214 Ry

     iteration # 28     ecut=    36.75 Ry     beta=0.10
     Davidson diagonalization with overlap
     ethr =  1.35E-09,  avg # of iterations =  1.2

[...]

     negative rho (up, down):  8.505E-03 0.000E+00

     Adding external electric field

     Computed dipole along edir(3) :
        Dipole                0.3676 Ry au,          0.9344 Debye
        Dipole field          0.0010 Ry au

        Potential amp.       -0.0911 Ry
        Total length         45.3580 bohr

     End of self-consistent calculation

[...]

          k = 0.0589 0.0000 0.0000 ( 17320 PWs)   bands (ev):

[...]

          k =-0.0884-0.1531 0.0000 ( 17320 PWs)   bands (ev):

   -70.1029 -70.0597 -70.0489 -69.9544 -69.9246 -69.9161 -69.9079 -69.8667
   -69.8653 -41.7729 -41.6520 -41.6172 -41.6023 -41.5548 -41.4898 -41.4733
   -41.3983 -41.3549 -41.3135 -41.3047 -41.2772 -41.2584 -41.2553 -41.2388
   -41.2298 -41.2274 -41.2133 -41.2057 -41.1989 -41.1822 -41.1333 -41.0725
   -41.0643 -41.0609 -40.9968 -40.9924 -40.9805 -40.2852 -39.6921 -21.5149
   -21.4307 -21.4245 -20.4323 -20.4314 -20.4078 -19.9892 -19.9352 -19.9106
    -2.6296  -2.4176  -1.4166  -1.3443  -1.0685  -0.8014  -0.7907  -0.6292
    -0.6172  -0.5210  -0.3765  -0.3319  -0.2440   0.0038   0.0726   0.2258
     0.3290   0.3408   0.3914   0.5601   0.5607   0.6293   0.6933   0.8443
     0.9395   0.9923   1.0603   1.2270   1.2652   1.2748   1.3457   1.4380
     1.5573   1.6551   1.6826   1.7457   1.7957   1.9301   2.0424   2.1601
     2.2328   2.3309   2.3312   2.4059   2.4785   2.4995   2.6474   2.9055
     2.9407   3.0575   3.1668   3.1832   3.4408   3.5032   3.8149   3.9222
     4.3307   4.5217   4.7032   4.7609   4.7890

     the Fermi energy is     1.5592 ev

!    total energy              =   -1866.85152421 Ry
     Harris-Foulkes estimate   =   -1866.85153347 Ry
     estimated scf accuracy    <       0.00000095 Ry

     The total energy is the sum of the following terms:

     one-electron contribution =  -14546.25106208 Ry
     hartree contribution      =    7268.08949364 Ry
     xc contribution           =    -294.55909970 Ry
     ewald contribution        =    5706.00934645 Ry
     electric field correction =       0.00036901 Ry
     smearing contrib. (-TS)   =      -0.14057152 Ry

     convergence has been achieved in  28 iterations

 BEEF-vdW xc energy contributions
           1 :   -255.671409658605
           2 :    230.051224055135
           3 :   -186.787996417278
           4 :    138.089033027451
           5 :   -95.2022515855351
           6 :    64.5040806870810
           7 :   -46.4892861581444
           8 :    37.5156578373734
           9 :   -32.8569756252236
          10 :    29.2712884444269
          11 :   -25.9226800240643
          12 :    23.6120649281264
          13 :   -23.2384786670752
          14 :    24.6509167376938
          15 :   -26.5486500582038
          16 :    27.2785909444506
          17 :   -25.8460885320117
          18 :    22.4468014229793
          19 :   -18.2489720872863
          20 :    14.6570352688818
          21 :   -12.5665436260975
          22 :    12.0371149040436
          23 :   -12.4889100501870
          24 :    13.1950812910457
          25 :   -13.7113727754787
          26 :    13.9936239724446
          27 :   -14.2085985809191
          28 :    14.4496323297922
          29 :   -14.5955886643611
          30 :    14.4001447417340
          31 :   -24.9551799233408
          32 :   -17.6633349289957

     Forces acting on atoms (Ry/au):

     negative rho (up, down):  8.505E-03 0.000E+00
     atom    1 type  1   force =    -0.00000300   -0.03331316    0.03175705
     atom    2 type  1   force =    -0.02884415    0.01665222    0.03177075
     atom    3 type  1   force =     0.02884766    0.01665808    0.03176391
     atom    4 type  2   force =     0.00001071    0.00000138   -0.06997859
     atom    5 type  1   force =     0.00001867    0.02766687    0.00300251
     atom    6 type  1   force =     0.02393516   -0.01383237    0.00302158
     atom    7 type  1   force =    -0.02393863   -0.01385656    0.00300730
     atom    8 type  2   force =     0.00001046    0.00000761   -0.03319315
     atom    9 type  1   force =    -0.00003774    0.00137220    0.00002290
     atom   10 type  1   force =     0.00127395   -0.00072117    0.00007677
     atom   11 type  1   force =    -0.00125448   -0.00066579    0.00002267
     atom   12 type  2   force =    -0.00001861    0.00003068   -0.00127370

     Total force =     0.121177     Total SCF correction =     0.003568

     entering subroutine stress ...

     negative rho (up, down):  8.505E-03 0.000E+00
          total   stress  (Ry/bohr**3)                   (kbar)     P=   -4.69
  -0.00003131   0.00000004  -0.00000002         -4.61      0.01     -0.00
   0.00000004  -0.00003116   0.00000004          0.01     -4.58      0.01
  -0.00000002   0.00000004  -0.00003307         -0.00      0.01     -4.87

 !ASE

     Writing output data file calc.save

     General routines

     Parallel routines

   This run was terminated on:  20:28: 2  25Dec2018

   JOB DONE.
Job  /afs/slac/g/suncat/bin/suncat-tsmpirun -x LD_LIBRARY_PATH -wdir /scratch/qe109546_yFYh2 pw.x -in pw.inp

TID   HOST_NAME   COMMAND_LINE            STATUS            TERMINATION_TIME
00000 suncat0152 pw.x -in pw.inp   Done                     12/25/2018 20:28:02
00001 suncat0152 pw.x -in pw.inp   Done                     12/25/2018 20:28:02
00002 suncat0152 pw.x -in pw.inp   Done                     12/25/2018 20:28:02
00003 suncat0152 pw.x -in pw.inp   Done                     12/25/2018 20:28:02
00004 suncat0152 pw.x -in pw.inp   Done                     12/25/2018 20:28:02
00005 suncat0152 pw.x -in pw.inp   Done                     12/25/2018 20:28:02
00006 suncat0152 pw.x -in pw.inp   Done                     12/25/2018 20:28:02
00007 suncat0152 pw.x -in pw.inp   Done                     12/25/2018 20:28:02
00008 suncat0150 pw.x -in pw.inp   Done                     12/25/2018 20:28:02
00009 suncat0150 pw.x -in pw.inp   Done                     12/25/2018 20:28:02
00010 suncat0150 pw.x -in pw.inp   Done                     12/25/2018 20:28:02
00011 suncat0150 pw.x -in pw.inp   Done                     12/25/2018 20:28:02
00012 suncat0150 pw.x -in pw.inp   Done                     12/25/2018 20:28:02
00013 suncat0150 pw.x -in pw.inp   Done                     12/25/2018 20:28:02
00014 suncat0150 pw.x -in pw.inp   Done                     12/25/2018 20:28:02
00015 suncat0150 pw.x -in pw.inp   Done                     12/25/2018 20:28:02
00016 suncat0248 pw.x -in pw.inp   Done                     12/25/2018 20:28:02
00017 suncat0248 pw.x -in pw.inp   Done                     12/25/2018 20:28:02
00018 suncat0248 pw.x -in pw.inp   Done                     12/25/2018 20:28:02
00019 suncat0248 pw.x -in pw.inp   Done                     12/25/2018 20:28:02
00020 suncat0248 pw.x -in pw.inp   Done                     12/25/2018 20:28:02
00021 suncat0248 pw.x -in pw.inp   Done                     12/25/2018 20:28:02
00022 suncat0248 pw.x -in pw.inp   Done                     12/25/2018 20:28:02
00023 suncat0248 pw.x -in pw.inp   Done                     12/25/2018 20:28:02
00024 suncat0247 pw.x -in pw.inp   Done                     12/25/2018 20:28:02
00025 suncat0247 pw.x -in pw.inp   Done                     12/25/2018 20:28:02
00026 suncat0247 pw.x -in pw.inp   Done                     12/25/2018 20:28:02
00027 suncat0247 pw.x -in pw.inp   Done                     12/25/2018 20:28:02
00028 suncat0247 pw.x -in pw.inp   Done                     12/25/2018 20:28:02
00029 suncat0247 pw.x -in pw.inp   Done                     12/25/2018 20:28:02
00030 suncat0247 pw.x -in pw.inp   Done                     12/25/2018 20:28:02
00031 suncat0247 pw.x -in pw.inp   Done                     12/25/2018 20:28:02
00032 suncat0246 pw.x -in pw.inp   Done                     12/25/2018 20:28:02
00033 suncat0246 pw.x -in pw.inp   Done                     12/25/2018 20:28:02
00034 suncat0246 pw.x -in pw.inp   Done                     12/25/2018 20:28:02
00035 suncat0246 pw.x -in pw.inp   Done                     12/25/2018 20:28:02
00036 suncat0246 pw.x -in pw.inp   Done                     12/25/2018 20:28:02
00037 suncat0246 pw.x -in pw.inp   Done                     12/25/2018 20:28:02
00038 suncat0246 pw.x -in pw.inp   Done                     12/25/2018 20:28:02
00039 suncat0246 pw.x -in pw.inp   Done                     12/25/2018 20:28:02
00040 suncat0245 pw.x -in pw.inp   Done                     12/25/2018 20:28:02
00041 suncat0245 pw.x -in pw.inp   Done                     12/25/2018 20:28:02
00042 suncat0245 pw.x -in pw.inp   Done                     12/25/2018 20:28:02
00043 suncat0245 pw.x -in pw.inp   Done                     12/25/2018 20:28:02
00044 suncat0245 pw.x -in pw.inp   Done                     12/25/2018 20:28:02
00045 suncat0245 pw.x -in pw.inp   Done                     12/25/2018 20:28:02
00046 suncat0245 pw.x -in pw.inp   Done                     12/25/2018 20:28:02
00047 suncat0245 pw.x -in pw.inp   Done                     12/25/2018 20:28:02
00048 suncat0214 pw.x -in pw.inp   Done                     12/25/2018 20:28:02
00049 suncat0214 pw.x -in pw.inp   Done                     12/25/2018 20:28:02
00050 suncat0214 pw.x -in pw.inp   Done                     12/25/2018 20:28:02
00051 suncat0214 pw.x -in pw.inp   Done                     12/25/2018 20:28:02
00052 suncat0214 pw.x -in pw.inp   Done                     12/25/2018 20:28:02
00053 suncat0214 pw.x -in pw.inp   Done                     12/25/2018 20:28:02
00054 suncat0214 pw.x -in pw.inp   Done                     12/25/2018 20:28:02
00055 suncat0214 pw.x -in pw.inp   Done                     12/25/2018 20:28:02
00056 suncat0213 pw.x -in pw.inp   Done                     12/25/2018 20:28:02
00057 suncat0213 pw.x -in pw.inp   Done                     12/25/2018 20:28:02
00058 suncat0213 pw.x -in pw.inp   Done                     12/25/2018 20:28:02
00059 suncat0213 pw.x -in pw.inp   Done                     12/25/2018 20:28:02
00060 suncat0213 pw.x -in pw.inp   Done                     12/25/2018 20:28:02
00061 suncat0213 pw.x -in pw.inp   Done                     12/25/2018 20:28:02
00062 suncat0213 pw.x -in pw.inp   Done                     12/25/2018 20:28:02
00063 suncat0213 pw.x -in pw.inp   Done                     12/25/2018 20:28:02