     Program PWSCF v.5.1rc2 (svn rev. 11289) starts on 26Dec2018 at 18:26:14

     Current dimensions of program PWSCF are:
     Max number of different atomic species (ntypx) = 10
     Max number of k-points (npk) =  40000
     Max angular momentum in pseudopotentials (lmaxx) =  3
     Presently stress not available with electric field

     IMPORTANT: XC functional enforced from input :
     Exchange-correlation      = BEEF-VDW ( 1  4 27 13 2)
     Any further DFT definition will be discarded
     Please, verify this is what you really want

     Subspace diagonalization in iterative solution of the eigenvalue problem:
     a serial algorithm will be used

     bravais-lattice index     =            0
     lattice parameter (alat)  =       1.8897  a.u.
     unit-cell volume          =    7105.4199 (a.u.)^3
     number of atoms/cell      =           12
     number of atomic types    =            2
     number of electrons       =       141.00
     number of Kohn-Sham states=          100
     kinetic-energy cutoff     =      36.7493  Ry
     charge density cutoff     =     367.4932  Ry
     convergence threshold     =      1.0E-06
     mixing beta               =       0.1000
     number of iterations used =           10  plain     mixing
     Exchange-correlation      = BEEF-VDW ( 1  4 27 13 2)
     nstep                     =           50

     celldm(1)=   1.889726  celldm(2)=   0.000000  celldm(3)=   0.000000
     celldm(4)=   0.000000  celldm(5)=   0.000000  celldm(6)=   0.000000

     crystal axes: (cart. coord. in units of alat)
               a(1) = (   6.888206   0.000000   0.000000 )
               a(2) = (  -3.444103   5.965361   0.000000 )
               a(3) = (   0.000000   0.000000  25.624197 )

     reciprocal axes: (cart. coord. in units 2 pi/alat)
               b(1) = (  0.145176  0.083817  0.000000 )
               b(2) = (  0.000000  0.167634  0.000000 )
               b(3) = (  0.000000  0.000000  0.039026 )

     PseudoPot. # 1 for La read from file:
     /afs/slac.stanford.edu/u/if/mamunm/psp/gbrv1.5pbe/La.UPF
     MD5 check sum: 5937b0c7494ba0601a847275249473aa
     Pseudo is Ultrasoft + core correction, Zval = 11.0
     Generated by new atomic code, or converted to UPF format
     Using radial grid of  995 points,  8 beta functions with:
                l(1) =   0
                l(2) =   0
                l(3) =   1
                l(4) =   1
                l(5) =   2
                l(6) =   2
                l(7) =   3
                l(8) =   3
     Q(r) pseudized with  8 coefficients,  rinner =    1.700   1.700   1.700
                                                       1.700   1.700   1.700
                                                       1.700

     PseudoPot. # 2 for W  read from file:
     /afs/slac.stanford.edu/u/if/mamunm/psp/gbrv1.5pbe/W.UPF
     MD5 check sum: 9c083fa34c2a2ea0f02f1f893e16e1c8
     Pseudo is Ultrasoft + core correction, Zval = 14.0
     Generated by new atomic code, or converted to UPF format
     Using radial grid of  923 points,  8 beta functions with:
                l(1) =   0
                l(2) =   0
                l(3) =   0
                l(4) =   1
                l(5) =   1
                l(6) =   2
                l(7) =   2
                l(8) =   3
     Q(r) pseudized with  6 coefficients,  rinner =    1.350   1.350   1.350
                                                       1.350   1.350   1.350
                                                       1.350

     vdW kernel table read from file vdW_kernel_table
     MD5 check sum: 095c7af220d748ca6e76c0b4c6cfb241

     atomic species   valence    mass     pseudopotential
        La1           11.00   138.90547     La( 1.00)
        W1            14.00   183.84000     W ( 1.00)

     No symmetry found

   Cartesian axes

     site n.     atom                  positions (alat units)
         1           La1 tau(   1) = (   0.0000000   0.0000000  10.0000000  )
         2           La1 tau(   2) = (  -1.7220515   2.9826807  10.0000000  )
         3           La1 tau(   3) = (   1.7220515   2.9826807  10.0000000  )
         4           W1  tau(   4) = (   3.4441030   0.0000000  10.0000000  )
         5           La1 tau(   5) = (   3.4441030   1.9884538  12.8120983  )
         6           La1 tau(   6) = (   1.7220515   4.9711345  12.8120983  )
         7           La1 tau(   7) = (  -1.7220515   4.9711345  12.8120983  )
         8           W1  tau(   8) = (   0.0000000   1.9884538  12.8120983  )
         9           La1 tau(   9) = (  -0.0000000   3.9769076  15.6241967  )
        10           La1 tau(  10) = (   1.7220515   0.9942269  15.6241967  )
        11           La1 tau(  11) = (   5.1661545   0.9942269  15.6241967  )
        12           W1  tau(  12) = (   3.4441030   3.9769076  15.6241967  )

     number of k points=    20  Fermi-Dirac smearing, width (Ry)=  0.0110
                       cart. coord. in units 2pi/alat
        k(    1) = (   0.0000000   0.0000000   0.0000000), wk =   0.0555556
        k(    2) = (   0.0000000   0.0279391   0.0000000), wk =   0.1111111
        k(    3) = (   0.0000000   0.0558781   0.0000000), wk =   0.1111111
        k(    4) = (   0.0000000  -0.0838172   0.0000000), wk =   0.0555556
        k(    5) = (   0.0241959   0.0139695   0.0000000), wk =   0.1111111
        k(    6) = (   0.0241959   0.0419086   0.0000000), wk =   0.1111111
        k(    7) = (   0.0241959   0.0698477   0.0000000), wk =   0.1111111
        k(    8) = (   0.0241959  -0.0698477   0.0000000), wk =   0.1111111
        k(    9) = (   0.0241959  -0.0419086   0.0000000), wk =   0.1111111
        k(   10) = (   0.0241959  -0.0139695   0.0000000), wk =   0.1111111
        k(   11) = (   0.0483919   0.0279391   0.0000000), wk =   0.1111111
        k(   12) = (   0.0483919   0.0558781   0.0000000), wk =   0.1111111
        k(   13) = (   0.0483919   0.0838172   0.0000000), wk =   0.1111111
        k(   14) = (   0.0483919  -0.0558781   0.0000000), wk =   0.1111111
        k(   15) = (   0.0483919  -0.0279391   0.0000000), wk =   0.1111111
        k(   16) = (   0.0483919   0.0000000   0.0000000), wk =   0.1111111
        k(   17) = (  -0.0725878  -0.0419086   0.0000000), wk =   0.0555556
        k(   18) = (  -0.0725878  -0.0139695   0.0000000), wk =   0.1111111
        k(   19) = (  -0.0725878   0.0139695   0.0000000), wk =   0.1111111
        k(   20) = (  -0.0725878  -0.1257258   0.0000000), wk =   0.0555556

     Largest allocated arrays     est. size (Mb)     dimensions
     Largest temporary arrays     est. size (Mb)     dimensions

     Initial potential from superposition of free atoms
     Check: negative starting charge=   -0.810110

     starting charge  140.41036, renormalised to  141.00000

     negative rho (up, down):  8.135E-01 0.000E+00

     *
     * You are using vdW-DF for exchange-correlation in this calculation.
     * Please cite the following three references that made this development
     * possible:
     *
     *   M. Dion, H. Rydberg, E. Schroder, D. C. Langreth, and
     *   B. I. Lundqvist, Phys. Rev. Lett. 92, 246401 (2004).
     *
     *   T. Thonhauser, V. R. Cooper, S. Li, A. Puzder, P. Hyldgaard, and
     *   D. C. Langreth, Phys. Rev. B 76, 125112 (2007).
     *
     *   G. Roman-Perez and J. M. Soler, Phys. Rev. Lett. 103, 096102 (2009).
     *
     *
     * If you are using vdW-DF2, please also cite:
     *
     *   K. Lee, E. D. Murray, L. Kong, B. I. Lundqvist, and
     *   D. C. Langreth, Phys. Rev. B 82, 081101(R) (2010).
     *
     *
     * If you are calculating the stress with vdW-DF, please also cite:
     *
     *   R. Sabatini, E. Kucukbenli, B. Kolb, T. Thonhauser, and
     *   S. de Gironcoli, J. Phys.: Condens. Matter 24, 424209 (2012).
     *

     Carrying out vdW-DF run using the following parameters:

     Nqs =      20    Nr_points =    1024   r_max =   100.000
     q_mesh =
               0.00001000     0.04494208     0.09755937     0.15916263
               0.23128650     0.31572767     0.41458969     0.53033537
               0.66584808     0.82450364     1.01025438     1.22772762
               1.48234092     1.78043706     2.12944203     2.53805004
               3.01644009     3.57652955     4.23227104     5.00000000

     Gradients computed in reciprocal space

     Adding external electric field

     Computed dipole along edir(3) :
        Dipole               -0.0000 Ry au,         -0.0000 Debye
        Dipole field         -0.0000 Ry au

        Potential amp.        0.0000 Ry
        Total length         47.2121 bohr

     Starting wfc are  219 randomized atomic wfcs

     Self-consistent Calculation

     iteration #  1     ecut=    36.75 Ry     beta=0.10
     Davidson diagonalization with overlap
     ethr =  1.00E-02,  avg # of iterations =  2.0

[...]

     total energy              =   -1415.59673166 Ry
     Harris-Foulkes estimate   =   -1417.91974232 Ry
     estimated scf accuracy    <      12.82744671 Ry

[...]

     iteration #  8     ecut=    36.75 Ry     beta=0.10
     Davidson diagonalization with overlap
     c_bands:  1 eigenvalues not converged
     ethr =  3.14E-05,  avg # of iterations = 10.6

[...]

     End of self-consistent calculation

          k = 0.0000 0.0000 0.0000 ( 26745 PWs)   bands (ev):

   -71.8657 -71.8156 -71.8155 -35.9145 -35.9145 -35.9110 -35.9109 -35.8932
   -35.8561 -35.8561 -35.8559 -35.8559 -30.8835 -30.8565 -30.6244 -30.6244
   -30.6180 -30.6180 -30.4011 -30.1794 -30.1794 -15.6437 -15.4902 -15.1652
   -14.9472 -14.9472 -14.7939 -14.7714 -14.7714 -14.7610 -14.7610 -14.5706
   -14.2998 -14.2998 -14.0132 -14.0132 -13.8827 -13.7948 -13.6783 -13.6709
   -13.6709 -13.6352 -13.6352 -13.5590 -13.5590 -13.3283 -13.2177 -13.2177
    -1.7761  -1.2549  -1.0322  -0.2277   0.1671   0.1671   0.4306   0.4513
     0.5587   0.5752   0.5752   0.6965   0.6965   0.7313   0.7313   1.3275
     1.5873   1.5873   1.9847   2.1464   2.1464   2.2326   2.4159   2.7617
     2.8250   3.1495   3.1495   3.3449   3.3449   3.3928   3.3928   3.4772
     3.4772   3.6250   3.6250   3.6299   3.6431   3.7575   3.8087   3.8088
     3.8170   3.8180   3.8887   3.8887   3.9152   3.9708   3.9709   4.0076
     4.0758   4.0775   4.1203   4.1230

[...]

          k =-0.0726-0.0419 0.0000 ( 26666 PWs)   bands (ev):

[...]

     the Fermi energy is     2.2287 ev

!    total energy              =   -1416.90635811 Ry
     Harris-Foulkes estimate   =   -1416.90636485 Ry
     estimated scf accuracy    <       0.00000022 Ry

     The total energy is the sum of the following terms:

     one-electron contribution =   -6540.32203641 Ry
     hartree contribution      =    3276.99847884 Ry
     xc contribution           =    -584.52895598 Ry
     ewald contribution        =    2431.06433462 Ry
     electric field correction =       0.00000001 Ry
     smearing contrib. (-TS)   =      -0.11817919 Ry

     convergence has been achieved in  23 iterations

 BEEF-vdW xc energy contributions
           1 :   -517.318676130652
           2 :    476.678346962323
           3 :   -404.598709188279
           4 :    316.255774704134
           5 :   -228.000779296136
           6 :    152.934400352488
[...]
                l(1) =   0
                l(2) =   0
                l(3) =   1
                l(4) =   1
                l(5) =   2
                l(6) =   2
                l(7) =   3
                l(8) =   3
     Q(r) pseudized with  8 coefficients,  rinner =    1.700   1.700   1.700
                                                       1.700   1.700   1.700
                                                       1.700

     PseudoPot. # 2 for W  read from file:
     /afs/slac.stanford.edu/u/if/mamunm/psp/gbrv1.5pbe/W.UPF
     MD5 check sum: 9c083fa34c2a2ea0f02f1f893e16e1c8
     Pseudo is Ultrasoft + core correction, Zval = 14.0
     Generated by new atomic code, or converted to UPF format
     Using radial grid of  923 points,  8 beta functions with:
                l(1) =   0
                l(2) =   0
                l(3) =   0
                l(4) =   1
                l(5) =   1
                l(6) =   2
                l(7) =   2
                l(8) =   3
     Q(r) pseudized with  6 coefficients,  rinner =    1.350   1.350   1.350
                                                       1.350   1.350   1.350
                                                       1.350

     vdW kernel table read from file vdW_kernel_table
     MD5 check sum: 095c7af220d748ca6e76c0b4c6cfb241

     atomic species   valence    mass     pseudopotential
        La1           11.00   138.90547     La( 1.00)
        W1            14.00   183.84000     W ( 1.00)

     No symmetry found

   Cartesian axes

     site n.     atom                  positions (alat units)
         1           La1 tau(   1) = (   0.0000000   0.0000000  10.0000000  )
         2           La1 tau(   2) = (  -1.7220515   2.9826807  10.0000000  )
         3           La1 tau(   3) = (   1.7220515   2.9826807  10.0000000  )
         4           W1  tau(   4) = (   3.4441030   0.0000000  10.0000000  )
         5           La1 tau(   5) = (   3.4441030   1.9884538  12.8120983  )
         6           La1 tau(   6) = (   1.7220515   4.9711345  12.8120983  )
         7           La1 tau(   7) = (  -1.7220515   4.9711345  12.8120983  )
         8           W1  tau(   8) = (   0.0000000   1.9884538  12.8120983  )
         9           La1 tau(   9) = (  -0.0000068   3.8755147  15.6270572  )
        10           La1 tau(  10) = (   1.6342666   1.0448721  15.6271026  )
        11           La1 tau(  11) = (   5.2539569   1.0448706  15.6270669  )
        12           W1  tau(  12) = (   3.4440849   3.9770097  15.2006689  )

     number of k points=    20  Fermi-Dirac smearing, width (Ry)=  0.0110
                       cart. coord. in units 2pi/alat
        k(    1) = (   0.0000000   0.0000000   0.0000000), wk =   0.0555556
        k(    2) = (   0.0000000   0.0279391   0.0000000), wk =   0.1111111
        k(    3) = (   0.0000000   0.0558781   0.0000000), wk =   0.1111111
        k(    4) = (   0.0000000  -0.0838172   0.0000000), wk =   0.0555556
        k(    5) = (   0.0241959   0.0139695   0.0000000), wk =   0.1111111
        k(    6) = (   0.0241959   0.0419086   0.0000000), wk =   0.1111111
        k(    7) = (   0.0241959   0.0698477   0.0000000), wk =   0.1111111
        k(    8) = (   0.0241959  -0.0698477   0.0000000), wk =   0.1111111
        k(    9) = (   0.0241959  -0.0419086   0.0000000), wk =   0.1111111
        k(   10) = (   0.0241959  -0.0139695   0.0000000), wk =   0.1111111
        k(   11) = (   0.0483919   0.0279391   0.0000000), wk =   0.1111111
        k(   12) = (   0.0483919   0.0558781   0.0000000), wk =   0.1111111
        k(   13) = (   0.0483919   0.0838172   0.0000000), wk =   0.1111111
        k(   14) = (   0.0483919  -0.0558781   0.0000000), wk =   0.1111111
        k(   15) = (   0.0483919  -0.0279391   0.0000000), wk =   0.1111111
        k(   16) = (   0.0483919   0.0000000   0.0000000), wk =   0.1111111
        k(   17) = (  -0.0725878  -0.0419086   0.0000000), wk =   0.0555556
        k(   18) = (  -0.0725878  -0.0139695   0.0000000), wk =   0.1111111
        k(   19) = (  -0.0725878   0.0139695   0.0000000), wk =   0.1111111
        k(   20) = (  -0.0725878  -0.1257258   0.0000000), wk =   0.0555556

     Largest allocated arrays     est. size (Mb)     dimensions
     Largest temporary arrays     est. size (Mb)     dimensions

     Initial potential from superposition of free atoms
     Check: negative starting charge=   -0.807909

     starting charge  140.41036, renormalised to  141.00000

[...]

     *
     * You are using vdW-DF for exchange-correlation in this calculation.
     * Please cite the following three references that made this development
     * possible:
     *
     *   M. Dion, H. Rydberg, E. Schroder, D. C. Langreth, and
     *   B. I. Lundqvist, Phys. Rev. Lett. 92, 246401 (2004).
     *
     *   T. Thonhauser, V. R. Cooper, S. Li, A. Puzder, P. Hyldgaard, and
     *   D. C. Langreth, Phys. Rev. B 76, 125112 (2007).
     *
     *   G. Roman-Perez and J. M. Soler, Phys. Rev. Lett. 103, 096102 (2009).
     *
     *
     * If you are using vdW-DF2, please also cite:
     *
     *   K. Lee, E. D. Murray, L. Kong, B. I. Lundqvist, and
     *   D. C. Langreth, Phys. Rev. B 82, 081101(R) (2010).
     *
     *
     * If you are calculating the stress with vdW-DF, please also cite:
     *
     *   R. Sabatini, E. Kucukbenli, B. Kolb, T. Thonhauser, and
     *   S. de Gironcoli, J. Phys.: Condens. Matter 24, 424209 (2012).
     *

     Carrying out vdW-DF run using the following parameters:

     Nqs =      20    Nr_points =    1024   r_max =   100.000
     q_mesh =
               0.00001000     0.04494208     0.09755937     0.15916263
               0.23128650     0.31572767     0.41458969     0.53033537
               0.66584808     0.82450364     1.01025438     1.22772762
               1.48234092     1.78043706     2.12944203     2.53805004
               3.01644009     3.57652955     4.23227104     5.00000000

     Gradients computed in reciprocal space

[...]

     Starting wfc are  219 randomized atomic wfcs

     Self-consistent Calculation

[...]

     iteration #  9     ecut=    36.75 Ry     beta=0.10
     Davidson diagonalization with overlap
     c_bands:  1 eigenvalues not converged
     c_bands:  2 eigenvalues not converged
     ethr =  2.51E-05,  avg # of iterations =  9.4

[...]

     total energy              =   -1416.93701806 Ry
     Harris-Foulkes estimate   =   -1416.93702023 Ry
     estimated scf accuracy    <       0.00000154 Ry

     iteration # 21     ecut=    36.75 Ry     beta=0.10
     Davidson diagonalization with overlap
     ethr =  1.09E-09,  avg # of iterations =  4.0

[...]

     negative rho (up, down):  5.745E-01 0.000E+00

     Adding external electric field

     Computed dipole along edir(3) :
        Dipole                0.1030 Ry au,          0.2617 Debye
        Dipole field          0.0002 Ry au

        Potential amp.       -0.0172 Ry
        Total length         47.2121 bohr

     End of self-consistent calculation

[...]

          k = 0.0484 0.0000 0.0000 ( 26783 PWs)   bands (ev):

[...]

          k =-0.0726-0.1257 0.0000 ( 26666 PWs)   bands (ev):

   -71.7925 -71.7524 -71.6284 -35.8498 -35.8420 -35.8419 -35.8297 -35.7927
   -35.7927 -35.7137 -35.7137 -35.7091 -30.7887 -30.7208 -30.6475 -30.6353
   -30.5747 -30.5556 -30.1424 -30.0714 -29.9913 -15.2280 -15.1029 -14.9304
   -14.7318 -14.6723 -14.5657 -14.5582 -14.4793 -14.4241 -14.4066 -14.4006
   -14.3232 -14.3025 -14.2911 -14.2058 -14.1744 -14.1108 -13.8762 -13.7098
   -13.6897 -13.6281 -13.6065 -13.5223 -13.4957 -13.4605 -13.4025 -13.0950
    -0.5857  -0.5162  -0.0642   0.6915   0.8886   0.9553   0.9955   1.0487
     1.1623   1.1889   1.2434   1.4409   1.4607   1.5845   1.6195   1.6643
     1.7218   1.8795   1.9167   2.0057   2.0511   2.0930   2.2382   2.2809
     2.3253   2.5106   2.5594   2.7148   2.8410   2.8877   2.9528   3.0713
     3.1696   3.1723   3.2556   3.2940   3.3869   3.4840   3.6279   3.6515
     3.7114   3.7650   3.8391   3.8655   3.9674   3.9999   4.0035   4.0245
     4.0662   4.0795   4.1073   4.1086

     the Fermi energy is     2.2934 ev

!    total energy              =   -1416.93700778 Ry
     Harris-Foulkes estimate   =   -1416.93701895 Ry
     estimated scf accuracy    <       0.00000074 Ry

     The total energy is the sum of the following terms:

     one-electron contribution =   -6656.81552649 Ry
     hartree contribution      =    3335.71349093 Ry
     xc contribution           =    -584.68931141 Ry
     ewald contribution        =    2488.96899737 Ry
     electric field correction =       0.00001875 Ry
     smearing contrib. (-TS)   =      -0.11467693 Ry

     convergence has been achieved in  21 iterations

 BEEF-vdW xc energy contributions
           1 :   -517.481042706333
           2 :    476.895368718014
           3 :   -404.885110119295
           4 :    316.569573315235
           5 :   -228.257492758176
           6 :    153.047424959851
           7 :   -98.1773611560627
           8 :    64.5555572305843
           9 :   -48.1384657531496
          10 :    42.3515729113743
          11 :   -40.6018962905208
          12 :    38.0688589421649
          13 :   -32.3932607863003
          14 :    23.3977380539631
          15 :   -12.3071926709595
          16 :   0.931876389868307
          17 :    8.93898097271619
          18 :   -15.9118570399775
          19 :    19.2062626691486
          20 :   -18.7803303378163
          21 :    15.3633198903611
          22 :   -10.3389645646531
          23 :    5.42180524428863
          24 :   -2.15850031229684
          25 :    1.41349834439040
          26 :   -3.07080446250040
          27 :    6.11411298644668
          28 :   -9.07507333239744
          29 :    10.6593387272354
          30 :   -10.2761090511216
          31 :   -44.4820869888746
          32 :   -32.2501202569197

     Forces acting on atoms (Ry/au):

     negative rho (up, down):  5.745E-01 0.000E+00
     atom    1 type  1   force =     0.00000017    0.02387786   -0.00969253
     atom    2 type  1   force =     0.02067747   -0.01193756   -0.00969329
     atom    3 type  1   force =    -0.02067910   -0.01194164   -0.00969186
     atom    4 type  2   force =     0.00000162    0.00000284    0.04675914
     atom    5 type  1   force =    -0.00000256   -0.01268871   -0.00649117
     atom    6 type  1   force =    -0.01099424    0.00634349   -0.00650093
     atom    7 type  1   force =     0.01099187    0.00634541   -0.00649781
     atom    8 type  2   force =     0.00000679   -0.00000171    0.00254661
     atom    9 type  1   force =     0.00000062    0.00018595   -0.00008223
     atom   10 type  1   force =     0.00015941   -0.00009248   -0.00008187
     atom   11 type  1   force =    -0.00016297   -0.00009427   -0.00008288
     atom   12 type  2   force =     0.00000093    0.00000083   -0.00049118

     Total force =     0.069249     Total SCF correction =     0.003047

     entering subroutine stress ...

     negative rho (up, down):  5.745E-01 0.000E+00
          total   stress  (Ry/bohr**3)                   (kbar)     P=   -6.12
  -0.00004834  -0.00000000   0.00000000         -7.11     -0.00      0.00
  -0.00000000  -0.00004835  -0.00000000         -0.00     -7.11     -0.00
   0.00000000  -0.00000000  -0.00002818          0.00     -0.00     -4.15

 !ASE

     Writing output data file calc.save

     General routines

     Parallel routines

   This run was terminated on:  22:10: 7  26Dec2018

   JOB DONE.
Job  /afs/slac/g/suncat/bin/suncat-tsmpirun -x LD_LIBRARY_PATH -wdir /scratch/qe110039_v9Xhd pw.x -in pw.inp

TID   HOST_NAME   COMMAND_LINE            STATUS            TERMINATION_TIME
00000 suncat0048 pw.x -in pw.inp   Done                     12/26/2018 22:10:07
00001 suncat0048 pw.x -in pw.inp   Done                     12/26/2018 22:10:07
00002 suncat0048 pw.x -in pw.inp   Done                     12/26/2018 22:10:07
00003 suncat0048 pw.x -in pw.inp   Done                     12/26/2018 22:10:07
00004 suncat0048 pw.x -in pw.inp   Done                     12/26/2018 22:10:07
00005 suncat0048 pw.x -in pw.inp   Done                     12/26/2018 22:10:07
00006 suncat0048 pw.x -in pw.inp   Done                     12/26/2018 22:10:07
00007 suncat0048 pw.x -in pw.inp   Done                     12/26/2018 22:10:07
00008 suncat0047 pw.x -in pw.inp   Done                     12/26/2018 22:10:07
00009 suncat0047 pw.x -in pw.inp   Done                     12/26/2018 22:10:07
00010 suncat0047 pw.x -in pw.inp   Done                     12/26/2018 22:10:07
00011 suncat0047 pw.x -in pw.inp   Done                     12/26/2018 22:10:07
00012 suncat0047 pw.x -in pw.inp   Done                     12/26/2018 22:10:07
00013 suncat0047 pw.x -in pw.inp   Done                     12/26/2018 22:10:07
00014 suncat0047 pw.x -in pw.inp   Done                     12/26/2018 22:10:07
00015 suncat0047 pw.x -in pw.inp   Done                     12/26/2018 22:10:07
00016 suncat0193 pw.x -in pw.inp   Done                     12/26/2018 22:10:07
00017 suncat0193 pw.x -in pw.inp   Done                     12/26/2018 22:10:07
00018 suncat0193 pw.x -in pw.inp   Done                     12/26/2018 22:10:07
00019 suncat0193 pw.x -in pw.inp   Done                     12/26/2018 22:10:07
00020 suncat0193 pw.x -in pw.inp   Done                     12/26/2018 22:10:07
00021 suncat0193 pw.x -in pw.inp   Done                     12/26/2018 22:10:07
00022 suncat0193 pw.x -in pw.inp   Done                     12/26/2018 22:10:07
00023 suncat0193 pw.x -in pw.inp   Done                     12/26/2018 22:10:07
00024 suncat0192 pw.x -in pw.inp   Done                     12/26/2018 22:10:07
00025 suncat0192 pw.x -in pw.inp   Done                     12/26/2018 22:10:07
00026 suncat0192 pw.x -in pw.inp   Done                     12/26/2018 22:10:07
00027 suncat0192 pw.x -in pw.inp   Done                     12/26/2018 22:10:07
00028 suncat0192 pw.x -in pw.inp   Done                     12/26/2018 22:10:07
00029 suncat0192 pw.x -in pw.inp   Done                     12/26/2018 22:10:07
00030 suncat0192 pw.x -in pw.inp   Done                     12/26/2018 22:10:07
00031 suncat0192 pw.x -in pw.inp   Done                     12/26/2018 22:10:07
00032 suncat0155 pw.x -in pw.inp   Done                     12/26/2018 22:10:07
00033 suncat0155 pw.x -in pw.inp   Done                     12/26/2018 22:10:07
00034 suncat0155 pw.x -in pw.inp   Done                     12/26/2018 22:10:07
00035 suncat0155 pw.x -in pw.inp   Done                     12/26/2018 22:10:07
00036 suncat0155 pw.x -in pw.inp   Done                     12/26/2018 22:10:07
00037 suncat0155 pw.x -in pw.inp   Done                     12/26/2018 22:10:07
00038 suncat0155 pw.x -in pw.inp   Done                     12/26/2018 22:10:07
00039 suncat0155 pw.x -in pw.inp   Done                     12/26/2018 22:10:07
00040 suncat0154 pw.x -in pw.inp   Done                     12/26/2018 22:10:07
00041 suncat0154 pw.x -in pw.inp   Done                     12/26/2018 22:10:07
00042 suncat0154 pw.x -in pw.inp   Done                     12/26/2018 22:10:07
00043 suncat0154 pw.x -in pw.inp   Done                     12/26/2018 22:10:07
00044 suncat0154 pw.x -in pw.inp   Done                     12/26/2018 22:10:07
00045 suncat0154 pw.x -in pw.inp   Done                     12/26/2018 22:10:07
00046 suncat0154 pw.x -in pw.inp   Done                     12/26/2018 22:10:07
00047 suncat0154 pw.x -in pw.inp   Done                     12/26/2018 22:10:07
00048 suncat0209 pw.x -in pw.inp   Done                     12/26/2018 22:10:07
00049 suncat0209 pw.x -in pw.inp   Done                     12/26/2018 22:10:07
00050 suncat0209 pw.x -in pw.inp   Done                     12/26/2018 22:10:07
00051 suncat0209 pw.x -in pw.inp   Done                     12/26/2018 22:10:07
00052 suncat0209 pw.x -in pw.inp   Done                     12/26/2018 22:10:07
00053 suncat0209 pw.x -in pw.inp   Done                     12/26/2018 22:10:07
00054 suncat0209 pw.x -in pw.inp   Done                     12/26/2018 22:10:07
00055 suncat0209 pw.x -in pw.inp   Done                     12/26/2018 22:10:07
00056 suncat0203 pw.x -in pw.inp   Done                     12/26/2018 22:10:07
00057 suncat0203 pw.x -in pw.inp   Done                     12/26/2018 22:10:07
00058 suncat0203 pw.x -in pw.inp   Done                     12/26/2018 22:10:07
00059 suncat0203 pw.x -in pw.inp   Done                     12/26/2018 22:10:07
00060 suncat0203 pw.x -in pw.inp   Done                     12/26/2018 22:10:07
00061 suncat0203 pw.x -in pw.inp   Done                     12/26/2018 22:10:07
00062 suncat0203 pw.x -in pw.inp   Done                     12/26/2018 22:10:07
00063 suncat0203 pw.x -in pw.inp   Done                     12/26/2018 22:10:07