     Program PWSCF v.5.1rc2 (svn rev. 11289) starts on 27Dec2018 at  0:53: 8

     Current dimensions of program PWSCF are:
     Max number of different atomic species (ntypx) = 10
     Max number of k-points (npk) =  40000
     Max angular momentum in pseudopotentials (lmaxx) =  3
     Presently stress not available with electric field

     IMPORTANT: XC functional enforced from input :
     Exchange-correlation      = BEEF-VDW ( 1  4 27 13 2)
     Any further DFT definition will be discarded
     Please, verify this is what you really want

     Subspace diagonalization in iterative solution of the eigenvalue problem:
     a serial algorithm will be used

     Generating pointlists ...
     new r_m :   0.4125 (alat units)  0.7795 (a.u.) for type    1
     new r_m :   0.4125 (alat units)  0.7795 (a.u.) for type    2

     bravais-lattice index     =            0
     lattice parameter (alat)  =       1.8897  a.u.
     unit-cell volume          =    3794.7846 (a.u.)^3
     number of atoms/cell      =           12
     number of atomic types    =            2
     number of electrons       =       174.00
     number of Kohn-Sham states=          117
     kinetic-energy cutoff     =      36.7493  Ry
     charge density cutoff     =     367.4932  Ry
     convergence threshold     =      1.0E-06
     mixing beta               =       0.1000
     number of iterations used =           10  plain     mixing
     Exchange-correlation      = BEEF-VDW ( 1  4 27 13 2)
     nstep                     =           50

     celldm(1)=   1.889726  celldm(2)=   0.000000  celldm(3)=   0.000000
     celldm(4)=   0.000000  celldm(5)=   0.000000  celldm(6)=   0.000000

     crystal axes: (cart. coord. in units of alat)
               a(1) = (   5.177021   0.000000   0.000000 )
               a(2) = (  -2.588511   4.483432   0.000000 )
               a(3) = (   0.000000   0.000000  24.227020 )

     reciprocal axes: (cart. coord. in units 2 pi/alat)
               b(1) = (  0.193161  0.111522  0.000000 )
               b(2) = (  0.000000  0.223043  0.000000 )
               b(3) = (  0.000000  0.000000  0.041276 )

     PseudoPot. # 1 for Mn read from file:
     /afs/slac.stanford.edu/u/if/mamunm/psp/gbrv1.5pbe/Mn.UPF
     MD5 check sum: 82ef2b46521d7a7d9e736dc3972e4928
     Pseudo is Ultrasoft + core correction, Zval = 15.0
     Generated by new atomic code, or converted to UPF format
     Using radial grid of  859 points,  6 beta functions with:
                l(1) =   0
                l(2) =   0
                l(3) =   1
                l(4) =   1
                l(5) =   2
                l(6) =   2
     Q(r) pseudized with  8 coefficients,  rinner =    0.950   0.950   0.950
                                                       0.950   0.950

     PseudoPot. # 2 for V  read from file:
     /afs/slac.stanford.edu/u/if/mamunm/psp/gbrv1.5pbe/V.UPF
     MD5 check sum: 22b79981416ebb76fdaf5b1b8640f6fb
     Pseudo is Ultrasoft + core correction, Zval = 13.0
     Generated by new atomic code, or converted to UPF format
     Using radial grid of  853 points,  6 beta functions with:
                l(1) =   0
                l(2) =   0
                l(3) =   1
                l(4) =   1
                l(5) =   2
                l(6) =   2
     Q(r) pseudized with  8 coefficients,  rinner =    1.100   1.100   1.100
                                                       1.100   1.100

     vdW kernel table read from file vdW_kernel_table
     MD5 check sum: 095c7af220d748ca6e76c0b4c6cfb241

     atomic species   valence    mass     pseudopotential
        Mn1           15.00    54.93804     Mn( 1.00)
        V1            13.00    50.94150     V ( 1.00)

     Starting magnetic structure
     atomic species   magnetization
        Mn1          0.133
        V1           0.154

     No symmetry found

   Cartesian axes

     site n.     atom                  positions (alat units)
         1           Mn1 tau(   1) = (   0.0000000   0.0000000  10.0000000  )
         2           Mn1 tau(   2) = (  -1.2942553   2.2417160  10.0000000  )
         3           Mn1 tau(   3) = (   1.2942553   2.2417160  10.0000000  )
         4           V1  tau(   4) = (   2.5885106   0.0000000  10.0000000  )
         5           Mn1 tau(   5) = (   2.5885106   1.4944773  12.1135101  )
         6           Mn1 tau(   6) = (   1.2942553   3.7361933  12.1135101  )
         7           Mn1 tau(   7) = (  -1.2942553   3.7361933  12.1135101  )
         8           V1  tau(   8) = (   0.0000000   1.4944773  12.1135101  )
         9           Mn1 tau(   9) = (  -0.0000000   2.9889546  14.2270202  )
        10           Mn1 tau(  10) = (   1.2942553   0.7472387  14.2270202  )
        11           Mn1 tau(  11) = (   3.8827660   0.7472387  14.2270202  )
        12           V1  tau(  12) = (   2.5885106   2.9889546  14.2270202  )

     number of k points=    40  Fermi-Dirac smearing, width (Ry)=  0.0110
                       cart. coord. in units 2pi/alat
        k(    1) = (   0.0000000   0.0000000   0.0000000), wk =   0.0277778
        k(    2) = (   0.0000000   0.0371739   0.0000000), wk =   0.0555556
        k(    3) = (   0.0000000   0.0743478   0.0000000), wk =   0.0555556
        k(    4) = (   0.0000000  -0.1115217   0.0000000), wk =   0.0277778
        k(    5) = (   0.0321935   0.0185870   0.0000000), wk =   0.0555556
        k(    6) = (   0.0321935   0.0557609   0.0000000), wk =   0.0555556
        k(    7) = (   0.0321935   0.0929348   0.0000000), wk =   0.0555556
        k(    8) = (   0.0321935  -0.0929348   0.0000000), wk =   0.0555556
        k(    9) = (   0.0321935  -0.0557609   0.0000000), wk =   0.0555556
        k(   10) = (   0.0321935  -0.0185870   0.0000000), wk =   0.0555556
        k(   11) = (   0.0643871   0.0371739   0.0000000), wk =   0.0555556
        k(   12) = (   0.0643871   0.0743478   0.0000000), wk =   0.0555556
        k(   13) = (   0.0643871   0.1115217   0.0000000), wk =   0.0555556
        k(   14) = (   0.0643871  -0.0743478   0.0000000), wk =   0.0555556
        k(   15) = (   0.0643871  -0.0371739   0.0000000), wk =   0.0555556
        k(   16) = (   0.0643871   0.0000000   0.0000000), wk =   0.0555556
        k(   17) = (  -0.0965806  -0.0557609   0.0000000), wk =   0.0277778
        k(   18) = (  -0.0965806  -0.0185870   0.0000000), wk =   0.0555556
        k(   19) = (  -0.0965806   0.0185870   0.0000000), wk =   0.0555556
        k(   20) = (  -0.0965806  -0.1672826   0.0000000), wk =   0.0277778
        k(   21) = (   0.0000000   0.0000000   0.0000000), wk =   0.0277778
        k(   22) = (   0.0000000   0.0371739   0.0000000), wk =   0.0555556
        k(   23) = (   0.0000000   0.0743478   0.0000000), wk =   0.0555556
        k(   24) = (   0.0000000  -0.1115217   0.0000000), wk =   0.0277778
        k(   25) = (   0.0321935   0.0185870   0.0000000), wk =   0.0555556
        k(   26) = (   0.0321935   0.0557609   0.0000000), wk =   0.0555556
        k(   27) = (   0.0321935   0.0929348   0.0000000), wk =   0.0555556
        k(   28) = (   0.0321935  -0.0929348   0.0000000), wk =   0.0555556
        k(   29) = (   0.0321935  -0.0557609   0.0000000), wk =   0.0555556
        k(   30) = (   0.0321935  -0.0185870   0.0000000), wk =   0.0555556
        k(   31) = (   0.0643871   0.0371739   0.0000000), wk =   0.0555556
        k(   32) = (   0.0643871   0.0743478   0.0000000), wk =   0.0555556
        k(   33) = (   0.0643871   0.1115217   0.0000000), wk =   0.0555556
        k(   34) = (   0.0643871  -0.0743478   0.0000000), wk =   0.0555556
        k(   35) = (   0.0643871  -0.0371739   0.0000000), wk =   0.0555556
        k(   36) = (   0.0643871   0.0000000   0.0000000), wk =   0.0555556
        k(   37) = (  -0.0965806  -0.0557609   0.0000000), wk =   0.0277778
        k(   38) = (  -0.0965806  -0.0185870   0.0000000), wk =   0.0555556
        k(   39) = (  -0.0965806   0.0185870   0.0000000), wk =   0.0555556
        k(   40) = (  -0.0965806  -0.1672826   0.0000000), wk =   0.0277778

     Largest allocated arrays     est. size (Mb)     dimensions
     Largest temporary arrays     est. size (Mb)     dimensions

     Check: negative/imaginary core charge=   -0.000008    0.000000

     Initial potential from superposition of free atoms
     Check: negative starting charge=(component1):   -0.002823
     Check: negative starting charge=(component2):   -0.002109

     starting charge  169.49555, renormalised to  174.00000

     negative rho (up, down):  2.898E-03 2.165E-03

     *
     * You are using vdW-DF for exchange-correlation in this calculation.
     * Please cite the following three references that made this development
     * possible:
     *
     *   M. Dion, H. Rydberg, E. Schroder, D. C. Langreth, and
     *   B. I. Lundqvist, Phys. Rev. Lett. 92, 246401 (2004).
     *
     *   T. Thonhauser, V. R. Cooper, S. Li, A. Puzder, P. Hyldgaard, and
     *   D. C. Langreth, Phys. Rev. B 76, 125112 (2007).
     *
     *   G. Roman-Perez and J. M. Soler, Phys. Rev. Lett. 103, 096102 (2009).
     *
     *
     * If you are using vdW-DF2, please also cite:
     *
     *   K. Lee, E. D. Murray, L. Kong, B. I. Lundqvist, and
     *   D. C. Langreth, Phys. Rev. B 82, 081101(R) (2010).
     *
     *
     * If you are calculating the stress with vdW-DF, please also cite:
     *
     *   R. Sabatini, E. Kucukbenli, B. Kolb, T. Thonhauser, and
     *   S. de Gironcoli, J. Phys.: Condens. Matter 24, 424209 (2012).
     *

     Carrying out vdW-DF run using the following parameters:

     Nqs =      20    Nr_points =    1024   r_max =   100.000
     q_mesh =
               0.00001000     0.04494208     0.09755937     0.15916263
               0.23128650     0.31572767     0.41458969     0.53033537
               0.66584808     0.82450364     1.01025438     1.22772762
               1.48234092     1.78043706     2.12944203     2.53805004
               3.01644009     3.57652955     4.23227104     5.00000000

     Gradients computed in reciprocal space

     Adding external electric field

     Computed dipole along edir(3) :
        Dipole                0.0000 Ry au,          0.0000 Debye
        Dipole field          0.0000 Ry au

        Potential amp.       -0.0000 Ry
        Total length         44.6379 bohr

[...]

     Starting wfc are  147 randomized atomic wfcs

     Self-consistent Calculation

     iteration #  1     ecut=    36.75 Ry     beta=0.10
     Davidson diagonalization with overlap
     ethr =  1.00E-02,  avg # of iterations =  2.0

[...]

     Magnetic moment per site:
     atom:    1    charge:    6.0697    magn:    0.7839    constr:    0.0000
     atom:    2    charge:    6.0697    magn:    0.7839    constr:    0.0000
     atom:    3    charge:    6.0697    magn:    0.7839    constr:    0.0000
     atom:    4    charge:    4.0949    magn:    0.5921    constr:    0.0000
     atom:    5    charge:    6.0916    magn:    0.7845    constr:    0.0000
     atom:    6    charge:    6.0916    magn:    0.7845    constr:    0.0000
     atom:    7    charge:    6.0916    magn:    0.7845    constr:    0.0000
     atom:    8    charge:    4.1155    magn:    0.5947    constr:    0.0000
[...]
        k(    2) = (   0.0000000   0.0371739   0.0000000), wk =   0.0555556
        k(    3) = (   0.0000000   0.0743478   0.0000000), wk =   0.0555556
        k(    4) = (   0.0000000  -0.1115217   0.0000000), wk =   0.0277778
        k(    5) = (   0.0321935   0.0185870   0.0000000), wk =   0.0555556
        k(    6) = (   0.0321935   0.0557609   0.0000000), wk =   0.0555556
        k(    7) = (   0.0321935   0.0929348   0.0000000), wk =   0.0555556
        k(    8) = (   0.0321935  -0.0929348   0.0000000), wk =   0.0555556
        k(    9) = (   0.0321935  -0.0557609   0.0000000), wk =   0.0555556
        k(   10) = (   0.0321935  -0.0185870   0.0000000), wk =   0.0555556
        k(   11) = (   0.0643871   0.0371739   0.0000000), wk =   0.0555556
        k(   12) = (   0.0643871   0.0743478   0.0000000), wk =   0.0555556
        k(   13) = (   0.0643871   0.1115217   0.0000000), wk =   0.0555556
        k(   14) = (   0.0643871  -0.0743478   0.0000000), wk =   0.0555556
        k(   15) = (   0.0643871  -0.0371739   0.0000000), wk =   0.0555556
        k(   16) = (   0.0643871   0.0000000   0.0000000), wk =   0.0555556
        k(   17) = (  -0.0965806  -0.0557609   0.0000000), wk =   0.0277778
        k(   18) = (  -0.0965806  -0.0185870   0.0000000), wk =   0.0555556
        k(   19) = (  -0.0965806   0.0185870   0.0000000), wk =   0.0555556
        k(   20) = (  -0.0965806  -0.1672826   0.0000000), wk =   0.0277778
        k(   21) = (   0.0000000   0.0000000   0.0000000), wk =   0.0277778
        k(   22) = (   0.0000000   0.0371739   0.0000000), wk =   0.0555556
        k(   23) = (   0.0000000   0.0743478   0.0000000), wk =   0.0555556
        k(   24) = (   0.0000000  -0.1115217   0.0000000), wk =   0.0277778
        k(   25) = (   0.0321935   0.0185870   0.0000000), wk =   0.0555556
        k(   26) = (   0.0321935   0.0557609   0.0000000), wk =   0.0555556
        k(   27) = (   0.0321935   0.0929348   0.0000000), wk =   0.0555556
        k(   28) = (   0.0321935  -0.0929348   0.0000000), wk =   0.0555556
        k(   29) = (   0.0321935  -0.0557609   0.0000000), wk =   0.0555556
        k(   30) = (   0.0321935  -0.0185870   0.0000000), wk =   0.0555556
        k(   31) = (   0.0643871   0.0371739   0.0000000), wk =   0.0555556
        k(   32) = (   0.0643871   0.0743478   0.0000000), wk =   0.0555556
        k(   33) = (   0.0643871   0.1115217   0.0000000), wk =   0.0555556
        k(   34) = (   0.0643871  -0.0743478   0.0000000), wk =   0.0555556
        k(   35) = (   0.0643871  -0.0371739   0.0000000), wk =   0.0555556
        k(   36) = (   0.0643871   0.0000000   0.0000000), wk =   0.0555556
        k(   37) = (  -0.0965806  -0.0557609   0.0000000), wk =   0.0277778
        k(   38) = (  -0.0965806  -0.0185870   0.0000000), wk =   0.0555556
        k(   39) = (  -0.0965806   0.0185870   0.0000000), wk =   0.0555556
        k(   40) = (  -0.0965806  -0.1672826   0.0000000), wk =   0.0277778

     Largest allocated arrays     est. size (Mb)     dimensions
     Largest temporary arrays     est. size (Mb)     dimensions

     Check: negative/imaginary core charge=   -0.000008    0.000000

     Initial potential from superposition of free atoms
     Check: negative starting charge=(component1):   -0.002814
     Check: negative starting charge=(component2):   -0.002104

     starting charge  169.49555, renormalised to  174.00000

[...]

     *
     * You are using vdW-DF for exchange-correlation in this calculation.
     * Please cite the following three references that made this development
     * possible:
     *
     *   M. Dion, H. Rydberg, E. Schroder, D. C. Langreth, and
     *   B. I. Lundqvist, Phys. Rev. Lett. 92, 246401 (2004).
     *
     *   T. Thonhauser, V. R. Cooper, S. Li, A. Puzder, P. Hyldgaard, and
     *   D. C. Langreth, Phys. Rev. B 76, 125112 (2007).
     *
     *   G. Roman-Perez and J. M. Soler, Phys. Rev. Lett. 103, 096102 (2009).
     *
     *
     * If you are using vdW-DF2, please also cite:
     *
     *   K. Lee, E. D. Murray, L. Kong, B. I. Lundqvist, and
     *   D. C. Langreth, Phys. Rev. B 82, 081101(R) (2010).
     *
     *
     * If you are calculating the stress with vdW-DF, please also cite:
     *
     *   R. Sabatini, E. Kucukbenli, B. Kolb, T. Thonhauser, and
     *   S. de Gironcoli, J. Phys.: Condens. Matter 24, 424209 (2012).
     *

     Carrying out vdW-DF run using the following parameters:

     Nqs =      20    Nr_points =    1024   r_max =   100.000
     q_mesh =
               0.00001000     0.04494208     0.09755937     0.15916263
               0.23128650     0.31572767     0.41458969     0.53033537
               0.66584808     0.82450364     1.01025438     1.22772762
               1.48234092     1.78043706     2.12944203     2.53805004
               3.01644009     3.57652955     4.23227104     5.00000000

     Gradients computed in reciprocal space

[...]

     Starting wfc are  147 randomized atomic wfcs

     Self-consistent Calculation

[...]

     total energy              =   -2346.18754028 Ry
     Harris-Foulkes estimate   =   -2346.18753959 Ry
     estimated scf accuracy    <       0.00000158 Ry

[...]

     iteration # 49     ecut=    36.75 Ry     beta=0.10
     Davidson diagonalization with overlap
     ethr =  9.09E-10,  avg # of iterations =  2.2

[...]

     negative rho (up, down):  4.933E-03 2.011E-03

[...]

     Adding external electric field

     Computed dipole along edir(3) :
        Dipole                0.0235 Ry au,          0.0596 Debye
        Dipole field          0.0001 Ry au

        Potential amp.       -0.0069 Ry
        Total length         44.6379 bohr

     Magnetic moment per site:
     atom:    1    charge:    6.0084    magn:    1.1968    constr:    0.0000
     atom:    2    charge:    6.0085    magn:    1.1968    constr:    0.0000
     atom:    3    charge:    6.0085    magn:    1.1968    constr:    0.0000
     atom:    4    charge:    4.0132    magn:   -0.4745    constr:    0.0000
     atom:    5    charge:    6.0019    magn:    0.9795    constr:    0.0000
     atom:    6    charge:    6.0019    magn:    0.9794    constr:    0.0000
     atom:    7    charge:    6.0018    magn:    0.9795    constr:    0.0000
     atom:    8    charge:    4.0085    magn:   -0.3580    constr:    0.0000
     atom:    9    charge:    6.0058    magn:    1.2769    constr:    0.0000
     atom:   10    charge:    6.0058    magn:    1.2770    constr:    0.0000
     atom:   11    charge:    6.0058    magn:    1.2769    constr:    0.0000
     atom:   12    charge:    4.0115    magn:   -0.4203    constr:    0.0000

     End of self-consistent calculation

 ------ SPIN UP ------------

[...]

 ------ SPIN DOWN ----------

[...]

          k = 0.0644 0.0000 0.0000 ( 14295 PWs)   bands (ev):

[...]

          k =-0.0966-0.1673 0.0000 ( 14230 PWs)   bands (ev):

   -76.3879 -76.3720 -76.3554 -76.0292 -76.0135 -75.9974 -75.9278 -75.9115
   -75.8955 -63.6939 -63.6651 -63.5913 -45.3554 -45.2495 -45.1938 -45.1802
   -45.1460 -45.1366 -45.1312 -45.1124 -45.0243 -44.9694 -44.8820 -44.8654
   -44.8617 -44.8388 -44.8312 -44.7814 -44.7770 -44.7549 -44.7267 -44.7227
   -44.7098 -44.7011 -44.6958 -44.6246 -44.6108 -44.6036 -44.5897 -37.5489
   -37.5060 -37.5009 -37.4931 -37.4590 -37.4502 -37.4424 -37.4054 -37.3986
    -3.8325  -3.8201  -2.4218  -2.2792  -1.6039  -1.5404  -1.4049  -1.2995
    -1.0519  -0.9024  -0.7114  -0.5417  -0.4729  -0.3163  -0.2682  -0.1756
    -0.0510  -0.0387   0.1903   0.2015   0.2707   0.4376   0.4959   0.5478
     0.6934   0.9017   0.9517   0.9594   1.1032   1.2241   1.2596   1.3175
     1.4540   1.5172   1.5196   1.7081   1.7602   1.9011   2.0418   2.1159
     2.1723   2.3724   2.4352   2.5627   2.6087   2.7301   2.7341   2.8825
     2.9275   2.9961   3.0777   3.1001   3.1071   3.1675   3.2381   3.3823
     3.4738   3.6060   3.6592   3.7845   3.9699   4.0345   4.0376   4.1290
     4.4770   4.5048   5.5098   5.5106   5.7516

     the Fermi energy is     1.2095 ev

!    total energy              =   -2346.18754204 Ry
     Harris-Foulkes estimate   =   -2346.18754066 Ry
     estimated scf accuracy    <       0.00000064 Ry

     The total energy is the sum of the following terms:

     one-electron contribution =  -20370.73112522 Ry
     hartree contribution      =   10180.68766543 Ry
     xc contribution           =    -309.97979404 Ry
     ewald contribution        =    8153.93332929 Ry
     electric field correction =       0.00000182 Ry
     smearing contrib. (-TS)   =      -0.09761932 Ry

     total magnetization       =    21.63 Bohr mag/cell
     absolute magnetization    =    31.70 Bohr mag/cell

     convergence has been achieved in  49 iterations

 BEEF-vdW xc energy contributions
           1 :   -269.975392139594
           2 :    243.713532412323
           3 :   -199.992647636594
           4 :    151.901860656309
           5 :   -110.845264040131
           6 :    82.4804531150981
           7 :   -66.1883571136687
           8 :    57.4157113038446
           9 :   -51.0148295654784
          10 :    43.7559400511989
          11 :   -35.0872424998234
          12 :    26.2907991384931
          13 :   -18.9803819675117
          14 :    13.9766955822809
          15 :   -11.0630819908110
          16 :    9.41418252409449
          17 :   -8.17855636106924
          18 :    6.83035178036909
          19 :   -5.23299455726965
          20 :    3.53724906760220
          21 :   -2.04346160329374
          22 :    1.06326029040883
          23 :  -0.776021221888811
          24 :    1.09762459801311
          25 :   -1.65158977723547
          26 :    1.92007861041640
          27 :   -1.54032986600589
          28 :   0.559145019711195
          29 :   0.556089217863473
          30 :   -1.20218710421608
          31 :   -25.1222741999153
          32 :   -17.8941827217269

     Forces acting on atoms (Ry/au):

     negative rho (up, down):  4.933E-03 2.011E-03
     atom    1 type  1   force =     0.00001152    0.00219357   -0.01773461
     atom    2 type  1   force =     0.00190583   -0.00109346   -0.01773776
     atom    3 type  1   force =    -0.00190195   -0.00110432   -0.01774103
     atom    4 type  2   force =     0.00000412   -0.00000011    0.00760405
     atom    5 type  1   force =    -0.00000552   -0.01441237    0.00593041
     atom    6 type  1   force =    -0.01248317    0.00720888    0.00591853
     atom    7 type  1   force =     0.01247392    0.00721011    0.00593065
     atom    8 type  2   force =     0.00000072    0.00000059    0.02698714
     atom    9 type  1   force =    -0.00001187   -0.00136228    0.00035311
     atom   10 type  1   force =    -0.00117025    0.00067127    0.00034019
     atom   11 type  1   force =     0.00117839    0.00068983    0.00035785
     atom   12 type  2   force =    -0.00000174   -0.00000172   -0.00020853

     Total force =     0.049789     Total SCF correction =     0.003215

     entering subroutine stress ...

     negative rho (up, down):  4.933E-03 2.011E-03
          total   stress  (Ry/bohr**3)                   (kbar)     P=   12.30
   0.00010643   0.00000001  -0.00000000         15.66      0.00     -0.00
   0.00000001   0.00010643  -0.00000000          0.00     15.66     -0.00
  -0.00000000  -0.00000000   0.00003804         -0.00     -0.00      5.60

 !ASE

     Writing output data file calc.save

     General routines

     Parallel routines

   This run was terminated on:   9:51:32  27Dec2018

   JOB DONE.
Job  /afs/slac/g/suncat/bin/suncat-tsmpirun -x LD_LIBRARY_PATH -wdir /scratch/qe110099_2a3XX pw.x -in pw.inp

TID   HOST_NAME   COMMAND_LINE            STATUS            TERMINATION_TIME
00000 suncat0138 pw.x -in pw.inp   Done                     12/27/2018 09:51:32
00001 suncat0138 pw.x -in pw.inp   Done                     12/27/2018 09:51:32
00002 suncat0138 pw.x -in pw.inp   Done                     12/27/2018 09:51:32
00003 suncat0138 pw.x -in pw.inp   Done                     12/27/2018 09:51:32
00004 suncat0138 pw.x -in pw.inp   Done                     12/27/2018 09:51:32
00005 suncat0138 pw.x -in pw.inp   Done                     12/27/2018 09:51:32
00006 suncat0138 pw.x -in pw.inp   Done                     12/27/2018 09:51:32
00007 suncat0138 pw.x -in pw.inp   Done                     12/27/2018 09:51:32
00008 suncat0113 pw.x -in pw.inp   Done                     12/27/2018 09:51:32
00009 suncat0113 pw.x -in pw.inp   Done                     12/27/2018 09:51:32
00010 suncat0113 pw.x -in pw.inp   Done                     12/27/2018 09:51:32
00011 suncat0113 pw.x -in pw.inp   Done                     12/27/2018 09:51:32
00012 suncat0113 pw.x -in pw.inp   Done                     12/27/2018 09:51:32
00013 suncat0113 pw.x -in pw.inp   Done                     12/27/2018 09:51:32
00014 suncat0113 pw.x -in pw.inp   Done                     12/27/2018 09:51:32
00015 suncat0113 pw.x -in pw.inp   Done                     12/27/2018 09:51:32
00016 suncat0110 pw.x -in pw.inp   Done                     12/27/2018 09:51:32
00017 suncat0110 pw.x -in pw.inp   Done                     12/27/2018 09:51:32
00018 suncat0110 pw.x -in pw.inp   Done                     12/27/2018 09:51:32
00019 suncat0110 pw.x -in pw.inp   Done                     12/27/2018 09:51:32
00020 suncat0110 pw.x -in pw.inp   Done                     12/27/2018 09:51:32
00021 suncat0110 pw.x -in pw.inp   Done                     12/27/2018 09:51:32
00022 suncat0110 pw.x -in pw.inp   Done                     12/27/2018 09:51:32
00023 suncat0110 pw.x -in pw.inp   Done                     12/27/2018 09:51:32
00024 suncat0109 pw.x -in pw.inp   Done                     12/27/2018 09:51:32
00025 suncat0109 pw.x -in pw.inp   Done                     12/27/2018 09:51:32
00026 suncat0109 pw.x -in pw.inp   Done                     12/27/2018 09:51:32
00027 suncat0109 pw.x -in pw.inp   Done                     12/27/2018 09:51:32
00028 suncat0109 pw.x -in pw.inp   Done                     12/27/2018 09:51:32
00029 suncat0109 pw.x -in pw.inp   Done                     12/27/2018 09:51:32
00030 suncat0109 pw.x -in pw.inp   Done                     12/27/2018 09:51:32
00031 suncat0109 pw.x -in pw.inp   Done                     12/27/2018 09:51:32
00032 suncat0262 pw.x -in pw.inp   Done                     12/27/2018 09:51:32
00033 suncat0262 pw.x -in pw.inp   Done                     12/27/2018 09:51:32
00034 suncat0262 pw.x -in pw.inp   Done                     12/27/2018 09:51:32
00035 suncat0262 pw.x -in pw.inp   Done                     12/27/2018 09:51:32
00036 suncat0262 pw.x -in pw.inp   Done                     12/27/2018 09:51:32
00037 suncat0262 pw.x -in pw.inp   Done                     12/27/2018 09:51:32
00038 suncat0262 pw.x -in pw.inp   Done                     12/27/2018 09:51:32
00039 suncat0262 pw.x -in pw.inp   Done                     12/27/2018 09:51:32
00040 suncat0258 pw.x -in pw.inp   Done                     12/27/2018 09:51:32
00041 suncat0258 pw.x -in pw.inp   Done                     12/27/2018 09:51:32
00042 suncat0258 pw.x -in pw.inp   Done                     12/27/2018 09:51:32
00043 suncat0258 pw.x -in pw.inp   Done                     12/27/2018 09:51:32
00044 suncat0258 pw.x -in pw.inp   Done                     12/27/2018 09:51:32
00045 suncat0258 pw.x -in pw.inp   Done                     12/27/2018 09:51:32
00046 suncat0258 pw.x -in pw.inp   Done                     12/27/2018 09:51:32
00047 suncat0258 pw.x -in pw.inp   Done                     12/27/2018 09:51:32
00048 suncat0257 pw.x -in pw.inp   Done                     12/27/2018 09:51:32
00049 suncat0257 pw.x -in pw.inp   Done                     12/27/2018 09:51:32
00050 suncat0257 pw.x -in pw.inp   Done                     12/27/2018 09:51:32
00051 suncat0257 pw.x -in pw.inp   Done                     12/27/2018 09:51:32
00052 suncat0257 pw.x -in pw.inp   Done                     12/27/2018 09:51:32
00053 suncat0257 pw.x -in pw.inp   Done                     12/27/2018 09:51:32
00054 suncat0257 pw.x -in pw.inp   Done                     12/27/2018 09:51:32
00055 suncat0257 pw.x -in pw.inp   Done                     12/27/2018 09:51:32
00056 suncat0251 pw.x -in pw.inp   Done                     12/27/2018 09:51:32
00057 suncat0251 pw.x -in pw.inp   Done                     12/27/2018 09:51:32
00058 suncat0251 pw.x -in pw.inp   Done                     12/27/2018 09:51:32
00059 suncat0251 pw.x -in pw.inp   Done                     12/27/2018 09:51:32
00060 suncat0251 pw.x -in pw.inp   Done                     12/27/2018 09:51:32
00061 suncat0251 pw.x -in pw.inp   Done                     12/27/2018 09:51:32
00062 suncat0251 pw.x -in pw.inp   Done                     12/27/2018 09:51:32
00063 suncat0251 pw.x -in pw.inp   Done                     12/27/2018 09:51:32