     Program PWSCF v.5.1rc2 (svn rev. 11289) starts on  2Jan2019 at  4:36: 1

     Current dimensions of program PWSCF are:
     Max number of different atomic species (ntypx) = 10
     Max number of k-points (npk) =  40000
     Max angular momentum in pseudopotentials (lmaxx) =  3
     Presently stress not available with electric field

     IMPORTANT: XC functional enforced from input :
     Exchange-correlation      = BEEF-VDW ( 1  4 27 13 2)
     Any further DFT definition will be discarded
     Please, verify this is what you really want

     Subspace diagonalization in iterative solution of the eigenvalue problem:
     a serial algorithm will be used

     bravais-lattice index     =            0
     lattice parameter (alat)  =       1.8897  a.u.
     unit-cell volume          =    4166.7485 (a.u.)^3
     number of atoms/cell      =           12
     number of atomic types    =            2
     number of electrons       =       162.00
     number of Kohn-Sham states=          111
     kinetic-energy cutoff     =      36.7493  Ry
     charge density cutoff     =     367.4932  Ry
     convergence threshold     =      1.0E-06
     mixing beta               =       0.1000
     number of iterations used =           10  plain     mixing
     Exchange-correlation      = BEEF-VDW ( 1  4 27 13 2)
     nstep                     =           50

     celldm(1)=   1.889726  celldm(2)=   0.000000  celldm(3)=   0.000000
     celldm(4)=   0.000000  celldm(5)=   0.000000  celldm(6)=   0.000000

     crystal axes: (cart. coord. in units of alat)
               a(1) = (   5.404170   0.000000   0.000000 )
               a(2) = (  -2.702085   4.680149   0.000000 )
               a(3) = (   0.000000   0.000000  24.412487 )

     reciprocal axes: (cart. coord. in units 2 pi/alat)
               b(1) = (  0.185042  0.106834  0.000000 )
               b(2) = (  0.000000  0.213668  0.000000 )
               b(3) = (  0.000000  0.000000  0.040963 )

     PseudoPot. # 1 for V  read from file:
     /afs/slac.stanford.edu/u/if/mamunm/psp/gbrv1.5pbe/V.UPF
     MD5 check sum: 22b79981416ebb76fdaf5b1b8640f6fb
     Pseudo is Ultrasoft + core correction, Zval = 13.0
     Generated by new atomic code, or converted to UPF format
     Using radial grid of  853 points,  6 beta functions with:
                l(1) =   0
                l(2) =   0
                l(3) =   1
                l(4) =   1
                l(5) =   2
                l(6) =   2
     Q(r) pseudized with  8 coefficients,  rinner =    1.100   1.100   1.100
                                                       1.100   1.100

     PseudoPot. # 2 for Ir read from file:
     /afs/slac.stanford.edu/u/if/mamunm/psp/gbrv1.5pbe/Ir.UPF
     MD5 check sum: 8836f839c3459d2b385c504ce6d91f2c
     Pseudo is Ultrasoft + core correction, Zval = 15.0
     Generated by new atomic code, or converted to UPF format
     Using radial grid of  983 points,  7 beta functions with:
                l(1) =   0
                l(2) =   0
                l(3) =   1
                l(4) =   1
                l(5) =   1
                l(6) =   2
                l(7) =   2
     Q(r) pseudized with  8 coefficients,  rinner =    1.400   1.400   1.400
                                                       1.400   1.400

     vdW kernel table read from file vdW_kernel_table
     MD5 check sum: 095c7af220d748ca6e76c0b4c6cfb241

     atomic species   valence    mass     pseudopotential
        V1            13.00    50.94150     V ( 1.00)
        Ir1           15.00   192.21700     Ir( 1.00)

     No symmetry found

   Cartesian axes

     site n.     atom                  positions (alat units)
         1           V1  tau(   1) = (   0.0000000   0.0000000  10.0000000  )
         2           V1  tau(   2) = (  -1.3510426   2.3400743  10.0000000  )
         3           V1  tau(   3) = (   1.3510426   2.3400743  10.0000000  )
         4           Ir1 tau(   4) = (   2.7020851   0.0000000  10.0000000  )
         5           V1  tau(   5) = (   2.7020851   1.5600496  12.2062433  )
         6           V1  tau(   6) = (   1.3510426   3.9001239  12.2062433  )
         7           V1  tau(   7) = (  -1.3510426   3.9001239  12.2062433  )
         8           Ir1 tau(   8) = (   0.0000000   1.5600496  12.2062433  )
         9           V1  tau(   9) = (  -0.0000000   3.1200991  14.4124865  )
        10           V1  tau(  10) = (   1.3510426   0.7800248  14.4124865  )
        11           V1  tau(  11) = (   4.0531277   0.7800248  14.4124865  )
        12           Ir1 tau(  12) = (   2.7020851   3.1200991  14.4124865  )

     number of k points=    20  Fermi-Dirac smearing, width (Ry)=  0.0110
                       cart. coord. in units 2pi/alat
        k(    1) = (   0.0000000   0.0000000   0.0000000), wk =   0.0555556
        k(    2) = (   0.0000000   0.0356114   0.0000000), wk =   0.1111111
        k(    3) = (   0.0000000   0.0712228   0.0000000), wk =   0.1111111
        k(    4) = (   0.0000000  -0.1068342   0.0000000), wk =   0.0555556
        k(    5) = (   0.0308404   0.0178057   0.0000000), wk =   0.1111111
        k(    6) = (   0.0308404   0.0534171   0.0000000), wk =   0.1111111
        k(    7) = (   0.0308404   0.0890285   0.0000000), wk =   0.1111111
        k(    8) = (   0.0308404  -0.0890285   0.0000000), wk =   0.1111111
        k(    9) = (   0.0308404  -0.0534171   0.0000000), wk =   0.1111111
        k(   10) = (   0.0308404  -0.0178057   0.0000000), wk =   0.1111111
        k(   11) = (   0.0616808   0.0356114   0.0000000), wk =   0.1111111
        k(   12) = (   0.0616808   0.0712228   0.0000000), wk =   0.1111111
        k(   13) = (   0.0616808   0.1068342   0.0000000), wk =   0.1111111
        k(   14) = (   0.0616808  -0.0712228   0.0000000), wk =   0.1111111
        k(   15) = (   0.0616808  -0.0356114   0.0000000), wk =   0.1111111
        k(   16) = (   0.0616808   0.0000000   0.0000000), wk =   0.1111111
        k(   17) = (  -0.0925211  -0.0534171   0.0000000), wk =   0.0555556
        k(   18) = (  -0.0925211  -0.0178057   0.0000000), wk =   0.1111111
        k(   19) = (  -0.0925211   0.0178057   0.0000000), wk =   0.1111111
        k(   20) = (  -0.0925211  -0.1602513   0.0000000), wk =   0.0555556

     Largest allocated arrays     est. size (Mb)     dimensions
     Largest temporary arrays     est. size (Mb)     dimensions

     Initial potential from superposition of free atoms
     Check: negative starting charge=   -1.094804

     starting charge  160.48886, renormalised to  162.00000

     negative rho (up, down):  1.105E+00 0.000E+00

     *
     * You are using vdW-DF for exchange-correlation in this calculation.
     * Please cite the following three references that made this development
     * possible:
     *
     *   M. Dion, H. Rydberg, E. Schroder, D. C. Langreth, and
     *   B. I. Lundqvist, Phys. Rev. Lett. 92, 246401 (2004).
     *
     *   T. Thonhauser, V. R. Cooper, S. Li, A. Puzder, P. Hyldgaard, and
     *   D. C. Langreth, Phys. Rev. B 76, 125112 (2007).
     *
     *   G. Roman-Perez and J. M. Soler, Phys. Rev. Lett. 103, 096102 (2009).
     *
     *
     * If you are using vdW-DF2, please also cite:
     *
     *   K. Lee, E. D. Murray, L. Kong, B. I. Lundqvist, and
     *   D. C. Langreth, Phys. Rev. B 82, 081101(R) (2010).
     *
     *
     * If you are calculating the stress with vdW-DF, please also cite:
     *
     *   R. Sabatini, E. Kucukbenli, B. Kolb, T. Thonhauser, and
     *   S. de Gironcoli, J. Phys.: Condens. Matter 24, 424209 (2012).
     *

     Carrying out vdW-DF run using the following parameters:

     Nqs =      20    Nr_points =    1024   r_max =   100.000
     q_mesh =
               0.00001000     0.04494208     0.09755937     0.15916263
               0.23128650     0.31572767     0.41458969     0.53033537
               0.66584808     0.82450364     1.01025438     1.22772762
               1.48234092     1.78043706     2.12944203     2.53805004
               3.01644009     3.57652955     4.23227104     5.00000000

     Gradients computed in reciprocal space

     Adding external electric field

     Computed dipole along edir(3) :
        Dipole                0.0000 Ry au,          0.0000 Debye
        Dipole field          0.0000 Ry au

        Potential amp.       -0.0000 Ry
        Total length         44.9796 bohr

     Starting wfc are  126 randomized atomic wfcs

     Self-consistent Calculation

     iteration #  1     ecut=    36.75 Ry     beta=0.10
     Davidson diagonalization with overlap
     ethr =  1.00E-02,  avg # of iterations =  2.2

[...]

     total energy              =   -1860.66991088 Ry
     Harris-Foulkes estimate   =   -1863.21839803 Ry
     estimated scf accuracy    <      14.51728503 Ry

[...]

     End of self-consistent calculation

          k = 0.0000 0.0000 0.0000 ( 15569 PWs)   bands (ev):

   -62.8987 -62.8580 -62.8244 -62.8023 -62.8023 -62.7809 -62.7808 -62.7659
   -62.7659 -47.8094 -47.7756 -47.7756 -47.4112 -47.4112 -47.4106 -47.4106
   -47.3851 -47.3824 -36.9642 -36.9064 -36.8598 -36.8598 -36.8296 -36.8199
   -36.8050 -36.8050 -36.7670 -36.7240 -36.7240 -36.7024 -36.7024 -36.6493
   -36.6493 -36.5587 -36.5084 -36.5084 -36.4771 -36.4739 -36.4306 -36.3460
   -36.3460 -36.2986 -36.2985 -36.2955 -36.2955  -5.6252  -4.0167  -3.2260
    -3.1729  -3.1728  -2.8253  -2.8253  -2.4925  -2.3108  -2.3108  -2.2765
    -2.2765  -2.1947  -1.7284  -1.4313  -1.4313  -1.2076  -0.8442  -0.7654
    -0.7654   0.0344   0.2366   0.6340   1.0522   1.0522   1.0813   1.1734
     1.1790   1.1790   1.2977   1.2977   1.3229   1.3229   1.4723   1.4723
     1.7314   1.9514   1.9712   2.1724   2.1724   2.1834   2.1834   2.5956
     2.5956   2.7338   3.0914   3.1806   3.1807   3.3272   3.3597   3.3597
     3.4671   3.4672   3.6859   3.6859   3.8164   3.8164   3.8292   4.0974
     4.0974   4.2617   4.2617   4.3271   4.3339   4.3339   4.4483

[...]

          k =-0.0925-0.0534 0.0000 ( 15712 PWs)   bands (ev):

[...]

     the Fermi energy is     1.4796 ev

!    total energy              =   -1861.86450202 Ry
     Harris-Foulkes estimate   =   -1861.86450180 Ry
     estimated scf accuracy    <       0.00000091 Ry

     The total energy is the sum of the following terms:

     one-electron contribution =  -15795.10057389 Ry
     hartree contribution      =    7895.69972624 Ry
     xc contribution           =    -339.10080221 Ry
     ewald contribution        =    6376.76430585 Ry
     electric field correction =       0.00000001 Ry
     smearing contrib. (-TS)   =      -0.12715801 Ry

     convergence has been achieved in  21 iterations

 BEEF-vdW xc energy contributions
           1 :   -296.043729617979
           2 :    270.257724935990
           3 :   -226.319267528090
           4 :    175.981572697327
           5 :   -130.256506960870
           6 :    95.6800810425316
           7 :   -73.2393879390183
           8 :    59.8511087090514
           9 :   -51.0820915315844
          10 :    43.5164258105859
          11 :   -35.7905471911503
          12 :    28.2332472526404
          13 :   -21.7713669944245
          14 :    16.9408773716350
          15 :   -13.5542419809377
[...]
                l(1) =   0
                l(2) =   0
                l(3) =   1
                l(4) =   1
                l(5) =   2
                l(6) =   2
     Q(r) pseudized with  8 coefficients,  rinner =    1.100   1.100   1.100
                                                       1.100   1.100

     PseudoPot. # 2 for Ir read from file:
     /afs/slac.stanford.edu/u/if/mamunm/psp/gbrv1.5pbe/Ir.UPF
     MD5 check sum: 8836f839c3459d2b385c504ce6d91f2c
     Pseudo is Ultrasoft + core correction, Zval = 15.0
     Generated by new atomic code, or converted to UPF format
     Using radial grid of  983 points,  7 beta functions with:
                l(1) =   0
                l(2) =   0
                l(3) =   1
                l(4) =   1
                l(5) =   1
                l(6) =   2
                l(7) =   2
     Q(r) pseudized with  8 coefficients,  rinner =    1.400   1.400   1.400
                                                       1.400   1.400

     vdW kernel table read from file vdW_kernel_table
     MD5 check sum: 095c7af220d748ca6e76c0b4c6cfb241

     atomic species   valence    mass     pseudopotential
        V1            13.00    50.94150     V ( 1.00)
        Ir1           15.00   192.21700     Ir( 1.00)

     No symmetry found

   Cartesian axes

     site n.     atom                  positions (alat units)
         1           V1  tau(   1) = (   0.0000000   0.0000000  10.0000000  )
         2           V1  tau(   2) = (  -1.3510426   2.3400743  10.0000000  )
         3           V1  tau(   3) = (   1.3510426   2.3400743  10.0000000  )
         4           Ir1 tau(   4) = (   2.7020851   0.0000000  10.0000000  )
         5           V1  tau(   5) = (   2.7020851   1.5600496  12.2062433  )
         6           V1  tau(   6) = (   1.3510426   3.9001239  12.2062433  )
         7           V1  tau(   7) = (  -1.3510426   3.9001239  12.2062433  )
         8           Ir1 tau(   8) = (   0.0000000   1.5600496  12.2062433  )
         9           V1  tau(   9) = (   0.0000276   3.0979308  14.3944857  )
        10           V1  tau(  10) = (   1.3318699   0.7911205  14.3944946  )
        11           V1  tau(  11) = (   4.0723267   0.7911049  14.3944516  )
        12           Ir1 tau(  12) = (   2.7020967   3.1201045  14.3846522  )

     number of k points=    20  Fermi-Dirac smearing, width (Ry)=  0.0110
                       cart. coord. in units 2pi/alat
        k(    1) = (   0.0000000   0.0000000   0.0000000), wk =   0.0555556
        k(    2) = (   0.0000000   0.0356114   0.0000000), wk =   0.1111111
        k(    3) = (   0.0000000   0.0712228   0.0000000), wk =   0.1111111
        k(    4) = (   0.0000000  -0.1068342   0.0000000), wk =   0.0555556
        k(    5) = (   0.0308404   0.0178057   0.0000000), wk =   0.1111111
        k(    6) = (   0.0308404   0.0534171   0.0000000), wk =   0.1111111
        k(    7) = (   0.0308404   0.0890285   0.0000000), wk =   0.1111111
        k(    8) = (   0.0308404  -0.0890285   0.0000000), wk =   0.1111111
        k(    9) = (   0.0308404  -0.0534171   0.0000000), wk =   0.1111111
        k(   10) = (   0.0308404  -0.0178057   0.0000000), wk =   0.1111111
        k(   11) = (   0.0616808   0.0356114   0.0000000), wk =   0.1111111
        k(   12) = (   0.0616808   0.0712228   0.0000000), wk =   0.1111111
        k(   13) = (   0.0616808   0.1068342   0.0000000), wk =   0.1111111
        k(   14) = (   0.0616808  -0.0712228   0.0000000), wk =   0.1111111
        k(   15) = (   0.0616808  -0.0356114   0.0000000), wk =   0.1111111
        k(   16) = (   0.0616808   0.0000000   0.0000000), wk =   0.1111111
        k(   17) = (  -0.0925211  -0.0534171   0.0000000), wk =   0.0555556
        k(   18) = (  -0.0925211  -0.0178057   0.0000000), wk =   0.1111111
        k(   19) = (  -0.0925211   0.0178057   0.0000000), wk =   0.1111111
        k(   20) = (  -0.0925211  -0.1602513   0.0000000), wk =   0.0555556

     Largest allocated arrays     est. size (Mb)     dimensions
     Largest temporary arrays     est. size (Mb)     dimensions

     Initial potential from superposition of free atoms
     Check: negative starting charge=   -1.093958

     starting charge  160.48886, renormalised to  162.00000

[...]

     *
     * You are using vdW-DF for exchange-correlation in this calculation.
     * Please cite the following three references that made this development
     * possible:
     *
     *   M. Dion, H. Rydberg, E. Schroder, D. C. Langreth, and
     *   B. I. Lundqvist, Phys. Rev. Lett. 92, 246401 (2004).
     *
     *   T. Thonhauser, V. R. Cooper, S. Li, A. Puzder, P. Hyldgaard, and
     *   D. C. Langreth, Phys. Rev. B 76, 125112 (2007).
     *
     *   G. Roman-Perez and J. M. Soler, Phys. Rev. Lett. 103, 096102 (2009).
     *
     *
     * If you are using vdW-DF2, please also cite:
     *
     *   K. Lee, E. D. Murray, L. Kong, B. I. Lundqvist, and
     *   D. C. Langreth, Phys. Rev. B 82, 081101(R) (2010).
     *
     *
     * If you are calculating the stress with vdW-DF, please also cite:
     *
     *   R. Sabatini, E. Kucukbenli, B. Kolb, T. Thonhauser, and
     *   S. de Gironcoli, J. Phys.: Condens. Matter 24, 424209 (2012).
     *

     Carrying out vdW-DF run using the following parameters:

     Nqs =      20    Nr_points =    1024   r_max =   100.000
     q_mesh =
               0.00001000     0.04494208     0.09755937     0.15916263
               0.23128650     0.31572767     0.41458969     0.53033537
               0.66584808     0.82450364     1.01025438     1.22772762
               1.48234092     1.78043706     2.12944203     2.53805004
               3.01644009     3.57652955     4.23227104     5.00000000

     Gradients computed in reciprocal space

[...]

     Starting wfc are  126 randomized atomic wfcs

     Self-consistent Calculation

[...]

     iteration # 11     ecut=    36.75 Ry     beta=0.10
     Davidson diagonalization with overlap
     c_bands:  1 eigenvalues not converged
     c_bands:  1 eigenvalues not converged
     ethr =  6.09E-06,  avg # of iterations =  7.0

[...]

     total energy              =   -1861.86529484 Ry
     Harris-Foulkes estimate   =   -1861.86529411 Ry
     estimated scf accuracy    <       0.00000288 Ry

     iteration # 21     ecut=    36.75 Ry     beta=0.10
     Davidson diagonalization with overlap
     ethr =  1.77E-09,  avg # of iterations =  2.0

[...]

     negative rho (up, down):  9.685E-01 0.000E+00

     Adding external electric field

     Computed dipole along edir(3) :
        Dipole                0.0042 Ry au,          0.0107 Debye
        Dipole field          0.0000 Ry au

        Potential amp.       -0.0011 Ry
        Total length         44.9796 bohr

     End of self-consistent calculation

[...]

          k = 0.0617 0.0000 0.0000 ( 15648 PWs)   bands (ev):

[...]

          k =-0.0925-0.1603 0.0000 ( 15712 PWs)   bands (ev):

   -62.8488 -62.8371 -62.8144 -62.7945 -62.7891 -62.7809 -62.7718 -62.7677
   -62.7496 -47.8167 -47.7778 -47.7752 -47.4100 -47.4073 -47.4020 -47.3994
   -47.3880 -47.3761 -36.8834 -36.8460 -36.8406 -36.7714 -36.7700 -36.7580
   -36.7492 -36.7361 -36.7094 -36.6999 -36.6604 -36.6303 -36.6089 -36.5959
   -36.5872 -36.5869 -36.5707 -36.5510 -36.5328 -36.5236 -36.4937 -36.4651
   -36.4201 -36.3895 -36.3495 -36.3068 -36.2916  -4.1797  -3.6857  -2.9485
    -2.6121  -2.5140  -2.3601  -2.0414  -1.9977  -1.9404  -1.7474  -1.6502
    -1.5107  -1.4978  -1.3992  -1.2425  -1.0886  -1.0590  -0.9001  -0.8003
    -0.4904  -0.4762  -0.2893   0.0075   0.1530   0.1986   0.4668   0.7126
     0.7907   0.8038   0.8780   1.0070   1.0179   1.0762   1.0990   1.1031
     1.1991   1.2691   1.3988   1.6030   1.7320   1.8569   1.9660   2.0601
     2.2301   2.3473   2.3513   2.4783   2.5194   2.6494   2.6992   2.8349
     2.8483   2.8963   2.9925   3.0449   3.1313   3.1549   3.4048   3.4512
     3.5428   3.9172   3.9412   3.9594   4.2737   4.3844   4.5214

     the Fermi energy is     1.4871 ev

!    total energy              =   -1861.86529378 Ry
     Harris-Foulkes estimate   =   -1861.86529506 Ry
     estimated scf accuracy    <       0.00000092 Ry

     The total energy is the sum of the following terms:

     one-electron contribution =  -15841.53835195 Ry
     hartree contribution      =    7918.96112409 Ry
     xc contribution           =    -339.14114829 Ry
     ewald contribution        =    6399.98025937 Ry
     electric field correction =       0.00000005 Ry
     smearing contrib. (-TS)   =      -0.12717705 Ry

     convergence has been achieved in  21 iterations

 BEEF-vdW xc energy contributions
           1 :   -296.085252184204
           2 :    270.314922558872
           3 :   -226.395147969691
           4 :    176.062727278274
           5 :   -130.320693595402
           6 :    95.7103842217830
           7 :   -73.2351539706593
           8 :    59.8280782814559
           9 :   -51.0618103568041
          10 :    43.5128543882427
          11 :   -35.8031382926418
          12 :    28.2507594194952
          13 :   -21.7821845433049
          14 :    16.9409634564794
          15 :   -13.5472362804341
          16 :    11.0192929652815
          17 :   -8.94155024004982
          18 :    7.36831775089837
          19 :   -6.64414391737671
          20 :    6.93114518861483
          21 :   -7.86725320603540
          22 :    8.65318286421893
          23 :   -8.52268238988421
          24 :    7.25178739372456
          25 :   -5.33807334440041
          26 :    3.71460108681094
          27 :   -3.18421036688466
          28 :    3.93541520545119
          29 :   -5.44089223433622
          30 :    6.78761419240243
          31 :   -28.1318689569316
          32 :   -20.6166056424818

     Forces acting on atoms (Ry/au):

     negative rho (up, down):  9.685E-01 0.000E+00
     atom    1 type  1   force =     0.00000088    0.00569569    0.00429207
     atom    2 type  1   force =     0.00493201   -0.00284734    0.00429201
     atom    3 type  1   force =    -0.00493299   -0.00284881    0.00428892
     atom    4 type  2   force =     0.00000145   -0.00000014    0.00710903
     atom    5 type  1   force =    -0.00000407   -0.00142922   -0.00359363
     atom    6 type  1   force =    -0.00124160    0.00071062   -0.00359161
     atom    7 type  1   force =     0.00124091    0.00071538   -0.00358226
     atom    8 type  2   force =     0.00000100    0.00000052   -0.00837962
     atom    9 type  1   force =    -0.00000440    0.00038594   -0.00032624
     atom   10 type  1   force =     0.00033209   -0.00019635   -0.00031286
     atom   11 type  1   force =    -0.00032724   -0.00018805   -0.00030888
     atom   12 type  2   force =     0.00000197    0.00000176    0.00011306

     Total force =     0.017857     Total SCF correction =     0.003077
     SCF correction compared to forces is large: reduce conv_thr to get better values

     entering subroutine stress ...

     negative rho (up, down):  9.685E-01 0.000E+00
          total   stress  (Ry/bohr**3)                   (kbar)     P=  -25.79
  -0.00024245  -0.00000001  -0.00000000        -35.67     -0.00     -0.00
  -0.00000001  -0.00024246   0.00000000         -0.00    -35.67      0.00
  -0.00000000   0.00000000  -0.00004108         -0.00      0.00     -6.04

 !ASE

     Writing output data file calc.save

     General routines

     Parallel routines

   This run was terminated on:   5:10:37   2Jan2019

   JOB DONE.
Job  /afs/slac/g/suncat/bin/suncat-tsmpirun -x LD_LIBRARY_PATH -wdir /scratch/qe649310_GOAuL pw.x -in pw.inp

TID   HOST_NAME   COMMAND_LINE            STATUS            TERMINATION_TIME
00000 suncat0182 pw.x -in pw.inp   Done                     01/02/2019 05:10:37
00001 suncat0182 pw.x -in pw.inp   Done                     01/02/2019 05:10:37
00002 suncat0182 pw.x -in pw.inp   Done                     01/02/2019 05:10:37
00003 suncat0182 pw.x -in pw.inp   Done                     01/02/2019 05:10:37
00004 suncat0182 pw.x -in pw.inp   Done                     01/02/2019 05:10:37
00005 suncat0182 pw.x -in pw.inp   Done                     01/02/2019 05:10:37
00006 suncat0182 pw.x -in pw.inp   Done                     01/02/2019 05:10:37
00007 suncat0182 pw.x -in pw.inp   Done                     01/02/2019 05:10:37
00008 suncat0181 pw.x -in pw.inp   Done                     01/02/2019 05:10:37
00009 suncat0181 pw.x -in pw.inp   Done                     01/02/2019 05:10:37
00010 suncat0181 pw.x -in pw.inp   Done                     01/02/2019 05:10:37
00011 suncat0181 pw.x -in pw.inp   Done                     01/02/2019 05:10:37
00012 suncat0181 pw.x -in pw.inp   Done                     01/02/2019 05:10:37
00013 suncat0181 pw.x -in pw.inp   Done                     01/02/2019 05:10:37
00014 suncat0181 pw.x -in pw.inp   Done                     01/02/2019 05:10:37
00015 suncat0181 pw.x -in pw.inp   Done                     01/02/2019 05:10:37
00016 suncat0132 pw.x -in pw.inp   Done                     01/02/2019 05:10:37
00017 suncat0132 pw.x -in pw.inp   Done                     01/02/2019 05:10:37
00018 suncat0132 pw.x -in pw.inp   Done                     01/02/2019 05:10:37
00019 suncat0132 pw.x -in pw.inp   Done                     01/02/2019 05:10:37
00020 suncat0132 pw.x -in pw.inp   Done                     01/02/2019 05:10:37
00021 suncat0132 pw.x -in pw.inp   Done                     01/02/2019 05:10:37
00022 suncat0132 pw.x -in pw.inp   Done                     01/02/2019 05:10:37
00023 suncat0132 pw.x -in pw.inp   Done                     01/02/2019 05:10:37
00024 suncat0131 pw.x -in pw.inp   Done                     01/02/2019 05:10:37
00025 suncat0131 pw.x -in pw.inp   Done                     01/02/2019 05:10:37
00026 suncat0131 pw.x -in pw.inp   Done                     01/02/2019 05:10:37
00027 suncat0131 pw.x -in pw.inp   Done                     01/02/2019 05:10:37
00028 suncat0131 pw.x -in pw.inp   Done                     01/02/2019 05:10:37
00029 suncat0131 pw.x -in pw.inp   Done                     01/02/2019 05:10:37
00030 suncat0131 pw.x -in pw.inp   Done                     01/02/2019 05:10:37
00031 suncat0131 pw.x -in pw.inp   Done                     01/02/2019 05:10:37
00032 suncat0130 pw.x -in pw.inp   Done                     01/02/2019 05:10:37
00033 suncat0130 pw.x -in pw.inp   Done                     01/02/2019 05:10:37
00034 suncat0130 pw.x -in pw.inp   Done                     01/02/2019 05:10:37
00035 suncat0130 pw.x -in pw.inp   Done                     01/02/2019 05:10:37
00036 suncat0130 pw.x -in pw.inp   Done                     01/02/2019 05:10:37
00037 suncat0130 pw.x -in pw.inp   Done                     01/02/2019 05:10:37
00038 suncat0130 pw.x -in pw.inp   Done                     01/02/2019 05:10:37
00039 suncat0130 pw.x -in pw.inp   Done                     01/02/2019 05:10:37
00040 suncat0124 pw.x -in pw.inp   Done                     01/02/2019 05:10:37
00041 suncat0124 pw.x -in pw.inp   Done                     01/02/2019 05:10:37
00042 suncat0124 pw.x -in pw.inp   Done                     01/02/2019 05:10:37
00043 suncat0124 pw.x -in pw.inp   Done                     01/02/2019 05:10:37
00044 suncat0124 pw.x -in pw.inp   Done                     01/02/2019 05:10:37
00045 suncat0124 pw.x -in pw.inp   Done                     01/02/2019 05:10:37
00046 suncat0124 pw.x -in pw.inp   Done                     01/02/2019 05:10:37
00047 suncat0124 pw.x -in pw.inp   Done                     01/02/2019 05:10:37
00048 suncat0280 pw.x -in pw.inp   Done                     01/02/2019 05:10:37
00049 suncat0280 pw.x -in pw.inp   Done                     01/02/2019 05:10:37
00050 suncat0280 pw.x -in pw.inp   Done                     01/02/2019 05:10:37
00051 suncat0280 pw.x -in pw.inp   Done                     01/02/2019 05:10:37
00052 suncat0280 pw.x -in pw.inp   Done                     01/02/2019 05:10:37
00053 suncat0280 pw.x -in pw.inp   Done                     01/02/2019 05:10:37
00054 suncat0280 pw.x -in pw.inp   Done                     01/02/2019 05:10:37
00055 suncat0280 pw.x -in pw.inp   Done                     01/02/2019 05:10:37
00056 suncat0279 pw.x -in pw.inp   Done                     01/02/2019 05:10:37
00057 suncat0279 pw.x -in pw.inp   Done                     01/02/2019 05:10:37
00058 suncat0279 pw.x -in pw.inp   Done                     01/02/2019 05:10:37
00059 suncat0279 pw.x -in pw.inp   Done                     01/02/2019 05:10:37
00060 suncat0279 pw.x -in pw.inp   Done                     01/02/2019 05:10:37
00061 suncat0279 pw.x -in pw.inp   Done                     01/02/2019 05:10:37
00062 suncat0279 pw.x -in pw.inp   Done                     01/02/2019 05:10:37
00063 suncat0279 pw.x -in pw.inp   Done                     01/02/2019 05:10:37