     Program PWSCF v.5.1rc2 (svn rev. 11289) starts on  2Jan2019 at  6: 0:27

     Current dimensions of program PWSCF are:
     Max number of different atomic species (ntypx) = 10
     Max number of k-points (npk) =  40000
     Max angular momentum in pseudopotentials (lmaxx) =  3
     Presently stress not available with electric field

     IMPORTANT: XC functional enforced from input :
     Exchange-correlation      = BEEF-VDW ( 1  4 27 13 2)
     Any further DFT definition will be discarded
     Please, verify this is what you really want

     Subspace diagonalization in iterative solution of the eigenvalue problem:
     a serial algorithm will be used

     bravais-lattice index     =            0
     lattice parameter (alat)  =       1.8897  a.u.
     unit-cell volume          =    4574.4770 (a.u.)^3
     number of atoms/cell      =           12
     number of atomic types    =            2
     number of electrons       =       150.00
     number of Kohn-Sham states=          105
     kinetic-energy cutoff     =      36.7493  Ry
     charge density cutoff     =     367.4932  Ry
     convergence threshold     =      1.0E-06
     mixing beta               =       0.1000
     number of iterations used =           10  plain     mixing
     Exchange-correlation      = BEEF-VDW ( 1  4 27 13 2)
     nstep                     =           50

     celldm(1)=   1.889726  celldm(2)=   0.000000  celldm(3)=   0.000000
     celldm(4)=   0.000000  celldm(5)=   0.000000  celldm(6)=   0.000000

     crystal axes: (cart. coord. in units of alat)
               a(1) = (   5.640190   0.000000   0.000000 )
               a(2) = (  -2.820095   4.884547   0.000000 )
               a(3) = (   0.000000   0.000000  24.605195 )

     reciprocal axes: (cart. coord. in units 2 pi/alat)
               b(1) = (  0.177299  0.102364  0.000000 )
               b(2) = (  0.000000  0.204727  0.000000 )
               b(3) = (  0.000000  0.000000  0.040642 )

     PseudoPot. # 1 for V  read from file:
     /afs/slac.stanford.edu/u/if/mamunm/psp/gbrv1.5pbe/V.UPF
     MD5 check sum: 22b79981416ebb76fdaf5b1b8640f6fb
     Pseudo is Ultrasoft + core correction, Zval = 13.0
     Generated by new atomic code, or converted to UPF format
     Using radial grid of  853 points,  6 beta functions with:
                l(1) =   0
                l(2) =   0
                l(3) =   1
                l(4) =   1
                l(5) =   2
                l(6) =   2
     Q(r) pseudized with  8 coefficients,  rinner =    1.100   1.100   1.100
                                                       1.100   1.100

     PseudoPot. # 2 for Sc read from file:
     /afs/slac.stanford.edu/u/if/mamunm/psp/gbrv1.5pbe/Sc.UPF
     MD5 check sum: db30a2753ba66ef00f23801d899b7e7f
     Pseudo is Ultrasoft + core correction, Zval = 11.0
     Generated by new atomic code, or converted to UPF format
     Using radial grid of  849 points,  6 beta functions with:
                l(1) =   0
                l(2) =   0
                l(3) =   1
                l(4) =   1
                l(5) =   2
                l(6) =   2
     Q(r) pseudized with  6 coefficients,  rinner =    1.200   1.200   1.200
                                                       1.200   1.200

     vdW kernel table read from file vdW_kernel_table
     MD5 check sum: 095c7af220d748ca6e76c0b4c6cfb241

     atomic species   valence    mass     pseudopotential
        V1            13.00    50.94150     V ( 1.00)
        Sc1           11.00    44.95591     Sc( 1.00)

     No symmetry found

   Cartesian axes

     site n.     atom                  positions (alat units)
         1           V1  tau(   1) = (   0.0000000   0.0000000  10.0000000  )
         2           V1  tau(   2) = (  -1.4100474   2.4422737  10.0000000  )
         3           V1  tau(   3) = (   1.4100474   2.4422737  10.0000000  )
         4           Sc1 tau(   4) = (   2.8200948   0.0000000  10.0000000  )
         5           V1  tau(   5) = (   2.8200948   1.6281825  12.3025977  )
         6           V1  tau(   6) = (   1.4100474   4.0704562  12.3025977  )
         7           V1  tau(   7) = (  -1.4100474   4.0704562  12.3025977  )
         8           Sc1 tau(   8) = (   0.0000000   1.6281825  12.3025977  )
         9           V1  tau(   9) = (  -0.0000000   3.2563649  14.6051955  )
        10           V1  tau(  10) = (   1.4100474   0.8140912  14.6051955  )
        11           V1  tau(  11) = (   4.2301421   0.8140912  14.6051955  )
        12           Sc1 tau(  12) = (   2.8200948   3.2563649  14.6051955  )

     number of k points=    20  Fermi-Dirac smearing, width (Ry)=  0.0110
                       cart. coord. in units 2pi/alat
        k(    1) = (   0.0000000   0.0000000   0.0000000), wk =   0.0555556
        k(    2) = (   0.0000000   0.0341212   0.0000000), wk =   0.1111111
        k(    3) = (   0.0000000   0.0682424   0.0000000), wk =   0.1111111
        k(    4) = (   0.0000000  -0.1023636   0.0000000), wk =   0.0555556
        k(    5) = (   0.0295498   0.0170606   0.0000000), wk =   0.1111111
        k(    6) = (   0.0295498   0.0511818   0.0000000), wk =   0.1111111
        k(    7) = (   0.0295498   0.0853030   0.0000000), wk =   0.1111111
        k(    8) = (   0.0295498  -0.0853030   0.0000000), wk =   0.1111111
        k(    9) = (   0.0295498  -0.0511818   0.0000000), wk =   0.1111111
        k(   10) = (   0.0295498  -0.0170606   0.0000000), wk =   0.1111111
        k(   11) = (   0.0590997   0.0341212   0.0000000), wk =   0.1111111
        k(   12) = (   0.0590997   0.0682424   0.0000000), wk =   0.1111111
        k(   13) = (   0.0590997   0.1023636   0.0000000), wk =   0.1111111
        k(   14) = (   0.0590997  -0.0682424   0.0000000), wk =   0.1111111
        k(   15) = (   0.0590997  -0.0341212   0.0000000), wk =   0.1111111
        k(   16) = (   0.0590997   0.0000000   0.0000000), wk =   0.1111111
        k(   17) = (  -0.0886495  -0.0511818   0.0000000), wk =   0.0555556
        k(   18) = (  -0.0886495  -0.0170606   0.0000000), wk =   0.1111111
        k(   19) = (  -0.0886495   0.0170606   0.0000000), wk =   0.1111111
        k(   20) = (  -0.0886495  -0.1535454   0.0000000), wk =   0.0555556

     Largest allocated arrays     est. size (Mb)     dimensions
     Largest temporary arrays     est. size (Mb)     dimensions

     Check: negative/imaginary core charge=   -0.000001    0.000000

     Initial potential from superposition of free atoms
     Check: negative starting charge=   -0.007555

     starting charge  149.98175, renormalised to  150.00000

     negative rho (up, down):  7.556E-03 0.000E+00

     *
     * You are using vdW-DF for exchange-correlation in this calculation.
     * Please cite the following three references that made this development
     * possible:
     *
     *   M. Dion, H. Rydberg, E. Schroder, D. C. Langreth, and
     *   B. I. Lundqvist, Phys. Rev. Lett. 92, 246401 (2004).
     *
     *   T. Thonhauser, V. R. Cooper, S. Li, A. Puzder, P. Hyldgaard, and
     *   D. C. Langreth, Phys. Rev. B 76, 125112 (2007).
     *
     *   G. Roman-Perez and J. M. Soler, Phys. Rev. Lett. 103, 096102 (2009).
     *
     *
     * If you are using vdW-DF2, please also cite:
     *
     *   K. Lee, E. D. Murray, L. Kong, B. I. Lundqvist, and
     *   D. C. Langreth, Phys. Rev. B 82, 081101(R) (2010).
     *
     *
     * If you are calculating the stress with vdW-DF, please also cite:
     *
     *   R. Sabatini, E. Kucukbenli, B. Kolb, T. Thonhauser, and
     *   S. de Gironcoli, J. Phys.: Condens. Matter 24, 424209 (2012).
     *

     Carrying out vdW-DF run using the following parameters:

     Nqs =      20    Nr_points =    1024   r_max =   100.000
     q_mesh =
               0.00001000     0.04494208     0.09755937     0.15916263
               0.23128650     0.31572767     0.41458969     0.53033537
               0.66584808     0.82450364     1.01025438     1.22772762
               1.48234092     1.78043706     2.12944203     2.53805004
               3.01644009     3.57652955     4.23227104     5.00000000

     Gradients computed in reciprocal space

     Adding external electric field

     Computed dipole along edir(3) :
        Dipole               -0.0000 Ry au,         -0.0000 Debye
        Dipole field         -0.0000 Ry au

        Potential amp.        0.0000 Ry
        Total length         45.3347 bohr

     Starting wfc are  129 randomized atomic wfcs

     Self-consistent Calculation

     iteration #  1     ecut=    36.75 Ry     beta=0.10
     Davidson diagonalization with overlap
     ethr =  1.00E-02,  avg # of iterations =  2.3

[...]

     total energy              =   -1594.40780980 Ry
     Harris-Foulkes estimate   =   -1596.58418072 Ry
     estimated scf accuracy    <      11.99638062 Ry

[...]

     iteration # 14     ecut=    36.75 Ry     beta=0.10
     Davidson diagonalization with overlap
     c_bands:  1 eigenvalues not converged
     ethr =  1.74E-06,  avg # of iterations =  3.6

[...]

     End of self-consistent calculation

          k = 0.0000 0.0000 0.0000 ( 17255 PWs)   bands (ev):

   -63.4987 -63.4460 -63.4457 -63.4392 -63.4308 -63.3924 -63.3924 -63.3902
   -63.3902 -48.4111 -48.4105 -47.8678 -37.4979 -37.4101 -37.4076 -37.4075
   -37.3930 -37.3733 -37.3690 -37.3690 -37.3053 -37.3052 -37.2930 -37.2502
   -37.2502 -37.2323 -37.2322 -37.1992 -37.1580 -37.1531 -37.1530 -37.1245
   -37.1012 -37.0989 -37.0987 -37.0364 -37.0364 -37.0350 -37.0350 -27.0737
   -27.0633 -27.0359 -27.0359 -27.0332 -27.0332 -26.5424 -26.5164 -26.5164
    -4.8516  -3.4610  -2.2887  -1.7824  -1.7823  -1.6560  -1.6536  -1.6536
    -1.4001  -1.1657  -1.1657  -1.0561  -1.0120  -1.0013  -1.0013  -0.3459
    -0.2639  -0.2639   0.4464   0.5875   0.5875   0.5877   0.7360   0.9337
     1.0403   1.0403   1.1103   1.2720   1.2720   1.2774   1.3642   1.3643
     1.4614   1.4614   1.5581   1.5582   1.5778   1.8130   1.8131   1.9723
     2.0997   2.2710   2.2710   2.5063   2.5064   2.6504   2.6504   2.7346
     2.7806   2.7807   2.9138   3.3277   3.4042   3.4601   3.6770   3.6770
     3.9022

[...]

          k =-0.0886-0.0512 0.0000 ( 17248 PWs)   bands (ev):

[...]

     the Fermi energy is     0.7759 ev

!    total energy              =   -1595.84666802 Ry
     Harris-Foulkes estimate   =   -1595.84666787 Ry
     estimated scf accuracy    <       0.00000084 Ry

     The total energy is the sum of the following terms:

     one-electron contribution =  -12452.43328763 Ry
     hartree contribution      =    6212.17082166 Ry
     xc contribution           =    -224.77125242 Ry
     ewald contribution        =    4869.33728440 Ry
     electric field correction =       0.00000002 Ry
     smearing contrib. (-TS)   =      -0.15023404 Ry

     convergence has been achieved in  26 iterations

 BEEF-vdW xc energy contributions
           1 :   -193.082181711848
           2 :    172.611470232855
           3 :   -139.163240558975
           4 :    103.765837688557
           5 :   -75.6790889575989
           6 :    58.7570286899855
           7 :   -51.1770600771630
           8 :    48.0295992827603
           9 :   -44.7797102410416
[...]

     PseudoPot. # 1 for V  read from file:
     /afs/slac.stanford.edu/u/if/mamunm/psp/gbrv1.5pbe/V.UPF
     MD5 check sum: 22b79981416ebb76fdaf5b1b8640f6fb
     Pseudo is Ultrasoft + core correction, Zval = 13.0
     Generated by new atomic code, or converted to UPF format
     Using radial grid of  853 points,  6 beta functions with:
                l(1) =   0
                l(2) =   0
                l(3) =   1
                l(4) =   1
                l(5) =   2
                l(6) =   2
     Q(r) pseudized with  8 coefficients,  rinner =    1.100   1.100   1.100
                                                       1.100   1.100

     PseudoPot. # 2 for Sc read from file:
     /afs/slac.stanford.edu/u/if/mamunm/psp/gbrv1.5pbe/Sc.UPF
     MD5 check sum: db30a2753ba66ef00f23801d899b7e7f
     Pseudo is Ultrasoft + core correction, Zval = 11.0
     Generated by new atomic code, or converted to UPF format
     Using radial grid of  849 points,  6 beta functions with:
                l(1) =   0
                l(2) =   0
                l(3) =   1
                l(4) =   1
                l(5) =   2
                l(6) =   2
     Q(r) pseudized with  6 coefficients,  rinner =    1.200   1.200   1.200
                                                       1.200   1.200

     vdW kernel table read from file vdW_kernel_table
     MD5 check sum: 095c7af220d748ca6e76c0b4c6cfb241

     atomic species   valence    mass     pseudopotential
        V1            13.00    50.94150     V ( 1.00)
        Sc1           11.00    44.95591     Sc( 1.00)

     No symmetry found

   Cartesian axes

     site n.     atom                  positions (alat units)
         1           V1  tau(   1) = (   0.0000000   0.0000000  10.0000000  )
         2           V1  tau(   2) = (  -1.4100474   2.4422737  10.0000000  )
         3           V1  tau(   3) = (   1.4100474   2.4422737  10.0000000  )
         4           Sc1 tau(   4) = (   2.8200948   0.0000000  10.0000000  )
         5           V1  tau(   5) = (   2.8200948   1.6281825  12.3025977  )
         6           V1  tau(   6) = (   1.4100474   4.0704562  12.3025977  )
         7           V1  tau(   7) = (  -1.4100474   4.0704562  12.3025977  )
         8           Sc1 tau(   8) = (   0.0000000   1.6281825  12.3025977  )
         9           V1  tau(   9) = (   0.0000242   3.4670265  14.3699348  )
        10           V1  tau(  10) = (   1.5924430   0.7086934  14.3699719  )
        11           V1  tau(  11) = (   4.0477890   0.7086873  14.3699601  )
        12           Sc1 tau(  12) = (   2.8201287   3.2561839  14.9364442  )

     number of k points=    20  Fermi-Dirac smearing, width (Ry)=  0.0110
                       cart. coord. in units 2pi/alat
        k(    1) = (   0.0000000   0.0000000   0.0000000), wk =   0.0555556
        k(    2) = (   0.0000000   0.0341212   0.0000000), wk =   0.1111111
        k(    3) = (   0.0000000   0.0682424   0.0000000), wk =   0.1111111
        k(    4) = (   0.0000000  -0.1023636   0.0000000), wk =   0.0555556
        k(    5) = (   0.0295498   0.0170606   0.0000000), wk =   0.1111111
        k(    6) = (   0.0295498   0.0511818   0.0000000), wk =   0.1111111
        k(    7) = (   0.0295498   0.0853030   0.0000000), wk =   0.1111111
        k(    8) = (   0.0295498  -0.0853030   0.0000000), wk =   0.1111111
        k(    9) = (   0.0295498  -0.0511818   0.0000000), wk =   0.1111111
        k(   10) = (   0.0295498  -0.0170606   0.0000000), wk =   0.1111111
        k(   11) = (   0.0590997   0.0341212   0.0000000), wk =   0.1111111
        k(   12) = (   0.0590997   0.0682424   0.0000000), wk =   0.1111111
        k(   13) = (   0.0590997   0.1023636   0.0000000), wk =   0.1111111
        k(   14) = (   0.0590997  -0.0682424   0.0000000), wk =   0.1111111
        k(   15) = (   0.0590997  -0.0341212   0.0000000), wk =   0.1111111
        k(   16) = (   0.0590997   0.0000000   0.0000000), wk =   0.1111111
        k(   17) = (  -0.0886495  -0.0511818   0.0000000), wk =   0.0555556
        k(   18) = (  -0.0886495  -0.0170606   0.0000000), wk =   0.1111111
        k(   19) = (  -0.0886495   0.0170606   0.0000000), wk =   0.1111111
        k(   20) = (  -0.0886495  -0.1535454   0.0000000), wk =   0.0555556

     Largest allocated arrays     est. size (Mb)     dimensions
     Largest temporary arrays     est. size (Mb)     dimensions

     Check: negative/imaginary core charge=   -0.000001    0.000000

     Initial potential from superposition of free atoms
     Check: negative starting charge=   -0.007494

     starting charge  149.98175, renormalised to  150.00000

[...]

     *
     * You are using vdW-DF for exchange-correlation in this calculation.
     * Please cite the following three references that made this development
     * possible:
     *
     *   M. Dion, H. Rydberg, E. Schroder, D. C. Langreth, and
     *   B. I. Lundqvist, Phys. Rev. Lett. 92, 246401 (2004).
     *
     *   T. Thonhauser, V. R. Cooper, S. Li, A. Puzder, P. Hyldgaard, and
     *   D. C. Langreth, Phys. Rev. B 76, 125112 (2007).
     *
     *   G. Roman-Perez and J. M. Soler, Phys. Rev. Lett. 103, 096102 (2009).
     *
     *
     * If you are using vdW-DF2, please also cite:
     *
     *   K. Lee, E. D. Murray, L. Kong, B. I. Lundqvist, and
     *   D. C. Langreth, Phys. Rev. B 82, 081101(R) (2010).
     *
     *
     * If you are calculating the stress with vdW-DF, please also cite:
     *
     *   R. Sabatini, E. Kucukbenli, B. Kolb, T. Thonhauser, and
     *   S. de Gironcoli, J. Phys.: Condens. Matter 24, 424209 (2012).
     *

     Carrying out vdW-DF run using the following parameters:

     Nqs =      20    Nr_points =    1024   r_max =   100.000
     q_mesh =
               0.00001000     0.04494208     0.09755937     0.15916263
               0.23128650     0.31572767     0.41458969     0.53033537
               0.66584808     0.82450364     1.01025438     1.22772762
               1.48234092     1.78043706     2.12944203     2.53805004
               3.01644009     3.57652955     4.23227104     5.00000000

     Gradients computed in reciprocal space

[...]

     Starting wfc are  129 randomized atomic wfcs

     Self-consistent Calculation

[...]

     total energy              =   -1595.91022405 Ry
     Harris-Foulkes estimate   =   -1595.91022381 Ry
     estimated scf accuracy    <       0.00000137 Ry

     iteration # 27     ecut=    36.75 Ry     beta=0.10
     Davidson diagonalization with overlap
     ethr =  9.13E-10,  avg # of iterations =  1.2

[...]

     negative rho (up, down):  8.992E-03 0.000E+00

     Adding external electric field

     Computed dipole along edir(3) :
        Dipole                0.1683 Ry au,          0.4277 Debye
        Dipole field          0.0005 Ry au

        Potential amp.       -0.0419 Ry
        Total length         45.3347 bohr

     End of self-consistent calculation

[...]

          k = 0.0591 0.0000 0.0000 ( 17210 PWs)   bands (ev):

[...]

          k =-0.0886-0.1535 0.0000 ( 17248 PWs)   bands (ev):

   -63.2494 -63.2328 -63.2090 -63.2051 -63.2010 -63.1853 -63.1213 -63.0288
   -63.0240 -48.7783 -48.2124 -47.7565 -37.3617 -37.2459 -37.1974 -37.1922
   -37.1729 -37.1187 -37.1175 -37.0829 -37.0797 -37.0609 -37.0288 -37.0236
   -37.0199 -36.9942 -36.9900 -36.9857 -36.9841 -36.8970 -36.8901 -36.8612
   -36.8442 -36.7853 -36.7696 -36.7678 -36.6857 -36.6792 -36.6408 -27.4451
   -27.3524 -27.3463 -26.8702 -26.8525 -26.8420 -26.4564 -26.4165 -26.4058
    -3.1350  -3.0095  -1.8441  -1.8230  -1.3531  -1.1591  -1.0204  -0.8620
    -0.8209  -0.7984  -0.4969  -0.4217  -0.3392  -0.1918  -0.1175  -0.0228
     0.0295   0.1413   0.2075   0.2798   0.3098   0.3445   0.5411   0.5791
     0.6128   0.6585   0.7205   0.7419   0.8808   0.9626   1.1334   1.2190
     1.2381   1.3542   1.4981   1.6922   1.7022   1.7625   1.8581   1.9048
     2.0894   2.1866   2.2122   2.3292   2.3769   2.4642   2.5150   2.5829
     2.7377   2.7946   2.9681   3.0401   3.0431   3.4001   3.4380   3.5262
     3.7305

     the Fermi energy is     0.9681 ev

!    total energy              =   -1595.91022500 Ry
     Harris-Foulkes estimate   =   -1595.91022345 Ry
     estimated scf accuracy    <       0.00000030 Ry

     The total energy is the sum of the following terms:

     one-electron contribution =  -12646.85767463 Ry
     hartree contribution      =    6310.38220151 Ry
     xc contribution           =    -225.00274466 Ry
     ewald contribution        =    4965.69876755 Ry
     electric field correction =       0.00007778 Ry
     smearing contrib. (-TS)   =      -0.13085254 Ry

     convergence has been achieved in  27 iterations

 BEEF-vdW xc energy contributions
           1 :   -193.376304683645
           2 :    172.983795793770
           3 :   -139.619524512535
           4 :    104.201088673338
           5 :   -75.9170070610471
           6 :    58.6698470264809
           7 :   -50.7984074108483
           8 :    47.5535176279953
           9 :   -44.4359637118453
          10 :    39.4238330592513
          11 :   -33.1717363599784
          12 :    27.5992468634797
          13 :   -24.1360421944511
          14 :    22.7851722741365
          15 :   -22.3892851386138
          16 :    21.6290415247136
          17 :   -19.9281001088581
          18 :    17.6712098211270
          19 :   -15.7208931551765
          20 :    14.6898662963219
          21 :   -14.5201094025013
          22 :    14.6107808745647
          23 :   -14.3194140683517
          24 :    13.4211798439120
          25 :   -12.2042557624503
          26 :    11.1818935684044
          27 :   -10.6859049254888
          28 :    10.6533960304093
          29 :   -10.7330345962877
          30 :    10.5808243780959
          31 :   -20.4747245535927
          32 :   -14.7389838389249

     Forces acting on atoms (Ry/au):

     negative rho (up, down):  8.992E-03 0.000E+00
     atom    1 type  1   force =    -0.00000300   -0.01749996    0.02434487
     atom    2 type  1   force =    -0.01516359    0.00875342    0.02433928
     atom    3 type  1   force =     0.01515426    0.00875206    0.02435452
     atom    4 type  2   force =    -0.00000404    0.00000014   -0.03380540
     atom    5 type  1   force =     0.00000211    0.02877780   -0.00943931
     atom    6 type  1   force =     0.02492705   -0.01438776   -0.00943691
     atom    7 type  1   force =    -0.02493358   -0.01439378   -0.00944503
     atom    8 type  2   force =     0.00003416   -0.00001028   -0.01161957
     atom    9 type  1   force =    -0.00000234    0.00031304    0.00056600
     atom   10 type  1   force =     0.00027864   -0.00016153    0.00056093
     atom   11 type  1   force =    -0.00028131   -0.00015977    0.00056516
     atom   12 type  2   force =    -0.00000835    0.00001662   -0.00098454

     Total force =     0.082037     Total SCF correction =     0.001207

     entering subroutine stress ...

     negative rho (up, down):  8.992E-03 0.000E+00
          total   stress  (Ry/bohr**3)                   (kbar)     P=   -7.13
  -0.00005174   0.00000000   0.00000000         -7.61      0.00      0.00
   0.00000000  -0.00005172   0.00000000          0.00     -7.61      0.00
   0.00000000   0.00000000  -0.00004186          0.00      0.00     -6.16

 !ASE

     Writing output data file calc.save

     General routines

     Parallel routines

   This run was terminated on:   8:48:40   2Jan2019

   JOB DONE.
Job  /afs/slac/g/suncat/bin/suncat-tsmpirun -x LD_LIBRARY_PATH -wdir /scratch/qe649327_VXXRk pw.x -in pw.inp

TID   HOST_NAME   COMMAND_LINE            STATUS            TERMINATION_TIME
00000 suncat0259 pw.x -in pw.inp   Done                     01/02/2019 08:48:40
00001 suncat0259 pw.x -in pw.inp   Done                     01/02/2019 08:48:40
00002 suncat0259 pw.x -in pw.inp   Done                     01/02/2019 08:48:40
00003 suncat0259 pw.x -in pw.inp   Done                     01/02/2019 08:48:40
00004 suncat0259 pw.x -in pw.inp   Done                     01/02/2019 08:48:40
00005 suncat0259 pw.x -in pw.inp   Done                     01/02/2019 08:48:40
00006 suncat0259 pw.x -in pw.inp   Done                     01/02/2019 08:48:40
00007 suncat0259 pw.x -in pw.inp   Done                     01/02/2019 08:48:40
00008 suncat0256 pw.x -in pw.inp   Done                     01/02/2019 08:48:40
00009 suncat0256 pw.x -in pw.inp   Done                     01/02/2019 08:48:40
00010 suncat0256 pw.x -in pw.inp   Done                     01/02/2019 08:48:40
00011 suncat0256 pw.x -in pw.inp   Done                     01/02/2019 08:48:40
00012 suncat0256 pw.x -in pw.inp   Done                     01/02/2019 08:48:40
00013 suncat0256 pw.x -in pw.inp   Done                     01/02/2019 08:48:40
00014 suncat0256 pw.x -in pw.inp   Done                     01/02/2019 08:48:40
00015 suncat0256 pw.x -in pw.inp   Done                     01/02/2019 08:48:40
00016 suncat0255 pw.x -in pw.inp   Done                     01/02/2019 08:48:40
00017 suncat0255 pw.x -in pw.inp   Done                     01/02/2019 08:48:40
00018 suncat0255 pw.x -in pw.inp   Done                     01/02/2019 08:48:40
00019 suncat0255 pw.x -in pw.inp   Done                     01/02/2019 08:48:40
00020 suncat0255 pw.x -in pw.inp   Done                     01/02/2019 08:48:40
00021 suncat0255 pw.x -in pw.inp   Done                     01/02/2019 08:48:40
00022 suncat0255 pw.x -in pw.inp   Done                     01/02/2019 08:48:40
00023 suncat0255 pw.x -in pw.inp   Done                     01/02/2019 08:48:40
00024 suncat0232 pw.x -in pw.inp   Done                     01/02/2019 08:48:40
00025 suncat0232 pw.x -in pw.inp   Done                     01/02/2019 08:48:40
00026 suncat0232 pw.x -in pw.inp   Done                     01/02/2019 08:48:40
00027 suncat0232 pw.x -in pw.inp   Done                     01/02/2019 08:48:40
00028 suncat0232 pw.x -in pw.inp   Done                     01/02/2019 08:48:40
00029 suncat0232 pw.x -in pw.inp   Done                     01/02/2019 08:48:40
00030 suncat0232 pw.x -in pw.inp   Done                     01/02/2019 08:48:40
00031 suncat0232 pw.x -in pw.inp   Done                     01/02/2019 08:48:40
00032 suncat0220 pw.x -in pw.inp   Done                     01/02/2019 08:48:40
00033 suncat0220 pw.x -in pw.inp   Done                     01/02/2019 08:48:40
00034 suncat0220 pw.x -in pw.inp   Done                     01/02/2019 08:48:40
00035 suncat0220 pw.x -in pw.inp   Done                     01/02/2019 08:48:40
00036 suncat0220 pw.x -in pw.inp   Done                     01/02/2019 08:48:40
00037 suncat0220 pw.x -in pw.inp   Done                     01/02/2019 08:48:40
00038 suncat0220 pw.x -in pw.inp   Done                     01/02/2019 08:48:40
00039 suncat0220 pw.x -in pw.inp   Done                     01/02/2019 08:48:40
00040 suncat0219 pw.x -in pw.inp   Done                     01/02/2019 08:48:40
00041 suncat0219 pw.x -in pw.inp   Done                     01/02/2019 08:48:40
00042 suncat0219 pw.x -in pw.inp   Done                     01/02/2019 08:48:40
00043 suncat0219 pw.x -in pw.inp   Done                     01/02/2019 08:48:40
00044 suncat0219 pw.x -in pw.inp   Done                     01/02/2019 08:48:40
00045 suncat0219 pw.x -in pw.inp   Done                     01/02/2019 08:48:40
00046 suncat0219 pw.x -in pw.inp   Done                     01/02/2019 08:48:40
00047 suncat0219 pw.x -in pw.inp   Done                     01/02/2019 08:48:40
00048 suncat0201 pw.x -in pw.inp   Done                     01/02/2019 08:48:40
00049 suncat0201 pw.x -in pw.inp   Done                     01/02/2019 08:48:40
00050 suncat0201 pw.x -in pw.inp   Done                     01/02/2019 08:48:40
00051 suncat0201 pw.x -in pw.inp   Done                     01/02/2019 08:48:40
00052 suncat0201 pw.x -in pw.inp   Done                     01/02/2019 08:48:40
00053 suncat0201 pw.x -in pw.inp   Done                     01/02/2019 08:48:40
00054 suncat0201 pw.x -in pw.inp   Done                     01/02/2019 08:48:40
00055 suncat0201 pw.x -in pw.inp   Done                     01/02/2019 08:48:40
00056 suncat0200 pw.x -in pw.inp   Done                     01/02/2019 08:48:40
00057 suncat0200 pw.x -in pw.inp   Done                     01/02/2019 08:48:40
00058 suncat0200 pw.x -in pw.inp   Done                     01/02/2019 08:48:40
00059 suncat0200 pw.x -in pw.inp   Done                     01/02/2019 08:48:40
00060 suncat0200 pw.x -in pw.inp   Done                     01/02/2019 08:48:40
00061 suncat0200 pw.x -in pw.inp   Done                     01/02/2019 08:48:40
00062 suncat0200 pw.x -in pw.inp   Done                     01/02/2019 08:48:40
00063 suncat0200 pw.x -in pw.inp   Done                     01/02/2019 08:48:40