     Program PWSCF v.5.1rc2 (svn rev. 11289) starts on  2Jan2019 at 18:43:27

     Current dimensions of program PWSCF are:
     Max number of different atomic species (ntypx) = 10
     Max number of k-points (npk) =  40000
     Max angular momentum in pseudopotentials (lmaxx) =  3
     Presently stress not available with electric field

     IMPORTANT: XC functional enforced from input :
     Exchange-correlation      = BEEF-VDW ( 1  4 27 13 2)
     Any further DFT definition will be discarded
     Please, verify this is what you really want

     Subspace diagonalization in iterative solution of the eigenvalue problem:
     a serial algorithm will be used

     bravais-lattice index     =            0
     lattice parameter (alat)  =       1.8897  a.u.
     unit-cell volume          =    4294.4888 (a.u.)^3
     number of atoms/cell      =           12
     number of atomic types    =            2
     number of electrons       =       222.00
     number of Kohn-Sham states=          141
     kinetic-energy cutoff     =      36.7493  Ry
     charge density cutoff     =     367.4932  Ry
     convergence threshold     =      1.0E-06
     mixing beta               =       0.1000
     number of iterations used =           10  plain     mixing
     Exchange-correlation      = BEEF-VDW ( 1  4 27 13 2)
     nstep                     =           50

     celldm(1)=   1.889726  celldm(2)=   0.000000  celldm(3)=   0.000000
     celldm(4)=   0.000000  celldm(5)=   0.000000  celldm(6)=   0.000000

     crystal axes: (cart. coord. in units of alat)
               a(1) = (   5.479486   0.000000   0.000000 )
               a(2) = (  -2.739743   4.745374   0.000000 )
               a(3) = (   0.000000   0.000000  24.473981 )

     reciprocal axes: (cart. coord. in units 2 pi/alat)
               b(1) = (  0.182499  0.105366  0.000000 )
               b(2) = (  0.000000  0.210732  0.000000 )
               b(3) = (  0.000000  0.000000  0.040860 )

     PseudoPot. # 1 for Zn read from file:
     /afs/slac.stanford.edu/u/if/mamunm/psp/gbrv1.5pbe/Zn.UPF
     MD5 check sum: df62231357ef9e81f77b2b3087fa5675
     Pseudo is Ultrasoft, Zval = 20.0
     Generated by new atomic code, or converted to UPF format
     Using radial grid of  943 points,  6 beta functions with:
                l(1) =   0
                l(2) =   0
                l(3) =   1
                l(4) =   1
                l(5) =   2
                l(6) =   2
     Q(r) pseudized with  8 coefficients,  rinner =    1.100   1.100   1.100
                                                       1.100   1.100

     PseudoPot. # 2 for W  read from file:
     /afs/slac.stanford.edu/u/if/mamunm/psp/gbrv1.5pbe/W.UPF
     MD5 check sum: 9c083fa34c2a2ea0f02f1f893e16e1c8
     Pseudo is Ultrasoft + core correction, Zval = 14.0
     Generated by new atomic code, or converted to UPF format
     Using radial grid of  923 points,  8 beta functions with:
                l(1) =   0
                l(2) =   0
                l(3) =   0
                l(4) =   1
                l(5) =   1
                l(6) =   2
                l(7) =   2
                l(8) =   3
     Q(r) pseudized with  6 coefficients,  rinner =    1.350   1.350   1.350
                                                       1.350   1.350   1.350
                                                       1.350

     vdW kernel table read from file vdW_kernel_table
     MD5 check sum: 095c7af220d748ca6e76c0b4c6cfb241

     atomic species   valence    mass     pseudopotential
        Zn1           20.00    65.38000     Zn( 1.00)
        W1            14.00   183.84000     W ( 1.00)

     No symmetry found

   Cartesian axes

     site n.     atom                  positions (alat units)
         1           Zn1 tau(   1) = (   0.0000000   0.0000000  10.0000000  )
         2           Zn1 tau(   2) = (  -1.3698715   2.3726870  10.0000000  )
         3           Zn1 tau(   3) = (   1.3698715   2.3726870  10.0000000  )
         4           W1  tau(   4) = (   2.7397429   0.0000000  10.0000000  )
         5           Zn1 tau(   5) = (   2.7397429   1.5817913  12.2369907  )
         6           Zn1 tau(   6) = (   1.3698715   3.9544783  12.2369907  )
         7           Zn1 tau(   7) = (  -1.3698715   3.9544783  12.2369907  )
         8           W1  tau(   8) = (   0.0000000   1.5817913  12.2369907  )
         9           Zn1 tau(   9) = (  -0.0000000   3.1635826  14.4739814  )
        10           Zn1 tau(  10) = (   1.3698715   0.7908957  14.4739814  )
        11           Zn1 tau(  11) = (   4.1096144   0.7908957  14.4739814  )
        12           W1  tau(  12) = (   2.7397429   3.1635826  14.4739814  )

     number of k points=    20  Fermi-Dirac smearing, width (Ry)=  0.0110
                       cart. coord. in units 2pi/alat
        k(    1) = (   0.0000000   0.0000000   0.0000000), wk =   0.0555556
        k(    2) = (   0.0000000   0.0351219   0.0000000), wk =   0.1111111
        k(    3) = (   0.0000000   0.0702439   0.0000000), wk =   0.1111111
        k(    4) = (   0.0000000  -0.1053658   0.0000000), wk =   0.0555556
        k(    5) = (   0.0304165   0.0175610   0.0000000), wk =   0.1111111
        k(    6) = (   0.0304165   0.0526829   0.0000000), wk =   0.1111111
        k(    7) = (   0.0304165   0.0878048   0.0000000), wk =   0.1111111
        k(    8) = (   0.0304165  -0.0878048   0.0000000), wk =   0.1111111
        k(    9) = (   0.0304165  -0.0526829   0.0000000), wk =   0.1111111
        k(   10) = (   0.0304165  -0.0175610   0.0000000), wk =   0.1111111
        k(   11) = (   0.0608330   0.0351219   0.0000000), wk =   0.1111111
        k(   12) = (   0.0608330   0.0702439   0.0000000), wk =   0.1111111
        k(   13) = (   0.0608330   0.1053658   0.0000000), wk =   0.1111111
        k(   14) = (   0.0608330  -0.0702439   0.0000000), wk =   0.1111111
        k(   15) = (   0.0608330  -0.0351219   0.0000000), wk =   0.1111111
        k(   16) = (   0.0608330   0.0000000   0.0000000), wk =   0.1111111
        k(   17) = (  -0.0912494  -0.0526829   0.0000000), wk =   0.0555556
        k(   18) = (  -0.0912494  -0.0175610   0.0000000), wk =   0.1111111
        k(   19) = (  -0.0912494   0.0175610   0.0000000), wk =   0.1111111
        k(   20) = (  -0.0912494  -0.1580487   0.0000000), wk =   0.0555556

     Largest allocated arrays     est. size (Mb)     dimensions
     Largest temporary arrays     est. size (Mb)     dimensions

     Initial potential from superposition of free atoms
     Check: negative starting charge=   -0.190857

     starting charge  221.69771, renormalised to  222.00000

     negative rho (up, down):  1.911E-01 0.000E+00

     *
     * You are using vdW-DF for exchange-correlation in this calculation.
     * Please cite the following three references that made this development
     * possible:
     *
     *   M. Dion, H. Rydberg, E. Schroder, D. C. Langreth, and
     *   B. I. Lundqvist, Phys. Rev. Lett. 92, 246401 (2004).
     *
     *   T. Thonhauser, V. R. Cooper, S. Li, A. Puzder, P. Hyldgaard, and
     *   D. C. Langreth, Phys. Rev. B 76, 125112 (2007).
     *
     *   G. Roman-Perez and J. M. Soler, Phys. Rev. Lett. 103, 096102 (2009).
     *
     *
     * If you are using vdW-DF2, please also cite:
     *
     *   K. Lee, E. D. Murray, L. Kong, B. I. Lundqvist, and
     *   D. C. Langreth, Phys. Rev. B 82, 081101(R) (2010).
     *
     *
     * If you are calculating the stress with vdW-DF, please also cite:
     *
     *   R. Sabatini, E. Kucukbenli, B. Kolb, T. Thonhauser, and
     *   S. de Gironcoli, J. Phys.: Condens. Matter 24, 424209 (2012).
     *

     Carrying out vdW-DF run using the following parameters:

     Nqs =      20    Nr_points =    1024   r_max =   100.000
     q_mesh =
               0.00001000     0.04494208     0.09755937     0.15916263
               0.23128650     0.31572767     0.41458969     0.53033537
               0.66584808     0.82450364     1.01025438     1.22772762
               1.48234092     1.78043706     2.12944203     2.53805004
               3.01644009     3.57652955     4.23227104     5.00000000

     Gradients computed in reciprocal space

     Adding external electric field

     Computed dipole along edir(3) :
        Dipole               -0.0000 Ry au,         -0.0000 Debye
        Dipole field         -0.0000 Ry au

        Potential amp.        0.0000 Ry
        Total length         45.0929 bohr

     Starting wfc are  156 randomized atomic wfcs

     Self-consistent Calculation

     iteration #  1     ecut=    36.75 Ry     beta=0.10
     Davidson diagonalization with overlap
     ethr =  1.00E-02,  avg # of iterations =  7.7

     Threshold (ethr) on eigenvalues was too large:
     Diagonalizing with lowered threshold

     Davidson diagonalization with overlap
     ethr =  7.41E-04,  avg # of iterations =  3.1

[...]

     total energy              =   -4645.91197210 Ry
     Harris-Foulkes estimate   =   -4646.19253868 Ry
     estimated scf accuracy    <       1.64158119 Ry

[...]

     End of self-consistent calculation

          k = 0.0000 0.0000 0.0000 ( 16061 PWs)   bands (ev):

  -125.3624-125.3611-125.3611-125.0740-125.0738-125.0727-125.0727-125.0726
  -125.0726 -79.5696 -79.5592 -79.5592 -79.5341 -79.5341 -79.5280 -79.5085
   -79.5021 -79.5021 -79.2816 -79.2815 -79.2713 -79.2713 -79.2711 -79.2711
   -79.2487 -79.2484 -79.2429 -79.2429 -79.2426 -79.2426 -79.2225 -79.2225
   -79.2224 -79.2224 -79.2170 -79.2169 -73.3151 -73.1960 -73.1959 -37.4286
   -37.4261 -37.4165 -37.4165 -37.4130 -37.1954 -37.1954 -37.1949 -37.1949
    -8.4019  -7.0084  -6.9398  -6.9238  -6.9157  -6.9157  -6.8651  -6.7605
    -6.7605  -6.6764  -6.6764  -6.6731  -6.5553  -6.4799  -6.4799  -6.3174
    -6.2981  -6.2981  -6.2452  -6.1928  -6.1928  -6.1717  -6.1596  -6.1596
    -6.1345  -6.1210  -6.1210  -5.8955  -5.8955  -5.8833  -5.8833  -5.8120
    -5.8120  -5.7985  -5.7985  -5.7878  -5.7561  -5.7561  -5.7185  -5.7012
    -5.7012  -5.6601  -5.6216  -5.5799  -5.5799  -5.4210  -5.4188  -3.4163
    -2.0873  -2.0873  -1.6308  -1.5356  -1.5356  -1.0072  -1.0072  -0.9460
    -0.0805  -0.0553  -0.0553   0.5245   0.9931   1.1672   1.1672   1.4479
     1.4479   1.4671   1.4671   2.3905   2.3905   2.4180   2.5982   2.9785
     2.9785   4.3098   4.9425   4.9447   5.4498   5.5352   5.5353   5.5988
     5.5988   5.6189   5.8507   6.4275   6.4275   6.5106   7.0982   8.2375
     8.4791   8.5335   8.5335   8.7970   8.9192

[...]

          k =-0.0912-0.0527 0.0000 ( 16164 PWs)   bands (ev):

[...]

     the Fermi energy is     1.0361 ev

!    total energy              =   -4645.90563153 Ry
     Harris-Foulkes estimate   =   -4645.90562920 Ry
     estimated scf accuracy    <       0.00000093 Ry

     The total energy is the sum of the following terms:

     one-electron contribution =  -31259.60100683 Ry
     hartree contribution      =   15614.11198905 Ry
     xc contribution           =    -518.44779064 Ry
     ewald contribution        =   11518.09005346 Ry
     electric field correction =       0.00000000 Ry
     smearing contrib. (-TS)   =      -0.05887657 Ry

     convergence has been achieved in  15 iterations

[...]
                                                       1.100   1.100

     PseudoPot. # 2 for W  read from file:
     /afs/slac.stanford.edu/u/if/mamunm/psp/gbrv1.5pbe/W.UPF
     MD5 check sum: 9c083fa34c2a2ea0f02f1f893e16e1c8
     Pseudo is Ultrasoft + core correction, Zval = 14.0
     Generated by new atomic code, or converted to UPF format
     Using radial grid of  923 points,  8 beta functions with:
                l(1) =   0
                l(2) =   0
                l(3) =   0
                l(4) =   1
                l(5) =   1
                l(6) =   2
                l(7) =   2
                l(8) =   3
     Q(r) pseudized with  6 coefficients,  rinner =    1.350   1.350   1.350
                                                       1.350   1.350   1.350
                                                       1.350

     vdW kernel table read from file vdW_kernel_table
     MD5 check sum: 095c7af220d748ca6e76c0b4c6cfb241

     atomic species   valence    mass     pseudopotential
        Zn1           20.00    65.38000     Zn( 1.00)
        W1            14.00   183.84000     W ( 1.00)

     No symmetry found

   Cartesian axes

     site n.     atom                  positions (alat units)
         1           Zn1 tau(   1) = (   0.0000000   0.0000000  10.0000000  )
         2           Zn1 tau(   2) = (  -1.3698715   2.3726870  10.0000000  )
         3           Zn1 tau(   3) = (   1.3698715   2.3726870  10.0000000  )
         4           W1  tau(   4) = (   2.7397429   0.0000000  10.0000000  )
         5           Zn1 tau(   5) = (   2.7397429   1.5817913  12.2369907  )
         6           Zn1 tau(   6) = (   1.3698715   3.9544783  12.2369907  )
         7           Zn1 tau(   7) = (  -1.3698715   3.9544783  12.2369907  )
         8           W1  tau(   8) = (   0.0000000   1.5817913  12.2369907  )
         9           Zn1 tau(   9) = (   0.0000024   3.1807011  14.6727926  )
        10           Zn1 tau(  10) = (   1.3846990   0.7823460  14.6727920  )
        11           Zn1 tau(  11) = (   4.0947882   0.7823418  14.6727902  )
        12           W1  tau(  12) = (   2.7397435   3.1635882  14.2906256  )

     number of k points=    20  Fermi-Dirac smearing, width (Ry)=  0.0110
                       cart. coord. in units 2pi/alat
        k(    1) = (   0.0000000   0.0000000   0.0000000), wk =   0.0555556
        k(    2) = (   0.0000000   0.0351219   0.0000000), wk =   0.1111111
        k(    3) = (   0.0000000   0.0702439   0.0000000), wk =   0.1111111
        k(    4) = (   0.0000000  -0.1053658   0.0000000), wk =   0.0555556
        k(    5) = (   0.0304165   0.0175610   0.0000000), wk =   0.1111111
        k(    6) = (   0.0304165   0.0526829   0.0000000), wk =   0.1111111
        k(    7) = (   0.0304165   0.0878048   0.0000000), wk =   0.1111111
        k(    8) = (   0.0304165  -0.0878048   0.0000000), wk =   0.1111111
        k(    9) = (   0.0304165  -0.0526829   0.0000000), wk =   0.1111111
        k(   10) = (   0.0304165  -0.0175610   0.0000000), wk =   0.1111111
        k(   11) = (   0.0608330   0.0351219   0.0000000), wk =   0.1111111
        k(   12) = (   0.0608330   0.0702439   0.0000000), wk =   0.1111111
        k(   13) = (   0.0608330   0.1053658   0.0000000), wk =   0.1111111
        k(   14) = (   0.0608330  -0.0702439   0.0000000), wk =   0.1111111
        k(   15) = (   0.0608330  -0.0351219   0.0000000), wk =   0.1111111
        k(   16) = (   0.0608330   0.0000000   0.0000000), wk =   0.1111111
        k(   17) = (  -0.0912494  -0.0526829   0.0000000), wk =   0.0555556
        k(   18) = (  -0.0912494  -0.0175610   0.0000000), wk =   0.1111111
        k(   19) = (  -0.0912494   0.0175610   0.0000000), wk =   0.1111111
        k(   20) = (  -0.0912494  -0.1580487   0.0000000), wk =   0.0555556

     Largest allocated arrays     est. size (Mb)     dimensions
     Largest temporary arrays     est. size (Mb)     dimensions

     Initial potential from superposition of free atoms
     Check: negative starting charge=   -0.189960

     starting charge  221.69771, renormalised to  222.00000

[...]

     *
     * You are using vdW-DF for exchange-correlation in this calculation.
     * Please cite the following three references that made this development
     * possible:
     *
     *   M. Dion, H. Rydberg, E. Schroder, D. C. Langreth, and
     *   B. I. Lundqvist, Phys. Rev. Lett. 92, 246401 (2004).
     *
     *   T. Thonhauser, V. R. Cooper, S. Li, A. Puzder, P. Hyldgaard, and
     *   D. C. Langreth, Phys. Rev. B 76, 125112 (2007).
     *
     *   G. Roman-Perez and J. M. Soler, Phys. Rev. Lett. 103, 096102 (2009).
     *
     *
     * If you are using vdW-DF2, please also cite:
     *
     *   K. Lee, E. D. Murray, L. Kong, B. I. Lundqvist, and
     *   D. C. Langreth, Phys. Rev. B 82, 081101(R) (2010).
     *
     *
     * If you are calculating the stress with vdW-DF, please also cite:
     *
     *   R. Sabatini, E. Kucukbenli, B. Kolb, T. Thonhauser, and
     *   S. de Gironcoli, J. Phys.: Condens. Matter 24, 424209 (2012).
     *

     Carrying out vdW-DF run using the following parameters:

     Nqs =      20    Nr_points =    1024   r_max =   100.000
     q_mesh =
               0.00001000     0.04494208     0.09755937     0.15916263
               0.23128650     0.31572767     0.41458969     0.53033537
               0.66584808     0.82450364     1.01025438     1.22772762
               1.48234092     1.78043706     2.12944203     2.53805004
               3.01644009     3.57652955     4.23227104     5.00000000

     Gradients computed in reciprocal space

[...]

     Starting wfc are  156 randomized atomic wfcs

     Self-consistent Calculation

[...]

     Threshold (ethr) on eigenvalues was too large:
     Diagonalizing with lowered threshold

     Davidson diagonalization with overlap
     ethr =  7.83E-04,  avg # of iterations =  2.8

[...]

     total energy              =   -4645.93525132 Ry
     Harris-Foulkes estimate   =   -4645.93525469 Ry
     estimated scf accuracy    <       0.00013938 Ry

     iteration # 15     ecut=    36.75 Ry     beta=0.10
     Davidson diagonalization with overlap
     ethr =  4.37E-08,  avg # of iterations =  1.0

[...]

     negative rho (up, down):  2.000E-01 0.000E+00

     Adding external electric field

     Computed dipole along edir(3) :
        Dipole               -0.0357 Ry au,         -0.0908 Debye
        Dipole field         -0.0001 Ry au

        Potential amp.        0.0094 Ry
        Total length         45.0929 bohr

     End of self-consistent calculation

[...]

          k = 0.0608 0.0000 0.0000 ( 16172 PWs)   bands (ev):

[...]

          k =-0.0912-0.1580 0.0000 ( 16164 PWs)   bands (ev):

  -125.2572-125.2567-125.2563-125.1122-125.1117-125.1113-124.8801-124.8797
  -124.8793 -79.4532 -79.4494 -79.4461 -79.4294 -79.4274 -79.4254 -79.4087
   -79.4069 -79.4045 -79.3169 -79.3136 -79.3107 -79.2853 -79.2830 -79.2805
   -79.2613 -79.2594 -79.2573 -79.0903 -79.0864 -79.0833 -79.0582 -79.0562
   -79.0540 -79.0211 -79.0192 -79.0170 -73.4292 -73.1781 -73.0561 -37.5091
   -37.5080 -37.5059 -37.3894 -37.2702 -37.1911 -37.1894 -37.0722 -37.0708
    -6.9140  -6.7601  -6.6251  -6.5728  -6.5653  -6.5282  -6.4502  -6.4477
    -6.4329  -6.4278  -6.3845  -6.3633  -6.2953  -6.2764  -6.2307  -6.2286
    -6.1900  -6.1708  -6.1208  -6.0969  -6.0710  -6.0297  -6.0200  -6.0065
    -5.9859  -5.9791  -5.9482  -5.9449  -5.9066  -5.9053  -5.8840  -5.8644
    -5.8383  -5.8132  -5.8071  -5.8017  -5.7828  -5.7747  -5.7266  -5.7046
    -5.6420  -5.6375  -5.5875  -5.5675  -5.5495  -5.5347  -5.4436  -4.5957
    -3.9598  -3.3620  -2.3124  -2.0857  -1.9456  -1.3261  -1.2886  -0.4249
    -0.4034   0.1128   0.1815   0.2536   0.2744   0.5350   0.8836   0.9576
     1.5283   1.5770   2.3160   2.6439   3.1350   3.3154   3.6570   3.8977
     4.2248   4.2614   5.6844   5.7758   5.9654   6.0365   6.3327   6.5423
     6.6699   6.7213   6.8719   7.1197   7.1542   7.2059   7.3144   7.8917
     7.9829   8.0349   8.1606   8.2546   8.3302

     the Fermi energy is     0.9990 ev

!    total energy              =   -4645.93525810 Ry
     Harris-Foulkes estimate   =   -4645.93525395 Ry
     estimated scf accuracy    <       0.00000091 Ry

     The total energy is the sum of the following terms:

     one-electron contribution =  -30742.72934684 Ry
     hartree contribution      =   15356.21102402 Ry
     xc contribution           =    -518.37022058 Ry
     ewald contribution        =   11259.00932428 Ry
     electric field correction =       0.00000373 Ry
     smearing contrib. (-TS)   =      -0.05604270 Ry

     convergence has been achieved in  15 iterations

 BEEF-vdW xc energy contributions
           1 :   -459.631582485729
           2 :    418.966488593786
           3 :   -349.868322122144
           4 :    271.125591947023
           5 :   -200.070550244643
           6 :    146.378310309059
           7 :   -110.424803167269
           8 :    86.2373278443276
           9 :   -66.6736161195608
          10 :    47.6401702116532
          11 :   -29.2815717440192
          12 :    14.2085618832193
          13 :   -4.58960080127588
          14 :   0.248456467902201
          15 :    1.16767586692043
          16 :   -2.46716536194839
          17 :    5.11238055838567
          18 :   -8.61729348934148
          19 :    11.3775037977484
          20 :   -12.1320336909032
          21 :    10.9298826263640
          22 :   -8.99047018706693
          23 :    7.71759230760449
          24 :   -7.70255776323768
          25 :    8.44765950388785
          26 :   -8.92170662086011
          27 :    8.43033379149665
          28 :   -7.11635711820861
          29 :    5.75864035620475
          30 :   -5.10185694048482
          31 :   -36.9575405225723
          32 :   -25.9207790972899

     Forces acting on atoms (Ry/au):

     negative rho (up, down):  2.000E-01 0.000E+00
     atom    1 type  1   force =    -0.00000018   -0.00575908   -0.02459825
     atom    2 type  1   force =    -0.00498924    0.00287792   -0.02459867
     atom    3 type  1   force =     0.00498842    0.00287847   -0.02459793
     atom    4 type  2   force =    -0.00000001   -0.00000018    0.06892355
     atom    5 type  1   force =    -0.00000033   -0.01700613   -0.00778082
     atom    6 type  1   force =    -0.01472822    0.00850436   -0.00778052
     atom    7 type  1   force =     0.01472823    0.00850417   -0.00778158
     atom    8 type  2   force =    -0.00000008    0.00000029    0.02821305
     atom    9 type  1   force =     0.00000100   -0.00036626   -0.00028684
     atom   10 type  1   force =    -0.00031767    0.00018330   -0.00028694
     atom   11 type  1   force =     0.00031771    0.00018285   -0.00028777
     atom   12 type  2   force =     0.00000036    0.00000029    0.00086270

     Total force =     0.092260     Total SCF correction =     0.004467

     entering subroutine stress ...

     negative rho (up, down):  2.000E-01 0.000E+00
          total   stress  (Ry/bohr**3)                   (kbar)     P=  -19.07
  -0.00016504   0.00000000  -0.00000000        -24.28      0.00     -0.00
   0.00000000  -0.00016504  -0.00000000          0.00    -24.28     -0.00
  -0.00000000  -0.00000000  -0.00005873         -0.00     -0.00     -8.64

 !ASE

     Writing output data file calc.save

     General routines

     Parallel routines

   This run was terminated on:  19:51:48   2Jan2019

   JOB DONE.
Job  /afs/slac/g/suncat/bin/suncat-tsmpirun -x LD_LIBRARY_PATH -wdir /scratch/qe649522_Ff7Vb pw.x -in pw.inp

TID   HOST_NAME   COMMAND_LINE            STATUS            TERMINATION_TIME
00000 suncat0159 pw.x -in pw.inp   Done                     01/02/2019 19:51:48
00001 suncat0159 pw.x -in pw.inp   Done                     01/02/2019 19:51:48
00002 suncat0159 pw.x -in pw.inp   Done                     01/02/2019 19:51:48
00003 suncat0159 pw.x -in pw.inp   Done                     01/02/2019 19:51:48
00004 suncat0159 pw.x -in pw.inp   Done                     01/02/2019 19:51:48
00005 suncat0159 pw.x -in pw.inp   Done                     01/02/2019 19:51:48
00006 suncat0159 pw.x -in pw.inp   Done                     01/02/2019 19:51:48
00007 suncat0159 pw.x -in pw.inp   Done                     01/02/2019 19:51:48
00008 suncat0155 pw.x -in pw.inp   Done                     01/02/2019 19:51:48
00009 suncat0155 pw.x -in pw.inp   Done                     01/02/2019 19:51:48
00010 suncat0155 pw.x -in pw.inp   Done                     01/02/2019 19:51:48
00011 suncat0155 pw.x -in pw.inp   Done                     01/02/2019 19:51:48
00012 suncat0155 pw.x -in pw.inp   Done                     01/02/2019 19:51:48
00013 suncat0155 pw.x -in pw.inp   Done                     01/02/2019 19:51:48
00014 suncat0155 pw.x -in pw.inp   Done                     01/02/2019 19:51:48
00015 suncat0155 pw.x -in pw.inp   Done                     01/02/2019 19:51:48
00016 suncat0106 pw.x -in pw.inp   Done                     01/02/2019 19:51:48
00017 suncat0106 pw.x -in pw.inp   Done                     01/02/2019 19:51:48
00018 suncat0106 pw.x -in pw.inp   Done                     01/02/2019 19:51:48
00019 suncat0106 pw.x -in pw.inp   Done                     01/02/2019 19:51:48
00020 suncat0106 pw.x -in pw.inp   Done                     01/02/2019 19:51:48
00021 suncat0106 pw.x -in pw.inp   Done                     01/02/2019 19:51:48
00022 suncat0106 pw.x -in pw.inp   Done                     01/02/2019 19:51:48
00023 suncat0106 pw.x -in pw.inp   Done                     01/02/2019 19:51:48
00024 suncat0105 pw.x -in pw.inp   Done                     01/02/2019 19:51:48
00025 suncat0105 pw.x -in pw.inp   Done                     01/02/2019 19:51:48
00026 suncat0105 pw.x -in pw.inp   Done                     01/02/2019 19:51:48
00027 suncat0105 pw.x -in pw.inp   Done                     01/02/2019 19:51:48
00028 suncat0105 pw.x -in pw.inp   Done                     01/02/2019 19:51:48
00029 suncat0105 pw.x -in pw.inp   Done                     01/02/2019 19:51:48
00030 suncat0105 pw.x -in pw.inp   Done                     01/02/2019 19:51:48
00031 suncat0105 pw.x -in pw.inp   Done                     01/02/2019 19:51:48
00032 suncat0277 pw.x -in pw.inp   Done                     01/02/2019 19:51:48
00033 suncat0277 pw.x -in pw.inp   Done                     01/02/2019 19:51:48
00034 suncat0277 pw.x -in pw.inp   Done                     01/02/2019 19:51:48
00035 suncat0277 pw.x -in pw.inp   Done                     01/02/2019 19:51:48
00036 suncat0277 pw.x -in pw.inp   Done                     01/02/2019 19:51:48
00037 suncat0277 pw.x -in pw.inp   Done                     01/02/2019 19:51:48
00038 suncat0277 pw.x -in pw.inp   Done                     01/02/2019 19:51:48
00039 suncat0277 pw.x -in pw.inp   Done                     01/02/2019 19:51:48
00040 suncat0276 pw.x -in pw.inp   Done                     01/02/2019 19:51:48
00041 suncat0276 pw.x -in pw.inp   Done                     01/02/2019 19:51:48
00042 suncat0276 pw.x -in pw.inp   Done                     01/02/2019 19:51:48
00043 suncat0276 pw.x -in pw.inp   Done                     01/02/2019 19:51:48
00044 suncat0276 pw.x -in pw.inp   Done                     01/02/2019 19:51:48
00045 suncat0276 pw.x -in pw.inp   Done                     01/02/2019 19:51:48
00046 suncat0276 pw.x -in pw.inp   Done                     01/02/2019 19:51:48
00047 suncat0276 pw.x -in pw.inp   Done                     01/02/2019 19:51:48
00048 suncat0217 pw.x -in pw.inp   Done                     01/02/2019 19:51:48
00049 suncat0217 pw.x -in pw.inp   Done                     01/02/2019 19:51:48
00050 suncat0217 pw.x -in pw.inp   Done                     01/02/2019 19:51:48
00051 suncat0217 pw.x -in pw.inp   Done                     01/02/2019 19:51:48
00052 suncat0217 pw.x -in pw.inp   Done                     01/02/2019 19:51:48
00053 suncat0217 pw.x -in pw.inp   Done                     01/02/2019 19:51:48
00054 suncat0217 pw.x -in pw.inp   Done                     01/02/2019 19:51:48
00055 suncat0217 pw.x -in pw.inp   Done                     01/02/2019 19:51:48
00056 suncat0216 pw.x -in pw.inp   Done                     01/02/2019 19:51:48
00057 suncat0216 pw.x -in pw.inp   Done                     01/02/2019 19:51:48
00058 suncat0216 pw.x -in pw.inp   Done                     01/02/2019 19:51:48
00059 suncat0216 pw.x -in pw.inp   Done                     01/02/2019 19:51:48
00060 suncat0216 pw.x -in pw.inp   Done                     01/02/2019 19:51:48
00061 suncat0216 pw.x -in pw.inp   Done                     01/02/2019 19:51:48
00062 suncat0216 pw.x -in pw.inp   Done                     01/02/2019 19:51:48
00063 suncat0216 pw.x -in pw.inp   Done                     01/02/2019 19:51:48