     Program PWSCF v.5.1rc2 (svn rev. 11289) starts on 20Dec2018 at  2:12: 9

     Current dimensions of program PWSCF are:
     Max number of different atomic species (ntypx) = 10
     Max number of k-points (npk) =  40000
     Max angular momentum in pseudopotentials (lmaxx) =  3
     Presently stress not available with electric field

     IMPORTANT: XC functional enforced from input :
     Exchange-correlation      = BEEF-VDW ( 1  4 27 13 2)
     Any further DFT definition will be discarded
     Please, verify this is what you really want

     Subspace diagonalization in iterative solution of the eigenvalue problem:
     a serial algorithm will be used

     bravais-lattice index     =            0
     lattice parameter (alat)  =       1.8897  a.u.
     unit-cell volume          =    5316.0697 (a.u.)^3
     number of atoms/cell      =           12
     number of atomic types    =            2
     number of electrons       =       147.00
     number of Kohn-Sham states=          103
     kinetic-energy cutoff     =      36.7493  Ry
     charge density cutoff     =     367.4932  Ry
     convergence threshold     =      1.0E-06
     mixing beta               =       0.1000
     number of iterations used =           10  plain     mixing
     Exchange-correlation      = BEEF-VDW ( 1  4 27 13 2)
     nstep                     =           50

     celldm(1)=   1.889726  celldm(2)=   0.000000  celldm(3)=   0.000000
     celldm(4)=   0.000000  celldm(5)=   0.000000  celldm(6)=   0.000000

     crystal axes: (cart. coord. in units of alat)
               a(1) = (   6.040245   0.000000   0.000000 )
               a(2) = (  -3.020123   5.231006   0.000000 )
               a(3) = (   0.000000   0.000000  24.931839 )

     reciprocal axes: (cart. coord. in units 2 pi/alat)
               b(1) = (  0.165556  0.095584  0.000000 )
               b(2) = (  0.000000  0.191168  0.000000 )
               b(3) = (  0.000000  0.000000  0.040109 )

     PseudoPot. # 1 for Cd read from file:
     /afs/slac.stanford.edu/u/if/mamunm/psp/gbrv1.5pbe/Cd.UPF
     MD5 check sum: 17164a7926edb8e0dc231208abae86a6
     Pseudo is Ultrasoft + core correction, Zval = 12.0
     Generated by new atomic code, or converted to UPF format
     Using radial grid of  889 points,  6 beta functions with:
                l(1) =   0
                l(2) =   0
                l(3) =   1
                l(4) =   1
                l(5) =   2
                l(6) =   2
     Q(r) pseudized with  6 coefficients,  rinner =    1.000   1.000   1.000
                                                       1.000   1.000

     PseudoPot. # 2 for V  read from file:
     /afs/slac.stanford.edu/u/if/mamunm/psp/gbrv1.5pbe/V.UPF
     MD5 check sum: 22b79981416ebb76fdaf5b1b8640f6fb
     Pseudo is Ultrasoft + core correction, Zval = 13.0
     Generated by new atomic code, or converted to UPF format
     Using radial grid of  853 points,  6 beta functions with:
                l(1) =   0
                l(2) =   0
                l(3) =   1
                l(4) =   1
                l(5) =   2
                l(6) =   2
     Q(r) pseudized with  8 coefficients,  rinner =    1.100   1.100   1.100
                                                       1.100   1.100

     vdW kernel table read from file vdW_kernel_table
     MD5 check sum: 095c7af220d748ca6e76c0b4c6cfb241

     atomic species   valence    mass     pseudopotential
        Cd1           12.00   112.41400     Cd( 1.00)
        V1            13.00    50.94150     V ( 1.00)

     No symmetry found

   Cartesian axes

     site n.     atom                  positions (alat units)
         1           Cd1 tau(   1) = (   0.0000000   0.0000000  10.0000000  )
         2           Cd1 tau(   2) = (  -1.5100613   2.6155028  10.0000000  )
         3           Cd1 tau(   3) = (   1.5100613   2.6155028  10.0000000  )
         4           V1  tau(   4) = (   3.0201225   0.0000000  10.0000000  )
         5           Cd1 tau(   5) = (   3.0201225   1.7436685  12.4659197  )
         6           Cd1 tau(   6) = (   1.5100613   4.3591713  12.4659197  )
         7           Cd1 tau(   7) = (  -1.5100613   4.3591713  12.4659197  )
         8           V1  tau(   8) = (   0.0000000   1.7436685  12.4659197  )
         9           Cd1 tau(   9) = (  -0.0000000   3.4873371  14.9318394  )
        10           Cd1 tau(  10) = (   1.5100613   0.8718343  14.9318394  )
        11           Cd1 tau(  11) = (   4.5301838   0.8718343  14.9318394  )
        12           V1  tau(  12) = (   3.0201225   3.4873371  14.9318394  )

     number of k points=    20  Fermi-Dirac smearing, width (Ry)=  0.0110
                       cart. coord. in units 2pi/alat
        k(    1) = (   0.0000000   0.0000000   0.0000000), wk =   0.0555556
        k(    2) = (   0.0000000   0.0318613   0.0000000), wk =   0.1111111
        k(    3) = (   0.0000000   0.0637226   0.0000000), wk =   0.1111111
        k(    4) = (   0.0000000  -0.0955839   0.0000000), wk =   0.0555556
        k(    5) = (   0.0275927   0.0159307   0.0000000), wk =   0.1111111
        k(    6) = (   0.0275927   0.0477920   0.0000000), wk =   0.1111111
        k(    7) = (   0.0275927   0.0796533   0.0000000), wk =   0.1111111
        k(    8) = (   0.0275927  -0.0796533   0.0000000), wk =   0.1111111
        k(    9) = (   0.0275927  -0.0477920   0.0000000), wk =   0.1111111
        k(   10) = (   0.0275927  -0.0159307   0.0000000), wk =   0.1111111
        k(   11) = (   0.0551854   0.0318613   0.0000000), wk =   0.1111111
        k(   12) = (   0.0551854   0.0637226   0.0000000), wk =   0.1111111
        k(   13) = (   0.0551854   0.0955839   0.0000000), wk =   0.1111111
        k(   14) = (   0.0551854  -0.0637226   0.0000000), wk =   0.1111111
        k(   15) = (   0.0551854  -0.0318613   0.0000000), wk =   0.1111111
        k(   16) = (   0.0551854   0.0000000   0.0000000), wk =   0.1111111
        k(   17) = (  -0.0827781  -0.0477920   0.0000000), wk =   0.0555556
        k(   18) = (  -0.0827781  -0.0159307   0.0000000), wk =   0.1111111
        k(   19) = (  -0.0827781   0.0159307   0.0000000), wk =   0.1111111
        k(   20) = (  -0.0827781  -0.1433759   0.0000000), wk =   0.0555556

     Largest allocated arrays     est. size (Mb)     dimensions
     Largest temporary arrays     est. size (Mb)     dimensions

     Initial potential from superposition of free atoms
     Check: negative starting charge=   -0.190316

     starting charge  142.49595, renormalised to  147.00000

     negative rho (up, down):  1.963E-01 0.000E+00

     *
     * You are using vdW-DF for exchange-correlation in this calculation.
     * Please cite the following three references that made this development
     * possible:
     *
     *   M. Dion, H. Rydberg, E. Schroder, D. C. Langreth, and
     *   B. I. Lundqvist, Phys. Rev. Lett. 92, 246401 (2004).
     *
     *   T. Thonhauser, V. R. Cooper, S. Li, A. Puzder, P. Hyldgaard, and
     *   D. C. Langreth, Phys. Rev. B 76, 125112 (2007).
     *
     *   G. Roman-Perez and J. M. Soler, Phys. Rev. Lett. 103, 096102 (2009).
     *
     *
     * If you are using vdW-DF2, please also cite:
     *
     *   K. Lee, E. D. Murray, L. Kong, B. I. Lundqvist, and
     *   D. C. Langreth, Phys. Rev. B 82, 081101(R) (2010).
     *
     *
     * If you are calculating the stress with vdW-DF, please also cite:
     *
     *   R. Sabatini, E. Kucukbenli, B. Kolb, T. Thonhauser, and
     *   S. de Gironcoli, J. Phys.: Condens. Matter 24, 424209 (2012).
     *

     Carrying out vdW-DF run using the following parameters:

     Nqs =      20    Nr_points =    1024   r_max =   100.000
     q_mesh =
               0.00001000     0.04494208     0.09755937     0.15916263
               0.23128650     0.31572767     0.41458969     0.53033537
               0.66584808     0.82450364     1.01025438     1.22772762
               1.48234092     1.78043706     2.12944203     2.53805004
               3.01644009     3.57652955     4.23227104     5.00000000

     Gradients computed in reciprocal space

     Adding external electric field

     Computed dipole along edir(3) :
        Dipole               -0.0000 Ry au,         -0.0000 Debye
        Dipole field         -0.0000 Ry au

        Potential amp.        0.0000 Ry
        Total length         45.9365 bohr

     Starting wfc are  111 randomized atomic wfcs

     Self-consistent Calculation

     iteration #  1     ecut=    36.75 Ry     beta=0.10
     Davidson diagonalization with overlap
     ethr =  1.00E-02,  avg # of iterations =  8.2

[...]

     total energy              =   -1481.43799289 Ry
     Harris-Foulkes estimate   =   -1482.23751562 Ry
     estimated scf accuracy    <       4.66619672 Ry

[...]

     End of self-consistent calculation

          k = 0.0000 0.0000 0.0000 ( 19831 PWs)   bands (ev):

   -63.7598 -63.7351 -63.7351 -37.6850 -37.6848 -37.6267 -37.5664 -37.5664
   -37.4962 -37.4962 -37.4961 -37.4961  -9.0332  -8.8747  -8.8367  -8.8367
    -8.7941  -8.7704  -8.6974  -8.6263  -8.6263  -8.5415  -8.5415  -8.5198
    -8.5198  -8.4288  -8.3575  -8.3575  -8.3021  -8.2366  -8.1706  -8.1706
    -8.0996  -8.0671  -7.9801  -7.9801  -7.9426  -7.9426  -7.8683  -7.8683
    -7.8089  -7.8089  -7.7958  -7.7463  -7.7463  -7.7219  -7.7219  -7.6921
    -7.6921  -7.5369  -7.5369  -7.4833  -7.4173  -7.4173  -7.4067  -7.2755
    -7.2670  -7.1968  -5.4828  -2.9775  -1.3869  -1.3869  -1.2159  -1.2159
    -1.1684  -0.5902  -0.3104  -0.3104  -0.2110   0.0105   0.0105   0.2645
     0.9004   0.9004   0.9217   0.9442   0.9442   1.0260   1.0260   1.5028
     1.5315   1.5315   1.6184   1.6619   1.6619   3.0943   3.0943   3.3350
     3.4784   3.4784   3.7967   3.9951   4.1169   4.1169   4.5324   4.6510
     4.9602   5.6276   5.8049   6.6340   6.6340   6.8826   6.9027

[...]

          k =-0.0828-0.0478 0.0000 ( 20024 PWs)   bands (ev):

[...]

     the Fermi energy is     0.7053 ev

!    total energy              =   -1481.68401326 Ry
     Harris-Foulkes estimate   =   -1481.68402009 Ry
     estimated scf accuracy    <       0.00000050 Ry

     The total energy is the sum of the following terms:

     one-electron contribution =   -9982.22384048 Ry
     hartree contribution      =    5058.26454307 Ry
     xc contribution           =    -428.29661352 Ry
     ewald contribution        =    3870.67281811 Ry
     electric field correction =       0.00000001 Ry
     smearing contrib. (-TS)   =      -0.10092045 Ry

     convergence has been achieved in  16 iterations

 BEEF-vdW xc energy contributions
           1 :   -374.380889443351
           2 :    341.671978174242
           3 :   -286.651800089416
           4 :    225.193481402536
           5 :   -171.788509481507
           6 :    134.322470487809
           7 :   -112.706332801761
           8 :    101.296174778513
           9 :   -93.1922655646508
          10 :    83.9235669895930
          11 :   -72.8335983521019
          12 :    62.0157337898955
          13 :   -54.0015911522827
          14 :    49.8293531503549
          15 :   -48.5380712340381
          16 :    48.0480903775946
          17 :   -46.5705998271225
          18 :    43.5663717071442
[...]
               b(2) = (  0.000000  0.191168  0.000000 )
               b(3) = (  0.000000  0.000000  0.040109 )

     PseudoPot. # 1 for Cd read from file:
     /afs/slac.stanford.edu/u/if/mamunm/psp/gbrv1.5pbe/Cd.UPF
     MD5 check sum: 17164a7926edb8e0dc231208abae86a6
     Pseudo is Ultrasoft + core correction, Zval = 12.0
     Generated by new atomic code, or converted to UPF format
     Using radial grid of  889 points,  6 beta functions with:
                l(1) =   0
                l(2) =   0
                l(3) =   1
                l(4) =   1
                l(5) =   2
                l(6) =   2
     Q(r) pseudized with  6 coefficients,  rinner =    1.000   1.000   1.000
                                                       1.000   1.000

     PseudoPot. # 2 for V  read from file:
     /afs/slac.stanford.edu/u/if/mamunm/psp/gbrv1.5pbe/V.UPF
     MD5 check sum: 22b79981416ebb76fdaf5b1b8640f6fb
     Pseudo is Ultrasoft + core correction, Zval = 13.0
     Generated by new atomic code, or converted to UPF format
     Using radial grid of  853 points,  6 beta functions with:
                l(1) =   0
                l(2) =   0
                l(3) =   1
                l(4) =   1
                l(5) =   2
                l(6) =   2
     Q(r) pseudized with  8 coefficients,  rinner =    1.100   1.100   1.100
                                                       1.100   1.100

     vdW kernel table read from file vdW_kernel_table
     MD5 check sum: 095c7af220d748ca6e76c0b4c6cfb241

     atomic species   valence    mass     pseudopotential
        Cd1           12.00   112.41400     Cd( 1.00)
        V1            13.00    50.94150     V ( 1.00)

     No symmetry found

   Cartesian axes

     site n.     atom                  positions (alat units)
         1           Cd1 tau(   1) = (   0.0000000   0.0000000  10.0000000  )
         2           Cd1 tau(   2) = (  -1.5100613   2.6155028  10.0000000  )
         3           Cd1 tau(   3) = (   1.5100613   2.6155028  10.0000000  )
         4           V1  tau(   4) = (   3.0201225   0.0000000  10.0000000  )
         5           Cd1 tau(   5) = (   3.0201225   1.7436685  12.4659197  )
         6           Cd1 tau(   6) = (   1.5100613   4.3591713  12.4659197  )
         7           Cd1 tau(   7) = (  -1.5100613   4.3591713  12.4659197  )
         8           V1  tau(   8) = (   0.0000000   1.7436685  12.4659197  )
         9           Cd1 tau(   9) = (   0.0000061   3.4878870  15.1225499  )
        10           Cd1 tau(  10) = (   1.5105555   0.8715313  15.1224992  )
        11           Cd1 tau(  11) = (   4.5296777   0.8715177  15.1225222  )
        12           V1  tau(  12) = (   3.0201244   3.4873204  14.7129479  )

     number of k points=    20  Fermi-Dirac smearing, width (Ry)=  0.0110
                       cart. coord. in units 2pi/alat
        k(    1) = (   0.0000000   0.0000000   0.0000000), wk =   0.0555556
        k(    2) = (   0.0000000   0.0318613   0.0000000), wk =   0.1111111
        k(    3) = (   0.0000000   0.0637226   0.0000000), wk =   0.1111111
        k(    4) = (   0.0000000  -0.0955839   0.0000000), wk =   0.0555556
        k(    5) = (   0.0275927   0.0159307   0.0000000), wk =   0.1111111
        k(    6) = (   0.0275927   0.0477920   0.0000000), wk =   0.1111111
        k(    7) = (   0.0275927   0.0796533   0.0000000), wk =   0.1111111
        k(    8) = (   0.0275927  -0.0796533   0.0000000), wk =   0.1111111
        k(    9) = (   0.0275927  -0.0477920   0.0000000), wk =   0.1111111
        k(   10) = (   0.0275927  -0.0159307   0.0000000), wk =   0.1111111
        k(   11) = (   0.0551854   0.0318613   0.0000000), wk =   0.1111111
        k(   12) = (   0.0551854   0.0637226   0.0000000), wk =   0.1111111
        k(   13) = (   0.0551854   0.0955839   0.0000000), wk =   0.1111111
        k(   14) = (   0.0551854  -0.0637226   0.0000000), wk =   0.1111111
        k(   15) = (   0.0551854  -0.0318613   0.0000000), wk =   0.1111111
        k(   16) = (   0.0551854   0.0000000   0.0000000), wk =   0.1111111
        k(   17) = (  -0.0827781  -0.0477920   0.0000000), wk =   0.0555556
        k(   18) = (  -0.0827781  -0.0159307   0.0000000), wk =   0.1111111
        k(   19) = (  -0.0827781   0.0159307   0.0000000), wk =   0.1111111
        k(   20) = (  -0.0827781  -0.1433759   0.0000000), wk =   0.0555556

     Largest allocated arrays     est. size (Mb)     dimensions
     Largest temporary arrays     est. size (Mb)     dimensions

     Initial potential from superposition of free atoms
     Check: negative starting charge=   -0.192207

     starting charge  142.49595, renormalised to  147.00000

[...]

     *
     * You are using vdW-DF for exchange-correlation in this calculation.
     * Please cite the following three references that made this development
     * possible:
     *
     *   M. Dion, H. Rydberg, E. Schroder, D. C. Langreth, and
     *   B. I. Lundqvist, Phys. Rev. Lett. 92, 246401 (2004).
     *
     *   T. Thonhauser, V. R. Cooper, S. Li, A. Puzder, P. Hyldgaard, and
     *   D. C. Langreth, Phys. Rev. B 76, 125112 (2007).
     *
     *   G. Roman-Perez and J. M. Soler, Phys. Rev. Lett. 103, 096102 (2009).
     *
     *
     * If you are using vdW-DF2, please also cite:
     *
     *   K. Lee, E. D. Murray, L. Kong, B. I. Lundqvist, and
     *   D. C. Langreth, Phys. Rev. B 82, 081101(R) (2010).
     *
     *
     * If you are calculating the stress with vdW-DF, please also cite:
     *
     *   R. Sabatini, E. Kucukbenli, B. Kolb, T. Thonhauser, and
     *   S. de Gironcoli, J. Phys.: Condens. Matter 24, 424209 (2012).
     *

     Carrying out vdW-DF run using the following parameters:

     Nqs =      20    Nr_points =    1024   r_max =   100.000
     q_mesh =
               0.00001000     0.04494208     0.09755937     0.15916263
               0.23128650     0.31572767     0.41458969     0.53033537
               0.66584808     0.82450364     1.01025438     1.22772762
               1.48234092     1.78043706     2.12944203     2.53805004
               3.01644009     3.57652955     4.23227104     5.00000000

     Gradients computed in reciprocal space

[...]

     Starting wfc are  111 randomized atomic wfcs

     Self-consistent Calculation

[...]

     total energy              =   -1481.70575271 Ry
     Harris-Foulkes estimate   =   -1481.70575427 Ry
     estimated scf accuracy    <       0.00000192 Ry

     iteration # 19     ecut=    36.75 Ry     beta=0.10
     Davidson diagonalization with overlap
     ethr =  1.31E-09,  avg # of iterations =  2.2

[...]

     negative rho (up, down):  1.997E-01 0.000E+00

     Adding external electric field

     Computed dipole along edir(3) :
        Dipole               -0.0440 Ry au,         -0.1119 Debye
        Dipole field         -0.0001 Ry au

        Potential amp.        0.0096 Ry
        Total length         45.9365 bohr

     End of self-consistent calculation

[...]

          k = 0.0552 0.0000 0.0000 ( 19989 PWs)   bands (ev):

[...]

          k =-0.0828-0.1434 0.0000 ( 20024 PWs)   bands (ev):

   -63.8372 -63.7647 -63.7190 -37.7068 -37.7004 -37.6406 -37.6404 -37.6327
   -37.5300 -37.5298 -37.4938 -37.4936  -8.7561  -8.6533  -8.6454  -8.5503
    -8.5222  -8.4855  -8.4399  -8.3944  -8.3875  -8.3682  -8.3571  -8.3519
    -8.2808  -8.2555  -8.1961  -8.1834  -8.1471  -8.1104  -8.1065  -8.0708
    -8.0578  -8.0458  -8.0318  -7.9980  -7.9879  -7.9642  -7.9486  -7.9187
    -7.9168  -7.9021  -7.8912  -7.8788  -7.8725  -7.8573  -7.8351  -7.8341
    -7.8239  -7.7825  -7.7673  -7.7067  -7.6670  -7.6579  -7.5578  -7.4589
    -7.3723  -5.6305  -5.4048  -3.9900  -3.8631  -2.7075  -2.2482  -1.7690
    -1.3426  -1.0586  -0.7371   0.0199   0.2204   0.3297   0.3441   0.3931
     0.5103   0.6152   0.7278   0.7894   1.0830   1.1559   1.3499   1.3886
     1.7341   1.8790   2.2985   2.4427   2.5134   2.7604   4.4240   4.4936
     4.6060   4.8953   4.8960   4.9529   5.0766   5.2714   5.4464   5.4611
     5.9520   5.9863   6.0330   6.3072   6.3539   6.7309   6.8368

     the Fermi energy is     0.6575 ev

!    total energy              =   -1481.70574691 Ry
     Harris-Foulkes estimate   =   -1481.70575299 Ry
     estimated scf accuracy    <       0.00000064 Ry

     The total energy is the sum of the following terms:

     one-electron contribution =   -9860.77868020 Ry
     hartree contribution      =    4997.58034177 Ry
     xc contribution           =    -428.23548762 Ry
     ewald contribution        =    3809.83003341 Ry
     electric field correction =       0.00000458 Ry
     smearing contrib. (-TS)   =      -0.10195885 Ry

     convergence has been achieved in  19 iterations

 BEEF-vdW xc energy contributions
           1 :   -374.433275958266
           2 :    341.671249532202
           3 :   -286.592970756679
           4 :    225.126629892346
           5 :   -171.780828880152
           6 :    134.406088338061
           7 :   -112.851594701479
           8 :    101.432409121511
           9 :   -93.2620406440692
          10 :    83.9274287811249
          11 :   -72.8284331160286
          12 :    62.0682068106939
          13 :   -54.1347128795298
          14 :    50.0046986288232
          15 :   -48.6864976712843
          16 :    48.1236536885874
          17 :   -46.5860186685769
          18 :    43.5836821037124
          19 :   -39.8575208026531
          20 :    36.6486145177034
          21 :   -34.8280036933983
          22 :    34.4183061797776
          23 :   -34.7026716861890
          24 :    34.7403588943467
          25 :   -33.9223782174356
          26 :    32.2542401328695
          27 :   -30.2631638780370
          28 :    28.6371685818526
          29 :   -27.8226557920844
          30 :    27.7961564684298
          31 :   -34.3702733922037
          32 :   -25.0519038190385

     Forces acting on atoms (Ry/au):

     negative rho (up, down):  1.997E-01 0.000E+00
     atom    1 type  1   force =     0.00000144    0.00293582   -0.01727081
     atom    2 type  1   force =     0.00254280   -0.00146722   -0.01726794
     atom    3 type  1   force =    -0.00253971   -0.00146993   -0.01726947
     atom    4 type  2   force =     0.00000147   -0.00000037    0.03303554
     atom    5 type  1   force =     0.00000070   -0.01070797    0.00286883
     atom    6 type  1   force =    -0.00927585    0.00535672    0.00286940
     atom    7 type  1   force =     0.00927386    0.00535311    0.00287027
     atom    8 type  2   force =     0.00000047   -0.00000030    0.00911552
     atom    9 type  1   force =    -0.00000250   -0.00118072    0.00026816
     atom   10 type  1   force =    -0.00102425    0.00058865    0.00026716
     atom   11 type  1   force =     0.00102078    0.00059219    0.00026663
     atom   12 type  2   force =     0.00000080    0.00000002    0.00024671

     Total force =     0.049681     Total SCF correction =     0.001994

     entering subroutine stress ...

     negative rho (up, down):  1.997E-01 0.000E+00
          total   stress  (Ry/bohr**3)                   (kbar)     P=   -6.99
  -0.00006806   0.00000000  -0.00000000        -10.01      0.00     -0.00
   0.00000000  -0.00006806   0.00000000          0.00    -10.01      0.00
  -0.00000000   0.00000000  -0.00000638         -0.00      0.00     -0.94

 !ASE

     Writing output data file calc.save

     General routines

     Parallel routines

   This run was terminated on:   3:35:37  20Dec2018

   JOB DONE.
Job  /afs/slac/g/suncat/bin/suncat-tsmpirun -x LD_LIBRARY_PATH -wdir /scratch/qe773481_AtSj5 pw.x -in pw.inp

TID   HOST_NAME   COMMAND_LINE            STATUS            TERMINATION_TIME
00000 suncat0004 pw.x -in pw.inp   Done                     12/20/2018 03:35:37
00001 suncat0004 pw.x -in pw.inp   Done                     12/20/2018 03:35:37
00002 suncat0004 pw.x -in pw.inp   Done                     12/20/2018 03:35:37
00003 suncat0004 pw.x -in pw.inp   Done                     12/20/2018 03:35:37
00004 suncat0004 pw.x -in pw.inp   Done                     12/20/2018 03:35:37
00005 suncat0004 pw.x -in pw.inp   Done                     12/20/2018 03:35:37
00006 suncat0004 pw.x -in pw.inp   Done                     12/20/2018 03:35:37
00007 suncat0004 pw.x -in pw.inp   Done                     12/20/2018 03:35:37
00008 suncat0187 pw.x -in pw.inp   Done                     12/20/2018 03:35:37
00009 suncat0187 pw.x -in pw.inp   Done                     12/20/2018 03:35:37
00010 suncat0187 pw.x -in pw.inp   Done                     12/20/2018 03:35:37
00011 suncat0187 pw.x -in pw.inp   Done                     12/20/2018 03:35:37
00012 suncat0187 pw.x -in pw.inp   Done                     12/20/2018 03:35:37
00013 suncat0187 pw.x -in pw.inp   Done                     12/20/2018 03:35:37
00014 suncat0187 pw.x -in pw.inp   Done                     12/20/2018 03:35:37
00015 suncat0187 pw.x -in pw.inp   Done                     12/20/2018 03:35:37
00016 suncat0186 pw.x -in pw.inp   Done                     12/20/2018 03:35:37
00017 suncat0186 pw.x -in pw.inp   Done                     12/20/2018 03:35:37
00018 suncat0186 pw.x -in pw.inp   Done                     12/20/2018 03:35:37
00019 suncat0186 pw.x -in pw.inp   Done                     12/20/2018 03:35:37
00020 suncat0186 pw.x -in pw.inp   Done                     12/20/2018 03:35:37
00021 suncat0186 pw.x -in pw.inp   Done                     12/20/2018 03:35:37
00022 suncat0186 pw.x -in pw.inp   Done                     12/20/2018 03:35:37
00023 suncat0186 pw.x -in pw.inp   Done                     12/20/2018 03:35:37
00024 suncat0185 pw.x -in pw.inp   Done                     12/20/2018 03:35:37
00025 suncat0185 pw.x -in pw.inp   Done                     12/20/2018 03:35:37
00026 suncat0185 pw.x -in pw.inp   Done                     12/20/2018 03:35:37
00027 suncat0185 pw.x -in pw.inp   Done                     12/20/2018 03:35:37
00028 suncat0185 pw.x -in pw.inp   Done                     12/20/2018 03:35:37
00029 suncat0185 pw.x -in pw.inp   Done                     12/20/2018 03:35:37
00030 suncat0185 pw.x -in pw.inp   Done                     12/20/2018 03:35:37
00031 suncat0185 pw.x -in pw.inp   Done                     12/20/2018 03:35:37
00032 suncat0121 pw.x -in pw.inp   Done                     12/20/2018 03:35:37
00033 suncat0121 pw.x -in pw.inp   Done                     12/20/2018 03:35:37
00034 suncat0121 pw.x -in pw.inp   Done                     12/20/2018 03:35:37
00035 suncat0121 pw.x -in pw.inp   Done                     12/20/2018 03:35:37
00036 suncat0121 pw.x -in pw.inp   Done                     12/20/2018 03:35:37
00037 suncat0121 pw.x -in pw.inp   Done                     12/20/2018 03:35:37
00038 suncat0121 pw.x -in pw.inp   Done                     12/20/2018 03:35:37
00039 suncat0121 pw.x -in pw.inp   Done                     12/20/2018 03:35:37
00040 suncat0115 pw.x -in pw.inp   Done                     12/20/2018 03:35:37
00041 suncat0115 pw.x -in pw.inp   Done                     12/20/2018 03:35:37
00042 suncat0115 pw.x -in pw.inp   Done                     12/20/2018 03:35:37
00043 suncat0115 pw.x -in pw.inp   Done                     12/20/2018 03:35:37
00044 suncat0115 pw.x -in pw.inp   Done                     12/20/2018 03:35:37
00045 suncat0115 pw.x -in pw.inp   Done                     12/20/2018 03:35:37
00046 suncat0115 pw.x -in pw.inp   Done                     12/20/2018 03:35:37
00047 suncat0115 pw.x -in pw.inp   Done                     12/20/2018 03:35:37
00048 suncat0114 pw.x -in pw.inp   Done                     12/20/2018 03:35:37
00049 suncat0114 pw.x -in pw.inp   Done                     12/20/2018 03:35:37
00050 suncat0114 pw.x -in pw.inp   Done                     12/20/2018 03:35:37
00051 suncat0114 pw.x -in pw.inp   Done                     12/20/2018 03:35:37
00052 suncat0114 pw.x -in pw.inp   Done                     12/20/2018 03:35:37
00053 suncat0114 pw.x -in pw.inp   Done                     12/20/2018 03:35:37
00054 suncat0114 pw.x -in pw.inp   Done                     12/20/2018 03:35:37
00055 suncat0114 pw.x -in pw.inp   Done                     12/20/2018 03:35:37
00056 suncat0113 pw.x -in pw.inp   Done                     12/20/2018 03:35:37
00057 suncat0113 pw.x -in pw.inp   Done                     12/20/2018 03:35:37
00058 suncat0113 pw.x -in pw.inp   Done                     12/20/2018 03:35:37
00059 suncat0113 pw.x -in pw.inp   Done                     12/20/2018 03:35:37
00060 suncat0113 pw.x -in pw.inp   Done                     12/20/2018 03:35:37
00061 suncat0113 pw.x -in pw.inp   Done                     12/20/2018 03:35:37
00062 suncat0113 pw.x -in pw.inp   Done                     12/20/2018 03:35:37
00063 suncat0113 pw.x -in pw.inp   Done                     12/20/2018 03:35:37