     Program PWSCF v.5.1rc2 (svn rev. 11289) starts on  2Jan2019 at  9:44:16

     Current dimensions of program PWSCF are:
     Max number of different atomic species (ntypx) = 10
     Max number of k-points (npk) =  40000
     Max angular momentum in pseudopotentials (lmaxx) =  3
     Presently stress not available with electric field

     IMPORTANT: XC functional enforced from input :
     Exchange-correlation      = BEEF-VDW ( 1  4 27 13 2)
     Any further DFT definition will be discarded
     Please, verify this is what you really want

     Subspace diagonalization in iterative solution of the eigenvalue problem:
     a serial algorithm will be used

     bravais-lattice index     =            0
     lattice parameter (alat)  =       1.8897  a.u.
     unit-cell volume          =    4627.1206 (a.u.)^3
     number of atoms/cell      =           12
     number of atomic types    =            2
     number of electrons       =       171.00
     number of Kohn-Sham states=          115
     kinetic-energy cutoff     =      36.7493  Ry
     charge density cutoff     =     367.4932  Ry
     convergence threshold     =      1.0E-06
     mixing beta               =       0.1000
     number of iterations used =           10  plain     mixing
     Exchange-correlation      = BEEF-VDW ( 1  4 27 13 2)
     nstep                     =           50

     celldm(1)=   1.889726  celldm(2)=   0.000000  celldm(3)=   0.000000
     celldm(4)=   0.000000  celldm(5)=   0.000000  celldm(6)=   0.000000

     crystal axes: (cart. coord. in units of alat)
               a(1) = (   5.669769   0.000000   0.000000 )
               a(2) = (  -2.834884   4.910164   0.000000 )
               a(3) = (   0.000000   0.000000  24.629347 )

     reciprocal axes: (cart. coord. in units 2 pi/alat)
               b(1) = (  0.176374  0.101830  0.000000 )
               b(2) = (  0.000000  0.203659  0.000000 )
               b(3) = (  0.000000  0.000000  0.040602 )

     PseudoPot. # 1 for W  read from file:
     /afs/slac.stanford.edu/u/if/mamunm/psp/gbrv1.5pbe/W.UPF
     MD5 check sum: 9c083fa34c2a2ea0f02f1f893e16e1c8
     Pseudo is Ultrasoft + core correction, Zval = 14.0
     Generated by new atomic code, or converted to UPF format
     Using radial grid of  923 points,  8 beta functions with:
                l(1) =   0
                l(2) =   0
                l(3) =   0
                l(4) =   1
                l(5) =   1
                l(6) =   2
                l(7) =   2
                l(8) =   3
     Q(r) pseudized with  6 coefficients,  rinner =    1.350   1.350   1.350
                                                       1.350   1.350   1.350
                                                       1.350

     PseudoPot. # 2 for Re read from file:
     /afs/slac.stanford.edu/u/if/mamunm/psp/gbrv1.5pbe/Re.UPF
     MD5 check sum: 85f993410f3e006da9d71c142b4ad953
     Pseudo is Ultrasoft + core correction, Zval = 15.0
     Generated by new atomic code, or converted to UPF format
     Using radial grid of  981 points,  8 beta functions with:
                l(1) =   0
                l(2) =   0
                l(3) =   1
                l(4) =   1
                l(5) =   2
                l(6) =   2
                l(7) =   3
                l(8) =   3
     Q(r) pseudized with  8 coefficients,  rinner =    1.150   1.150   1.150
                                                       1.150   1.150   1.150
                                                       1.150

     vdW kernel table read from file vdW_kernel_table
     MD5 check sum: 095c7af220d748ca6e76c0b4c6cfb241

     atomic species   valence    mass     pseudopotential
        W1            14.00   183.84000     W ( 1.00)
        Re1           15.00   186.20700     Re( 1.00)

     No symmetry found

   Cartesian axes

     site n.     atom                  positions (alat units)
         1           W1  tau(   1) = (   0.0000000   0.0000000  10.0000000  )
         2           W1  tau(   2) = (  -1.4174422   2.4550819  10.0000000  )
         3           W1  tau(   3) = (   1.4174422   2.4550819  10.0000000  )
         4           Re1 tau(   4) = (   2.8348844   0.0000000  10.0000000  )
         5           W1  tau(   5) = (   2.8348844   1.6367213  12.3146734  )
         6           W1  tau(   6) = (   1.4174422   4.0918031  12.3146734  )
         7           W1  tau(   7) = (  -1.4174422   4.0918031  12.3146734  )
         8           Re1 tau(   8) = (   0.0000000   1.6367213  12.3146734  )
         9           W1  tau(   9) = (  -0.0000000   3.2734425  14.6293468  )
        10           W1  tau(  10) = (   1.4174422   0.8183606  14.6293468  )
        11           W1  tau(  11) = (   4.2523266   0.8183606  14.6293468  )
        12           Re1 tau(  12) = (   2.8348844   3.2734425  14.6293468  )

     number of k points=    20  Fermi-Dirac smearing, width (Ry)=  0.0110
                       cart. coord. in units 2pi/alat
        k(    1) = (   0.0000000   0.0000000   0.0000000), wk =   0.0555556
        k(    2) = (   0.0000000   0.0339432   0.0000000), wk =   0.1111111
        k(    3) = (   0.0000000   0.0678864   0.0000000), wk =   0.1111111
        k(    4) = (   0.0000000  -0.1018296   0.0000000), wk =   0.0555556
        k(    5) = (   0.0293957   0.0169716   0.0000000), wk =   0.1111111
        k(    6) = (   0.0293957   0.0509148   0.0000000), wk =   0.1111111
        k(    7) = (   0.0293957   0.0848580   0.0000000), wk =   0.1111111
        k(    8) = (   0.0293957  -0.0848580   0.0000000), wk =   0.1111111
        k(    9) = (   0.0293957  -0.0509148   0.0000000), wk =   0.1111111
        k(   10) = (   0.0293957  -0.0169716   0.0000000), wk =   0.1111111
        k(   11) = (   0.0587913   0.0339432   0.0000000), wk =   0.1111111
        k(   12) = (   0.0587913   0.0678864   0.0000000), wk =   0.1111111
        k(   13) = (   0.0587913   0.1018296   0.0000000), wk =   0.1111111
        k(   14) = (   0.0587913  -0.0678864   0.0000000), wk =   0.1111111
        k(   15) = (   0.0587913  -0.0339432   0.0000000), wk =   0.1111111
        k(   16) = (   0.0587913  -0.0000000   0.0000000), wk =   0.1111111
        k(   17) = (  -0.0881870  -0.0509148   0.0000000), wk =   0.0555556
        k(   18) = (  -0.0881870  -0.0169716   0.0000000), wk =   0.1111111
        k(   19) = (  -0.0881870   0.0169716   0.0000000), wk =   0.1111111
        k(   20) = (  -0.0881870  -0.1527444   0.0000000), wk =   0.0555556

     Largest allocated arrays     est. size (Mb)     dimensions
     Largest temporary arrays     est. size (Mb)     dimensions

     Initial potential from superposition of free atoms
     Check: negative starting charge=   -0.955754

     starting charge  168.59681, renormalised to  171.00000

     negative rho (up, down):  9.694E-01 0.000E+00

     *
     * You are using vdW-DF for exchange-correlation in this calculation.
     * Please cite the following three references that made this development
     * possible:
     *
     *   M. Dion, H. Rydberg, E. Schroder, D. C. Langreth, and
     *   B. I. Lundqvist, Phys. Rev. Lett. 92, 246401 (2004).
     *
     *   T. Thonhauser, V. R. Cooper, S. Li, A. Puzder, P. Hyldgaard, and
     *   D. C. Langreth, Phys. Rev. B 76, 125112 (2007).
     *
     *   G. Roman-Perez and J. M. Soler, Phys. Rev. Lett. 103, 096102 (2009).
     *
     *
     * If you are using vdW-DF2, please also cite:
     *
     *   K. Lee, E. D. Murray, L. Kong, B. I. Lundqvist, and
     *   D. C. Langreth, Phys. Rev. B 82, 081101(R) (2010).
     *
     *
     * If you are calculating the stress with vdW-DF, please also cite:
     *
     *   R. Sabatini, E. Kucukbenli, B. Kolb, T. Thonhauser, and
     *   S. de Gironcoli, J. Phys.: Condens. Matter 24, 424209 (2012).
     *

     Carrying out vdW-DF run using the following parameters:

     Nqs =      20    Nr_points =    1024   r_max =   100.000
     q_mesh =
               0.00001000     0.04494208     0.09755937     0.15916263
               0.23128650     0.31572767     0.41458969     0.53033537
               0.66584808     0.82450364     1.01025438     1.22772762
               1.48234092     1.78043706     2.12944203     2.53805004
               3.01644009     3.57652955     4.23227104     5.00000000

     Gradients computed in reciprocal space

     Adding external electric field

     Computed dipole along edir(3) :
        Dipole                0.0000 Ry au,          0.0000 Debye
        Dipole field          0.0000 Ry au

        Potential amp.       -0.0000 Ry
        Total length         45.3792 bohr

     Starting wfc are  156 randomized atomic wfcs

     Self-consistent Calculation

     iteration #  1     ecut=    36.75 Ry     beta=0.10
     Davidson diagonalization with overlap
     ethr =  1.00E-02,  avg # of iterations =  2.0

[...]

     total energy              =   -2019.89433032 Ry
     Harris-Foulkes estimate   =   -2020.44625207 Ry
     estimated scf accuracy    <       3.36829303 Ry

[...]

     End of self-consistent calculation

          k = 0.0000 0.0000 0.0000 ( 17471 PWs)   bands (ev):

   -77.8245 -77.6661 -77.6660 -71.7747 -71.7512 -71.7225 -71.7069 -71.7069
   -71.6968 -71.6968 -71.6805 -71.6805 -39.5553 -39.5553 -39.5239 -39.4493
   -39.4330 -39.3295 -39.3295 -39.3248 -39.3248 -36.3839 -36.1883 -36.1873
   -36.1232 -36.1232 -36.0891 -36.0145 -36.0145 -35.9593 -35.9038 -35.9038
   -35.8630 -35.8630 -35.7905 -35.7905 -35.6786 -35.5932 -35.5828 -35.5828
   -35.5403 -35.4755 -35.4727 -35.4727 -35.3847 -35.3847 -35.3778 -35.3778
    -5.8868  -4.0729  -3.2996  -2.7788  -2.7710  -2.7710  -2.5304  -2.5234
    -2.5234  -1.7639  -1.7639  -1.7584  -1.7239  -1.7239  -1.6967  -0.2805
    -0.2805  -0.1678   0.8214   0.8479   0.8479   0.8877   1.2178   1.6480
     1.6480   1.6677   1.9023   1.9023   1.9509   1.9509   1.9587   2.0090
     2.0090   2.2670   2.2670   2.2751   2.9669   3.1009   3.1946   3.1946
     3.7444   3.7444   4.1525   4.3124   4.3124   4.3418   4.4611   4.4612
     4.8835   5.0958   5.0958   5.2402   5.2402   6.0524   6.0524   6.3991
     6.3991   6.4348   6.7156   6.7841   6.8198   6.8198   6.9228   6.9898
     6.9898   7.2796   7.2796

[...]

          k =-0.0882-0.0509 0.0000 ( 17412 PWs)   bands (ev):

[...]

     the Fermi energy is     2.4489 ev

!    total energy              =   -2019.98168943 Ry
     Harris-Foulkes estimate   =   -2019.98786873 Ry
     estimated scf accuracy    <       0.00000070 Ry

     The total energy is the sum of the following terms:

     one-electron contribution =  -15398.65786387 Ry
     hartree contribution      =    7682.52027562 Ry
     xc contribution           =    -544.87138596 Ry
     ewald contribution        =    6241.11696472 Ry
     electric field correction =       0.00000000 Ry
     smearing contrib. (-TS)   =      -0.08967993 Ry

     convergence has been achieved in  16 iterations

 BEEF-vdW xc energy contributions
           1 :   -480.720286490234
           2 :    445.456981441075
           3 :   -382.942758228837
           4 :    306.310786710547
           5 :   -229.523072118763
           6 :    163.407649265411
           7 :   -113.342604105008
[...]
                l(1) =   0
                l(2) =   0
                l(3) =   0
                l(4) =   1
                l(5) =   1
                l(6) =   2
                l(7) =   2
                l(8) =   3
     Q(r) pseudized with  6 coefficients,  rinner =    1.350   1.350   1.350
                                                       1.350   1.350   1.350
                                                       1.350

     PseudoPot. # 2 for Re read from file:
     /afs/slac.stanford.edu/u/if/mamunm/psp/gbrv1.5pbe/Re.UPF
     MD5 check sum: 85f993410f3e006da9d71c142b4ad953
     Pseudo is Ultrasoft + core correction, Zval = 15.0
     Generated by new atomic code, or converted to UPF format
     Using radial grid of  981 points,  8 beta functions with:
                l(1) =   0
                l(2) =   0
                l(3) =   1
                l(4) =   1
                l(5) =   2
                l(6) =   2
                l(7) =   3
                l(8) =   3
     Q(r) pseudized with  8 coefficients,  rinner =    1.150   1.150   1.150
                                                       1.150   1.150   1.150
                                                       1.150

     vdW kernel table read from file vdW_kernel_table
     MD5 check sum: 095c7af220d748ca6e76c0b4c6cfb241

     atomic species   valence    mass     pseudopotential
        W1            14.00   183.84000     W ( 1.00)
        Re1           15.00   186.20700     Re( 1.00)

     No symmetry found

   Cartesian axes

     site n.     atom                  positions (alat units)
         1           W1  tau(   1) = (   0.0000000   0.0000000  10.0000000  )
         2           W1  tau(   2) = (  -1.4174422   2.4550819  10.0000000  )
         3           W1  tau(   3) = (   1.4174422   2.4550819  10.0000000  )
         4           Re1 tau(   4) = (   2.8348844   0.0000000  10.0000000  )
         5           W1  tau(   5) = (   2.8348844   1.6367213  12.3146734  )
         6           W1  tau(   6) = (   1.4174422   4.0918031  12.3146734  )
         7           W1  tau(   7) = (  -1.4174422   4.0918031  12.3146734  )
         8           Re1 tau(   8) = (   0.0000000   1.6367213  12.3146734  )
         9           W1  tau(   9) = (   0.0000046   3.2615307  14.6016631  )
        10           W1  tau(  10) = (   1.4071226   0.8243294  14.6016579  )
        11           W1  tau(  11) = (   4.2626482   0.8243148  14.6016644  )
        12           Re1 tau(  12) = (   2.8348874   3.2734482  14.5758933  )

     number of k points=    20  Fermi-Dirac smearing, width (Ry)=  0.0110
                       cart. coord. in units 2pi/alat
        k(    1) = (   0.0000000   0.0000000   0.0000000), wk =   0.0555556
        k(    2) = (   0.0000000   0.0339432   0.0000000), wk =   0.1111111
        k(    3) = (   0.0000000   0.0678864   0.0000000), wk =   0.1111111
        k(    4) = (   0.0000000  -0.1018296   0.0000000), wk =   0.0555556
        k(    5) = (   0.0293957   0.0169716   0.0000000), wk =   0.1111111
        k(    6) = (   0.0293957   0.0509148   0.0000000), wk =   0.1111111
        k(    7) = (   0.0293957   0.0848580   0.0000000), wk =   0.1111111
        k(    8) = (   0.0293957  -0.0848580   0.0000000), wk =   0.1111111
        k(    9) = (   0.0293957  -0.0509148   0.0000000), wk =   0.1111111
        k(   10) = (   0.0293957  -0.0169716   0.0000000), wk =   0.1111111
        k(   11) = (   0.0587913   0.0339432   0.0000000), wk =   0.1111111
        k(   12) = (   0.0587913   0.0678864   0.0000000), wk =   0.1111111
        k(   13) = (   0.0587913   0.1018296   0.0000000), wk =   0.1111111
        k(   14) = (   0.0587913  -0.0678864   0.0000000), wk =   0.1111111
        k(   15) = (   0.0587913  -0.0339432   0.0000000), wk =   0.1111111
        k(   16) = (   0.0587913  -0.0000000   0.0000000), wk =   0.1111111
        k(   17) = (  -0.0881870  -0.0509148   0.0000000), wk =   0.0555556
        k(   18) = (  -0.0881870  -0.0169716   0.0000000), wk =   0.1111111
        k(   19) = (  -0.0881870   0.0169716   0.0000000), wk =   0.1111111
        k(   20) = (  -0.0881870  -0.1527444   0.0000000), wk =   0.0555556

     Largest allocated arrays     est. size (Mb)     dimensions
     Largest temporary arrays     est. size (Mb)     dimensions

     Initial potential from superposition of free atoms
     Check: negative starting charge=   -0.953543

     starting charge  168.59681, renormalised to  171.00000

[...]

     *
     * You are using vdW-DF for exchange-correlation in this calculation.
     * Please cite the following three references that made this development
     * possible:
     *
     *   M. Dion, H. Rydberg, E. Schroder, D. C. Langreth, and
     *   B. I. Lundqvist, Phys. Rev. Lett. 92, 246401 (2004).
     *
     *   T. Thonhauser, V. R. Cooper, S. Li, A. Puzder, P. Hyldgaard, and
     *   D. C. Langreth, Phys. Rev. B 76, 125112 (2007).
     *
     *   G. Roman-Perez and J. M. Soler, Phys. Rev. Lett. 103, 096102 (2009).
     *
     *
     * If you are using vdW-DF2, please also cite:
     *
     *   K. Lee, E. D. Murray, L. Kong, B. I. Lundqvist, and
     *   D. C. Langreth, Phys. Rev. B 82, 081101(R) (2010).
     *
     *
     * If you are calculating the stress with vdW-DF, please also cite:
     *
     *   R. Sabatini, E. Kucukbenli, B. Kolb, T. Thonhauser, and
     *   S. de Gironcoli, J. Phys.: Condens. Matter 24, 424209 (2012).
     *

     Carrying out vdW-DF run using the following parameters:

     Nqs =      20    Nr_points =    1024   r_max =   100.000
     q_mesh =
               0.00001000     0.04494208     0.09755937     0.15916263
               0.23128650     0.31572767     0.41458969     0.53033537
               0.66584808     0.82450364     1.01025438     1.22772762
               1.48234092     1.78043706     2.12944203     2.53805004
               3.01644009     3.57652955     4.23227104     5.00000000

     Gradients computed in reciprocal space

[...]

     Starting wfc are  156 randomized atomic wfcs

     Self-consistent Calculation

[...]

     total energy              =   -2019.99373919 Ry
     Harris-Foulkes estimate   =   -2019.99373893 Ry
     estimated scf accuracy    <       0.00000142 Ry

     iteration # 15     ecut=    36.75 Ry     beta=0.10
     Davidson diagonalization with overlap
     ethr =  8.31E-10,  avg # of iterations =  2.2

[...]

     negative rho (up, down):  9.929E-01 0.000E+00

     Adding external electric field

     Computed dipole along edir(3) :
        Dipole                0.0133 Ry au,          0.0337 Debye
        Dipole field          0.0000 Ry au

        Potential amp.       -0.0033 Ry
        Total length         45.3792 bohr

     End of self-consistent calculation

[...]

          k = 0.0588-0.0000 0.0000 ( 17441 PWs)   bands (ev):

[...]

          k =-0.0882-0.1527 0.0000 ( 17412 PWs)   bands (ev):

   -77.7840 -77.6548 -77.6077 -71.7247 -71.7079 -71.6895 -71.6854 -71.6755
   -71.6518 -71.6501 -71.6470 -71.6300 -39.5152 -39.4998 -39.4872 -39.4304
   -39.3888 -39.3068 -39.2909 -39.2729 -39.2574 -36.1993 -36.1297 -36.0660
   -36.0043 -35.9906 -35.9536 -35.9369 -35.9347 -35.8543 -35.8416 -35.8110
   -35.7882 -35.7393 -35.7258 -35.7187 -35.7093 -35.6935 -35.6830 -35.6621
   -35.6332 -35.6230 -35.5254 -35.4975 -35.4835 -35.4415 -35.3960 -35.3619
    -3.9557  -3.9158  -2.4069  -2.3830  -1.7585  -1.7191  -1.6379  -1.6026
    -1.5607  -1.5266  -0.8215  -0.7157  -0.5641  -0.3683  -0.3586  -0.3436
    -0.0677   0.0661   0.0964   0.1804   0.3527   0.5334   0.8274   0.9948
     1.0642   1.0896   1.1179   1.2846   1.3038   1.3446   1.4155   1.4414
     1.6940   1.8345   1.8507   1.8978   1.9515   1.9842   2.5130   2.5962
     2.9924   3.1778   3.2486   3.4135   3.5573   3.6054   3.6677   4.0317
     4.0596   4.1237   4.1534   4.3097   4.5580   4.5594   4.6035   4.8728
     5.1118   5.4701   5.4864   5.5444   6.3343   6.4463   6.6084   6.6391
     6.6805   7.1624   7.8428

     the Fermi energy is     2.4632 ev

!    total energy              =   -2019.99374061 Ry
     Harris-Foulkes estimate   =   -2019.99373916 Ry
     estimated scf accuracy    <       0.00000074 Ry

     The total energy is the sum of the following terms:

     one-electron contribution =  -15475.34778779 Ry
     hartree contribution      =    7721.02577436 Ry
     xc contribution           =    -544.97712603 Ry
     ewald contribution        =    6279.39550547 Ry
     electric field correction =       0.00000048 Ry
     smearing contrib. (-TS)   =      -0.09010710 Ry

     convergence has been achieved in  15 iterations

 BEEF-vdW xc energy contributions
           1 :   -481.126796728572
           2 :    445.891016019790
           3 :   -383.412446116289
           4 :    306.796499006716
           5 :   -229.985231469051
           6 :    163.807343658951
           7 :   -113.664157958236
           8 :    79.4120700849523
           9 :   -57.1022387665179
          10 :    41.5671415388875
          11 :   -28.6939835435496
          12 :    16.5827400882397
          13 :   -5.42250891041419
          14 :   -3.51212728467328
          15 :    9.07358004496052
          16 :   -11.0698926526488
          17 :    10.4197053483256
          18 :   -8.70120070611313
          19 :    7.41552703128980
          20 :   -7.36327023645993
          21 :    8.42619786442305
          22 :   -9.81598846482268
          23 :    10.6108866550073
          24 :   -10.2781310147869
          25 :    8.92194167009006
          26 :   -7.16563508373633
          27 :    5.77080649241452
          28 :   -5.22150038093469
          29 :    5.49728696515649
          30 :   -6.13807763994782
          31 :   -42.3994792758223
          32 :   -31.6773011194873

     Forces acting on atoms (Ry/au):

     negative rho (up, down):  9.929E-01 0.000E+00
     atom    1 type  1   force =     0.00000174    0.00736028    0.00826464
     atom    2 type  1   force =     0.00637714   -0.00367810    0.00826183
     atom    3 type  1   force =    -0.00637763   -0.00368109    0.00825952
     atom    4 type  2   force =    -0.00000359   -0.00000145    0.01510039
     atom    5 type  1   force =     0.00000146   -0.00208509   -0.01069810
     atom    6 type  1   force =    -0.00180608    0.00104280   -0.01069857
     atom    7 type  1   force =     0.00180518    0.00104124   -0.01069642
     atom    8 type  2   force =    -0.00000029   -0.00000132   -0.00945691
     atom    9 type  1   force =    -0.00000412   -0.00053119    0.00026737
     atom   10 type  1   force =    -0.00046150    0.00026467    0.00026811
     atom   11 type  1   force =     0.00046224    0.00026689    0.00027200
     atom   12 type  2   force =     0.00000543    0.00000234    0.00085614

     Total force =     0.032295     Total SCF correction =     0.006135
     SCF correction compared to forces is large: reduce conv_thr to get better values

     entering subroutine stress ...

     negative rho (up, down):  9.929E-01 0.000E+00
          total   stress  (Ry/bohr**3)                   (kbar)     P=  -46.64
  -0.00042195  -0.00000000   0.00000000        -62.07     -0.00      0.00
  -0.00000000  -0.00042195   0.00000000         -0.00    -62.07      0.00
   0.00000000   0.00000000  -0.00010719          0.00      0.00    -15.77

 !ASE

     Writing output data file calc.save

     General routines

     Parallel routines

   This run was terminated on:  10:24:59   2Jan2019

   JOB DONE.
Job  /afs/slac/g/suncat/bin/suncat-tsmpirun -x LD_LIBRARY_PATH -wdir /scratch/qe649377_8iNlg pw.x -in pw.inp

TID   HOST_NAME   COMMAND_LINE            STATUS            TERMINATION_TIME
00000 suncat0078 pw.x -in pw.inp   Done                     01/02/2019 10:24:59
00001 suncat0078 pw.x -in pw.inp   Done                     01/02/2019 10:24:59
00002 suncat0078 pw.x -in pw.inp   Done                     01/02/2019 10:24:59
00003 suncat0078 pw.x -in pw.inp   Done                     01/02/2019 10:24:59
00004 suncat0078 pw.x -in pw.inp   Done                     01/02/2019 10:24:59
00005 suncat0078 pw.x -in pw.inp   Done                     01/02/2019 10:24:59
00006 suncat0078 pw.x -in pw.inp   Done                     01/02/2019 10:24:59
00007 suncat0078 pw.x -in pw.inp   Done                     01/02/2019 10:24:59
00008 suncat0077 pw.x -in pw.inp   Done                     01/02/2019 10:24:59
00009 suncat0077 pw.x -in pw.inp   Done                     01/02/2019 10:24:59
00010 suncat0077 pw.x -in pw.inp   Done                     01/02/2019 10:24:59
00011 suncat0077 pw.x -in pw.inp   Done                     01/02/2019 10:24:59
00012 suncat0077 pw.x -in pw.inp   Done                     01/02/2019 10:24:59
00013 suncat0077 pw.x -in pw.inp   Done                     01/02/2019 10:24:59
00014 suncat0077 pw.x -in pw.inp   Done                     01/02/2019 10:24:59
00015 suncat0077 pw.x -in pw.inp   Done                     01/02/2019 10:24:59
00016 suncat0076 pw.x -in pw.inp   Done                     01/02/2019 10:24:59
00017 suncat0076 pw.x -in pw.inp   Done                     01/02/2019 10:24:59
00018 suncat0076 pw.x -in pw.inp   Done                     01/02/2019 10:24:59
00019 suncat0076 pw.x -in pw.inp   Done                     01/02/2019 10:24:59
00020 suncat0076 pw.x -in pw.inp   Done                     01/02/2019 10:24:59
00021 suncat0076 pw.x -in pw.inp   Done                     01/02/2019 10:24:59
00022 suncat0076 pw.x -in pw.inp   Done                     01/02/2019 10:24:59
00023 suncat0076 pw.x -in pw.inp   Done                     01/02/2019 10:24:59
00024 suncat0074 pw.x -in pw.inp   Done                     01/02/2019 10:24:59
00025 suncat0074 pw.x -in pw.inp   Done                     01/02/2019 10:24:59
00026 suncat0074 pw.x -in pw.inp   Done                     01/02/2019 10:24:59
00027 suncat0074 pw.x -in pw.inp   Done                     01/02/2019 10:24:59
00028 suncat0074 pw.x -in pw.inp   Done                     01/02/2019 10:24:59
00029 suncat0074 pw.x -in pw.inp   Done                     01/02/2019 10:24:59
00030 suncat0074 pw.x -in pw.inp   Done                     01/02/2019 10:24:59
00031 suncat0074 pw.x -in pw.inp   Done                     01/02/2019 10:24:59
00032 suncat0073 pw.x -in pw.inp   Done                     01/02/2019 10:24:59
00033 suncat0073 pw.x -in pw.inp   Done                     01/02/2019 10:24:59
00034 suncat0073 pw.x -in pw.inp   Done                     01/02/2019 10:24:59
00035 suncat0073 pw.x -in pw.inp   Done                     01/02/2019 10:24:59
00036 suncat0073 pw.x -in pw.inp   Done                     01/02/2019 10:24:59
00037 suncat0073 pw.x -in pw.inp   Done                     01/02/2019 10:24:59
00038 suncat0073 pw.x -in pw.inp   Done                     01/02/2019 10:24:59
00039 suncat0073 pw.x -in pw.inp   Done                     01/02/2019 10:24:59
00040 suncat0069 pw.x -in pw.inp   Done                     01/02/2019 10:24:59
00041 suncat0069 pw.x -in pw.inp   Done                     01/02/2019 10:24:59
00042 suncat0069 pw.x -in pw.inp   Done                     01/02/2019 10:24:59
00043 suncat0069 pw.x -in pw.inp   Done                     01/02/2019 10:24:59
00044 suncat0069 pw.x -in pw.inp   Done                     01/02/2019 10:24:59
00045 suncat0069 pw.x -in pw.inp   Done                     01/02/2019 10:24:59
00046 suncat0069 pw.x -in pw.inp   Done                     01/02/2019 10:24:59
00047 suncat0069 pw.x -in pw.inp   Done                     01/02/2019 10:24:59
00048 suncat0217 pw.x -in pw.inp   Done                     01/02/2019 10:24:59
00049 suncat0217 pw.x -in pw.inp   Done                     01/02/2019 10:24:59
00050 suncat0217 pw.x -in pw.inp   Done                     01/02/2019 10:24:59
00051 suncat0217 pw.x -in pw.inp   Done                     01/02/2019 10:24:59
00052 suncat0217 pw.x -in pw.inp   Done                     01/02/2019 10:24:59
00053 suncat0217 pw.x -in pw.inp   Done                     01/02/2019 10:24:59
00054 suncat0217 pw.x -in pw.inp   Done                     01/02/2019 10:24:59
00055 suncat0217 pw.x -in pw.inp   Done                     01/02/2019 10:24:59
00056 suncat0216 pw.x -in pw.inp   Done                     01/02/2019 10:24:59
00057 suncat0216 pw.x -in pw.inp   Done                     01/02/2019 10:24:59
00058 suncat0216 pw.x -in pw.inp   Done                     01/02/2019 10:24:59
00059 suncat0216 pw.x -in pw.inp   Done                     01/02/2019 10:24:59
00060 suncat0216 pw.x -in pw.inp   Done                     01/02/2019 10:24:59
00061 suncat0216 pw.x -in pw.inp   Done                     01/02/2019 10:24:59
00062 suncat0216 pw.x -in pw.inp   Done                     01/02/2019 10:24:59
00063 suncat0216 pw.x -in pw.inp   Done                     01/02/2019 10:24:59