     Program PWSCF v.5.1rc2 (svn rev. 11289) starts on  2Jan2019 at 13:46:10

     Current dimensions of program PWSCF are:
     Max number of different atomic species (ntypx) = 10
     Max number of k-points (npk) =  40000
     Max angular momentum in pseudopotentials (lmaxx) =  3
     Presently stress not available with electric field

     IMPORTANT: XC functional enforced from input :
     Exchange-correlation      = BEEF-VDW ( 1  4 27 13 2)
     Any further DFT definition will be discarded
     Please, verify this is what you really want

     Subspace diagonalization in iterative solution of the eigenvalue problem:
     a serial algorithm will be used

     bravais-lattice index     =            0
     lattice parameter (alat)  =       1.8897  a.u.
     unit-cell volume          =    7007.1603 (a.u.)^3
     number of atoms/cell      =           12
     number of atomic types    =            2
     number of electrons       =       141.00
     number of Kohn-Sham states=          100
     kinetic-energy cutoff     =      36.7493  Ry
     charge density cutoff     =     367.4932  Ry
     convergence threshold     =      1.0E-06
     mixing beta               =       0.1000
     number of iterations used =           10  plain     mixing
     Exchange-correlation      = BEEF-VDW ( 1  4 27 13 2)
     nstep                     =           50

     celldm(1)=   1.889726  celldm(2)=   0.000000  celldm(3)=   0.000000
     celldm(4)=   0.000000  celldm(5)=   0.000000  celldm(6)=   0.000000

     crystal axes: (cart. coord. in units of alat)
               a(1) = (   6.845113   0.000000   0.000000 )
               a(2) = (  -3.422557   5.928042   0.000000 )
               a(3) = (   0.000000   0.000000  25.589012 )

     reciprocal axes: (cart. coord. in units 2 pi/alat)
               b(1) = (  0.146090  0.084345  0.000000 )
               b(2) = (  0.000000  0.168690  0.000000 )
               b(3) = (  0.000000  0.000000  0.039079 )

     PseudoPot. # 1 for Y  read from file:
     /afs/slac.stanford.edu/u/if/mamunm/psp/gbrv1.5pbe/Y.UPF
     MD5 check sum: d034151ed7554c50b6e82763ed42c788
     Pseudo is Ultrasoft + core correction, Zval = 11.0
     Generated by new atomic code, or converted to UPF format
     Using radial grid of  885 points,  6 beta functions with:
                l(1) =   0
                l(2) =   0
                l(3) =   1
                l(4) =   1
                l(5) =   2
                l(6) =   2
     Q(r) pseudized with  8 coefficients,  rinner =    1.200   1.200   1.200
                                                       1.200   1.200

     PseudoPot. # 2 for Sn read from file:
     /afs/slac.stanford.edu/u/if/mamunm/psp/gbrv1.5pbe/Sn.UPF
     MD5 check sum: 469debedee59599fedebd795477fea03
     Pseudo is Ultrasoft + core correction, Zval = 14.0
     Generated by new atomic code, or converted to UPF format
     Using radial grid of  891 points,  6 beta functions with:
                l(1) =   0
                l(2) =   0
                l(3) =   1
                l(4) =   1
                l(5) =   2
                l(6) =   2
     Q(r) pseudized with  8 coefficients,  rinner =    1.350   1.350   1.350
                                                       1.350   1.350

     vdW kernel table read from file vdW_kernel_table
     MD5 check sum: 095c7af220d748ca6e76c0b4c6cfb241

     atomic species   valence    mass     pseudopotential
        Y1            11.00    88.90584     Y ( 1.00)
        Sn1           14.00   118.71000     Sn( 1.00)

     No symmetry found

   Cartesian axes

     site n.     atom                  positions (alat units)
         1           Y1  tau(   1) = (   0.0000000   0.0000000  10.0000000  )
         2           Y1  tau(   2) = (  -1.7112784   2.9640211  10.0000000  )
         3           Y1  tau(   3) = (   1.7112784   2.9640211  10.0000000  )
         4           Sn1 tau(   4) = (   3.4225567   0.0000000  10.0000000  )
         5           Y1  tau(   5) = (   3.4225567   1.9760141  12.7945059  )
         6           Y1  tau(   6) = (   1.7112784   4.9400351  12.7945059  )
         7           Y1  tau(   7) = (  -1.7112784   4.9400351  12.7945059  )
         8           Sn1 tau(   8) = (   0.0000000   1.9760141  12.7945059  )
         9           Y1  tau(   9) = (  -0.0000000   3.9520281  15.5890118  )
        10           Y1  tau(  10) = (   1.7112784   0.9880070  15.5890118  )
        11           Y1  tau(  11) = (   5.1338351   0.9880070  15.5890118  )
        12           Sn1 tau(  12) = (   3.4225567   3.9520281  15.5890118  )

     number of k points=    20  Fermi-Dirac smearing, width (Ry)=  0.0110
                       cart. coord. in units 2pi/alat
        k(    1) = (   0.0000000   0.0000000   0.0000000), wk =   0.0555556
        k(    2) = (   0.0000000   0.0281150   0.0000000), wk =   0.1111111
        k(    3) = (   0.0000000   0.0562299   0.0000000), wk =   0.1111111
        k(    4) = (   0.0000000  -0.0843449   0.0000000), wk =   0.0555556
        k(    5) = (   0.0243483   0.0140575   0.0000000), wk =   0.1111111
        k(    6) = (   0.0243483   0.0421724   0.0000000), wk =   0.1111111
        k(    7) = (   0.0243483   0.0702874   0.0000000), wk =   0.1111111
        k(    8) = (   0.0243483  -0.0702874   0.0000000), wk =   0.1111111
        k(    9) = (   0.0243483  -0.0421724   0.0000000), wk =   0.1111111
        k(   10) = (   0.0243483  -0.0140575   0.0000000), wk =   0.1111111
        k(   11) = (   0.0486965   0.0281150   0.0000000), wk =   0.1111111
        k(   12) = (   0.0486965   0.0562299   0.0000000), wk =   0.1111111
        k(   13) = (   0.0486965   0.0843449   0.0000000), wk =   0.1111111
        k(   14) = (   0.0486965  -0.0562299   0.0000000), wk =   0.1111111
        k(   15) = (   0.0486965  -0.0281150   0.0000000), wk =   0.1111111
        k(   16) = (   0.0486965   0.0000000   0.0000000), wk =   0.1111111
        k(   17) = (  -0.0730448  -0.0421724   0.0000000), wk =   0.0555556
        k(   18) = (  -0.0730448  -0.0140575   0.0000000), wk =   0.1111111
        k(   19) = (  -0.0730448   0.0140575   0.0000000), wk =   0.1111111
        k(   20) = (  -0.0730448  -0.1265173   0.0000000), wk =   0.0555556

     Largest allocated arrays     est. size (Mb)     dimensions
     Largest temporary arrays     est. size (Mb)     dimensions

     Initial potential from superposition of free atoms
     Check: negative starting charge=   -0.000816

     starting charge  137.95964, renormalised to  141.00000

     negative rho (up, down):  8.336E-04 0.000E+00

     *
     * You are using vdW-DF for exchange-correlation in this calculation.
     * Please cite the following three references that made this development
     * possible:
     *
     *   M. Dion, H. Rydberg, E. Schroder, D. C. Langreth, and
     *   B. I. Lundqvist, Phys. Rev. Lett. 92, 246401 (2004).
     *
     *   T. Thonhauser, V. R. Cooper, S. Li, A. Puzder, P. Hyldgaard, and
     *   D. C. Langreth, Phys. Rev. B 76, 125112 (2007).
     *
     *   G. Roman-Perez and J. M. Soler, Phys. Rev. Lett. 103, 096102 (2009).
     *
     *
     * If you are using vdW-DF2, please also cite:
     *
     *   K. Lee, E. D. Murray, L. Kong, B. I. Lundqvist, and
     *   D. C. Langreth, Phys. Rev. B 82, 081101(R) (2010).
     *
     *
     * If you are calculating the stress with vdW-DF, please also cite:
     *
     *   R. Sabatini, E. Kucukbenli, B. Kolb, T. Thonhauser, and
     *   S. de Gironcoli, J. Phys.: Condens. Matter 24, 424209 (2012).
     *

     Carrying out vdW-DF run using the following parameters:

     Nqs =      20    Nr_points =    1024   r_max =   100.000
     q_mesh =
               0.00001000     0.04494208     0.09755937     0.15916263
               0.23128650     0.31572767     0.41458969     0.53033537
               0.66584808     0.82450364     1.01025438     1.22772762
               1.48234092     1.78043706     2.12944203     2.53805004
               3.01644009     3.57652955     4.23227104     5.00000000

     Gradients computed in reciprocal space

     Adding external electric field

     Computed dipole along edir(3) :
        Dipole                0.0000 Ry au,          0.0000 Debye
        Dipole field          0.0000 Ry au

        Potential amp.       -0.0000 Ry
        Total length         47.1473 bohr

     Starting wfc are  144 randomized atomic wfcs

     Self-consistent Calculation

     iteration #  1     ecut=    36.75 Ry     beta=0.10
     Davidson diagonalization with overlap
     ethr =  1.00E-02,  avg # of iterations =  2.2

[...]

     total energy              =   -1325.58665291 Ry
     Harris-Foulkes estimate   =   -1326.06604990 Ry
     estimated scf accuracy    <       2.90780270 Ry

[...]

     End of self-consistent calculation

          k = 0.0000 0.0000 0.0000 ( 26373 PWs)   bands (ev):

   -42.1456 -42.1444 -42.0903 -42.0903 -42.0900 -42.0900 -41.6223 -41.5672
   -41.5671 -22.3228 -22.3120 -22.2488 -22.2124 -22.2124 -22.1878 -22.1878
   -22.1805 -22.1568 -22.1568 -22.1108 -22.1108 -21.9237 -21.9155 -21.8884
   -21.7681 -21.7681 -21.7522 -21.7522 -21.6780 -21.6780 -21.5401 -21.5080
   -21.5079 -21.4297 -21.3061 -21.3060 -20.0852 -20.0830 -20.0830 -20.0761
   -20.0761 -19.9043 -19.9009 -19.8913 -19.8913 -19.8859 -19.8859 -19.8786
   -19.8786 -19.8781 -19.8781  -6.4461  -5.7534  -5.6721  -1.5969  -1.4291
    -1.0936  -0.6038  -0.6038  -0.5361  -0.5361  -0.1580   0.1764   0.1764
     0.2485   0.4927   0.4927   0.6936   0.7347   0.7347   1.0819   1.0819
     1.1432   1.3557   1.3557   1.4099   1.9406   2.0007   2.0454   2.0454
     2.3587   2.4780   2.4916   2.4916   3.1110   3.4916   3.6503   3.8218
     3.9350   3.9351   3.9501   3.9501   4.0552   4.0552   4.1659   4.1659
     4.2017   4.2197   4.3923   4.5401

[...]

          k =-0.0730-0.0422 0.0000 ( 26358 PWs)   bands (ev):

[...]

     the Fermi energy is     1.2427 ev

!    total energy              =   -1325.61643496 Ry
     Harris-Foulkes estimate   =   -1325.61643757 Ry
     estimated scf accuracy    <       0.00000045 Ry

     The total energy is the sum of the following terms:

     one-electron contribution =   -6853.34030811 Ry
     hartree contribution      =    3438.86995020 Ry
     xc contribution           =    -388.13483906 Ry
     ewald contribution        =    2477.08226800 Ry
     electric field correction =       0.00000001 Ry
     smearing contrib. (-TS)   =      -0.09350600 Ry

     convergence has been achieved in  17 iterations

 BEEF-vdW xc energy contributions
           1 :   -339.580367086770
           2 :    307.333620526095
           3 :   -251.868791345806
           4 :    187.106674937182
           5 :   -126.242713706056
           6 :    77.6284095450922
           7 :   -43.7321881832075
           8 :    22.7629911885235
           9 :   -11.3457355236253
          10 :    6.61253197854177
          11 :   -6.89431108194748
          12 :    11.1693116210121
          13 :   -18.0958751581584
          14 :    25.5220486962224
          15 :   -30.8814701019014
          16 :    32.1764748910100
          17 :   -28.8445199299786
          18 :    21.9412767821761
[...]
               b(2) = (  0.000000  0.168690  0.000000 )
               b(3) = (  0.000000  0.000000  0.039079 )

     PseudoPot. # 1 for Y  read from file:
     /afs/slac.stanford.edu/u/if/mamunm/psp/gbrv1.5pbe/Y.UPF
     MD5 check sum: d034151ed7554c50b6e82763ed42c788
     Pseudo is Ultrasoft + core correction, Zval = 11.0
     Generated by new atomic code, or converted to UPF format
     Using radial grid of  885 points,  6 beta functions with:
                l(1) =   0
                l(2) =   0
                l(3) =   1
                l(4) =   1
                l(5) =   2
                l(6) =   2
     Q(r) pseudized with  8 coefficients,  rinner =    1.200   1.200   1.200
                                                       1.200   1.200

     PseudoPot. # 2 for Sn read from file:
     /afs/slac.stanford.edu/u/if/mamunm/psp/gbrv1.5pbe/Sn.UPF
     MD5 check sum: 469debedee59599fedebd795477fea03
     Pseudo is Ultrasoft + core correction, Zval = 14.0
     Generated by new atomic code, or converted to UPF format
     Using radial grid of  891 points,  6 beta functions with:
                l(1) =   0
                l(2) =   0
                l(3) =   1
                l(4) =   1
                l(5) =   2
                l(6) =   2
     Q(r) pseudized with  8 coefficients,  rinner =    1.350   1.350   1.350
                                                       1.350   1.350

     vdW kernel table read from file vdW_kernel_table
     MD5 check sum: 095c7af220d748ca6e76c0b4c6cfb241

     atomic species   valence    mass     pseudopotential
        Y1            11.00    88.90584     Y ( 1.00)
        Sn1           14.00   118.71000     Sn( 1.00)

     No symmetry found

   Cartesian axes

     site n.     atom                  positions (alat units)
         1           Y1  tau(   1) = (   0.0000000   0.0000000  10.0000000  )
         2           Y1  tau(   2) = (  -1.7112784   2.9640211  10.0000000  )
         3           Y1  tau(   3) = (   1.7112784   2.9640211  10.0000000  )
         4           Sn1 tau(   4) = (   3.4225567   0.0000000  10.0000000  )
         5           Y1  tau(   5) = (   3.4225567   1.9760141  12.7945059  )
         6           Y1  tau(   6) = (   1.7112784   4.9400351  12.7945059  )
         7           Y1  tau(   7) = (  -1.7112784   4.9400351  12.7945059  )
         8           Sn1 tau(   8) = (   0.0000000   1.9760141  12.7945059  )
         9           Y1  tau(   9) = (  -0.0000531   3.9250944  15.6336370  )
        10           Y1  tau(  10) = (   1.6879227   1.0014803  15.6335703  )
        11           Y1  tau(  11) = (   5.1571908   1.0015445  15.6336461  )
        12           Sn1 tau(  12) = (   3.4224318   3.9520324  15.4975362  )

     number of k points=    20  Fermi-Dirac smearing, width (Ry)=  0.0110
                       cart. coord. in units 2pi/alat
        k(    1) = (   0.0000000   0.0000000   0.0000000), wk =   0.0555556
        k(    2) = (   0.0000000   0.0281150   0.0000000), wk =   0.1111111
        k(    3) = (   0.0000000   0.0562299   0.0000000), wk =   0.1111111
        k(    4) = (   0.0000000  -0.0843449   0.0000000), wk =   0.0555556
        k(    5) = (   0.0243483   0.0140575   0.0000000), wk =   0.1111111
        k(    6) = (   0.0243483   0.0421724   0.0000000), wk =   0.1111111
        k(    7) = (   0.0243483   0.0702874   0.0000000), wk =   0.1111111
        k(    8) = (   0.0243483  -0.0702874   0.0000000), wk =   0.1111111
        k(    9) = (   0.0243483  -0.0421724   0.0000000), wk =   0.1111111
        k(   10) = (   0.0243483  -0.0140575   0.0000000), wk =   0.1111111
        k(   11) = (   0.0486965   0.0281150   0.0000000), wk =   0.1111111
        k(   12) = (   0.0486965   0.0562299   0.0000000), wk =   0.1111111
        k(   13) = (   0.0486965   0.0843449   0.0000000), wk =   0.1111111
        k(   14) = (   0.0486965  -0.0562299   0.0000000), wk =   0.1111111
        k(   15) = (   0.0486965  -0.0281150   0.0000000), wk =   0.1111111
        k(   16) = (   0.0486965   0.0000000   0.0000000), wk =   0.1111111
        k(   17) = (  -0.0730448  -0.0421724   0.0000000), wk =   0.0555556
        k(   18) = (  -0.0730448  -0.0140575   0.0000000), wk =   0.1111111
        k(   19) = (  -0.0730448   0.0140575   0.0000000), wk =   0.1111111
        k(   20) = (  -0.0730448  -0.1265173   0.0000000), wk =   0.0555556

     Largest allocated arrays     est. size (Mb)     dimensions
     Largest temporary arrays     est. size (Mb)     dimensions

     Initial potential from superposition of free atoms
     Check: negative starting charge=   -0.000821

     starting charge  137.95964, renormalised to  141.00000

[...]

     *
     * You are using vdW-DF for exchange-correlation in this calculation.
     * Please cite the following three references that made this development
     * possible:
     *
     *   M. Dion, H. Rydberg, E. Schroder, D. C. Langreth, and
     *   B. I. Lundqvist, Phys. Rev. Lett. 92, 246401 (2004).
     *
     *   T. Thonhauser, V. R. Cooper, S. Li, A. Puzder, P. Hyldgaard, and
     *   D. C. Langreth, Phys. Rev. B 76, 125112 (2007).
     *
     *   G. Roman-Perez and J. M. Soler, Phys. Rev. Lett. 103, 096102 (2009).
     *
     *
     * If you are using vdW-DF2, please also cite:
     *
     *   K. Lee, E. D. Murray, L. Kong, B. I. Lundqvist, and
     *   D. C. Langreth, Phys. Rev. B 82, 081101(R) (2010).
     *
     *
     * If you are calculating the stress with vdW-DF, please also cite:
     *
     *   R. Sabatini, E. Kucukbenli, B. Kolb, T. Thonhauser, and
     *   S. de Gironcoli, J. Phys.: Condens. Matter 24, 424209 (2012).
     *

     Carrying out vdW-DF run using the following parameters:

     Nqs =      20    Nr_points =    1024   r_max =   100.000
     q_mesh =
               0.00001000     0.04494208     0.09755937     0.15916263
               0.23128650     0.31572767     0.41458969     0.53033537
               0.66584808     0.82450364     1.01025438     1.22772762
               1.48234092     1.78043706     2.12944203     2.53805004
               3.01644009     3.57652955     4.23227104     5.00000000

     Gradients computed in reciprocal space

[...]

     Starting wfc are  144 randomized atomic wfcs

     Self-consistent Calculation

[...]

     total energy              =   -1325.61874305 Ry
     Harris-Foulkes estimate   =   -1325.61874383 Ry
     estimated scf accuracy    <       0.00000143 Ry

     iteration # 18     ecut=    36.75 Ry     beta=0.10
     Davidson diagonalization with overlap
     ethr =  1.01E-09,  avg # of iterations =  2.9

[...]

     negative rho (up, down):  1.533E-04 0.000E+00

     Adding external electric field

     Computed dipole along edir(3) :
        Dipole                0.0245 Ry au,          0.0622 Debye
        Dipole field          0.0000 Ry au

        Potential amp.       -0.0041 Ry
        Total length         47.1473 bohr

     End of self-consistent calculation

[...]

          k = 0.0487 0.0000 0.0000 ( 26381 PWs)   bands (ev):

[...]

          k =-0.0730-0.1265 0.0000 ( 26358 PWs)   bands (ev):

   -42.1450 -42.1248 -42.1072 -42.1058 -42.0877 -42.0692 -41.5964 -41.5780
   -41.5595 -22.2509 -22.2201 -22.1891 -22.1883 -22.1633 -22.1416 -22.1281
   -22.1133 -22.0941 -22.0894 -22.0558 -22.0481 -22.0414 -22.0124 -21.9861
   -21.9621 -21.7867 -21.7657 -21.7570 -21.5933 -21.5797 -21.5586 -21.5528
   -21.5055 -21.4900 -21.4792 -21.3190 -20.0678 -20.0619 -20.0617 -20.0577
   -20.0535 -19.8890 -19.8825 -19.8818 -19.8756 -19.8696 -19.8658 -19.8656
   -19.8644 -19.8520 -19.8469  -5.9378  -5.6451  -5.4748  -2.3064  -1.6926
    -1.6633  -1.4606  -0.5905  -0.5356  -0.3029  -0.2100  -0.1456  -0.0855
     0.1999   0.7739   0.8280   0.9967   1.1171   1.2299   1.5110   1.5115
     1.5848   1.6485   1.7560   1.7752   1.8432   1.8488   2.2229   2.3589
     2.4203   2.4844   2.7239   2.8537   2.8758   3.2747   3.3478   3.4718
     3.5392   3.6172   3.8082   3.8617   3.8774   3.8947   3.9832   4.0618
     4.0886   4.1673   4.3958   4.5102

     the Fermi energy is     1.2651 ev

!    total energy              =   -1325.61874147 Ry
     Harris-Foulkes estimate   =   -1325.61874311 Ry
     estimated scf accuracy    <       0.00000018 Ry

     The total energy is the sum of the following terms:

     one-electron contribution =   -6849.11625979 Ry
     hartree contribution      =    3436.81309410 Ry
     xc contribution           =    -388.11960825 Ry
     ewald contribution        =    2474.89685197 Ry
     electric field correction =       0.00000107 Ry
     smearing contrib. (-TS)   =      -0.09282058 Ry

     convergence has been achieved in  18 iterations

 BEEF-vdW xc energy contributions
           1 :   -339.565825085220
           2 :    307.315721086217
           3 :   -251.849136842958
           4 :    187.090688740212
           5 :   -126.232074263052
           6 :    77.6158458157142
           7 :   -43.7054691154268
           8 :    22.7154371563343
           9 :   -11.2834331335303
          10 :    6.55158690677450
          11 :   -6.85038892501410
          12 :    11.1477116215656
          13 :   -18.0885981120048
          14 :    25.5132882275573
          15 :   -30.8582336024902
          16 :    32.1374588438689
          17 :   -28.8008459584296
          18 :    21.9083392876158
          19 :   -13.5721033716732
          20 :    6.04849491520901
          21 :  -0.960286954690389
          22 :   -1.06566593722687
          23 :   0.322092890446868
          24 :    2.32714162218036
          25 :   -5.84843723976576
          26 :    9.32836098114382
          27 :   -12.1063842438098
          28 :    13.7947790397600
          29 :   -14.2546382456237
          30 :    13.5663234295271
          31 :   -31.4510452578839
          32 :   -22.0152809492691

     Forces acting on atoms (Ry/au):

     negative rho (up, down):  1.533E-04 0.000E+00
     atom    1 type  1   force =     0.00000637    0.01019134   -0.00608048
     atom    2 type  1   force =     0.00882287   -0.00509305   -0.00607419
     atom    3 type  1   force =    -0.00882904   -0.00510327   -0.00608870
     atom    4 type  2   force =     0.00001155   -0.00000727    0.01012500
     atom    5 type  1   force =     0.00000840   -0.00200053    0.00196227
     atom    6 type  1   force =    -0.00173015    0.00101157    0.00196658
     atom    7 type  1   force =     0.00171804    0.00099344    0.00195347
     atom    8 type  2   force =     0.00001637    0.00001171    0.00159459
     atom    9 type  1   force =    -0.00000408    0.00059429   -0.00003428
     atom   10 type  1   force =     0.00051131   -0.00029874   -0.00003397
     atom   11 type  1   force =    -0.00052598   -0.00030074   -0.00003812
     atom   12 type  2   force =    -0.00000566    0.00000127    0.00074782

     Total force =     0.023511     Total SCF correction =     0.001312

     entering subroutine stress ...

     negative rho (up, down):  1.533E-04 0.000E+00
          total   stress  (Ry/bohr**3)                   (kbar)     P=   -4.07
  -0.00004301   0.00000000   0.00000000         -6.33      0.00      0.00
   0.00000000  -0.00004301  -0.00000000          0.00     -6.33     -0.00
   0.00000000  -0.00000000   0.00000309          0.00     -0.00      0.46

 !ASE

     Writing output data file calc.save

     General routines

     Parallel routines

   This run was terminated on:  14:58:16   2Jan2019

   JOB DONE.
Job  /afs/slac/g/suncat/bin/suncat-tsmpirun -x LD_LIBRARY_PATH -wdir /scratch/qe649447_xco4l pw.x -in pw.inp

TID   HOST_NAME   COMMAND_LINE            STATUS            TERMINATION_TIME
00000 suncat0058 pw.x -in pw.inp   Done                     01/02/2019 14:58:16
00001 suncat0058 pw.x -in pw.inp   Done                     01/02/2019 14:58:16
00002 suncat0058 pw.x -in pw.inp   Done                     01/02/2019 14:58:16
00003 suncat0058 pw.x -in pw.inp   Done                     01/02/2019 14:58:16
00004 suncat0058 pw.x -in pw.inp   Done                     01/02/2019 14:58:16
00005 suncat0058 pw.x -in pw.inp   Done                     01/02/2019 14:58:16
00006 suncat0058 pw.x -in pw.inp   Done                     01/02/2019 14:58:16
00007 suncat0058 pw.x -in pw.inp   Done                     01/02/2019 14:58:16
00008 suncat0056 pw.x -in pw.inp   Done                     01/02/2019 14:58:16
00009 suncat0056 pw.x -in pw.inp   Done                     01/02/2019 14:58:16
00010 suncat0056 pw.x -in pw.inp   Done                     01/02/2019 14:58:16
00011 suncat0056 pw.x -in pw.inp   Done                     01/02/2019 14:58:16
00012 suncat0056 pw.x -in pw.inp   Done                     01/02/2019 14:58:16
00013 suncat0056 pw.x -in pw.inp   Done                     01/02/2019 14:58:16
00014 suncat0056 pw.x -in pw.inp   Done                     01/02/2019 14:58:16
00015 suncat0056 pw.x -in pw.inp   Done                     01/02/2019 14:58:16
00016 suncat0054 pw.x -in pw.inp   Done                     01/02/2019 14:58:16
00017 suncat0054 pw.x -in pw.inp   Done                     01/02/2019 14:58:16
00018 suncat0054 pw.x -in pw.inp   Done                     01/02/2019 14:58:16
00019 suncat0054 pw.x -in pw.inp   Done                     01/02/2019 14:58:16
00020 suncat0054 pw.x -in pw.inp   Done                     01/02/2019 14:58:16
00021 suncat0054 pw.x -in pw.inp   Done                     01/02/2019 14:58:16
00022 suncat0054 pw.x -in pw.inp   Done                     01/02/2019 14:58:16
00023 suncat0054 pw.x -in pw.inp   Done                     01/02/2019 14:58:16
00024 suncat0052 pw.x -in pw.inp   Done                     01/02/2019 14:58:16
00025 suncat0052 pw.x -in pw.inp   Done                     01/02/2019 14:58:16
00026 suncat0052 pw.x -in pw.inp   Done                     01/02/2019 14:58:16
00027 suncat0052 pw.x -in pw.inp   Done                     01/02/2019 14:58:16
00028 suncat0052 pw.x -in pw.inp   Done                     01/02/2019 14:58:16
00029 suncat0052 pw.x -in pw.inp   Done                     01/02/2019 14:58:16
00030 suncat0052 pw.x -in pw.inp   Done                     01/02/2019 14:58:16
00031 suncat0052 pw.x -in pw.inp   Done                     01/02/2019 14:58:16
00032 suncat0048 pw.x -in pw.inp   Done                     01/02/2019 14:58:16
00033 suncat0048 pw.x -in pw.inp   Done                     01/02/2019 14:58:16
00034 suncat0048 pw.x -in pw.inp   Done                     01/02/2019 14:58:16
00035 suncat0048 pw.x -in pw.inp   Done                     01/02/2019 14:58:16
00036 suncat0048 pw.x -in pw.inp   Done                     01/02/2019 14:58:16
00037 suncat0048 pw.x -in pw.inp   Done                     01/02/2019 14:58:16
00038 suncat0048 pw.x -in pw.inp   Done                     01/02/2019 14:58:16
00039 suncat0048 pw.x -in pw.inp   Done                     01/02/2019 14:58:16
00040 suncat0047 pw.x -in pw.inp   Done                     01/02/2019 14:58:16
00041 suncat0047 pw.x -in pw.inp   Done                     01/02/2019 14:58:16
00042 suncat0047 pw.x -in pw.inp   Done                     01/02/2019 14:58:16
00043 suncat0047 pw.x -in pw.inp   Done                     01/02/2019 14:58:16
00044 suncat0047 pw.x -in pw.inp   Done                     01/02/2019 14:58:16
00045 suncat0047 pw.x -in pw.inp   Done                     01/02/2019 14:58:16
00046 suncat0047 pw.x -in pw.inp   Done                     01/02/2019 14:58:16
00047 suncat0047 pw.x -in pw.inp   Done                     01/02/2019 14:58:16
00048 suncat0121 pw.x -in pw.inp   Done                     01/02/2019 14:58:16
00049 suncat0121 pw.x -in pw.inp   Done                     01/02/2019 14:58:16
00050 suncat0121 pw.x -in pw.inp   Done                     01/02/2019 14:58:16
00051 suncat0121 pw.x -in pw.inp   Done                     01/02/2019 14:58:16
00052 suncat0121 pw.x -in pw.inp   Done                     01/02/2019 14:58:16
00053 suncat0121 pw.x -in pw.inp   Done                     01/02/2019 14:58:16
00054 suncat0121 pw.x -in pw.inp   Done                     01/02/2019 14:58:16
00055 suncat0121 pw.x -in pw.inp   Done                     01/02/2019 14:58:16
00056 suncat0115 pw.x -in pw.inp   Done                     01/02/2019 14:58:16
00057 suncat0115 pw.x -in pw.inp   Done                     01/02/2019 14:58:16
00058 suncat0115 pw.x -in pw.inp   Done                     01/02/2019 14:58:16
00059 suncat0115 pw.x -in pw.inp   Done                     01/02/2019 14:58:16
00060 suncat0115 pw.x -in pw.inp   Done                     01/02/2019 14:58:16
00061 suncat0115 pw.x -in pw.inp   Done                     01/02/2019 14:58:16
00062 suncat0115 pw.x -in pw.inp   Done                     01/02/2019 14:58:16
00063 suncat0115 pw.x -in pw.inp   Done                     01/02/2019 14:58:16