     Program PWSCF v.5.1rc2 (svn rev. 11289) starts on 26Dec2018 at 11:11:37

     Current dimensions of program PWSCF are:
     Max number of different atomic species (ntypx) = 10
     Max number of k-points (npk) =  40000
     Max angular momentum in pseudopotentials (lmaxx) =  3
     Presently stress not available with electric field

     IMPORTANT: XC functional enforced from input :
     Exchange-correlation      = BEEF-VDW ( 1  4 27 13 2)
     Any further DFT definition will be discarded
     Please, verify this is what you really want

     Subspace diagonalization in iterative solution of the eigenvalue problem:
     a serial algorithm will be used

     bravais-lattice index     =            0
     lattice parameter (alat)  =       1.8897  a.u.
     unit-cell volume          =    5483.3034 (a.u.)^3
     number of atoms/cell      =           12
     number of atomic types    =            2
     number of electrons       =       150.00
     number of Kohn-Sham states=          105
     kinetic-energy cutoff     =      36.7493  Ry
     charge density cutoff     =     367.4932  Ry
     convergence threshold     =      1.0E-06
     mixing beta               =       0.1000
     number of iterations used =           10  plain     mixing
     Exchange-correlation      = BEEF-VDW ( 1  4 27 13 2)
     nstep                     =           50

     celldm(1)=   1.889726  celldm(2)=   0.000000  celldm(3)=   0.000000
     celldm(4)=   0.000000  celldm(5)=   0.000000  celldm(6)=   0.000000

     crystal axes: (cart. coord. in units of alat)
               a(1) = (   6.125928   0.000000   0.000000 )
               a(2) = (  -3.062964   5.305209   0.000000 )
               a(3) = (   0.000000   0.000000  25.001799 )

     reciprocal axes: (cart. coord. in units 2 pi/alat)
               b(1) = (  0.163241  0.094247  0.000000 )
               b(2) = (  0.000000  0.188494  0.000000 )
               b(3) = (  0.000000  0.000000  0.039997 )

     PseudoPot. # 1 for Hg read from file:
     /afs/slac.stanford.edu/u/if/mamunm/psp/gbrv1.5pbe/Hg.UPF
     MD5 check sum: 8f42caffe07f7fd9c0a564347f8c5498
     Pseudo is Ultrasoft + core correction, Zval = 12.0
     Generated by new atomic code, or converted to UPF format
     Using radial grid of  985 points,  6 beta functions with:
                l(1) =   0
                l(2) =   0
                l(3) =   1
                l(4) =   1
                l(5) =   2
                l(6) =   2
     Q(r) pseudized with  8 coefficients,  rinner =    2.000   2.000   2.000
                                                       2.000   2.000

     PseudoPot. # 2 for W  read from file:
     /afs/slac.stanford.edu/u/if/mamunm/psp/gbrv1.5pbe/W.UPF
     MD5 check sum: 9c083fa34c2a2ea0f02f1f893e16e1c8
     Pseudo is Ultrasoft + core correction, Zval = 14.0
     Generated by new atomic code, or converted to UPF format
     Using radial grid of  923 points,  8 beta functions with:
                l(1) =   0
                l(2) =   0
                l(3) =   0
                l(4) =   1
                l(5) =   1
                l(6) =   2
                l(7) =   2
                l(8) =   3
     Q(r) pseudized with  6 coefficients,  rinner =    1.350   1.350   1.350
                                                       1.350   1.350   1.350
                                                       1.350

     vdW kernel table read from file vdW_kernel_table
     MD5 check sum: 095c7af220d748ca6e76c0b4c6cfb241

     atomic species   valence    mass     pseudopotential
        Hg1           12.00   200.59200     Hg( 1.00)
        W1            14.00   183.84000     W ( 1.00)

     No symmetry found

   Cartesian axes

     site n.     atom                  positions (alat units)
         1           Hg1 tau(   1) = (   0.0000000   0.0000000  10.0000000  )
         2           Hg1 tau(   2) = (  -1.5314820   2.6526046  10.0000000  )
         3           Hg1 tau(   3) = (   1.5314820   2.6526046  10.0000000  )
         4           W1  tau(   4) = (   3.0629640   0.0000000  10.0000000  )
         5           Hg1 tau(   5) = (   3.0629640   1.7684031  12.5008996  )
         6           Hg1 tau(   6) = (   1.5314820   4.4210077  12.5008996  )
         7           Hg1 tau(   7) = (  -1.5314820   4.4210077  12.5008996  )
         8           W1  tau(   8) = (   0.0000000   1.7684031  12.5008996  )
         9           Hg1 tau(   9) = (  -0.0000000   3.5368062  15.0017993  )
        10           Hg1 tau(  10) = (   1.5314820   0.8842015  15.0017993  )
        11           Hg1 tau(  11) = (   4.5944460   0.8842015  15.0017993  )
        12           W1  tau(  12) = (   3.0629640   3.5368062  15.0017993  )

     number of k points=    20  Fermi-Dirac smearing, width (Ry)=  0.0110
                       cart. coord. in units 2pi/alat
        k(    1) = (   0.0000000   0.0000000   0.0000000), wk =   0.0555556
        k(    2) = (   0.0000000   0.0314157   0.0000000), wk =   0.1111111
        k(    3) = (   0.0000000   0.0628313   0.0000000), wk =   0.1111111
        k(    4) = (   0.0000000  -0.0942470   0.0000000), wk =   0.0555556
        k(    5) = (   0.0272068   0.0157078   0.0000000), wk =   0.1111111
        k(    6) = (   0.0272068   0.0471235   0.0000000), wk =   0.1111111
        k(    7) = (   0.0272068   0.0785392   0.0000000), wk =   0.1111111
        k(    8) = (   0.0272068  -0.0785392   0.0000000), wk =   0.1111111
        k(    9) = (   0.0272068  -0.0471235   0.0000000), wk =   0.1111111
        k(   10) = (   0.0272068  -0.0157078   0.0000000), wk =   0.1111111
        k(   11) = (   0.0544135   0.0314157   0.0000000), wk =   0.1111111
        k(   12) = (   0.0544135   0.0628313   0.0000000), wk =   0.1111111
        k(   13) = (   0.0544135   0.0942470   0.0000000), wk =   0.1111111
        k(   14) = (   0.0544135  -0.0628313   0.0000000), wk =   0.1111111
        k(   15) = (   0.0544135  -0.0314157   0.0000000), wk =   0.1111111
        k(   16) = (   0.0544135   0.0000000   0.0000000), wk =   0.1111111
        k(   17) = (  -0.0816203  -0.0471235   0.0000000), wk =   0.0555556
        k(   18) = (  -0.0816203  -0.0157078   0.0000000), wk =   0.1111111
        k(   19) = (  -0.0816203   0.0157078   0.0000000), wk =   0.1111111
        k(   20) = (  -0.0816203  -0.1413705   0.0000000), wk =   0.0555556

     Largest allocated arrays     est. size (Mb)     dimensions
     Largest temporary arrays     est. size (Mb)     dimensions

     Initial potential from superposition of free atoms
     Check: negative starting charge=   -0.197155

     starting charge  149.69846, renormalised to  150.00000

     negative rho (up, down):  1.976E-01 0.000E+00

     *
     * You are using vdW-DF for exchange-correlation in this calculation.
     * Please cite the following three references that made this development
     * possible:
     *
     *   M. Dion, H. Rydberg, E. Schroder, D. C. Langreth, and
     *   B. I. Lundqvist, Phys. Rev. Lett. 92, 246401 (2004).
     *
     *   T. Thonhauser, V. R. Cooper, S. Li, A. Puzder, P. Hyldgaard, and
     *   D. C. Langreth, Phys. Rev. B 76, 125112 (2007).
     *
     *   G. Roman-Perez and J. M. Soler, Phys. Rev. Lett. 103, 096102 (2009).
     *
     *
     * If you are using vdW-DF2, please also cite:
     *
     *   K. Lee, E. D. Murray, L. Kong, B. I. Lundqvist, and
     *   D. C. Langreth, Phys. Rev. B 82, 081101(R) (2010).
     *
     *
     * If you are calculating the stress with vdW-DF, please also cite:
     *
     *   R. Sabatini, E. Kucukbenli, B. Kolb, T. Thonhauser, and
     *   S. de Gironcoli, J. Phys.: Condens. Matter 24, 424209 (2012).
     *

     Carrying out vdW-DF run using the following parameters:

     Nqs =      20    Nr_points =    1024   r_max =   100.000
     q_mesh =
               0.00001000     0.04494208     0.09755937     0.15916263
               0.23128650     0.31572767     0.41458969     0.53033537
               0.66584808     0.82450364     1.01025438     1.22772762
               1.48234092     1.78043706     2.12944203     2.53805004
               3.01644009     3.57652955     4.23227104     5.00000000

     Gradients computed in reciprocal space

     Adding external electric field

     Computed dipole along edir(3) :
        Dipole                0.0000 Ry au,          0.0000 Debye
        Dipole field          0.0000 Ry au

        Potential amp.       -0.0000 Ry
        Total length         46.0654 bohr

     Starting wfc are  120 randomized atomic wfcs

     Self-consistent Calculation

     iteration #  1     ecut=    36.75 Ry     beta=0.10
     Davidson diagonalization with overlap
     ethr =  1.00E-02,  avg # of iterations =  8.5

     Threshold (ethr) on eigenvalues was too large:
     Diagonalizing with lowered threshold

     Davidson diagonalization with overlap
     ethr =  8.59E-04,  avg # of iterations =  1.8

[...]

     total energy              =   -1462.28888825 Ry
     Harris-Foulkes estimate   =   -1462.51011301 Ry
     estimated scf accuracy    <       1.31353048 Ry

[...]

     End of self-consistent calculation

          k = 0.0000 0.0000 0.0000 ( 20647 PWs)   bands (ev):

   -73.6018 -73.5157 -73.5156 -37.7076 -37.6571 -37.6564 -37.6520 -37.6520
   -37.5128 -37.5128 -37.5124 -37.5124  -8.1988  -7.5031  -7.4130  -7.3397
    -7.3395  -7.3102  -7.2998  -7.1350  -7.0960  -7.0959  -6.9790  -6.9788
    -6.7999  -6.7999  -6.7957  -6.5040  -6.4703  -6.4703  -6.3113  -6.1818
    -6.1818  -6.1420  -6.0906  -6.0743  -6.0739  -5.9667  -5.9664  -5.7401
    -5.7400  -5.6781  -5.6781  -5.5411  -5.5389  -5.5389  -5.5060  -5.4464
    -5.4464  -5.4369  -5.4369  -5.2116  -5.2115  -5.1297  -5.0480  -4.9791
    -4.9791  -4.7426  -4.7295  -3.1280  -1.6782  -1.6781  -1.3188  -1.3188
    -1.0669  -0.5350  -0.5350  -0.4765   0.2573   0.2573   0.3102   0.7424
     1.1502   1.1502   1.2263   1.3404   1.3404   1.4871   1.4872   2.1614
     2.1614   2.3785   2.4019   2.4019   2.4264   3.6376   3.6376   3.6988
     3.6988   3.7607   4.3008   4.3687   4.3687   4.5179   4.9428   5.0319
     5.6424   6.5644   6.7406   7.4312   7.4312   7.7440   7.8457   7.8457
     8.1679

[...]

          k =-0.0816-0.0471 0.0000 ( 20656 PWs)   bands (ev):

[...]

     the Fermi energy is     1.0807 ev

!    total energy              =   -1462.31920249 Ry
     Harris-Foulkes estimate   =   -1462.31920087 Ry
     estimated scf accuracy    <       0.00000097 Ry

     The total energy is the sum of the following terms:

     one-electron contribution =   -9812.83548763 Ry
     hartree contribution      =    4969.99318661 Ry
     xc contribution           =    -491.31222005 Ry
     ewald contribution        =    3871.91263169 Ry
     electric field correction =       0.00000000 Ry
     smearing contrib. (-TS)   =      -0.07731311 Ry

     convergence has been achieved in  14 iterations

 BEEF-vdW xc energy contributions
           1 :   -431.050400559620
           2 :    397.510357250208
           3 :   -338.780304281564
           4 :    268.281360423307
           5 :   -199.811685969343
           6 :    143.448786192528
           7 :   -103.399137637696
           8 :    78.2346051252734
[...]
     Generated by new atomic code, or converted to UPF format
     Using radial grid of  985 points,  6 beta functions with:
                l(1) =   0
                l(2) =   0
                l(3) =   1
                l(4) =   1
                l(5) =   2
                l(6) =   2
     Q(r) pseudized with  8 coefficients,  rinner =    2.000   2.000   2.000
                                                       2.000   2.000

     PseudoPot. # 2 for W  read from file:
     /afs/slac.stanford.edu/u/if/mamunm/psp/gbrv1.5pbe/W.UPF
     MD5 check sum: 9c083fa34c2a2ea0f02f1f893e16e1c8
     Pseudo is Ultrasoft + core correction, Zval = 14.0
     Generated by new atomic code, or converted to UPF format
     Using radial grid of  923 points,  8 beta functions with:
                l(1) =   0
                l(2) =   0
                l(3) =   0
                l(4) =   1
                l(5) =   1
                l(6) =   2
                l(7) =   2
                l(8) =   3
     Q(r) pseudized with  6 coefficients,  rinner =    1.350   1.350   1.350
                                                       1.350   1.350   1.350
                                                       1.350

     vdW kernel table read from file vdW_kernel_table
     MD5 check sum: 095c7af220d748ca6e76c0b4c6cfb241

     atomic species   valence    mass     pseudopotential
        Hg1           12.00   200.59200     Hg( 1.00)
        W1            14.00   183.84000     W ( 1.00)

     No symmetry found

   Cartesian axes

     site n.     atom                  positions (alat units)
         1           Hg1 tau(   1) = (   0.0000000   0.0000000  10.0000000  )
         2           Hg1 tau(   2) = (  -1.5314820   2.6526046  10.0000000  )
         3           Hg1 tau(   3) = (   1.5314820   2.6526046  10.0000000  )
         4           W1  tau(   4) = (   3.0629640   0.0000000  10.0000000  )
         5           Hg1 tau(   5) = (   3.0629640   1.7684031  12.5008996  )
         6           Hg1 tau(   6) = (   1.5314820   4.4210077  12.5008996  )
         7           Hg1 tau(   7) = (  -1.5314820   4.4210077  12.5008996  )
         8           W1  tau(   8) = (   0.0000000   1.7684031  12.5008996  )
         9           Hg1 tau(   9) = (  -0.0000287   3.5376085  15.2896479  )
        10           Hg1 tau(  10) = (   1.5321058   0.8838375  15.2896077  )
        11           Hg1 tau(  11) = (   4.5937355   0.8838237  15.2896648  )
        12           W1  tau(  12) = (   3.0629511   3.5368176  14.7269684  )

     number of k points=    20  Fermi-Dirac smearing, width (Ry)=  0.0110
                       cart. coord. in units 2pi/alat
        k(    1) = (   0.0000000   0.0000000   0.0000000), wk =   0.0555556
        k(    2) = (   0.0000000   0.0314157   0.0000000), wk =   0.1111111
        k(    3) = (   0.0000000   0.0628313   0.0000000), wk =   0.1111111
        k(    4) = (   0.0000000  -0.0942470   0.0000000), wk =   0.0555556
        k(    5) = (   0.0272068   0.0157078   0.0000000), wk =   0.1111111
        k(    6) = (   0.0272068   0.0471235   0.0000000), wk =   0.1111111
        k(    7) = (   0.0272068   0.0785392   0.0000000), wk =   0.1111111
        k(    8) = (   0.0272068  -0.0785392   0.0000000), wk =   0.1111111
        k(    9) = (   0.0272068  -0.0471235   0.0000000), wk =   0.1111111
        k(   10) = (   0.0272068  -0.0157078   0.0000000), wk =   0.1111111
        k(   11) = (   0.0544135   0.0314157   0.0000000), wk =   0.1111111
        k(   12) = (   0.0544135   0.0628313   0.0000000), wk =   0.1111111
        k(   13) = (   0.0544135   0.0942470   0.0000000), wk =   0.1111111
        k(   14) = (   0.0544135  -0.0628313   0.0000000), wk =   0.1111111
        k(   15) = (   0.0544135  -0.0314157   0.0000000), wk =   0.1111111
        k(   16) = (   0.0544135   0.0000000   0.0000000), wk =   0.1111111
        k(   17) = (  -0.0816203  -0.0471235   0.0000000), wk =   0.0555556
        k(   18) = (  -0.0816203  -0.0157078   0.0000000), wk =   0.1111111
        k(   19) = (  -0.0816203   0.0157078   0.0000000), wk =   0.1111111
        k(   20) = (  -0.0816203  -0.1413705   0.0000000), wk =   0.0555556

     Largest allocated arrays     est. size (Mb)     dimensions
     Largest temporary arrays     est. size (Mb)     dimensions

     Initial potential from superposition of free atoms
     Check: negative starting charge=   -0.195851

     starting charge  149.69846, renormalised to  150.00000

[...]

     *
     * You are using vdW-DF for exchange-correlation in this calculation.
     * Please cite the following three references that made this development
     * possible:
     *
     *   M. Dion, H. Rydberg, E. Schroder, D. C. Langreth, and
     *   B. I. Lundqvist, Phys. Rev. Lett. 92, 246401 (2004).
     *
     *   T. Thonhauser, V. R. Cooper, S. Li, A. Puzder, P. Hyldgaard, and
     *   D. C. Langreth, Phys. Rev. B 76, 125112 (2007).
     *
     *   G. Roman-Perez and J. M. Soler, Phys. Rev. Lett. 103, 096102 (2009).
     *
     *
     * If you are using vdW-DF2, please also cite:
     *
     *   K. Lee, E. D. Murray, L. Kong, B. I. Lundqvist, and
     *   D. C. Langreth, Phys. Rev. B 82, 081101(R) (2010).
     *
     *
     * If you are calculating the stress with vdW-DF, please also cite:
     *
     *   R. Sabatini, E. Kucukbenli, B. Kolb, T. Thonhauser, and
     *   S. de Gironcoli, J. Phys.: Condens. Matter 24, 424209 (2012).
     *

     Carrying out vdW-DF run using the following parameters:

     Nqs =      20    Nr_points =    1024   r_max =   100.000
     q_mesh =
               0.00001000     0.04494208     0.09755937     0.15916263
               0.23128650     0.31572767     0.41458969     0.53033537
               0.66584808     0.82450364     1.01025438     1.22772762
               1.48234092     1.78043706     2.12944203     2.53805004
               3.01644009     3.57652955     4.23227104     5.00000000

     Gradients computed in reciprocal space

[...]

     Starting wfc are  120 randomized atomic wfcs

     Self-consistent Calculation

[...]

     Threshold (ethr) on eigenvalues was too large:
     Diagonalizing with lowered threshold

     Davidson diagonalization with overlap
     ethr =  8.85E-04,  avg # of iterations =  1.6

[...]

     total energy              =   -1462.37654648 Ry
     Harris-Foulkes estimate   =   -1462.37654593 Ry
     estimated scf accuracy    <       0.00000479 Ry

     iteration # 15     ecut=    36.75 Ry     beta=0.10
     Davidson diagonalization with overlap
     ethr =  3.19E-09,  avg # of iterations =  2.0

[...]

     negative rho (up, down):  2.048E-01 0.000E+00

     Adding external electric field

     Computed dipole along edir(3) :
        Dipole               -0.0338 Ry au,         -0.0859 Debye
        Dipole field         -0.0001 Ry au

        Potential amp.        0.0071 Ry
        Total length         46.0654 bohr

     End of self-consistent calculation

[...]

          k = 0.0544 0.0000 0.0000 ( 20575 PWs)   bands (ev):

[...]

          k =-0.0816-0.1414 0.0000 ( 20656 PWs)   bands (ev):

   -73.6471 -73.5179 -73.4500 -37.7275 -37.6892 -37.6884 -37.6608 -37.5760
   -37.5145 -37.5140 -37.4596 -37.4589  -7.2632  -7.0041  -6.9401  -6.8197
    -6.7683  -6.7203  -6.6893  -6.6177  -6.6130  -6.6005  -6.5794  -6.5027
    -6.4753  -6.3197  -6.2992  -6.2690  -6.1978  -6.1784  -6.1130  -6.0595
    -6.0113  -5.9951  -5.8901  -5.8881  -5.8815  -5.8302  -5.8045  -5.8042
    -5.8006  -5.7436  -5.7351  -5.6832  -5.6794  -5.6698  -5.6178  -5.6080
    -5.5874  -5.4935  -5.4826  -5.4812  -5.3878  -5.3080  -5.2884  -5.2451
    -5.1845  -5.0069  -4.8951  -4.3546  -3.9130  -3.1117  -2.1590  -2.1045
    -1.6021  -1.1380  -0.8453  -0.0820  -0.0140   0.2309   0.4411   0.5699
     0.5872   0.7419   0.9173   0.9816   1.3995   1.5020   1.8183   1.8324
     2.5346   2.8065   2.8746   3.2686   3.3737   3.6788   4.5824   5.1355
     5.1733   5.2635   5.3618   5.5276   5.9476   6.1214   6.1913   6.2900
     6.5127   6.6671   6.8430   6.9121   7.4979   7.5207   7.5666   7.6730
     7.7859

     the Fermi energy is     1.0758 ev

!    total energy              =   -1462.37654760 Ry
     Harris-Foulkes estimate   =   -1462.37654710 Ry
     estimated scf accuracy    <       0.00000073 Ry

     The total energy is the sum of the following terms:

     one-electron contribution =   -9617.51190951 Ry
     hartree contribution      =    4872.72159159 Ry
     xc contribution           =    -491.22466679 Ry
     ewald contribution        =    3773.70983317 Ry
     electric field correction =       0.00000262 Ry
     smearing contrib. (-TS)   =      -0.07139868 Ry

     convergence has been achieved in  15 iterations

 BEEF-vdW xc energy contributions
           1 :   -431.155862068534
           2 :    397.518054249715
           3 :   -338.682585734712
           4 :    268.171423048166
           5 :   -199.815414503101
           6 :    143.636150307206
           7 :   -103.734345123939
           8 :    78.5935307309280
           9 :   -63.2661251887776
          10 :    52.2428503647591
          11 :   -41.7282192512770
          12 :    30.5256666227499
          13 :   -19.5112980501825
          14 :    10.3132946681675
          15 :   -4.03743042466010
          16 :   0.645842676867801
          17 :   0.869255875019462
          18 :   -1.80521517767750
          19 :    3.03923080223115
          20 :   -4.68661468223792
          21 :    6.25449819703385
          22 :   -7.12328685400627
          23 :    7.02230796009121
          24 :   -6.21847402501470
          25 :    5.34205631871225
          26 :   -4.99642397578759
          27 :    5.40525224831538
          28 :   -6.30324496809601
          29 :    7.11569995034961
          30 :   -7.30450486001575
          31 :   -39.7864892650898
          32 :   -29.4472708199146

     Forces acting on atoms (Ry/au):

     negative rho (up, down):  2.048E-01 0.000E+00
     atom    1 type  1   force =    -0.00000083    0.00353846   -0.03047639
     atom    2 type  1   force =     0.00306494   -0.00176948   -0.03047644
     atom    3 type  1   force =    -0.00306442   -0.00176834   -0.03047494
     atom    4 type  2   force =    -0.00000028   -0.00000044    0.07099935
     atom    5 type  1   force =     0.00000099   -0.02041148    0.00425779
     atom    6 type  1   force =    -0.01767820    0.01020675    0.00425817
     atom    7 type  1   force =     0.01767661    0.01020575    0.00425827
     atom    8 type  2   force =    -0.00000073   -0.00000008    0.00733931
     atom    9 type  1   force =    -0.00000006    0.00003609    0.00006656
     atom   10 type  1   force =     0.00003244   -0.00001852    0.00006577
     atom   11 type  1   force =    -0.00003141   -0.00001856    0.00006626
     atom   12 type  2   force =     0.00000095   -0.00000014    0.00011627

     Total force =     0.096037     Total SCF correction =     0.001484

     entering subroutine stress ...

     negative rho (up, down):  2.048E-01 0.000E+00
          total   stress  (Ry/bohr**3)                   (kbar)     P=  -10.13
  -0.00010389  -0.00000000  -0.00000000        -15.28     -0.00     -0.00
  -0.00000000  -0.00010389  -0.00000000         -0.00    -15.28     -0.00
  -0.00000000  -0.00000000   0.00000122         -0.00     -0.00      0.18

 !ASE

     Writing output data file calc.save

     General routines

     Parallel routines

   This run was terminated on:  13:11:16  26Dec2018

   JOB DONE.
Job  /afs/slac/g/suncat/bin/suncat-tsmpirun -x LD_LIBRARY_PATH -wdir /scratch/qe109844_Opp41 pw.x -in pw.inp

TID   HOST_NAME   COMMAND_LINE            STATUS            TERMINATION_TIME
00000 suncat0089 pw.x -in pw.inp   Done                     12/26/2018 13:11:16
00001 suncat0089 pw.x -in pw.inp   Done                     12/26/2018 13:11:16
00002 suncat0089 pw.x -in pw.inp   Done                     12/26/2018 13:11:16
00003 suncat0089 pw.x -in pw.inp   Done                     12/26/2018 13:11:16
00004 suncat0089 pw.x -in pw.inp   Done                     12/26/2018 13:11:16
00005 suncat0089 pw.x -in pw.inp   Done                     12/26/2018 13:11:16
00006 suncat0089 pw.x -in pw.inp   Done                     12/26/2018 13:11:16
00007 suncat0089 pw.x -in pw.inp   Done                     12/26/2018 13:11:16
00008 suncat0088 pw.x -in pw.inp   Done                     12/26/2018 13:11:16
00009 suncat0088 pw.x -in pw.inp   Done                     12/26/2018 13:11:16
00010 suncat0088 pw.x -in pw.inp   Done                     12/26/2018 13:11:16
00011 suncat0088 pw.x -in pw.inp   Done                     12/26/2018 13:11:16
00012 suncat0088 pw.x -in pw.inp   Done                     12/26/2018 13:11:16
00013 suncat0088 pw.x -in pw.inp   Done                     12/26/2018 13:11:16
00014 suncat0088 pw.x -in pw.inp   Done                     12/26/2018 13:11:16
00015 suncat0088 pw.x -in pw.inp   Done                     12/26/2018 13:11:16
00016 suncat0087 pw.x -in pw.inp   Done                     12/26/2018 13:11:16
00017 suncat0087 pw.x -in pw.inp   Done                     12/26/2018 13:11:16
00018 suncat0087 pw.x -in pw.inp   Done                     12/26/2018 13:11:16
00019 suncat0087 pw.x -in pw.inp   Done                     12/26/2018 13:11:16
00020 suncat0087 pw.x -in pw.inp   Done                     12/26/2018 13:11:16
00021 suncat0087 pw.x -in pw.inp   Done                     12/26/2018 13:11:16
00022 suncat0087 pw.x -in pw.inp   Done                     12/26/2018 13:11:16
00023 suncat0087 pw.x -in pw.inp   Done                     12/26/2018 13:11:16
00024 suncat0086 pw.x -in pw.inp   Done                     12/26/2018 13:11:16
00025 suncat0086 pw.x -in pw.inp   Done                     12/26/2018 13:11:16
00026 suncat0086 pw.x -in pw.inp   Done                     12/26/2018 13:11:16
00027 suncat0086 pw.x -in pw.inp   Done                     12/26/2018 13:11:16
00028 suncat0086 pw.x -in pw.inp   Done                     12/26/2018 13:11:16
00029 suncat0086 pw.x -in pw.inp   Done                     12/26/2018 13:11:16
00030 suncat0086 pw.x -in pw.inp   Done                     12/26/2018 13:11:16
00031 suncat0086 pw.x -in pw.inp   Done                     12/26/2018 13:11:16
00032 suncat0085 pw.x -in pw.inp   Done                     12/26/2018 13:11:16
00033 suncat0085 pw.x -in pw.inp   Done                     12/26/2018 13:11:16
00034 suncat0085 pw.x -in pw.inp   Done                     12/26/2018 13:11:16
00035 suncat0085 pw.x -in pw.inp   Done                     12/26/2018 13:11:16
00036 suncat0085 pw.x -in pw.inp   Done                     12/26/2018 13:11:16
00037 suncat0085 pw.x -in pw.inp   Done                     12/26/2018 13:11:16
00038 suncat0085 pw.x -in pw.inp   Done                     12/26/2018 13:11:16
00039 suncat0085 pw.x -in pw.inp   Done                     12/26/2018 13:11:16
00040 suncat0084 pw.x -in pw.inp   Done                     12/26/2018 13:11:16
00041 suncat0084 pw.x -in pw.inp   Done                     12/26/2018 13:11:16
00042 suncat0084 pw.x -in pw.inp   Done                     12/26/2018 13:11:16
00043 suncat0084 pw.x -in pw.inp   Done                     12/26/2018 13:11:16
00044 suncat0084 pw.x -in pw.inp   Done                     12/26/2018 13:11:16
00045 suncat0084 pw.x -in pw.inp   Done                     12/26/2018 13:11:16
00046 suncat0084 pw.x -in pw.inp   Done                     12/26/2018 13:11:16
00047 suncat0084 pw.x -in pw.inp   Done                     12/26/2018 13:11:16
00048 suncat0073 pw.x -in pw.inp   Done                     12/26/2018 13:11:16
00049 suncat0073 pw.x -in pw.inp   Done                     12/26/2018 13:11:16
00050 suncat0073 pw.x -in pw.inp   Done                     12/26/2018 13:11:16
00051 suncat0073 pw.x -in pw.inp   Done                     12/26/2018 13:11:16
00052 suncat0073 pw.x -in pw.inp   Done                     12/26/2018 13:11:16
00053 suncat0073 pw.x -in pw.inp   Done                     12/26/2018 13:11:16
00054 suncat0073 pw.x -in pw.inp   Done                     12/26/2018 13:11:16
00055 suncat0073 pw.x -in pw.inp   Done                     12/26/2018 13:11:16
00056 suncat0068 pw.x -in pw.inp   Done                     12/26/2018 13:11:16
00057 suncat0068 pw.x -in pw.inp   Done                     12/26/2018 13:11:16
00058 suncat0068 pw.x -in pw.inp   Done                     12/26/2018 13:11:16
00059 suncat0068 pw.x -in pw.inp   Done                     12/26/2018 13:11:16
00060 suncat0068 pw.x -in pw.inp   Done                     12/26/2018 13:11:16
00061 suncat0068 pw.x -in pw.inp   Done                     12/26/2018 13:11:16
00062 suncat0068 pw.x -in pw.inp   Done                     12/26/2018 13:11:16
00063 suncat0068 pw.x -in pw.inp   Done                     12/26/2018 13:11:16