     Program PWSCF v.5.1rc2 (svn rev. 11289) starts on 19Dec2018 at 16:35:38

     Current dimensions of program PWSCF are:
     Max number of different atomic species (ntypx) = 10
     Max number of k-points (npk) =  40000
     Max angular momentum in pseudopotentials (lmaxx) =  3
     Presently stress not available with electric field

     IMPORTANT: XC functional enforced from input :
     Exchange-correlation      = BEEF-VDW ( 1  4 27 13 2)
     Any further DFT definition will be discarded
     Please, verify this is what you really want

     Subspace diagonalization in iterative solution of the eigenvalue problem:
     a serial algorithm will be used

     bravais-lattice index     =            0
     lattice parameter (alat)  =       1.8897  a.u.
     unit-cell volume          =    5802.3376 (a.u.)^3
     number of atoms/cell      =           12
     number of atomic types    =            2
     number of electrons       =       204.00
     number of Kohn-Sham states=          132
     kinetic-energy cutoff     =      36.7493  Ry
     charge density cutoff     =     367.4932  Ry
     convergence threshold     =      1.0E-06
     mixing beta               =       0.1000
     number of iterations used =           10  plain     mixing
     Exchange-correlation      = BEEF-VDW ( 1  4 27 13 2)
     nstep                     =           50

     celldm(1)=   1.889726  celldm(2)=   0.000000  celldm(3)=   0.000000
     celldm(4)=   0.000000  celldm(5)=   0.000000  celldm(6)=   0.000000

     crystal axes: (cart. coord. in units of alat)
               a(1) = (   6.285287   0.000000   0.000000 )
               a(2) = (  -3.142643   5.443218   0.000000 )
               a(3) = (   0.000000   0.000000  25.131915 )

     reciprocal axes: (cart. coord. in units 2 pi/alat)
               b(1) = (  0.159102  0.091857  0.000000 )
               b(2) = (  0.000000  0.183715  0.000000 )
               b(3) = (  0.000000  0.000000  0.039790 )

     PseudoPot. # 1 for Ag read from file:
     /afs/slac.stanford.edu/u/if/mamunm/psp/gbrv1.5pbe/Ag.UPF
     MD5 check sum: d66d668201baa78d5eb5b04ef7011058
     Pseudo is Ultrasoft + core correction, Zval = 19.0
     Generated by new atomic code, or converted to UPF format
     Using radial grid of  887 points,  6 beta functions with:
                l(1) =   0
                l(2) =   0
                l(3) =   1
                l(4) =   1
                l(5) =   2
                l(6) =   2
     Q(r) pseudized with  6 coefficients,  rinner =    1.300   1.300   1.300
                                                       1.300   1.300

     PseudoPot. # 2 for Y  read from file:
     /afs/slac.stanford.edu/u/if/mamunm/psp/gbrv1.5pbe/Y.UPF
     MD5 check sum: d034151ed7554c50b6e82763ed42c788
     Pseudo is Ultrasoft + core correction, Zval = 11.0
     Generated by new atomic code, or converted to UPF format
     Using radial grid of  885 points,  6 beta functions with:
                l(1) =   0
                l(2) =   0
                l(3) =   1
                l(4) =   1
                l(5) =   2
                l(6) =   2
     Q(r) pseudized with  8 coefficients,  rinner =    1.200   1.200   1.200
                                                       1.200   1.200

     vdW kernel table read from file vdW_kernel_table
     MD5 check sum: 095c7af220d748ca6e76c0b4c6cfb241

     atomic species   valence    mass     pseudopotential
        Ag1           19.00   107.86820     Ag( 1.00)
        Y1            11.00    88.90584     Y ( 1.00)

     No symmetry found

   Cartesian axes

     site n.     atom                  positions (alat units)
         1           Ag1 tau(   1) = (   0.0000000   0.0000000  10.0000000  )
         2           Ag1 tau(   2) = (  -1.5713217   2.7216090  10.0000000  )
         3           Ag1 tau(   3) = (   1.5713217   2.7216090  10.0000000  )
         4           Y1  tau(   4) = (   3.1426433   0.0000000  10.0000000  )
         5           Ag1 tau(   5) = (   3.1426433   1.8144060  12.5659575  )
         6           Ag1 tau(   6) = (   1.5713217   4.5360149  12.5659575  )
         7           Ag1 tau(   7) = (  -1.5713217   4.5360149  12.5659575  )
         8           Y1  tau(   8) = (   0.0000000   1.8144060  12.5659575  )
         9           Ag1 tau(   9) = (  -0.0000000   3.6288119  15.1319151  )
        10           Ag1 tau(  10) = (   1.5713217   0.9072030  15.1319151  )
        11           Ag1 tau(  11) = (   4.7139650   0.9072030  15.1319151  )
        12           Y1  tau(  12) = (   3.1426433   3.6288119  15.1319151  )

     number of k points=    20  Fermi-Dirac smearing, width (Ry)=  0.0110
                       cart. coord. in units 2pi/alat
        k(    1) = (   0.0000000   0.0000000   0.0000000), wk =   0.0555556
        k(    2) = (   0.0000000   0.0306191   0.0000000), wk =   0.1111111
        k(    3) = (   0.0000000   0.0612383   0.0000000), wk =   0.1111111
        k(    4) = (   0.0000000  -0.0918574   0.0000000), wk =   0.0555556
        k(    5) = (   0.0265170   0.0153096   0.0000000), wk =   0.1111111
        k(    6) = (   0.0265170   0.0459287   0.0000000), wk =   0.1111111
        k(    7) = (   0.0265170   0.0765479   0.0000000), wk =   0.1111111
        k(    8) = (   0.0265170  -0.0765479   0.0000000), wk =   0.1111111
        k(    9) = (   0.0265170  -0.0459287   0.0000000), wk =   0.1111111
        k(   10) = (   0.0265170  -0.0153096   0.0000000), wk =   0.1111111
        k(   11) = (   0.0530339   0.0306191   0.0000000), wk =   0.1111111
        k(   12) = (   0.0530339   0.0612383   0.0000000), wk =   0.1111111
        k(   13) = (   0.0530339   0.0918574   0.0000000), wk =   0.1111111
        k(   14) = (   0.0530339  -0.0612383   0.0000000), wk =   0.1111111
        k(   15) = (   0.0530339  -0.0306191   0.0000000), wk =   0.1111111
        k(   16) = (   0.0530339   0.0000000   0.0000000), wk =   0.1111111
        k(   17) = (  -0.0795509  -0.0459287   0.0000000), wk =   0.0555556
        k(   18) = (  -0.0795509  -0.0153096   0.0000000), wk =   0.1111111
        k(   19) = (  -0.0795509   0.0153096   0.0000000), wk =   0.1111111
        k(   20) = (  -0.0795509  -0.1377861   0.0000000), wk =   0.0555556

     Largest allocated arrays     est. size (Mb)     dimensions
     Largest temporary arrays     est. size (Mb)     dimensions

     Initial potential from superposition of free atoms
     Check: negative starting charge=   -0.001992

     starting charge  199.48617, renormalised to  204.00000

     negative rho (up, down):  2.037E-03 0.000E+00

     *
     * You are using vdW-DF for exchange-correlation in this calculation.
     * Please cite the following three references that made this development
     * possible:
     *
     *   M. Dion, H. Rydberg, E. Schroder, D. C. Langreth, and
     *   B. I. Lundqvist, Phys. Rev. Lett. 92, 246401 (2004).
     *
     *   T. Thonhauser, V. R. Cooper, S. Li, A. Puzder, P. Hyldgaard, and
     *   D. C. Langreth, Phys. Rev. B 76, 125112 (2007).
     *
     *   G. Roman-Perez and J. M. Soler, Phys. Rev. Lett. 103, 096102 (2009).
     *
     *
     * If you are using vdW-DF2, please also cite:
     *
     *   K. Lee, E. D. Murray, L. Kong, B. I. Lundqvist, and
     *   D. C. Langreth, Phys. Rev. B 82, 081101(R) (2010).
     *
     *
     * If you are calculating the stress with vdW-DF, please also cite:
     *
     *   R. Sabatini, E. Kucukbenli, B. Kolb, T. Thonhauser, and
     *   S. de Gironcoli, J. Phys.: Condens. Matter 24, 424209 (2012).
     *

     Carrying out vdW-DF run using the following parameters:

     Nqs =      20    Nr_points =    1024   r_max =   100.000
     q_mesh =
               0.00001000     0.04494208     0.09755937     0.15916263
               0.23128650     0.31572767     0.41458969     0.53033537
               0.66584808     0.82450364     1.01025438     1.22772762
               1.48234092     1.78043706     2.12944203     2.53805004
               3.01644009     3.57652955     4.23227104     5.00000000

     Gradients computed in reciprocal space

     Adding external electric field

     Computed dipole along edir(3) :
        Dipole               -0.0000 Ry au,         -0.0000 Debye
        Dipole field         -0.0000 Ry au

        Potential amp.        0.0000 Ry
        Total length         46.3051 bohr

     Starting wfc are  156 randomized atomic wfcs

     Self-consistent Calculation

     iteration #  1     ecut=    36.75 Ry     beta=0.10
     Davidson diagonalization with overlap
     ethr =  1.00E-02,  avg # of iterations =  8.1

[...]

     total energy              =   -2951.29174616 Ry
     Harris-Foulkes estimate   =   -2953.53669360 Ry
     estimated scf accuracy    <      13.37873373 Ry

[...]

     End of self-consistent calculation

          k = 0.0000 0.0000 0.0000 ( 21859 PWs)   bands (ev):

   -90.8248 -90.8226 -90.8224 -90.6604 -90.6603 -90.6581 -90.6581 -90.6580
   -90.6580 -54.3654 -54.3574 -54.3574 -54.3463 -54.3463 -54.3378 -54.2329
   -54.2329 -54.2319 -54.2319 -54.2306 -54.2174 -54.2172 -54.2043 -54.2042
   -54.1502 -54.1497 -54.1352 -54.1352 -54.1349 -54.1349 -54.0776 -54.0764
   -54.0544 -54.0544 -54.0541 -54.0541 -42.7180 -42.7178 -42.1631 -22.7059
   -22.7020 -22.5663 -22.5663 -22.5653 -22.5653 -22.0851 -22.0851 -22.0749
    -4.4845  -4.0224  -3.9987  -3.9748  -3.9748  -3.8711  -3.8246  -3.8246
    -3.8086  -3.7772  -3.7771  -3.7455  -3.7140  -3.6625  -3.6624  -3.3102
    -3.3102  -3.2489  -3.2275  -3.2275  -3.1634  -3.0907  -3.0174  -3.0173
    -2.9696  -2.8858  -2.8858  -2.8609  -2.8609  -2.7598  -2.7597  -2.6704
    -2.5344  -2.5344  -2.4390  -2.4390  -2.4168  -2.4168  -2.3969  -2.3286
    -2.3286  -2.3273  -2.1181  -2.0914  -2.0914  -2.0036  -1.9782  -0.4339
     1.0912   1.1496   1.1496   1.2547   1.2547   1.6345   1.7924   1.8488
     1.8489   2.2027   2.2027   2.5442   2.7941   3.0133   3.0133   3.0527
     3.0527   3.6923   3.6923   4.1621   4.1621   4.1680   4.6169   4.8600
     4.9248   4.9248   4.9805   5.3898   6.2827   6.3684   6.3684   6.3976
     6.3976   6.6332   6.6829   7.1822

[...]

          k =-0.0796-0.0459 0.0000 ( 21784 PWs)   bands (ev):

[...]

     the Fermi energy is     1.5251 ev

!    total energy              =   -2951.05666473 Ry
     Harris-Foulkes estimate   =   -2951.05666932 Ry
     estimated scf accuracy    <       0.00000051 Ry

     The total energy is the sum of the following terms:

     one-electron contribution =  -18422.73370885 Ry
     hartree contribution      =    9201.77580331 Ry
     xc contribution           =    -355.14518044 Ry
     ewald contribution        =    6625.09017296 Ry
     electric field correction =       0.00000000 Ry
     smearing contrib. (-TS)   =      -0.04375171 Ry

     convergence has been achieved in  15 iterations

 BEEF-vdW xc energy contributions
           1 :   -308.290544507650
           2 :    278.571053324323
           3 :   -228.501058081101
           4 :    172.397095305108
           5 :   -123.450505644452
           6 :    89.1450707708995
           7 :   -70.0218963555758
           8 :    61.6264569893337
           9 :   -58.0309458702636
          10 :    54.9139374980655
[...]
     Using radial grid of  887 points,  6 beta functions with:
                l(1) =   0
                l(2) =   0
                l(3) =   1
                l(4) =   1
                l(5) =   2
                l(6) =   2
     Q(r) pseudized with  6 coefficients,  rinner =    1.300   1.300   1.300
                                                       1.300   1.300

     PseudoPot. # 2 for Y  read from file:
     /afs/slac.stanford.edu/u/if/mamunm/psp/gbrv1.5pbe/Y.UPF
     MD5 check sum: d034151ed7554c50b6e82763ed42c788
     Pseudo is Ultrasoft + core correction, Zval = 11.0
     Generated by new atomic code, or converted to UPF format
     Using radial grid of  885 points,  6 beta functions with:
                l(1) =   0
                l(2) =   0
                l(3) =   1
                l(4) =   1
                l(5) =   2
                l(6) =   2
     Q(r) pseudized with  8 coefficients,  rinner =    1.200   1.200   1.200
                                                       1.200   1.200

     vdW kernel table read from file vdW_kernel_table
     MD5 check sum: 095c7af220d748ca6e76c0b4c6cfb241

     atomic species   valence    mass     pseudopotential
        Ag1           19.00   107.86820     Ag( 1.00)
        Y1            11.00    88.90584     Y ( 1.00)

     No symmetry found

   Cartesian axes

     site n.     atom                  positions (alat units)
         1           Ag1 tau(   1) = (   0.0000000   0.0000000  10.0000000  )
         2           Ag1 tau(   2) = (  -1.5713217   2.7216090  10.0000000  )
         3           Ag1 tau(   3) = (   1.5713217   2.7216090  10.0000000  )
         4           Y1  tau(   4) = (   3.1426433   0.0000000  10.0000000  )
         5           Ag1 tau(   5) = (   3.1426433   1.8144060  12.5659575  )
         6           Ag1 tau(   6) = (   1.5713217   4.5360149  12.5659575  )
         7           Ag1 tau(   7) = (  -1.5713217   4.5360149  12.5659575  )
         8           Y1  tau(   8) = (   0.0000000   1.8144060  12.5659575  )
         9           Ag1 tau(   9) = (  -0.0000278   3.6688607  15.0576912  )
        10           Ag1 tau(  10) = (   1.6062636   0.8872099  15.0577427  )
        11           Ag1 tau(  11) = (   4.6790359   0.8872382  15.0577516  )
        12           Y1  tau(  12) = (   3.1426365   3.6289069  15.0954227  )

     number of k points=    20  Fermi-Dirac smearing, width (Ry)=  0.0110
                       cart. coord. in units 2pi/alat
        k(    1) = (   0.0000000   0.0000000   0.0000000), wk =   0.0555556
        k(    2) = (   0.0000000   0.0306191   0.0000000), wk =   0.1111111
        k(    3) = (   0.0000000   0.0612383   0.0000000), wk =   0.1111111
        k(    4) = (   0.0000000  -0.0918574   0.0000000), wk =   0.0555556
        k(    5) = (   0.0265170   0.0153096   0.0000000), wk =   0.1111111
        k(    6) = (   0.0265170   0.0459287   0.0000000), wk =   0.1111111
        k(    7) = (   0.0265170   0.0765479   0.0000000), wk =   0.1111111
        k(    8) = (   0.0265170  -0.0765479   0.0000000), wk =   0.1111111
        k(    9) = (   0.0265170  -0.0459287   0.0000000), wk =   0.1111111
        k(   10) = (   0.0265170  -0.0153096   0.0000000), wk =   0.1111111
        k(   11) = (   0.0530339   0.0306191   0.0000000), wk =   0.1111111
        k(   12) = (   0.0530339   0.0612383   0.0000000), wk =   0.1111111
        k(   13) = (   0.0530339   0.0918574   0.0000000), wk =   0.1111111
        k(   14) = (   0.0530339  -0.0612383   0.0000000), wk =   0.1111111
        k(   15) = (   0.0530339  -0.0306191   0.0000000), wk =   0.1111111
        k(   16) = (   0.0530339   0.0000000   0.0000000), wk =   0.1111111
        k(   17) = (  -0.0795509  -0.0459287   0.0000000), wk =   0.0555556
        k(   18) = (  -0.0795509  -0.0153096   0.0000000), wk =   0.1111111
        k(   19) = (  -0.0795509   0.0153096   0.0000000), wk =   0.1111111
        k(   20) = (  -0.0795509  -0.1377861   0.0000000), wk =   0.0555556

     Largest allocated arrays     est. size (Mb)     dimensions
     Largest temporary arrays     est. size (Mb)     dimensions

     Initial potential from superposition of free atoms
     Check: negative starting charge=   -0.001927

     starting charge  199.48617, renormalised to  204.00000

[...]

     *
     * You are using vdW-DF for exchange-correlation in this calculation.
     * Please cite the following three references that made this development
     * possible:
     *
     *   M. Dion, H. Rydberg, E. Schroder, D. C. Langreth, and
     *   B. I. Lundqvist, Phys. Rev. Lett. 92, 246401 (2004).
     *
     *   T. Thonhauser, V. R. Cooper, S. Li, A. Puzder, P. Hyldgaard, and
     *   D. C. Langreth, Phys. Rev. B 76, 125112 (2007).
     *
     *   G. Roman-Perez and J. M. Soler, Phys. Rev. Lett. 103, 096102 (2009).
     *
     *
     * If you are using vdW-DF2, please also cite:
     *
     *   K. Lee, E. D. Murray, L. Kong, B. I. Lundqvist, and
     *   D. C. Langreth, Phys. Rev. B 82, 081101(R) (2010).
     *
     *
     * If you are calculating the stress with vdW-DF, please also cite:
     *
     *   R. Sabatini, E. Kucukbenli, B. Kolb, T. Thonhauser, and
     *   S. de Gironcoli, J. Phys.: Condens. Matter 24, 424209 (2012).
     *

     Carrying out vdW-DF run using the following parameters:

     Nqs =      20    Nr_points =    1024   r_max =   100.000
     q_mesh =
               0.00001000     0.04494208     0.09755937     0.15916263
               0.23128650     0.31572767     0.41458969     0.53033537
               0.66584808     0.82450364     1.01025438     1.22772762
               1.48234092     1.78043706     2.12944203     2.53805004
               3.01644009     3.57652955     4.23227104     5.00000000

     Gradients computed in reciprocal space

[...]

     Starting wfc are  156 randomized atomic wfcs

     Self-consistent Calculation

[...]

     total energy              =   -2951.05889443 Ry
     Harris-Foulkes estimate   =   -2951.05889474 Ry
     estimated scf accuracy    <       0.00000359 Ry

     iteration # 16     ecut=    36.75 Ry     beta=0.10
     Davidson diagonalization with overlap
     ethr =  1.76E-09,  avg # of iterations =  2.0

[...]

     negative rho (up, down):  1.811E-03 0.000E+00

     Adding external electric field

     Computed dipole along edir(3) :
        Dipole                0.0069 Ry au,          0.0176 Debye
        Dipole field          0.0000 Ry au

        Potential amp.       -0.0014 Ry
        Total length         46.3051 bohr

     End of self-consistent calculation

[...]

          k = 0.0530 0.0000 0.0000 ( 21857 PWs)   bands (ev):

[...]

          k =-0.0796-0.1378 0.0000 ( 21784 PWs)   bands (ev):

   -90.8496 -90.8488 -90.8480 -90.6801 -90.6789 -90.6783 -90.6561 -90.6553
   -90.6546 -54.3898 -54.3844 -54.3806 -54.3732 -54.3691 -54.3638 -54.2527
   -54.2475 -54.2453 -54.2390 -54.2372 -54.2314 -54.2271 -54.2221 -54.2182
   -54.1703 -54.1643 -54.1602 -54.1405 -54.1358 -54.1315 -54.0910 -54.0817
   -54.0742 -54.0670 -54.0595 -54.0513 -42.7160 -42.6876 -42.1233 -22.7039
   -22.6807 -22.5700 -22.5660 -22.5440 -22.5399 -22.0575 -22.0531 -22.0387
    -3.8518  -3.7919  -3.7595  -3.7075  -3.6495  -3.6307  -3.6194  -3.6125
    -3.5583  -3.5288  -3.5028  -3.4595  -3.4244  -3.3822  -3.3328  -3.2967
    -3.2632  -3.2441  -3.2188  -3.0823  -3.0419  -3.0211  -3.0009  -2.9949
    -2.9565  -2.9223  -2.8869  -2.8746  -2.8610  -2.8502  -2.8411  -2.8197
    -2.7602  -2.7397  -2.7208  -2.6706  -2.6531  -2.6185  -2.6070  -2.5853
    -2.5126  -2.4724  -2.4046  -2.3903  -2.3178  -2.1571  -2.0512  -1.5720
    -0.9732  -0.3707   0.6320   0.6341   0.7347   1.0454   1.3224   1.9570
     2.2156   2.2189   2.3090   2.4157   2.5227   2.5643   2.9131   2.9302
     2.9868   3.6294   4.1526   4.5242   4.9683   5.0973   5.1790   5.2165
     5.4311   5.7608   5.8079   5.9286   6.2776   6.3485   6.4738   6.5180
     6.5924   6.6641   7.2630   7.4878

     the Fermi energy is     1.5265 ev

!    total energy              =   -2951.05889126 Ry
     Harris-Foulkes estimate   =   -2951.05889471 Ry
     estimated scf accuracy    <       0.00000035 Ry

     The total energy is the sum of the following terms:

     one-electron contribution =  -18593.50926205 Ry
     hartree contribution      =    9287.10514653 Ry
     xc contribution           =    -355.17985114 Ry
     ewald contribution        =    6710.56826802 Ry
     electric field correction =       0.00000010 Ry
     smearing contrib. (-TS)   =      -0.04319272 Ry

     convergence has been achieved in  16 iterations

 BEEF-vdW xc energy contributions
           1 :   -308.339294913116
           2 :    278.657751848718
           3 :   -228.627887818751
           4 :    172.523943304596
           5 :   -123.522536976261
           6 :    89.1339805458127
           7 :   -69.9490039615490
           8 :    61.5498762390346
           9 :   -58.0063769937294
          10 :    54.9580413976152
          11 :   -50.9222507440667
          12 :    46.6519772077634
          13 :   -43.4671936535230
          14 :    41.8357320695943
          15 :   -41.0113079040854
          16 :    39.6669316691953
          17 :   -36.8584700371442
          18 :    32.6026766734225
          19 :   -27.7678336570780
          20 :    23.4677446983736
          21 :   -20.4286205151719
          22 :    18.7161373466998
          23 :   -17.9066903202298
          24 :    17.4852219314822
          25 :   -17.1635545840377
          26 :    16.9362284417433
          27 :   -16.9095798441404
          28 :    17.0801769011848
          29 :   -17.2410000975929
          30 :    17.0747032768047
          31 :   -30.4012148993967
          32 :   -21.7767668691952

     Forces acting on atoms (Ry/au):

     negative rho (up, down):  1.811E-03 0.000E+00
     atom    1 type  1   force =     0.00000064   -0.00440235    0.00459261
     atom    2 type  1   force =    -0.00381145    0.00219740    0.00458404
     atom    3 type  1   force =     0.00381199    0.00219761    0.00458375
     atom    4 type  2   force =    -0.00000030   -0.00000392    0.00548872
     atom    5 type  1   force =    -0.00000115    0.00040210   -0.00381396
     atom    6 type  1   force =     0.00035175   -0.00020836   -0.00380576
     atom    7 type  1   force =    -0.00035220   -0.00020845   -0.00380795
     atom    8 type  2   force =    -0.00000033   -0.00001047   -0.00486269
     atom    9 type  1   force =     0.00000302    0.00092984   -0.00048960
     atom   10 type  1   force =     0.00079947   -0.00045177   -0.00049528
     atom   11 type  1   force =    -0.00079999   -0.00045480   -0.00049433
     atom   12 type  2   force =    -0.00000146    0.00001317   -0.00147957

     Total force =     0.014983     Total SCF correction =     0.001988
     SCF correction compared to forces is large: reduce conv_thr to get better values

     entering subroutine stress ...

     negative rho (up, down):  1.811E-03 0.000E+00
          total   stress  (Ry/bohr**3)                   (kbar)     P=   -7.45
  -0.00006051  -0.00000000   0.00000000         -8.90     -0.00      0.00
  -0.00000000  -0.00006047   0.00000000         -0.00     -8.90      0.00
   0.00000000   0.00000000  -0.00003097          0.00      0.00     -4.56

 !ASE

     Writing output data file calc.save

     General routines

     Parallel routines

   This run was terminated on:  17:48:15  19Dec2018

   JOB DONE.
Job  /afs/slac/g/suncat/bin/suncat-tsmpirun -x LD_LIBRARY_PATH -wdir /scratch/qe773218_DOsOP pw.x -in pw.inp

TID   HOST_NAME   COMMAND_LINE            STATUS            TERMINATION_TIME
00000 suncat0277 pw.x -in pw.inp   Done                     12/19/2018 17:48:15
00001 suncat0277 pw.x -in pw.inp   Done                     12/19/2018 17:48:15
00002 suncat0277 pw.x -in pw.inp   Done                     12/19/2018 17:48:15
00003 suncat0277 pw.x -in pw.inp   Done                     12/19/2018 17:48:15
00004 suncat0277 pw.x -in pw.inp   Done                     12/19/2018 17:48:15
00005 suncat0277 pw.x -in pw.inp   Done                     12/19/2018 17:48:15
00006 suncat0277 pw.x -in pw.inp   Done                     12/19/2018 17:48:15
00007 suncat0277 pw.x -in pw.inp   Done                     12/19/2018 17:48:15
00008 suncat0276 pw.x -in pw.inp   Done                     12/19/2018 17:48:15
00009 suncat0276 pw.x -in pw.inp   Done                     12/19/2018 17:48:15
00010 suncat0276 pw.x -in pw.inp   Done                     12/19/2018 17:48:15
00011 suncat0276 pw.x -in pw.inp   Done                     12/19/2018 17:48:15
00012 suncat0276 pw.x -in pw.inp   Done                     12/19/2018 17:48:15
00013 suncat0276 pw.x -in pw.inp   Done                     12/19/2018 17:48:15
00014 suncat0276 pw.x -in pw.inp   Done                     12/19/2018 17:48:15
00015 suncat0276 pw.x -in pw.inp   Done                     12/19/2018 17:48:15
00016 suncat0274 pw.x -in pw.inp   Done                     12/19/2018 17:48:15
00017 suncat0274 pw.x -in pw.inp   Done                     12/19/2018 17:48:15
00018 suncat0274 pw.x -in pw.inp   Done                     12/19/2018 17:48:15
00019 suncat0274 pw.x -in pw.inp   Done                     12/19/2018 17:48:15
00020 suncat0274 pw.x -in pw.inp   Done                     12/19/2018 17:48:15
00021 suncat0274 pw.x -in pw.inp   Done                     12/19/2018 17:48:15
00022 suncat0274 pw.x -in pw.inp   Done                     12/19/2018 17:48:15
00023 suncat0274 pw.x -in pw.inp   Done                     12/19/2018 17:48:15
00024 suncat0273 pw.x -in pw.inp   Done                     12/19/2018 17:48:15
00025 suncat0273 pw.x -in pw.inp   Done                     12/19/2018 17:48:15
00026 suncat0273 pw.x -in pw.inp   Done                     12/19/2018 17:48:15
00027 suncat0273 pw.x -in pw.inp   Done                     12/19/2018 17:48:15
00028 suncat0273 pw.x -in pw.inp   Done                     12/19/2018 17:48:15
00029 suncat0273 pw.x -in pw.inp   Done                     12/19/2018 17:48:15
00030 suncat0273 pw.x -in pw.inp   Done                     12/19/2018 17:48:15
00031 suncat0273 pw.x -in pw.inp   Done                     12/19/2018 17:48:15
00032 suncat0272 pw.x -in pw.inp   Done                     12/19/2018 17:48:15
00033 suncat0272 pw.x -in pw.inp   Done                     12/19/2018 17:48:15
00034 suncat0272 pw.x -in pw.inp   Done                     12/19/2018 17:48:15
00035 suncat0272 pw.x -in pw.inp   Done                     12/19/2018 17:48:15
00036 suncat0272 pw.x -in pw.inp   Done                     12/19/2018 17:48:15
00037 suncat0272 pw.x -in pw.inp   Done                     12/19/2018 17:48:15
00038 suncat0272 pw.x -in pw.inp   Done                     12/19/2018 17:48:15
00039 suncat0272 pw.x -in pw.inp   Done                     12/19/2018 17:48:15
00040 suncat0271 pw.x -in pw.inp   Done                     12/19/2018 17:48:15
00041 suncat0271 pw.x -in pw.inp   Done                     12/19/2018 17:48:15
00042 suncat0271 pw.x -in pw.inp   Done                     12/19/2018 17:48:15
00043 suncat0271 pw.x -in pw.inp   Done                     12/19/2018 17:48:15
00044 suncat0271 pw.x -in pw.inp   Done                     12/19/2018 17:48:15
00045 suncat0271 pw.x -in pw.inp   Done                     12/19/2018 17:48:15
00046 suncat0271 pw.x -in pw.inp   Done                     12/19/2018 17:48:15
00047 suncat0271 pw.x -in pw.inp   Done                     12/19/2018 17:48:15
00048 suncat0270 pw.x -in pw.inp   Done                     12/19/2018 17:48:15
00049 suncat0270 pw.x -in pw.inp   Done                     12/19/2018 17:48:15
00050 suncat0270 pw.x -in pw.inp   Done                     12/19/2018 17:48:15
00051 suncat0270 pw.x -in pw.inp   Done                     12/19/2018 17:48:15
00052 suncat0270 pw.x -in pw.inp   Done                     12/19/2018 17:48:15
00053 suncat0270 pw.x -in pw.inp   Done                     12/19/2018 17:48:15
00054 suncat0270 pw.x -in pw.inp   Done                     12/19/2018 17:48:15
00055 suncat0270 pw.x -in pw.inp   Done                     12/19/2018 17:48:15
00056 suncat0268 pw.x -in pw.inp   Done                     12/19/2018 17:48:15
00057 suncat0268 pw.x -in pw.inp   Done                     12/19/2018 17:48:15
00058 suncat0268 pw.x -in pw.inp   Done                     12/19/2018 17:48:15
00059 suncat0268 pw.x -in pw.inp   Done                     12/19/2018 17:48:15
00060 suncat0268 pw.x -in pw.inp   Done                     12/19/2018 17:48:15
00061 suncat0268 pw.x -in pw.inp   Done                     12/19/2018 17:48:15
00062 suncat0268 pw.x -in pw.inp   Done                     12/19/2018 17:48:15
00063 suncat0268 pw.x -in pw.inp   Done                     12/19/2018 17:48:15