     Program PWSCF v.5.1rc2 (svn rev. 11289) starts on  2Jan2019 at  6:36:59

     Current dimensions of program PWSCF are:
     Max number of different atomic species (ntypx) = 10
     Max number of k-points (npk) =  40000
     Max angular momentum in pseudopotentials (lmaxx) =  3
     Presently stress not available with electric field

     IMPORTANT: XC functional enforced from input :
     Exchange-correlation      = BEEF-VDW ( 1  4 27 13 2)
     Any further DFT definition will be discarded
     Please, verify this is what you really want

     Subspace diagonalization in iterative solution of the eigenvalue problem:
     a serial algorithm will be used

     bravais-lattice index     =            0
     lattice parameter (alat)  =       1.8897  a.u.
     unit-cell volume          =    4554.9620 (a.u.)^3
     number of atoms/cell      =           12
     number of atomic types    =            2
     number of electrons       =       156.00
     number of Kohn-Sham states=          108
     kinetic-energy cutoff     =      36.7493  Ry
     charge density cutoff     =     367.4932  Ry
     convergence threshold     =      1.0E-06
     mixing beta               =       0.1000
     number of iterations used =           10  plain     mixing
     Exchange-correlation      = BEEF-VDW ( 1  4 27 13 2)
     nstep                     =           50

     celldm(1)=   1.889726  celldm(2)=   0.000000  celldm(3)=   0.000000
     celldm(4)=   0.000000  celldm(5)=   0.000000  celldm(6)=   0.000000

     crystal axes: (cart. coord. in units of alat)
               a(1) = (   5.629175   0.000000   0.000000 )
               a(2) = (  -2.814587   4.875008   0.000000 )
               a(3) = (   0.000000   0.000000  24.596202 )

     reciprocal axes: (cart. coord. in units 2 pi/alat)
               b(1) = (  0.177646  0.102564  0.000000 )
               b(2) = (  0.000000  0.205128  0.000000 )
               b(3) = (  0.000000  0.000000  0.040657 )

     PseudoPot. # 1 for V  read from file:
     /afs/slac.stanford.edu/u/if/mamunm/psp/gbrv1.5pbe/V.UPF
     MD5 check sum: 22b79981416ebb76fdaf5b1b8640f6fb
     Pseudo is Ultrasoft + core correction, Zval = 13.0
     Generated by new atomic code, or converted to UPF format
     Using radial grid of  853 points,  6 beta functions with:
                l(1) =   0
                l(2) =   0
                l(3) =   1
                l(4) =   1
                l(5) =   2
                l(6) =   2
     Q(r) pseudized with  8 coefficients,  rinner =    1.100   1.100   1.100
                                                       1.100   1.100

     PseudoPot. # 2 for Tl read from file:
     /afs/slac.stanford.edu/u/if/mamunm/psp/gbrv1.5pbe/Tl.UPF
     MD5 check sum: b76cf1f7e72655a2b2c53cf6385d7059
     Pseudo is Ultrasoft + core correction, Zval = 13.0
     Generated by new atomic code, or converted to UPF format
     Using radial grid of  899 points,  6 beta functions with:
                l(1) =   0
                l(2) =   0
                l(3) =   1
                l(4) =   1
                l(5) =   2
                l(6) =   2
     Q(r) pseudized with  6 coefficients,  rinner =    1.100   1.100   1.100
                                                       1.100   1.100

     vdW kernel table read from file vdW_kernel_table
     MD5 check sum: 095c7af220d748ca6e76c0b4c6cfb241

     atomic species   valence    mass     pseudopotential
        V1            13.00    50.94150     V ( 1.00)
        Tl1           13.00   204.38000     Tl( 1.00)

     No symmetry found

   Cartesian axes

     site n.     atom                  positions (alat units)
         1           V1  tau(   1) = (   0.0000000   0.0000000  10.0000000  )
         2           V1  tau(   2) = (  -1.4072937   2.4375042  10.0000000  )
         3           V1  tau(   3) = (   1.4072937   2.4375042  10.0000000  )
         4           Tl1 tau(   4) = (   2.8145874   0.0000000  10.0000000  )
         5           V1  tau(   5) = (   2.8145874   1.6250028  12.2981010  )
         6           V1  tau(   6) = (   1.4072937   4.0625070  12.2981010  )
         7           V1  tau(   7) = (  -1.4072937   4.0625070  12.2981010  )
         8           Tl1 tau(   8) = (   0.0000000   1.6250028  12.2981010  )
         9           V1  tau(   9) = (  -0.0000000   3.2500056  14.5962020  )
        10           V1  tau(  10) = (   1.4072937   0.8125014  14.5962020  )
        11           V1  tau(  11) = (   4.2218811   0.8125014  14.5962020  )
        12           Tl1 tau(  12) = (   2.8145874   3.2500056  14.5962020  )

     number of k points=    20  Fermi-Dirac smearing, width (Ry)=  0.0110
                       cart. coord. in units 2pi/alat
        k(    1) = (   0.0000000   0.0000000   0.0000000), wk =   0.0555556
        k(    2) = (   0.0000000   0.0341880   0.0000000), wk =   0.1111111
        k(    3) = (   0.0000000   0.0683760   0.0000000), wk =   0.1111111
        k(    4) = (   0.0000000  -0.1025639   0.0000000), wk =   0.0555556
        k(    5) = (   0.0296077   0.0170940   0.0000000), wk =   0.1111111
        k(    6) = (   0.0296077   0.0512820   0.0000000), wk =   0.1111111
        k(    7) = (   0.0296077   0.0854699   0.0000000), wk =   0.1111111
        k(    8) = (   0.0296077  -0.0854699   0.0000000), wk =   0.1111111
        k(    9) = (   0.0296077  -0.0512820   0.0000000), wk =   0.1111111
        k(   10) = (   0.0296077  -0.0170940   0.0000000), wk =   0.1111111
        k(   11) = (   0.0592153   0.0341880   0.0000000), wk =   0.1111111
        k(   12) = (   0.0592153   0.0683760   0.0000000), wk =   0.1111111
        k(   13) = (   0.0592153   0.1025639   0.0000000), wk =   0.1111111
        k(   14) = (   0.0592153  -0.0683760   0.0000000), wk =   0.1111111
        k(   15) = (   0.0592153  -0.0341880   0.0000000), wk =   0.1111111
        k(   16) = (   0.0592153   0.0000000   0.0000000), wk =   0.1111111
        k(   17) = (  -0.0888230  -0.0512820   0.0000000), wk =   0.0555556
        k(   18) = (  -0.0888230  -0.0170940   0.0000000), wk =   0.1111111
        k(   19) = (  -0.0888230   0.0170940   0.0000000), wk =   0.1111111
        k(   20) = (  -0.0888230  -0.1538459   0.0000000), wk =   0.0555556

     Largest allocated arrays     est. size (Mb)     dimensions
     Largest temporary arrays     est. size (Mb)     dimensions

     Check: negative/imaginary core charge=   -0.000001    0.000000

     Initial potential from superposition of free atoms
     Check: negative starting charge=   -0.158875

     starting charge  155.97436, renormalised to  156.00000

     negative rho (up, down):  1.589E-01 0.000E+00

     *
     * You are using vdW-DF for exchange-correlation in this calculation.
     * Please cite the following three references that made this development
     * possible:
     *
     *   M. Dion, H. Rydberg, E. Schroder, D. C. Langreth, and
     *   B. I. Lundqvist, Phys. Rev. Lett. 92, 246401 (2004).
     *
     *   T. Thonhauser, V. R. Cooper, S. Li, A. Puzder, P. Hyldgaard, and
     *   D. C. Langreth, Phys. Rev. B 76, 125112 (2007).
     *
     *   G. Roman-Perez and J. M. Soler, Phys. Rev. Lett. 103, 096102 (2009).
     *
     *
     * If you are using vdW-DF2, please also cite:
     *
     *   K. Lee, E. D. Murray, L. Kong, B. I. Lundqvist, and
     *   D. C. Langreth, Phys. Rev. B 82, 081101(R) (2010).
     *
     *
     * If you are calculating the stress with vdW-DF, please also cite:
     *
     *   R. Sabatini, E. Kucukbenli, B. Kolb, T. Thonhauser, and
     *   S. de Gironcoli, J. Phys.: Condens. Matter 24, 424209 (2012).
     *

     Carrying out vdW-DF run using the following parameters:

     Nqs =      20    Nr_points =    1024   r_max =   100.000
     q_mesh =
               0.00001000     0.04494208     0.09755937     0.15916263
               0.23128650     0.31572767     0.41458969     0.53033537
               0.66584808     0.82450364     1.01025438     1.22772762
               1.48234092     1.78043706     2.12944203     2.53805004
               3.01644009     3.57652955     4.23227104     5.00000000

     Gradients computed in reciprocal space

     Adding external electric field

     Computed dipole along edir(3) :
        Dipole                0.0000 Ry au,          0.0000 Debye
        Dipole field          0.0000 Ry au

        Potential amp.       -0.0000 Ry
        Total length         45.3181 bohr

     Starting wfc are  117 randomized atomic wfcs

     Self-consistent Calculation

     iteration #  1     ecut=    36.75 Ry     beta=0.10
     Davidson diagonalization with overlap
     ethr =  1.00E-02,  avg # of iterations =  3.1

[...]

     total energy              =   -1751.03743283 Ry
     Harris-Foulkes estimate   =   -1752.27087804 Ry
     estimated scf accuracy    <       6.87982454 Ry

[...]

     End of self-consistent calculation

          k = 0.0000 0.0000 0.0000 ( 17123 PWs)   bands (ev):

   -63.1421 -63.1367 -63.0905 -63.0905 -63.0892 -63.0892 -63.0401 -62.9960
   -62.9959 -37.1119 -37.0760 -37.0746 -37.0746 -37.0403 -37.0401 -37.0401
   -37.0218 -37.0189 -37.0189 -36.9963 -36.9963 -36.9884 -36.9179 -36.9178
   -36.8647 -36.8397 -36.7812 -36.7812 -36.7664 -36.7386 -36.6593 -36.6593
   -36.6569 -36.6569 -36.6110 -36.6109 -10.7402 -10.7402 -10.7216 -10.6895
   -10.6895 -10.4479 -10.4479 -10.4441 -10.4441 -10.4065 -10.3798 -10.2978
   -10.2978 -10.2866 -10.2866  -7.7903  -6.2923  -5.6327  -1.8219  -1.8036
    -1.4340  -0.7170  -0.7170  -0.6940  -0.6940  -0.4158  -0.2679  -0.1646
    -0.1645   0.0223   0.0224   0.3434   0.3434   0.5324   0.5629   0.7736
     0.9393   0.9393   1.0958   1.0958   1.2173   1.2174   1.3438   1.3911
     1.4066   1.4066   1.6481   2.2322   2.3605   2.3605   2.3792   2.5108
     2.5108   2.5599   2.5599   2.6502   2.6503   2.7552   2.7553   3.0267
     3.0267   3.1205   3.2149   3.2240   3.2241   3.4889   3.6965   3.7482
     3.7482   3.7551   3.8429   4.1795

[...]

          k =-0.0888-0.0513 0.0000 ( 17160 PWs)   bands (ev):

[...]

     the Fermi energy is     1.1947 ev

!    total energy              =   -1751.74435681 Ry
     Harris-Foulkes estimate   =   -1751.74436504 Ry
     estimated scf accuracy    <       0.00000072 Ry

     The total energy is the sum of the following terms:

     one-electron contribution =  -13371.55734312 Ry
     hartree contribution      =    6697.77398785 Ry
     xc contribution           =    -375.45941423 Ry
     ewald contribution        =    5297.62904803 Ry
     electric field correction =       0.00000000 Ry
     smearing contrib. (-TS)   =      -0.13063533 Ry

     convergence has been achieved in  24 iterations

 BEEF-vdW xc energy contributions
           1 :   -329.145052489196
           2 :    301.028271278900
           3 :   -253.203048966359
           4 :    198.533235005366
           5 :   -148.909492737557
           6 :    111.146716604681
           7 :   -85.9544752553431
           8 :    69.7763417819976
           9 :   -57.9203068728524
          10 :    47.1217146346050
          11 :   -36.4822357628428
          12 :    26.8301208788961
          13 :   -19.3652005618878
          14 :    14.5713877223927
[...]

     PseudoPot. # 1 for V  read from file:
     /afs/slac.stanford.edu/u/if/mamunm/psp/gbrv1.5pbe/V.UPF
     MD5 check sum: 22b79981416ebb76fdaf5b1b8640f6fb
     Pseudo is Ultrasoft + core correction, Zval = 13.0
     Generated by new atomic code, or converted to UPF format
     Using radial grid of  853 points,  6 beta functions with:
                l(1) =   0
                l(2) =   0
                l(3) =   1
                l(4) =   1
                l(5) =   2
                l(6) =   2
     Q(r) pseudized with  8 coefficients,  rinner =    1.100   1.100   1.100
                                                       1.100   1.100

     PseudoPot. # 2 for Tl read from file:
     /afs/slac.stanford.edu/u/if/mamunm/psp/gbrv1.5pbe/Tl.UPF
     MD5 check sum: b76cf1f7e72655a2b2c53cf6385d7059
     Pseudo is Ultrasoft + core correction, Zval = 13.0
     Generated by new atomic code, or converted to UPF format
     Using radial grid of  899 points,  6 beta functions with:
                l(1) =   0
                l(2) =   0
                l(3) =   1
                l(4) =   1
                l(5) =   2
                l(6) =   2
     Q(r) pseudized with  6 coefficients,  rinner =    1.100   1.100   1.100
                                                       1.100   1.100

     vdW kernel table read from file vdW_kernel_table
     MD5 check sum: 095c7af220d748ca6e76c0b4c6cfb241

     atomic species   valence    mass     pseudopotential
        V1            13.00    50.94150     V ( 1.00)
        Tl1           13.00   204.38000     Tl( 1.00)

     No symmetry found

   Cartesian axes

     site n.     atom                  positions (alat units)
         1           V1  tau(   1) = (   0.0000000   0.0000000  10.0000000  )
         2           V1  tau(   2) = (  -1.4072937   2.4375042  10.0000000  )
         3           V1  tau(   3) = (   1.4072937   2.4375042  10.0000000  )
         4           Tl1 tau(   4) = (   2.8145874   0.0000000  10.0000000  )
         5           V1  tau(   5) = (   2.8145874   1.6250028  12.2981010  )
         6           V1  tau(   6) = (   1.4072937   4.0625070  12.2981010  )
         7           V1  tau(   7) = (  -1.4072937   4.0625070  12.2981010  )
         8           Tl1 tau(   8) = (   0.0000000   1.6250028  12.2981010  )
         9           V1  tau(   9) = (  -0.0000504   3.4510262  14.4010050  )
        10           V1  tau(  10) = (   1.5813771   0.7118635  14.4009652  )
        11           V1  tau(  11) = (   4.0477110   0.7118716  14.4009401  )
        12           Tl1 tau(  12) = (   2.8145430   3.2499067  15.1289182  )

     number of k points=    20  Fermi-Dirac smearing, width (Ry)=  0.0110
                       cart. coord. in units 2pi/alat
        k(    1) = (   0.0000000   0.0000000   0.0000000), wk =   0.0555556
        k(    2) = (   0.0000000   0.0341880   0.0000000), wk =   0.1111111
        k(    3) = (   0.0000000   0.0683760   0.0000000), wk =   0.1111111
        k(    4) = (   0.0000000  -0.1025639   0.0000000), wk =   0.0555556
        k(    5) = (   0.0296077   0.0170940   0.0000000), wk =   0.1111111
        k(    6) = (   0.0296077   0.0512820   0.0000000), wk =   0.1111111
        k(    7) = (   0.0296077   0.0854699   0.0000000), wk =   0.1111111
        k(    8) = (   0.0296077  -0.0854699   0.0000000), wk =   0.1111111
        k(    9) = (   0.0296077  -0.0512820   0.0000000), wk =   0.1111111
        k(   10) = (   0.0296077  -0.0170940   0.0000000), wk =   0.1111111
        k(   11) = (   0.0592153   0.0341880   0.0000000), wk =   0.1111111
        k(   12) = (   0.0592153   0.0683760   0.0000000), wk =   0.1111111
        k(   13) = (   0.0592153   0.1025639   0.0000000), wk =   0.1111111
        k(   14) = (   0.0592153  -0.0683760   0.0000000), wk =   0.1111111
        k(   15) = (   0.0592153  -0.0341880   0.0000000), wk =   0.1111111
        k(   16) = (   0.0592153   0.0000000   0.0000000), wk =   0.1111111
        k(   17) = (  -0.0888230  -0.0512820   0.0000000), wk =   0.0555556
        k(   18) = (  -0.0888230  -0.0170940   0.0000000), wk =   0.1111111
        k(   19) = (  -0.0888230   0.0170940   0.0000000), wk =   0.1111111
        k(   20) = (  -0.0888230  -0.1538459   0.0000000), wk =   0.0555556

     Largest allocated arrays     est. size (Mb)     dimensions
     Largest temporary arrays     est. size (Mb)     dimensions

     Check: negative/imaginary core charge=   -0.000002    0.000000

     Initial potential from superposition of free atoms
     Check: negative starting charge=   -0.158551

     starting charge  155.97436, renormalised to  156.00000

[...]

     *
     * You are using vdW-DF for exchange-correlation in this calculation.
     * Please cite the following three references that made this development
     * possible:
     *
     *   M. Dion, H. Rydberg, E. Schroder, D. C. Langreth, and
     *   B. I. Lundqvist, Phys. Rev. Lett. 92, 246401 (2004).
     *
     *   T. Thonhauser, V. R. Cooper, S. Li, A. Puzder, P. Hyldgaard, and
     *   D. C. Langreth, Phys. Rev. B 76, 125112 (2007).
     *
     *   G. Roman-Perez and J. M. Soler, Phys. Rev. Lett. 103, 096102 (2009).
     *
     *
     * If you are using vdW-DF2, please also cite:
     *
     *   K. Lee, E. D. Murray, L. Kong, B. I. Lundqvist, and
     *   D. C. Langreth, Phys. Rev. B 82, 081101(R) (2010).
     *
     *
     * If you are calculating the stress with vdW-DF, please also cite:
     *
     *   R. Sabatini, E. Kucukbenli, B. Kolb, T. Thonhauser, and
     *   S. de Gironcoli, J. Phys.: Condens. Matter 24, 424209 (2012).
     *

     Carrying out vdW-DF run using the following parameters:

     Nqs =      20    Nr_points =    1024   r_max =   100.000
     q_mesh =
               0.00001000     0.04494208     0.09755937     0.15916263
               0.23128650     0.31572767     0.41458969     0.53033537
               0.66584808     0.82450364     1.01025438     1.22772762
               1.48234092     1.78043706     2.12944203     2.53805004
               3.01644009     3.57652955     4.23227104     5.00000000

     Gradients computed in reciprocal space

[...]

     Starting wfc are  117 randomized atomic wfcs

     Self-consistent Calculation

[...]

     total energy              =   -1751.82129247 Ry
     Harris-Foulkes estimate   =   -1751.82129255 Ry
     estimated scf accuracy    <       0.00000168 Ry

     iteration # 24     ecut=    36.75 Ry     beta=0.10
     Davidson diagonalization with overlap
     ethr =  9.28E-10,  avg # of iterations =  2.0

[...]

     negative rho (up, down):  1.744E-01 0.000E+00

     Adding external electric field

     Computed dipole along edir(3) :
        Dipole               -0.0521 Ry au,         -0.1325 Debye
        Dipole field         -0.0001 Ry au

        Potential amp.        0.0130 Ry
        Total length         45.3181 bohr

     End of self-consistent calculation

[...]

          k = 0.0592 0.0000 0.0000 ( 17130 PWs)   bands (ev):

[...]

          k =-0.0888-0.1538 0.0000 ( 17160 PWs)   bands (ev):

   -63.2013 -63.1854 -63.1689 -63.0793 -63.0287 -63.0088 -62.9963 -62.9383
   -62.9324 -37.1728 -37.1509 -37.1306 -37.1116 -37.1027 -37.0458 -37.0296
   -37.0220 -37.0150 -37.0077 -36.9754 -36.9591 -36.9526 -36.9272 -36.8762
   -36.8724 -36.8541 -36.7874 -36.7783 -36.7479 -36.7241 -36.6552 -36.6269
   -36.6258 -36.6032 -36.5539 -36.5099 -10.8008 -10.7631 -10.7394 -10.7117
   -10.7006 -10.5208 -10.4669 -10.4347 -10.4010 -10.3818 -10.1031 -10.0788
   -10.0323 -10.0244 -10.0074  -6.7124  -5.9958  -5.2221  -3.0969  -2.1908
    -1.9630  -1.9334  -1.1808  -0.7325  -0.5721  -0.5172  -0.3943  -0.3133
    -0.2918  -0.0211   0.0902   0.1623   0.2001   0.3669   0.4705   0.5164
     0.5402   0.6514   0.7425   0.8892   0.8949   1.0037   1.1346   1.2269
     1.3605   1.4253   1.4891   1.5371   1.8914   2.1128   2.1216   2.1583
     2.3120   2.3455   2.3895   2.4565   2.5420   2.5983   2.6563   2.7831
     2.9360   3.0373   3.0839   3.1687   3.2001   3.3485   3.7392   3.8894
     4.0792   4.4403   4.5907   4.8323

     the Fermi energy is     1.1192 ev

!    total energy              =   -1751.82129121 Ry
     Harris-Foulkes estimate   =   -1751.82129183 Ry
     estimated scf accuracy    <       0.00000048 Ry

     The total energy is the sum of the following terms:

     one-electron contribution =  -13383.25621592 Ry
     hartree contribution      =    6703.67231278 Ry
     xc contribution           =    -375.60029331 Ry
     ewald contribution        =    5303.47963486 Ry
     electric field correction =       0.00000749 Ry
     smearing contrib. (-TS)   =      -0.11673712 Ry

     convergence has been achieved in  24 iterations

 BEEF-vdW xc energy contributions
           1 :   -329.453206577944
           2 :    301.321772493826
           3 :   -253.456010488162
           4 :    198.707339682643
           5 :   -148.975127334447
           6 :    111.113130380738
           7 :   -85.8761432185771
           8 :    69.7225301315105
           9 :   -57.9280352780968
          10 :    47.1643963622244
          11 :   -36.4754589097001
          12 :    26.6772372784674
          13 :   -19.0246282600804
          14 :    14.1082064023212
          15 :   -11.5393140551101
          16 :    10.3512573968611
          17 :   -9.64183353904752
          18 :    8.96075130676070
          19 :   -8.26927838881249
          20 :    7.64704853889543
          21 :   -7.06639616466828
          22 :    6.40392668745881
          23 :   -5.61249745273255
          24 :    4.83746455980258
          25 :   -4.34496445224448
          26 :    4.31403230622698
          27 :   -4.67425857780682
          28 :    5.12651330546458
          29 :   -5.33813212501593
          30 :    5.16448436544204
          31 :   -30.0630263282283
          32 :   -21.9024039985187

     Forces acting on atoms (Ry/au):

     negative rho (up, down):  1.744E-01 0.000E+00
     atom    1 type  1   force =     0.00000100   -0.01520280    0.02557769
     atom    2 type  1   force =    -0.01316508    0.00760056    0.02558388
     atom    3 type  1   force =     0.01316856    0.00760153    0.02558245
     atom    4 type  2   force =     0.00000858   -0.00001430   -0.07142655
     atom    5 type  1   force =    -0.00000350    0.02193108    0.00141137
     atom    6 type  1   force =     0.01899259   -0.01096988    0.00141150
     atom    7 type  1   force =    -0.01899545   -0.01096736    0.00141587
     atom    8 type  2   force =     0.00001025    0.00000217   -0.01273550
     atom    9 type  1   force =    -0.00000210   -0.00031532    0.00084013
     atom   10 type  1   force =    -0.00027806    0.00016282    0.00084564
     atom   11 type  1   force =     0.00027259    0.00016287    0.00084077
     atom   12 type  2   force =    -0.00000937    0.00000865    0.00065277

     Total force =     0.096812     Total SCF correction =     0.003112

     entering subroutine stress ...

     negative rho (up, down):  1.744E-01 0.000E+00
          total   stress  (Ry/bohr**3)                   (kbar)     P=  -10.38
  -0.00009548  -0.00000000   0.00000000        -14.05     -0.00      0.00
  -0.00000000  -0.00009546   0.00000000         -0.00    -14.04      0.00
   0.00000000   0.00000000  -0.00002074          0.00      0.00     -3.05

 !ASE

     Writing output data file calc.save

     General routines

     Parallel routines

   This run was terminated on:   8:59:21   2Jan2019

   JOB DONE.
Job  /afs/slac/g/suncat/bin/suncat-tsmpirun -x LD_LIBRARY_PATH -wdir /scratch/qe649334_MV7sI pw.x -in pw.inp

TID   HOST_NAME   COMMAND_LINE            STATUS            TERMINATION_TIME
00000 suncat0058 pw.x -in pw.inp   Done                     01/02/2019 08:59:21
00001 suncat0058 pw.x -in pw.inp   Done                     01/02/2019 08:59:21
00002 suncat0058 pw.x -in pw.inp   Done                     01/02/2019 08:59:21
00003 suncat0058 pw.x -in pw.inp   Done                     01/02/2019 08:59:21
00004 suncat0058 pw.x -in pw.inp   Done                     01/02/2019 08:59:21
00005 suncat0058 pw.x -in pw.inp   Done                     01/02/2019 08:59:21
00006 suncat0058 pw.x -in pw.inp   Done                     01/02/2019 08:59:21
00007 suncat0058 pw.x -in pw.inp   Done                     01/02/2019 08:59:21
00008 suncat0056 pw.x -in pw.inp   Done                     01/02/2019 08:59:21
00009 suncat0056 pw.x -in pw.inp   Done                     01/02/2019 08:59:21
00010 suncat0056 pw.x -in pw.inp   Done                     01/02/2019 08:59:21
00011 suncat0056 pw.x -in pw.inp   Done                     01/02/2019 08:59:21
00012 suncat0056 pw.x -in pw.inp   Done                     01/02/2019 08:59:21
00013 suncat0056 pw.x -in pw.inp   Done                     01/02/2019 08:59:21
00014 suncat0056 pw.x -in pw.inp   Done                     01/02/2019 08:59:21
00015 suncat0056 pw.x -in pw.inp   Done                     01/02/2019 08:59:21
00016 suncat0054 pw.x -in pw.inp   Done                     01/02/2019 08:59:21
00017 suncat0054 pw.x -in pw.inp   Done                     01/02/2019 08:59:21
00018 suncat0054 pw.x -in pw.inp   Done                     01/02/2019 08:59:21
00019 suncat0054 pw.x -in pw.inp   Done                     01/02/2019 08:59:21
00020 suncat0054 pw.x -in pw.inp   Done                     01/02/2019 08:59:21
00021 suncat0054 pw.x -in pw.inp   Done                     01/02/2019 08:59:21
00022 suncat0054 pw.x -in pw.inp   Done                     01/02/2019 08:59:21
00023 suncat0054 pw.x -in pw.inp   Done                     01/02/2019 08:59:21
00024 suncat0052 pw.x -in pw.inp   Done                     01/02/2019 08:59:21
00025 suncat0052 pw.x -in pw.inp   Done                     01/02/2019 08:59:21
00026 suncat0052 pw.x -in pw.inp   Done                     01/02/2019 08:59:21
00027 suncat0052 pw.x -in pw.inp   Done                     01/02/2019 08:59:21
00028 suncat0052 pw.x -in pw.inp   Done                     01/02/2019 08:59:21
00029 suncat0052 pw.x -in pw.inp   Done                     01/02/2019 08:59:21
00030 suncat0052 pw.x -in pw.inp   Done                     01/02/2019 08:59:21
00031 suncat0052 pw.x -in pw.inp   Done                     01/02/2019 08:59:21
00032 suncat0048 pw.x -in pw.inp   Done                     01/02/2019 08:59:21
00033 suncat0048 pw.x -in pw.inp   Done                     01/02/2019 08:59:21
00034 suncat0048 pw.x -in pw.inp   Done                     01/02/2019 08:59:21
00035 suncat0048 pw.x -in pw.inp   Done                     01/02/2019 08:59:21
00036 suncat0048 pw.x -in pw.inp   Done                     01/02/2019 08:59:21
00037 suncat0048 pw.x -in pw.inp   Done                     01/02/2019 08:59:21
00038 suncat0048 pw.x -in pw.inp   Done                     01/02/2019 08:59:21
00039 suncat0048 pw.x -in pw.inp   Done                     01/02/2019 08:59:21
00040 suncat0047 pw.x -in pw.inp   Done                     01/02/2019 08:59:21
00041 suncat0047 pw.x -in pw.inp   Done                     01/02/2019 08:59:21
00042 suncat0047 pw.x -in pw.inp   Done                     01/02/2019 08:59:21
00043 suncat0047 pw.x -in pw.inp   Done                     01/02/2019 08:59:21
00044 suncat0047 pw.x -in pw.inp   Done                     01/02/2019 08:59:21
00045 suncat0047 pw.x -in pw.inp   Done                     01/02/2019 08:59:21
00046 suncat0047 pw.x -in pw.inp   Done                     01/02/2019 08:59:21
00047 suncat0047 pw.x -in pw.inp   Done                     01/02/2019 08:59:21
00048 suncat0121 pw.x -in pw.inp   Done                     01/02/2019 08:59:21
00049 suncat0121 pw.x -in pw.inp   Done                     01/02/2019 08:59:21
00050 suncat0121 pw.x -in pw.inp   Done                     01/02/2019 08:59:21
00051 suncat0121 pw.x -in pw.inp   Done                     01/02/2019 08:59:21
00052 suncat0121 pw.x -in pw.inp   Done                     01/02/2019 08:59:21
00053 suncat0121 pw.x -in pw.inp   Done                     01/02/2019 08:59:21
00054 suncat0121 pw.x -in pw.inp   Done                     01/02/2019 08:59:21
00055 suncat0121 pw.x -in pw.inp   Done                     01/02/2019 08:59:21
00056 suncat0115 pw.x -in pw.inp   Done                     01/02/2019 08:59:21
00057 suncat0115 pw.x -in pw.inp   Done                     01/02/2019 08:59:21
00058 suncat0115 pw.x -in pw.inp   Done                     01/02/2019 08:59:21
00059 suncat0115 pw.x -in pw.inp   Done                     01/02/2019 08:59:21
00060 suncat0115 pw.x -in pw.inp   Done                     01/02/2019 08:59:21
00061 suncat0115 pw.x -in pw.inp   Done                     01/02/2019 08:59:21
00062 suncat0115 pw.x -in pw.inp   Done                     01/02/2019 08:59:21
00063 suncat0115 pw.x -in pw.inp   Done                     01/02/2019 08:59:21