     Program PWSCF v.5.1rc2 (svn rev. 11289) starts on 28Dec2018 at  2:47:26

     Current dimensions of program PWSCF are:
     Max number of different atomic species (ntypx) = 10
     Max number of k-points (npk) =  40000
     Max angular momentum in pseudopotentials (lmaxx) =  3
     Presently stress not available with electric field

     IMPORTANT: XC functional enforced from input :
     Exchange-correlation      = BEEF-VDW ( 1  4 27 13 2)
     Any further DFT definition will be discarded
     Please, verify this is what you really want

     Subspace diagonalization in iterative solution of the eigenvalue problem:
     a serial algorithm will be used

     bravais-lattice index     =            0
     lattice parameter (alat)  =       1.8897  a.u.
     unit-cell volume          =    6966.3756 (a.u.)^3
     number of atoms/cell      =           12
     number of atomic types    =            2
     number of electrons       =       150.00
     number of Kohn-Sham states=          105
     kinetic-energy cutoff     =      36.7493  Ry
     charge density cutoff     =     367.4932  Ry
     convergence threshold     =      1.0E-06
     mixing beta               =       0.1000
     number of iterations used =           10  plain     mixing
     Exchange-correlation      = BEEF-VDW ( 1  4 27 13 2)
     nstep                     =           50

     celldm(1)=   1.889726  celldm(2)=   0.000000  celldm(3)=   0.000000
     celldm(4)=   0.000000  celldm(5)=   0.000000  celldm(6)=   0.000000

     crystal axes: (cart. coord. in units of alat)
               a(1) = (   6.827123   0.000000   0.000000 )
               a(2) = (  -3.413562   5.912462   0.000000 )
               a(3) = (   0.000000   0.000000  25.574323 )

     reciprocal axes: (cart. coord. in units 2 pi/alat)
               b(1) = (  0.146475  0.084567  0.000000 )
               b(2) = (  0.000000  0.169134  0.000000 )
               b(3) = (  0.000000  0.000000  0.039102 )

     PseudoPot. # 1 for Tl read from file:
     /afs/slac.stanford.edu/u/if/mamunm/psp/gbrv1.5pbe/Tl.UPF
     MD5 check sum: b76cf1f7e72655a2b2c53cf6385d7059
     Pseudo is Ultrasoft + core correction, Zval = 13.0
     Generated by new atomic code, or converted to UPF format
     Using radial grid of  899 points,  6 beta functions with:
                l(1) =   0
                l(2) =   0
                l(3) =   1
                l(4) =   1
                l(5) =   2
                l(6) =   2
     Q(r) pseudized with  6 coefficients,  rinner =    1.100   1.100   1.100
                                                       1.100   1.100

     PseudoPot. # 2 for Y  read from file:
     /afs/slac.stanford.edu/u/if/mamunm/psp/gbrv1.5pbe/Y.UPF
     MD5 check sum: d034151ed7554c50b6e82763ed42c788
     Pseudo is Ultrasoft + core correction, Zval = 11.0
     Generated by new atomic code, or converted to UPF format
     Using radial grid of  885 points,  6 beta functions with:
                l(1) =   0
                l(2) =   0
                l(3) =   1
                l(4) =   1
                l(5) =   2
                l(6) =   2
     Q(r) pseudized with  8 coefficients,  rinner =    1.200   1.200   1.200
                                                       1.200   1.200

     vdW kernel table read from file vdW_kernel_table
     MD5 check sum: 095c7af220d748ca6e76c0b4c6cfb241

     atomic species   valence    mass     pseudopotential
        Tl1           13.00   204.38000     Tl( 1.00)
        Y1            11.00    88.90584     Y ( 1.00)

     No symmetry found

   Cartesian axes

     site n.     atom                  positions (alat units)
         1           Tl1 tau(   1) = (   0.0000000   0.0000000  10.0000000  )
         2           Tl1 tau(   2) = (  -1.7067809   2.9562312  10.0000000  )
         3           Tl1 tau(   3) = (   1.7067809   2.9562312  10.0000000  )
         4           Y1  tau(   4) = (   3.4135617   0.0000000  10.0000000  )
         5           Tl1 tau(   5) = (   3.4135617   1.9708208  12.7871615  )
         6           Tl1 tau(   6) = (   1.7067809   4.9270519  12.7871615  )
         7           Tl1 tau(   7) = (  -1.7067809   4.9270519  12.7871615  )
         8           Y1  tau(   8) = (  -0.0000000   1.9708208  12.7871615  )
         9           Tl1 tau(   9) = (  -0.0000000   3.9416416  15.5743229  )
        10           Tl1 tau(  10) = (   1.7067809   0.9854104  15.5743229  )
        11           Tl1 tau(  11) = (   5.1203426   0.9854104  15.5743229  )
        12           Y1  tau(  12) = (   3.4135617   3.9416416  15.5743229  )

     number of k points=    20  Fermi-Dirac smearing, width (Ry)=  0.0110
                       cart. coord. in units 2pi/alat
        k(    1) = (   0.0000000   0.0000000   0.0000000), wk =   0.0555556
        k(    2) = (   0.0000000   0.0281890   0.0000000), wk =   0.1111111
        k(    3) = (   0.0000000   0.0563781   0.0000000), wk =   0.1111111
        k(    4) = (   0.0000000  -0.0845671   0.0000000), wk =   0.0555556
        k(    5) = (   0.0244124   0.0140945   0.0000000), wk =   0.1111111
        k(    6) = (   0.0244124   0.0422836   0.0000000), wk =   0.1111111
        k(    7) = (   0.0244124   0.0704726   0.0000000), wk =   0.1111111
        k(    8) = (   0.0244124  -0.0704726   0.0000000), wk =   0.1111111
        k(    9) = (   0.0244124  -0.0422836   0.0000000), wk =   0.1111111
        k(   10) = (   0.0244124  -0.0140945   0.0000000), wk =   0.1111111
        k(   11) = (   0.0488249   0.0281890   0.0000000), wk =   0.1111111
        k(   12) = (   0.0488249   0.0563781   0.0000000), wk =   0.1111111
        k(   13) = (   0.0488249   0.0845671   0.0000000), wk =   0.1111111
        k(   14) = (   0.0488249  -0.0563781   0.0000000), wk =   0.1111111
        k(   15) = (   0.0488249  -0.0281890   0.0000000), wk =   0.1111111
        k(   16) = (   0.0488249   0.0000000   0.0000000), wk =   0.1111111
        k(   17) = (  -0.0732373  -0.0422836   0.0000000), wk =   0.0555556
        k(   18) = (  -0.0732373  -0.0140945   0.0000000), wk =   0.1111111
        k(   19) = (  -0.0732373   0.0140945   0.0000000), wk =   0.1111111
        k(   20) = (  -0.0732373  -0.1268507   0.0000000), wk =   0.0555556

     Largest allocated arrays     est. size (Mb)     dimensions
     Largest temporary arrays     est. size (Mb)     dimensions

     Check: negative/imaginary core charge=   -0.000001    0.000000

     Initial potential from superposition of free atoms
     Check: negative starting charge=   -0.455568

     starting charge  149.94280, renormalised to  150.00000

     negative rho (up, down):  4.557E-01 0.000E+00

     *
     * You are using vdW-DF for exchange-correlation in this calculation.
     * Please cite the following three references that made this development
     * possible:
     *
     *   M. Dion, H. Rydberg, E. Schroder, D. C. Langreth, and
     *   B. I. Lundqvist, Phys. Rev. Lett. 92, 246401 (2004).
     *
     *   T. Thonhauser, V. R. Cooper, S. Li, A. Puzder, P. Hyldgaard, and
     *   D. C. Langreth, Phys. Rev. B 76, 125112 (2007).
     *
     *   G. Roman-Perez and J. M. Soler, Phys. Rev. Lett. 103, 096102 (2009).
     *
     *
     * If you are using vdW-DF2, please also cite:
     *
     *   K. Lee, E. D. Murray, L. Kong, B. I. Lundqvist, and
     *   D. C. Langreth, Phys. Rev. B 82, 081101(R) (2010).
     *
     *
     * If you are calculating the stress with vdW-DF, please also cite:
     *
     *   R. Sabatini, E. Kucukbenli, B. Kolb, T. Thonhauser, and
     *   S. de Gironcoli, J. Phys.: Condens. Matter 24, 424209 (2012).
     *

     Carrying out vdW-DF run using the following parameters:

     Nqs =      20    Nr_points =    1024   r_max =   100.000
     q_mesh =
               0.00001000     0.04494208     0.09755937     0.15916263
               0.23128650     0.31572767     0.41458969     0.53033537
               0.66584808     0.82450364     1.01025438     1.22772762
               1.48234092     1.78043706     2.12944203     2.53805004
               3.01644009     3.57652955     4.23227104     5.00000000

     Gradients computed in reciprocal space

     Adding external electric field

     Computed dipole along edir(3) :
        Dipole                0.0000 Ry au,          0.0000 Debye
        Dipole field          0.0000 Ry au

        Potential amp.       -0.0000 Ry
        Total length         47.1203 bohr

     Starting wfc are  120 randomized atomic wfcs

     Self-consistent Calculation

     iteration #  1     ecut=    36.75 Ry     beta=0.10
     Davidson diagonalization with overlap
     ethr =  1.00E-02,  avg # of iterations =  3.5

     Threshold (ethr) on eigenvalues was too large:
     Diagonalizing with lowered threshold

     Davidson diagonalization with overlap
     ethr =  2.77E-04,  avg # of iterations =  9.7

[...]

     total energy              =   -1602.36886987 Ry
     Harris-Foulkes estimate   =   -1602.44229770 Ry
     estimated scf accuracy    <       0.47806104 Ry

[...]

     End of self-consistent calculation

          k = 0.0000 0.0000 0.0000 ( 26229 PWs)   bands (ev):

   -42.9630 -42.9630 -42.6507 -22.9674 -22.9656 -22.8149 -22.8149 -22.8145
   -22.8145 -22.6078 -22.5622 -22.5622 -10.9242 -10.8773 -10.8773 -10.8669
   -10.8660 -10.8293 -10.7684 -10.7684 -10.7626 -10.7501 -10.7501 -10.6837
   -10.6837 -10.6794 -10.6690 -10.6690 -10.6280 -10.6058 -10.5694 -10.5693
   -10.5303 -10.5154 -10.4864 -10.4864 -10.4625 -10.4625 -10.4500 -10.4500
   -10.4261 -10.4261 -10.4161 -10.4034 -10.4034 -10.3752 -10.3752 -10.3365
   -10.3365 -10.2445 -10.2445 -10.2297 -10.1891 -10.1891 -10.1686 -10.1514
   -10.1395  -7.9274  -6.7731  -5.3084  -4.4292  -4.4292  -3.8879  -3.8879
    -3.1663  -3.1663  -1.3835  -0.8700  -0.5844  -0.4337  -0.4337  -0.1230
     0.7365   0.7365   0.7378   0.7378   0.9590   1.9656   1.9656   2.0724
     2.0724   2.3823   2.8436   3.2211   3.2211   3.2411   3.2411   3.4268
     3.4268   3.5010   3.5190   3.6720   3.8450   3.8450   3.9457   4.2297
     4.4585   4.9438   4.9438   5.3829   5.4107   5.4107   5.4307   5.4828
     5.6167

[...]

          k =-0.0732-0.0423 0.0000 ( 26190 PWs)   bands (ev):

[...]

     the Fermi energy is     1.1064 ev

!    total energy              =   -1602.37981501 Ry
     Harris-Foulkes estimate   =   -1602.37978118 Ry
     estimated scf accuracy    <       0.00000065 Ry

     The total energy is the sum of the following terms:

     one-electron contribution =   -7660.13126649 Ry
     hartree contribution      =    3889.90358880 Ry
     xc contribution           =    -660.87152929 Ry
     ewald contribution        =    2828.77266949 Ry
     electric field correction =       0.00000000 Ry
     smearing contrib. (-TS)   =      -0.05327752 Ry

     convergence has been achieved in  14 iterations

 BEEF-vdW xc energy contributions
           1 :   -587.401082980535
           2 :    543.324860047485
           3 :   -465.960031984033
           4 :    372.452563560008
           5 :   -280.097519291917
           6 :    201.188610356493
           7 :   -140.820849401093
           8 :    97.7640946473978
           9 :   -67.3117493127486
          10 :    44.4539258196631
[...]
     Pseudo is Ultrasoft + core correction, Zval = 13.0
     Generated by new atomic code, or converted to UPF format
     Using radial grid of  899 points,  6 beta functions with:
                l(1) =   0
                l(2) =   0
                l(3) =   1
                l(4) =   1
                l(5) =   2
                l(6) =   2
     Q(r) pseudized with  6 coefficients,  rinner =    1.100   1.100   1.100
                                                       1.100   1.100

     PseudoPot. # 2 for Y  read from file:
     /afs/slac.stanford.edu/u/if/mamunm/psp/gbrv1.5pbe/Y.UPF
     MD5 check sum: d034151ed7554c50b6e82763ed42c788
     Pseudo is Ultrasoft + core correction, Zval = 11.0
     Generated by new atomic code, or converted to UPF format
     Using radial grid of  885 points,  6 beta functions with:
                l(1) =   0
                l(2) =   0
                l(3) =   1
                l(4) =   1
                l(5) =   2
                l(6) =   2
     Q(r) pseudized with  8 coefficients,  rinner =    1.200   1.200   1.200
                                                       1.200   1.200

     vdW kernel table read from file vdW_kernel_table
     MD5 check sum: 095c7af220d748ca6e76c0b4c6cfb241

     atomic species   valence    mass     pseudopotential
        Tl1           13.00   204.38000     Tl( 1.00)
        Y1            11.00    88.90584     Y ( 1.00)

     No symmetry found

   Cartesian axes

     site n.     atom                  positions (alat units)
         1           Tl1 tau(   1) = (   0.0000000   0.0000000  10.0000000  )
         2           Tl1 tau(   2) = (  -1.7067809   2.9562312  10.0000000  )
         3           Tl1 tau(   3) = (   1.7067809   2.9562312  10.0000000  )
         4           Y1  tau(   4) = (   3.4135617   0.0000000  10.0000000  )
         5           Tl1 tau(   5) = (   3.4135617   1.9708208  12.7871615  )
         6           Tl1 tau(   6) = (   1.7067809   4.9270519  12.7871615  )
         7           Tl1 tau(   7) = (  -1.7067809   4.9270519  12.7871615  )
         8           Y1  tau(   8) = (  -0.0000000   1.9708208  12.7871615  )
         9           Tl1 tau(   9) = (   0.0000007   3.9499190  15.8094485  )
        10           Tl1 tau(  10) = (   1.7139855   0.9812534  15.8094882  )
        11           Tl1 tau(  11) = (   5.1131346   0.9812294  15.8094623  )
        12           Y1  tau(  12) = (   3.4135233   3.9416261  15.3462156  )

     number of k points=    20  Fermi-Dirac smearing, width (Ry)=  0.0110
                       cart. coord. in units 2pi/alat
        k(    1) = (   0.0000000   0.0000000   0.0000000), wk =   0.0555556
        k(    2) = (   0.0000000   0.0281890   0.0000000), wk =   0.1111111
        k(    3) = (   0.0000000   0.0563781   0.0000000), wk =   0.1111111
        k(    4) = (   0.0000000  -0.0845671   0.0000000), wk =   0.0555556
        k(    5) = (   0.0244124   0.0140945   0.0000000), wk =   0.1111111
        k(    6) = (   0.0244124   0.0422836   0.0000000), wk =   0.1111111
        k(    7) = (   0.0244124   0.0704726   0.0000000), wk =   0.1111111
        k(    8) = (   0.0244124  -0.0704726   0.0000000), wk =   0.1111111
        k(    9) = (   0.0244124  -0.0422836   0.0000000), wk =   0.1111111
        k(   10) = (   0.0244124  -0.0140945   0.0000000), wk =   0.1111111
        k(   11) = (   0.0488249   0.0281890   0.0000000), wk =   0.1111111
        k(   12) = (   0.0488249   0.0563781   0.0000000), wk =   0.1111111
        k(   13) = (   0.0488249   0.0845671   0.0000000), wk =   0.1111111
        k(   14) = (   0.0488249  -0.0563781   0.0000000), wk =   0.1111111
        k(   15) = (   0.0488249  -0.0281890   0.0000000), wk =   0.1111111
        k(   16) = (   0.0488249   0.0000000   0.0000000), wk =   0.1111111
        k(   17) = (  -0.0732373  -0.0422836   0.0000000), wk =   0.0555556
        k(   18) = (  -0.0732373  -0.0140945   0.0000000), wk =   0.1111111
        k(   19) = (  -0.0732373   0.0140945   0.0000000), wk =   0.1111111
        k(   20) = (  -0.0732373  -0.1268507   0.0000000), wk =   0.0555556

     Largest allocated arrays     est. size (Mb)     dimensions
     Largest temporary arrays     est. size (Mb)     dimensions

     Check: negative/imaginary core charge=   -0.000001    0.000000

     Initial potential from superposition of free atoms
     Check: negative starting charge=   -0.457166

     starting charge  149.94280, renormalised to  150.00000

[...]

     *
     * You are using vdW-DF for exchange-correlation in this calculation.
     * Please cite the following three references that made this development
     * possible:
     *
     *   M. Dion, H. Rydberg, E. Schroder, D. C. Langreth, and
     *   B. I. Lundqvist, Phys. Rev. Lett. 92, 246401 (2004).
     *
     *   T. Thonhauser, V. R. Cooper, S. Li, A. Puzder, P. Hyldgaard, and
     *   D. C. Langreth, Phys. Rev. B 76, 125112 (2007).
     *
     *   G. Roman-Perez and J. M. Soler, Phys. Rev. Lett. 103, 096102 (2009).
     *
     *
     * If you are using vdW-DF2, please also cite:
     *
     *   K. Lee, E. D. Murray, L. Kong, B. I. Lundqvist, and
     *   D. C. Langreth, Phys. Rev. B 82, 081101(R) (2010).
     *
     *
     * If you are calculating the stress with vdW-DF, please also cite:
     *
     *   R. Sabatini, E. Kucukbenli, B. Kolb, T. Thonhauser, and
     *   S. de Gironcoli, J. Phys.: Condens. Matter 24, 424209 (2012).
     *

     Carrying out vdW-DF run using the following parameters:

     Nqs =      20    Nr_points =    1024   r_max =   100.000
     q_mesh =
               0.00001000     0.04494208     0.09755937     0.15916263
               0.23128650     0.31572767     0.41458969     0.53033537
               0.66584808     0.82450364     1.01025438     1.22772762
               1.48234092     1.78043706     2.12944203     2.53805004
               3.01644009     3.57652955     4.23227104     5.00000000

     Gradients computed in reciprocal space

[...]

     Starting wfc are  120 randomized atomic wfcs

     Self-consistent Calculation

[...]

     Threshold (ethr) on eigenvalues was too large:
     Diagonalizing with lowered threshold

     Davidson diagonalization with overlap
     ethr =  2.52E-04,  avg # of iterations =  9.9

[...]

     total energy              =   -1602.39378164 Ry
     Harris-Foulkes estimate   =   -1602.39376873 Ry
     estimated scf accuracy    <       0.00000378 Ry

     iteration # 16     ecut=    36.75 Ry     beta=0.10
     Davidson diagonalization with overlap
     ethr =  2.52E-09,  avg # of iterations =  2.1

[...]

     negative rho (up, down):  4.831E-01 0.000E+00

     Adding external electric field

     Computed dipole along edir(3) :
        Dipole               -0.0509 Ry au,         -0.1295 Debye
        Dipole field         -0.0001 Ry au

        Potential amp.        0.0087 Ry
        Total length         47.1203 bohr

     End of self-consistent calculation

[...]

          k = 0.0488 0.0000 0.0000 ( 26219 PWs)   bands (ev):

[...]

          k =-0.0732-0.1269 0.0000 ( 26190 PWs)   bands (ev):

   -42.9634 -42.8006 -42.7953 -22.9614 -22.8241 -22.8221 -22.7959 -22.7466
   -22.7009 -22.6997 -22.6721 -22.6703 -10.8847 -10.8369 -10.8125 -10.7932
   -10.7742 -10.7460 -10.7219 -10.7002 -10.6949 -10.6864 -10.6816 -10.6765
   -10.6700 -10.6435 -10.6248 -10.6106 -10.5949 -10.5925 -10.5839 -10.5794
   -10.5766 -10.5736 -10.5665 -10.5579 -10.5534 -10.5514 -10.5320 -10.5320
   -10.5149 -10.5114 -10.5035 -10.5021 -10.4862 -10.4648 -10.4626 -10.4544
   -10.4526 -10.4434 -10.4249 -10.4246 -10.4056 -10.3738 -10.3147 -10.2865
   -10.2302  -6.8898  -6.5981  -5.7687  -5.5305  -4.8701  -4.7180  -4.4859
    -3.8943  -3.0102  -1.5613  -1.0015  -0.2925   0.3560   0.4503   0.4765
     0.7550   0.8483   1.2294   1.3397   1.7025   1.7329   2.1185   2.2162
     2.5742   2.6454   2.7732   2.8738   3.0108   3.0602   3.1476   3.3656
     3.4240   3.4504   3.5418   3.6513   3.8675   3.9460   4.2187   4.3560
     4.6441   4.7446   5.0684   5.0831   5.1546   5.2633   5.3858   5.5324
     5.8592

     the Fermi energy is     1.0464 ev

!    total energy              =   -1602.39377440 Ry
     Harris-Foulkes estimate   =   -1602.39378191 Ry
     estimated scf accuracy    <       0.00000078 Ry

     The total energy is the sum of the following terms:

     one-electron contribution =   -7509.99203442 Ry
     hartree contribution      =    3814.59602859 Ry
     xc contribution           =    -660.81576453 Ry
     ewald contribution        =    2753.87207489 Ry
     electric field correction =       0.00000468 Ry
     smearing contrib. (-TS)   =      -0.05408362 Ry

     convergence has been achieved in  16 iterations

 BEEF-vdW xc energy contributions
           1 :   -587.337969752828
           2 :    543.207007510941
           3 :   -465.786576105780
           4 :    372.284246229355
           5 :   -280.012578641147
           6 :    201.223433915907
           7 :   -140.936550095721
           8 :    97.8674792727802
           9 :   -67.3181711842381
          10 :    44.3466343658811
          11 :   -25.8571986245801
          12 :    11.0191209856241
          13 :  -0.355949369533278
          14 :   -5.63021664755604
          15 :    7.42754511800581
          16 :   -6.66072919743840
          17 :    5.49472258715514
          18 :   -5.72288806286065
          19 :    8.02439764381393
          20 :   -11.7609763900236
          21 :    15.4023424853604
          22 :   -17.3718687060402
          23 :    16.8744023070353
          24 :   -14.2793179995923
          25 :    10.8628433618210
          26 :   -8.07869887837160
          27 :    6.78415987598873
          28 :   -6.86809080647038
          29 :    7.46304250884543
          30 :   -7.57002503836497
          31 :   -48.2159852965190
          32 :   -34.9446479799078

     Forces acting on atoms (Ry/au):

     negative rho (up, down):  4.831E-01 0.000E+00
     atom    1 type  1   force =    -0.00000044   -0.00264421   -0.01332999
     atom    2 type  1   force =    -0.00228580    0.00132166   -0.01333469
     atom    3 type  1   force =     0.00229038    0.00132485   -0.01332966
     atom    4 type  2   force =     0.00000039   -0.00000025    0.02420907
     atom    5 type  1   force =     0.00000102   -0.00933920    0.00139346
     atom    6 type  1   force =    -0.00808963    0.00466977    0.00139215
     atom    7 type  1   force =     0.00808540    0.00466874    0.00139455
     atom    8 type  2   force =    -0.00000095    0.00000026    0.00981820
     atom    9 type  1   force =    -0.00000643    0.00143354    0.00000409
     atom   10 type  1   force =     0.00123968   -0.00071963   -0.00000637
     atom   11 type  1   force =    -0.00123870   -0.00071585    0.00000578
     atom   12 type  2   force =     0.00000508    0.00000034    0.00178340

     Total force =     0.038903     Total SCF correction =     0.001457

     entering subroutine stress ...

     negative rho (up, down):  4.831E-01 0.000E+00
          total   stress  (Ry/bohr**3)                   (kbar)     P=   -8.40
  -0.00007670   0.00000000   0.00000000        -11.28      0.00      0.00
   0.00000000  -0.00007670   0.00000000          0.00    -11.28      0.00
   0.00000000   0.00000000  -0.00001793          0.00      0.00     -2.64

 !ASE

     Writing output data file calc.save

     General routines

     Parallel routines

   This run was terminated on:   4:26:22  28Dec2018

   JOB DONE.
Job  /afs/slac/g/suncat/bin/suncat-tsmpirun -x LD_LIBRARY_PATH -wdir /scratch/qe111226_7Y69n pw.x -in pw.inp

TID   HOST_NAME   COMMAND_LINE            STATUS            TERMINATION_TIME
00000 suncat0080 pw.x -in pw.inp   Done                     12/28/2018 04:26:22
00001 suncat0080 pw.x -in pw.inp   Done                     12/28/2018 04:26:22
00002 suncat0080 pw.x -in pw.inp   Done                     12/28/2018 04:26:22
00003 suncat0080 pw.x -in pw.inp   Done                     12/28/2018 04:26:22
00004 suncat0080 pw.x -in pw.inp   Done                     12/28/2018 04:26:22
00005 suncat0080 pw.x -in pw.inp   Done                     12/28/2018 04:26:22
00006 suncat0080 pw.x -in pw.inp   Done                     12/28/2018 04:26:22
00007 suncat0080 pw.x -in pw.inp   Done                     12/28/2018 04:26:22
00008 suncat0078 pw.x -in pw.inp   Done                     12/28/2018 04:26:22
00009 suncat0078 pw.x -in pw.inp   Done                     12/28/2018 04:26:22
00010 suncat0078 pw.x -in pw.inp   Done                     12/28/2018 04:26:22
00011 suncat0078 pw.x -in pw.inp   Done                     12/28/2018 04:26:22
00012 suncat0078 pw.x -in pw.inp   Done                     12/28/2018 04:26:22
00013 suncat0078 pw.x -in pw.inp   Done                     12/28/2018 04:26:22
00014 suncat0078 pw.x -in pw.inp   Done                     12/28/2018 04:26:22
00015 suncat0078 pw.x -in pw.inp   Done                     12/28/2018 04:26:22
00016 suncat0165 pw.x -in pw.inp   Done                     12/28/2018 04:26:22
00017 suncat0165 pw.x -in pw.inp   Done                     12/28/2018 04:26:22
00018 suncat0165 pw.x -in pw.inp   Done                     12/28/2018 04:26:22
00019 suncat0165 pw.x -in pw.inp   Done                     12/28/2018 04:26:22
00020 suncat0165 pw.x -in pw.inp   Done                     12/28/2018 04:26:22
00021 suncat0165 pw.x -in pw.inp   Done                     12/28/2018 04:26:22
00022 suncat0165 pw.x -in pw.inp   Done                     12/28/2018 04:26:22
00023 suncat0165 pw.x -in pw.inp   Done                     12/28/2018 04:26:22
00024 suncat0164 pw.x -in pw.inp   Done                     12/28/2018 04:26:22
00025 suncat0164 pw.x -in pw.inp   Done                     12/28/2018 04:26:22
00026 suncat0164 pw.x -in pw.inp   Done                     12/28/2018 04:26:22
00027 suncat0164 pw.x -in pw.inp   Done                     12/28/2018 04:26:22
00028 suncat0164 pw.x -in pw.inp   Done                     12/28/2018 04:26:22
00029 suncat0164 pw.x -in pw.inp   Done                     12/28/2018 04:26:22
00030 suncat0164 pw.x -in pw.inp   Done                     12/28/2018 04:26:22
00031 suncat0164 pw.x -in pw.inp   Done                     12/28/2018 04:26:22
00032 suncat0143 pw.x -in pw.inp   Done                     12/28/2018 04:26:22
00033 suncat0143 pw.x -in pw.inp   Done                     12/28/2018 04:26:22
00034 suncat0143 pw.x -in pw.inp   Done                     12/28/2018 04:26:22
00035 suncat0143 pw.x -in pw.inp   Done                     12/28/2018 04:26:22
00036 suncat0143 pw.x -in pw.inp   Done                     12/28/2018 04:26:22
00037 suncat0143 pw.x -in pw.inp   Done                     12/28/2018 04:26:22
00038 suncat0143 pw.x -in pw.inp   Done                     12/28/2018 04:26:22
00039 suncat0143 pw.x -in pw.inp   Done                     12/28/2018 04:26:22
00040 suncat0135 pw.x -in pw.inp   Done                     12/28/2018 04:26:22
00041 suncat0135 pw.x -in pw.inp   Done                     12/28/2018 04:26:22
00042 suncat0135 pw.x -in pw.inp   Done                     12/28/2018 04:26:22
00043 suncat0135 pw.x -in pw.inp   Done                     12/28/2018 04:26:22
00044 suncat0135 pw.x -in pw.inp   Done                     12/28/2018 04:26:22
00045 suncat0135 pw.x -in pw.inp   Done                     12/28/2018 04:26:22
00046 suncat0135 pw.x -in pw.inp   Done                     12/28/2018 04:26:22
00047 suncat0135 pw.x -in pw.inp   Done                     12/28/2018 04:26:22
00048 suncat0134 pw.x -in pw.inp   Done                     12/28/2018 04:26:22
00049 suncat0134 pw.x -in pw.inp   Done                     12/28/2018 04:26:22
00050 suncat0134 pw.x -in pw.inp   Done                     12/28/2018 04:26:22
00051 suncat0134 pw.x -in pw.inp   Done                     12/28/2018 04:26:22
00052 suncat0134 pw.x -in pw.inp   Done                     12/28/2018 04:26:22
00053 suncat0134 pw.x -in pw.inp   Done                     12/28/2018 04:26:22
00054 suncat0134 pw.x -in pw.inp   Done                     12/28/2018 04:26:22
00055 suncat0134 pw.x -in pw.inp   Done                     12/28/2018 04:26:22
00056 suncat0272 pw.x -in pw.inp   Done                     12/28/2018 04:26:22
00057 suncat0272 pw.x -in pw.inp   Done                     12/28/2018 04:26:22
00058 suncat0272 pw.x -in pw.inp   Done                     12/28/2018 04:26:22
00059 suncat0272 pw.x -in pw.inp   Done                     12/28/2018 04:26:22
00060 suncat0272 pw.x -in pw.inp   Done                     12/28/2018 04:26:22
00061 suncat0272 pw.x -in pw.inp   Done                     12/28/2018 04:26:22
00062 suncat0272 pw.x -in pw.inp   Done                     12/28/2018 04:26:22
00063 suncat0272 pw.x -in pw.inp   Done                     12/28/2018 04:26:22