     Program PWSCF v.5.1rc2 (svn rev. 11289) starts on 28Dec2018 at  2:38:24

     Current dimensions of program PWSCF are:
     Max number of different atomic species (ntypx) = 10
     Max number of k-points (npk) =  40000
     Max angular momentum in pseudopotentials (lmaxx) =  3
     Presently stress not available with electric field

     IMPORTANT: XC functional enforced from input :
     Exchange-correlation      = BEEF-VDW ( 1  4 27 13 2)
     Any further DFT definition will be discarded
     Please, verify this is what you really want

     Subspace diagonalization in iterative solution of the eigenvalue problem:
     a serial algorithm will be used

     bravais-lattice index     =            0
     lattice parameter (alat)  =       1.8897  a.u.
     unit-cell volume          =    6230.4885 (a.u.)^3
     number of atoms/cell      =           12
     number of atomic types    =            2
     number of electrons       =       159.00
     number of Kohn-Sham states=          109
     kinetic-energy cutoff     =      36.7493  Ry
     charge density cutoff     =     367.4932  Ry
     convergence threshold     =      1.0E-06
     mixing beta               =       0.1000
     number of iterations used =           10  plain     mixing
     Exchange-correlation      = BEEF-VDW ( 1  4 27 13 2)
     nstep                     =           50

     celldm(1)=   1.889726  celldm(2)=   0.000000  celldm(3)=   0.000000
     celldm(4)=   0.000000  celldm(5)=   0.000000  celldm(6)=   0.000000

     crystal axes: (cart. coord. in units of alat)
               a(1) = (   6.491360   0.000000   0.000000 )
               a(2) = (  -3.245680   5.621683   0.000000 )
               a(3) = (   0.000000   0.000000  25.300173 )

     reciprocal axes: (cart. coord. in units 2 pi/alat)
               b(1) = (  0.154051  0.088941  0.000000 )
               b(2) = (  0.000000  0.177883  0.000000 )
               b(3) = (  0.000000  0.000000  0.039525 )

     PseudoPot. # 1 for Tl read from file:
     /afs/slac.stanford.edu/u/if/mamunm/psp/gbrv1.5pbe/Tl.UPF
     MD5 check sum: b76cf1f7e72655a2b2c53cf6385d7059
     Pseudo is Ultrasoft + core correction, Zval = 13.0
     Generated by new atomic code, or converted to UPF format
     Using radial grid of  899 points,  6 beta functions with:
                l(1) =   0
                l(2) =   0
                l(3) =   1
                l(4) =   1
                l(5) =   2
                l(6) =   2
     Q(r) pseudized with  6 coefficients,  rinner =    1.100   1.100   1.100
                                                       1.100   1.100

     PseudoPot. # 2 for W  read from file:
     /afs/slac.stanford.edu/u/if/mamunm/psp/gbrv1.5pbe/W.UPF
     MD5 check sum: 9c083fa34c2a2ea0f02f1f893e16e1c8
     Pseudo is Ultrasoft + core correction, Zval = 14.0
     Generated by new atomic code, or converted to UPF format
     Using radial grid of  923 points,  8 beta functions with:
                l(1) =   0
                l(2) =   0
                l(3) =   0
                l(4) =   1
                l(5) =   1
                l(6) =   2
                l(7) =   2
                l(8) =   3
     Q(r) pseudized with  6 coefficients,  rinner =    1.350   1.350   1.350
                                                       1.350   1.350   1.350
                                                       1.350

     vdW kernel table read from file vdW_kernel_table
     MD5 check sum: 095c7af220d748ca6e76c0b4c6cfb241

     atomic species   valence    mass     pseudopotential
        Tl1           13.00   204.38000     Tl( 1.00)
        W1            14.00   183.84000     W ( 1.00)

     No symmetry found

   Cartesian axes

     site n.     atom                  positions (alat units)
         1           Tl1 tau(   1) = (   0.0000000   0.0000000  10.0000000  )
         2           Tl1 tau(   2) = (  -1.6228400   2.8108413  10.0000000  )
         3           Tl1 tau(   3) = (   1.6228400   2.8108413  10.0000000  )
         4           W1  tau(   4) = (   3.2456799   0.0000000  10.0000000  )
         5           Tl1 tau(   5) = (   3.2456799   1.8738942  12.6500866  )
         6           Tl1 tau(   6) = (   1.6228400   4.6847355  12.6500866  )
         7           Tl1 tau(   7) = (  -1.6228400   4.6847355  12.6500866  )
         8           W1  tau(   8) = (   0.0000000   1.8738942  12.6500866  )
         9           Tl1 tau(   9) = (  -0.0000000   3.7477884  15.3001732  )
        10           Tl1 tau(  10) = (   1.6228400   0.9369471  15.3001732  )
        11           Tl1 tau(  11) = (   4.8685199   0.9369471  15.3001732  )
        12           W1  tau(  12) = (   3.2456799   3.7477884  15.3001732  )

     number of k points=    20  Fermi-Dirac smearing, width (Ry)=  0.0110
                       cart. coord. in units 2pi/alat
        k(    1) = (   0.0000000   0.0000000   0.0000000), wk =   0.0555556
        k(    2) = (   0.0000000   0.0296471   0.0000000), wk =   0.1111111
        k(    3) = (   0.0000000   0.0592942   0.0000000), wk =   0.1111111
        k(    4) = (   0.0000000  -0.0889413   0.0000000), wk =   0.0555556
        k(    5) = (   0.0256752   0.0148236   0.0000000), wk =   0.1111111
        k(    6) = (   0.0256752   0.0444707   0.0000000), wk =   0.1111111
        k(    7) = (   0.0256752   0.0741178   0.0000000), wk =   0.1111111
        k(    8) = (   0.0256752  -0.0741178   0.0000000), wk =   0.1111111
        k(    9) = (   0.0256752  -0.0444707   0.0000000), wk =   0.1111111
        k(   10) = (   0.0256752  -0.0148236   0.0000000), wk =   0.1111111
        k(   11) = (   0.0513503   0.0296471   0.0000000), wk =   0.1111111
        k(   12) = (   0.0513503   0.0592942   0.0000000), wk =   0.1111111
        k(   13) = (   0.0513503   0.0889413   0.0000000), wk =   0.1111111
        k(   14) = (   0.0513503  -0.0592942   0.0000000), wk =   0.1111111
        k(   15) = (   0.0513503  -0.0296471   0.0000000), wk =   0.1111111
        k(   16) = (   0.0513503   0.0000000   0.0000000), wk =   0.1111111
        k(   17) = (  -0.0770255  -0.0444707   0.0000000), wk =   0.0555556
        k(   18) = (  -0.0770255  -0.0148236   0.0000000), wk =   0.1111111
        k(   19) = (  -0.0770255   0.0148236   0.0000000), wk =   0.1111111
        k(   20) = (  -0.0770255  -0.1334120   0.0000000), wk =   0.0555556

     Largest allocated arrays     est. size (Mb)     dimensions
     Largest temporary arrays     est. size (Mb)     dimensions

     Check: negative/imaginary core charge=   -0.000001    0.000000

     Initial potential from superposition of free atoms
     Check: negative starting charge=   -0.645604

     starting charge  158.65519, renormalised to  159.00000

     negative rho (up, down):  6.470E-01 0.000E+00

     *
     * You are using vdW-DF for exchange-correlation in this calculation.
     * Please cite the following three references that made this development
     * possible:
     *
     *   M. Dion, H. Rydberg, E. Schroder, D. C. Langreth, and
     *   B. I. Lundqvist, Phys. Rev. Lett. 92, 246401 (2004).
     *
     *   T. Thonhauser, V. R. Cooper, S. Li, A. Puzder, P. Hyldgaard, and
     *   D. C. Langreth, Phys. Rev. B 76, 125112 (2007).
     *
     *   G. Roman-Perez and J. M. Soler, Phys. Rev. Lett. 103, 096102 (2009).
     *
     *
     * If you are using vdW-DF2, please also cite:
     *
     *   K. Lee, E. D. Murray, L. Kong, B. I. Lundqvist, and
     *   D. C. Langreth, Phys. Rev. B 82, 081101(R) (2010).
     *
     *
     * If you are calculating the stress with vdW-DF, please also cite:
     *
     *   R. Sabatini, E. Kucukbenli, B. Kolb, T. Thonhauser, and
     *   S. de Gironcoli, J. Phys.: Condens. Matter 24, 424209 (2012).
     *

     Carrying out vdW-DF run using the following parameters:

     Nqs =      20    Nr_points =    1024   r_max =   100.000
     q_mesh =
               0.00001000     0.04494208     0.09755937     0.15916263
               0.23128650     0.31572767     0.41458969     0.53033537
               0.66584808     0.82450364     1.01025438     1.22772762
               1.48234092     1.78043706     2.12944203     2.53805004
               3.01644009     3.57652955     4.23227104     5.00000000

     Gradients computed in reciprocal space

     Adding external electric field

     Computed dipole along edir(3) :
        Dipole                0.0000 Ry au,          0.0000 Debye
        Dipole field          0.0000 Ry au

        Potential amp.       -0.0000 Ry
        Total length         46.6151 bohr

     Starting wfc are  120 randomized atomic wfcs

     Self-consistent Calculation

     iteration #  1     ecut=    36.75 Ry     beta=0.10
     Davidson diagonalization with overlap
     ethr =  1.00E-02,  avg # of iterations =  4.3

     Threshold (ethr) on eigenvalues was too large:
     Diagonalizing with lowered threshold

     Davidson diagonalization with overlap
     ethr =  9.12E-04,  avg # of iterations =  4.1

[...]

     total energy              =   -1801.36042939 Ry
     Harris-Foulkes estimate   =   -1801.61014209 Ry
     estimated scf accuracy    <       1.43441473 Ry

[...]

     iteration #  9     ecut=    36.75 Ry     beta=0.10
     Davidson diagonalization with overlap
     c_bands:  1 eigenvalues not converged
     ethr =  2.26E-06,  avg # of iterations =  3.8

[...]

     End of self-consistent calculation

          k = 0.0000 0.0000 0.0000 ( 23415 PWs)   bands (ev):

   -73.6894 -73.6894 -73.4825 -37.7362 -37.7362 -37.7361 -37.7361 -37.7078
   -37.7074 -37.5679 -37.5678 -37.4756 -11.2985 -11.1848 -11.1719 -11.1718
   -11.0987 -11.0854 -10.9888 -10.9888 -10.9577 -10.9109 -10.9109 -10.8713
   -10.8712 -10.8018 -10.7760 -10.7760 -10.7291 -10.6623 -10.6148 -10.5940
   -10.5940 -10.5641 -10.5640 -10.5451 -10.5264 -10.5263 -10.4162 -10.4162
   -10.3809 -10.3809 -10.3634 -10.3634 -10.3576 -10.3460 -10.3460 -10.2961
   -10.2961 -10.2066 -10.2065 -10.1608 -10.1517 -10.1329 -10.1329 -10.0110
   -10.0090  -8.8062  -7.3280  -5.4335  -4.4057  -4.4057  -3.7748  -3.7748
    -2.8982  -2.8982  -2.0755  -1.5302  -1.0194  -0.8535  -0.8535  -0.3438
     0.3835   0.3835   0.4304   0.5857   0.5857   0.9705   0.9705   0.9733
     0.9733   1.4003   1.5593   1.6042   1.6042   1.7942   1.8247   1.8247
     1.8566   1.8566   2.2307   2.3928   2.3928   2.6114   3.7563   4.6091
     4.8811   5.2973   5.2973   5.5134   5.5134   5.6207   5.7197   6.0288
     6.3475   6.4605   7.3592   7.3593   7.4588

[...]

          k =-0.0770-0.0445 0.0000 ( 23428 PWs)   bands (ev):

[...]

     the Fermi energy is     1.0861 ev

!    total energy              =   -1801.51934599 Ry
     Harris-Foulkes estimate   =   -1801.52463329 Ry
     estimated scf accuracy    <       0.00000091 Ry

     The total energy is the sum of the following terms:

     one-electron contribution =   -9683.49441881 Ry
     hartree contribution      =    4897.46127950 Ry
     xc contribution           =    -703.30959271 Ry
     ewald contribution        =    3687.89881535 Ry
     electric field correction =       0.00000000 Ry
     smearing contrib. (-TS)   =      -0.07542932 Ry

     convergence has been achieved in  14 iterations

[...]
                l(1) =   0
                l(2) =   0
                l(3) =   1
                l(4) =   1
                l(5) =   2
                l(6) =   2
     Q(r) pseudized with  6 coefficients,  rinner =    1.100   1.100   1.100
                                                       1.100   1.100

     PseudoPot. # 2 for W  read from file:
     /afs/slac.stanford.edu/u/if/mamunm/psp/gbrv1.5pbe/W.UPF
     MD5 check sum: 9c083fa34c2a2ea0f02f1f893e16e1c8
     Pseudo is Ultrasoft + core correction, Zval = 14.0
     Generated by new atomic code, or converted to UPF format
     Using radial grid of  923 points,  8 beta functions with:
                l(1) =   0
                l(2) =   0
                l(3) =   0
                l(4) =   1
                l(5) =   1
                l(6) =   2
                l(7) =   2
                l(8) =   3
     Q(r) pseudized with  6 coefficients,  rinner =    1.350   1.350   1.350
                                                       1.350   1.350   1.350
                                                       1.350

     vdW kernel table read from file vdW_kernel_table
     MD5 check sum: 095c7af220d748ca6e76c0b4c6cfb241

     atomic species   valence    mass     pseudopotential
        Tl1           13.00   204.38000     Tl( 1.00)
        W1            14.00   183.84000     W ( 1.00)

     No symmetry found

   Cartesian axes

     site n.     atom                  positions (alat units)
         1           Tl1 tau(   1) = (   0.0000000   0.0000000  10.0000000  )
         2           Tl1 tau(   2) = (  -1.6228400   2.8108413  10.0000000  )
         3           Tl1 tau(   3) = (   1.6228400   2.8108413  10.0000000  )
         4           W1  tau(   4) = (   3.2456799   0.0000000  10.0000000  )
         5           Tl1 tau(   5) = (   3.2456799   1.8738942  12.6500866  )
         6           Tl1 tau(   6) = (   1.6228400   4.6847355  12.6500866  )
         7           Tl1 tau(   7) = (  -1.6228400   4.6847355  12.6500866  )
         8           W1  tau(   8) = (   0.0000000   1.8738942  12.6500866  )
         9           Tl1 tau(   9) = (   0.0000157   3.7201483  15.5331886  )
        10           Tl1 tau(  10) = (   1.5990238   0.9504349  15.5326861  )
        11           Tl1 tau(  11) = (   4.8922922   0.9504500  15.5326964  )
        12           W1  tau(  12) = (   3.2456366   3.7478374  14.8654285  )

     number of k points=    20  Fermi-Dirac smearing, width (Ry)=  0.0110
                       cart. coord. in units 2pi/alat
        k(    1) = (   0.0000000   0.0000000   0.0000000), wk =   0.0555556
        k(    2) = (   0.0000000   0.0296471   0.0000000), wk =   0.1111111
        k(    3) = (   0.0000000   0.0592942   0.0000000), wk =   0.1111111
        k(    4) = (   0.0000000  -0.0889413   0.0000000), wk =   0.0555556
        k(    5) = (   0.0256752   0.0148236   0.0000000), wk =   0.1111111
        k(    6) = (   0.0256752   0.0444707   0.0000000), wk =   0.1111111
        k(    7) = (   0.0256752   0.0741178   0.0000000), wk =   0.1111111
        k(    8) = (   0.0256752  -0.0741178   0.0000000), wk =   0.1111111
        k(    9) = (   0.0256752  -0.0444707   0.0000000), wk =   0.1111111
        k(   10) = (   0.0256752  -0.0148236   0.0000000), wk =   0.1111111
        k(   11) = (   0.0513503   0.0296471   0.0000000), wk =   0.1111111
        k(   12) = (   0.0513503   0.0592942   0.0000000), wk =   0.1111111
        k(   13) = (   0.0513503   0.0889413   0.0000000), wk =   0.1111111
        k(   14) = (   0.0513503  -0.0592942   0.0000000), wk =   0.1111111
        k(   15) = (   0.0513503  -0.0296471   0.0000000), wk =   0.1111111
        k(   16) = (   0.0513503   0.0000000   0.0000000), wk =   0.1111111
        k(   17) = (  -0.0770255  -0.0444707   0.0000000), wk =   0.0555556
        k(   18) = (  -0.0770255  -0.0148236   0.0000000), wk =   0.1111111
        k(   19) = (  -0.0770255   0.0148236   0.0000000), wk =   0.1111111
        k(   20) = (  -0.0770255  -0.1334120   0.0000000), wk =   0.0555556

     Largest allocated arrays     est. size (Mb)     dimensions
     Largest temporary arrays     est. size (Mb)     dimensions

     Check: negative/imaginary core charge=   -0.000001    0.000000

     Initial potential from superposition of free atoms
     Check: negative starting charge=   -0.644991

     starting charge  158.65519, renormalised to  159.00000

[...]

     *
     * You are using vdW-DF for exchange-correlation in this calculation.
     * Please cite the following three references that made this development
     * possible:
     *
     *   M. Dion, H. Rydberg, E. Schroder, D. C. Langreth, and
     *   B. I. Lundqvist, Phys. Rev. Lett. 92, 246401 (2004).
     *
     *   T. Thonhauser, V. R. Cooper, S. Li, A. Puzder, P. Hyldgaard, and
     *   D. C. Langreth, Phys. Rev. B 76, 125112 (2007).
     *
     *   G. Roman-Perez and J. M. Soler, Phys. Rev. Lett. 103, 096102 (2009).
     *
     *
     * If you are using vdW-DF2, please also cite:
     *
     *   K. Lee, E. D. Murray, L. Kong, B. I. Lundqvist, and
     *   D. C. Langreth, Phys. Rev. B 82, 081101(R) (2010).
     *
     *
     * If you are calculating the stress with vdW-DF, please also cite:
     *
     *   R. Sabatini, E. Kucukbenli, B. Kolb, T. Thonhauser, and
     *   S. de Gironcoli, J. Phys.: Condens. Matter 24, 424209 (2012).
     *

     Carrying out vdW-DF run using the following parameters:

     Nqs =      20    Nr_points =    1024   r_max =   100.000
     q_mesh =
               0.00001000     0.04494208     0.09755937     0.15916263
               0.23128650     0.31572767     0.41458969     0.53033537
               0.66584808     0.82450364     1.01025438     1.22772762
               1.48234092     1.78043706     2.12944203     2.53805004
               3.01644009     3.57652955     4.23227104     5.00000000

     Gradients computed in reciprocal space

[...]

     Starting wfc are  120 randomized atomic wfcs

     Self-consistent Calculation

[...]

     Threshold (ethr) on eigenvalues was too large:
     Diagonalizing with lowered threshold

     Davidson diagonalization with overlap
     ethr =  9.96E-04,  avg # of iterations =  4.0

[...]

     total energy              =   -1801.57020425 Ry
     Harris-Foulkes estimate   =   -1801.57019326 Ry
     estimated scf accuracy    <       0.00000345 Ry

     iteration # 15     ecut=    36.75 Ry     beta=0.10
     Davidson diagonalization with overlap
     ethr =  2.17E-09,  avg # of iterations =  2.6

[...]

     negative rho (up, down):  6.814E-01 0.000E+00

     Adding external electric field

     Computed dipole along edir(3) :
        Dipole                0.1173 Ry au,          0.2980 Debye
        Dipole field          0.0002 Ry au

        Potential amp.       -0.0220 Ry
        Total length         46.6151 bohr

     End of self-consistent calculation

[...]

          k = 0.0514 0.0000 0.0000 ( 23410 PWs)   bands (ev):

[...]

          k =-0.0770-0.1334 0.0000 ( 23428 PWs)   bands (ev):

   -73.6369 -73.5454 -73.3955 -37.6715 -37.6695 -37.6690 -37.6264 -37.6260
   -37.5637 -37.4796 -37.4792 -37.3781 -11.0469 -10.9343 -10.8958 -10.8635
   -10.8500 -10.7984 -10.7686 -10.7406 -10.7364 -10.7074 -10.6959 -10.6669
   -10.6298 -10.6160 -10.5894 -10.5836 -10.5520 -10.5144 -10.5012 -10.4801
   -10.4758 -10.4701 -10.4563 -10.4358 -10.4204 -10.4176 -10.4056 -10.3935
   -10.3881 -10.3731 -10.3729 -10.3620 -10.3502 -10.3468 -10.3278 -10.3210
   -10.2882 -10.2862 -10.2632 -10.2441 -10.2239 -10.1812 -10.1323 -10.0627
   -10.0250  -7.4587  -7.0814  -5.9586  -5.7844  -4.9827  -4.7375  -4.3506
    -3.6110  -2.5516  -2.4071  -1.6895  -0.7538  -0.2711  -0.1508   0.0005
     0.0504   0.0810   0.4500   0.6396   0.8131   0.9499   1.2804   1.4453
     1.4865   1.5796   1.7348   1.8496   2.0519   2.1736   2.5396   2.8349
     2.9294   3.0888   3.6209   3.7156   3.7523   4.2579   4.3591   4.3807
     4.7124   5.2109   5.4792   5.6089   5.7130   5.7718   5.9510   6.0106
     6.0695   6.5154   6.5347   6.6095   6.8171

     the Fermi energy is     1.1718 ev

!    total energy              =   -1801.57019185 Ry
     Harris-Foulkes estimate   =   -1801.57020475 Ry
     estimated scf accuracy    <       0.00000098 Ry

     The total energy is the sum of the following terms:

     one-electron contribution =   -9591.74386231 Ry
     hartree contribution      =    4852.09030275 Ry
     xc contribution           =    -703.30540286 Ry
     ewald contribution        =    3641.46078083 Ry
     electric field correction =       0.00002773 Ry
     smearing contrib. (-TS)   =      -0.07203799 Ry

     convergence has been achieved in  15 iterations

 BEEF-vdW xc energy contributions
           1 :   -625.337480966029
           2 :    580.255320882393
           3 :   -500.848326160402
           4 :    404.440575240509
           5 :   -308.886793741887
           6 :    227.221618884601
           7 :   -164.943669469087
           8 :    120.501807853021
           9 :   -88.2559340734855
          10 :    62.2252876856359
          11 :   -38.8782440222391
          12 :    17.9101540606915
          13 :   -1.11958051813747
          14 :   -9.61144445472553
          15 :    13.9533090279006
          16 :   -13.5666668010114
          17 :    11.3013207713039
          18 :   -9.79553906106048
          19 :    10.3197299706443
          20 :   -12.4675259790532
          21 :    14.7549966499648
          22 :   -15.6996491450581
          23 :    14.7252915229727
          24 :   -12.4143372278958
          25 :    10.0429442555076
          26 :   -8.75577038603319
          27 :    8.89788566088248
          28 :   -9.88069070573272
          29 :    10.6095697933873
          30 :   -10.1798648989760
          31 :   -51.2757272522167
          32 :   -37.6657561349067

     Forces acting on atoms (Ry/au):

     negative rho (up, down):  6.814E-01 0.000E+00
     atom    1 type  1   force =     0.00000107    0.01629458   -0.02662338
     atom    2 type  1   force =     0.01413695   -0.00813175   -0.02669906
     atom    3 type  1   force =    -0.01414041   -0.00812214   -0.02669784
     atom    4 type  2   force =     0.00000695    0.00000165    0.07678150
     atom    5 type  1   force =    -0.00000544   -0.01999380    0.00045718
     atom    6 type  1   force =    -0.01734924    0.00999415    0.00045755
     atom    7 type  1   force =     0.01734754    0.00999464    0.00046219
     atom    8 type  2   force =     0.00000239    0.00000511    0.00067109
     atom    9 type  1   force =     0.00000064   -0.00099082    0.00024157
     atom   10 type  1   force =    -0.00085965    0.00047856    0.00017992
     atom   11 type  1   force =     0.00085822    0.00048464    0.00018041
     atom   12 type  2   force =     0.00000098   -0.00001482    0.00058887

     Total force =     0.100166     Total SCF correction =     0.003004

     entering subroutine stress ...

     negative rho (up, down):  6.814E-01 0.000E+00
          total   stress  (Ry/bohr**3)                   (kbar)     P=  -16.74
  -0.00014319  -0.00000000   0.00000000        -21.06     -0.00      0.00
  -0.00000000  -0.00014319   0.00000002         -0.00    -21.06      0.00
   0.00000000   0.00000002  -0.00005510          0.00      0.00     -8.11

 !ASE

     Writing output data file calc.save

     General routines

     Parallel routines

   This run was terminated on:   5: 9:43  28Dec2018

   JOB DONE.
Job  /afs/slac/g/suncat/bin/suncat-tsmpirun -x LD_LIBRARY_PATH -wdir /scratch/qe111224_eq952 pw.x -in pw.inp

TID   HOST_NAME   COMMAND_LINE            STATUS            TERMINATION_TIME
00000 suncat0146 pw.x -in pw.inp   Done                     12/28/2018 05:09:43
00001 suncat0146 pw.x -in pw.inp   Done                     12/28/2018 05:09:43
00002 suncat0146 pw.x -in pw.inp   Done                     12/28/2018 05:09:43
00003 suncat0146 pw.x -in pw.inp   Done                     12/28/2018 05:09:43
00004 suncat0146 pw.x -in pw.inp   Done                     12/28/2018 05:09:43
00005 suncat0146 pw.x -in pw.inp   Done                     12/28/2018 05:09:43
00006 suncat0146 pw.x -in pw.inp   Done                     12/28/2018 05:09:43
00007 suncat0146 pw.x -in pw.inp   Done                     12/28/2018 05:09:43
00008 suncat0136 pw.x -in pw.inp   Done                     12/28/2018 05:09:43
00009 suncat0136 pw.x -in pw.inp   Done                     12/28/2018 05:09:43
00010 suncat0136 pw.x -in pw.inp   Done                     12/28/2018 05:09:43
00011 suncat0136 pw.x -in pw.inp   Done                     12/28/2018 05:09:43
00012 suncat0136 pw.x -in pw.inp   Done                     12/28/2018 05:09:43
00013 suncat0136 pw.x -in pw.inp   Done                     12/28/2018 05:09:43
00014 suncat0136 pw.x -in pw.inp   Done                     12/28/2018 05:09:43
00015 suncat0136 pw.x -in pw.inp   Done                     12/28/2018 05:09:43
00016 suncat0248 pw.x -in pw.inp   Done                     12/28/2018 05:09:43
00017 suncat0248 pw.x -in pw.inp   Done                     12/28/2018 05:09:43
00018 suncat0248 pw.x -in pw.inp   Done                     12/28/2018 05:09:43
00019 suncat0248 pw.x -in pw.inp   Done                     12/28/2018 05:09:43
00020 suncat0248 pw.x -in pw.inp   Done                     12/28/2018 05:09:43
00021 suncat0248 pw.x -in pw.inp   Done                     12/28/2018 05:09:43
00022 suncat0248 pw.x -in pw.inp   Done                     12/28/2018 05:09:43
00023 suncat0248 pw.x -in pw.inp   Done                     12/28/2018 05:09:43
00024 suncat0247 pw.x -in pw.inp   Done                     12/28/2018 05:09:43
00025 suncat0247 pw.x -in pw.inp   Done                     12/28/2018 05:09:43
00026 suncat0247 pw.x -in pw.inp   Done                     12/28/2018 05:09:43
00027 suncat0247 pw.x -in pw.inp   Done                     12/28/2018 05:09:43
00028 suncat0247 pw.x -in pw.inp   Done                     12/28/2018 05:09:43
00029 suncat0247 pw.x -in pw.inp   Done                     12/28/2018 05:09:43
00030 suncat0247 pw.x -in pw.inp   Done                     12/28/2018 05:09:43
00031 suncat0247 pw.x -in pw.inp   Done                     12/28/2018 05:09:43
00032 suncat0246 pw.x -in pw.inp   Done                     12/28/2018 05:09:43
00033 suncat0246 pw.x -in pw.inp   Done                     12/28/2018 05:09:43
00034 suncat0246 pw.x -in pw.inp   Done                     12/28/2018 05:09:43
00035 suncat0246 pw.x -in pw.inp   Done                     12/28/2018 05:09:43
00036 suncat0246 pw.x -in pw.inp   Done                     12/28/2018 05:09:43
00037 suncat0246 pw.x -in pw.inp   Done                     12/28/2018 05:09:43
00038 suncat0246 pw.x -in pw.inp   Done                     12/28/2018 05:09:43
00039 suncat0246 pw.x -in pw.inp   Done                     12/28/2018 05:09:43
00040 suncat0245 pw.x -in pw.inp   Done                     12/28/2018 05:09:43
00041 suncat0245 pw.x -in pw.inp   Done                     12/28/2018 05:09:43
00042 suncat0245 pw.x -in pw.inp   Done                     12/28/2018 05:09:43
00043 suncat0245 pw.x -in pw.inp   Done                     12/28/2018 05:09:43
00044 suncat0245 pw.x -in pw.inp   Done                     12/28/2018 05:09:43
00045 suncat0245 pw.x -in pw.inp   Done                     12/28/2018 05:09:43
00046 suncat0245 pw.x -in pw.inp   Done                     12/28/2018 05:09:43
00047 suncat0245 pw.x -in pw.inp   Done                     12/28/2018 05:09:43
00048 suncat0214 pw.x -in pw.inp   Done                     12/28/2018 05:09:43
00049 suncat0214 pw.x -in pw.inp   Done                     12/28/2018 05:09:43
00050 suncat0214 pw.x -in pw.inp   Done                     12/28/2018 05:09:43
00051 suncat0214 pw.x -in pw.inp   Done                     12/28/2018 05:09:43
00052 suncat0214 pw.x -in pw.inp   Done                     12/28/2018 05:09:43
00053 suncat0214 pw.x -in pw.inp   Done                     12/28/2018 05:09:43
00054 suncat0214 pw.x -in pw.inp   Done                     12/28/2018 05:09:43
00055 suncat0214 pw.x -in pw.inp   Done                     12/28/2018 05:09:43
00056 suncat0213 pw.x -in pw.inp   Done                     12/28/2018 05:09:43
00057 suncat0213 pw.x -in pw.inp   Done                     12/28/2018 05:09:43
00058 suncat0213 pw.x -in pw.inp   Done                     12/28/2018 05:09:43
00059 suncat0213 pw.x -in pw.inp   Done                     12/28/2018 05:09:43
00060 suncat0213 pw.x -in pw.inp   Done                     12/28/2018 05:09:43
00061 suncat0213 pw.x -in pw.inp   Done                     12/28/2018 05:09:43
00062 suncat0213 pw.x -in pw.inp   Done                     12/28/2018 05:09:43
00063 suncat0213 pw.x -in pw.inp   Done                     12/28/2018 05:09:43