     Program PWSCF v.5.1rc2 (svn rev. 11289) starts on  2Jan2019 at 13: 0:55

     Current dimensions of program PWSCF are:
     Max number of different atomic species (ntypx) = 10
     Max number of k-points (npk) =  40000
     Max angular momentum in pseudopotentials (lmaxx) =  3
     Presently stress not available with electric field

     IMPORTANT: XC functional enforced from input :
     Exchange-correlation      = BEEF-VDW ( 1  4 27 13 2)
     Any further DFT definition will be discarded
     Please, verify this is what you really want

     Subspace diagonalization in iterative solution of the eigenvalue problem:
     a serial algorithm will be used

     bravais-lattice index     =            0
     lattice parameter (alat)  =       1.8897  a.u.
     unit-cell volume          =    6664.6693 (a.u.)^3
     number of atoms/cell      =           12
     number of atomic types    =            2
     number of electrons       =       147.00
     number of Kohn-Sham states=          103
     kinetic-energy cutoff     =      36.7493  Ry
     charge density cutoff     =     367.4932  Ry
     convergence threshold     =      1.0E-06
     mixing beta               =       0.1000
     number of iterations used =           10  plain     mixing
     Exchange-correlation      = BEEF-VDW ( 1  4 27 13 2)
     nstep                     =           50

     celldm(1)=   1.889726  celldm(2)=   0.000000  celldm(3)=   0.000000
     celldm(4)=   0.000000  celldm(5)=   0.000000  celldm(6)=   0.000000

     crystal axes: (cart. coord. in units of alat)
               a(1) = (   6.692090   0.000000   0.000000 )
               a(2) = (  -3.346045   5.795520   0.000000 )
               a(3) = (   0.000000   0.000000  25.464069 )

     reciprocal axes: (cart. coord. in units 2 pi/alat)
               b(1) = (  0.149430  0.086274  0.000000 )
               b(2) = (  0.000000  0.172547  0.000000 )
               b(3) = (  0.000000  0.000000  0.039271 )

     PseudoPot. # 1 for Y  read from file:
     /afs/slac.stanford.edu/u/if/mamunm/psp/gbrv1.5pbe/Y.UPF
     MD5 check sum: d034151ed7554c50b6e82763ed42c788
     Pseudo is Ultrasoft + core correction, Zval = 11.0
     Generated by new atomic code, or converted to UPF format
     Using radial grid of  885 points,  6 beta functions with:
                l(1) =   0
                l(2) =   0
                l(3) =   1
                l(4) =   1
                l(5) =   2
                l(6) =   2
     Q(r) pseudized with  8 coefficients,  rinner =    1.200   1.200   1.200
                                                       1.200   1.200

     PseudoPot. # 2 for Pd read from file:
     /afs/slac.stanford.edu/u/if/mamunm/psp/gbrv1.5pbe/Pd.UPF
     MD5 check sum: 2d733d2bc2cbfd217af676df1668a4bc
     Pseudo is Ultrasoft + core correction, Zval = 16.0
     Generated by new atomic code, or converted to UPF format
     Using radial grid of  887 points,  6 beta functions with:
                l(1) =   0
                l(2) =   0
                l(3) =   1
                l(4) =   1
                l(5) =   2
                l(6) =   2
     Q(r) pseudized with  8 coefficients,  rinner =    1.130   1.130   1.130
                                                       1.130   1.130

     vdW kernel table read from file vdW_kernel_table
     MD5 check sum: 095c7af220d748ca6e76c0b4c6cfb241

     atomic species   valence    mass     pseudopotential
        Y1            11.00    88.90584     Y ( 1.00)
        Pd1           16.00   106.42000     Pd( 1.00)

     No symmetry found

   Cartesian axes

     site n.     atom                  positions (alat units)
         1           Y1  tau(   1) = (   0.0000000   0.0000000  10.0000000  )
         2           Y1  tau(   2) = (  -1.6730226   2.8977601  10.0000000  )
         3           Y1  tau(   3) = (   1.6730226   2.8977601  10.0000000  )
         4           Pd1 tau(   4) = (   3.3460451   0.0000000  10.0000000  )
         5           Y1  tau(   5) = (   3.3460451   1.9318400  12.7320344  )
         6           Y1  tau(   6) = (   1.6730226   4.8296001  12.7320344  )
         7           Y1  tau(   7) = (  -1.6730226   4.8296001  12.7320344  )
         8           Pd1 tau(   8) = (   0.0000000   1.9318400  12.7320344  )
         9           Y1  tau(   9) = (  -0.0000000   3.8636801  15.4640688  )
        10           Y1  tau(  10) = (   1.6730226   0.9659200  15.4640688  )
        11           Y1  tau(  11) = (   5.0190677   0.9659200  15.4640688  )
        12           Pd1 tau(  12) = (   3.3460451   3.8636801  15.4640688  )

     number of k points=    20  Fermi-Dirac smearing, width (Ry)=  0.0110
                       cart. coord. in units 2pi/alat
        k(    1) = (   0.0000000   0.0000000   0.0000000), wk =   0.0555556
        k(    2) = (   0.0000000   0.0287578   0.0000000), wk =   0.1111111
        k(    3) = (   0.0000000   0.0575157   0.0000000), wk =   0.1111111
        k(    4) = (   0.0000000  -0.0862735   0.0000000), wk =   0.0555556
        k(    5) = (   0.0249050   0.0143789   0.0000000), wk =   0.1111111
        k(    6) = (   0.0249050   0.0431368   0.0000000), wk =   0.1111111
        k(    7) = (   0.0249050   0.0718946   0.0000000), wk =   0.1111111
        k(    8) = (   0.0249050  -0.0718946   0.0000000), wk =   0.1111111
        k(    9) = (   0.0249050  -0.0431368   0.0000000), wk =   0.1111111
        k(   10) = (   0.0249050  -0.0143789   0.0000000), wk =   0.1111111
        k(   11) = (   0.0498100   0.0287578   0.0000000), wk =   0.1111111
        k(   12) = (   0.0498100   0.0575157   0.0000000), wk =   0.1111111
        k(   13) = (   0.0498100   0.0862735   0.0000000), wk =   0.1111111
        k(   14) = (   0.0498100  -0.0575157   0.0000000), wk =   0.1111111
        k(   15) = (   0.0498100  -0.0287578   0.0000000), wk =   0.1111111
        k(   16) = (   0.0498100  -0.0000000   0.0000000), wk =   0.1111111
        k(   17) = (  -0.0747151  -0.0431368   0.0000000), wk =   0.0555556
        k(   18) = (  -0.0747151  -0.0143789   0.0000000), wk =   0.1111111
        k(   19) = (  -0.0747151   0.0143789   0.0000000), wk =   0.1111111
        k(   20) = (  -0.0747151  -0.1294103   0.0000000), wk =   0.0555556

     Largest allocated arrays     est. size (Mb)     dimensions
     Largest temporary arrays     est. size (Mb)     dimensions

     Initial potential from superposition of free atoms
     Check: negative starting charge=   -0.225262

     starting charge  145.45976, renormalised to  147.00000

     negative rho (up, down):  2.276E-01 0.000E+00

     *
     * You are using vdW-DF for exchange-correlation in this calculation.
     * Please cite the following three references that made this development
     * possible:
     *
     *   M. Dion, H. Rydberg, E. Schroder, D. C. Langreth, and
     *   B. I. Lundqvist, Phys. Rev. Lett. 92, 246401 (2004).
     *
     *   T. Thonhauser, V. R. Cooper, S. Li, A. Puzder, P. Hyldgaard, and
     *   D. C. Langreth, Phys. Rev. B 76, 125112 (2007).
     *
     *   G. Roman-Perez and J. M. Soler, Phys. Rev. Lett. 103, 096102 (2009).
     *
     *
     * If you are using vdW-DF2, please also cite:
     *
     *   K. Lee, E. D. Murray, L. Kong, B. I. Lundqvist, and
     *   D. C. Langreth, Phys. Rev. B 82, 081101(R) (2010).
     *
     *
     * If you are calculating the stress with vdW-DF, please also cite:
     *
     *   R. Sabatini, E. Kucukbenli, B. Kolb, T. Thonhauser, and
     *   S. de Gironcoli, J. Phys.: Condens. Matter 24, 424209 (2012).
     *

     Carrying out vdW-DF run using the following parameters:

     Nqs =      20    Nr_points =    1024   r_max =   100.000
     q_mesh =
               0.00001000     0.04494208     0.09755937     0.15916263
               0.23128650     0.31572767     0.41458969     0.53033537
               0.66584808     0.82450364     1.01025438     1.22772762
               1.48234092     1.78043706     2.12944203     2.53805004
               3.01644009     3.57652955     4.23227104     5.00000000

     Gradients computed in reciprocal space

     Adding external electric field

     Computed dipole along edir(3) :
        Dipole                0.0000 Ry au,          0.0000 Debye
        Dipole field          0.0000 Ry au

        Potential amp.       -0.0000 Ry
        Total length         46.9171 bohr

     Starting wfc are  153 randomized atomic wfcs

     Self-consistent Calculation

     iteration #  1     ecut=    36.75 Ry     beta=0.10
     Davidson diagonalization with overlap
     ethr =  1.00E-02,  avg # of iterations =  2.0

[...]

     total energy              =   -1441.88088707 Ry
     Harris-Foulkes estimate   =   -1443.51168515 Ry
     estimated scf accuracy    <       9.29740447 Ry

[...]

     End of self-consistent calculation

          k = 0.0000 0.0000 0.0000 ( 24981 PWs)   bands (ev):

   -48.8482 -48.8482 -48.8391 -48.5960 -48.5960 -48.5959 -48.5959 -48.5385
   -48.5384 -42.0206 -42.0180 -41.9473 -41.9473 -41.9467 -41.9467 -41.5763
   -41.5053 -41.5053 -22.3128 -22.2777 -22.1560 -22.1144 -22.1144 -22.0712
   -22.0712 -22.0533 -22.0384 -22.0384 -21.9626 -21.9626 -21.9101 -21.7479
   -21.7346 -21.6389 -21.6389 -21.5871 -21.5871 -21.5593 -21.5593 -21.4632
   -21.4204 -21.4204 -21.2952 -21.2199 -21.2199  -3.3499  -2.3358  -1.7931
    -1.6781  -1.6781  -1.6096  -1.6096  -1.3810  -1.3810  -1.3641  -1.3536
    -1.3536  -1.1728  -0.9818  -0.9818  -0.9183  -0.9183  -0.8983  -0.8669
    -0.3622   0.0189   0.7066   0.9510   0.9510   1.0505   1.3044   1.3044
     1.5078   1.5078   1.6272   1.6594   1.6817   1.6817   1.9001   1.9001
     2.0891   2.2288   2.4998   2.4998   2.6128   2.6128   2.9051   2.9541
     2.9541   3.0476   3.0476   3.2298   3.3237   4.3041   4.3471   4.4667
     4.4667   4.5093   4.5977   4.8949   4.8949   4.9465   4.9465

[...]

          k =-0.0747-0.0431 0.0000 ( 25150 PWs)   bands (ev):

[...]

     the Fermi energy is     1.3449 ev

!    total energy              =   -1442.71127535 Ry
     Harris-Foulkes estimate   =   -1442.71128239 Ry
     estimated scf accuracy    <       0.00000044 Ry

     The total energy is the sum of the following terms:

     one-electron contribution =   -7937.55962848 Ry
     hartree contribution      =    3976.10165214 Ry
     xc contribution           =    -351.91409091 Ry
     ewald contribution        =    2870.77671336 Ry
     electric field correction =       0.00000001 Ry
     smearing contrib. (-TS)   =      -0.11592147 Ry

     convergence has been achieved in  18 iterations

 BEEF-vdW xc energy contributions
           1 :   -306.908498642986
           2 :    277.010987006932
           3 :   -225.485258482269
           4 :    165.133144175362
           5 :   -108.192260003740
           6 :    62.5663095392759
           7 :   -30.8232293717809
           8 :    11.5914979885949
           9 :   -1.89936632468624
          10 :  -0.995339620269021
          11 :   -1.03420574644906
          12 :    6.60631851040620
          13 :   -14.1386012366376
          14 :    21.5407343645181
          15 :   -26.5827087946752
          16 :    27.6769553998560
          17 :   -24.5148349332162
          18 :    18.1306208715639
[...]
     MD5 check sum: d034151ed7554c50b6e82763ed42c788
     Pseudo is Ultrasoft + core correction, Zval = 11.0
     Generated by new atomic code, or converted to UPF format
     Using radial grid of  885 points,  6 beta functions with:
                l(1) =   0
                l(2) =   0
                l(3) =   1
                l(4) =   1
                l(5) =   2
                l(6) =   2
     Q(r) pseudized with  8 coefficients,  rinner =    1.200   1.200   1.200
                                                       1.200   1.200

     PseudoPot. # 2 for Pd read from file:
     /afs/slac.stanford.edu/u/if/mamunm/psp/gbrv1.5pbe/Pd.UPF
     MD5 check sum: 2d733d2bc2cbfd217af676df1668a4bc
     Pseudo is Ultrasoft + core correction, Zval = 16.0
     Generated by new atomic code, or converted to UPF format
     Using radial grid of  887 points,  6 beta functions with:
                l(1) =   0
                l(2) =   0
                l(3) =   1
                l(4) =   1
                l(5) =   2
                l(6) =   2
     Q(r) pseudized with  8 coefficients,  rinner =    1.130   1.130   1.130
                                                       1.130   1.130

     vdW kernel table read from file vdW_kernel_table
     MD5 check sum: 095c7af220d748ca6e76c0b4c6cfb241

     atomic species   valence    mass     pseudopotential
        Y1            11.00    88.90584     Y ( 1.00)
        Pd1           16.00   106.42000     Pd( 1.00)

     No symmetry found

   Cartesian axes

     site n.     atom                  positions (alat units)
         1           Y1  tau(   1) = (   0.0000000   0.0000000  10.0000000  )
         2           Y1  tau(   2) = (  -1.6730226   2.8977601  10.0000000  )
         3           Y1  tau(   3) = (   1.6730226   2.8977601  10.0000000  )
         4           Pd1 tau(   4) = (   3.3460451   0.0000000  10.0000000  )
         5           Y1  tau(   5) = (   3.3460451   1.9318400  12.7320344  )
         6           Y1  tau(   6) = (   1.6730226   4.8296001  12.7320344  )
         7           Y1  tau(   7) = (  -1.6730226   4.8296001  12.7320344  )
         8           Pd1 tau(   8) = (   0.0000000   1.9318400  12.7320344  )
         9           Y1  tau(   9) = (   0.0000209   3.8268357  15.4762336  )
        10           Y1  tau(  10) = (   1.6411048   0.9843322  15.4762500  )
        11           Y1  tau(  11) = (   5.0509661   0.9843268  15.4762392  )
        12           Pd1 tau(  12) = (   3.3460408   3.8636508  14.9943676  )

     number of k points=    20  Fermi-Dirac smearing, width (Ry)=  0.0110
                       cart. coord. in units 2pi/alat
        k(    1) = (   0.0000000   0.0000000   0.0000000), wk =   0.0555556
        k(    2) = (   0.0000000   0.0287578   0.0000000), wk =   0.1111111
        k(    3) = (   0.0000000   0.0575157   0.0000000), wk =   0.1111111
        k(    4) = (   0.0000000  -0.0862735   0.0000000), wk =   0.0555556
        k(    5) = (   0.0249050   0.0143789   0.0000000), wk =   0.1111111
        k(    6) = (   0.0249050   0.0431368   0.0000000), wk =   0.1111111
        k(    7) = (   0.0249050   0.0718946   0.0000000), wk =   0.1111111
        k(    8) = (   0.0249050  -0.0718946   0.0000000), wk =   0.1111111
        k(    9) = (   0.0249050  -0.0431368   0.0000000), wk =   0.1111111
        k(   10) = (   0.0249050  -0.0143789   0.0000000), wk =   0.1111111
        k(   11) = (   0.0498100   0.0287578   0.0000000), wk =   0.1111111
        k(   12) = (   0.0498100   0.0575157   0.0000000), wk =   0.1111111
        k(   13) = (   0.0498100   0.0862735   0.0000000), wk =   0.1111111
        k(   14) = (   0.0498100  -0.0575157   0.0000000), wk =   0.1111111
        k(   15) = (   0.0498100  -0.0287578   0.0000000), wk =   0.1111111
        k(   16) = (   0.0498100  -0.0000000   0.0000000), wk =   0.1111111
        k(   17) = (  -0.0747151  -0.0431368   0.0000000), wk =   0.0555556
        k(   18) = (  -0.0747151  -0.0143789   0.0000000), wk =   0.1111111
        k(   19) = (  -0.0747151   0.0143789   0.0000000), wk =   0.1111111
        k(   20) = (  -0.0747151  -0.1294103   0.0000000), wk =   0.0555556

     Largest allocated arrays     est. size (Mb)     dimensions
     Largest temporary arrays     est. size (Mb)     dimensions

     Initial potential from superposition of free atoms
     Check: negative starting charge=   -0.224150

     starting charge  145.45976, renormalised to  147.00000

[...]

     *
     * You are using vdW-DF for exchange-correlation in this calculation.
     * Please cite the following three references that made this development
     * possible:
     *
     *   M. Dion, H. Rydberg, E. Schroder, D. C. Langreth, and
     *   B. I. Lundqvist, Phys. Rev. Lett. 92, 246401 (2004).
     *
     *   T. Thonhauser, V. R. Cooper, S. Li, A. Puzder, P. Hyldgaard, and
     *   D. C. Langreth, Phys. Rev. B 76, 125112 (2007).
     *
     *   G. Roman-Perez and J. M. Soler, Phys. Rev. Lett. 103, 096102 (2009).
     *
     *
     * If you are using vdW-DF2, please also cite:
     *
     *   K. Lee, E. D. Murray, L. Kong, B. I. Lundqvist, and
     *   D. C. Langreth, Phys. Rev. B 82, 081101(R) (2010).
     *
     *
     * If you are calculating the stress with vdW-DF, please also cite:
     *
     *   R. Sabatini, E. Kucukbenli, B. Kolb, T. Thonhauser, and
     *   S. de Gironcoli, J. Phys.: Condens. Matter 24, 424209 (2012).
     *

     Carrying out vdW-DF run using the following parameters:

     Nqs =      20    Nr_points =    1024   r_max =   100.000
     q_mesh =
               0.00001000     0.04494208     0.09755937     0.15916263
               0.23128650     0.31572767     0.41458969     0.53033537
               0.66584808     0.82450364     1.01025438     1.22772762
               1.48234092     1.78043706     2.12944203     2.53805004
               3.01644009     3.57652955     4.23227104     5.00000000

     Gradients computed in reciprocal space

[...]

     Starting wfc are  153 randomized atomic wfcs

     Self-consistent Calculation

[...]

     iteration # 12     ecut=    36.75 Ry     beta=0.10
     Davidson diagonalization with overlap
     c_bands:  1 eigenvalues not converged
     ethr =  7.44E-07,  avg # of iterations = 10.2

[...]

     total energy              =   -1442.73285366 Ry
     Harris-Foulkes estimate   =   -1442.73285373 Ry
     estimated scf accuracy    <       0.00000114 Ry

     iteration # 19     ecut=    36.75 Ry     beta=0.10
     Davidson diagonalization with overlap
     ethr =  7.75E-10,  avg # of iterations =  3.0

[...]

     negative rho (up, down):  2.337E-01 0.000E+00

     Adding external electric field

     Computed dipole along edir(3) :
        Dipole                0.0531 Ry au,          0.1349 Debye
        Dipole field          0.0001 Ry au

        Potential amp.       -0.0094 Ry
        Total length         46.9171 bohr

     End of self-consistent calculation

[...]

          k = 0.0498-0.0000 0.0000 ( 25074 PWs)   bands (ev):

[...]

          k =-0.0747-0.1294 0.0000 ( 25150 PWs)   bands (ev):

   -48.9199 -48.8775 -48.8774 -48.7892 -48.7892 -48.7796 -48.5552 -48.5552
   -48.5044 -41.9709 -41.9476 -41.9424 -41.9237 -41.9197 -41.8994 -41.4668
   -41.4432 -41.4190 -22.1418 -22.1084 -22.0634 -22.0303 -22.0137 -21.9735
   -21.9564 -21.9502 -21.9385 -21.9186 -21.8972 -21.8809 -21.8487 -21.8349
   -21.8329 -21.8183 -21.6817 -21.5805 -21.5684 -21.4599 -21.4200 -21.3799
   -21.3709 -21.3590 -21.3551 -21.3256 -21.1645  -2.1447  -2.0705  -1.6029
    -1.5183  -1.4753  -1.4368  -1.4248  -1.4107  -1.3315  -1.2774  -1.1861
    -1.1587  -1.0924  -1.0129  -0.9220  -0.8748  -0.8583  -0.8529  -0.6081
    -0.2998  -0.0993   0.2282   0.5461   0.8084   0.9505   1.0946   1.2591
     1.2870   1.2908   1.3575   1.5492   1.6145   1.7112   1.7644   1.8600
     1.9876   2.1286   2.1318   2.2586   2.3719   2.3894   2.8512   2.8651
     2.9156   3.0552   3.0864   3.1136   3.2153   3.3111   3.9742   4.0981
     4.2295   4.3088   4.3640   4.4552   4.4745   4.6335   4.6745

     the Fermi energy is     1.3941 ev

!    total energy              =   -1442.73284907 Ry
     Harris-Foulkes estimate   =   -1442.73285333 Ry
     estimated scf accuracy    <       0.00000047 Ry

     The total energy is the sum of the following terms:

     one-electron contribution =   -8091.78075686 Ry
     hartree contribution      =    4053.26482399 Ry
     xc contribution           =    -351.96689725 Ry
     ewald contribution        =    2947.86405963 Ry
     electric field correction =       0.00000531 Ry
     smearing contrib. (-TS)   =      -0.11408389 Ry

     convergence has been achieved in  19 iterations

 BEEF-vdW xc energy contributions
           1 :   -306.970568977942
           2 :    277.119353535595
           3 :   -225.637812423647
           4 :    165.269622388876
           5 :   -108.229499149430
           6 :    62.4538119954703
           7 :   -30.5816542770356
           8 :    11.3064232797304
           9 :   -1.67208480864201
          10 :   -1.10748157170246
          11 :   -1.02189684661221
          12 :    6.62630648253156
          13 :   -14.1209224614626
          14 :    21.4541638189666
          15 :   -26.4429981277984
          16 :    27.5265120697355
          17 :   -24.3956946252342
          18 :    18.0670623887993
          19 :   -10.3849034213989
          20 :    3.28486888519319
          21 :    1.79450429520864
          22 :   -4.16968417625122
          23 :    3.87879041021557
          24 :   -1.49761678758188
          25 :   -2.08294271974648
          26 :    5.86896155976888
          27 :   -8.96116268070278
          28 :    10.7328737169819
          29 :   -10.9575882594942
          30 :    9.83283076244760
          31 :   -29.4473562473237
          32 :   -20.5694527825597

     Forces acting on atoms (Ry/au):

     negative rho (up, down):  2.337E-01 0.000E+00
     atom    1 type  1   force =     0.00000114    0.01487499   -0.00891864
     atom    2 type  1   force =     0.01288453   -0.00743656   -0.00892073
     atom    3 type  1   force =    -0.01288230   -0.00743724   -0.00891953
     atom    4 type  2   force =     0.00000018   -0.00000042    0.03688996
     atom    5 type  1   force =    -0.00000124   -0.00153101   -0.00268933
     atom    6 type  1   force =    -0.00132348    0.00076467   -0.00269143
     atom    7 type  1   force =     0.00132370    0.00076620   -0.00268855
     atom    8 type  2   force =     0.00000023    0.00000035   -0.00293964
     atom    9 type  1   force =    -0.00000134   -0.00002404    0.00007524
     atom   10 type  1   force =    -0.00001661    0.00000821    0.00007232
     atom   11 type  1   force =     0.00001679    0.00001369    0.00007425
     atom   12 type  2   force =    -0.00000160    0.00000116    0.00065608

     Total force =     0.047971     Total SCF correction =     0.001773

     entering subroutine stress ...

     negative rho (up, down):  2.337E-01 0.000E+00
          total   stress  (Ry/bohr**3)                   (kbar)     P=   -2.98
  -0.00002460  -0.00000000   0.00000000         -3.62     -0.00      0.00
  -0.00000000  -0.00002459  -0.00000000         -0.00     -3.62     -0.00
   0.00000000  -0.00000000  -0.00001160          0.00     -0.00     -1.71

 !ASE

     Writing output data file calc.save

     General routines

     Parallel routines

   This run was terminated on:  15: 3:39   2Jan2019

   JOB DONE.
Job  /afs/slac/g/suncat/bin/suncat-tsmpirun -x LD_LIBRARY_PATH -wdir /scratch/qe649436_Gid84 pw.x -in pw.inp

TID   HOST_NAME   COMMAND_LINE            STATUS            TERMINATION_TIME
00000 suncat0024 pw.x -in pw.inp   Done                     01/02/2019 15:03:39
00001 suncat0024 pw.x -in pw.inp   Done                     01/02/2019 15:03:39
00002 suncat0024 pw.x -in pw.inp   Done                     01/02/2019 15:03:39
00003 suncat0024 pw.x -in pw.inp   Done                     01/02/2019 15:03:39
00004 suncat0024 pw.x -in pw.inp   Done                     01/02/2019 15:03:39
00005 suncat0024 pw.x -in pw.inp   Done                     01/02/2019 15:03:39
00006 suncat0024 pw.x -in pw.inp   Done                     01/02/2019 15:03:39
00007 suncat0024 pw.x -in pw.inp   Done                     01/02/2019 15:03:39
00008 suncat0023 pw.x -in pw.inp   Done                     01/02/2019 15:03:39
00009 suncat0023 pw.x -in pw.inp   Done                     01/02/2019 15:03:39
00010 suncat0023 pw.x -in pw.inp   Done                     01/02/2019 15:03:39
00011 suncat0023 pw.x -in pw.inp   Done                     01/02/2019 15:03:39
00012 suncat0023 pw.x -in pw.inp   Done                     01/02/2019 15:03:39
00013 suncat0023 pw.x -in pw.inp   Done                     01/02/2019 15:03:39
00014 suncat0023 pw.x -in pw.inp   Done                     01/02/2019 15:03:39
00015 suncat0023 pw.x -in pw.inp   Done                     01/02/2019 15:03:39
00016 suncat0190 pw.x -in pw.inp   Done                     01/02/2019 15:03:39
00017 suncat0190 pw.x -in pw.inp   Done                     01/02/2019 15:03:39
00018 suncat0190 pw.x -in pw.inp   Done                     01/02/2019 15:03:39
00019 suncat0190 pw.x -in pw.inp   Done                     01/02/2019 15:03:39
00020 suncat0190 pw.x -in pw.inp   Done                     01/02/2019 15:03:39
00021 suncat0190 pw.x -in pw.inp   Done                     01/02/2019 15:03:39
00022 suncat0190 pw.x -in pw.inp   Done                     01/02/2019 15:03:39
00023 suncat0190 pw.x -in pw.inp   Done                     01/02/2019 15:03:39
00024 suncat0009 pw.x -in pw.inp   Done                     01/02/2019 15:03:39
00025 suncat0009 pw.x -in pw.inp   Done                     01/02/2019 15:03:39
00026 suncat0009 pw.x -in pw.inp   Done                     01/02/2019 15:03:39
00027 suncat0009 pw.x -in pw.inp   Done                     01/02/2019 15:03:39
00028 suncat0009 pw.x -in pw.inp   Done                     01/02/2019 15:03:39
00029 suncat0009 pw.x -in pw.inp   Done                     01/02/2019 15:03:39
00030 suncat0009 pw.x -in pw.inp   Done                     01/02/2019 15:03:39
00031 suncat0009 pw.x -in pw.inp   Done                     01/02/2019 15:03:39
00032 suncat0166 pw.x -in pw.inp   Done                     01/02/2019 15:03:39
00033 suncat0166 pw.x -in pw.inp   Done                     01/02/2019 15:03:40
00034 suncat0166 pw.x -in pw.inp   Done                     01/02/2019 15:03:39
00035 suncat0166 pw.x -in pw.inp   Done                     01/02/2019 15:03:39
00036 suncat0166 pw.x -in pw.inp   Done                     01/02/2019 15:03:39
00037 suncat0166 pw.x -in pw.inp   Done                     01/02/2019 15:03:39
00038 suncat0166 pw.x -in pw.inp   Done                     01/02/2019 15:03:39
00039 suncat0166 pw.x -in pw.inp   Done                     01/02/2019 15:03:39
00040 suncat0149 pw.x -in pw.inp   Done                     01/02/2019 15:03:39
00041 suncat0149 pw.x -in pw.inp   Done                     01/02/2019 15:03:39
00042 suncat0149 pw.x -in pw.inp   Done                     01/02/2019 15:03:39
00043 suncat0149 pw.x -in pw.inp   Done                     01/02/2019 15:03:39
00044 suncat0149 pw.x -in pw.inp   Done                     01/02/2019 15:03:39
00045 suncat0149 pw.x -in pw.inp   Done                     01/02/2019 15:03:39
00046 suncat0149 pw.x -in pw.inp   Done                     01/02/2019 15:03:39
00047 suncat0149 pw.x -in pw.inp   Done                     01/02/2019 15:03:39
00048 suncat0148 pw.x -in pw.inp   Done                     01/02/2019 15:03:39
00049 suncat0148 pw.x -in pw.inp   Done                     01/02/2019 15:03:39
00050 suncat0148 pw.x -in pw.inp   Done                     01/02/2019 15:03:39
00051 suncat0148 pw.x -in pw.inp   Done                     01/02/2019 15:03:39
00052 suncat0148 pw.x -in pw.inp   Done                     01/02/2019 15:03:39
00053 suncat0148 pw.x -in pw.inp   Done                     01/02/2019 15:03:39
00054 suncat0148 pw.x -in pw.inp   Done                     01/02/2019 15:03:39
00055 suncat0148 pw.x -in pw.inp   Done                     01/02/2019 15:03:39
00056 suncat0142 pw.x -in pw.inp   Done                     01/02/2019 15:03:39
00057 suncat0142 pw.x -in pw.inp   Done                     01/02/2019 15:03:39
00058 suncat0142 pw.x -in pw.inp   Done                     01/02/2019 15:03:39
00059 suncat0142 pw.x -in pw.inp   Done                     01/02/2019 15:03:39
00060 suncat0142 pw.x -in pw.inp   Done                     01/02/2019 15:03:39
00061 suncat0142 pw.x -in pw.inp   Done                     01/02/2019 15:03:39
00062 suncat0142 pw.x -in pw.inp   Done                     01/02/2019 15:03:39
00063 suncat0142 pw.x -in pw.inp   Done                     01/02/2019 15:03:39