     Program PWSCF v.5.1rc2 (svn rev. 11289) starts on 25Dec2018 at 23:12:15

     Current dimensions of program PWSCF are:
     Max number of different atomic species (ntypx) = 10
     Max number of k-points (npk) =  40000
     Max angular momentum in pseudopotentials (lmaxx) =  3
     Presently stress not available with electric field

     IMPORTANT: XC functional enforced from input :
     Exchange-correlation      = BEEF-VDW ( 1  4 27 13 2)
     Any further DFT definition will be discarded
     Please, verify this is what you really want

     Subspace diagonalization in iterative solution of the eigenvalue problem:
     a serial algorithm will be used

     Generating pointlists ...
     new r_m :   0.4125 (alat units)  0.7795 (a.u.) for type    1
     new r_m :   0.4125 (alat units)  0.7795 (a.u.) for type    2

     bravais-lattice index     =            0
     lattice parameter (alat)  =       1.8897  a.u.
     unit-cell volume          =    3744.8379 (a.u.)^3
     number of atoms/cell      =           12
     number of atomic types    =            2
     number of electrons       =       186.00
     number of Kohn-Sham states=          123
     kinetic-energy cutoff     =      36.7493  Ry
     charge density cutoff     =     367.4932  Ry
     convergence threshold     =      1.0E-06
     mixing beta               =       0.1000
     number of iterations used =           10  plain     mixing
     Exchange-correlation      = BEEF-VDW ( 1  4 27 13 2)
     nstep                     =           50

     celldm(1)=   1.889726  celldm(2)=   0.000000  celldm(3)=   0.000000
     celldm(4)=   0.000000  celldm(5)=   0.000000  celldm(6)=   0.000000

     crystal axes: (cart. coord. in units of alat)
               a(1) = (   5.145567   0.000000   0.000000 )
               a(2) = (  -2.572783   4.456191   0.000000 )
               a(3) = (   0.000000   0.000000  24.201338 )

     reciprocal axes: (cart. coord. in units 2 pi/alat)
               b(1) = (  0.194342  0.112203  0.000000 )
               b(2) = (  0.000000  0.224407  0.000000 )
               b(3) = (  0.000000  0.000000  0.041320 )

     PseudoPot. # 1 for Fe read from file:
     /afs/slac.stanford.edu/u/if/mamunm/psp/gbrv1.5pbe/Fe.UPF
     MD5 check sum: a130daea23fe5165f5d574ae7f82ed95
     Pseudo is Ultrasoft + core correction, Zval = 16.0
     Generated by new atomic code, or converted to UPF format
     Using radial grid of  861 points,  6 beta functions with:
                l(1) =   0
                l(2) =   0
                l(3) =   1
                l(4) =   1
                l(5) =   2
                l(6) =   2
     Q(r) pseudized with  8 coefficients,  rinner =    1.000   1.000   1.000
                                                       1.000   1.000

     PseudoPot. # 2 for W  read from file:
     /afs/slac.stanford.edu/u/if/mamunm/psp/gbrv1.5pbe/W.UPF
     MD5 check sum: 9c083fa34c2a2ea0f02f1f893e16e1c8
     Pseudo is Ultrasoft + core correction, Zval = 14.0
     Generated by new atomic code, or converted to UPF format
     Using radial grid of  923 points,  8 beta functions with:
                l(1) =   0
                l(2) =   0
                l(3) =   0
                l(4) =   1
                l(5) =   1
                l(6) =   2
                l(7) =   2
                l(8) =   3
     Q(r) pseudized with  6 coefficients,  rinner =    1.350   1.350   1.350
                                                       1.350   1.350   1.350
                                                       1.350

     vdW kernel table read from file vdW_kernel_table
     MD5 check sum: 095c7af220d748ca6e76c0b4c6cfb241

     atomic species   valence    mass     pseudopotential
        Fe1           16.00    55.84500     Fe( 1.00)
        W1            14.00   183.84000     W ( 1.00)

     Starting magnetic structure
     atomic species   magnetization
        Fe1          0.125
        W1           0.143

     No symmetry found

   Cartesian axes

     site n.     atom                  positions (alat units)
         1           Fe1 tau(   1) = (   0.0000000   0.0000000  10.0000000  )
         2           Fe1 tau(   2) = (  -1.2863917   2.2280957  10.0000000  )
         3           Fe1 tau(   3) = (   1.2863917   2.2280957  10.0000000  )
         4           W1  tau(   4) = (   2.5727833   0.0000000  10.0000000  )
         5           Fe1 tau(   5) = (   2.5727833   1.4853971  12.1006688  )
         6           Fe1 tau(   6) = (   1.2863917   3.7134929  12.1006688  )
         7           Fe1 tau(   7) = (  -1.2863917   3.7134929  12.1006688  )
         8           W1  tau(   8) = (   0.0000000   1.4853971  12.1006688  )
         9           Fe1 tau(   9) = (  -0.0000000   2.9707943  14.2013376  )
        10           Fe1 tau(  10) = (   1.2863917   0.7426986  14.2013376  )
        11           Fe1 tau(  11) = (   3.8591750   0.7426986  14.2013376  )
        12           W1  tau(  12) = (   2.5727833   2.9707943  14.2013376  )

     number of k points=    40  Fermi-Dirac smearing, width (Ry)=  0.0110
                       cart. coord. in units 2pi/alat
        k(    1) = (   0.0000000   0.0000000   0.0000000), wk =   0.0277778
        k(    2) = (   0.0000000   0.0374011   0.0000000), wk =   0.0555556
        k(    3) = (   0.0000000   0.0748023   0.0000000), wk =   0.0555556
        k(    4) = (   0.0000000  -0.1122034   0.0000000), wk =   0.0277778
        k(    5) = (   0.0323903   0.0187006   0.0000000), wk =   0.0555556
        k(    6) = (   0.0323903   0.0561017   0.0000000), wk =   0.0555556
        k(    7) = (   0.0323903   0.0935029   0.0000000), wk =   0.0555556
        k(    8) = (   0.0323903  -0.0935029   0.0000000), wk =   0.0555556
        k(    9) = (   0.0323903  -0.0561017   0.0000000), wk =   0.0555556
        k(   10) = (   0.0323903  -0.0187006   0.0000000), wk =   0.0555556
        k(   11) = (   0.0647807   0.0374011   0.0000000), wk =   0.0555556
        k(   12) = (   0.0647807   0.0748023   0.0000000), wk =   0.0555556
        k(   13) = (   0.0647807   0.1122034   0.0000000), wk =   0.0555556
        k(   14) = (   0.0647807  -0.0748023   0.0000000), wk =   0.0555556
        k(   15) = (   0.0647807  -0.0374011   0.0000000), wk =   0.0555556
        k(   16) = (   0.0647807   0.0000000   0.0000000), wk =   0.0555556
        k(   17) = (  -0.0971710  -0.0561017   0.0000000), wk =   0.0277778
        k(   18) = (  -0.0971710  -0.0187006   0.0000000), wk =   0.0555556
        k(   19) = (  -0.0971710   0.0187006   0.0000000), wk =   0.0555556
        k(   20) = (  -0.0971710  -0.1683052   0.0000000), wk =   0.0277778
        k(   21) = (   0.0000000   0.0000000   0.0000000), wk =   0.0277778
        k(   22) = (   0.0000000   0.0374011   0.0000000), wk =   0.0555556
        k(   23) = (   0.0000000   0.0748023   0.0000000), wk =   0.0555556
        k(   24) = (   0.0000000  -0.1122034   0.0000000), wk =   0.0277778
        k(   25) = (   0.0323903   0.0187006   0.0000000), wk =   0.0555556
        k(   26) = (   0.0323903   0.0561017   0.0000000), wk =   0.0555556
        k(   27) = (   0.0323903   0.0935029   0.0000000), wk =   0.0555556
        k(   28) = (   0.0323903  -0.0935029   0.0000000), wk =   0.0555556
        k(   29) = (   0.0323903  -0.0561017   0.0000000), wk =   0.0555556
        k(   30) = (   0.0323903  -0.0187006   0.0000000), wk =   0.0555556
        k(   31) = (   0.0647807   0.0374011   0.0000000), wk =   0.0555556
        k(   32) = (   0.0647807   0.0748023   0.0000000), wk =   0.0555556
        k(   33) = (   0.0647807   0.1122034   0.0000000), wk =   0.0555556
        k(   34) = (   0.0647807  -0.0748023   0.0000000), wk =   0.0555556
        k(   35) = (   0.0647807  -0.0374011   0.0000000), wk =   0.0555556
        k(   36) = (   0.0647807   0.0000000   0.0000000), wk =   0.0555556
        k(   37) = (  -0.0971710  -0.0561017   0.0000000), wk =   0.0277778
        k(   38) = (  -0.0971710  -0.0187006   0.0000000), wk =   0.0555556
        k(   39) = (  -0.0971710   0.0187006   0.0000000), wk =   0.0555556
        k(   40) = (  -0.0971710  -0.1683052   0.0000000), wk =   0.0277778

     Largest allocated arrays     est. size (Mb)     dimensions
     Largest temporary arrays     est. size (Mb)     dimensions

     Check: negative/imaginary core charge=   -0.000006    0.000000

     Initial potential from superposition of free atoms
     Check: negative starting charge=(component1):   -0.111754
     Check: negative starting charge=(component2):   -0.083789

     starting charge  176.69893, renormalised to  186.00000

     negative rho (up, down):  1.176E-01 8.820E-02

     *
     * You are using vdW-DF for exchange-correlation in this calculation.
     * Please cite the following three references that made this development
     * possible:
     *
     *   M. Dion, H. Rydberg, E. Schroder, D. C. Langreth, and
     *   B. I. Lundqvist, Phys. Rev. Lett. 92, 246401 (2004).
     *
     *   T. Thonhauser, V. R. Cooper, S. Li, A. Puzder, P. Hyldgaard, and
     *   D. C. Langreth, Phys. Rev. B 76, 125112 (2007).
     *
     *   G. Roman-Perez and J. M. Soler, Phys. Rev. Lett. 103, 096102 (2009).
     *
     *
     * If you are using vdW-DF2, please also cite:
     *
     *   K. Lee, E. D. Murray, L. Kong, B. I. Lundqvist, and
     *   D. C. Langreth, Phys. Rev. B 82, 081101(R) (2010).
     *
     *
     * If you are calculating the stress with vdW-DF, please also cite:
     *
     *   R. Sabatini, E. Kucukbenli, B. Kolb, T. Thonhauser, and
     *   S. de Gironcoli, J. Phys.: Condens. Matter 24, 424209 (2012).
     *

     Carrying out vdW-DF run using the following parameters:

     Nqs =      20    Nr_points =    1024   r_max =   100.000
     q_mesh =
               0.00001000     0.04494208     0.09755937     0.15916263
               0.23128650     0.31572767     0.41458969     0.53033537
               0.66584808     0.82450364     1.01025438     1.22772762
               1.48234092     1.78043706     2.12944203     2.53805004
               3.01644009     3.57652955     4.23227104     5.00000000

     Gradients computed in reciprocal space

     Adding external electric field

     Computed dipole along edir(3) :
        Dipole                0.0000 Ry au,          0.0000 Debye
        Dipole field          0.0000 Ry au

        Potential amp.       -0.0000 Ry
        Total length         44.5906 bohr

[...]

     Starting wfc are  156 randomized atomic wfcs

     Self-consistent Calculation

     iteration #  1     ecut=    36.75 Ry     beta=0.10
     Davidson diagonalization with overlap
     ethr =  1.00E-02,  avg # of iterations =  6.0

[...]

     Magnetic moment per site:
     atom:    1    charge:    7.2609    magn:    0.8908    constr:    0.0000
     atom:    2    charge:    7.2609    magn:    0.8908    constr:    0.0000
     atom:    3    charge:    7.2609    magn:    0.8908    constr:    0.0000
     atom:    4    charge:    1.7043    magn:    0.2212    constr:    0.0000
     atom:    5    charge:    7.2652    magn:    0.8812    constr:    0.0000
     atom:    6    charge:    7.2652    magn:    0.8812    constr:    0.0000
[...]
        k(    3) = (   0.0000000   0.0748023   0.0000000), wk =   0.0555556
        k(    4) = (   0.0000000  -0.1122034   0.0000000), wk =   0.0277778
        k(    5) = (   0.0323903   0.0187006   0.0000000), wk =   0.0555556
        k(    6) = (   0.0323903   0.0561017   0.0000000), wk =   0.0555556
        k(    7) = (   0.0323903   0.0935029   0.0000000), wk =   0.0555556
        k(    8) = (   0.0323903  -0.0935029   0.0000000), wk =   0.0555556
        k(    9) = (   0.0323903  -0.0561017   0.0000000), wk =   0.0555556
        k(   10) = (   0.0323903  -0.0187006   0.0000000), wk =   0.0555556
        k(   11) = (   0.0647807   0.0374011   0.0000000), wk =   0.0555556
        k(   12) = (   0.0647807   0.0748023   0.0000000), wk =   0.0555556
        k(   13) = (   0.0647807   0.1122034   0.0000000), wk =   0.0555556
        k(   14) = (   0.0647807  -0.0748023   0.0000000), wk =   0.0555556
        k(   15) = (   0.0647807  -0.0374011   0.0000000), wk =   0.0555556
        k(   16) = (   0.0647807   0.0000000   0.0000000), wk =   0.0555556
        k(   17) = (  -0.0971710  -0.0561017   0.0000000), wk =   0.0277778
        k(   18) = (  -0.0971710  -0.0187006   0.0000000), wk =   0.0555556
        k(   19) = (  -0.0971710   0.0187006   0.0000000), wk =   0.0555556
        k(   20) = (  -0.0971710  -0.1683052   0.0000000), wk =   0.0277778
        k(   21) = (   0.0000000   0.0000000   0.0000000), wk =   0.0277778
        k(   22) = (   0.0000000   0.0374011   0.0000000), wk =   0.0555556
        k(   23) = (   0.0000000   0.0748023   0.0000000), wk =   0.0555556
        k(   24) = (   0.0000000  -0.1122034   0.0000000), wk =   0.0277778
        k(   25) = (   0.0323903   0.0187006   0.0000000), wk =   0.0555556
        k(   26) = (   0.0323903   0.0561017   0.0000000), wk =   0.0555556
        k(   27) = (   0.0323903   0.0935029   0.0000000), wk =   0.0555556
        k(   28) = (   0.0323903  -0.0935029   0.0000000), wk =   0.0555556
        k(   29) = (   0.0323903  -0.0561017   0.0000000), wk =   0.0555556
        k(   30) = (   0.0323903  -0.0187006   0.0000000), wk =   0.0555556
        k(   31) = (   0.0647807   0.0374011   0.0000000), wk =   0.0555556
        k(   32) = (   0.0647807   0.0748023   0.0000000), wk =   0.0555556
        k(   33) = (   0.0647807   0.1122034   0.0000000), wk =   0.0555556
        k(   34) = (   0.0647807  -0.0748023   0.0000000), wk =   0.0555556
        k(   35) = (   0.0647807  -0.0374011   0.0000000), wk =   0.0555556
        k(   36) = (   0.0647807   0.0000000   0.0000000), wk =   0.0555556
        k(   37) = (  -0.0971710  -0.0561017   0.0000000), wk =   0.0277778
        k(   38) = (  -0.0971710  -0.0187006   0.0000000), wk =   0.0555556
        k(   39) = (  -0.0971710   0.0187006   0.0000000), wk =   0.0555556
        k(   40) = (  -0.0971710  -0.1683052   0.0000000), wk =   0.0277778

     Largest allocated arrays     est. size (Mb)     dimensions
     Largest temporary arrays     est. size (Mb)     dimensions

     Check: negative/imaginary core charge=   -0.000006    0.000000

     Initial potential from superposition of free atoms
     Check: negative starting charge=(component1):   -0.111733
     Check: negative starting charge=(component2):   -0.083772

     starting charge  176.69893, renormalised to  186.00000

[...]

     *
     * You are using vdW-DF for exchange-correlation in this calculation.
     * Please cite the following three references that made this development
     * possible:
     *
     *   M. Dion, H. Rydberg, E. Schroder, D. C. Langreth, and
     *   B. I. Lundqvist, Phys. Rev. Lett. 92, 246401 (2004).
     *
     *   T. Thonhauser, V. R. Cooper, S. Li, A. Puzder, P. Hyldgaard, and
     *   D. C. Langreth, Phys. Rev. B 76, 125112 (2007).
     *
     *   G. Roman-Perez and J. M. Soler, Phys. Rev. Lett. 103, 096102 (2009).
     *
     *
     * If you are using vdW-DF2, please also cite:
     *
     *   K. Lee, E. D. Murray, L. Kong, B. I. Lundqvist, and
     *   D. C. Langreth, Phys. Rev. B 82, 081101(R) (2010).
     *
     *
     * If you are calculating the stress with vdW-DF, please also cite:
     *
     *   R. Sabatini, E. Kucukbenli, B. Kolb, T. Thonhauser, and
     *   S. de Gironcoli, J. Phys.: Condens. Matter 24, 424209 (2012).
     *

     Carrying out vdW-DF run using the following parameters:

     Nqs =      20    Nr_points =    1024   r_max =   100.000
     q_mesh =
               0.00001000     0.04494208     0.09755937     0.15916263
               0.23128650     0.31572767     0.41458969     0.53033537
               0.66584808     0.82450364     1.01025438     1.22772762
               1.48234092     1.78043706     2.12944203     2.53805004
               3.01644009     3.57652955     4.23227104     5.00000000

     Gradients computed in reciprocal space

[...]

     Starting wfc are  156 randomized atomic wfcs

     Self-consistent Calculation

[...]

     total energy              =   -2743.15315941 Ry
     Harris-Foulkes estimate   =   -2743.15315870 Ry
     estimated scf accuracy    <       0.00000157 Ry

[...]

     iteration # 35     ecut=    36.75 Ry     beta=0.10
     Davidson diagonalization with overlap
     ethr =  8.41E-10,  avg # of iterations =  1.8

[...]

     negative rho (up, down):  9.816E-02 1.035E-01

[...]

     Adding external electric field

     Computed dipole along edir(3) :
        Dipole                0.0046 Ry au,          0.0118 Debye
        Dipole field          0.0000 Ry au

        Potential amp.       -0.0014 Ry
        Total length         44.5906 bohr

     Magnetic moment per site:
     atom:    1    charge:    7.0867    magn:    0.9672    constr:    0.0000
     atom:    2    charge:    7.0867    magn:    0.9672    constr:    0.0000
     atom:    3    charge:    7.0867    magn:    0.9672    constr:    0.0000
     atom:    4    charge:    1.6465    magn:   -0.0311    constr:    0.0000
     atom:    5    charge:    7.0796    magn:    0.6217    constr:    0.0000
     atom:    6    charge:    7.0798    magn:    0.6216    constr:    0.0000
     atom:    7    charge:    7.0796    magn:    0.6217    constr:    0.0000
     atom:    8    charge:    1.6508    magn:   -0.0255    constr:    0.0000
     atom:    9    charge:    7.0794    magn:    0.9947    constr:    0.0000
     atom:   10    charge:    7.0792    magn:    0.9948    constr:    0.0000
     atom:   11    charge:    7.0793    magn:    0.9947    constr:    0.0000
     atom:   12    charge:    1.6475    magn:   -0.0298    constr:    0.0000

     End of self-consistent calculation

 ------ SPIN UP ------------

[...]

 ------ SPIN DOWN ----------

[...]

          k = 0.0648 0.0000 0.0000 ( 14087 PWs)   bands (ev):

[...]

          k =-0.0972-0.1683 0.0000 ( 14098 PWs)   bands (ev):

   -84.6981 -84.6883 -84.6776 -84.1808 -84.1706 -84.1604 -84.1421 -84.1308
   -84.1211 -73.2099 -73.1889 -73.1340 -50.9527 -50.8966 -50.8589 -50.8034
   -50.7772 -50.7424 -50.6797 -50.6502 -50.5993 -50.4222 -50.3868 -50.3853
   -50.3600 -50.3481 -50.3205 -50.2663 -50.2311 -50.2226 -50.1975 -50.1892
   -50.1811 -50.1612 -50.1559 -50.1516 -50.1247 -50.0957 -50.0623 -37.4380
   -37.3986 -37.3878 -37.3679 -37.3504 -37.3127 -37.3038 -37.2773 -37.2681
    -4.8405  -4.4478  -3.3103  -2.7000  -2.6111  -2.5066  -2.1598  -1.8891
    -1.7638  -1.6092  -1.4216  -1.2235  -1.1421  -0.9829  -0.9525  -0.7326
    -0.6684  -0.5798  -0.3674  -0.2328  -0.1844   0.0221   0.0357   0.3092
     0.3336   0.4498   0.4734   0.5689   0.7498   0.7644   0.8058   0.8151
     0.9675   1.0052   1.1515   1.1609   1.2236   1.2716   1.2790   1.5390
     1.7596   1.7820   1.9030   1.9386   2.0648   2.1835   2.2561   2.2882
     2.5034   2.5366   2.5757   2.5876   2.7095   2.8550   2.8942   2.9860
     3.0952   3.1863   3.3685   3.4339   3.4515   3.8162   3.9503   4.2962
     4.4656   4.7372   4.7919   5.7665   6.3781   6.4261   6.7970   6.8443
     7.6489   7.7153   7.8598

     the Fermi energy is     1.5109 ev

!    total energy              =   -2743.15316051 Ry
     Harris-Foulkes estimate   =   -2743.15315969 Ry
     estimated scf accuracy    <       0.00000084 Ry

     The total energy is the sum of the following terms:

     one-electron contribution =  -23836.68778639 Ry
     hartree contribution      =   11914.51461149 Ry
     xc contribution           =    -400.02929256 Ry
     ewald contribution        =    9579.13639065 Ry
     electric field correction =       0.00000007 Ry
     smearing contrib. (-TS)   =      -0.08708377 Ry

     total magnetization       =    13.32 Bohr mag/cell
     absolute magnetization    =    19.45 Bohr mag/cell

     convergence has been achieved in  35 iterations

 BEEF-vdW xc energy contributions
           1 :   -350.772276908795
           2 :    319.974030802541
           3 :   -267.433536694438
           4 :    207.219213659654
           5 :   -152.700429977915
           6 :    111.942976199509
           7 :   -86.1329312146477
           8 :    71.1576894340451
           9 :   -61.0043736122142
          10 :    51.0188745943133
          11 :   -39.5788099257232
          12 :    27.7823390991566
          13 :   -17.8359211221227
          14 :    11.2953741444103
          15 :   -8.15232429646892
          16 :    7.06267774649695
          17 :   -6.32948912137965
          18 :    4.88658939752742
          19 :   -2.70716869462564
          20 :   0.507958879013131
          21 :   0.918395560119791
          22 :   -1.27054290826908
          23 :   0.874472109761030
          24 :  -0.397077926583393
          25 :   0.387215310223155
          26 :  -0.967901640193475
          27 :    1.84128364063861
          28 :   -2.55687219817429
          29 :    2.82442643670606
          30 :   -2.67234707021129
          31 :   -31.2890169073923
          32 :   -22.6093710934807

     Forces acting on atoms (Ry/au):

     negative rho (up, down):  9.816E-02 1.035E-01
     atom    1 type  1   force =     0.00004421   -0.00752262   -0.00583873
     atom    2 type  1   force =    -0.00653213    0.00376710   -0.00579813
     atom    3 type  1   force =     0.00654032    0.00372068   -0.00583560
     atom    4 type  2   force =     0.00003205   -0.00001784    0.02470877
     atom    5 type  1   force =    -0.00001912   -0.00558800   -0.00663902
     atom    6 type  1   force =    -0.00483795    0.00278562   -0.00665908
     atom    7 type  1   force =     0.00484213    0.00281000   -0.00662917
     atom    8 type  2   force =    -0.00001244    0.00000316    0.00995331
     atom    9 type  1   force =    -0.00003806   -0.00047701    0.00061369
     atom   10 type  1   force =    -0.00042080    0.00021972    0.00058962
     atom   11 type  1   force =     0.00042100    0.00026376    0.00062398
     atom   12 type  2   force =    -0.00001921    0.00003542    0.00091037

     Total force =     0.034788     Total SCF correction =     0.003166

     entering subroutine stress ...

     negative rho (up, down):  9.816E-02 1.035E-01
          total   stress  (Ry/bohr**3)                   (kbar)     P=  -14.97
  -0.00013364   0.00000000  -0.00000003        -19.66      0.00     -0.00
   0.00000000  -0.00013362   0.00000001          0.00    -19.66      0.00
  -0.00000003   0.00000001  -0.00003808         -0.00      0.00     -5.60

 !ASE

     Writing output data file calc.save

     General routines

     Parallel routines

   This run was terminated on:   3:17: 3  26Dec2018

   JOB DONE.
Job  /afs/slac/g/suncat/bin/suncat-tsmpirun -x LD_LIBRARY_PATH -wdir /scratch/qe109653_EXMIP pw.x -in pw.inp

TID   HOST_NAME   COMMAND_LINE            STATUS            TERMINATION_TIME
00000 suncat0048 pw.x -in pw.inp   Done                     12/26/2018 03:17:03
00001 suncat0048 pw.x -in pw.inp   Done                     12/26/2018 03:17:03
00002 suncat0048 pw.x -in pw.inp   Done                     12/26/2018 03:17:03
00003 suncat0048 pw.x -in pw.inp   Done                     12/26/2018 03:17:03
00004 suncat0048 pw.x -in pw.inp   Done                     12/26/2018 03:17:03
00005 suncat0048 pw.x -in pw.inp   Done                     12/26/2018 03:17:03
00006 suncat0048 pw.x -in pw.inp   Done                     12/26/2018 03:17:03
00007 suncat0048 pw.x -in pw.inp   Done                     12/26/2018 03:17:03
00008 suncat0047 pw.x -in pw.inp   Done                     12/26/2018 03:17:03
00009 suncat0047 pw.x -in pw.inp   Done                     12/26/2018 03:17:03
00010 suncat0047 pw.x -in pw.inp   Done                     12/26/2018 03:17:03
00011 suncat0047 pw.x -in pw.inp   Done                     12/26/2018 03:17:03
00012 suncat0047 pw.x -in pw.inp   Done                     12/26/2018 03:17:03
00013 suncat0047 pw.x -in pw.inp   Done                     12/26/2018 03:17:03
00014 suncat0047 pw.x -in pw.inp   Done                     12/26/2018 03:17:03
00015 suncat0047 pw.x -in pw.inp   Done                     12/26/2018 03:17:03
00016 suncat0193 pw.x -in pw.inp   Done                     12/26/2018 03:17:03
00017 suncat0193 pw.x -in pw.inp   Done                     12/26/2018 03:17:03
00018 suncat0193 pw.x -in pw.inp   Done                     12/26/2018 03:17:03
00019 suncat0193 pw.x -in pw.inp   Done                     12/26/2018 03:17:03
00020 suncat0193 pw.x -in pw.inp   Done                     12/26/2018 03:17:03
00021 suncat0193 pw.x -in pw.inp   Done                     12/26/2018 03:17:03
00022 suncat0193 pw.x -in pw.inp   Done                     12/26/2018 03:17:03
00023 suncat0193 pw.x -in pw.inp   Done                     12/26/2018 03:17:03
00024 suncat0192 pw.x -in pw.inp   Done                     12/26/2018 03:17:03
00025 suncat0192 pw.x -in pw.inp   Done                     12/26/2018 03:17:03
00026 suncat0192 pw.x -in pw.inp   Done                     12/26/2018 03:17:03
00027 suncat0192 pw.x -in pw.inp   Done                     12/26/2018 03:17:03
00028 suncat0192 pw.x -in pw.inp   Done                     12/26/2018 03:17:03
00029 suncat0192 pw.x -in pw.inp   Done                     12/26/2018 03:17:03
00030 suncat0192 pw.x -in pw.inp   Done                     12/26/2018 03:17:03
00031 suncat0192 pw.x -in pw.inp   Done                     12/26/2018 03:17:03
00032 suncat0155 pw.x -in pw.inp   Done                     12/26/2018 03:17:03
00033 suncat0155 pw.x -in pw.inp   Done                     12/26/2018 03:17:03
00034 suncat0155 pw.x -in pw.inp   Done                     12/26/2018 03:17:03
00035 suncat0155 pw.x -in pw.inp   Done                     12/26/2018 03:17:03
00036 suncat0155 pw.x -in pw.inp   Done                     12/26/2018 03:17:03
00037 suncat0155 pw.x -in pw.inp   Done                     12/26/2018 03:17:03
00038 suncat0155 pw.x -in pw.inp   Done                     12/26/2018 03:17:03
00039 suncat0155 pw.x -in pw.inp   Done                     12/26/2018 03:17:03
00040 suncat0154 pw.x -in pw.inp   Done                     12/26/2018 03:17:03
00041 suncat0154 pw.x -in pw.inp   Done                     12/26/2018 03:17:03
00042 suncat0154 pw.x -in pw.inp   Done                     12/26/2018 03:17:03
00043 suncat0154 pw.x -in pw.inp   Done                     12/26/2018 03:17:03
00044 suncat0154 pw.x -in pw.inp   Done                     12/26/2018 03:17:03
00045 suncat0154 pw.x -in pw.inp   Done                     12/26/2018 03:17:03
00046 suncat0154 pw.x -in pw.inp   Done                     12/26/2018 03:17:03
00047 suncat0154 pw.x -in pw.inp   Done                     12/26/2018 03:17:03
00048 suncat0209 pw.x -in pw.inp   Done                     12/26/2018 03:17:03
00049 suncat0209 pw.x -in pw.inp   Done                     12/26/2018 03:17:03
00050 suncat0209 pw.x -in pw.inp   Done                     12/26/2018 03:17:03
00051 suncat0209 pw.x -in pw.inp   Done                     12/26/2018 03:17:03
00052 suncat0209 pw.x -in pw.inp   Done                     12/26/2018 03:17:03
00053 suncat0209 pw.x -in pw.inp   Done                     12/26/2018 03:17:03
00054 suncat0209 pw.x -in pw.inp   Done                     12/26/2018 03:17:03
00055 suncat0209 pw.x -in pw.inp   Done                     12/26/2018 03:17:03
00056 suncat0203 pw.x -in pw.inp   Done                     12/26/2018 03:17:03
00057 suncat0203 pw.x -in pw.inp   Done                     12/26/2018 03:17:03
00058 suncat0203 pw.x -in pw.inp   Done                     12/26/2018 03:17:03
00059 suncat0203 pw.x -in pw.inp   Done                     12/26/2018 03:17:03
00060 suncat0203 pw.x -in pw.inp   Done                     12/26/2018 03:17:03
00061 suncat0203 pw.x -in pw.inp   Done                     12/26/2018 03:17:03
00062 suncat0203 pw.x -in pw.inp   Done                     12/26/2018 03:17:03
00063 suncat0203 pw.x -in pw.inp   Done                     12/26/2018 03:17:03