     Program PWSCF v.5.1rc2 (svn rev. 11289) starts on  2Jan2019 at  6:49:52

     Current dimensions of program PWSCF are:
     Max number of different atomic species (ntypx) = 10
     Max number of k-points (npk) =  40000
     Max angular momentum in pseudopotentials (lmaxx) =  3
     Presently stress not available with electric field

     IMPORTANT: XC functional enforced from input :
     Exchange-correlation      = BEEF-VDW ( 1  4 27 13 2)
     Any further DFT definition will be discarded
     Please, verify this is what you really want

     Subspace diagonalization in iterative solution of the eigenvalue problem:
     a serial algorithm will be used

     bravais-lattice index     =            0
     lattice parameter (alat)  =       1.8897  a.u.
     unit-cell volume          =    4665.2875 (a.u.)^3
     number of atoms/cell      =           12
     number of atomic types    =            2
     number of electrons       =       183.00
     number of Kohn-Sham states=          121
     kinetic-energy cutoff     =      36.7493  Ry
     charge density cutoff     =     367.4932  Ry
     convergence threshold     =      1.0E-06
     mixing beta               =       0.1000
     number of iterations used =           10  plain     mixing
     Exchange-correlation      = BEEF-VDW ( 1  4 27 13 2)
     nstep                     =           50

     celldm(1)=   1.889726  celldm(2)=   0.000000  celldm(3)=   0.000000
     celldm(4)=   0.000000  celldm(5)=   0.000000  celldm(6)=   0.000000

     crystal axes: (cart. coord. in units of alat)
               a(1) = (   5.691093   0.000000   0.000000 )
               a(2) = (  -2.845547   4.928631   0.000000 )
               a(3) = (   0.000000   0.000000  24.646758 )

     reciprocal axes: (cart. coord. in units 2 pi/alat)
               b(1) = (  0.175713  0.101448  0.000000 )
               b(2) = (  0.000000  0.202896  0.000000 )
               b(3) = (  0.000000  0.000000  0.040573 )

     PseudoPot. # 1 for W  read from file:
     /afs/slac.stanford.edu/u/if/mamunm/psp/gbrv1.5pbe/W.UPF
     MD5 check sum: 9c083fa34c2a2ea0f02f1f893e16e1c8
     Pseudo is Ultrasoft + core correction, Zval = 14.0
     Generated by new atomic code, or converted to UPF format
     Using radial grid of  923 points,  8 beta functions with:
                l(1) =   0
                l(2) =   0
                l(3) =   0
                l(4) =   1
                l(5) =   1
                l(6) =   2
                l(7) =   2
                l(8) =   3
     Q(r) pseudized with  6 coefficients,  rinner =    1.350   1.350   1.350
                                                       1.350   1.350   1.350
                                                       1.350

     PseudoPot. # 2 for Ag read from file:
     /afs/slac.stanford.edu/u/if/mamunm/psp/gbrv1.5pbe/Ag.UPF
     MD5 check sum: d66d668201baa78d5eb5b04ef7011058
     Pseudo is Ultrasoft + core correction, Zval = 19.0
     Generated by new atomic code, or converted to UPF format
     Using radial grid of  887 points,  6 beta functions with:
                l(1) =   0
                l(2) =   0
                l(3) =   1
                l(4) =   1
                l(5) =   2
                l(6) =   2
     Q(r) pseudized with  6 coefficients,  rinner =    1.300   1.300   1.300
                                                       1.300   1.300

     vdW kernel table read from file vdW_kernel_table
     MD5 check sum: 095c7af220d748ca6e76c0b4c6cfb241

     atomic species   valence    mass     pseudopotential
        W1            14.00   183.84000     W ( 1.00)
        Ag1           19.00   107.86820     Ag( 1.00)

     No symmetry found

   Cartesian axes

     site n.     atom                  positions (alat units)
         1           W1  tau(   1) = (   0.0000000   0.0000000  10.0000000  )
         2           W1  tau(   2) = (  -1.4227733   2.4643156  10.0000000  )
         3           W1  tau(   3) = (   1.4227733   2.4643156  10.0000000  )
         4           Ag1 tau(   4) = (   2.8455465   0.0000000  10.0000000  )
         5           W1  tau(   5) = (   2.8455465   1.6428771  12.3233790  )
         6           W1  tau(   6) = (   1.4227733   4.1071927  12.3233790  )
         7           W1  tau(   7) = (  -1.4227733   4.1071927  12.3233790  )
         8           Ag1 tau(   8) = (   0.0000000   1.6428771  12.3233790  )
         9           W1  tau(   9) = (  -0.0000000   3.2857541  14.6467580  )
        10           W1  tau(  10) = (   1.4227733   0.8214385  14.6467580  )
        11           W1  tau(  11) = (   4.2683198   0.8214385  14.6467580  )
        12           Ag1 tau(  12) = (   2.8455465   3.2857541  14.6467580  )

     number of k points=    20  Fermi-Dirac smearing, width (Ry)=  0.0110
                       cart. coord. in units 2pi/alat
        k(    1) = (   0.0000000   0.0000000   0.0000000), wk =   0.0555556
        k(    2) = (   0.0000000   0.0338160   0.0000000), wk =   0.1111111
        k(    3) = (   0.0000000   0.0676320   0.0000000), wk =   0.1111111
        k(    4) = (   0.0000000  -0.1014480   0.0000000), wk =   0.0555556
        k(    5) = (   0.0292855   0.0169080   0.0000000), wk =   0.1111111
        k(    6) = (   0.0292855   0.0507240   0.0000000), wk =   0.1111111
        k(    7) = (   0.0292855   0.0845400   0.0000000), wk =   0.1111111
        k(    8) = (   0.0292855  -0.0845400   0.0000000), wk =   0.1111111
        k(    9) = (   0.0292855  -0.0507240   0.0000000), wk =   0.1111111
        k(   10) = (   0.0292855  -0.0169080   0.0000000), wk =   0.1111111
        k(   11) = (   0.0585711   0.0338160   0.0000000), wk =   0.1111111
        k(   12) = (   0.0585711   0.0676320   0.0000000), wk =   0.1111111
        k(   13) = (   0.0585711   0.1014480   0.0000000), wk =   0.1111111
        k(   14) = (   0.0585711  -0.0676320   0.0000000), wk =   0.1111111
        k(   15) = (   0.0585711  -0.0338160   0.0000000), wk =   0.1111111
        k(   16) = (   0.0585711   0.0000000   0.0000000), wk =   0.1111111
        k(   17) = (  -0.0878566  -0.0507240   0.0000000), wk =   0.0555556
        k(   18) = (  -0.0878566  -0.0169080   0.0000000), wk =   0.1111111
        k(   19) = (  -0.0878566   0.0169080   0.0000000), wk =   0.1111111
        k(   20) = (  -0.0878566  -0.1521721   0.0000000), wk =   0.0555556

     Largest allocated arrays     est. size (Mb)     dimensions
     Largest temporary arrays     est. size (Mb)     dimensions

     Initial potential from superposition of free atoms
     Check: negative starting charge=   -0.573590

     starting charge  180.59680, renormalised to  183.00000

     negative rho (up, down):  5.812E-01 0.000E+00

     *
     * You are using vdW-DF for exchange-correlation in this calculation.
     * Please cite the following three references that made this development
     * possible:
     *
     *   M. Dion, H. Rydberg, E. Schroder, D. C. Langreth, and
     *   B. I. Lundqvist, Phys. Rev. Lett. 92, 246401 (2004).
     *
     *   T. Thonhauser, V. R. Cooper, S. Li, A. Puzder, P. Hyldgaard, and
     *   D. C. Langreth, Phys. Rev. B 76, 125112 (2007).
     *
     *   G. Roman-Perez and J. M. Soler, Phys. Rev. Lett. 103, 096102 (2009).
     *
     *
     * If you are using vdW-DF2, please also cite:
     *
     *   K. Lee, E. D. Murray, L. Kong, B. I. Lundqvist, and
     *   D. C. Langreth, Phys. Rev. B 82, 081101(R) (2010).
     *
     *
     * If you are calculating the stress with vdW-DF, please also cite:
     *
     *   R. Sabatini, E. Kucukbenli, B. Kolb, T. Thonhauser, and
     *   S. de Gironcoli, J. Phys.: Condens. Matter 24, 424209 (2012).
     *

     Carrying out vdW-DF run using the following parameters:

     Nqs =      20    Nr_points =    1024   r_max =   100.000
     q_mesh =
               0.00001000     0.04494208     0.09755937     0.15916263
               0.23128650     0.31572767     0.41458969     0.53033537
               0.66584808     0.82450364     1.01025438     1.22772762
               1.48234092     1.78043706     2.12944203     2.53805004
               3.01644009     3.57652955     4.23227104     5.00000000

     Gradients computed in reciprocal space

     Adding external electric field

     Computed dipole along edir(3) :
        Dipole                0.0000 Ry au,          0.0000 Debye
        Dipole field          0.0000 Ry au

        Potential amp.       -0.0000 Ry
        Total length         45.4112 bohr

     Starting wfc are  156 randomized atomic wfcs

     Self-consistent Calculation

     iteration #  1     ecut=    36.75 Ry     beta=0.10
     Davidson diagonalization with overlap
     ethr =  1.00E-02,  avg # of iterations =  2.1

[...]

     total energy              =   -2332.92023714 Ry
     Harris-Foulkes estimate   =   -2334.27067513 Ry
     estimated scf accuracy    <       7.85644677 Ry

[...]

     End of self-consistent calculation

          k = 0.0000 0.0000 0.0000 ( 17603 PWs)   bands (ev):

   -90.8033 -90.5476 -90.5468 -72.1949 -72.1578 -72.1414 -72.1317 -72.1317
   -72.1062 -72.1061 -72.1005 -72.1004 -54.2820 -54.2820 -54.2568 -54.0424
   -54.0424 -54.0417 -54.0417 -53.9592 -53.9583 -36.7348 -36.5732 -36.5421
   -36.5314 -36.5313 -36.5008 -36.4895 -36.4895 -36.3826 -36.3826 -36.3108
   -36.2218 -36.2218 -36.2076 -36.2076 -36.1256 -36.0222 -36.0034 -36.0033
   -35.9937 -35.9431 -35.8846 -35.8846 -35.7848 -35.7848 -35.7796 -35.7796
    -5.9840  -4.4205  -4.2393  -4.1959  -4.1959  -4.0423  -4.0423  -3.6415
    -3.6415  -3.6383  -3.6383  -3.6231  -2.9462  -2.9462  -2.9453  -2.8559
    -2.8559  -2.7263  -2.7197  -1.6551  -1.4053  -0.5161  -0.5161  -0.4844
    -0.4505  -0.0315  -0.0315   0.1487   0.1487   0.5854   0.5855   0.9506
     0.9796   0.9796   1.1597   1.1597   1.4418   1.7822   1.7822   1.9319
     2.2434   2.5738   2.6162   2.6162   2.8252   3.5987   3.5987   3.7605
     3.8124   4.0635   4.0635   4.3675   4.3675   4.5114   4.5114   4.6766
     4.6766   4.8704   4.8704   5.2685   5.2685   5.4158   5.5432   5.5433
     5.9049   5.9660   6.2343   6.2343   6.5600   6.6940   7.0350   7.2657
     7.4332

[...]

          k =-0.0879-0.0507 0.0000 ( 17540 PWs)   bands (ev):

[...]

     the Fermi energy is     2.1675 ev

!    total energy              =   -2333.17686914 Ry
     Harris-Foulkes estimate   =   -2333.17686982 Ry
     estimated scf accuracy    <       0.00000031 Ry

     The total energy is the sum of the following terms:

     one-electron contribution =  -17806.90541896 Ry
     hartree contribution      =    8886.91718890 Ry
     xc contribution           =    -472.62690767 Ry
     ewald contribution        =    7059.52053673 Ry
     electric field correction =       0.00000000 Ry
     smearing contrib. (-TS)   =      -0.08226814 Ry

     convergence has been achieved in  15 iterations

 BEEF-vdW xc energy contributions
           1 :   -414.638280337480
           2 :    382.440766859113
           3 :   -326.128978938603
           4 :    258.742343656620
           5 :   -193.686798993967
           6 :    140.627986051347
           7 :   -103.341331328082
           8 :    80.0407947889781
           9 :   -65.6517155442340
[...]
     Generated by new atomic code, or converted to UPF format
     Using radial grid of  923 points,  8 beta functions with:
                l(1) =   0
                l(2) =   0
                l(3) =   0
                l(4) =   1
                l(5) =   1
                l(6) =   2
                l(7) =   2
                l(8) =   3
     Q(r) pseudized with  6 coefficients,  rinner =    1.350   1.350   1.350
                                                       1.350   1.350   1.350
                                                       1.350

     PseudoPot. # 2 for Ag read from file:
     /afs/slac.stanford.edu/u/if/mamunm/psp/gbrv1.5pbe/Ag.UPF
     MD5 check sum: d66d668201baa78d5eb5b04ef7011058
     Pseudo is Ultrasoft + core correction, Zval = 19.0
     Generated by new atomic code, or converted to UPF format
     Using radial grid of  887 points,  6 beta functions with:
                l(1) =   0
                l(2) =   0
                l(3) =   1
                l(4) =   1
                l(5) =   2
                l(6) =   2
     Q(r) pseudized with  6 coefficients,  rinner =    1.300   1.300   1.300
                                                       1.300   1.300

     vdW kernel table read from file vdW_kernel_table
     MD5 check sum: 095c7af220d748ca6e76c0b4c6cfb241

     atomic species   valence    mass     pseudopotential
        W1            14.00   183.84000     W ( 1.00)
        Ag1           19.00   107.86820     Ag( 1.00)

     No symmetry found

   Cartesian axes

     site n.     atom                  positions (alat units)
         1           W1  tau(   1) = (   0.0000000   0.0000000  10.0000000  )
         2           W1  tau(   2) = (  -1.4227733   2.4643156  10.0000000  )
         3           W1  tau(   3) = (   1.4227733   2.4643156  10.0000000  )
         4           Ag1 tau(   4) = (   2.8455465   0.0000000  10.0000000  )
         5           W1  tau(   5) = (   2.8455465   1.6428771  12.3233790  )
         6           W1  tau(   6) = (   1.4227733   4.1071927  12.3233790  )
         7           W1  tau(   7) = (  -1.4227733   4.1071927  12.3233790  )
         8           Ag1 tau(   8) = (   0.0000000   1.6428771  12.3233790  )
         9           W1  tau(   9) = (  -0.0000023   3.3713736  14.5252252  )
        10           W1  tau(  10) = (   1.4969197   0.7786317  14.5252232  )
        11           W1  tau(  11) = (   4.1941710   0.7786343  14.5252238  )
        12           Ag1 tau(  12) = (   2.8455444   3.2857627  14.9734514  )

     number of k points=    20  Fermi-Dirac smearing, width (Ry)=  0.0110
                       cart. coord. in units 2pi/alat
        k(    1) = (   0.0000000   0.0000000   0.0000000), wk =   0.0555556
        k(    2) = (   0.0000000   0.0338160   0.0000000), wk =   0.1111111
        k(    3) = (   0.0000000   0.0676320   0.0000000), wk =   0.1111111
        k(    4) = (   0.0000000  -0.1014480   0.0000000), wk =   0.0555556
        k(    5) = (   0.0292855   0.0169080   0.0000000), wk =   0.1111111
        k(    6) = (   0.0292855   0.0507240   0.0000000), wk =   0.1111111
        k(    7) = (   0.0292855   0.0845400   0.0000000), wk =   0.1111111
        k(    8) = (   0.0292855  -0.0845400   0.0000000), wk =   0.1111111
        k(    9) = (   0.0292855  -0.0507240   0.0000000), wk =   0.1111111
        k(   10) = (   0.0292855  -0.0169080   0.0000000), wk =   0.1111111
        k(   11) = (   0.0585711   0.0338160   0.0000000), wk =   0.1111111
        k(   12) = (   0.0585711   0.0676320   0.0000000), wk =   0.1111111
        k(   13) = (   0.0585711   0.1014480   0.0000000), wk =   0.1111111
        k(   14) = (   0.0585711  -0.0676320   0.0000000), wk =   0.1111111
        k(   15) = (   0.0585711  -0.0338160   0.0000000), wk =   0.1111111
        k(   16) = (   0.0585711   0.0000000   0.0000000), wk =   0.1111111
        k(   17) = (  -0.0878566  -0.0507240   0.0000000), wk =   0.0555556
        k(   18) = (  -0.0878566  -0.0169080   0.0000000), wk =   0.1111111
        k(   19) = (  -0.0878566   0.0169080   0.0000000), wk =   0.1111111
        k(   20) = (  -0.0878566  -0.1521721   0.0000000), wk =   0.0555556

     Largest allocated arrays     est. size (Mb)     dimensions
     Largest temporary arrays     est. size (Mb)     dimensions

     Initial potential from superposition of free atoms
     Check: negative starting charge=   -0.572039

     starting charge  180.59680, renormalised to  183.00000

[...]

     *
     * You are using vdW-DF for exchange-correlation in this calculation.
     * Please cite the following three references that made this development
     * possible:
     *
     *   M. Dion, H. Rydberg, E. Schroder, D. C. Langreth, and
     *   B. I. Lundqvist, Phys. Rev. Lett. 92, 246401 (2004).
     *
     *   T. Thonhauser, V. R. Cooper, S. Li, A. Puzder, P. Hyldgaard, and
     *   D. C. Langreth, Phys. Rev. B 76, 125112 (2007).
     *
     *   G. Roman-Perez and J. M. Soler, Phys. Rev. Lett. 103, 096102 (2009).
     *
     *
     * If you are using vdW-DF2, please also cite:
     *
     *   K. Lee, E. D. Murray, L. Kong, B. I. Lundqvist, and
     *   D. C. Langreth, Phys. Rev. B 82, 081101(R) (2010).
     *
     *
     * If you are calculating the stress with vdW-DF, please also cite:
     *
     *   R. Sabatini, E. Kucukbenli, B. Kolb, T. Thonhauser, and
     *   S. de Gironcoli, J. Phys.: Condens. Matter 24, 424209 (2012).
     *

     Carrying out vdW-DF run using the following parameters:

     Nqs =      20    Nr_points =    1024   r_max =   100.000
     q_mesh =
               0.00001000     0.04494208     0.09755937     0.15916263
               0.23128650     0.31572767     0.41458969     0.53033537
               0.66584808     0.82450364     1.01025438     1.22772762
               1.48234092     1.78043706     2.12944203     2.53805004
               3.01644009     3.57652955     4.23227104     5.00000000

     Gradients computed in reciprocal space

[...]

     Starting wfc are  156 randomized atomic wfcs

     Self-consistent Calculation

[...]

     total energy              =   -2333.21558935 Ry
     Harris-Foulkes estimate   =   -2333.21558922 Ry
     estimated scf accuracy    <       0.00000132 Ry

     iteration # 16     ecut=    36.75 Ry     beta=0.10
     Davidson diagonalization with overlap
     ethr =  7.22E-10,  avg # of iterations =  2.2

[...]

     negative rho (up, down):  5.933E-01 0.000E+00

     Adding external electric field

     Computed dipole along edir(3) :
        Dipole               -0.0105 Ry au,         -0.0267 Debye
        Dipole field         -0.0000 Ry au

        Potential amp.        0.0026 Ry
        Total length         45.4112 bohr

     End of self-consistent calculation

[...]

          k = 0.0586 0.0000 0.0000 ( 17573 PWs)   bands (ev):

[...]

          k =-0.0879-0.1522 0.0000 ( 17540 PWs)   bands (ev):

   -90.8658 -90.5824 -90.1195 -72.1816 -72.1681 -72.1469 -72.1430 -72.1342
   -72.1169 -72.0335 -71.9983 -71.9868 -54.3443 -54.3438 -54.3258 -54.0770
   -54.0766 -53.9938 -53.6421 -53.6417 -53.4834 -36.6699 -36.6009 -36.5350
   -36.4809 -36.4439 -36.3991 -36.3977 -36.3569 -36.3411 -36.2885 -36.2628
   -36.2447 -36.2355 -36.2117 -36.1938 -36.1577 -36.1305 -36.0452 -36.0434
   -35.9784 -35.9117 -35.9109 -35.8924 -35.8659 -35.8620 -35.8369 -35.7119
    -4.3567  -4.2699  -3.7890  -3.7410  -3.6959  -3.5157  -3.4866  -3.2816
    -3.2426  -3.0757  -2.9975  -2.9951  -2.7873  -2.6494  -2.5826  -2.4804
    -2.4785  -2.2560  -1.9933  -1.7504  -1.5727  -1.2362  -1.2134  -0.5975
    -0.5603  -0.3029  -0.0092   0.0252   0.1439   0.1826   0.2295   0.5279
     0.7375   0.7573   0.8958   0.8964   1.0039   1.1476   1.1735   1.4099
     1.5598   1.7006   1.8580   2.0400   2.1203   2.3444   2.3490   2.4379
     2.9970   3.2975   3.4223   3.6861   3.7548   3.9214   3.9419   4.0009
     4.0424   4.2377   4.3854   4.5332   4.8967   4.9197   5.3683   5.5002
     5.5532   5.7402   6.2793   6.7541   6.8163   7.5922   7.8903   8.0721
     8.1445

     the Fermi energy is     2.1334 ev

!    total energy              =   -2333.21558913 Ry
     Harris-Foulkes estimate   =   -2333.21558962 Ry
     estimated scf accuracy    <       0.00000054 Ry

     The total energy is the sum of the following terms:

     one-electron contribution =  -17749.68964614 Ry
     hartree contribution      =    8858.58884398 Ry
     xc contribution           =    -472.83371495 Ry
     ewald contribution        =    7030.79910811 Ry
     electric field correction =       0.00000030 Ry
     smearing contrib. (-TS)   =      -0.08018044 Ry

     convergence has been achieved in  16 iterations

 BEEF-vdW xc energy contributions
           1 :   -415.021274886199
           2 :    382.829448754217
           3 :   -326.528976864885
           4 :    259.146543998300
           5 :   -194.060627954363
           6 :    140.912147542828
           7 :   -103.478544221090
           8 :    80.0127517028555
           9 :   -65.5024140396857
          10 :    54.5779870104566
          11 :   -43.7453914361882
          12 :    32.1637455753800
          13 :   -21.0056748450436
          14 :    12.0653679723126
          15 :   -6.46920023047579
          16 :    4.08047567713282
          17 :   -3.71517045169799
          18 :    3.86397517021709
          19 :   -3.44591469590512
          20 :    2.20407914464778
          21 :  -0.610091398136262
          22 :  -0.586719377456063
          23 :   0.868592750381083
          24 :  -0.240501677192412
          25 :  -0.817595801256005
          26 :    1.66004435478436
          27 :   -1.84398968681739
          28 :    1.34771562542045
          29 :  -0.535925000858867
          30 :  -8.308862424451036E-002
          31 :   -38.2194714699598
          32 :   -28.5220631697235

     Forces acting on atoms (Ry/au):

     negative rho (up, down):  5.933E-01 0.000E+00
     atom    1 type  1   force =     0.00000044   -0.01905190    0.03108137
     atom    2 type  1   force =    -0.01649992    0.00952572    0.03108221
     atom    3 type  1   force =     0.01649962    0.00952518    0.03108137
     atom    4 type  2   force =     0.00000027   -0.00000082   -0.04264074
     atom    5 type  1   force =     0.00000100    0.01902085   -0.01017073
     atom    6 type  1   force =     0.01647281   -0.00950918   -0.01017023
     atom    7 type  1   force =    -0.01647312   -0.00951056   -0.01017193
     atom    8 type  2   force =     0.00000071    0.00000099   -0.01984456
     atom    9 type  1   force =    -0.00000052    0.00045450   -0.00032052
     atom   10 type  1   force =     0.00039434   -0.00022682   -0.00032110
     atom   11 type  1   force =    -0.00039507   -0.00022665   -0.00032080
     atom   12 type  2   force =    -0.00000055   -0.00000132    0.00071565

     Total force =     0.087157     Total SCF correction =     0.002086

     entering subroutine stress ...

     negative rho (up, down):  5.933E-01 0.000E+00
          total   stress  (Ry/bohr**3)                   (kbar)     P=  -27.78
  -0.00022599  -0.00000000   0.00000000        -33.24     -0.00      0.00
  -0.00000000  -0.00022599  -0.00000000         -0.00    -33.24     -0.00
   0.00000000  -0.00000000  -0.00011456          0.00     -0.00    -16.85

 !ASE

     Writing output data file calc.save

     General routines

     Parallel routines

   This run was terminated on:   8:38:40   2Jan2019

   JOB DONE.
Job  /afs/slac/g/suncat/bin/suncat-tsmpirun -x LD_LIBRARY_PATH -wdir /scratch/qe649336_n5zX8 pw.x -in pw.inp

TID   HOST_NAME   COMMAND_LINE            STATUS            TERMINATION_TIME
00000 suncat0075 pw.x -in pw.inp   Done                     01/02/2019 08:38:40
00001 suncat0075 pw.x -in pw.inp   Done                     01/02/2019 08:38:40
00002 suncat0075 pw.x -in pw.inp   Done                     01/02/2019 08:38:40
00003 suncat0075 pw.x -in pw.inp   Done                     01/02/2019 08:38:40
00004 suncat0075 pw.x -in pw.inp   Done                     01/02/2019 08:38:40
00005 suncat0075 pw.x -in pw.inp   Done                     01/02/2019 08:38:40
00006 suncat0075 pw.x -in pw.inp   Done                     01/02/2019 08:38:40
00007 suncat0075 pw.x -in pw.inp   Done                     01/02/2019 08:38:40
00008 suncat0055 pw.x -in pw.inp   Done                     01/02/2019 08:38:40
00009 suncat0055 pw.x -in pw.inp   Done                     01/02/2019 08:38:40
00010 suncat0055 pw.x -in pw.inp   Done                     01/02/2019 08:38:40
00011 suncat0055 pw.x -in pw.inp   Done                     01/02/2019 08:38:40
00012 suncat0055 pw.x -in pw.inp   Done                     01/02/2019 08:38:40
00013 suncat0055 pw.x -in pw.inp   Done                     01/02/2019 08:38:40
00014 suncat0055 pw.x -in pw.inp   Done                     01/02/2019 08:38:40
00015 suncat0055 pw.x -in pw.inp   Done                     01/02/2019 08:38:40
00016 suncat0051 pw.x -in pw.inp   Done                     01/02/2019 08:38:40
00017 suncat0051 pw.x -in pw.inp   Done                     01/02/2019 08:38:40
00018 suncat0051 pw.x -in pw.inp   Done                     01/02/2019 08:38:40
00019 suncat0051 pw.x -in pw.inp   Done                     01/02/2019 08:38:40
00020 suncat0051 pw.x -in pw.inp   Done                     01/02/2019 08:38:40
00021 suncat0051 pw.x -in pw.inp   Done                     01/02/2019 08:38:40
00022 suncat0051 pw.x -in pw.inp   Done                     01/02/2019 08:38:40
00023 suncat0051 pw.x -in pw.inp   Done                     01/02/2019 08:38:40
00024 suncat0022 pw.x -in pw.inp   Done                     01/02/2019 08:38:40
00025 suncat0022 pw.x -in pw.inp   Done                     01/02/2019 08:38:40
00026 suncat0022 pw.x -in pw.inp   Done                     01/02/2019 08:38:40
00027 suncat0022 pw.x -in pw.inp   Done                     01/02/2019 08:38:40
00028 suncat0022 pw.x -in pw.inp   Done                     01/02/2019 08:38:40
00029 suncat0022 pw.x -in pw.inp   Done                     01/02/2019 08:38:40
00030 suncat0022 pw.x -in pw.inp   Done                     01/02/2019 08:38:40
00031 suncat0022 pw.x -in pw.inp   Done                     01/02/2019 08:38:40
00032 suncat0015 pw.x -in pw.inp   Done                     01/02/2019 08:38:40
00033 suncat0015 pw.x -in pw.inp   Done                     01/02/2019 08:38:40
00034 suncat0015 pw.x -in pw.inp   Done                     01/02/2019 08:38:40
00035 suncat0015 pw.x -in pw.inp   Done                     01/02/2019 08:38:40
00036 suncat0015 pw.x -in pw.inp   Done                     01/02/2019 08:38:40
00037 suncat0015 pw.x -in pw.inp   Done                     01/02/2019 08:38:40
00038 suncat0015 pw.x -in pw.inp   Done                     01/02/2019 08:38:40
00039 suncat0015 pw.x -in pw.inp   Done                     01/02/2019 08:38:40
00040 suncat0196 pw.x -in pw.inp   Done                     01/02/2019 08:38:40
00041 suncat0196 pw.x -in pw.inp   Done                     01/02/2019 08:38:40
00042 suncat0196 pw.x -in pw.inp   Done                     01/02/2019 08:38:40
00043 suncat0196 pw.x -in pw.inp   Done                     01/02/2019 08:38:40
00044 suncat0196 pw.x -in pw.inp   Done                     01/02/2019 08:38:40
00045 suncat0196 pw.x -in pw.inp   Done                     01/02/2019 08:38:40
00046 suncat0196 pw.x -in pw.inp   Done                     01/02/2019 08:38:40
00047 suncat0196 pw.x -in pw.inp   Done                     01/02/2019 08:38:40
00048 suncat0270 pw.x -in pw.inp   Done                     01/02/2019 08:38:40
00049 suncat0270 pw.x -in pw.inp   Done                     01/02/2019 08:38:40
00050 suncat0270 pw.x -in pw.inp   Done                     01/02/2019 08:38:40
00051 suncat0270 pw.x -in pw.inp   Done                     01/02/2019 08:38:40
00052 suncat0270 pw.x -in pw.inp   Done                     01/02/2019 08:38:40
00053 suncat0270 pw.x -in pw.inp   Done                     01/02/2019 08:38:40
00054 suncat0270 pw.x -in pw.inp   Done                     01/02/2019 08:38:40
00055 suncat0270 pw.x -in pw.inp   Done                     01/02/2019 08:38:40
00056 suncat0268 pw.x -in pw.inp   Done                     01/02/2019 08:38:40
00057 suncat0268 pw.x -in pw.inp   Done                     01/02/2019 08:38:40
00058 suncat0268 pw.x -in pw.inp   Done                     01/02/2019 08:38:40
00059 suncat0268 pw.x -in pw.inp   Done                     01/02/2019 08:38:40
00060 suncat0268 pw.x -in pw.inp   Done                     01/02/2019 08:38:40
00061 suncat0268 pw.x -in pw.inp   Done                     01/02/2019 08:38:40
00062 suncat0268 pw.x -in pw.inp   Done                     01/02/2019 08:38:40
00063 suncat0268 pw.x -in pw.inp   Done                     01/02/2019 08:38:40