     Program PWSCF v.5.1rc2 (svn rev. 11289) starts on  2Jan2019 at 10:49:37

     Current dimensions of program PWSCF are:
     Max number of different atomic species (ntypx) = 10
     Max number of k-points (npk) =  40000
     Max angular momentum in pseudopotentials (lmaxx) =  3
     Presently stress not available with electric field

     IMPORTANT: XC functional enforced from input :
     Exchange-correlation      = BEEF-VDW ( 1  4 27 13 2)
     Any further DFT definition will be discarded
     Please, verify this is what you really want

     Subspace diagonalization in iterative solution of the eigenvalue problem:
     a serial algorithm will be used

     bravais-lattice index     =            0
     lattice parameter (alat)  =       1.8897  a.u.
     unit-cell volume          =    7137.6121 (a.u.)^3
     number of atoms/cell      =           12
     number of atomic types    =            2
     number of electrons       =       135.00
     number of Kohn-Sham states=           97
     kinetic-energy cutoff     =      36.7493  Ry
     charge density cutoff     =     367.4932  Ry
     convergence threshold     =      1.0E-06
     mixing beta               =       0.1000
     number of iterations used =           10  plain     mixing
     Exchange-correlation      = BEEF-VDW ( 1  4 27 13 2)
     nstep                     =           50

     celldm(1)=   1.889726  celldm(2)=   0.000000  celldm(3)=   0.000000
     celldm(4)=   0.000000  celldm(5)=   0.000000  celldm(6)=   0.000000

     crystal axes: (cart. coord. in units of alat)
               a(1) = (   6.902248   0.000000   0.000000 )
               a(2) = (  -3.451124   5.977522   0.000000 )
               a(3) = (   0.000000   0.000000  25.635662 )

     reciprocal axes: (cart. coord. in units 2 pi/alat)
               b(1) = (  0.144880  0.083647  0.000000 )
               b(2) = (  0.000000  0.167293  0.000000 )
               b(3) = (  0.000000  0.000000  0.039008 )

     PseudoPot. # 1 for Y  read from file:
     /afs/slac.stanford.edu/u/if/mamunm/psp/gbrv1.5pbe/Y.UPF
     MD5 check sum: d034151ed7554c50b6e82763ed42c788
     Pseudo is Ultrasoft + core correction, Zval = 11.0
     Generated by new atomic code, or converted to UPF format
     Using radial grid of  885 points,  6 beta functions with:
                l(1) =   0
                l(2) =   0
                l(3) =   1
                l(4) =   1
                l(5) =   2
                l(6) =   2
     Q(r) pseudized with  8 coefficients,  rinner =    1.200   1.200   1.200
                                                       1.200   1.200

     PseudoPot. # 2 for Cd read from file:
     /afs/slac.stanford.edu/u/if/mamunm/psp/gbrv1.5pbe/Cd.UPF
     MD5 check sum: 17164a7926edb8e0dc231208abae86a6
     Pseudo is Ultrasoft + core correction, Zval = 12.0
     Generated by new atomic code, or converted to UPF format
     Using radial grid of  889 points,  6 beta functions with:
                l(1) =   0
                l(2) =   0
                l(3) =   1
                l(4) =   1
                l(5) =   2
                l(6) =   2
     Q(r) pseudized with  6 coefficients,  rinner =    1.000   1.000   1.000
                                                       1.000   1.000

     vdW kernel table read from file vdW_kernel_table
     MD5 check sum: 095c7af220d748ca6e76c0b4c6cfb241

     atomic species   valence    mass     pseudopotential
        Y1            11.00    88.90584     Y ( 1.00)
        Cd1           12.00   112.41400     Cd( 1.00)

     No symmetry found

   Cartesian axes

     site n.     atom                  positions (alat units)
         1           Y1  tau(   1) = (   0.0000000   0.0000000  10.0000000  )
         2           Y1  tau(   2) = (  -1.7255621   2.9887612  10.0000000  )
         3           Y1  tau(   3) = (   1.7255621   2.9887612  10.0000000  )
         4           Cd1 tau(   4) = (   3.4511242   0.0000000  10.0000000  )
         5           Y1  tau(   5) = (   3.4511242   1.9925075  12.8178311  )
         6           Y1  tau(   6) = (   1.7255621   4.9812687  12.8178311  )
         7           Y1  tau(   7) = (  -1.7255621   4.9812687  12.8178311  )
         8           Cd1 tau(   8) = (   0.0000000   1.9925075  12.8178311  )
         9           Y1  tau(   9) = (  -0.0000000   3.9850150  15.6356622  )
        10           Y1  tau(  10) = (   1.7255621   0.9962537  15.6356622  )
        11           Y1  tau(  11) = (   5.1766863   0.9962537  15.6356622  )
        12           Cd1 tau(  12) = (   3.4511242   3.9850150  15.6356622  )

     number of k points=    20  Fermi-Dirac smearing, width (Ry)=  0.0110
                       cart. coord. in units 2pi/alat
        k(    1) = (   0.0000000   0.0000000   0.0000000), wk =   0.0555556
        k(    2) = (   0.0000000   0.0278822   0.0000000), wk =   0.1111111
        k(    3) = (   0.0000000   0.0557645   0.0000000), wk =   0.1111111
        k(    4) = (   0.0000000  -0.0836467   0.0000000), wk =   0.0555556
        k(    5) = (   0.0241467   0.0139411   0.0000000), wk =   0.1111111
        k(    6) = (   0.0241467   0.0418233   0.0000000), wk =   0.1111111
        k(    7) = (   0.0241467   0.0697056   0.0000000), wk =   0.1111111
        k(    8) = (   0.0241467  -0.0697056   0.0000000), wk =   0.1111111
        k(    9) = (   0.0241467  -0.0418233   0.0000000), wk =   0.1111111
        k(   10) = (   0.0241467  -0.0139411   0.0000000), wk =   0.1111111
        k(   11) = (   0.0482934   0.0278822   0.0000000), wk =   0.1111111
        k(   12) = (   0.0482934   0.0557645   0.0000000), wk =   0.1111111
        k(   13) = (   0.0482934   0.0836467   0.0000000), wk =   0.1111111
        k(   14) = (   0.0482934  -0.0557645   0.0000000), wk =   0.1111111
        k(   15) = (   0.0482934  -0.0278822   0.0000000), wk =   0.1111111
        k(   16) = (   0.0482934   0.0000000   0.0000000), wk =   0.1111111
        k(   17) = (  -0.0724402  -0.0418233   0.0000000), wk =   0.0555556
        k(   18) = (  -0.0724402  -0.0139411   0.0000000), wk =   0.1111111
        k(   19) = (  -0.0724402   0.0139411   0.0000000), wk =   0.1111111
        k(   20) = (  -0.0724402  -0.1254700   0.0000000), wk =   0.0555556

     Largest allocated arrays     est. size (Mb)     dimensions
     Largest temporary arrays     est. size (Mb)     dimensions

     Initial potential from superposition of free atoms
     Check: negative starting charge=   -0.067032

     starting charge  133.45965, renormalised to  135.00000

     negative rho (up, down):  6.781E-02 0.000E+00

     *
     * You are using vdW-DF for exchange-correlation in this calculation.
     * Please cite the following three references that made this development
     * possible:
     *
     *   M. Dion, H. Rydberg, E. Schroder, D. C. Langreth, and
     *   B. I. Lundqvist, Phys. Rev. Lett. 92, 246401 (2004).
     *
     *   T. Thonhauser, V. R. Cooper, S. Li, A. Puzder, P. Hyldgaard, and
     *   D. C. Langreth, Phys. Rev. B 76, 125112 (2007).
     *
     *   G. Roman-Perez and J. M. Soler, Phys. Rev. Lett. 103, 096102 (2009).
     *
     *
     * If you are using vdW-DF2, please also cite:
     *
     *   K. Lee, E. D. Murray, L. Kong, B. I. Lundqvist, and
     *   D. C. Langreth, Phys. Rev. B 82, 081101(R) (2010).
     *
     *
     * If you are calculating the stress with vdW-DF, please also cite:
     *
     *   R. Sabatini, E. Kucukbenli, B. Kolb, T. Thonhauser, and
     *   S. de Gironcoli, J. Phys.: Condens. Matter 24, 424209 (2012).
     *

     Carrying out vdW-DF run using the following parameters:

     Nqs =      20    Nr_points =    1024   r_max =   100.000
     q_mesh =
               0.00001000     0.04494208     0.09755937     0.15916263
               0.23128650     0.31572767     0.41458969     0.53033537
               0.66584808     0.82450364     1.01025438     1.22772762
               1.48234092     1.78043706     2.12944203     2.53805004
               3.01644009     3.57652955     4.23227104     5.00000000

     Gradients computed in reciprocal space

     Adding external electric field

     Computed dipole along edir(3) :
        Dipole                0.0000 Ry au,          0.0000 Debye
        Dipole field          0.0000 Ry au

        Potential amp.       -0.0000 Ry
        Total length         47.2333 bohr

     Starting wfc are  144 randomized atomic wfcs

     Self-consistent Calculation

     iteration #  1     ecut=    36.75 Ry     beta=0.10
     Davidson diagonalization with overlap
     ethr =  1.00E-02,  avg # of iterations =  2.0

[...]

     total energy              =   -1191.31099469 Ry
     Harris-Foulkes estimate   =   -1191.80348198 Ry
     estimated scf accuracy    <       2.84297668 Ry

[...]

     End of self-consistent calculation

          k = 0.0000 0.0000 0.0000 ( 26985 PWs)   bands (ev):

   -42.4147 -42.4135 -42.3649 -42.3648 -42.3646 -42.3646 -41.9470 -41.8976
   -41.8976 -22.5856 -22.5630 -22.4985 -22.4538 -22.4537 -22.4443 -22.4257
   -22.4256 -22.4156 -22.4156 -22.3780 -22.3780 -22.1870 -22.1811 -22.1737
   -22.0552 -22.0552 -22.0457 -22.0456 -21.9604 -21.9604 -21.8654 -21.8270
   -21.8269 -21.7200 -21.6546 -21.6546  -7.4603  -7.4603  -7.4549  -7.4549
    -7.4503  -7.4388  -7.4242  -7.4242  -7.4082  -7.4082  -7.2372  -7.2372
    -7.2307  -7.1959  -7.1959  -4.2715  -3.3175  -2.7300  -1.2506  -1.0793
    -0.9190  -0.0680  -0.0680   0.2956   0.2956   0.3376   0.4047   0.4047
     0.4748   0.8445   0.8445   1.0496   1.0496   1.1169   1.1902   1.4247
     1.7318   1.7553   1.7553   1.7918   1.7918   2.0865   2.0865   2.1938
     2.3468   2.3649   2.3649   2.9027   3.0710   3.8077   3.8078   3.9414
     3.9784   3.9935   3.9935   4.1090   4.1171   4.1171   4.1360   4.1360
     4.1771

[...]

          k =-0.0724-0.0418 0.0000 ( 26830 PWs)   bands (ev):

[...]

     the Fermi energy is     0.9800 ev

!    total energy              =   -1191.50894661 Ry
     Harris-Foulkes estimate   =   -1191.50895420 Ry
     estimated scf accuracy    <       0.00000085 Ry

     The total energy is the sum of the following terms:

     one-electron contribution =   -6103.67537309 Ry
     hartree contribution      =    3070.02680590 Ry
     xc contribution           =    -376.58847705 Ry
     ewald contribution        =    2218.83892688 Ry
     electric field correction =       0.00000000 Ry
     smearing contrib. (-TS)   =      -0.11082924 Ry

     convergence has been achieved in  16 iterations

 BEEF-vdW xc energy contributions
           1 :   -329.086945749455
           2 :    297.478325927905
           3 :   -243.235025789332
           4 :    180.139342588392
           5 :   -121.117852387280
           6 :    74.1510285183385
           7 :   -41.3695657238094
           8 :    20.8623930070312
           9 :   -9.43775819585812
          10 :    4.60825952839417
          11 :   -5.03711848986546
          12 :    9.77736605174647
          13 :   -17.2781785957379
          14 :    25.0637843361289
          15 :   -30.3665032672520
          16 :    31.2519439460120
          17 :   -27.4413197059484
          18 :    20.3019127782721
          19 :   -12.0855092086763
[...]
               b(3) = (  0.000000  0.000000  0.039008 )

     PseudoPot. # 1 for Y  read from file:
     /afs/slac.stanford.edu/u/if/mamunm/psp/gbrv1.5pbe/Y.UPF
     MD5 check sum: d034151ed7554c50b6e82763ed42c788
     Pseudo is Ultrasoft + core correction, Zval = 11.0
     Generated by new atomic code, or converted to UPF format
     Using radial grid of  885 points,  6 beta functions with:
                l(1) =   0
                l(2) =   0
                l(3) =   1
                l(4) =   1
                l(5) =   2
                l(6) =   2
     Q(r) pseudized with  8 coefficients,  rinner =    1.200   1.200   1.200
                                                       1.200   1.200

     PseudoPot. # 2 for Cd read from file:
     /afs/slac.stanford.edu/u/if/mamunm/psp/gbrv1.5pbe/Cd.UPF
     MD5 check sum: 17164a7926edb8e0dc231208abae86a6
     Pseudo is Ultrasoft + core correction, Zval = 12.0
     Generated by new atomic code, or converted to UPF format
     Using radial grid of  889 points,  6 beta functions with:
                l(1) =   0
                l(2) =   0
                l(3) =   1
                l(4) =   1
                l(5) =   2
                l(6) =   2
     Q(r) pseudized with  6 coefficients,  rinner =    1.000   1.000   1.000
                                                       1.000   1.000

     vdW kernel table read from file vdW_kernel_table
     MD5 check sum: 095c7af220d748ca6e76c0b4c6cfb241

     atomic species   valence    mass     pseudopotential
        Y1            11.00    88.90584     Y ( 1.00)
        Cd1           12.00   112.41400     Cd( 1.00)

     No symmetry found

   Cartesian axes

     site n.     atom                  positions (alat units)
         1           Y1  tau(   1) = (   0.0000000   0.0000000  10.0000000  )
         2           Y1  tau(   2) = (  -1.7255621   2.9887612  10.0000000  )
         3           Y1  tau(   3) = (   1.7255621   2.9887612  10.0000000  )
         4           Cd1 tau(   4) = (   3.4511242   0.0000000  10.0000000  )
         5           Y1  tau(   5) = (   3.4511242   1.9925075  12.8178311  )
         6           Y1  tau(   6) = (   1.7255621   4.9812687  12.8178311  )
         7           Y1  tau(   7) = (  -1.7255621   4.9812687  12.8178311  )
         8           Cd1 tau(   8) = (   0.0000000   1.9925075  12.8178311  )
         9           Y1  tau(   9) = (   0.0000397   3.9630332  15.6596584  )
        10           Y1  tau(  10) = (   1.7064878   1.0072521  15.6596173  )
        11           Y1  tau(  11) = (   5.1957474   1.0072143  15.6595921  )
        12           Cd1 tau(  12) = (   3.4511687   3.9849693  15.4650336  )

     number of k points=    20  Fermi-Dirac smearing, width (Ry)=  0.0110
                       cart. coord. in units 2pi/alat
        k(    1) = (   0.0000000   0.0000000   0.0000000), wk =   0.0555556
        k(    2) = (   0.0000000   0.0278822   0.0000000), wk =   0.1111111
        k(    3) = (   0.0000000   0.0557645   0.0000000), wk =   0.1111111
        k(    4) = (   0.0000000  -0.0836467   0.0000000), wk =   0.0555556
        k(    5) = (   0.0241467   0.0139411   0.0000000), wk =   0.1111111
        k(    6) = (   0.0241467   0.0418233   0.0000000), wk =   0.1111111
        k(    7) = (   0.0241467   0.0697056   0.0000000), wk =   0.1111111
        k(    8) = (   0.0241467  -0.0697056   0.0000000), wk =   0.1111111
        k(    9) = (   0.0241467  -0.0418233   0.0000000), wk =   0.1111111
        k(   10) = (   0.0241467  -0.0139411   0.0000000), wk =   0.1111111
        k(   11) = (   0.0482934   0.0278822   0.0000000), wk =   0.1111111
        k(   12) = (   0.0482934   0.0557645   0.0000000), wk =   0.1111111
        k(   13) = (   0.0482934   0.0836467   0.0000000), wk =   0.1111111
        k(   14) = (   0.0482934  -0.0557645   0.0000000), wk =   0.1111111
        k(   15) = (   0.0482934  -0.0278822   0.0000000), wk =   0.1111111
        k(   16) = (   0.0482934   0.0000000   0.0000000), wk =   0.1111111
        k(   17) = (  -0.0724402  -0.0418233   0.0000000), wk =   0.0555556
        k(   18) = (  -0.0724402  -0.0139411   0.0000000), wk =   0.1111111
        k(   19) = (  -0.0724402   0.0139411   0.0000000), wk =   0.1111111
        k(   20) = (  -0.0724402  -0.1254700   0.0000000), wk =   0.0555556

     Largest allocated arrays     est. size (Mb)     dimensions
     Largest temporary arrays     est. size (Mb)     dimensions

     Initial potential from superposition of free atoms
     Check: negative starting charge=   -0.067013

     starting charge  133.45965, renormalised to  135.00000

[...]

     *
     * You are using vdW-DF for exchange-correlation in this calculation.
     * Please cite the following three references that made this development
     * possible:
     *
     *   M. Dion, H. Rydberg, E. Schroder, D. C. Langreth, and
     *   B. I. Lundqvist, Phys. Rev. Lett. 92, 246401 (2004).
     *
     *   T. Thonhauser, V. R. Cooper, S. Li, A. Puzder, P. Hyldgaard, and
     *   D. C. Langreth, Phys. Rev. B 76, 125112 (2007).
     *
     *   G. Roman-Perez and J. M. Soler, Phys. Rev. Lett. 103, 096102 (2009).
     *
     *
     * If you are using vdW-DF2, please also cite:
     *
     *   K. Lee, E. D. Murray, L. Kong, B. I. Lundqvist, and
     *   D. C. Langreth, Phys. Rev. B 82, 081101(R) (2010).
     *
     *
     * If you are calculating the stress with vdW-DF, please also cite:
     *
     *   R. Sabatini, E. Kucukbenli, B. Kolb, T. Thonhauser, and
     *   S. de Gironcoli, J. Phys.: Condens. Matter 24, 424209 (2012).
     *

     Carrying out vdW-DF run using the following parameters:

     Nqs =      20    Nr_points =    1024   r_max =   100.000
     q_mesh =
               0.00001000     0.04494208     0.09755937     0.15916263
               0.23128650     0.31572767     0.41458969     0.53033537
               0.66584808     0.82450364     1.01025438     1.22772762
               1.48234092     1.78043706     2.12944203     2.53805004
               3.01644009     3.57652955     4.23227104     5.00000000

     Gradients computed in reciprocal space

[...]

     Starting wfc are  144 randomized atomic wfcs

     Self-consistent Calculation

[...]

     total energy              =   -1191.51232196 Ry
     Harris-Foulkes estimate   =   -1191.51232232 Ry
     estimated scf accuracy    <       0.00000458 Ry

     iteration # 16     ecut=    36.75 Ry     beta=0.10
     Davidson diagonalization with overlap
     ethr =  3.39E-09,  avg # of iterations =  2.6

[...]

     negative rho (up, down):  6.937E-02 0.000E+00

     Adding external electric field

     Computed dipole along edir(3) :
        Dipole                0.0345 Ry au,          0.0876 Debye
        Dipole field          0.0001 Ry au

        Potential amp.       -0.0057 Ry
        Total length         47.2333 bohr

     End of self-consistent calculation

[...]

          k = 0.0483 0.0000 0.0000 ( 26873 PWs)   bands (ev):

[...]

          k =-0.0724-0.1255 0.0000 ( 26830 PWs)   bands (ev):

   -42.3970 -42.3794 -42.3760 -42.3633 -42.3596 -42.3430 -41.9060 -41.8896
   -41.8729 -22.4836 -22.4583 -22.4499 -22.4335 -22.4194 -22.3950 -22.3872
   -22.3756 -22.3246 -22.3198 -22.3023 -22.2960 -22.2758 -22.2592 -22.2500
   -22.2392 -22.0602 -22.0465 -22.0454 -21.8735 -21.8550 -21.8249 -21.8216
   -21.8207 -21.8087 -21.7899 -21.6465  -7.4598  -7.4462  -7.4458  -7.4314
    -7.4256  -7.4208  -7.4109  -7.4058  -7.3935  -7.3916  -7.2029  -7.1889
    -7.1844  -7.1642  -7.1578  -3.2186  -3.1206  -2.5448  -1.7294  -1.1664
    -0.8416  -0.6854  -0.1004   0.0710   0.2017   0.3209   0.5015   0.6440
     0.7725   0.8185   0.8390   0.9953   1.1061   1.1280   1.3341   1.5307
     1.5657   1.5781   1.6826   1.7106   1.7791   1.8885   2.1793   2.2529
     2.4040   2.4320   2.5676   2.6801   2.7568   3.3966   3.4374   3.5180
     3.5626   3.6612   3.7476   3.8683   3.8793   3.9712   3.9915   4.0041
     4.0515

     the Fermi energy is     1.0004 ev

!    total energy              =   -1191.51231435 Ry
     Harris-Foulkes estimate   =   -1191.51232173 Ry
     estimated scf accuracy    <       0.00000088 Ry

     The total energy is the sum of the following terms:

     one-electron contribution =   -6127.38924472 Ry
     hartree contribution      =    3081.93846036 Ry
     xc contribution           =    -376.59116281 Ry
     ewald contribution        =    2230.63918734 Ry
     electric field correction =       0.00000209 Ry
     smearing contrib. (-TS)   =      -0.10955662 Ry

     convergence has been achieved in  16 iterations

 BEEF-vdW xc energy contributions
           1 :   -329.091736348507
           2 :    297.491949033708
           3 :   -243.257571627681
           4 :    180.159702070276
           5 :   -121.119414412061
           6 :    74.1226933863157
           7 :   -41.3153310038182
           8 :    20.8012483772884
           9 :   -9.39183065758039
          10 :    4.58735211657313
          11 :   -5.03219461796090
          12 :    9.76853668157952
          13 :   -17.2503212091623
          14 :    25.0172672422121
          15 :   -30.3157841032946
          16 :    31.2145302191469
          17 :   -27.4255997463583
          18 :    20.3019601436838
          19 :   -12.0855796462985
          20 :    4.92475132629500
          21 :  -0.190385397656996
          22 :   -1.69888928180427
          23 :    1.06334421528851
          24 :    1.37792157076672
          25 :   -4.77575264140046
          26 :    8.29686107472725
          27 :   -11.2087875999766
          28 :    12.9742806511085
          29 :   -13.3574831490226
          30 :    12.4772067401682
          31 :   -30.8153943598543
          32 :   -21.5283553094695

     Forces acting on atoms (Ry/au):

     negative rho (up, down):  6.937E-02 0.000E+00
     atom    1 type  1   force =    -0.00000664    0.00788324   -0.00399676
     atom    2 type  1   force =     0.00682674   -0.00393998   -0.00400887
     atom    3 type  1   force =    -0.00682577   -0.00393601   -0.00400862
     atom    4 type  2   force =    -0.00000254    0.00000661    0.01411504
     atom    5 type  1   force =     0.00000005   -0.00139337    0.00004813
     atom    6 type  1   force =    -0.00120711    0.00069268    0.00005155
     atom    7 type  1   force =     0.00120991    0.00069537    0.00005297
     atom    8 type  2   force =    -0.00000088   -0.00000080    0.00069634
     atom    9 type  1   force =     0.00000367   -0.00043125   -0.00070250
     atom   10 type  1   force =    -0.00037323    0.00021079   -0.00068780
     atom   11 type  1   force =     0.00037459    0.00021805   -0.00068786
     atom   12 type  2   force =     0.00000121   -0.00000533   -0.00087163

     Total force =     0.021042     Total SCF correction =     0.003008
     SCF correction compared to forces is large: reduce conv_thr to get better values

     entering subroutine stress ...

     negative rho (up, down):  6.937E-02 0.000E+00
          total   stress  (Ry/bohr**3)                   (kbar)     P=   -3.63
  -0.00003174  -0.00000000  -0.00000000         -4.67     -0.00     -0.00
  -0.00000000  -0.00003174   0.00000000         -0.00     -4.67      0.00
  -0.00000000   0.00000000  -0.00001057         -0.00      0.00     -1.56

 !ASE

     Writing output data file calc.save

     General routines

     Parallel routines

   This run was terminated on:  13: 4:47   2Jan2019

   JOB DONE.
Job  /afs/slac/g/suncat/bin/suncat-tsmpirun -x LD_LIBRARY_PATH -wdir /scratch/qe649406_m55K3 pw.x -in pw.inp

TID   HOST_NAME   COMMAND_LINE            STATUS            TERMINATION_TIME
00000 suncat0043 pw.x -in pw.inp   Done                     01/02/2019 13:04:47
00001 suncat0043 pw.x -in pw.inp   Done                     01/02/2019 13:04:47
00002 suncat0043 pw.x -in pw.inp   Done                     01/02/2019 13:04:47
00003 suncat0043 pw.x -in pw.inp   Done                     01/02/2019 13:04:47
00004 suncat0043 pw.x -in pw.inp   Done                     01/02/2019 13:04:47
00005 suncat0043 pw.x -in pw.inp   Done                     01/02/2019 13:04:47
00006 suncat0043 pw.x -in pw.inp   Done                     01/02/2019 13:04:47
00007 suncat0043 pw.x -in pw.inp   Done                     01/02/2019 13:04:47
00008 suncat0041 pw.x -in pw.inp   Done                     01/02/2019 13:04:47
00009 suncat0041 pw.x -in pw.inp   Done                     01/02/2019 13:04:47
00010 suncat0041 pw.x -in pw.inp   Done                     01/02/2019 13:04:47
00011 suncat0041 pw.x -in pw.inp   Done                     01/02/2019 13:04:47
00012 suncat0041 pw.x -in pw.inp   Done                     01/02/2019 13:04:47
00013 suncat0041 pw.x -in pw.inp   Done                     01/02/2019 13:04:47
00014 suncat0041 pw.x -in pw.inp   Done                     01/02/2019 13:04:47
00015 suncat0041 pw.x -in pw.inp   Done                     01/02/2019 13:04:47
00016 suncat0039 pw.x -in pw.inp   Done                     01/02/2019 13:04:47
00017 suncat0039 pw.x -in pw.inp   Done                     01/02/2019 13:04:47
00018 suncat0039 pw.x -in pw.inp   Done                     01/02/2019 13:04:47
00019 suncat0039 pw.x -in pw.inp   Done                     01/02/2019 13:04:47
00020 suncat0039 pw.x -in pw.inp   Done                     01/02/2019 13:04:47
00021 suncat0039 pw.x -in pw.inp   Done                     01/02/2019 13:04:47
00022 suncat0039 pw.x -in pw.inp   Done                     01/02/2019 13:04:47
00023 suncat0039 pw.x -in pw.inp   Done                     01/02/2019 13:04:47
00024 suncat0025 pw.x -in pw.inp   Done                     01/02/2019 13:04:47
00025 suncat0025 pw.x -in pw.inp   Done                     01/02/2019 13:04:47
00026 suncat0025 pw.x -in pw.inp   Done                     01/02/2019 13:04:47
00027 suncat0025 pw.x -in pw.inp   Done                     01/02/2019 13:04:47
00028 suncat0025 pw.x -in pw.inp   Done                     01/02/2019 13:04:47
00029 suncat0025 pw.x -in pw.inp   Done                     01/02/2019 13:04:47
00030 suncat0025 pw.x -in pw.inp   Done                     01/02/2019 13:04:47
00031 suncat0025 pw.x -in pw.inp   Done                     01/02/2019 13:04:47
00032 suncat0013 pw.x -in pw.inp   Done                     01/02/2019 13:04:47
00033 suncat0013 pw.x -in pw.inp   Done                     01/02/2019 13:04:47
00034 suncat0013 pw.x -in pw.inp   Done                     01/02/2019 13:04:47
00035 suncat0013 pw.x -in pw.inp   Done                     01/02/2019 13:04:47
00036 suncat0013 pw.x -in pw.inp   Done                     01/02/2019 13:04:47
00037 suncat0013 pw.x -in pw.inp   Done                     01/02/2019 13:04:47
00038 suncat0013 pw.x -in pw.inp   Done                     01/02/2019 13:04:47
00039 suncat0013 pw.x -in pw.inp   Done                     01/02/2019 13:04:47
00040 suncat0008 pw.x -in pw.inp   Done                     01/02/2019 13:04:47
00041 suncat0008 pw.x -in pw.inp   Done                     01/02/2019 13:04:47
00042 suncat0008 pw.x -in pw.inp   Done                     01/02/2019 13:04:47
00043 suncat0008 pw.x -in pw.inp   Done                     01/02/2019 13:04:47
00044 suncat0008 pw.x -in pw.inp   Done                     01/02/2019 13:04:47
00045 suncat0008 pw.x -in pw.inp   Done                     01/02/2019 13:04:47
00046 suncat0008 pw.x -in pw.inp   Done                     01/02/2019 13:04:47
00047 suncat0008 pw.x -in pw.inp   Done                     01/02/2019 13:04:47
00048 suncat0117 pw.x -in pw.inp   Done                     01/02/2019 13:04:47
00049 suncat0117 pw.x -in pw.inp   Done                     01/02/2019 13:04:47
00050 suncat0117 pw.x -in pw.inp   Done                     01/02/2019 13:04:47
00051 suncat0117 pw.x -in pw.inp   Done                     01/02/2019 13:04:47
00052 suncat0117 pw.x -in pw.inp   Done                     01/02/2019 13:04:47
00053 suncat0117 pw.x -in pw.inp   Done                     01/02/2019 13:04:47
00054 suncat0117 pw.x -in pw.inp   Done                     01/02/2019 13:04:47
00055 suncat0117 pw.x -in pw.inp   Done                     01/02/2019 13:04:47
00056 suncat0250 pw.x -in pw.inp   Done                     01/02/2019 13:04:47
00057 suncat0250 pw.x -in pw.inp   Done                     01/02/2019 13:04:47
00058 suncat0250 pw.x -in pw.inp   Done                     01/02/2019 13:04:47
00059 suncat0250 pw.x -in pw.inp   Done                     01/02/2019 13:04:47
00060 suncat0250 pw.x -in pw.inp   Done                     01/02/2019 13:04:47
00061 suncat0250 pw.x -in pw.inp   Done                     01/02/2019 13:04:47
00062 suncat0250 pw.x -in pw.inp   Done                     01/02/2019 13:04:47
00063 suncat0250 pw.x -in pw.inp   Done                     01/02/2019 13:04:47