     Program PWSCF v.5.1rc2 (svn rev. 11289) starts on 27Dec2018 at 21:10:26

     Current dimensions of program PWSCF are:
     Max number of different atomic species (ntypx) = 10
     Max number of k-points (npk) =  40000
     Max angular momentum in pseudopotentials (lmaxx) =  3
     Presently stress not available with electric field

     IMPORTANT: XC functional enforced from input :
     Exchange-correlation      = BEEF-VDW ( 1  4 27 13 2)
     Any further DFT definition will be discarded
     Please, verify this is what you really want

     Subspace diagonalization in iterative solution of the eigenvalue problem:
     a serial algorithm will be used

     bravais-lattice index     =            0
     lattice parameter (alat)  =       1.8897  a.u.
     unit-cell volume          =    4164.8930 (a.u.)^3
     number of atoms/cell      =           12
     number of atomic types    =            2
     number of electrons       =       174.00
     number of Kohn-Sham states=          117
     kinetic-energy cutoff     =      36.7493  Ry
     charge density cutoff     =     367.4932  Ry
     convergence threshold     =      1.0E-06
     mixing beta               =       0.1000
     number of iterations used =           10  plain     mixing
     Exchange-correlation      = BEEF-VDW ( 1  4 27 13 2)
     nstep                     =           50

     celldm(1)=   1.889726  celldm(2)=   0.000000  celldm(3)=   0.000000
     celldm(4)=   0.000000  celldm(5)=   0.000000  celldm(6)=   0.000000

     crystal axes: (cart. coord. in units of alat)
               a(1) = (   5.403067   0.000000   0.000000 )
               a(2) = (  -2.701533   4.679193   0.000000 )
               a(3) = (   0.000000   0.000000  24.411585 )

     reciprocal axes: (cart. coord. in units 2 pi/alat)
               b(1) = (  0.185080  0.106856  0.000000 )
               b(2) = (  0.000000  0.213712  0.000000 )
               b(3) = (  0.000000  0.000000  0.040964 )

     PseudoPot. # 1 for Rh read from file:
     /afs/slac.stanford.edu/u/if/mamunm/psp/gbrv1.5pbe/Rh.UPF
     MD5 check sum: 761627e959a2e3a1f56b0b5fe687810e
     Pseudo is Ultrasoft + core correction, Zval = 15.0
     Generated by new atomic code, or converted to UPF format
     Using radial grid of  969 points,  7 beta functions with:
                l(1) =   0
                l(2) =   0
                l(3) =   1
                l(4) =   1
                l(5) =   2
                l(6) =   2
                l(7) =   2
     Q(r) pseudized with  8 coefficients,  rinner =    1.200   1.200   1.200
                                                       1.200   1.200

     PseudoPot. # 2 for V  read from file:
     /afs/slac.stanford.edu/u/if/mamunm/psp/gbrv1.5pbe/V.UPF
     MD5 check sum: 22b79981416ebb76fdaf5b1b8640f6fb
     Pseudo is Ultrasoft + core correction, Zval = 13.0
     Generated by new atomic code, or converted to UPF format
     Using radial grid of  853 points,  6 beta functions with:
                l(1) =   0
                l(2) =   0
                l(3) =   1
                l(4) =   1
                l(5) =   2
                l(6) =   2
     Q(r) pseudized with  8 coefficients,  rinner =    1.100   1.100   1.100
                                                       1.100   1.100

     vdW kernel table read from file vdW_kernel_table
     MD5 check sum: 095c7af220d748ca6e76c0b4c6cfb241

     atomic species   valence    mass     pseudopotential
        Rh1           15.00   102.90550     Rh( 1.00)
        V1            13.00    50.94150     V ( 1.00)

     No symmetry found

   Cartesian axes

     site n.     atom                  positions (alat units)
         1           Rh1 tau(   1) = (   0.0000000   0.0000000  10.0000000  )
         2           Rh1 tau(   2) = (  -1.3507666   2.3395964  10.0000000  )
         3           Rh1 tau(   3) = (   1.3507666   2.3395964  10.0000000  )
         4           V1  tau(   4) = (   2.7015333   0.0000000  10.0000000  )
         5           Rh1 tau(   5) = (   2.7015333   1.5597310  12.2057927  )
         6           Rh1 tau(   6) = (   1.3507666   3.8993274  12.2057927  )
         7           Rh1 tau(   7) = (  -1.3507666   3.8993274  12.2057927  )
         8           V1  tau(   8) = (   0.0000000   1.5597310  12.2057927  )
         9           Rh1 tau(   9) = (  -0.0000000   3.1194619  14.4115854  )
        10           Rh1 tau(  10) = (   1.3507666   0.7798655  14.4115854  )
        11           Rh1 tau(  11) = (   4.0522999   0.7798655  14.4115854  )
        12           V1  tau(  12) = (   2.7015333   3.1194619  14.4115854  )

     number of k points=    20  Fermi-Dirac smearing, width (Ry)=  0.0110
                       cart. coord. in units 2pi/alat
        k(    1) = (   0.0000000   0.0000000   0.0000000), wk =   0.0555556
        k(    2) = (   0.0000000   0.0356187   0.0000000), wk =   0.1111111
        k(    3) = (   0.0000000   0.0712374   0.0000000), wk =   0.1111111
        k(    4) = (   0.0000000  -0.1068560   0.0000000), wk =   0.0555556
        k(    5) = (   0.0308467   0.0178093   0.0000000), wk =   0.1111111
        k(    6) = (   0.0308467   0.0534280   0.0000000), wk =   0.1111111
        k(    7) = (   0.0308467   0.0890467   0.0000000), wk =   0.1111111
        k(    8) = (   0.0308467  -0.0890467   0.0000000), wk =   0.1111111
        k(    9) = (   0.0308467  -0.0534280   0.0000000), wk =   0.1111111
        k(   10) = (   0.0308467  -0.0178093   0.0000000), wk =   0.1111111
        k(   11) = (   0.0616934   0.0356187   0.0000000), wk =   0.1111111
        k(   12) = (   0.0616934   0.0712374   0.0000000), wk =   0.1111111
        k(   13) = (   0.0616934   0.1068560   0.0000000), wk =   0.1111111
        k(   14) = (   0.0616934  -0.0712374   0.0000000), wk =   0.1111111
        k(   15) = (   0.0616934  -0.0356187   0.0000000), wk =   0.1111111
        k(   16) = (   0.0616934   0.0000000   0.0000000), wk =   0.1111111
        k(   17) = (  -0.0925400  -0.0534280   0.0000000), wk =   0.0555556
        k(   18) = (  -0.0925400  -0.0178093   0.0000000), wk =   0.1111111
        k(   19) = (  -0.0925400   0.0178093   0.0000000), wk =   0.1111111
        k(   20) = (  -0.0925400  -0.1602841   0.0000000), wk =   0.0555556

     Largest allocated arrays     est. size (Mb)     dimensions
     Largest temporary arrays     est. size (Mb)     dimensions

     Initial potential from superposition of free atoms
     Check: negative starting charge=   -0.490408

     starting charge  169.49543, renormalised to  174.00000

     negative rho (up, down):  5.034E-01 0.000E+00

     *
     * You are using vdW-DF for exchange-correlation in this calculation.
     * Please cite the following three references that made this development
     * possible:
     *
     *   M. Dion, H. Rydberg, E. Schroder, D. C. Langreth, and
     *   B. I. Lundqvist, Phys. Rev. Lett. 92, 246401 (2004).
     *
     *   T. Thonhauser, V. R. Cooper, S. Li, A. Puzder, P. Hyldgaard, and
     *   D. C. Langreth, Phys. Rev. B 76, 125112 (2007).
     *
     *   G. Roman-Perez and J. M. Soler, Phys. Rev. Lett. 103, 096102 (2009).
     *
     *
     * If you are using vdW-DF2, please also cite:
     *
     *   K. Lee, E. D. Murray, L. Kong, B. I. Lundqvist, and
     *   D. C. Langreth, Phys. Rev. B 82, 081101(R) (2010).
     *
     *
     * If you are calculating the stress with vdW-DF, please also cite:
     *
     *   R. Sabatini, E. Kucukbenli, B. Kolb, T. Thonhauser, and
     *   S. de Gironcoli, J. Phys.: Condens. Matter 24, 424209 (2012).
     *

     Carrying out vdW-DF run using the following parameters:

     Nqs =      20    Nr_points =    1024   r_max =   100.000
     q_mesh =
               0.00001000     0.04494208     0.09755937     0.15916263
               0.23128650     0.31572767     0.41458969     0.53033537
               0.66584808     0.82450364     1.01025438     1.22772762
               1.48234092     1.78043706     2.12944203     2.53805004
               3.01644009     3.57652955     4.23227104     5.00000000

     Gradients computed in reciprocal space

     Adding external electric field

     Computed dipole along edir(3) :
        Dipole                0.0000 Ry au,          0.0000 Debye
        Dipole field          0.0000 Ry au

        Potential amp.       -0.0000 Ry
        Total length         44.9779 bohr

     Starting wfc are  138 randomized atomic wfcs

     Self-consistent Calculation

     iteration #  1     ecut=    36.75 Ry     beta=0.10
     Davidson diagonalization with overlap
     ethr =  1.00E-02,  avg # of iterations =  7.8

[...]

     total energy              =   -1987.76640965 Ry
     Harris-Foulkes estimate   =   -1988.38702364 Ry
     estimated scf accuracy    <       4.04025973 Ry

[...]

     End of self-consistent calculation

          k = 0.0000 0.0000 0.0000 ( 15569 PWs)   bands (ev):

   -63.4167 -63.2748 -63.2747 -45.3989 -45.2516 -45.2516 -45.2213 -45.1522
   -45.1522 -45.0025 -44.9535 -44.9377 -44.9222 -44.9222 -44.8296 -44.8296
   -44.7879 -44.7879 -44.6205 -44.5968 -44.5888 -44.5694 -44.5671 -44.5671
   -44.5383 -44.5383 -44.4866 -44.4866 -44.4855 -44.4855 -37.2133 -37.2133
   -37.1549 -37.1477 -37.1205 -36.9994 -36.9994 -36.9976 -36.9976  -5.0546
    -3.7987  -3.5640  -3.5575  -3.4845  -3.3884  -3.3884  -3.0881  -3.0881
    -3.0056  -2.9621  -2.9621  -2.8929  -2.5455  -2.5455  -1.8787  -1.5006
    -1.5006  -1.2911  -1.2911  -1.0107  -0.7748  -0.7429  -0.6737  -0.5392
    -0.5392  -0.3490  -0.3490  -0.0624  -0.0624   0.0598   0.0598   0.0778
     0.0779   0.7323   1.0833   1.0833   1.0950   1.0950   1.1740   1.1740
     1.2414   1.2824   1.8969   1.9692   1.9978   1.9978   2.2988   2.2988
     2.3130   2.5536   2.6964   2.7330   2.7330   2.7436   2.8512   2.8634
     2.8634   3.1157   3.1157   3.3868   3.3868   3.4828   3.4828   3.6570
     3.6570   3.9363   5.5118   5.5118   5.6848   5.6848   5.7700   5.8074
     5.9176   6.1328   6.6257   7.5443   8.4772

[...]

          k =-0.0925-0.0534 0.0000 ( 15704 PWs)   bands (ev):

[...]

     the Fermi energy is     1.6145 ev

!    total energy              =   -1987.28792138 Ry
     Harris-Foulkes estimate   =   -1987.28791989 Ry
     estimated scf accuracy    <       0.00000069 Ry

     The total energy is the sum of the following terms:

     one-electron contribution =  -18070.09371606 Ry
     hartree contribution      =    9062.08827677 Ry
     xc contribution           =    -340.09781210 Ry
     ewald contribution        =    7360.90931842 Ry
     electric field correction =       0.00000000 Ry
     smearing contrib. (-TS)   =      -0.09398841 Ry

     convergence has been achieved in  17 iterations

 BEEF-vdW xc energy contributions
           1 :   -295.734515355222
           2 :    270.612981093902
           3 :   -227.533267709540
           4 :    177.740792469118
           5 :   -132.211407454657
           6 :    98.0687329255954
           7 :   -77.1016228196889
           8 :    66.5670709692961
           9 :   -61.4886354260396
          10 :    57.1947419161809
          11 :   -51.0253814733919
          12 :    42.7225916953354
          13 :   -33.6988938842467
[...]
     /afs/slac.stanford.edu/u/if/mamunm/psp/gbrv1.5pbe/Rh.UPF
     MD5 check sum: 761627e959a2e3a1f56b0b5fe687810e
     Pseudo is Ultrasoft + core correction, Zval = 15.0
     Generated by new atomic code, or converted to UPF format
     Using radial grid of  969 points,  7 beta functions with:
                l(1) =   0
                l(2) =   0
                l(3) =   1
                l(4) =   1
                l(5) =   2
                l(6) =   2
                l(7) =   2
     Q(r) pseudized with  8 coefficients,  rinner =    1.200   1.200   1.200
                                                       1.200   1.200

     PseudoPot. # 2 for V  read from file:
     /afs/slac.stanford.edu/u/if/mamunm/psp/gbrv1.5pbe/V.UPF
     MD5 check sum: 22b79981416ebb76fdaf5b1b8640f6fb
     Pseudo is Ultrasoft + core correction, Zval = 13.0
     Generated by new atomic code, or converted to UPF format
     Using radial grid of  853 points,  6 beta functions with:
                l(1) =   0
                l(2) =   0
                l(3) =   1
                l(4) =   1
                l(5) =   2
                l(6) =   2
     Q(r) pseudized with  8 coefficients,  rinner =    1.100   1.100   1.100
                                                       1.100   1.100

     vdW kernel table read from file vdW_kernel_table
     MD5 check sum: 095c7af220d748ca6e76c0b4c6cfb241

     atomic species   valence    mass     pseudopotential
        Rh1           15.00   102.90550     Rh( 1.00)
        V1            13.00    50.94150     V ( 1.00)

     No symmetry found

   Cartesian axes

     site n.     atom                  positions (alat units)
         1           Rh1 tau(   1) = (   0.0000000   0.0000000  10.0000000  )
         2           Rh1 tau(   2) = (  -1.3507666   2.3395964  10.0000000  )
         3           Rh1 tau(   3) = (   1.3507666   2.3395964  10.0000000  )
         4           V1  tau(   4) = (   2.7015333   0.0000000  10.0000000  )
         5           Rh1 tau(   5) = (   2.7015333   1.5597310  12.2057927  )
         6           Rh1 tau(   6) = (   1.3507666   3.8993274  12.2057927  )
         7           Rh1 tau(   7) = (  -1.3507666   3.8993274  12.2057927  )
         8           V1  tau(   8) = (   0.0000000   1.5597310  12.2057927  )
         9           Rh1 tau(   9) = (  -0.0000003   3.0881948  14.3570802  )
        10           Rh1 tau(  10) = (   1.3236880   0.7954991  14.3570874  )
        11           Rh1 tau(  11) = (   4.0793774   0.7954989  14.3570907  )
        12           V1  tau(  12) = (   2.7015333   3.1194615  14.2442686  )

     number of k points=    20  Fermi-Dirac smearing, width (Ry)=  0.0110
                       cart. coord. in units 2pi/alat
        k(    1) = (   0.0000000   0.0000000   0.0000000), wk =   0.0555556
        k(    2) = (   0.0000000   0.0356187   0.0000000), wk =   0.1111111
        k(    3) = (   0.0000000   0.0712374   0.0000000), wk =   0.1111111
        k(    4) = (   0.0000000  -0.1068560   0.0000000), wk =   0.0555556
        k(    5) = (   0.0308467   0.0178093   0.0000000), wk =   0.1111111
        k(    6) = (   0.0308467   0.0534280   0.0000000), wk =   0.1111111
        k(    7) = (   0.0308467   0.0890467   0.0000000), wk =   0.1111111
        k(    8) = (   0.0308467  -0.0890467   0.0000000), wk =   0.1111111
        k(    9) = (   0.0308467  -0.0534280   0.0000000), wk =   0.1111111
        k(   10) = (   0.0308467  -0.0178093   0.0000000), wk =   0.1111111
        k(   11) = (   0.0616934   0.0356187   0.0000000), wk =   0.1111111
        k(   12) = (   0.0616934   0.0712374   0.0000000), wk =   0.1111111
        k(   13) = (   0.0616934   0.1068560   0.0000000), wk =   0.1111111
        k(   14) = (   0.0616934  -0.0712374   0.0000000), wk =   0.1111111
        k(   15) = (   0.0616934  -0.0356187   0.0000000), wk =   0.1111111
        k(   16) = (   0.0616934   0.0000000   0.0000000), wk =   0.1111111
        k(   17) = (  -0.0925400  -0.0534280   0.0000000), wk =   0.0555556
        k(   18) = (  -0.0925400  -0.0178093   0.0000000), wk =   0.1111111
        k(   19) = (  -0.0925400   0.0178093   0.0000000), wk =   0.1111111
        k(   20) = (  -0.0925400  -0.1602841   0.0000000), wk =   0.0555556

     Largest allocated arrays     est. size (Mb)     dimensions
     Largest temporary arrays     est. size (Mb)     dimensions

     Initial potential from superposition of free atoms
     Check: negative starting charge=   -0.490097

     starting charge  169.49543, renormalised to  174.00000

[...]

     *
     * You are using vdW-DF for exchange-correlation in this calculation.
     * Please cite the following three references that made this development
     * possible:
     *
     *   M. Dion, H. Rydberg, E. Schroder, D. C. Langreth, and
     *   B. I. Lundqvist, Phys. Rev. Lett. 92, 246401 (2004).
     *
     *   T. Thonhauser, V. R. Cooper, S. Li, A. Puzder, P. Hyldgaard, and
     *   D. C. Langreth, Phys. Rev. B 76, 125112 (2007).
     *
     *   G. Roman-Perez and J. M. Soler, Phys. Rev. Lett. 103, 096102 (2009).
     *
     *
     * If you are using vdW-DF2, please also cite:
     *
     *   K. Lee, E. D. Murray, L. Kong, B. I. Lundqvist, and
     *   D. C. Langreth, Phys. Rev. B 82, 081101(R) (2010).
     *
     *
     * If you are calculating the stress with vdW-DF, please also cite:
     *
     *   R. Sabatini, E. Kucukbenli, B. Kolb, T. Thonhauser, and
     *   S. de Gironcoli, J. Phys.: Condens. Matter 24, 424209 (2012).
     *

     Carrying out vdW-DF run using the following parameters:

     Nqs =      20    Nr_points =    1024   r_max =   100.000
     q_mesh =
               0.00001000     0.04494208     0.09755937     0.15916263
               0.23128650     0.31572767     0.41458969     0.53033537
               0.66584808     0.82450364     1.01025438     1.22772762
               1.48234092     1.78043706     2.12944203     2.53805004
               3.01644009     3.57652955     4.23227104     5.00000000

     Gradients computed in reciprocal space

[...]

     Starting wfc are  138 randomized atomic wfcs

     Self-consistent Calculation

[...]

     total energy              =   -1987.29798483 Ry
     Harris-Foulkes estimate   =   -1987.29798410 Ry
     estimated scf accuracy    <       0.00000103 Ry

     iteration # 17     ecut=    36.75 Ry     beta=0.10
     Davidson diagonalization with overlap
     ethr =  5.91E-10,  avg # of iterations =  2.0

[...]

     negative rho (up, down):  5.200E-01 0.000E+00

     Adding external electric field

     Computed dipole along edir(3) :
        Dipole               -0.0011 Ry au,         -0.0029 Debye
        Dipole field         -0.0000 Ry au

        Potential amp.        0.0003 Ry
        Total length         44.9779 bohr

     End of self-consistent calculation

[...]

          k = 0.0617 0.0000 0.0000 ( 15636 PWs)   bands (ev):

[...]

          k =-0.0925-0.1603 0.0000 ( 15704 PWs)   bands (ev):

   -63.4346 -63.2904 -63.2756 -45.3943 -45.3017 -45.2847 -45.2536 -45.2259
   -45.2166 -45.2063 -45.1871 -45.0245 -44.9265 -44.8623 -44.7949 -44.7691
   -44.7265 -44.7237 -44.7120 -44.7054 -44.6894 -44.6802 -44.6506 -44.6287
   -44.6135 -44.5844 -44.5650 -44.5631 -44.5538 -44.5083 -37.2495 -37.2421
   -37.1722 -37.1492 -37.1326 -37.0238 -37.0204 -37.0170 -37.0127  -3.7244
    -3.5056  -3.0841  -2.9431  -2.9025  -2.6983  -2.6207  -2.5889  -2.5445
    -2.5162  -2.3233  -2.2501  -2.0916  -1.9940  -1.9619  -1.8204  -1.7412
    -1.6255  -1.5477  -1.4387  -0.9698  -0.9266  -0.8628  -0.7747  -0.7256
    -0.6955  -0.5749  -0.5164  -0.4282  -0.4116  -0.3401  -0.3350  -0.3288
    -0.2907  -0.2091  -0.0978   0.0552   0.1280   0.2039   0.3555   0.4084
     0.6762   0.7086   0.8536   0.8783   1.0095   1.2914   1.3657   1.3912
     1.4353   1.7557   1.8433   2.0068   2.0721   2.1283   2.1623   2.1977
     2.3462   2.4659   2.5396   2.7168   2.9012   2.9286   3.3102   4.2037
     4.3288   4.8997   5.2604   5.7361   5.9116   6.2621   6.3387   7.5863
     7.6076   7.6230   7.6504   8.1869   8.1976

     the Fermi energy is     1.6015 ev

!    total energy              =   -1987.29798658 Ry
     Harris-Foulkes estimate   =   -1987.29798490 Ry
     estimated scf accuracy    <       0.00000068 Ry

     The total energy is the sum of the following terms:

     one-electron contribution =  -18274.29196308 Ry
     hartree contribution      =    9163.90153346 Ry
     xc contribution           =    -340.24000996 Ry
     ewald contribution        =    7463.42324866 Ry
     electric field correction =       0.00000000 Ry
     smearing contrib. (-TS)   =      -0.09079567 Ry

     convergence has been achieved in  17 iterations

 BEEF-vdW xc energy contributions
           1 :   -295.884458518872
           2 :    270.831110952377
           3 :   -227.836365072225
           4 :    178.077065658585
           5 :   -132.488725080963
           6 :    98.2087467616911
           7 :   -77.0846412865906
           8 :    66.4422552019646
           9 :   -61.3471661463666
          10 :    57.1233882175800
          11 :   -51.0654432357431
          12 :    42.8548326168321
          13 :   -33.8606038377682
          14 :    25.9287594409786
          15 :   -20.3315899428006
          16 :    17.2875508756376
          17 :   -16.0927187248818
          18 :    15.6176676965562
          19 :   -14.8525605470687
          20 :    13.2697513281776
          21 :   -10.9182997544860
          22 :    8.28033831142506
          23 :   -5.99157779540195
          24 :    4.54400886655628
          25 :   -4.07682786671722
          26 :    4.32551386148089
          27 :   -4.75154392281866
          28 :    4.80254293639979
          29 :   -4.18495767718144
          30 :    3.00890228599394
          31 :   -29.4432710982494
          32 :   -21.9589131862704

     Forces acting on atoms (Ry/au):

     negative rho (up, down):  5.200E-01 0.000E+00
     atom    1 type  1   force =    -0.00000020    0.01970954    0.00791690
     atom    2 type  1   force =     0.01706878   -0.00985477    0.00791904
     atom    3 type  1   force =    -0.01706887   -0.00985469    0.00791749
     atom    4 type  2   force =     0.00000014    0.00000013    0.02769792
     atom    5 type  1   force =     0.00000029    0.00018777   -0.01419554
     atom    6 type  1   force =     0.00016293   -0.00009349   -0.01419589
     atom    7 type  1   force =    -0.00016329   -0.00009417   -0.01419447
     atom    8 type  2   force =    -0.00000006   -0.00000000   -0.00849694
     atom    9 type  1   force =    -0.00000002   -0.00018291    0.00007147
     atom   10 type  1   force =    -0.00015812    0.00009132    0.00007332
     atom   11 type  1   force =     0.00015826    0.00009133    0.00007431
     atom   12 type  2   force =     0.00000016   -0.00000006   -0.00058763

     Total force =     0.052895     Total SCF correction =     0.004097

     entering subroutine stress ...

     negative rho (up, down):  5.200E-01 0.000E+00
          total   stress  (Ry/bohr**3)                   (kbar)     P=  -30.02
  -0.00021873   0.00000000  -0.00000000        -32.18      0.00     -0.00
   0.00000000  -0.00021873  -0.00000000          0.00    -32.18     -0.00
  -0.00000000  -0.00000000  -0.00017478         -0.00     -0.00    -25.71

 !ASE

     Writing output data file calc.save

     General routines

     Parallel routines

   This run was terminated on:  21:48:43  27Dec2018

   JOB DONE.
Job  /afs/slac/g/suncat/bin/suncat-tsmpirun -x LD_LIBRARY_PATH -wdir /scratch/qe110736_wuM0L pw.x -in pw.inp

TID   HOST_NAME   COMMAND_LINE            STATUS            TERMINATION_TIME
00000 suncat0058 pw.x -in pw.inp   Done                     12/27/2018 21:48:43
00001 suncat0058 pw.x -in pw.inp   Done                     12/27/2018 21:48:43
00002 suncat0058 pw.x -in pw.inp   Done                     12/27/2018 21:48:43
00003 suncat0058 pw.x -in pw.inp   Done                     12/27/2018 21:48:43
00004 suncat0058 pw.x -in pw.inp   Done                     12/27/2018 21:48:43
00005 suncat0058 pw.x -in pw.inp   Done                     12/27/2018 21:48:43
00006 suncat0058 pw.x -in pw.inp   Done                     12/27/2018 21:48:43
00007 suncat0058 pw.x -in pw.inp   Done                     12/27/2018 21:48:43
00008 suncat0042 pw.x -in pw.inp   Done                     12/27/2018 21:48:43
00009 suncat0042 pw.x -in pw.inp   Done                     12/27/2018 21:48:43
00010 suncat0042 pw.x -in pw.inp   Done                     12/27/2018 21:48:43
00011 suncat0042 pw.x -in pw.inp   Done                     12/27/2018 21:48:43
00012 suncat0042 pw.x -in pw.inp   Done                     12/27/2018 21:48:43
00013 suncat0042 pw.x -in pw.inp   Done                     12/27/2018 21:48:43
00014 suncat0042 pw.x -in pw.inp   Done                     12/27/2018 21:48:43
00015 suncat0042 pw.x -in pw.inp   Done                     12/27/2018 21:48:43
00016 suncat0034 pw.x -in pw.inp   Done                     12/27/2018 21:48:43
00017 suncat0034 pw.x -in pw.inp   Done                     12/27/2018 21:48:43
00018 suncat0034 pw.x -in pw.inp   Done                     12/27/2018 21:48:43
00019 suncat0034 pw.x -in pw.inp   Done                     12/27/2018 21:48:43
00020 suncat0034 pw.x -in pw.inp   Done                     12/27/2018 21:48:43
00021 suncat0034 pw.x -in pw.inp   Done                     12/27/2018 21:48:43
00022 suncat0034 pw.x -in pw.inp   Done                     12/27/2018 21:48:43
00023 suncat0034 pw.x -in pw.inp   Done                     12/27/2018 21:48:43
00024 suncat0029 pw.x -in pw.inp   Done                     12/27/2018 21:48:43
00025 suncat0029 pw.x -in pw.inp   Done                     12/27/2018 21:48:43
00026 suncat0029 pw.x -in pw.inp   Done                     12/27/2018 21:48:43
00027 suncat0029 pw.x -in pw.inp   Done                     12/27/2018 21:48:43
00028 suncat0029 pw.x -in pw.inp   Done                     12/27/2018 21:48:43
00029 suncat0029 pw.x -in pw.inp   Done                     12/27/2018 21:48:43
00030 suncat0029 pw.x -in pw.inp   Done                     12/27/2018 21:48:43
00031 suncat0029 pw.x -in pw.inp   Done                     12/27/2018 21:48:43
00032 suncat0020 pw.x -in pw.inp   Done                     12/27/2018 21:48:43
00033 suncat0020 pw.x -in pw.inp   Done                     12/27/2018 21:48:43
00034 suncat0020 pw.x -in pw.inp   Done                     12/27/2018 21:48:43
00035 suncat0020 pw.x -in pw.inp   Done                     12/27/2018 21:48:43
00036 suncat0020 pw.x -in pw.inp   Done                     12/27/2018 21:48:43
00037 suncat0020 pw.x -in pw.inp   Done                     12/27/2018 21:48:43
00038 suncat0020 pw.x -in pw.inp   Done                     12/27/2018 21:48:43
00039 suncat0020 pw.x -in pw.inp   Done                     12/27/2018 21:48:43
00040 suncat0199 pw.x -in pw.inp   Done                     12/27/2018 21:48:43
00041 suncat0199 pw.x -in pw.inp   Done                     12/27/2018 21:48:43
00042 suncat0199 pw.x -in pw.inp   Done                     12/27/2018 21:48:43
00043 suncat0199 pw.x -in pw.inp   Done                     12/27/2018 21:48:43
00044 suncat0199 pw.x -in pw.inp   Done                     12/27/2018 21:48:43
00045 suncat0199 pw.x -in pw.inp   Done                     12/27/2018 21:48:43
00046 suncat0199 pw.x -in pw.inp   Done                     12/27/2018 21:48:43
00047 suncat0199 pw.x -in pw.inp   Done                     12/27/2018 21:48:43
00048 suncat0006 pw.x -in pw.inp   Done                     12/27/2018 21:48:43
00049 suncat0006 pw.x -in pw.inp   Done                     12/27/2018 21:48:43
00050 suncat0006 pw.x -in pw.inp   Done                     12/27/2018 21:48:43
00051 suncat0006 pw.x -in pw.inp   Done                     12/27/2018 21:48:43
00052 suncat0006 pw.x -in pw.inp   Done                     12/27/2018 21:48:43
00053 suncat0006 pw.x -in pw.inp   Done                     12/27/2018 21:48:43
00054 suncat0006 pw.x -in pw.inp   Done                     12/27/2018 21:48:43
00055 suncat0006 pw.x -in pw.inp   Done                     12/27/2018 21:48:43
00056 suncat0005 pw.x -in pw.inp   Done                     12/27/2018 21:48:43
00057 suncat0005 pw.x -in pw.inp   Done                     12/27/2018 21:48:43
00058 suncat0005 pw.x -in pw.inp   Done                     12/27/2018 21:48:43
00059 suncat0005 pw.x -in pw.inp   Done                     12/27/2018 21:48:43
00060 suncat0005 pw.x -in pw.inp   Done                     12/27/2018 21:48:43
00061 suncat0005 pw.x -in pw.inp   Done                     12/27/2018 21:48:43
00062 suncat0005 pw.x -in pw.inp   Done                     12/27/2018 21:48:43
00063 suncat0005 pw.x -in pw.inp   Done                     12/27/2018 21:48:43