     Program PWSCF v.5.1rc2 (svn rev. 11289) starts on  2Jan2019 at  6:14:56

     Current dimensions of program PWSCF are:
     Max number of different atomic species (ntypx) = 10
     Max number of k-points (npk) =  40000
     Max angular momentum in pseudopotentials (lmaxx) =  3
     Presently stress not available with electric field

     IMPORTANT: XC functional enforced from input :
     Exchange-correlation      = BEEF-VDW ( 1  4 27 13 2)
     Any further DFT definition will be discarded
     Please, verify this is what you really want

     Subspace diagonalization in iterative solution of the eigenvalue problem:
     a serial algorithm will be used

     bravais-lattice index     =            0
     lattice parameter (alat)  =       1.8897  a.u.
     unit-cell volume          =    4343.4344 (a.u.)^3
     number of atoms/cell      =           12
     number of atomic types    =            2
     number of electrons       =       153.00
     number of Kohn-Sham states=          106
     kinetic-energy cutoff     =      36.7493  Ry
     charge density cutoff     =     367.4932  Ry
     convergence threshold     =      1.0E-06
     mixing beta               =       0.1000
     number of iterations used =           10  plain     mixing
     Exchange-correlation      = BEEF-VDW ( 1  4 27 13 2)
     nstep                     =           50

     celldm(1)=   1.889726  celldm(2)=   0.000000  celldm(3)=   0.000000
     celldm(4)=   0.000000  celldm(5)=   0.000000  celldm(6)=   0.000000

     crystal axes: (cart. coord. in units of alat)
               a(1) = (   5.508004   0.000000   0.000000 )
               a(2) = (  -2.754002   4.770071   0.000000 )
               a(3) = (   0.000000   0.000000  24.497266 )

     reciprocal axes: (cart. coord. in units 2 pi/alat)
               b(1) = (  0.181554  0.104820  0.000000 )
               b(2) = (  0.000000  0.209640  0.000000 )
               b(3) = (  0.000000  0.000000  0.040821 )

     PseudoPot. # 1 for V  read from file:
     /afs/slac.stanford.edu/u/if/mamunm/psp/gbrv1.5pbe/V.UPF
     MD5 check sum: 22b79981416ebb76fdaf5b1b8640f6fb
     Pseudo is Ultrasoft + core correction, Zval = 13.0
     Generated by new atomic code, or converted to UPF format
     Using radial grid of  853 points,  6 beta functions with:
                l(1) =   0
                l(2) =   0
                l(3) =   1
                l(4) =   1
                l(5) =   2
                l(6) =   2
     Q(r) pseudized with  8 coefficients,  rinner =    1.100   1.100   1.100
                                                       1.100   1.100

     PseudoPot. # 2 for Ti read from file:
     /afs/slac.stanford.edu/u/if/mamunm/psp/gbrv1.5pbe/Ti.UPF
     MD5 check sum: 88a00a6731bd790ddea75d31a80cb452
     Pseudo is Ultrasoft + core correction, Zval = 12.0
     Generated by new atomic code, or converted to UPF format
     Using radial grid of  851 points,  6 beta functions with:
                l(1) =   0
                l(2) =   0
                l(3) =   1
                l(4) =   1
                l(5) =   2
                l(6) =   2
     Q(r) pseudized with  6 coefficients,  rinner =    1.000   1.000   1.000
                                                       1.000   1.000

     vdW kernel table read from file vdW_kernel_table
     MD5 check sum: 095c7af220d748ca6e76c0b4c6cfb241

     atomic species   valence    mass     pseudopotential
        V1            13.00    50.94150     V ( 1.00)
        Ti1           12.00    47.86700     Ti( 1.00)

     No symmetry found

   Cartesian axes

     site n.     atom                  positions (alat units)
         1           V1  tau(   1) = (   0.0000000   0.0000000  10.0000000  )
         2           V1  tau(   2) = (  -1.3770009   2.3850355  10.0000000  )
         3           V1  tau(   3) = (   1.3770009   2.3850355  10.0000000  )
         4           Ti1 tau(   4) = (   2.7540018   0.0000000  10.0000000  )
         5           V1  tau(   5) = (   2.7540018   1.5900237  12.2486330  )
         6           V1  tau(   6) = (   1.3770009   3.9750591  12.2486330  )
         7           V1  tau(   7) = (  -1.3770009   3.9750591  12.2486330  )
         8           Ti1 tau(   8) = (   0.0000000   1.5900237  12.2486330  )
         9           V1  tau(   9) = (  -0.0000000   3.1800473  14.4972660  )
        10           V1  tau(  10) = (   1.3770009   0.7950118  14.4972660  )
        11           V1  tau(  11) = (   4.1310026   0.7950118  14.4972660  )
        12           Ti1 tau(  12) = (   2.7540018   3.1800473  14.4972660  )

     number of k points=    20  Fermi-Dirac smearing, width (Ry)=  0.0110
                       cart. coord. in units 2pi/alat
        k(    1) = (   0.0000000   0.0000000   0.0000000), wk =   0.0555556
        k(    2) = (   0.0000000   0.0349401   0.0000000), wk =   0.1111111
        k(    3) = (   0.0000000   0.0698802   0.0000000), wk =   0.1111111
        k(    4) = (   0.0000000  -0.1048202   0.0000000), wk =   0.0555556
        k(    5) = (   0.0302590   0.0174700   0.0000000), wk =   0.1111111
        k(    6) = (   0.0302590   0.0524101   0.0000000), wk =   0.1111111
        k(    7) = (   0.0302590   0.0873502   0.0000000), wk =   0.1111111
        k(    8) = (   0.0302590  -0.0873502   0.0000000), wk =   0.1111111
        k(    9) = (   0.0302590  -0.0524101   0.0000000), wk =   0.1111111
        k(   10) = (   0.0302590  -0.0174700   0.0000000), wk =   0.1111111
        k(   11) = (   0.0605180   0.0349401   0.0000000), wk =   0.1111111
        k(   12) = (   0.0605180   0.0698802   0.0000000), wk =   0.1111111
        k(   13) = (   0.0605180   0.1048202   0.0000000), wk =   0.1111111
        k(   14) = (   0.0605180  -0.0698802   0.0000000), wk =   0.1111111
        k(   15) = (   0.0605180  -0.0349401   0.0000000), wk =   0.1111111
        k(   16) = (   0.0605180   0.0000000   0.0000000), wk =   0.1111111
        k(   17) = (  -0.0907770  -0.0524101   0.0000000), wk =   0.0555556
        k(   18) = (  -0.0907770  -0.0174700   0.0000000), wk =   0.1111111
        k(   19) = (  -0.0907770   0.0174700   0.0000000), wk =   0.1111111
        k(   20) = (  -0.0907770  -0.1572304   0.0000000), wk =   0.0555556

     Largest allocated arrays     est. size (Mb)     dimensions
     Largest temporary arrays     est. size (Mb)     dimensions

     Check: negative/imaginary core charge=   -0.000003    0.000000

     Initial potential from superposition of free atoms
     Check: negative starting charge=   -0.011142

     starting charge  149.98882, renormalised to  153.00000

     negative rho (up, down):  1.137E-02 0.000E+00

     *
     * You are using vdW-DF for exchange-correlation in this calculation.
     * Please cite the following three references that made this development
     * possible:
     *
     *   M. Dion, H. Rydberg, E. Schroder, D. C. Langreth, and
     *   B. I. Lundqvist, Phys. Rev. Lett. 92, 246401 (2004).
     *
     *   T. Thonhauser, V. R. Cooper, S. Li, A. Puzder, P. Hyldgaard, and
     *   D. C. Langreth, Phys. Rev. B 76, 125112 (2007).
     *
     *   G. Roman-Perez and J. M. Soler, Phys. Rev. Lett. 103, 096102 (2009).
     *
     *
     * If you are using vdW-DF2, please also cite:
     *
     *   K. Lee, E. D. Murray, L. Kong, B. I. Lundqvist, and
     *   D. C. Langreth, Phys. Rev. B 82, 081101(R) (2010).
     *
     *
     * If you are calculating the stress with vdW-DF, please also cite:
     *
     *   R. Sabatini, E. Kucukbenli, B. Kolb, T. Thonhauser, and
     *   S. de Gironcoli, J. Phys.: Condens. Matter 24, 424209 (2012).
     *

     Carrying out vdW-DF run using the following parameters:

     Nqs =      20    Nr_points =    1024   r_max =   100.000
     q_mesh =
               0.00001000     0.04494208     0.09755937     0.15916263
               0.23128650     0.31572767     0.41458969     0.53033537
               0.66584808     0.82450364     1.01025438     1.22772762
               1.48234092     1.78043706     2.12944203     2.53805004
               3.01644009     3.57652955     4.23227104     5.00000000

     Gradients computed in reciprocal space

     Adding external electric field

     Computed dipole along edir(3) :
        Dipole               -0.0000 Ry au,         -0.0000 Debye
        Dipole field         -0.0000 Ry au

        Potential amp.        0.0000 Ry
        Total length         45.1358 bohr

     Starting wfc are  120 randomized atomic wfcs

     Self-consistent Calculation

     iteration #  1     ecut=    36.75 Ry     beta=0.10
     Davidson diagonalization with overlap
     ethr =  1.00E-02,  avg # of iterations =  3.5

[...]

     total energy              =   -1664.55365251 Ry
     Harris-Foulkes estimate   =   -1675.10474167 Ry
     estimated scf accuracy    <      58.52943434 Ry

[...]

     End of self-consistent calculation

          k = 0.0000 0.0000 0.0000 ( 16247 PWs)   bands (ev):

   -63.4062 -63.3350 -63.3349 -63.3325 -63.3204 -63.2702 -63.2701 -63.2670
   -63.2669 -55.9924 -55.9921 -55.8301 -37.4656 -37.3533 -37.3443 -37.3443
   -37.3388 -37.3097 -37.2864 -37.2864 -37.2032 -37.2032 -37.1958 -37.1401
   -37.1400 -37.1163 -37.1163 -37.0724 -37.0244 -37.0144 -37.0143 -36.9663
   -36.9654 -36.9653 -36.9408 -36.8867 -36.8866 -36.8845 -36.8845 -32.2842
   -32.2713 -32.1906 -32.1906 -32.1874 -32.1874 -32.0713 -32.0470 -32.0470
    -5.0401  -3.5626  -2.4139  -1.9838  -1.9838  -1.9065  -1.7823  -1.7823
    -1.6621  -1.2850  -1.2850  -1.2200  -1.2011  -1.2005  -1.2005  -0.4171
    -0.3927  -0.3927   0.4242   0.5975   0.5975   0.6048   0.7088   0.8678
     1.0993   1.0993   1.1808   1.1808   1.2349   1.2951   1.3151   1.3151
     1.4166   1.4364   1.4364   1.4885   1.4885   1.7703   1.7703   1.9219
     2.1866   2.3925   2.3926   2.6485   2.6485   2.7691   2.7691   2.7778
     3.0116   3.0117   3.0861   3.0861   3.2049   3.4780   3.6339   3.6347
     3.6348   3.7503

[...]

          k =-0.0908-0.0524 0.0000 ( 16332 PWs)   bands (ev):

[...]

     the Fermi energy is     0.8641 ev

!    total energy              =   -1671.20744385 Ry
     Harris-Foulkes estimate   =   -1671.20744588 Ry
     estimated scf accuracy    <       0.00000097 Ry

     The total energy is the sum of the following terms:

     one-electron contribution =  -13646.33128085 Ry
     hartree contribution      =    6809.26623379 Ry
     xc contribution           =    -239.24352556 Ry
     ewald contribution        =    5405.25130466 Ry
     electric field correction =       0.00000000 Ry
     smearing contrib. (-TS)   =      -0.15017590 Ry

     convergence has been achieved in  24 iterations

 BEEF-vdW xc energy contributions
           1 :   -206.081086207871
           2 :    184.754937216321
           3 :   -149.595681627850
           4 :    111.747343031387
           5 :   -80.7979967838558
           6 :    61.0737417985032
           7 :   -51.1525242632201
           8 :    46.2456299256316
           9 :   -41.6208821322694
          10 :    35.0249254139388
          11 :   -27.0660010150394
          12 :    19.8593871285139
          13 :   -15.1491786503231
          14 :    13.1345641633983
          15 :   -12.5709865721681
[...]

     PseudoPot. # 1 for V  read from file:
     /afs/slac.stanford.edu/u/if/mamunm/psp/gbrv1.5pbe/V.UPF
     MD5 check sum: 22b79981416ebb76fdaf5b1b8640f6fb
     Pseudo is Ultrasoft + core correction, Zval = 13.0
     Generated by new atomic code, or converted to UPF format
     Using radial grid of  853 points,  6 beta functions with:
                l(1) =   0
                l(2) =   0
                l(3) =   1
                l(4) =   1
                l(5) =   2
                l(6) =   2
     Q(r) pseudized with  8 coefficients,  rinner =    1.100   1.100   1.100
                                                       1.100   1.100

     PseudoPot. # 2 for Ti read from file:
     /afs/slac.stanford.edu/u/if/mamunm/psp/gbrv1.5pbe/Ti.UPF
     MD5 check sum: 88a00a6731bd790ddea75d31a80cb452
     Pseudo is Ultrasoft + core correction, Zval = 12.0
     Generated by new atomic code, or converted to UPF format
     Using radial grid of  851 points,  6 beta functions with:
                l(1) =   0
                l(2) =   0
                l(3) =   1
                l(4) =   1
                l(5) =   2
                l(6) =   2
     Q(r) pseudized with  6 coefficients,  rinner =    1.000   1.000   1.000
                                                       1.000   1.000

     vdW kernel table read from file vdW_kernel_table
     MD5 check sum: 095c7af220d748ca6e76c0b4c6cfb241

     atomic species   valence    mass     pseudopotential
        V1            13.00    50.94150     V ( 1.00)
        Ti1           12.00    47.86700     Ti( 1.00)

     No symmetry found

   Cartesian axes

     site n.     atom                  positions (alat units)
         1           V1  tau(   1) = (   0.0000000   0.0000000  10.0000000  )
         2           V1  tau(   2) = (  -1.3770009   2.3850355  10.0000000  )
         3           V1  tau(   3) = (   1.3770009   2.3850355  10.0000000  )
         4           Ti1 tau(   4) = (   2.7540018   0.0000000  10.0000000  )
         5           V1  tau(   5) = (   2.7540018   1.5900237  12.2486330  )
         6           V1  tau(   6) = (   1.3770009   3.9750591  12.2486330  )
         7           V1  tau(   7) = (  -1.3770009   3.9750591  12.2486330  )
         8           Ti1 tau(   8) = (   0.0000000   1.5900237  12.2486330  )
         9           V1  tau(   9) = (   0.0000193   3.2836584  14.3611097  )
        10           V1  tau(  10) = (   1.4667988   0.7431818  14.3609950  )
        11           V1  tau(  11) = (   4.0412387   0.7431897  14.3610135  )
        12           Ti1 tau(  12) = (   2.7540075   3.1800538  14.6700590  )

     number of k points=    20  Fermi-Dirac smearing, width (Ry)=  0.0110
                       cart. coord. in units 2pi/alat
        k(    1) = (   0.0000000   0.0000000   0.0000000), wk =   0.0555556
        k(    2) = (   0.0000000   0.0349401   0.0000000), wk =   0.1111111
        k(    3) = (   0.0000000   0.0698802   0.0000000), wk =   0.1111111
        k(    4) = (   0.0000000  -0.1048202   0.0000000), wk =   0.0555556
        k(    5) = (   0.0302590   0.0174700   0.0000000), wk =   0.1111111
        k(    6) = (   0.0302590   0.0524101   0.0000000), wk =   0.1111111
        k(    7) = (   0.0302590   0.0873502   0.0000000), wk =   0.1111111
        k(    8) = (   0.0302590  -0.0873502   0.0000000), wk =   0.1111111
        k(    9) = (   0.0302590  -0.0524101   0.0000000), wk =   0.1111111
        k(   10) = (   0.0302590  -0.0174700   0.0000000), wk =   0.1111111
        k(   11) = (   0.0605180   0.0349401   0.0000000), wk =   0.1111111
        k(   12) = (   0.0605180   0.0698802   0.0000000), wk =   0.1111111
        k(   13) = (   0.0605180   0.1048202   0.0000000), wk =   0.1111111
        k(   14) = (   0.0605180  -0.0698802   0.0000000), wk =   0.1111111
        k(   15) = (   0.0605180  -0.0349401   0.0000000), wk =   0.1111111
        k(   16) = (   0.0605180   0.0000000   0.0000000), wk =   0.1111111
        k(   17) = (  -0.0907770  -0.0524101   0.0000000), wk =   0.0555556
        k(   18) = (  -0.0907770  -0.0174700   0.0000000), wk =   0.1111111
        k(   19) = (  -0.0907770   0.0174700   0.0000000), wk =   0.1111111
        k(   20) = (  -0.0907770  -0.1572304   0.0000000), wk =   0.0555556

     Largest allocated arrays     est. size (Mb)     dimensions
     Largest temporary arrays     est. size (Mb)     dimensions

     Check: negative/imaginary core charge=   -0.000003    0.000000

     Initial potential from superposition of free atoms
     Check: negative starting charge=   -0.013333

     starting charge  149.98882, renormalised to  153.00000

[...]

     *
     * You are using vdW-DF for exchange-correlation in this calculation.
     * Please cite the following three references that made this development
     * possible:
     *
     *   M. Dion, H. Rydberg, E. Schroder, D. C. Langreth, and
     *   B. I. Lundqvist, Phys. Rev. Lett. 92, 246401 (2004).
     *
     *   T. Thonhauser, V. R. Cooper, S. Li, A. Puzder, P. Hyldgaard, and
     *   D. C. Langreth, Phys. Rev. B 76, 125112 (2007).
     *
     *   G. Roman-Perez and J. M. Soler, Phys. Rev. Lett. 103, 096102 (2009).
     *
     *
     * If you are using vdW-DF2, please also cite:
     *
     *   K. Lee, E. D. Murray, L. Kong, B. I. Lundqvist, and
     *   D. C. Langreth, Phys. Rev. B 82, 081101(R) (2010).
     *
     *
     * If you are calculating the stress with vdW-DF, please also cite:
     *
     *   R. Sabatini, E. Kucukbenli, B. Kolb, T. Thonhauser, and
     *   S. de Gironcoli, J. Phys.: Condens. Matter 24, 424209 (2012).
     *

     Carrying out vdW-DF run using the following parameters:

     Nqs =      20    Nr_points =    1024   r_max =   100.000
     q_mesh =
               0.00001000     0.04494208     0.09755937     0.15916263
               0.23128650     0.31572767     0.41458969     0.53033537
               0.66584808     0.82450364     1.01025438     1.22772762
               1.48234092     1.78043706     2.12944203     2.53805004
               3.01644009     3.57652955     4.23227104     5.00000000

     Gradients computed in reciprocal space

[...]

     Starting wfc are  120 randomized atomic wfcs

     Self-consistent Calculation

[...]

     total energy              =   -1671.22058860 Ry
     Harris-Foulkes estimate   =   -1671.22058861 Ry
     estimated scf accuracy    <       0.00000116 Ry

     iteration # 34     ecut=    36.75 Ry     beta=0.10
     Davidson diagonalization with overlap
     ethr =  7.58E-10,  avg # of iterations =  1.1

[...]

     negative rho (up, down):  1.369E-02 0.000E+00

     Adding external electric field

     Computed dipole along edir(3) :
        Dipole                0.0647 Ry au,          0.1645 Debye
        Dipole field          0.0002 Ry au

        Potential amp.       -0.0169 Ry
        Total length         45.1358 bohr

     End of self-consistent calculation

[...]

          k = 0.0605 0.0000 0.0000 ( 16350 PWs)   bands (ev):

[...]

          k =-0.0908-0.1572 0.0000 ( 16332 PWs)   bands (ev):

   -63.2933 -63.2704 -63.2413 -63.2226 -63.2066 -63.1858 -63.1808 -63.1378
   -63.1248 -56.1069 -55.9036 -55.7618 -37.3446 -37.2897 -37.2332 -37.2143
   -37.1865 -37.1685 -37.1471 -37.1377 -37.1134 -37.0828 -37.0549 -37.0519
   -37.0210 -37.0117 -36.9970 -36.9945 -36.9821 -36.9449 -36.9252 -36.8894
   -36.8861 -36.8516 -36.8473 -36.8399 -36.8329 -36.8190 -36.7587 -32.4400
   -32.2839 -32.2725 -32.1899 -32.1199 -32.1067 -32.0116 -31.9999 -31.9872
    -3.3350  -3.2821  -2.0573  -2.0386  -1.4049  -1.3635  -1.2431  -1.1423
    -1.0950  -1.0493  -0.5942  -0.5451  -0.4783  -0.3693  -0.3348  -0.2532
    -0.0510   0.0494   0.0755   0.1196   0.1515   0.1662   0.3401   0.4811
     0.5717   0.5738   0.5744   0.7118   0.7202   0.7474   0.8838   0.9552
     1.0188   1.1778   1.2742   1.3280   1.4377   1.5453   1.6462   1.7347
     2.0274   2.0863   2.1775   2.2108   2.3194   2.3634   2.3968   2.4816
     2.4859   2.6083   2.6600   2.7833   2.8590   2.9650   2.9691   3.1077
     3.2376   3.3892

     the Fermi energy is     0.9412 ev

!    total energy              =   -1671.22058869 Ry
     Harris-Foulkes estimate   =   -1671.22058891 Ry
     estimated scf accuracy    <       0.00000072 Ry

     The total energy is the sum of the following terms:

     one-electron contribution =  -13766.64080352 Ry
     hartree contribution      =    6869.86406157 Ry
     xc contribution           =    -239.36600113 Ry
     ewald contribution        =    5465.06579541 Ry
     electric field correction =       0.00001212 Ry
     smearing contrib. (-TS)   =      -0.14365314 Ry

     convergence has been achieved in  34 iterations

 BEEF-vdW xc energy contributions
           1 :   -206.206330828508
           2 :    184.917478328495
           3 :   -149.796752414754
           4 :    111.936463170100
           5 :   -80.8967020529065
           6 :    61.0313720438970
           7 :   -50.9936631064462
           8 :    46.0629020672234
           9 :   -41.5120603159592
          10 :    35.0243722299408
          11 :   -27.1247868255216
          12 :    19.8833266024150
          13 :   -15.0615373310644
          14 :    12.9240609317116
          15 :   -12.3007716988913
          16 :    11.5971394067255
          17 :   -9.92089835544800
          18 :    7.55235302936333
          19 :   -5.54476189811831
          20 :    4.84261401531927
          21 :   -5.58657936167046
          22 :    7.06292815962050
          23 :   -8.26267940730062
          24 :    8.58906682434665
          25 :   -8.20092752076650
          26 :    7.78910743885066
          27 :   -8.00744060010993
          28 :    8.99315356357098
          29 :   -10.3020293866886
          30 :    11.2560543330579
          31 :   -21.4296011260696
          32 :   -15.4112380997022

     Forces acting on atoms (Ry/au):

     negative rho (up, down):  1.369E-02 0.000E+00
     atom    1 type  1   force =    -0.00000107   -0.00933586    0.01417611
     atom    2 type  1   force =    -0.00808844    0.00467045    0.01416966
     atom    3 type  1   force =     0.00808698    0.00467131    0.01417504
     atom    4 type  2   force =     0.00000084    0.00000914   -0.01121089
     atom    5 type  1   force =    -0.00000021    0.01982159   -0.00674154
     atom    6 type  1   force =     0.01715688   -0.00990820   -0.00672402
     atom    7 type  1   force =    -0.01715690   -0.00990994   -0.00672665
     atom    8 type  2   force =    -0.00000107    0.00000027   -0.01024353
     atom    9 type  1   force =    -0.00000154    0.00023452   -0.00043629
     atom   10 type  1   force =     0.00021267   -0.00012672   -0.00043233
     atom   11 type  1   force =    -0.00021192   -0.00012641   -0.00042506
     atom   12 type  2   force =     0.00000378   -0.00000017    0.00041951

     Total force =     0.049089     Total SCF correction =     0.001934

     entering subroutine stress ...

     negative rho (up, down):  1.369E-02 0.000E+00
          total   stress  (Ry/bohr**3)                   (kbar)     P=  -14.43
  -0.00012818  -0.00000001   0.00000000        -18.86     -0.00      0.00
  -0.00000001  -0.00012815  -0.00000000         -0.00    -18.85     -0.00
   0.00000000  -0.00000000  -0.00003796          0.00     -0.00     -5.58

 !ASE

     Writing output data file calc.save

     General routines

     Parallel routines

   This run was terminated on:  10:17: 8   2Jan2019

   JOB DONE.
Job  /afs/slac/g/suncat/bin/suncat-tsmpirun -x LD_LIBRARY_PATH -wdir /scratch/qe649333_TqaPj pw.x -in pw.inp

TID   HOST_NAME   COMMAND_LINE            STATUS            TERMINATION_TIME
00000 suncat0020 pw.x -in pw.inp   Done                     01/02/2019 10:17:08
00001 suncat0020 pw.x -in pw.inp   Done                     01/02/2019 10:17:08
00002 suncat0020 pw.x -in pw.inp   Done                     01/02/2019 10:17:08
00003 suncat0020 pw.x -in pw.inp   Done                     01/02/2019 10:17:08
00004 suncat0020 pw.x -in pw.inp   Done                     01/02/2019 10:17:08
00005 suncat0020 pw.x -in pw.inp   Done                     01/02/2019 10:17:08
00006 suncat0020 pw.x -in pw.inp   Done                     01/02/2019 10:17:08
00007 suncat0020 pw.x -in pw.inp   Done                     01/02/2019 10:17:08
00008 suncat0014 pw.x -in pw.inp   Done                     01/02/2019 10:17:08
00009 suncat0014 pw.x -in pw.inp   Done                     01/02/2019 10:17:08
00010 suncat0014 pw.x -in pw.inp   Done                     01/02/2019 10:17:08
00011 suncat0014 pw.x -in pw.inp   Done                     01/02/2019 10:17:08
00012 suncat0014 pw.x -in pw.inp   Done                     01/02/2019 10:17:08
00013 suncat0014 pw.x -in pw.inp   Done                     01/02/2019 10:17:08
00014 suncat0014 pw.x -in pw.inp   Done                     01/02/2019 10:17:08
00015 suncat0014 pw.x -in pw.inp   Done                     01/02/2019 10:17:08
00016 suncat0199 pw.x -in pw.inp   Done                     01/02/2019 10:17:08
00017 suncat0199 pw.x -in pw.inp   Done                     01/02/2019 10:17:08
00018 suncat0199 pw.x -in pw.inp   Done                     01/02/2019 10:17:08
00019 suncat0199 pw.x -in pw.inp   Done                     01/02/2019 10:17:08
00020 suncat0199 pw.x -in pw.inp   Done                     01/02/2019 10:17:08
00021 suncat0199 pw.x -in pw.inp   Done                     01/02/2019 10:17:08
00022 suncat0199 pw.x -in pw.inp   Done                     01/02/2019 10:17:08
00023 suncat0199 pw.x -in pw.inp   Done                     01/02/2019 10:17:08
00024 suncat0006 pw.x -in pw.inp   Done                     01/02/2019 10:17:08
00025 suncat0006 pw.x -in pw.inp   Done                     01/02/2019 10:17:08
00026 suncat0006 pw.x -in pw.inp   Done                     01/02/2019 10:17:08
00027 suncat0006 pw.x -in pw.inp   Done                     01/02/2019 10:17:08
00028 suncat0006 pw.x -in pw.inp   Done                     01/02/2019 10:17:08
00029 suncat0006 pw.x -in pw.inp   Done                     01/02/2019 10:17:08
00030 suncat0006 pw.x -in pw.inp   Done                     01/02/2019 10:17:08
00031 suncat0006 pw.x -in pw.inp   Done                     01/02/2019 10:17:08
00032 suncat0005 pw.x -in pw.inp   Done                     01/02/2019 10:17:08
00033 suncat0005 pw.x -in pw.inp   Done                     01/02/2019 10:17:08
00034 suncat0005 pw.x -in pw.inp   Done                     01/02/2019 10:17:08
00035 suncat0005 pw.x -in pw.inp   Done                     01/02/2019 10:17:08
00036 suncat0005 pw.x -in pw.inp   Done                     01/02/2019 10:17:08
00037 suncat0005 pw.x -in pw.inp   Done                     01/02/2019 10:17:08
00038 suncat0005 pw.x -in pw.inp   Done                     01/02/2019 10:17:08
00039 suncat0005 pw.x -in pw.inp   Done                     01/02/2019 10:17:08
00040 suncat0004 pw.x -in pw.inp   Done                     01/02/2019 10:17:08
00041 suncat0004 pw.x -in pw.inp   Done                     01/02/2019 10:17:08
00042 suncat0004 pw.x -in pw.inp   Done                     01/02/2019 10:17:08
00043 suncat0004 pw.x -in pw.inp   Done                     01/02/2019 10:17:08
00044 suncat0004 pw.x -in pw.inp   Done                     01/02/2019 10:17:08
00045 suncat0004 pw.x -in pw.inp   Done                     01/02/2019 10:17:08
00046 suncat0004 pw.x -in pw.inp   Done                     01/02/2019 10:17:08
00047 suncat0004 pw.x -in pw.inp   Done                     01/02/2019 10:17:08
00048 suncat0187 pw.x -in pw.inp   Done                     01/02/2019 10:17:08
00049 suncat0187 pw.x -in pw.inp   Done                     01/02/2019 10:17:08
00050 suncat0187 pw.x -in pw.inp   Done                     01/02/2019 10:17:08
00051 suncat0187 pw.x -in pw.inp   Done                     01/02/2019 10:17:08
00052 suncat0187 pw.x -in pw.inp   Done                     01/02/2019 10:17:08
00053 suncat0187 pw.x -in pw.inp   Done                     01/02/2019 10:17:08
00054 suncat0187 pw.x -in pw.inp   Done                     01/02/2019 10:17:08
00055 suncat0187 pw.x -in pw.inp   Done                     01/02/2019 10:17:08
00056 suncat0186 pw.x -in pw.inp   Done                     01/02/2019 10:17:08
00057 suncat0186 pw.x -in pw.inp   Done                     01/02/2019 10:17:08
00058 suncat0186 pw.x -in pw.inp   Done                     01/02/2019 10:17:08
00059 suncat0186 pw.x -in pw.inp   Done                     01/02/2019 10:17:08
00060 suncat0186 pw.x -in pw.inp   Done                     01/02/2019 10:17:08
00061 suncat0186 pw.x -in pw.inp   Done                     01/02/2019 10:17:08
00062 suncat0186 pw.x -in pw.inp   Done                     01/02/2019 10:17:08
00063 suncat0186 pw.x -in pw.inp   Done                     01/02/2019 10:17:08