     Program PWSCF v.5.1rc2 (svn rev. 11289) starts on 20Dec2018 at  2:33:38

     Current dimensions of program PWSCF are:
     Max number of different atomic species (ntypx) = 10
     Max number of k-points (npk) =  40000
     Max angular momentum in pseudopotentials (lmaxx) =  3
     Presently stress not available with electric field

     IMPORTANT: XC functional enforced from input :
     Exchange-correlation      = BEEF-VDW ( 1  4 27 13 2)
     Any further DFT definition will be discarded
     Please, verify this is what you really want

     Subspace diagonalization in iterative solution of the eigenvalue problem:
     a serial algorithm will be used

     bravais-lattice index     =            0
     lattice parameter (alat)  =       1.8897  a.u.
     unit-cell volume          =    6365.0757 (a.u.)^3
     number of atoms/cell      =           12
     number of atomic types    =            2
     number of electrons       =       141.00
     number of Kohn-Sham states=          100
     kinetic-energy cutoff     =      36.7493  Ry
     charge density cutoff     =     367.4932  Ry
     convergence threshold     =      1.0E-06
     mixing beta               =       0.1000
     number of iterations used =           10  plain     mixing
     Exchange-correlation      = BEEF-VDW ( 1  4 27 13 2)
     nstep                     =           50

     celldm(1)=   1.889726  celldm(2)=   0.000000  celldm(3)=   0.000000
     celldm(4)=   0.000000  celldm(5)=   0.000000  celldm(6)=   0.000000

     crystal axes: (cart. coord. in units of alat)
               a(1) = (   6.554429   0.000000   0.000000 )
               a(2) = (  -3.277215   5.676302   0.000000 )
               a(3) = (   0.000000   0.000000  25.351669 )

     reciprocal axes: (cart. coord. in units 2 pi/alat)
               b(1) = (  0.152569  0.088086  0.000000 )
               b(2) = (  0.000000  0.176171  0.000000 )
               b(3) = (  0.000000  0.000000  0.039445 )

     PseudoPot. # 1 for Cd read from file:
     /afs/slac.stanford.edu/u/if/mamunm/psp/gbrv1.5pbe/Cd.UPF
     MD5 check sum: 17164a7926edb8e0dc231208abae86a6
     Pseudo is Ultrasoft + core correction, Zval = 12.0
     Generated by new atomic code, or converted to UPF format
     Using radial grid of  889 points,  6 beta functions with:
                l(1) =   0
                l(2) =   0
                l(3) =   1
                l(4) =   1
                l(5) =   2
                l(6) =   2
     Q(r) pseudized with  6 coefficients,  rinner =    1.000   1.000   1.000
                                                       1.000   1.000

     PseudoPot. # 2 for Y  read from file:
     /afs/slac.stanford.edu/u/if/mamunm/psp/gbrv1.5pbe/Y.UPF
     MD5 check sum: d034151ed7554c50b6e82763ed42c788
     Pseudo is Ultrasoft + core correction, Zval = 11.0
     Generated by new atomic code, or converted to UPF format
     Using radial grid of  885 points,  6 beta functions with:
                l(1) =   0
                l(2) =   0
                l(3) =   1
                l(4) =   1
                l(5) =   2
                l(6) =   2
     Q(r) pseudized with  8 coefficients,  rinner =    1.200   1.200   1.200
                                                       1.200   1.200

     vdW kernel table read from file vdW_kernel_table
     MD5 check sum: 095c7af220d748ca6e76c0b4c6cfb241

     atomic species   valence    mass     pseudopotential
        Cd1           12.00   112.41400     Cd( 1.00)
        Y1            11.00    88.90584     Y ( 1.00)

     No symmetry found

   Cartesian axes

     site n.     atom                  positions (alat units)
         1           Cd1 tau(   1) = (   0.0000000   0.0000000  10.0000000  )
         2           Cd1 tau(   2) = (  -1.6386074   2.8381512  10.0000000  )
         3           Cd1 tau(   3) = (   1.6386074   2.8381512  10.0000000  )
         4           Y1  tau(   4) = (   3.2772147   0.0000000  10.0000000  )
         5           Cd1 tau(   5) = (   3.2772147   1.8921008  12.6758346  )
         6           Cd1 tau(   6) = (   1.6386074   4.7302520  12.6758346  )
         7           Cd1 tau(   7) = (  -1.6386074   4.7302520  12.6758346  )
         8           Y1  tau(   8) = (   0.0000000   1.8921008  12.6758346  )
         9           Cd1 tau(   9) = (  -0.0000000   3.7842016  15.3516692  )
        10           Cd1 tau(  10) = (   1.6386074   0.9460504  15.3516692  )
        11           Cd1 tau(  11) = (   4.9158221   0.9460504  15.3516692  )
        12           Y1  tau(  12) = (   3.2772147   3.7842016  15.3516692  )

     number of k points=    20  Fermi-Dirac smearing, width (Ry)=  0.0110
                       cart. coord. in units 2pi/alat
        k(    1) = (   0.0000000   0.0000000   0.0000000), wk =   0.0555556
        k(    2) = (   0.0000000   0.0293618   0.0000000), wk =   0.1111111
        k(    3) = (   0.0000000   0.0587237   0.0000000), wk =   0.1111111
        k(    4) = (   0.0000000  -0.0880855   0.0000000), wk =   0.0555556
        k(    5) = (   0.0254281   0.0146809   0.0000000), wk =   0.1111111
        k(    6) = (   0.0254281   0.0440428   0.0000000), wk =   0.1111111
        k(    7) = (   0.0254281   0.0734046   0.0000000), wk =   0.1111111
        k(    8) = (   0.0254281  -0.0734046   0.0000000), wk =   0.1111111
        k(    9) = (   0.0254281  -0.0440428   0.0000000), wk =   0.1111111
        k(   10) = (   0.0254281  -0.0146809   0.0000000), wk =   0.1111111
        k(   11) = (   0.0508562   0.0293618   0.0000000), wk =   0.1111111
        k(   12) = (   0.0508562   0.0587237   0.0000000), wk =   0.1111111
        k(   13) = (   0.0508562   0.0880855   0.0000000), wk =   0.1111111
        k(   14) = (   0.0508562  -0.0587237   0.0000000), wk =   0.1111111
        k(   15) = (   0.0508562  -0.0293618   0.0000000), wk =   0.1111111
        k(   16) = (   0.0508562   0.0000000   0.0000000), wk =   0.1111111
        k(   17) = (  -0.0762843  -0.0440428   0.0000000), wk =   0.0555556
        k(   18) = (  -0.0762843  -0.0146809   0.0000000), wk =   0.1111111
        k(   19) = (  -0.0762843   0.0146809   0.0000000), wk =   0.1111111
        k(   20) = (  -0.0762843  -0.1321283   0.0000000), wk =   0.0555556

     Largest allocated arrays     est. size (Mb)     dimensions
     Largest temporary arrays     est. size (Mb)     dimensions

     Initial potential from superposition of free atoms
     Check: negative starting charge=   -0.195790

     starting charge  136.48622, renormalised to  141.00000

     negative rho (up, down):  2.023E-01 0.000E+00

     *
     * You are using vdW-DF for exchange-correlation in this calculation.
     * Please cite the following three references that made this development
     * possible:
     *
     *   M. Dion, H. Rydberg, E. Schroder, D. C. Langreth, and
     *   B. I. Lundqvist, Phys. Rev. Lett. 92, 246401 (2004).
     *
     *   T. Thonhauser, V. R. Cooper, S. Li, A. Puzder, P. Hyldgaard, and
     *   D. C. Langreth, Phys. Rev. B 76, 125112 (2007).
     *
     *   G. Roman-Perez and J. M. Soler, Phys. Rev. Lett. 103, 096102 (2009).
     *
     *
     * If you are using vdW-DF2, please also cite:
     *
     *   K. Lee, E. D. Murray, L. Kong, B. I. Lundqvist, and
     *   D. C. Langreth, Phys. Rev. B 82, 081101(R) (2010).
     *
     *
     * If you are calculating the stress with vdW-DF, please also cite:
     *
     *   R. Sabatini, E. Kucukbenli, B. Kolb, T. Thonhauser, and
     *   S. de Gironcoli, J. Phys.: Condens. Matter 24, 424209 (2012).
     *

     Carrying out vdW-DF run using the following parameters:

     Nqs =      20    Nr_points =    1024   r_max =   100.000
     q_mesh =
               0.00001000     0.04494208     0.09755937     0.15916263
               0.23128650     0.31572767     0.41458969     0.53033537
               0.66584808     0.82450364     1.01025438     1.22772762
               1.48234092     1.78043706     2.12944203     2.53805004
               3.01644009     3.57652955     4.23227104     5.00000000

     Gradients computed in reciprocal space

     Adding external electric field

     Computed dipole along edir(3) :
        Dipole               -0.0000 Ry au,         -0.0000 Debye
        Dipole field         -0.0000 Ry au

        Potential amp.        0.0000 Ry
        Total length         46.7100 bohr

     Starting wfc are  120 randomized atomic wfcs

     Self-consistent Calculation

     iteration #  1     ecut=    36.75 Ry     beta=0.10
     Davidson diagonalization with overlap
     ethr =  1.00E-02,  avg # of iterations =  6.6

     Threshold (ethr) on eigenvalues was too large:
     Diagonalizing with lowered threshold

     Davidson diagonalization with overlap
     ethr =  5.36E-04,  avg # of iterations =  6.6

[...]

     total energy              =   -1326.12369756 Ry
     Harris-Foulkes estimate   =   -1326.23325407 Ry
     estimated scf accuracy    <       0.74642038 Ry

[...]

     End of self-consistent calculation

          k = 0.0000 0.0000 0.0000 ( 23847 PWs)   bands (ev):

   -43.0730 -43.0729 -42.7923 -23.1005 -23.0986 -22.9360 -22.9359 -22.9355
   -22.9355 -22.7878 -22.6989 -22.6989  -8.3938  -8.3485  -8.3485  -8.3350
    -8.3332  -8.3008  -8.2604  -8.2382  -8.2382  -8.1983  -8.1982  -8.1830
    -8.1830  -8.1282  -8.1181  -8.0853  -8.0853  -8.0281  -8.0281  -8.0175
    -7.9584  -7.9080  -7.8898  -7.8898  -7.8831  -7.8831  -7.8392  -7.8391
    -7.8192  -7.7994  -7.7993  -7.7637  -7.7637  -7.7068  -7.7068  -7.6979
    -7.6979  -7.5847  -7.5847  -7.5807  -7.5015  -7.5015  -7.4837  -7.4829
    -7.4367  -6.1197  -4.7852  -2.9273  -1.6722  -1.6722  -1.2554  -1.2554
    -0.6718  -0.5190  -0.5190  -0.2467   0.1169   0.3108   0.3108   0.5162
     1.3384   1.5389   1.5389   1.6361   1.6361   2.2639   2.2639   2.3193
     2.3193   2.5796   3.0415   3.4750   3.4750   3.6696   3.9587   4.2665
     4.3133   4.3133   4.3367   4.3367   4.4563   4.5774   4.7227   5.1818
     5.1818   5.4632   5.9499   6.1535

[...]

          k =-0.0763-0.0440 0.0000 ( 23968 PWs)   bands (ev):

[...]

     the Fermi energy is     0.8013 ev

!    total energy              =   -1325.99782912 Ry
     Harris-Foulkes estimate   =   -1325.99785301 Ry
     estimated scf accuracy    <       0.00000031 Ry

     The total energy is the sum of the following terms:

     one-electron contribution =   -7524.56156104 Ry
     hartree contribution      =    3830.74263431 Ry
     xc contribution           =    -451.81281862 Ry
     ewald contribution        =    2819.68932169 Ry
     electric field correction =       0.00000000 Ry
     smearing contrib. (-TS)   =      -0.05540546 Ry

     convergence has been achieved in  15 iterations

 BEEF-vdW xc energy contributions
           1 :   -395.598548173827
           2 :    360.622869110974
           3 :   -301.320645718700
           4 :    234.026023625584
           5 :   -173.859702525227
           6 :    129.508777794979
           7 :   -101.814773023326
           8 :    86.0401565035814
           9 :   -75.9359284828824
          10 :    67.2245822178540
          11 :   -58.8934038559250
          12 :    52.1896273074016
          13 :   -48.5277894735657
[...]
     Pseudo is Ultrasoft + core correction, Zval = 12.0
     Generated by new atomic code, or converted to UPF format
     Using radial grid of  889 points,  6 beta functions with:
                l(1) =   0
                l(2) =   0
                l(3) =   1
                l(4) =   1
                l(5) =   2
                l(6) =   2
     Q(r) pseudized with  6 coefficients,  rinner =    1.000   1.000   1.000
                                                       1.000   1.000

     PseudoPot. # 2 for Y  read from file:
     /afs/slac.stanford.edu/u/if/mamunm/psp/gbrv1.5pbe/Y.UPF
     MD5 check sum: d034151ed7554c50b6e82763ed42c788
     Pseudo is Ultrasoft + core correction, Zval = 11.0
     Generated by new atomic code, or converted to UPF format
     Using radial grid of  885 points,  6 beta functions with:
                l(1) =   0
                l(2) =   0
                l(3) =   1
                l(4) =   1
                l(5) =   2
                l(6) =   2
     Q(r) pseudized with  8 coefficients,  rinner =    1.200   1.200   1.200
                                                       1.200   1.200

     vdW kernel table read from file vdW_kernel_table
     MD5 check sum: 095c7af220d748ca6e76c0b4c6cfb241

     atomic species   valence    mass     pseudopotential
        Cd1           12.00   112.41400     Cd( 1.00)
        Y1            11.00    88.90584     Y ( 1.00)

     No symmetry found

   Cartesian axes

     site n.     atom                  positions (alat units)
         1           Cd1 tau(   1) = (   0.0000000   0.0000000  10.0000000  )
         2           Cd1 tau(   2) = (  -1.6386074   2.8381512  10.0000000  )
         3           Cd1 tau(   3) = (   1.6386074   2.8381512  10.0000000  )
         4           Y1  tau(   4) = (   3.2772147   0.0000000  10.0000000  )
         5           Cd1 tau(   5) = (   3.2772147   1.8921008  12.6758346  )
         6           Cd1 tau(   6) = (   1.6386074   4.7302520  12.6758346  )
         7           Cd1 tau(   7) = (  -1.6386074   4.7302520  12.6758346  )
         8           Y1  tau(   8) = (   0.0000000   1.8921008  12.6758346  )
         9           Cd1 tau(   9) = (   0.0000190   3.8383544  15.3594267  )
        10           Cd1 tau(  10) = (   1.6855669   0.9188877  15.3595022  )
        11           Cd1 tau(  11) = (   4.8689246   0.9189501  15.3594036  )
        12           Y1  tau(  12) = (   3.2772148   3.7841944  15.2903942  )

     number of k points=    20  Fermi-Dirac smearing, width (Ry)=  0.0110
                       cart. coord. in units 2pi/alat
        k(    1) = (   0.0000000   0.0000000   0.0000000), wk =   0.0555556
        k(    2) = (   0.0000000   0.0293618   0.0000000), wk =   0.1111111
        k(    3) = (   0.0000000   0.0587237   0.0000000), wk =   0.1111111
        k(    4) = (   0.0000000  -0.0880855   0.0000000), wk =   0.0555556
        k(    5) = (   0.0254281   0.0146809   0.0000000), wk =   0.1111111
        k(    6) = (   0.0254281   0.0440428   0.0000000), wk =   0.1111111
        k(    7) = (   0.0254281   0.0734046   0.0000000), wk =   0.1111111
        k(    8) = (   0.0254281  -0.0734046   0.0000000), wk =   0.1111111
        k(    9) = (   0.0254281  -0.0440428   0.0000000), wk =   0.1111111
        k(   10) = (   0.0254281  -0.0146809   0.0000000), wk =   0.1111111
        k(   11) = (   0.0508562   0.0293618   0.0000000), wk =   0.1111111
        k(   12) = (   0.0508562   0.0587237   0.0000000), wk =   0.1111111
        k(   13) = (   0.0508562   0.0880855   0.0000000), wk =   0.1111111
        k(   14) = (   0.0508562  -0.0587237   0.0000000), wk =   0.1111111
        k(   15) = (   0.0508562  -0.0293618   0.0000000), wk =   0.1111111
        k(   16) = (   0.0508562   0.0000000   0.0000000), wk =   0.1111111
        k(   17) = (  -0.0762843  -0.0440428   0.0000000), wk =   0.0555556
        k(   18) = (  -0.0762843  -0.0146809   0.0000000), wk =   0.1111111
        k(   19) = (  -0.0762843   0.0146809   0.0000000), wk =   0.1111111
        k(   20) = (  -0.0762843  -0.1321283   0.0000000), wk =   0.0555556

     Largest allocated arrays     est. size (Mb)     dimensions
     Largest temporary arrays     est. size (Mb)     dimensions

     Initial potential from superposition of free atoms
     Check: negative starting charge=   -0.195833

     starting charge  136.48622, renormalised to  141.00000

[...]

     *
     * You are using vdW-DF for exchange-correlation in this calculation.
     * Please cite the following three references that made this development
     * possible:
     *
     *   M. Dion, H. Rydberg, E. Schroder, D. C. Langreth, and
     *   B. I. Lundqvist, Phys. Rev. Lett. 92, 246401 (2004).
     *
     *   T. Thonhauser, V. R. Cooper, S. Li, A. Puzder, P. Hyldgaard, and
     *   D. C. Langreth, Phys. Rev. B 76, 125112 (2007).
     *
     *   G. Roman-Perez and J. M. Soler, Phys. Rev. Lett. 103, 096102 (2009).
     *
     *
     * If you are using vdW-DF2, please also cite:
     *
     *   K. Lee, E. D. Murray, L. Kong, B. I. Lundqvist, and
     *   D. C. Langreth, Phys. Rev. B 82, 081101(R) (2010).
     *
     *
     * If you are calculating the stress with vdW-DF, please also cite:
     *
     *   R. Sabatini, E. Kucukbenli, B. Kolb, T. Thonhauser, and
     *   S. de Gironcoli, J. Phys.: Condens. Matter 24, 424209 (2012).
     *

     Carrying out vdW-DF run using the following parameters:

     Nqs =      20    Nr_points =    1024   r_max =   100.000
     q_mesh =
               0.00001000     0.04494208     0.09755937     0.15916263
               0.23128650     0.31572767     0.41458969     0.53033537
               0.66584808     0.82450364     1.01025438     1.22772762
               1.48234092     1.78043706     2.12944203     2.53805004
               3.01644009     3.57652955     4.23227104     5.00000000

     Gradients computed in reciprocal space

[...]

     Starting wfc are  120 randomized atomic wfcs

     Self-consistent Calculation

[...]

     Threshold (ethr) on eigenvalues was too large:
     Diagonalizing with lowered threshold

     Davidson diagonalization with overlap
     ethr =  5.32E-04,  avg # of iterations =  7.7

[...]

     total energy              =   -1326.00058529 Ry
     Harris-Foulkes estimate   =   -1326.00059238 Ry
     estimated scf accuracy    <       0.00000449 Ry

     iteration # 14     ecut=    36.75 Ry     beta=0.10
     Davidson diagonalization with overlap
     ethr =  3.18E-09,  avg # of iterations =  3.8

[...]

     negative rho (up, down):  2.026E-01 0.000E+00

     Adding external electric field

     Computed dipole along edir(3) :
        Dipole               -0.0115 Ry au,         -0.0291 Debye
        Dipole field         -0.0000 Ry au

        Potential amp.        0.0021 Ry
        Total length         46.7100 bohr

     End of self-consistent calculation

[...]

          k = 0.0509 0.0000 0.0000 ( 23940 PWs)   bands (ev):

[...]

          k =-0.0763-0.1321 0.0000 ( 23968 PWs)   bands (ev):

   -43.0837 -43.0317 -42.8129 -23.1115 -23.0611 -22.9493 -22.9472 -22.9035
   -22.9013 -22.8029 -22.7203 -22.7180  -8.3145  -8.2801  -8.2541  -8.2067
    -8.1947  -8.1751  -8.1686  -8.1496  -8.1269  -8.1156  -8.1138  -8.1085
    -8.0975  -8.0686  -8.0342  -8.0156  -8.0089  -7.9973  -7.9711  -7.9602
    -7.9545  -7.9446  -7.9394  -7.9333  -7.9312  -7.9185  -7.9064  -7.8701
    -7.8634  -7.8371  -7.8267  -7.8219  -7.8165  -7.7986  -7.7815  -7.7789
    -7.7732  -7.7514  -7.7449  -7.7447  -7.7255  -7.6952  -7.6001  -7.5649
    -7.4823  -4.8899  -4.7383  -3.6558  -3.4309  -2.4814  -2.1956  -1.7861
    -1.2601  -1.0320  -0.5325   0.3714   0.3892   0.7641   0.8051   0.8315
     1.1256   1.2388   1.5191   1.7440   1.8707   2.2653   2.8423   3.2306
     3.3131   3.3670   3.4667   3.5389   3.5692   3.7358   3.8844   4.3730
     4.4629   4.5183   4.5427   4.7685   4.9657   5.0063   5.2246   5.2739
     5.3833   5.4808   5.5288   5.7472

     the Fermi energy is     0.7946 ev

!    total energy              =   -1326.00055721 Ry
     Harris-Foulkes estimate   =   -1326.00058650 Ry
     estimated scf accuracy    <       0.00000089 Ry

     The total energy is the sum of the following terms:

     one-electron contribution =   -7533.99418171 Ry
     hartree contribution      =    3835.44179197 Ry
     xc contribution           =    -451.82758374 Ry
     ewald contribution        =    2824.43506429 Ry
     electric field correction =       0.00000026 Ry
     smearing contrib. (-TS)   =      -0.05564828 Ry

     convergence has been achieved in  14 iterations

 BEEF-vdW xc energy contributions
           1 :   -395.649733521854
           2 :    360.679515931095
           3 :   -301.383373148377
           4 :    234.088471560536
           5 :   -173.912148642213
           6 :    129.545135665957
           7 :   -101.837610455259
           8 :    86.0601510537231
           9 :   -75.9655992963447
          10 :    67.2696376079004
          11 :   -58.9479080772006
          12 :    52.2396474621315
          13 :   -48.5619152489470
          14 :    47.9092587308658
          15 :   -48.6542722130490
          16 :    48.5744148942248
          17 :   -46.1974554818050
          18 :    41.5491284994006
          19 :   -35.9386207104449
          20 :    31.0677743488955
          21 :   -28.0937762305529
          22 :    27.1713039097643
          23 :   -27.6138936943366
          24 :    28.4375346611520
          25 :   -28.9019844907145
          26 :    28.7681305486431
          27 :   -28.2204803977801
          28 :    27.5954936919833
          29 :   -27.1166830915415
          30 :    26.7751248348912
          31 :   -35.9856425136385
          32 :   -25.9119292787886

     Forces acting on atoms (Ry/au):

     negative rho (up, down):  2.026E-01 0.000E+00
     atom    1 type  1   force =     0.00000755   -0.00709845   -0.00070736
     atom    2 type  1   force =    -0.00615482    0.00356863   -0.00072218
     atom    3 type  1   force =     0.00615919    0.00355864   -0.00071818
     atom    4 type  2   force =     0.00000204    0.00000389    0.00649317
     atom    5 type  1   force =    -0.00000130   -0.00101178   -0.00226499
     atom    6 type  1   force =    -0.00089686    0.00050966   -0.00226191
     atom    7 type  1   force =     0.00086260    0.00050517   -0.00226635
     atom    8 type  2   force =     0.00000438    0.00000188    0.00413768
     atom    9 type  1   force =    -0.00000607    0.00035402   -0.00012965
     atom   10 type  1   force =     0.00030829   -0.00019671   -0.00011514
     atom   11 type  1   force =    -0.00028779   -0.00019017   -0.00012667
     atom   12 type  2   force =     0.00000280   -0.00000477   -0.00131843

     Total force =     0.015266     Total SCF correction =     0.003397
     SCF correction compared to forces is large: reduce conv_thr to get better values

     entering subroutine stress ...

     negative rho (up, down):  2.026E-01 0.000E+00
          total   stress  (Ry/bohr**3)                   (kbar)     P=   -5.05
  -0.00004044   0.00000000  -0.00000000         -5.95      0.00     -0.00
   0.00000000  -0.00004044   0.00000000          0.00     -5.95      0.00
  -0.00000000   0.00000000  -0.00002205         -0.00      0.00     -3.24

 !ASE

     Writing output data file calc.save

     General routines

     Parallel routines

   This run was terminated on:   3:15:21  20Dec2018

   JOB DONE.
Job  /afs/slac/g/suncat/bin/suncat-tsmpirun -x LD_LIBRARY_PATH -wdir /scratch/qe773484_KtuGa pw.x -in pw.inp

TID   HOST_NAME   COMMAND_LINE            STATUS            TERMINATION_TIME
00000 suncat0156 pw.x -in pw.inp   Done                     12/20/2018 03:15:21
00001 suncat0156 pw.x -in pw.inp   Done                     12/20/2018 03:15:21
00002 suncat0156 pw.x -in pw.inp   Done                     12/20/2018 03:15:21
00003 suncat0156 pw.x -in pw.inp   Done                     12/20/2018 03:15:21
00004 suncat0156 pw.x -in pw.inp   Done                     12/20/2018 03:15:21
00005 suncat0156 pw.x -in pw.inp   Done                     12/20/2018 03:15:21
00006 suncat0156 pw.x -in pw.inp   Done                     12/20/2018 03:15:21
00007 suncat0156 pw.x -in pw.inp   Done                     12/20/2018 03:15:21
00008 suncat0153 pw.x -in pw.inp   Done                     12/20/2018 03:15:21
00009 suncat0153 pw.x -in pw.inp   Done                     12/20/2018 03:15:21
00010 suncat0153 pw.x -in pw.inp   Done                     12/20/2018 03:15:21
00011 suncat0153 pw.x -in pw.inp   Done                     12/20/2018 03:15:21
00012 suncat0153 pw.x -in pw.inp   Done                     12/20/2018 03:15:21
00013 suncat0153 pw.x -in pw.inp   Done                     12/20/2018 03:15:21
00014 suncat0153 pw.x -in pw.inp   Done                     12/20/2018 03:15:21
00015 suncat0153 pw.x -in pw.inp   Done                     12/20/2018 03:15:21
00016 suncat0152 pw.x -in pw.inp   Done                     12/20/2018 03:15:21
00017 suncat0152 pw.x -in pw.inp   Done                     12/20/2018 03:15:21
00018 suncat0152 pw.x -in pw.inp   Done                     12/20/2018 03:15:21
00019 suncat0152 pw.x -in pw.inp   Done                     12/20/2018 03:15:21
00020 suncat0152 pw.x -in pw.inp   Done                     12/20/2018 03:15:21
00021 suncat0152 pw.x -in pw.inp   Done                     12/20/2018 03:15:21
00022 suncat0152 pw.x -in pw.inp   Done                     12/20/2018 03:15:21
00023 suncat0152 pw.x -in pw.inp   Done                     12/20/2018 03:15:21
00024 suncat0150 pw.x -in pw.inp   Done                     12/20/2018 03:15:21
00025 suncat0150 pw.x -in pw.inp   Done                     12/20/2018 03:15:21
00026 suncat0150 pw.x -in pw.inp   Done                     12/20/2018 03:15:21
00027 suncat0150 pw.x -in pw.inp   Done                     12/20/2018 03:15:21
00028 suncat0150 pw.x -in pw.inp   Done                     12/20/2018 03:15:21
00029 suncat0150 pw.x -in pw.inp   Done                     12/20/2018 03:15:21
00030 suncat0150 pw.x -in pw.inp   Done                     12/20/2018 03:15:21
00031 suncat0150 pw.x -in pw.inp   Done                     12/20/2018 03:15:21
00032 suncat0252 pw.x -in pw.inp   Done                     12/20/2018 03:15:21
00033 suncat0252 pw.x -in pw.inp   Done                     12/20/2018 03:15:21
00034 suncat0252 pw.x -in pw.inp   Done                     12/20/2018 03:15:21
00035 suncat0252 pw.x -in pw.inp   Done                     12/20/2018 03:15:21
00036 suncat0252 pw.x -in pw.inp   Done                     12/20/2018 03:15:21
00037 suncat0252 pw.x -in pw.inp   Done                     12/20/2018 03:15:21
00038 suncat0252 pw.x -in pw.inp   Done                     12/20/2018 03:15:21
00039 suncat0252 pw.x -in pw.inp   Done                     12/20/2018 03:15:21
00040 suncat0251 pw.x -in pw.inp   Done                     12/20/2018 03:15:21
00041 suncat0251 pw.x -in pw.inp   Done                     12/20/2018 03:15:21
00042 suncat0251 pw.x -in pw.inp   Done                     12/20/2018 03:15:21
00043 suncat0251 pw.x -in pw.inp   Done                     12/20/2018 03:15:21
00044 suncat0251 pw.x -in pw.inp   Done                     12/20/2018 03:15:21
00045 suncat0251 pw.x -in pw.inp   Done                     12/20/2018 03:15:21
00046 suncat0251 pw.x -in pw.inp   Done                     12/20/2018 03:15:21
00047 suncat0251 pw.x -in pw.inp   Done                     12/20/2018 03:15:21
00048 suncat0250 pw.x -in pw.inp   Done                     12/20/2018 03:15:21
00049 suncat0250 pw.x -in pw.inp   Done                     12/20/2018 03:15:21
00050 suncat0250 pw.x -in pw.inp   Done                     12/20/2018 03:15:21
00051 suncat0250 pw.x -in pw.inp   Done                     12/20/2018 03:15:21
00052 suncat0250 pw.x -in pw.inp   Done                     12/20/2018 03:15:21
00053 suncat0250 pw.x -in pw.inp   Done                     12/20/2018 03:15:21
00054 suncat0250 pw.x -in pw.inp   Done                     12/20/2018 03:15:21
00055 suncat0250 pw.x -in pw.inp   Done                     12/20/2018 03:15:21
00056 suncat0249 pw.x -in pw.inp   Done                     12/20/2018 03:15:21
00057 suncat0249 pw.x -in pw.inp   Done                     12/20/2018 03:15:21
00058 suncat0249 pw.x -in pw.inp   Done                     12/20/2018 03:15:21
00059 suncat0249 pw.x -in pw.inp   Done                     12/20/2018 03:15:21
00060 suncat0249 pw.x -in pw.inp   Done                     12/20/2018 03:15:21
00061 suncat0249 pw.x -in pw.inp   Done                     12/20/2018 03:15:21
00062 suncat0249 pw.x -in pw.inp   Done                     12/20/2018 03:15:21
00063 suncat0249 pw.x -in pw.inp   Done                     12/20/2018 03:15:21