     Program PWSCF v.5.1rc2 (svn rev. 11289) starts on 28Dec2018 at  1:44:26

     Current dimensions of program PWSCF are:
     Max number of different atomic species (ntypx) = 10
     Max number of k-points (npk) =  40000
     Max angular momentum in pseudopotentials (lmaxx) =  3
     Presently stress not available with electric field

     IMPORTANT: XC functional enforced from input :
     Exchange-correlation      = BEEF-VDW ( 1  4 27 13 2)
     Any further DFT definition will be discarded
     Please, verify this is what you really want

     Subspace diagonalization in iterative solution of the eigenvalue problem:
     a serial algorithm will be used

     bravais-lattice index     =            0
     lattice parameter (alat)  =       1.8897  a.u.
     unit-cell volume          =    4406.5002 (a.u.)^3
     number of atoms/cell      =           12
     number of atomic types    =            2
     number of electrons       =       177.00
     number of Kohn-Sham states=          118
     kinetic-energy cutoff     =      36.7493  Ry
     charge density cutoff     =     367.4932  Ry
     convergence threshold     =      1.0E-06
     mixing beta               =       0.1000
     number of iterations used =           10  plain     mixing
     Exchange-correlation      = BEEF-VDW ( 1  4 27 13 2)
     nstep                     =           50

     celldm(1)=   1.889726  celldm(2)=   0.000000  celldm(3)=   0.000000
     celldm(4)=   0.000000  celldm(5)=   0.000000  celldm(6)=   0.000000

     crystal axes: (cart. coord. in units of alat)
               a(1) = (   5.544478   0.000000   0.000000 )
               a(2) = (  -2.772239   4.801659   0.000000 )
               a(3) = (   0.000000   0.000000  24.527047 )

     reciprocal axes: (cart. coord. in units 2 pi/alat)
               b(1) = (  0.180360  0.104131  0.000000 )
               b(2) = (  0.000000  0.208261  0.000000 )
               b(3) = (  0.000000  0.000000  0.040771 )

     PseudoPot. # 1 for Tc read from file:
     /afs/slac.stanford.edu/u/if/mamunm/psp/gbrv1.5pbe/Tc.UPF
     MD5 check sum: 9eb49e5b028550b2339a02317eb7b844
     Pseudo is Ultrasoft + core correction, Zval = 15.0
     Generated by new atomic code, or converted to UPF format
     Using radial grid of  965 points,  6 beta functions with:
                l(1) =   0
                l(2) =   0
                l(3) =   1
                l(4) =   1
                l(5) =   2
                l(6) =   2
     Q(r) pseudized with  8 coefficients,  rinner =    1.300   1.300   1.300
                                                       1.300   1.300

     PseudoPot. # 2 for W  read from file:
     /afs/slac.stanford.edu/u/if/mamunm/psp/gbrv1.5pbe/W.UPF
     MD5 check sum: 9c083fa34c2a2ea0f02f1f893e16e1c8
     Pseudo is Ultrasoft + core correction, Zval = 14.0
     Generated by new atomic code, or converted to UPF format
     Using radial grid of  923 points,  8 beta functions with:
                l(1) =   0
                l(2) =   0
                l(3) =   0
                l(4) =   1
                l(5) =   1
                l(6) =   2
                l(7) =   2
                l(8) =   3
     Q(r) pseudized with  6 coefficients,  rinner =    1.350   1.350   1.350
                                                       1.350   1.350   1.350
                                                       1.350

     vdW kernel table read from file vdW_kernel_table
     MD5 check sum: 095c7af220d748ca6e76c0b4c6cfb241

     atomic species   valence    mass     pseudopotential
        Tc1           15.00    97.90721     Tc( 1.00)
        W1            14.00   183.84000     W ( 1.00)

     No symmetry found

   Cartesian axes

     site n.     atom                  positions (alat units)
         1           Tc1 tau(   1) = (   0.0000000   0.0000000  10.0000000  )
         2           Tc1 tau(   2) = (  -1.3861194   2.4008293  10.0000000  )
         3           Tc1 tau(   3) = (   1.3861194   2.4008293  10.0000000  )
         4           W1  tau(   4) = (   2.7722389   0.0000000  10.0000000  )
         5           Tc1 tau(   5) = (   2.7722389   1.6005529  12.2635236  )
         6           Tc1 tau(   6) = (   1.3861194   4.0013822  12.2635236  )
         7           Tc1 tau(   7) = (  -1.3861194   4.0013822  12.2635236  )
         8           W1  tau(   8) = (   0.0000000   1.6005529  12.2635236  )
         9           Tc1 tau(   9) = (  -0.0000000   3.2011057  14.5270472  )
        10           Tc1 tau(  10) = (   1.3861194   0.8002764  14.5270472  )
        11           Tc1 tau(  11) = (   4.1583583   0.8002764  14.5270472  )
        12           W1  tau(  12) = (   2.7722389   3.2011057  14.5270472  )

     number of k points=    20  Fermi-Dirac smearing, width (Ry)=  0.0110
                       cart. coord. in units 2pi/alat
        k(    1) = (   0.0000000   0.0000000   0.0000000), wk =   0.0555556
        k(    2) = (   0.0000000   0.0347102   0.0000000), wk =   0.1111111
        k(    3) = (   0.0000000   0.0694205   0.0000000), wk =   0.1111111
        k(    4) = (   0.0000000  -0.1041307   0.0000000), wk =   0.0555556
        k(    5) = (   0.0300599   0.0173551   0.0000000), wk =   0.1111111
        k(    6) = (   0.0300599   0.0520653   0.0000000), wk =   0.1111111
        k(    7) = (   0.0300599   0.0867756   0.0000000), wk =   0.1111111
        k(    8) = (   0.0300599  -0.0867756   0.0000000), wk =   0.1111111
        k(    9) = (   0.0300599  -0.0520653   0.0000000), wk =   0.1111111
        k(   10) = (   0.0300599  -0.0173551   0.0000000), wk =   0.1111111
        k(   11) = (   0.0601199   0.0347102   0.0000000), wk =   0.1111111
        k(   12) = (   0.0601199   0.0694205   0.0000000), wk =   0.1111111
        k(   13) = (   0.0601199   0.1041307   0.0000000), wk =   0.1111111
        k(   14) = (   0.0601199  -0.0694205   0.0000000), wk =   0.1111111
        k(   15) = (   0.0601199  -0.0347102   0.0000000), wk =   0.1111111
        k(   16) = (   0.0601199   0.0000000   0.0000000), wk =   0.1111111
        k(   17) = (  -0.0901798  -0.0520653   0.0000000), wk =   0.0555556
        k(   18) = (  -0.0901798  -0.0173551   0.0000000), wk =   0.1111111
        k(   19) = (  -0.0901798   0.0173551   0.0000000), wk =   0.1111111
        k(   20) = (  -0.0901798  -0.1561960   0.0000000), wk =   0.0555556

     Largest allocated arrays     est. size (Mb)     dimensions
     Largest temporary arrays     est. size (Mb)     dimensions

     Check: negative/imaginary core charge=   -0.000016    0.000000

     Initial potential from superposition of free atoms
     Check: negative starting charge=   -1.321918

     starting charge  167.69873, renormalised to  177.00000

     negative rho (up, down):  1.395E+00 0.000E+00

     *
     * You are using vdW-DF for exchange-correlation in this calculation.
     * Please cite the following three references that made this development
     * possible:
     *
     *   M. Dion, H. Rydberg, E. Schroder, D. C. Langreth, and
     *   B. I. Lundqvist, Phys. Rev. Lett. 92, 246401 (2004).
     *
     *   T. Thonhauser, V. R. Cooper, S. Li, A. Puzder, P. Hyldgaard, and
     *   D. C. Langreth, Phys. Rev. B 76, 125112 (2007).
     *
     *   G. Roman-Perez and J. M. Soler, Phys. Rev. Lett. 103, 096102 (2009).
     *
     *
     * If you are using vdW-DF2, please also cite:
     *
     *   K. Lee, E. D. Murray, L. Kong, B. I. Lundqvist, and
     *   D. C. Langreth, Phys. Rev. B 82, 081101(R) (2010).
     *
     *
     * If you are calculating the stress with vdW-DF, please also cite:
     *
     *   R. Sabatini, E. Kucukbenli, B. Kolb, T. Thonhauser, and
     *   S. de Gironcoli, J. Phys.: Condens. Matter 24, 424209 (2012).
     *

     Carrying out vdW-DF run using the following parameters:

     Nqs =      20    Nr_points =    1024   r_max =   100.000
     q_mesh =
               0.00001000     0.04494208     0.09755937     0.15916263
               0.23128650     0.31572767     0.41458969     0.53033537
               0.66584808     0.82450364     1.01025438     1.22772762
               1.48234092     1.78043706     2.12944203     2.53805004
               3.01644009     3.57652955     4.23227104     5.00000000

     Gradients computed in reciprocal space

     Adding external electric field

     Computed dipole along edir(3) :
        Dipole                0.0000 Ry au,          0.0000 Debye
        Dipole field          0.0000 Ry au

        Potential amp.       -0.0000 Ry
        Total length         45.1907 bohr

     Starting wfc are  156 randomized atomic wfcs

     Self-consistent Calculation

     iteration #  1     ecut=    36.75 Ry     beta=0.10
     Davidson diagonalization with overlap
     ethr =  1.00E-02,  avg # of iterations =  6.5

[...]

     total energy              =   -2060.25367098 Ry
     Harris-Foulkes estimate   =   -2061.44832255 Ry
     estimated scf accuracy    <       8.09895238 Ry

[...]

     End of self-consistent calculation

          k = 0.0000 0.0000 0.0000 ( 16547 PWs)   bands (ev):

   -72.0422 -72.0421 -72.0088 -64.6759 -64.5805 -64.5804 -64.5012 -64.4910
   -64.4137 -64.4137 -64.4111 -64.4111 -37.1055 -37.0557 -37.0557 -36.9948
   -36.9215 -36.9214 -36.9044 -36.8568 -36.7776 -36.7776 -36.5693 -36.5074
   -36.5074 -36.4712 -36.4712 -36.4674 -36.4006 -36.3529 -36.3529 -36.3226
   -36.3226 -36.2168 -36.2013 -36.1873 -36.1694 -36.1694 -36.1653 -36.1653
   -36.0593 -35.9153 -35.8817 -35.8816 -35.8075 -35.8075 -35.7945 -35.7945
    -4.6263  -3.1171  -2.9843  -2.6927  -2.6927  -2.6363  -2.3553  -2.2144
    -2.2144  -2.0054  -2.0054  -1.9863  -1.7417  -1.6830  -1.6830  -0.5032
    -0.5032  -0.5000   0.3650   0.3650   0.4080   0.5937   0.6678   1.0053
     1.0053   1.2049   1.3028   1.3028   1.4978   1.4978   1.5489   1.5489
     1.6680   1.6680   1.9293   2.0460   2.7791   2.8519   2.8519   3.0498
     3.0498   3.2052   3.2519   3.3731   3.3731   4.1992   4.1992   4.2014
     4.2014   4.4138   4.6839   4.6839   4.8116   4.8680   5.1317   5.1670
     5.1670   5.3467   5.3467   5.3894   5.4754   6.0242   6.0243   6.2428
     6.2428   6.2789   6.4317   6.4317   6.5463   6.9841

[...]

          k =-0.0902-0.0521 0.0000 ( 16572 PWs)   bands (ev):

[...]

     the Fermi energy is     2.3861 ev

!    total energy              =   -2058.71256992 Ry
     Harris-Foulkes estimate   =   -2058.71256426 Ry
     estimated scf accuracy    <       0.00000079 Ry

     The total energy is the sum of the following terms:

     one-electron contribution =  -17468.26747622 Ry
     hartree contribution      =    8728.70159421 Ry
     xc contribution           =    -425.20402117 Ry
     ewald contribution        =    7106.13693246 Ry
     electric field correction =       0.00000000 Ry
     smearing contrib. (-TS)   =      -0.07959921 Ry

     convergence has been achieved in  17 iterations

 BEEF-vdW xc energy contributions
           1 :   -373.121889223375
           2 :    343.770449544393
           3 :   -291.661066675099
           4 :    227.494577426963
           5 :   -162.673559969255
           6 :    106.052805269720
           7 :   -62.1314474152682
           8 :    31.0065470861092
[...]
     Generated by new atomic code, or converted to UPF format
     Using radial grid of  965 points,  6 beta functions with:
                l(1) =   0
                l(2) =   0
                l(3) =   1
                l(4) =   1
                l(5) =   2
                l(6) =   2
     Q(r) pseudized with  8 coefficients,  rinner =    1.300   1.300   1.300
                                                       1.300   1.300

     PseudoPot. # 2 for W  read from file:
     /afs/slac.stanford.edu/u/if/mamunm/psp/gbrv1.5pbe/W.UPF
     MD5 check sum: 9c083fa34c2a2ea0f02f1f893e16e1c8
     Pseudo is Ultrasoft + core correction, Zval = 14.0
     Generated by new atomic code, or converted to UPF format
     Using radial grid of  923 points,  8 beta functions with:
                l(1) =   0
                l(2) =   0
                l(3) =   0
                l(4) =   1
                l(5) =   1
                l(6) =   2
                l(7) =   2
                l(8) =   3
     Q(r) pseudized with  6 coefficients,  rinner =    1.350   1.350   1.350
                                                       1.350   1.350   1.350
                                                       1.350

     vdW kernel table read from file vdW_kernel_table
     MD5 check sum: 095c7af220d748ca6e76c0b4c6cfb241

     atomic species   valence    mass     pseudopotential
        Tc1           15.00    97.90721     Tc( 1.00)
        W1            14.00   183.84000     W ( 1.00)

     No symmetry found

   Cartesian axes

     site n.     atom                  positions (alat units)
         1           Tc1 tau(   1) = (   0.0000000   0.0000000  10.0000000  )
         2           Tc1 tau(   2) = (  -1.3861194   2.4008293  10.0000000  )
         3           Tc1 tau(   3) = (   1.3861194   2.4008293  10.0000000  )
         4           W1  tau(   4) = (   2.7722389   0.0000000  10.0000000  )
         5           Tc1 tau(   5) = (   2.7722389   1.6005529  12.2635236  )
         6           Tc1 tau(   6) = (   1.3861194   4.0013822  12.2635236  )
         7           Tc1 tau(   7) = (  -1.3861194   4.0013822  12.2635236  )
         8           W1  tau(   8) = (   0.0000000   1.6005529  12.2635236  )
         9           Tc1 tau(   9) = (  -0.0000008   3.2042898  14.4360104  )
        10           Tc1 tau(  10) = (   1.3888837   0.7986871  14.4360090  )
        11           Tc1 tau(  11) = (   4.1556022   0.7986918  14.4360043  )
        12           W1  tau(  12) = (   2.7722405   3.2011019  14.3662667  )

     number of k points=    20  Fermi-Dirac smearing, width (Ry)=  0.0110
                       cart. coord. in units 2pi/alat
        k(    1) = (   0.0000000   0.0000000   0.0000000), wk =   0.0555556
        k(    2) = (   0.0000000   0.0347102   0.0000000), wk =   0.1111111
        k(    3) = (   0.0000000   0.0694205   0.0000000), wk =   0.1111111
        k(    4) = (   0.0000000  -0.1041307   0.0000000), wk =   0.0555556
        k(    5) = (   0.0300599   0.0173551   0.0000000), wk =   0.1111111
        k(    6) = (   0.0300599   0.0520653   0.0000000), wk =   0.1111111
        k(    7) = (   0.0300599   0.0867756   0.0000000), wk =   0.1111111
        k(    8) = (   0.0300599  -0.0867756   0.0000000), wk =   0.1111111
        k(    9) = (   0.0300599  -0.0520653   0.0000000), wk =   0.1111111
        k(   10) = (   0.0300599  -0.0173551   0.0000000), wk =   0.1111111
        k(   11) = (   0.0601199   0.0347102   0.0000000), wk =   0.1111111
        k(   12) = (   0.0601199   0.0694205   0.0000000), wk =   0.1111111
        k(   13) = (   0.0601199   0.1041307   0.0000000), wk =   0.1111111
        k(   14) = (   0.0601199  -0.0694205   0.0000000), wk =   0.1111111
        k(   15) = (   0.0601199  -0.0347102   0.0000000), wk =   0.1111111
        k(   16) = (   0.0601199   0.0000000   0.0000000), wk =   0.1111111
        k(   17) = (  -0.0901798  -0.0520653   0.0000000), wk =   0.0555556
        k(   18) = (  -0.0901798  -0.0173551   0.0000000), wk =   0.1111111
        k(   19) = (  -0.0901798   0.0173551   0.0000000), wk =   0.1111111
        k(   20) = (  -0.0901798  -0.1561960   0.0000000), wk =   0.0555556

     Largest allocated arrays     est. size (Mb)     dimensions
     Largest temporary arrays     est. size (Mb)     dimensions

     Check: negative/imaginary core charge=   -0.000016    0.000000

     Initial potential from superposition of free atoms
     Check: negative starting charge=   -1.321738

     starting charge  167.69873, renormalised to  177.00000

[...]

     *
     * You are using vdW-DF for exchange-correlation in this calculation.
     * Please cite the following three references that made this development
     * possible:
     *
     *   M. Dion, H. Rydberg, E. Schroder, D. C. Langreth, and
     *   B. I. Lundqvist, Phys. Rev. Lett. 92, 246401 (2004).
     *
     *   T. Thonhauser, V. R. Cooper, S. Li, A. Puzder, P. Hyldgaard, and
     *   D. C. Langreth, Phys. Rev. B 76, 125112 (2007).
     *
     *   G. Roman-Perez and J. M. Soler, Phys. Rev. Lett. 103, 096102 (2009).
     *
     *
     * If you are using vdW-DF2, please also cite:
     *
     *   K. Lee, E. D. Murray, L. Kong, B. I. Lundqvist, and
     *   D. C. Langreth, Phys. Rev. B 82, 081101(R) (2010).
     *
     *
     * If you are calculating the stress with vdW-DF, please also cite:
     *
     *   R. Sabatini, E. Kucukbenli, B. Kolb, T. Thonhauser, and
     *   S. de Gironcoli, J. Phys.: Condens. Matter 24, 424209 (2012).
     *

     Carrying out vdW-DF run using the following parameters:

     Nqs =      20    Nr_points =    1024   r_max =   100.000
     q_mesh =
               0.00001000     0.04494208     0.09755937     0.15916263
               0.23128650     0.31572767     0.41458969     0.53033537
               0.66584808     0.82450364     1.01025438     1.22772762
               1.48234092     1.78043706     2.12944203     2.53805004
               3.01644009     3.57652955     4.23227104     5.00000000

     Gradients computed in reciprocal space

[...]

     Starting wfc are  156 randomized atomic wfcs

     Self-consistent Calculation

[...]

     total energy              =   -2058.72726031 Ry
     Harris-Foulkes estimate   =   -2058.72725939 Ry
     estimated scf accuracy    <       0.00000186 Ry

     iteration # 17     ecut=    36.75 Ry     beta=0.10
     Davidson diagonalization with overlap
     ethr =  1.05E-09,  avg # of iterations =  2.0

[...]

     negative rho (up, down):  1.389E+00 0.000E+00

     Adding external electric field

     Computed dipole along edir(3) :
        Dipole                0.0335 Ry au,          0.0853 Debye
        Dipole field          0.0001 Ry au

        Potential amp.       -0.0086 Ry
        Total length         45.1907 bohr

     End of self-consistent calculation

[...]

          k = 0.0601 0.0000 0.0000 ( 16548 PWs)   bands (ev):

[...]

          k =-0.0902-0.1562 0.0000 ( 16572 PWs)   bands (ev):

   -72.0823 -71.9534 -71.8738 -64.6253 -64.5943 -64.5599 -64.4814 -64.4547
   -64.4265 -64.3883 -64.3614 -64.3335 -36.9770 -36.9273 -36.9001 -36.8808
   -36.8411 -36.7676 -36.7580 -36.7025 -36.6935 -36.6768 -36.5781 -36.5643
   -36.4635 -36.4569 -36.4441 -36.4240 -36.4076 -36.3988 -36.3648 -36.3430
   -36.3334 -36.3200 -36.3081 -36.2598 -36.2151 -36.1641 -36.1628 -36.0979
   -36.0790 -35.9989 -35.8871 -35.8774 -35.8643 -35.8620 -35.8091 -35.7203
    -3.1139  -2.8429  -1.9800  -1.9000  -1.7514  -1.7378  -1.6817  -1.4969
    -1.3883  -1.2922  -1.0987  -0.9845  -0.7955  -0.7759  -0.7269  -0.6435
    -0.2660  -0.2345  -0.1107  -0.0834   0.0573   0.2129   0.5993   0.7269
     0.8826   0.8861   0.9912   1.0016   1.0879   1.1072   1.1335   1.1648
     1.2706   1.3707   1.4691   1.4693   1.5067   1.5610   1.6499   1.7498
     2.2988   2.3636   2.4224   2.8132   2.8533   2.8938   2.9245   3.0487
     3.3823   3.3874   3.5933   3.6275   3.6450   3.7685   3.8113   4.0928
     4.3580   4.4100   4.7181   4.8796   5.0847   5.5814   5.6427   5.8663
     5.9449   6.2363   7.2840   7.4934   7.6007   7.6136

     the Fermi energy is     2.3986 ev

!    total energy              =   -2058.72726638 Ry
     Harris-Foulkes estimate   =   -2058.72726063 Ry
     estimated scf accuracy    <       0.00000057 Ry

     The total energy is the sum of the following terms:

     one-electron contribution =  -17738.40788712 Ry
     hartree contribution      =    8863.95952588 Ry
     xc contribution           =    -425.48791370 Ry
     ewald contribution        =    7241.28484874 Ry
     electric field correction =       0.00000321 Ry
     smearing contrib. (-TS)   =      -0.07584339 Ry

     convergence has been achieved in  17 iterations

 BEEF-vdW xc energy contributions
           1 :   -373.408649384422
           2 :    344.149591410416
           3 :   -292.166964383372
           4 :    228.070570506044
           5 :   -163.194767668766
           6 :    106.386245686912
           7 :   -62.2074509734477
           8 :    30.8598553577377
           9 :   -9.59263540530083
          10 :   -5.28900046719417
          11 :    16.6546544223007
          12 :   -25.6648079913588
          13 :    31.8721497986519
          14 :   -34.0647404450841
          15 :    31.3191543816912
          16 :   -23.7949214059206
          17 :    12.9414663956243
          18 :   -1.11292929789550
          19 :   -9.19863895493449
          20 :    16.1402626597364
          21 :   -18.9688445108078
          22 :    18.0519426006809
          23 :   -14.4756895876737
          24 :    9.48304342685071
          25 :   -4.02296790371884
          26 :   -1.41470611594906
          27 :    6.66584796469874
          28 :   -11.6088014303011
          29 :    15.9247159891262
          30 :   -19.0477946732287
          31 :   -34.9220798681762
          32 :   -25.8024593044333

     Forces acting on atoms (Ry/au):

     negative rho (up, down):  1.389E+00 0.000E+00
     atom    1 type  1   force =     0.00000004   -0.00098445    0.01437734
     atom    2 type  1   force =    -0.00085578    0.00049313    0.01437715
     atom    3 type  1   force =     0.00085575    0.00049388    0.01437777
     atom    4 type  2   force =     0.00000049    0.00000254    0.04209743
     atom    5 type  1   force =     0.00000197   -0.00421527   -0.02361400
     atom    6 type  1   force =    -0.00363821    0.00211581   -0.02362442
     atom    7 type  1   force =     0.00363829    0.00211412   -0.02362625
     atom    8 type  2   force =    -0.00000254   -0.00002400   -0.01376629
     atom    9 type  1   force =     0.00000218    0.00012398   -0.00014272
     atom   10 type  1   force =     0.00010384   -0.00006106   -0.00014132
     atom   11 type  1   force =    -0.00010384   -0.00006298   -0.00014003
     atom   12 type  2   force =    -0.00000220    0.00000430   -0.00017468

     Total force =     0.065666     Total SCF correction =     0.003478

     entering subroutine stress ...

     negative rho (up, down):  1.389E+00 0.000E+00
          total   stress  (Ry/bohr**3)                   (kbar)     P=  -29.12
  -0.00024051  -0.00000000  -0.00000000        -35.38     -0.00     -0.00
  -0.00000000  -0.00024051  -0.00000000         -0.00    -35.38     -0.00
  -0.00000000  -0.00000000  -0.00011274         -0.00     -0.00    -16.58

 !ASE

     Writing output data file calc.save

     General routines

     Parallel routines

   This run was terminated on:   2:49:40  28Dec2018

   JOB DONE.
Job  /afs/slac/g/suncat/bin/suncat-tsmpirun -x LD_LIBRARY_PATH -wdir /scratch/qe111095_DWrNx pw.x -in pw.inp

TID   HOST_NAME   COMMAND_LINE            STATUS            TERMINATION_TIME
00000 suncat0042 pw.x -in pw.inp   Done                     12/28/2018 02:49:40
00001 suncat0042 pw.x -in pw.inp   Done                     12/28/2018 02:49:40
00002 suncat0042 pw.x -in pw.inp   Done                     12/28/2018 02:49:40
00003 suncat0042 pw.x -in pw.inp   Done                     12/28/2018 02:49:40
00004 suncat0042 pw.x -in pw.inp   Done                     12/28/2018 02:49:40
00005 suncat0042 pw.x -in pw.inp   Done                     12/28/2018 02:49:40
00006 suncat0042 pw.x -in pw.inp   Done                     12/28/2018 02:49:40
00007 suncat0042 pw.x -in pw.inp   Done                     12/28/2018 02:49:40
00008 suncat0034 pw.x -in pw.inp   Done                     12/28/2018 02:49:40
00009 suncat0034 pw.x -in pw.inp   Done                     12/28/2018 02:49:40
00010 suncat0034 pw.x -in pw.inp   Done                     12/28/2018 02:49:40
00011 suncat0034 pw.x -in pw.inp   Done                     12/28/2018 02:49:40
00012 suncat0034 pw.x -in pw.inp   Done                     12/28/2018 02:49:40
00013 suncat0034 pw.x -in pw.inp   Done                     12/28/2018 02:49:40
00014 suncat0034 pw.x -in pw.inp   Done                     12/28/2018 02:49:40
00015 suncat0034 pw.x -in pw.inp   Done                     12/28/2018 02:49:40
00016 suncat0152 pw.x -in pw.inp   Done                     12/28/2018 02:49:40
00017 suncat0152 pw.x -in pw.inp   Done                     12/28/2018 02:49:40
00018 suncat0152 pw.x -in pw.inp   Done                     12/28/2018 02:49:40
00019 suncat0152 pw.x -in pw.inp   Done                     12/28/2018 02:49:40
00020 suncat0152 pw.x -in pw.inp   Done                     12/28/2018 02:49:40
00021 suncat0152 pw.x -in pw.inp   Done                     12/28/2018 02:49:40
00022 suncat0152 pw.x -in pw.inp   Done                     12/28/2018 02:49:40
00023 suncat0152 pw.x -in pw.inp   Done                     12/28/2018 02:49:40
00024 suncat0150 pw.x -in pw.inp   Done                     12/28/2018 02:49:40
00025 suncat0150 pw.x -in pw.inp   Done                     12/28/2018 02:49:40
00026 suncat0150 pw.x -in pw.inp   Done                     12/28/2018 02:49:40
00027 suncat0150 pw.x -in pw.inp   Done                     12/28/2018 02:49:40
00028 suncat0150 pw.x -in pw.inp   Done                     12/28/2018 02:49:40
00029 suncat0150 pw.x -in pw.inp   Done                     12/28/2018 02:49:40
00030 suncat0150 pw.x -in pw.inp   Done                     12/28/2018 02:49:40
00031 suncat0150 pw.x -in pw.inp   Done                     12/28/2018 02:49:40
00032 suncat0147 pw.x -in pw.inp   Done                     12/28/2018 02:49:40
00033 suncat0147 pw.x -in pw.inp   Done                     12/28/2018 02:49:40
00034 suncat0147 pw.x -in pw.inp   Done                     12/28/2018 02:49:40
00035 suncat0147 pw.x -in pw.inp   Done                     12/28/2018 02:49:40
00036 suncat0147 pw.x -in pw.inp   Done                     12/28/2018 02:49:40
00037 suncat0147 pw.x -in pw.inp   Done                     12/28/2018 02:49:40
00038 suncat0147 pw.x -in pw.inp   Done                     12/28/2018 02:49:40
00039 suncat0147 pw.x -in pw.inp   Done                     12/28/2018 02:49:40
00040 suncat0138 pw.x -in pw.inp   Done                     12/28/2018 02:49:40
00041 suncat0138 pw.x -in pw.inp   Done                     12/28/2018 02:49:40
00042 suncat0138 pw.x -in pw.inp   Done                     12/28/2018 02:49:40
00043 suncat0138 pw.x -in pw.inp   Done                     12/28/2018 02:49:40
00044 suncat0138 pw.x -in pw.inp   Done                     12/28/2018 02:49:40
00045 suncat0138 pw.x -in pw.inp   Done                     12/28/2018 02:49:40
00046 suncat0138 pw.x -in pw.inp   Done                     12/28/2018 02:49:40
00047 suncat0138 pw.x -in pw.inp   Done                     12/28/2018 02:49:40
00048 suncat0113 pw.x -in pw.inp   Done                     12/28/2018 02:49:40
00049 suncat0113 pw.x -in pw.inp   Done                     12/28/2018 02:49:40
00050 suncat0113 pw.x -in pw.inp   Done                     12/28/2018 02:49:40
00051 suncat0113 pw.x -in pw.inp   Done                     12/28/2018 02:49:40
00052 suncat0113 pw.x -in pw.inp   Done                     12/28/2018 02:49:40
00053 suncat0113 pw.x -in pw.inp   Done                     12/28/2018 02:49:40
00054 suncat0113 pw.x -in pw.inp   Done                     12/28/2018 02:49:40
00055 suncat0113 pw.x -in pw.inp   Done                     12/28/2018 02:49:40
00056 suncat0110 pw.x -in pw.inp   Done                     12/28/2018 02:49:40
00057 suncat0110 pw.x -in pw.inp   Done                     12/28/2018 02:49:40
00058 suncat0110 pw.x -in pw.inp   Done                     12/28/2018 02:49:40
00059 suncat0110 pw.x -in pw.inp   Done                     12/28/2018 02:49:40
00060 suncat0110 pw.x -in pw.inp   Done                     12/28/2018 02:49:40
00061 suncat0110 pw.x -in pw.inp   Done                     12/28/2018 02:49:40
00062 suncat0110 pw.x -in pw.inp   Done                     12/28/2018 02:49:40
00063 suncat0110 pw.x -in pw.inp   Done                     12/28/2018 02:49:40