     Program PWSCF v.5.1rc2 (svn rev. 11289) starts on  2Jan2019 at  7: 9:16

     Current dimensions of program PWSCF are:
     Max number of different atomic species (ntypx) = 10
     Max number of k-points (npk) =  40000
     Max angular momentum in pseudopotentials (lmaxx) =  3
     Presently stress not available with electric field

     IMPORTANT: XC functional enforced from input :
     Exchange-correlation      = BEEF-VDW ( 1  4 27 13 2)
     Any further DFT definition will be discarded
     Please, verify this is what you really want

     Subspace diagonalization in iterative solution of the eigenvalue problem:
     a serial algorithm will be used

     bravais-lattice index     =            0
     lattice parameter (alat)  =       1.8897  a.u.
     unit-cell volume          =    4771.5967 (a.u.)^3
     number of atoms/cell      =           12
     number of atomic types    =            2
     number of electrons       =       162.00
     number of Kohn-Sham states=          111
     kinetic-energy cutoff     =      36.7493  Ry
     charge density cutoff     =     367.4932  Ry
     convergence threshold     =      1.0E-06
     mixing beta               =       0.1000
     number of iterations used =           10  plain     mixing
     Exchange-correlation      = BEEF-VDW ( 1  4 27 13 2)
     nstep                     =           50

     celldm(1)=   1.889726  celldm(2)=   0.000000  celldm(3)=   0.000000
     celldm(4)=   0.000000  celldm(5)=   0.000000  celldm(6)=   0.000000

     crystal axes: (cart. coord. in units of alat)
               a(1) = (   5.749966   0.000000   0.000000 )
               a(2) = (  -2.874983   4.979616   0.000000 )
               a(3) = (   0.000000   0.000000  24.694827 )

     reciprocal axes: (cart. coord. in units 2 pi/alat)
               b(1) = (  0.173914  0.100409  0.000000 )
               b(2) = (  0.000000  0.200819  0.000000 )
               b(3) = (  0.000000  0.000000  0.040494 )

     PseudoPot. # 1 for W  read from file:
     /afs/slac.stanford.edu/u/if/mamunm/psp/gbrv1.5pbe/W.UPF
     MD5 check sum: 9c083fa34c2a2ea0f02f1f893e16e1c8
     Pseudo is Ultrasoft + core correction, Zval = 14.0
     Generated by new atomic code, or converted to UPF format
     Using radial grid of  923 points,  8 beta functions with:
                l(1) =   0
                l(2) =   0
                l(3) =   0
                l(4) =   1
                l(5) =   1
                l(6) =   2
                l(7) =   2
                l(8) =   3
     Q(r) pseudized with  6 coefficients,  rinner =    1.350   1.350   1.350
                                                       1.350   1.350   1.350
                                                       1.350

     PseudoPot. # 2 for Cd read from file:
     /afs/slac.stanford.edu/u/if/mamunm/psp/gbrv1.5pbe/Cd.UPF
     MD5 check sum: 17164a7926edb8e0dc231208abae86a6
     Pseudo is Ultrasoft + core correction, Zval = 12.0
     Generated by new atomic code, or converted to UPF format
     Using radial grid of  889 points,  6 beta functions with:
                l(1) =   0
                l(2) =   0
                l(3) =   1
                l(4) =   1
                l(5) =   2
                l(6) =   2
     Q(r) pseudized with  6 coefficients,  rinner =    1.000   1.000   1.000
                                                       1.000   1.000

     vdW kernel table read from file vdW_kernel_table
     MD5 check sum: 095c7af220d748ca6e76c0b4c6cfb241

     atomic species   valence    mass     pseudopotential
        W1            14.00   183.84000     W ( 1.00)
        Cd1           12.00   112.41400     Cd( 1.00)

     No symmetry found

   Cartesian axes

     site n.     atom                  positions (alat units)
         1           W1  tau(   1) = (   0.0000000   0.0000000  10.0000000  )
         2           W1  tau(   2) = (  -1.4374914   2.4898082  10.0000000  )
         3           W1  tau(   3) = (   1.4374914   2.4898082  10.0000000  )
         4           Cd1 tau(   4) = (   2.8749828   0.0000000  10.0000000  )
         5           W1  tau(   5) = (   2.8749828   1.6598721  12.3474137  )
         6           W1  tau(   6) = (   1.4374914   4.1496803  12.3474137  )
         7           W1  tau(   7) = (  -1.4374914   4.1496803  12.3474137  )
         8           Cd1 tau(   8) = (   0.0000000   1.6598721  12.3474137  )
         9           W1  tau(   9) = (  -0.0000000   3.3197442  14.6948273  )
        10           W1  tau(  10) = (   1.4374914   0.8299361  14.6948273  )
        11           W1  tau(  11) = (   4.3124743   0.8299361  14.6948273  )
        12           Cd1 tau(  12) = (   2.8749828   3.3197442  14.6948273  )

     number of k points=    20  Fermi-Dirac smearing, width (Ry)=  0.0110
                       cart. coord. in units 2pi/alat
        k(    1) = (   0.0000000   0.0000000   0.0000000), wk =   0.0555556
        k(    2) = (   0.0000000   0.0334698   0.0000000), wk =   0.1111111
        k(    3) = (   0.0000000   0.0669396   0.0000000), wk =   0.1111111
        k(    4) = (   0.0000000  -0.1004093   0.0000000), wk =   0.0555556
        k(    5) = (   0.0289857   0.0167349   0.0000000), wk =   0.1111111
        k(    6) = (   0.0289857   0.0502047   0.0000000), wk =   0.1111111
        k(    7) = (   0.0289857   0.0836745   0.0000000), wk =   0.1111111
        k(    8) = (   0.0289857  -0.0836745   0.0000000), wk =   0.1111111
        k(    9) = (   0.0289857  -0.0502047   0.0000000), wk =   0.1111111
        k(   10) = (   0.0289857  -0.0167349   0.0000000), wk =   0.1111111
        k(   11) = (   0.0579714   0.0334698   0.0000000), wk =   0.1111111
        k(   12) = (   0.0579714   0.0669396   0.0000000), wk =   0.1111111
        k(   13) = (   0.0579714   0.1004093   0.0000000), wk =   0.1111111
        k(   14) = (   0.0579714  -0.0669396   0.0000000), wk =   0.1111111
        k(   15) = (   0.0579714  -0.0334698   0.0000000), wk =   0.1111111
        k(   16) = (   0.0579714   0.0000000   0.0000000), wk =   0.1111111
        k(   17) = (  -0.0869570  -0.0502047   0.0000000), wk =   0.0555556
        k(   18) = (  -0.0869570  -0.0167349   0.0000000), wk =   0.1111111
        k(   19) = (  -0.0869570   0.0167349   0.0000000), wk =   0.1111111
        k(   20) = (  -0.0869570  -0.1506140   0.0000000), wk =   0.0555556

     Largest allocated arrays     est. size (Mb)     dimensions
     Largest temporary arrays     est. size (Mb)     dimensions

     Initial potential from superposition of free atoms
     Check: negative starting charge=   -0.635787

     starting charge  159.59682, renormalised to  162.00000

     negative rho (up, down):  6.454E-01 0.000E+00

     *
     * You are using vdW-DF for exchange-correlation in this calculation.
     * Please cite the following three references that made this development
     * possible:
     *
     *   M. Dion, H. Rydberg, E. Schroder, D. C. Langreth, and
     *   B. I. Lundqvist, Phys. Rev. Lett. 92, 246401 (2004).
     *
     *   T. Thonhauser, V. R. Cooper, S. Li, A. Puzder, P. Hyldgaard, and
     *   D. C. Langreth, Phys. Rev. B 76, 125112 (2007).
     *
     *   G. Roman-Perez and J. M. Soler, Phys. Rev. Lett. 103, 096102 (2009).
     *
     *
     * If you are using vdW-DF2, please also cite:
     *
     *   K. Lee, E. D. Murray, L. Kong, B. I. Lundqvist, and
     *   D. C. Langreth, Phys. Rev. B 82, 081101(R) (2010).
     *
     *
     * If you are calculating the stress with vdW-DF, please also cite:
     *
     *   R. Sabatini, E. Kucukbenli, B. Kolb, T. Thonhauser, and
     *   S. de Gironcoli, J. Phys.: Condens. Matter 24, 424209 (2012).
     *

     Carrying out vdW-DF run using the following parameters:

     Nqs =      20    Nr_points =    1024   r_max =   100.000
     q_mesh =
               0.00001000     0.04494208     0.09755937     0.15916263
               0.23128650     0.31572767     0.41458969     0.53033537
               0.66584808     0.82450364     1.01025438     1.22772762
               1.48234092     1.78043706     2.12944203     2.53805004
               3.01644009     3.57652955     4.23227104     5.00000000

     Gradients computed in reciprocal space

     Adding external electric field

     Computed dipole along edir(3) :
        Dipole                0.0000 Ry au,          0.0000 Debye
        Dipole field          0.0000 Ry au

        Potential amp.       -0.0000 Ry
        Total length         45.4998 bohr

     Starting wfc are  144 randomized atomic wfcs

     Self-consistent Calculation

     iteration #  1     ecut=    36.75 Ry     beta=0.10
     Davidson diagonalization with overlap
     ethr =  1.00E-02,  avg # of iterations =  2.0

     Threshold (ethr) on eigenvalues was too large:
     Diagonalizing with lowered threshold

     Davidson diagonalization with overlap
     ethr =  6.82E-04,  avg # of iterations =  2.0

[...]

     total energy              =   -1791.53705785 Ry
     Harris-Foulkes estimate   =   -1791.70275349 Ry
     estimated scf accuracy    <       1.20682174 Ry

[...]

     End of self-consistent calculation

          k = 0.0000 0.0000 0.0000 ( 18007 PWs)   bands (ev):

   -72.6152 -72.5666 -72.5665 -72.4931 -72.4893 -72.4481 -72.4481 -72.4472
   -72.4471 -37.0886 -36.9360 -36.9360 -36.9135 -36.8348 -36.8301 -36.8301
   -36.8216 -36.7060 -36.7059 -36.6393 -36.5855 -36.5855 -36.5643 -36.5643
   -36.5638 -36.4069 -36.4069 -36.3881 -36.3794 -36.3423 -36.3387 -36.3387
   -36.1464 -36.1464 -36.1414 -36.1414  -7.4297  -7.4297  -7.3969  -7.3131
    -7.3131  -7.0548  -7.0548  -7.0423  -7.0401  -7.0401  -6.9664  -6.7950
    -6.7950  -6.7684  -6.7684  -6.6737  -4.6514  -3.9615  -3.1403  -2.5563
    -2.3704  -1.6040  -1.6040  -1.1534  -0.8866  -0.8866  -0.8389  -0.7585
    -0.7584  -0.7565  -0.7565   0.1974   0.1974   0.4918   0.7645   0.7645
     0.8583   1.2498   1.2498   1.5193   1.7709   1.8775   1.9039   1.9039
     2.1577   2.6499   2.6499   3.2694   3.2702   3.2703   3.3305   3.5993
     3.5994   3.8518   3.8518   4.0566   4.0566   4.1471   4.1471   4.3785
     4.7039   4.7039   4.9081   4.9793   4.9793   5.4030   5.4030   5.4191
     6.1886   6.3252   6.4222   6.7247   6.8559   6.8737   6.8738

[...]

          k =-0.0870-0.0502 0.0000 ( 17932 PWs)   bands (ev):

[...]

     the Fermi energy is     1.8143 ev

!    total energy              =   -1791.45520145 Ry
     Harris-Foulkes estimate   =   -1791.45520791 Ry
     estimated scf accuracy    <       0.00000051 Ry

     The total energy is the sum of the following terms:

     one-electron contribution =  -13367.14111810 Ry
     hartree contribution      =    6692.82660581 Ry
     xc contribution           =    -505.00261854 Ry
     ewald contribution        =    5387.93748831 Ry
     electric field correction =       0.00000000 Ry
     smearing contrib. (-TS)   =      -0.07555892 Ry

     convergence has been achieved in  14 iterations

 BEEF-vdW xc energy contributions
           1 :   -443.835122497874
           2 :    409.799399552954
           3 :   -350.286496648881
           4 :    279.079131839794
           5 :   -210.288286347301
           6 :    154.004211480284
           7 :   -114.064765240015
[...]
     MD5 check sum: 9c083fa34c2a2ea0f02f1f893e16e1c8
     Pseudo is Ultrasoft + core correction, Zval = 14.0
     Generated by new atomic code, or converted to UPF format
     Using radial grid of  923 points,  8 beta functions with:
                l(1) =   0
                l(2) =   0
                l(3) =   0
                l(4) =   1
                l(5) =   1
                l(6) =   2
                l(7) =   2
                l(8) =   3
     Q(r) pseudized with  6 coefficients,  rinner =    1.350   1.350   1.350
                                                       1.350   1.350   1.350
                                                       1.350

     PseudoPot. # 2 for Cd read from file:
     /afs/slac.stanford.edu/u/if/mamunm/psp/gbrv1.5pbe/Cd.UPF
     MD5 check sum: 17164a7926edb8e0dc231208abae86a6
     Pseudo is Ultrasoft + core correction, Zval = 12.0
     Generated by new atomic code, or converted to UPF format
     Using radial grid of  889 points,  6 beta functions with:
                l(1) =   0
                l(2) =   0
                l(3) =   1
                l(4) =   1
                l(5) =   2
                l(6) =   2
     Q(r) pseudized with  6 coefficients,  rinner =    1.000   1.000   1.000
                                                       1.000   1.000

     vdW kernel table read from file vdW_kernel_table
     MD5 check sum: 095c7af220d748ca6e76c0b4c6cfb241

     atomic species   valence    mass     pseudopotential
        W1            14.00   183.84000     W ( 1.00)
        Cd1           12.00   112.41400     Cd( 1.00)

     No symmetry found

   Cartesian axes

     site n.     atom                  positions (alat units)
         1           W1  tau(   1) = (   0.0000000   0.0000000  10.0000000  )
         2           W1  tau(   2) = (  -1.4374914   2.4898082  10.0000000  )
         3           W1  tau(   3) = (   1.4374914   2.4898082  10.0000000  )
         4           Cd1 tau(   4) = (   2.8749828   0.0000000  10.0000000  )
         5           W1  tau(   5) = (   2.8749828   1.6598721  12.3474137  )
         6           W1  tau(   6) = (   1.4374914   4.1496803  12.3474137  )
         7           W1  tau(   7) = (  -1.4374914   4.1496803  12.3474137  )
         8           Cd1 tau(   8) = (   0.0000000   1.6598721  12.3474137  )
         9           W1  tau(   9) = (  -0.0000177   3.4546376  14.5667412  )
        10           W1  tau(  10) = (   1.5542980   0.7624508  14.5667525  )
        11           W1  tau(  11) = (   4.1956189   0.7624451  14.5667536  )
        12           Cd1 tau(  12) = (   2.8749368   3.3196653  15.3154566  )

     number of k points=    20  Fermi-Dirac smearing, width (Ry)=  0.0110
                       cart. coord. in units 2pi/alat
        k(    1) = (   0.0000000   0.0000000   0.0000000), wk =   0.0555556
        k(    2) = (   0.0000000   0.0334698   0.0000000), wk =   0.1111111
        k(    3) = (   0.0000000   0.0669396   0.0000000), wk =   0.1111111
        k(    4) = (   0.0000000  -0.1004093   0.0000000), wk =   0.0555556
        k(    5) = (   0.0289857   0.0167349   0.0000000), wk =   0.1111111
        k(    6) = (   0.0289857   0.0502047   0.0000000), wk =   0.1111111
        k(    7) = (   0.0289857   0.0836745   0.0000000), wk =   0.1111111
        k(    8) = (   0.0289857  -0.0836745   0.0000000), wk =   0.1111111
        k(    9) = (   0.0289857  -0.0502047   0.0000000), wk =   0.1111111
        k(   10) = (   0.0289857  -0.0167349   0.0000000), wk =   0.1111111
        k(   11) = (   0.0579714   0.0334698   0.0000000), wk =   0.1111111
        k(   12) = (   0.0579714   0.0669396   0.0000000), wk =   0.1111111
        k(   13) = (   0.0579714   0.1004093   0.0000000), wk =   0.1111111
        k(   14) = (   0.0579714  -0.0669396   0.0000000), wk =   0.1111111
        k(   15) = (   0.0579714  -0.0334698   0.0000000), wk =   0.1111111
        k(   16) = (   0.0579714   0.0000000   0.0000000), wk =   0.1111111
        k(   17) = (  -0.0869570  -0.0502047   0.0000000), wk =   0.0555556
        k(   18) = (  -0.0869570  -0.0167349   0.0000000), wk =   0.1111111
        k(   19) = (  -0.0869570   0.0167349   0.0000000), wk =   0.1111111
        k(   20) = (  -0.0869570  -0.1506140   0.0000000), wk =   0.0555556

     Largest allocated arrays     est. size (Mb)     dimensions
     Largest temporary arrays     est. size (Mb)     dimensions

     Initial potential from superposition of free atoms
     Check: negative starting charge=   -0.636396

     starting charge  159.59682, renormalised to  162.00000

[...]

     *
     * You are using vdW-DF for exchange-correlation in this calculation.
     * Please cite the following three references that made this development
     * possible:
     *
     *   M. Dion, H. Rydberg, E. Schroder, D. C. Langreth, and
     *   B. I. Lundqvist, Phys. Rev. Lett. 92, 246401 (2004).
     *
     *   T. Thonhauser, V. R. Cooper, S. Li, A. Puzder, P. Hyldgaard, and
     *   D. C. Langreth, Phys. Rev. B 76, 125112 (2007).
     *
     *   G. Roman-Perez and J. M. Soler, Phys. Rev. Lett. 103, 096102 (2009).
     *
     *
     * If you are using vdW-DF2, please also cite:
     *
     *   K. Lee, E. D. Murray, L. Kong, B. I. Lundqvist, and
     *   D. C. Langreth, Phys. Rev. B 82, 081101(R) (2010).
     *
     *
     * If you are calculating the stress with vdW-DF, please also cite:
     *
     *   R. Sabatini, E. Kucukbenli, B. Kolb, T. Thonhauser, and
     *   S. de Gironcoli, J. Phys.: Condens. Matter 24, 424209 (2012).
     *

     Carrying out vdW-DF run using the following parameters:

     Nqs =      20    Nr_points =    1024   r_max =   100.000
     q_mesh =
               0.00001000     0.04494208     0.09755937     0.15916263
               0.23128650     0.31572767     0.41458969     0.53033537
               0.66584808     0.82450364     1.01025438     1.22772762
               1.48234092     1.78043706     2.12944203     2.53805004
               3.01644009     3.57652955     4.23227104     5.00000000

     Gradients computed in reciprocal space

[...]

     Starting wfc are  144 randomized atomic wfcs

     Self-consistent Calculation

[...]

     total energy              =   -1791.53104118 Ry
     Harris-Foulkes estimate   =   -1791.53104358 Ry
     estimated scf accuracy    <       0.00000130 Ry

     iteration # 15     ecut=    36.75 Ry     beta=0.10
     Davidson diagonalization with overlap
     ethr =  8.01E-10,  avg # of iterations =  3.7

[...]

     negative rho (up, down):  6.626E-01 0.000E+00

     Adding external electric field

     Computed dipole along edir(3) :
        Dipole                0.0381 Ry au,          0.0968 Debye
        Dipole field          0.0001 Ry au

        Potential amp.       -0.0091 Ry
        Total length         45.4998 bohr

     End of self-consistent calculation

[...]

          k = 0.0580 0.0000 0.0000 ( 17949 PWs)   bands (ev):

[...]

          k =-0.0870-0.1506 0.0000 ( 17932 PWs)   bands (ev):

   -72.5114 -72.4948 -72.4772 -72.4241 -72.4102 -72.3956 -72.3229 -72.2665
   -72.2595 -36.9768 -36.8869 -36.8330 -36.7816 -36.7300 -36.7246 -36.6988
   -36.6619 -36.6598 -36.5885 -36.5615 -36.5203 -36.5136 -36.4811 -36.4629
   -36.4519 -36.3768 -36.3632 -36.3553 -36.3047 -36.2148 -36.1955 -36.1850
   -36.1814 -36.1192 -36.1009 -35.9754  -7.3407  -7.2419  -7.2063  -7.1603
    -7.1515  -6.9501  -6.8181  -6.7822  -6.7476  -6.7304  -6.4719  -6.4084
    -6.3946  -6.3608  -6.3371  -4.7178  -4.5438  -3.1127  -2.7990  -2.5378
    -2.3140  -2.0711  -1.8550  -1.1193  -0.9706  -0.7866  -0.6241  -0.6212
    -0.5041  -0.3942  -0.2053   0.0863   0.1992   0.2526   0.2862   0.3667
     0.6038   0.6921   0.8671   0.9358   0.9638   1.1936   1.3366   1.5782
     1.6247   1.8100   1.9098   1.9435   2.5549   2.8726   3.0769   3.1464
     3.2342   3.3577   3.3839   3.4927   3.6077   3.8064   3.9612   4.0516
     4.1342   4.4628   4.5339   4.7101   5.0534   5.2458   5.5259   5.8924
     6.2708   6.6975   7.1196   7.4478   7.4782   7.6755   7.6964

     the Fermi energy is     1.8527 ev

!    total energy              =   -1791.53103607 Ry
     Harris-Foulkes estimate   =   -1791.53104137 Ry
     estimated scf accuracy    <       0.00000041 Ry

     The total energy is the sum of the following terms:

     one-electron contribution =  -13276.20596598 Ry
     hartree contribution      =    6647.90794133 Ry
     xc contribution           =    -505.15778838 Ry
     ewald contribution        =    5341.99383945 Ry
     electric field correction =       0.00000382 Ry
     smearing contrib. (-TS)   =      -0.06906631 Ry

     convergence has been achieved in  15 iterations

 BEEF-vdW xc energy contributions
           1 :   -444.193096152067
           2 :    410.124888233231
           3 :   -350.578505136695
           4 :    279.359777634876
           5 :   -210.559933025131
           6 :    154.214901174498
           7 :   -114.120265836503
           8 :    88.3230548416842
           9 :   -71.6233968082713
          10 :    58.6635416655520
          11 :   -46.1745994958326
          12 :    33.6064575481894
          13 :   -22.2785245824918
          14 :    13.8551700553310
          15 :   -9.08245160200835
          16 :    7.36557237136122
          17 :   -7.20443855063382
          18 :    7.06107935907971
          19 :   -6.10389678549546
          20 :    4.45098929790373
          21 :   -2.86437171636970
          22 :    2.14455079451130
          23 :   -2.60165953360269
          24 :    3.88671408773416
          25 :   -5.23074333711389
          26 :    5.90753111401870
          27 :   -5.63307550242843
          28 :    4.68085629599011
          29 :   -3.67401124037201
          30 :    3.20181557032839
          31 :   -40.0842305947124
          32 :   -29.8760818316986

     Forces acting on atoms (Ry/au):

     negative rho (up, down):  6.626E-01 0.000E+00
     atom    1 type  1   force =    -0.00000001   -0.02987142    0.03790934
     atom    2 type  1   force =    -0.02586879    0.01493467    0.03791057
     atom    3 type  1   force =     0.02586866    0.01493471    0.03791113
     atom    4 type  2   force =    -0.00000063    0.00000109   -0.06965461
     atom    5 type  1   force =    -0.00000216    0.02768053   -0.01164042
     atom    6 type  1   force =     0.02397099   -0.01384253   -0.01164429
     atom    7 type  1   force =    -0.02397250   -0.01384079   -0.01164576
     atom    8 type  2   force =     0.00000099   -0.00000302   -0.01266912
     atom    9 type  1   force =    -0.00000435    0.00001973    0.00122728
     atom   10 type  1   force =     0.00001808   -0.00001566    0.00122053
     atom   11 type  1   force =    -0.00001607   -0.00000921    0.00122136
     atom   12 type  2   force =     0.00000578    0.00001190   -0.00014601

     Total force =     0.121287     Total SCF correction =     0.002542

     entering subroutine stress ...

     negative rho (up, down):  6.626E-01 0.000E+00
          total   stress  (Ry/bohr**3)                   (kbar)     P=  -29.17
  -0.00024487  -0.00000000   0.00000001        -36.02     -0.00      0.00
  -0.00000000  -0.00024485   0.00000001         -0.00    -36.02      0.00
   0.00000001   0.00000001  -0.00010518          0.00      0.00    -15.47

 !ASE

     Writing output data file calc.save

     General routines

     Parallel routines

   This run was terminated on:  10: 6:36   2Jan2019

   JOB DONE.
Job  /afs/slac/g/suncat/bin/suncat-tsmpirun -x LD_LIBRARY_PATH -wdir /scratch/qe649342_mAPba pw.x -in pw.inp

TID   HOST_NAME   COMMAND_LINE            STATUS            TERMINATION_TIME
00000 suncat0146 pw.x -in pw.inp   Done                     01/02/2019 10:06:36
00001 suncat0146 pw.x -in pw.inp   Done                     01/02/2019 10:06:36
00002 suncat0146 pw.x -in pw.inp   Done                     01/02/2019 10:06:36
00003 suncat0146 pw.x -in pw.inp   Done                     01/02/2019 10:06:36
00004 suncat0146 pw.x -in pw.inp   Done                     01/02/2019 10:06:36
00005 suncat0146 pw.x -in pw.inp   Done                     01/02/2019 10:06:36
00006 suncat0146 pw.x -in pw.inp   Done                     01/02/2019 10:06:36
00007 suncat0146 pw.x -in pw.inp   Done                     01/02/2019 10:06:36
00008 suncat0136 pw.x -in pw.inp   Done                     01/02/2019 10:06:36
00009 suncat0136 pw.x -in pw.inp   Done                     01/02/2019 10:06:36
00010 suncat0136 pw.x -in pw.inp   Done                     01/02/2019 10:06:36
00011 suncat0136 pw.x -in pw.inp   Done                     01/02/2019 10:06:36
00012 suncat0136 pw.x -in pw.inp   Done                     01/02/2019 10:06:36
00013 suncat0136 pw.x -in pw.inp   Done                     01/02/2019 10:06:36
00014 suncat0136 pw.x -in pw.inp   Done                     01/02/2019 10:06:36
00015 suncat0136 pw.x -in pw.inp   Done                     01/02/2019 10:06:36
00016 suncat0248 pw.x -in pw.inp   Done                     01/02/2019 10:06:36
00017 suncat0248 pw.x -in pw.inp   Done                     01/02/2019 10:06:36
00018 suncat0248 pw.x -in pw.inp   Done                     01/02/2019 10:06:36
00019 suncat0248 pw.x -in pw.inp   Done                     01/02/2019 10:06:36
00020 suncat0248 pw.x -in pw.inp   Done                     01/02/2019 10:06:36
00021 suncat0248 pw.x -in pw.inp   Done                     01/02/2019 10:06:36
00022 suncat0248 pw.x -in pw.inp   Done                     01/02/2019 10:06:36
00023 suncat0248 pw.x -in pw.inp   Done                     01/02/2019 10:06:36
00024 suncat0247 pw.x -in pw.inp   Done                     01/02/2019 10:06:36
00025 suncat0247 pw.x -in pw.inp   Done                     01/02/2019 10:06:36
00026 suncat0247 pw.x -in pw.inp   Done                     01/02/2019 10:06:36
00027 suncat0247 pw.x -in pw.inp   Done                     01/02/2019 10:06:36
00028 suncat0247 pw.x -in pw.inp   Done                     01/02/2019 10:06:36
00029 suncat0247 pw.x -in pw.inp   Done                     01/02/2019 10:06:36
00030 suncat0247 pw.x -in pw.inp   Done                     01/02/2019 10:06:36
00031 suncat0247 pw.x -in pw.inp   Done                     01/02/2019 10:06:36
00032 suncat0246 pw.x -in pw.inp   Done                     01/02/2019 10:06:36
00033 suncat0246 pw.x -in pw.inp   Done                     01/02/2019 10:06:36
00034 suncat0246 pw.x -in pw.inp   Done                     01/02/2019 10:06:36
00035 suncat0246 pw.x -in pw.inp   Done                     01/02/2019 10:06:36
00036 suncat0246 pw.x -in pw.inp   Done                     01/02/2019 10:06:36
00037 suncat0246 pw.x -in pw.inp   Done                     01/02/2019 10:06:36
00038 suncat0246 pw.x -in pw.inp   Done                     01/02/2019 10:06:36
00039 suncat0246 pw.x -in pw.inp   Done                     01/02/2019 10:06:36
00040 suncat0245 pw.x -in pw.inp   Done                     01/02/2019 10:06:36
00041 suncat0245 pw.x -in pw.inp   Done                     01/02/2019 10:06:36
00042 suncat0245 pw.x -in pw.inp   Done                     01/02/2019 10:06:36
00043 suncat0245 pw.x -in pw.inp   Done                     01/02/2019 10:06:36
00044 suncat0245 pw.x -in pw.inp   Done                     01/02/2019 10:06:36
00045 suncat0245 pw.x -in pw.inp   Done                     01/02/2019 10:06:36
00046 suncat0245 pw.x -in pw.inp   Done                     01/02/2019 10:06:36
00047 suncat0245 pw.x -in pw.inp   Done                     01/02/2019 10:06:36
00048 suncat0214 pw.x -in pw.inp   Done                     01/02/2019 10:06:36
00049 suncat0214 pw.x -in pw.inp   Done                     01/02/2019 10:06:36
00050 suncat0214 pw.x -in pw.inp   Done                     01/02/2019 10:06:36
00051 suncat0214 pw.x -in pw.inp   Done                     01/02/2019 10:06:36
00052 suncat0214 pw.x -in pw.inp   Done                     01/02/2019 10:06:36
00053 suncat0214 pw.x -in pw.inp   Done                     01/02/2019 10:06:36
00054 suncat0214 pw.x -in pw.inp   Done                     01/02/2019 10:06:36
00055 suncat0214 pw.x -in pw.inp   Done                     01/02/2019 10:06:36
00056 suncat0213 pw.x -in pw.inp   Done                     01/02/2019 10:06:36
00057 suncat0213 pw.x -in pw.inp   Done                     01/02/2019 10:06:36
00058 suncat0213 pw.x -in pw.inp   Done                     01/02/2019 10:06:36
00059 suncat0213 pw.x -in pw.inp   Done                     01/02/2019 10:06:36
00060 suncat0213 pw.x -in pw.inp   Done                     01/02/2019 10:06:36
00061 suncat0213 pw.x -in pw.inp   Done                     01/02/2019 10:06:36
00062 suncat0213 pw.x -in pw.inp   Done                     01/02/2019 10:06:36
00063 suncat0213 pw.x -in pw.inp   Done                     01/02/2019 10:06:36