     Program PWSCF v.5.1rc2 (svn rev. 11289) starts on 28Dec2018 at  2:10:57

     Current dimensions of program PWSCF are:
     Max number of different atomic species (ntypx) = 10
     Max number of k-points (npk) =  40000
     Max angular momentum in pseudopotentials (lmaxx) =  3
     Presently stress not available with electric field

     IMPORTANT: XC functional enforced from input :
     Exchange-correlation      = BEEF-VDW ( 1  4 27 13 2)
     Any further DFT definition will be discarded
     Please, verify this is what you really want

     Subspace diagonalization in iterative solution of the eigenvalue problem:
     a serial algorithm will be used

     bravais-lattice index     =            0
     lattice parameter (alat)  =       1.8897  a.u.
     unit-cell volume          =    4786.8594 (a.u.)^3
     number of atoms/cell      =           12
     number of atomic types    =            2
     number of electrons       =       150.00
     number of Kohn-Sham states=          105
     kinetic-energy cutoff     =      36.7493  Ry
     charge density cutoff     =     367.4932  Ry
     convergence threshold     =      1.0E-06
     mixing beta               =       0.1000
     number of iterations used =           10  plain     mixing
     Exchange-correlation      = BEEF-VDW ( 1  4 27 13 2)
     nstep                     =           50

     celldm(1)=   1.889726  celldm(2)=   0.000000  celldm(3)=   0.000000
     celldm(4)=   0.000000  celldm(5)=   0.000000  celldm(6)=   0.000000

     crystal axes: (cart. coord. in units of alat)
               a(1) = (   5.758356   0.000000   0.000000 )
               a(2) = (  -2.879178   4.986882   0.000000 )
               a(3) = (   0.000000   0.000000  24.701678 )

     reciprocal axes: (cart. coord. in units 2 pi/alat)
               b(1) = (  0.173661  0.100263  0.000000 )
               b(2) = (  0.000000  0.200526  0.000000 )
               b(3) = (  0.000000  0.000000  0.040483 )

     PseudoPot. # 1 for Ti read from file:
     /afs/slac.stanford.edu/u/if/mamunm/psp/gbrv1.5pbe/Ti.UPF
     MD5 check sum: 88a00a6731bd790ddea75d31a80cb452
     Pseudo is Ultrasoft + core correction, Zval = 12.0
     Generated by new atomic code, or converted to UPF format
     Using radial grid of  851 points,  6 beta functions with:
                l(1) =   0
                l(2) =   0
                l(3) =   1
                l(4) =   1
                l(5) =   2
                l(6) =   2
     Q(r) pseudized with  6 coefficients,  rinner =    1.000   1.000   1.000
                                                       1.000   1.000

     PseudoPot. # 2 for W  read from file:
     /afs/slac.stanford.edu/u/if/mamunm/psp/gbrv1.5pbe/W.UPF
     MD5 check sum: 9c083fa34c2a2ea0f02f1f893e16e1c8
     Pseudo is Ultrasoft + core correction, Zval = 14.0
     Generated by new atomic code, or converted to UPF format
     Using radial grid of  923 points,  8 beta functions with:
                l(1) =   0
                l(2) =   0
                l(3) =   0
                l(4) =   1
                l(5) =   1
                l(6) =   2
                l(7) =   2
                l(8) =   3
     Q(r) pseudized with  6 coefficients,  rinner =    1.350   1.350   1.350
                                                       1.350   1.350   1.350
                                                       1.350

     vdW kernel table read from file vdW_kernel_table
     MD5 check sum: 095c7af220d748ca6e76c0b4c6cfb241

     atomic species   valence    mass     pseudopotential
        Ti1           12.00    47.86700     Ti( 1.00)
        W1            14.00   183.84000     W ( 1.00)

     No symmetry found

   Cartesian axes

     site n.     atom                  positions (alat units)
         1           Ti1 tau(   1) = (   0.0000000   0.0000000  10.0000000  )
         2           Ti1 tau(   2) = (  -1.4395889   2.4934412  10.0000000  )
         3           Ti1 tau(   3) = (   1.4395889   2.4934412  10.0000000  )
         4           W1  tau(   4) = (   2.8791779   0.0000000  10.0000000  )
         5           Ti1 tau(   5) = (   2.8791779   1.6622941  12.3508389  )
         6           Ti1 tau(   6) = (   1.4395889   4.1557353  12.3508389  )
         7           Ti1 tau(   7) = (  -1.4395889   4.1557353  12.3508389  )
         8           W1  tau(   8) = (   0.0000000   1.6622941  12.3508389  )
         9           Ti1 tau(   9) = (  -0.0000000   3.3245883  14.7016778  )
        10           Ti1 tau(  10) = (   1.4395889   0.8311471  14.7016778  )
        11           Ti1 tau(  11) = (   4.3187668   0.8311471  14.7016778  )
        12           W1  tau(  12) = (   2.8791779   3.3245883  14.7016778  )

     number of k points=    20  Fermi-Dirac smearing, width (Ry)=  0.0110
                       cart. coord. in units 2pi/alat
        k(    1) = (   0.0000000   0.0000000   0.0000000), wk =   0.0555556
        k(    2) = (   0.0000000   0.0334210   0.0000000), wk =   0.1111111
        k(    3) = (   0.0000000   0.0668420   0.0000000), wk =   0.1111111
        k(    4) = (   0.0000000  -0.1002630   0.0000000), wk =   0.0555556
        k(    5) = (   0.0289434   0.0167105   0.0000000), wk =   0.1111111
        k(    6) = (   0.0289434   0.0501315   0.0000000), wk =   0.1111111
        k(    7) = (   0.0289434   0.0835525   0.0000000), wk =   0.1111111
        k(    8) = (   0.0289434  -0.0835525   0.0000000), wk =   0.1111111
        k(    9) = (   0.0289434  -0.0501315   0.0000000), wk =   0.1111111
        k(   10) = (   0.0289434  -0.0167105   0.0000000), wk =   0.1111111
        k(   11) = (   0.0578869   0.0334210   0.0000000), wk =   0.1111111
        k(   12) = (   0.0578869   0.0668420   0.0000000), wk =   0.1111111
        k(   13) = (   0.0578869   0.1002630   0.0000000), wk =   0.1111111
        k(   14) = (   0.0578869  -0.0668420   0.0000000), wk =   0.1111111
        k(   15) = (   0.0578869  -0.0334210   0.0000000), wk =   0.1111111
        k(   16) = (   0.0578869   0.0000000   0.0000000), wk =   0.1111111
        k(   17) = (  -0.0868303  -0.0501315   0.0000000), wk =   0.0555556
        k(   18) = (  -0.0868303  -0.0167105   0.0000000), wk =   0.1111111
        k(   19) = (  -0.0868303   0.0167105   0.0000000), wk =   0.1111111
        k(   20) = (  -0.0868303  -0.1503946   0.0000000), wk =   0.0555556

     Largest allocated arrays     est. size (Mb)     dimensions
     Largest temporary arrays     est. size (Mb)     dimensions

     Check: negative/imaginary core charge=   -0.000005    0.000000

     Initial potential from superposition of free atoms
     Check: negative starting charge=   -0.201322

     starting charge  140.69858, renormalised to  150.00000

     negative rho (up, down):  2.146E-01 0.000E+00

     *
     * You are using vdW-DF for exchange-correlation in this calculation.
     * Please cite the following three references that made this development
     * possible:
     *
     *   M. Dion, H. Rydberg, E. Schroder, D. C. Langreth, and
     *   B. I. Lundqvist, Phys. Rev. Lett. 92, 246401 (2004).
     *
     *   T. Thonhauser, V. R. Cooper, S. Li, A. Puzder, P. Hyldgaard, and
     *   D. C. Langreth, Phys. Rev. B 76, 125112 (2007).
     *
     *   G. Roman-Perez and J. M. Soler, Phys. Rev. Lett. 103, 096102 (2009).
     *
     *
     * If you are using vdW-DF2, please also cite:
     *
     *   K. Lee, E. D. Murray, L. Kong, B. I. Lundqvist, and
     *   D. C. Langreth, Phys. Rev. B 82, 081101(R) (2010).
     *
     *
     * If you are calculating the stress with vdW-DF, please also cite:
     *
     *   R. Sabatini, E. Kucukbenli, B. Kolb, T. Thonhauser, and
     *   S. de Gironcoli, J. Phys.: Condens. Matter 24, 424209 (2012).
     *

     Carrying out vdW-DF run using the following parameters:

     Nqs =      20    Nr_points =    1024   r_max =   100.000
     q_mesh =
               0.00001000     0.04494208     0.09755937     0.15916263
               0.23128650     0.31572767     0.41458969     0.53033537
               0.66584808     0.82450364     1.01025438     1.22772762
               1.48234092     1.78043706     2.12944203     2.53805004
               3.01644009     3.57652955     4.23227104     5.00000000

     Gradients computed in reciprocal space

     Adding external electric field

     Computed dipole along edir(3) :
        Dipole                0.0000 Ry au,          0.0000 Debye
        Dipole field          0.0000 Ry au

        Potential amp.       -0.0000 Ry
        Total length         45.5124 bohr

     Starting wfc are  129 randomized atomic wfcs

     Self-consistent Calculation

     iteration #  1     ecut=    36.75 Ry     beta=0.10
     Davidson diagonalization with overlap
     ethr =  1.00E-02,  avg # of iterations =  3.2

[...]

     total energy              =   -1560.57494003 Ry
     Harris-Foulkes estimate   =   -1562.61810019 Ry
     estimated scf accuracy    <      11.94957711 Ry

[...]

     End of self-consistent calculation

          k = 0.0000 0.0000 0.0000 ( 18043 PWs)   bands (ev):

   -72.9012 -72.8026 -72.8024 -55.9388 -55.9322 -55.8673 -55.8673 -55.8657
   -55.8656 -55.7871 -55.7258 -55.7258 -36.9964 -36.9964 -36.9881 -36.9204
   -36.9128 -36.8842 -36.8842 -36.8821 -36.8821 -32.4369 -32.3993 -32.3117
   -32.2475 -32.2475 -32.2119 -32.2029 -32.2012 -32.2012 -32.1857 -32.1856
   -32.1410 -32.1409 -32.0096 -32.0096 -31.9693 -31.9481 -31.9100 -31.9022
   -31.9022 -31.8960 -31.8960 -31.8790 -31.8790 -31.8025 -31.7672 -31.7672
    -5.0764  -3.6539  -2.5536  -2.0099  -2.0099  -1.7638  -1.7602  -1.7602
    -1.4659  -1.2876  -1.2876  -1.0903  -1.0903  -0.9758  -0.9711  -0.3207
    -0.3207   0.0945   0.5999   0.8252   0.8252   0.8812   1.1756   1.3386
     1.3534   1.6058   1.6058   1.6206   1.7056   1.7056   1.8443   1.8443
     1.8796   1.8796   1.9287   1.9287   2.0245   2.0940   2.2265   2.2265
     2.8121   2.9420   2.9420   2.9661   2.9661   2.9973   3.4207   3.4207
     3.6343   3.6343   3.7458   3.7459   3.8391   4.1401   4.3629   4.3630
     4.4240

[...]

          k =-0.0868-0.0501 0.0000 ( 17964 PWs)   bands (ev):

[...]

     the Fermi energy is     1.1231 ev

!    total energy              =   -1560.05939524 Ry
     Harris-Foulkes estimate   =   -1560.05939454 Ry
     estimated scf accuracy    <       0.00000078 Ry

     The total energy is the sum of the following terms:

     one-electron contribution =  -11696.71668626 Ry
     hartree contribution      =    5832.31563871 Ry
     xc contribution           =    -295.97477094 Ry
     ewald contribution        =    4600.44279204 Ry
     electric field correction =       0.00000000 Ry
     smearing contrib. (-TS)   =      -0.12636879 Ry

     convergence has been achieved in  21 iterations

 BEEF-vdW xc energy contributions
           1 :   -256.912566188930
           2 :    233.100975258718
           3 :   -192.976974571564
           4 :    147.814113117046
           5 :   -107.643303499498
           6 :    77.6588820583606
           7 :   -57.6291807249841
           8 :    43.9314056167249
           9 :   -32.5440835503288
          10 :    21.2079592229834
          11 :   -9.89721371196794
          12 :  -0.135986691358198
[...]
     MD5 check sum: 88a00a6731bd790ddea75d31a80cb452
     Pseudo is Ultrasoft + core correction, Zval = 12.0
     Generated by new atomic code, or converted to UPF format
     Using radial grid of  851 points,  6 beta functions with:
                l(1) =   0
                l(2) =   0
                l(3) =   1
                l(4) =   1
                l(5) =   2
                l(6) =   2
     Q(r) pseudized with  6 coefficients,  rinner =    1.000   1.000   1.000
                                                       1.000   1.000

     PseudoPot. # 2 for W  read from file:
     /afs/slac.stanford.edu/u/if/mamunm/psp/gbrv1.5pbe/W.UPF
     MD5 check sum: 9c083fa34c2a2ea0f02f1f893e16e1c8
     Pseudo is Ultrasoft + core correction, Zval = 14.0
     Generated by new atomic code, or converted to UPF format
     Using radial grid of  923 points,  8 beta functions with:
                l(1) =   0
                l(2) =   0
                l(3) =   0
                l(4) =   1
                l(5) =   1
                l(6) =   2
                l(7) =   2
                l(8) =   3
     Q(r) pseudized with  6 coefficients,  rinner =    1.350   1.350   1.350
                                                       1.350   1.350   1.350
                                                       1.350

     vdW kernel table read from file vdW_kernel_table
     MD5 check sum: 095c7af220d748ca6e76c0b4c6cfb241

     atomic species   valence    mass     pseudopotential
        Ti1           12.00    47.86700     Ti( 1.00)
        W1            14.00   183.84000     W ( 1.00)

     No symmetry found

   Cartesian axes

     site n.     atom                  positions (alat units)
         1           Ti1 tau(   1) = (   0.0000000   0.0000000  10.0000000  )
         2           Ti1 tau(   2) = (  -1.4395889   2.4934412  10.0000000  )
         3           Ti1 tau(   3) = (   1.4395889   2.4934412  10.0000000  )
         4           W1  tau(   4) = (   2.8791779   0.0000000  10.0000000  )
         5           Ti1 tau(   5) = (   2.8791779   1.6622941  12.3508389  )
         6           Ti1 tau(   6) = (   1.4395889   4.1557353  12.3508389  )
         7           Ti1 tau(   7) = (  -1.4395889   4.1557353  12.3508389  )
         8           W1  tau(   8) = (   0.0000000   1.6622941  12.3508389  )
         9           Ti1 tau(   9) = (  -0.0000152   3.2944184  14.6850743  )
        10           Ti1 tau(  10) = (   1.4134612   0.8462386  14.6851098  )
        11           Ti1 tau(  11) = (   4.3449055   0.8462600  14.6851009  )
        12           W1  tau(  12) = (   2.8791339   3.3246220  14.4385403  )

     number of k points=    20  Fermi-Dirac smearing, width (Ry)=  0.0110
                       cart. coord. in units 2pi/alat
        k(    1) = (   0.0000000   0.0000000   0.0000000), wk =   0.0555556
        k(    2) = (   0.0000000   0.0334210   0.0000000), wk =   0.1111111
        k(    3) = (   0.0000000   0.0668420   0.0000000), wk =   0.1111111
        k(    4) = (   0.0000000  -0.1002630   0.0000000), wk =   0.0555556
        k(    5) = (   0.0289434   0.0167105   0.0000000), wk =   0.1111111
        k(    6) = (   0.0289434   0.0501315   0.0000000), wk =   0.1111111
        k(    7) = (   0.0289434   0.0835525   0.0000000), wk =   0.1111111
        k(    8) = (   0.0289434  -0.0835525   0.0000000), wk =   0.1111111
        k(    9) = (   0.0289434  -0.0501315   0.0000000), wk =   0.1111111
        k(   10) = (   0.0289434  -0.0167105   0.0000000), wk =   0.1111111
        k(   11) = (   0.0578869   0.0334210   0.0000000), wk =   0.1111111
        k(   12) = (   0.0578869   0.0668420   0.0000000), wk =   0.1111111
        k(   13) = (   0.0578869   0.1002630   0.0000000), wk =   0.1111111
        k(   14) = (   0.0578869  -0.0668420   0.0000000), wk =   0.1111111
        k(   15) = (   0.0578869  -0.0334210   0.0000000), wk =   0.1111111
        k(   16) = (   0.0578869   0.0000000   0.0000000), wk =   0.1111111
        k(   17) = (  -0.0868303  -0.0501315   0.0000000), wk =   0.0555556
        k(   18) = (  -0.0868303  -0.0167105   0.0000000), wk =   0.1111111
        k(   19) = (  -0.0868303   0.0167105   0.0000000), wk =   0.1111111
        k(   20) = (  -0.0868303  -0.1503946   0.0000000), wk =   0.0555556

     Largest allocated arrays     est. size (Mb)     dimensions
     Largest temporary arrays     est. size (Mb)     dimensions

     Check: negative/imaginary core charge=   -0.000005    0.000000

     Initial potential from superposition of free atoms
     Check: negative starting charge=   -0.202349

     starting charge  140.69858, renormalised to  150.00000

[...]

     *
     * You are using vdW-DF for exchange-correlation in this calculation.
     * Please cite the following three references that made this development
     * possible:
     *
     *   M. Dion, H. Rydberg, E. Schroder, D. C. Langreth, and
     *   B. I. Lundqvist, Phys. Rev. Lett. 92, 246401 (2004).
     *
     *   T. Thonhauser, V. R. Cooper, S. Li, A. Puzder, P. Hyldgaard, and
     *   D. C. Langreth, Phys. Rev. B 76, 125112 (2007).
     *
     *   G. Roman-Perez and J. M. Soler, Phys. Rev. Lett. 103, 096102 (2009).
     *
     *
     * If you are using vdW-DF2, please also cite:
     *
     *   K. Lee, E. D. Murray, L. Kong, B. I. Lundqvist, and
     *   D. C. Langreth, Phys. Rev. B 82, 081101(R) (2010).
     *
     *
     * If you are calculating the stress with vdW-DF, please also cite:
     *
     *   R. Sabatini, E. Kucukbenli, B. Kolb, T. Thonhauser, and
     *   S. de Gironcoli, J. Phys.: Condens. Matter 24, 424209 (2012).
     *

     Carrying out vdW-DF run using the following parameters:

     Nqs =      20    Nr_points =    1024   r_max =   100.000
     q_mesh =
               0.00001000     0.04494208     0.09755937     0.15916263
               0.23128650     0.31572767     0.41458969     0.53033537
               0.66584808     0.82450364     1.01025438     1.22772762
               1.48234092     1.78043706     2.12944203     2.53805004
               3.01644009     3.57652955     4.23227104     5.00000000

     Gradients computed in reciprocal space

[...]

     Starting wfc are  129 randomized atomic wfcs

     Self-consistent Calculation

[...]

     total energy              =   -1560.07624473 Ry
     Harris-Foulkes estimate   =   -1560.07624459 Ry
     estimated scf accuracy    <       0.00000106 Ry

     iteration # 22     ecut=    36.75 Ry     beta=0.10
     Davidson diagonalization with overlap
     ethr =  7.10E-10,  avg # of iterations =  1.1

[...]

     negative rho (up, down):  2.035E-01 0.000E+00

     Adding external electric field

     Computed dipole along edir(3) :
        Dipole                0.0651 Ry au,          0.1656 Debye
        Dipole field          0.0002 Ry au

        Potential amp.       -0.0156 Ry
        Total length         45.5124 bohr

     End of self-consistent calculation

[...]

          k = 0.0579 0.0000 0.0000 ( 18021 PWs)   bands (ev):

[...]

          k =-0.0868-0.1504 0.0000 ( 17964 PWs)   bands (ev):

   -72.8621 -72.7193 -72.6060 -55.8825 -55.8565 -55.8414 -55.8345 -55.8185
   -55.7957 -55.6392 -55.6182 -55.5967 -36.9551 -36.9511 -36.9470 -36.8290
   -36.8003 -36.7920 -36.7427 -36.7325 -36.7244 -32.2624 -32.2389 -32.2317
   -32.2004 -32.1645 -32.1509 -32.1145 -32.1054 -32.0991 -32.0649 -32.0547
   -32.0469 -32.0397 -32.0341 -32.0038 -31.9976 -31.9877 -31.8706 -31.8497
   -31.8463 -31.8265 -31.7995 -31.7920 -31.7826 -31.7775 -31.7690 -31.6559
    -3.6113  -3.2661  -2.3395  -1.8510  -1.4839  -1.3727  -1.1382  -1.1344
    -0.9649  -0.7829  -0.5798  -0.3849  -0.3731  -0.3163  -0.1827   0.0622
     0.0995   0.1467   0.2250   0.4039   0.4158   0.5111   0.6098   0.7111
     0.7365   0.8838   0.9566   1.0674   1.1081   1.1353   1.2864   1.3654
     1.3793   1.6416   1.6985   1.7675   1.8878   1.9200   2.2158   2.2399
     2.4800   2.6122   2.7485   2.8170   2.8800   2.8985   3.0534   3.1288
     3.1807   3.2333   3.2511   3.2825   3.2993   3.4127   3.5369   3.6369
     3.8389

     the Fermi energy is     1.1845 ev

!    total energy              =   -1560.07624659 Ry
     Harris-Foulkes estimate   =   -1560.07624582 Ry
     estimated scf accuracy    <       0.00000038 Ry

     The total energy is the sum of the following terms:

     one-electron contribution =  -11835.79021992 Ry
     hartree contribution      =    5902.26375438 Ry
     xc contribution           =    -296.14450672 Ry
     ewald contribution        =    4669.71952359 Ry
     electric field correction =       0.00001114 Ry
     smearing contrib. (-TS)   =      -0.12480905 Ry

     convergence has been achieved in  22 iterations

 BEEF-vdW xc energy contributions
           1 :   -257.228743039508
           2 :    233.466985436635
           3 :   -193.399660786187
           4 :    148.242182451324
           5 :   -107.992933710684
           6 :    77.8678802474379
           7 :   -57.7049777323460
           8 :    43.9537580844236
           9 :   -32.6136918748534
          10 :    21.3766855436373
          11 :   -10.1344388968457
          12 :   8.540082537365379E-002
          13 :    7.61919375326198
          14 :   -12.7554456582895
          15 :    16.0050039467923
          16 :   -18.2861521855901
          17 :    20.0639381317716
          18 :   -21.1628006972653
          19 :    21.1251497518731
          20 :   -19.7398665345284
          21 :    17.2901341351420
          22 :   -14.3697044878984
          23 :    11.4750844115150
          24 :   -8.72948596090959
          25 :    5.93588285758744
          26 :   -2.88032018485467
          27 :  -0.382419547049096
          28 :    3.48745847683949
          29 :   -5.98662344319018
          30 :    7.65178517500937
          31 :   -25.5025136063078
          32 :   -18.5287802234472

     Forces acting on atoms (Ry/au):

     negative rho (up, down):  2.035E-01 0.000E+00
     atom    1 type  1   force =    -0.00000081    0.00478510    0.00189125
     atom    2 type  1   force =     0.00414322   -0.00239228    0.00188776
     atom    3 type  1   force =    -0.00414526   -0.00239295    0.00189295
     atom    4 type  2   force =    -0.00000047   -0.00000027    0.03877147
     atom    5 type  1   force =     0.00000251   -0.01512821   -0.01594003
     atom    6 type  1   force =    -0.01310561    0.00756858   -0.01594486
     atom    7 type  1   force =     0.01310024    0.00756227   -0.01594372
     atom    8 type  2   force =     0.00000809   -0.00000277    0.00316813
     atom    9 type  1   force =     0.00000014    0.00038439    0.00016271
     atom   10 type  1   force =     0.00032977   -0.00018975    0.00016014
     atom   11 type  1   force =    -0.00033598   -0.00019293    0.00015953
     atom   12 type  2   force =     0.00000416   -0.00000117   -0.00026534

     Total force =     0.055159     Total SCF correction =     0.003341

     entering subroutine stress ...

     negative rho (up, down):  2.035E-01 0.000E+00
          total   stress  (Ry/bohr**3)                   (kbar)     P=  -15.22
  -0.00012378   0.00000000   0.00000000        -18.21      0.00      0.00
   0.00000000  -0.00012378  -0.00000000          0.00    -18.21     -0.00
   0.00000000  -0.00000000  -0.00006285          0.00     -0.00     -9.25

 !ASE

     Writing output data file calc.save

     General routines

     Parallel routines

   This run was terminated on:   3: 9:49  28Dec2018

   JOB DONE.
Job  /afs/slac/g/suncat/bin/suncat-tsmpirun -x LD_LIBRARY_PATH -wdir /scratch/qe111155_gYyRB pw.x -in pw.inp

TID   HOST_NAME   COMMAND_LINE            STATUS            TERMINATION_TIME
00000 suncat0004 pw.x -in pw.inp   Done                     12/28/2018 03:09:49
00001 suncat0004 pw.x -in pw.inp   Done                     12/28/2018 03:09:49
00002 suncat0004 pw.x -in pw.inp   Done                     12/28/2018 03:09:49
00003 suncat0004 pw.x -in pw.inp   Done                     12/28/2018 03:09:49
00004 suncat0004 pw.x -in pw.inp   Done                     12/28/2018 03:09:49
00005 suncat0004 pw.x -in pw.inp   Done                     12/28/2018 03:09:49
00006 suncat0004 pw.x -in pw.inp   Done                     12/28/2018 03:09:49
00007 suncat0004 pw.x -in pw.inp   Done                     12/28/2018 03:09:49
00008 suncat0187 pw.x -in pw.inp   Done                     12/28/2018 03:09:49
00009 suncat0187 pw.x -in pw.inp   Done                     12/28/2018 03:09:49
00010 suncat0187 pw.x -in pw.inp   Done                     12/28/2018 03:09:49
00011 suncat0187 pw.x -in pw.inp   Done                     12/28/2018 03:09:49
00012 suncat0187 pw.x -in pw.inp   Done                     12/28/2018 03:09:49
00013 suncat0187 pw.x -in pw.inp   Done                     12/28/2018 03:09:49
00014 suncat0187 pw.x -in pw.inp   Done                     12/28/2018 03:09:49
00015 suncat0187 pw.x -in pw.inp   Done                     12/28/2018 03:09:49
00016 suncat0186 pw.x -in pw.inp   Done                     12/28/2018 03:09:49
00017 suncat0186 pw.x -in pw.inp   Done                     12/28/2018 03:09:49
00018 suncat0186 pw.x -in pw.inp   Done                     12/28/2018 03:09:49
00019 suncat0186 pw.x -in pw.inp   Done                     12/28/2018 03:09:49
00020 suncat0186 pw.x -in pw.inp   Done                     12/28/2018 03:09:49
00021 suncat0186 pw.x -in pw.inp   Done                     12/28/2018 03:09:49
00022 suncat0186 pw.x -in pw.inp   Done                     12/28/2018 03:09:49
00023 suncat0186 pw.x -in pw.inp   Done                     12/28/2018 03:09:49
00024 suncat0185 pw.x -in pw.inp   Done                     12/28/2018 03:09:49
00025 suncat0185 pw.x -in pw.inp   Done                     12/28/2018 03:09:49
00026 suncat0185 pw.x -in pw.inp   Done                     12/28/2018 03:09:49
00027 suncat0185 pw.x -in pw.inp   Done                     12/28/2018 03:09:49
00028 suncat0185 pw.x -in pw.inp   Done                     12/28/2018 03:09:49
00029 suncat0185 pw.x -in pw.inp   Done                     12/28/2018 03:09:49
00030 suncat0185 pw.x -in pw.inp   Done                     12/28/2018 03:09:49
00031 suncat0185 pw.x -in pw.inp   Done                     12/28/2018 03:09:49
00032 suncat0218 pw.x -in pw.inp   Done                     12/28/2018 03:09:49
00033 suncat0218 pw.x -in pw.inp   Done                     12/28/2018 03:09:49
00034 suncat0218 pw.x -in pw.inp   Done                     12/28/2018 03:09:49
00035 suncat0218 pw.x -in pw.inp   Done                     12/28/2018 03:09:49
00036 suncat0218 pw.x -in pw.inp   Done                     12/28/2018 03:09:49
00037 suncat0218 pw.x -in pw.inp   Done                     12/28/2018 03:09:49
00038 suncat0218 pw.x -in pw.inp   Done                     12/28/2018 03:09:49
00039 suncat0218 pw.x -in pw.inp   Done                     12/28/2018 03:09:49
00040 suncat0212 pw.x -in pw.inp   Done                     12/28/2018 03:09:49
00041 suncat0212 pw.x -in pw.inp   Done                     12/28/2018 03:09:49
00042 suncat0212 pw.x -in pw.inp   Done                     12/28/2018 03:09:49
00043 suncat0212 pw.x -in pw.inp   Done                     12/28/2018 03:09:49
00044 suncat0212 pw.x -in pw.inp   Done                     12/28/2018 03:09:49
00045 suncat0212 pw.x -in pw.inp   Done                     12/28/2018 03:09:49
00046 suncat0212 pw.x -in pw.inp   Done                     12/28/2018 03:09:49
00047 suncat0212 pw.x -in pw.inp   Done                     12/28/2018 03:09:49
00048 suncat0211 pw.x -in pw.inp   Done                     12/28/2018 03:09:49
00049 suncat0211 pw.x -in pw.inp   Done                     12/28/2018 03:09:49
00050 suncat0211 pw.x -in pw.inp   Done                     12/28/2018 03:09:49
00051 suncat0211 pw.x -in pw.inp   Done                     12/28/2018 03:09:49
00052 suncat0211 pw.x -in pw.inp   Done                     12/28/2018 03:09:49
00053 suncat0211 pw.x -in pw.inp   Done                     12/28/2018 03:09:49
00054 suncat0211 pw.x -in pw.inp   Done                     12/28/2018 03:09:49
00055 suncat0211 pw.x -in pw.inp   Done                     12/28/2018 03:09:49
00056 suncat0208 pw.x -in pw.inp   Done                     12/28/2018 03:09:49
00057 suncat0208 pw.x -in pw.inp   Done                     12/28/2018 03:09:49
00058 suncat0208 pw.x -in pw.inp   Done                     12/28/2018 03:09:49
00059 suncat0208 pw.x -in pw.inp   Done                     12/28/2018 03:09:49
00060 suncat0208 pw.x -in pw.inp   Done                     12/28/2018 03:09:49
00061 suncat0208 pw.x -in pw.inp   Done                     12/28/2018 03:09:49
00062 suncat0208 pw.x -in pw.inp   Done                     12/28/2018 03:09:49
00063 suncat0208 pw.x -in pw.inp   Done                     12/28/2018 03:09:49