     Program PWSCF v.5.1rc2 (svn rev. 11289) starts on 19Dec2018 at 20: 6:30

     Current dimensions of program PWSCF are:
     Max number of different atomic species (ntypx) = 10
     Max number of k-points (npk) =  40000
     Max angular momentum in pseudopotentials (lmaxx) =  3
     Presently stress not available with electric field

     IMPORTANT: XC functional enforced from input :
     Exchange-correlation      = BEEF-VDW ( 1  4 27 13 2)
     Any further DFT definition will be discarded
     Please, verify this is what you really want

     Subspace diagonalization in iterative solution of the eigenvalue problem:
     a serial algorithm will be used

     bravais-lattice index     =            0
     lattice parameter (alat)  =       1.8897  a.u.
     unit-cell volume          =    4991.2008 (a.u.)^3
     number of atoms/cell      =           12
     number of atomic types    =            2
     number of electrons       =       141.00
     number of Kohn-Sham states=          100
     kinetic-energy cutoff     =      36.7493  Ry
     charge density cutoff     =     367.4932  Ry
     convergence threshold     =      1.0E-06
     mixing beta               =       0.1000
     number of iterations used =           10  plain     mixing
     Exchange-correlation      = BEEF-VDW ( 1  4 27 13 2)
     nstep                     =           50

     celldm(1)=   1.889726  celldm(2)=   0.000000  celldm(3)=   0.000000
     celldm(4)=   0.000000  celldm(5)=   0.000000  celldm(6)=   0.000000

     crystal axes: (cart. coord. in units of alat)
               a(1) = (   5.869232   0.000000   0.000000 )
               a(2) = (  -2.934616   5.082904   0.000000 )
               a(3) = (   0.000000   0.000000  24.792208 )

     reciprocal axes: (cart. coord. in units 2 pi/alat)
               b(1) = (  0.170380  0.098369  0.000000 )
               b(2) = (  0.000000  0.196738  0.000000 )
               b(3) = (  0.000000  0.000000  0.040335 )

     PseudoPot. # 1 for Au read from file:
     /afs/slac.stanford.edu/u/if/mamunm/psp/gbrv1.5pbe/Au.UPF
     MD5 check sum: 9d7f43293ad2c663164586bc4b293ffc
     Pseudo is Ultrasoft + core correction, Zval = 11.0
     Generated by new atomic code, or converted to UPF format
     Using radial grid of  985 points,  7 beta functions with:
                l(1) =   0
                l(2) =   0
                l(3) =   1
                l(4) =   1
                l(5) =   2
                l(6) =   2
                l(7) =   3
     Q(r) pseudized with  6 coefficients,  rinner =    1.900   1.900   1.900
                                                       1.900   1.900   1.900
                                                       1.900

     PseudoPot. # 2 for W  read from file:
     /afs/slac.stanford.edu/u/if/mamunm/psp/gbrv1.5pbe/W.UPF
     MD5 check sum: 9c083fa34c2a2ea0f02f1f893e16e1c8
     Pseudo is Ultrasoft + core correction, Zval = 14.0
     Generated by new atomic code, or converted to UPF format
     Using radial grid of  923 points,  8 beta functions with:
                l(1) =   0
                l(2) =   0
                l(3) =   0
                l(4) =   1
                l(5) =   1
                l(6) =   2
                l(7) =   2
                l(8) =   3
     Q(r) pseudized with  6 coefficients,  rinner =    1.350   1.350   1.350
                                                       1.350   1.350   1.350
                                                       1.350

     vdW kernel table read from file vdW_kernel_table
     MD5 check sum: 095c7af220d748ca6e76c0b4c6cfb241

     atomic species   valence    mass     pseudopotential
        Au1           11.00   196.96657     Au( 1.00)
        W1            14.00   183.84000     W ( 1.00)

     No symmetry found

   Cartesian axes

     site n.     atom                  positions (alat units)
         1           Au1 tau(   1) = (   0.0000000   0.0000000  10.0000000  )
         2           Au1 tau(   2) = (  -1.4673081   2.5414522  10.0000000  )
         3           Au1 tau(   3) = (   1.4673081   2.5414522  10.0000000  )
         4           W1  tau(   4) = (   2.9346162   0.0000000  10.0000000  )
         5           Au1 tau(   5) = (   2.9346162   1.6943014  12.3961041  )
         6           Au1 tau(   6) = (   1.4673081   4.2357536  12.3961041  )
         7           Au1 tau(   7) = (  -1.4673081   4.2357536  12.3961041  )
         8           W1  tau(   8) = (   0.0000000   1.6943014  12.3961041  )
         9           Au1 tau(   9) = (  -0.0000000   3.3886029  14.7922081  )
        10           Au1 tau(  10) = (   1.4673081   0.8471507  14.7922081  )
        11           Au1 tau(  11) = (   4.4019243   0.8471507  14.7922081  )
        12           W1  tau(  12) = (   2.9346162   3.3886029  14.7922081  )

     number of k points=    20  Fermi-Dirac smearing, width (Ry)=  0.0110
                       cart. coord. in units 2pi/alat
        k(    1) = (   0.0000000   0.0000000   0.0000000), wk =   0.0555556
        k(    2) = (   0.0000000   0.0327897   0.0000000), wk =   0.1111111
        k(    3) = (   0.0000000   0.0655793   0.0000000), wk =   0.1111111
        k(    4) = (   0.0000000  -0.0983690   0.0000000), wk =   0.0555556
        k(    5) = (   0.0283967   0.0163948   0.0000000), wk =   0.1111111
        k(    6) = (   0.0283967   0.0491845   0.0000000), wk =   0.1111111
        k(    7) = (   0.0283967   0.0819741   0.0000000), wk =   0.1111111
        k(    8) = (   0.0283967  -0.0819741   0.0000000), wk =   0.1111111
        k(    9) = (   0.0283967  -0.0491845   0.0000000), wk =   0.1111111
        k(   10) = (   0.0283967  -0.0163948   0.0000000), wk =   0.1111111
        k(   11) = (   0.0567933   0.0327897   0.0000000), wk =   0.1111111
        k(   12) = (   0.0567933   0.0655793   0.0000000), wk =   0.1111111
        k(   13) = (   0.0567933   0.0983690   0.0000000), wk =   0.1111111
        k(   14) = (   0.0567933  -0.0655793   0.0000000), wk =   0.1111111
        k(   15) = (   0.0567933  -0.0327897   0.0000000), wk =   0.1111111
        k(   16) = (   0.0567933   0.0000000   0.0000000), wk =   0.1111111
        k(   17) = (  -0.0851900  -0.0491845   0.0000000), wk =   0.0555556
        k(   18) = (  -0.0851900  -0.0163948   0.0000000), wk =   0.1111111
        k(   19) = (  -0.0851900   0.0163948   0.0000000), wk =   0.1111111
        k(   20) = (  -0.0851900  -0.1475534   0.0000000), wk =   0.0555556

     Largest allocated arrays     est. size (Mb)     dimensions
     Largest temporary arrays     est. size (Mb)     dimensions

     Check: negative/imaginary core charge=   -0.000002    0.000000

     Initial potential from superposition of free atoms
     Check: negative starting charge=   -0.193792

     starting charge  140.69788, renormalised to  141.00000

     negative rho (up, down):  1.942E-01 0.000E+00

     *
     * You are using vdW-DF for exchange-correlation in this calculation.
     * Please cite the following three references that made this development
     * possible:
     *
     *   M. Dion, H. Rydberg, E. Schroder, D. C. Langreth, and
     *   B. I. Lundqvist, Phys. Rev. Lett. 92, 246401 (2004).
     *
     *   T. Thonhauser, V. R. Cooper, S. Li, A. Puzder, P. Hyldgaard, and
     *   D. C. Langreth, Phys. Rev. B 76, 125112 (2007).
     *
     *   G. Roman-Perez and J. M. Soler, Phys. Rev. Lett. 103, 096102 (2009).
     *
     *
     * If you are using vdW-DF2, please also cite:
     *
     *   K. Lee, E. D. Murray, L. Kong, B. I. Lundqvist, and
     *   D. C. Langreth, Phys. Rev. B 82, 081101(R) (2010).
     *
     *
     * If you are calculating the stress with vdW-DF, please also cite:
     *
     *   R. Sabatini, E. Kucukbenli, B. Kolb, T. Thonhauser, and
     *   S. de Gironcoli, J. Phys.: Condens. Matter 24, 424209 (2012).
     *

     Carrying out vdW-DF run using the following parameters:

     Nqs =      20    Nr_points =    1024   r_max =   100.000
     q_mesh =
               0.00001000     0.04494208     0.09755937     0.15916263
               0.23128650     0.31572767     0.41458969     0.53033537
               0.66584808     0.82450364     1.01025438     1.22772762
               1.48234092     1.78043706     2.12944203     2.53805004
               3.01644009     3.57652955     4.23227104     5.00000000

     Gradients computed in reciprocal space

     Adding external electric field

     Computed dipole along edir(3) :
        Dipole               -0.0000 Ry au,         -0.0000 Debye
        Dipole field         -0.0000 Ry au

        Potential amp.        0.0000 Ry
        Total length         45.6792 bohr

     Starting wfc are  120 randomized atomic wfcs

     Self-consistent Calculation

     iteration #  1     ecut=    36.75 Ry     beta=0.10
     Davidson diagonalization with overlap
     ethr =  1.00E-02,  avg # of iterations =  8.2

[...]

     total energy              =   -1530.96887280 Ry
     Harris-Foulkes estimate   =   -1531.25598311 Ry
     estimated scf accuracy    <       1.72584940 Ry

[...]

     End of self-consistent calculation

          k = 0.0000 0.0000 0.0000 ( 18871 PWs)   bands (ev):

   -74.1524 -73.9032 -73.9032 -38.2945 -38.1030 -38.1030 -37.9603 -37.9588
   -37.9182 -37.9182 -37.9179 -37.9179  -7.5527  -6.0935  -5.6702  -5.4170
    -5.2847  -5.2847  -5.2624  -5.1796  -5.1796  -4.9076  -4.8989  -4.8663
    -4.8663  -4.7375  -4.7375  -3.9205  -3.7146  -3.7146  -3.7115  -3.7115
    -3.4094  -3.3546  -3.3031  -3.1481  -3.1117  -3.1117  -3.0249  -3.0249
    -2.9008  -2.9008  -2.7483  -2.7483  -2.6849  -2.6849  -2.3860  -2.0740
    -2.0740  -1.9864  -1.9864  -1.7826  -1.7826  -1.5745  -1.3245  -1.3245
    -1.1845  -1.0679  -1.0273  -0.9869  -0.4260   0.2504   0.7415   0.7415
     0.8571   0.8571   0.9994   0.9994   1.1390   1.1390   1.2584   1.6415
     1.6506   1.6506   1.7551   1.8321   1.8321   2.0923   2.0923   3.2636
     3.2636   3.3502   3.3502   3.5577   3.7386   5.0706   5.3595   5.4644
     5.4645   5.5523   5.5523   5.6891   5.8531   6.0601   6.5214   6.5214
     6.6506   6.8760   7.3366   8.9582

[...]

          k =-0.0852-0.0492 0.0000 ( 18736 PWs)   bands (ev):

[...]

     the Fermi energy is     1.0028 ev

!    total energy              =   -1531.02345981 Ry
     Harris-Foulkes estimate   =   -1531.02345922 Ry
     estimated scf accuracy    <       0.00000074 Ry

     The total energy is the sum of the following terms:

     one-electron contribution =   -9494.16265837 Ry
     hartree contribution      =    4813.20967969 Ry
     xc contribution           =    -702.98778042 Ry
     ewald contribution        =    3853.02004825 Ry
     electric field correction =       0.00000000 Ry
     smearing contrib. (-TS)   =      -0.10274895 Ry

     convergence has been achieved in  14 iterations

 BEEF-vdW xc energy contributions
           1 :   -626.205675089121
           2 :    581.803179029887
           3 :   -502.416251367287
           4 :    403.578375757260
           5 :   -302.149134691275
           6 :    211.865186713541
           7 :   -140.634968307816
           8 :    90.0995321981477
           9 :   -57.1733634414117
          10 :    36.5921712553341
[...]
     Using radial grid of  985 points,  7 beta functions with:
                l(1) =   0
                l(2) =   0
                l(3) =   1
                l(4) =   1
                l(5) =   2
                l(6) =   2
                l(7) =   3
     Q(r) pseudized with  6 coefficients,  rinner =    1.900   1.900   1.900
                                                       1.900   1.900   1.900
                                                       1.900

     PseudoPot. # 2 for W  read from file:
     /afs/slac.stanford.edu/u/if/mamunm/psp/gbrv1.5pbe/W.UPF
     MD5 check sum: 9c083fa34c2a2ea0f02f1f893e16e1c8
     Pseudo is Ultrasoft + core correction, Zval = 14.0
     Generated by new atomic code, or converted to UPF format
     Using radial grid of  923 points,  8 beta functions with:
                l(1) =   0
                l(2) =   0
                l(3) =   0
                l(4) =   1
                l(5) =   1
                l(6) =   2
                l(7) =   2
                l(8) =   3
     Q(r) pseudized with  6 coefficients,  rinner =    1.350   1.350   1.350
                                                       1.350   1.350   1.350
                                                       1.350

     vdW kernel table read from file vdW_kernel_table
     MD5 check sum: 095c7af220d748ca6e76c0b4c6cfb241

     atomic species   valence    mass     pseudopotential
        Au1           11.00   196.96657     Au( 1.00)
        W1            14.00   183.84000     W ( 1.00)

     No symmetry found

   Cartesian axes

     site n.     atom                  positions (alat units)
         1           Au1 tau(   1) = (   0.0000000   0.0000000  10.0000000  )
         2           Au1 tau(   2) = (  -1.4673081   2.5414522  10.0000000  )
         3           Au1 tau(   3) = (   1.4673081   2.5414522  10.0000000  )
         4           W1  tau(   4) = (   2.9346162   0.0000000  10.0000000  )
         5           Au1 tau(   5) = (   2.9346162   1.6943014  12.3961041  )
         6           Au1 tau(   6) = (   1.4673081   4.2357536  12.3961041  )
         7           Au1 tau(   7) = (  -1.4673081   4.2357536  12.3961041  )
         8           W1  tau(   8) = (   0.0000000   1.6943014  12.3961041  )
         9           Au1 tau(   9) = (   0.0000191   3.3741027  14.8248004  )
        10           Au1 tau(  10) = (   1.4547672   0.8543910  14.8248638  )
        11           Au1 tau(  11) = (   4.4144920   0.8544288  14.8248205  )
        12           W1  tau(  12) = (   2.9346030   3.3886252  14.5670709  )

     number of k points=    20  Fermi-Dirac smearing, width (Ry)=  0.0110
                       cart. coord. in units 2pi/alat
        k(    1) = (   0.0000000   0.0000000   0.0000000), wk =   0.0555556
        k(    2) = (   0.0000000   0.0327897   0.0000000), wk =   0.1111111
        k(    3) = (   0.0000000   0.0655793   0.0000000), wk =   0.1111111
        k(    4) = (   0.0000000  -0.0983690   0.0000000), wk =   0.0555556
        k(    5) = (   0.0283967   0.0163948   0.0000000), wk =   0.1111111
        k(    6) = (   0.0283967   0.0491845   0.0000000), wk =   0.1111111
        k(    7) = (   0.0283967   0.0819741   0.0000000), wk =   0.1111111
        k(    8) = (   0.0283967  -0.0819741   0.0000000), wk =   0.1111111
        k(    9) = (   0.0283967  -0.0491845   0.0000000), wk =   0.1111111
        k(   10) = (   0.0283967  -0.0163948   0.0000000), wk =   0.1111111
        k(   11) = (   0.0567933   0.0327897   0.0000000), wk =   0.1111111
        k(   12) = (   0.0567933   0.0655793   0.0000000), wk =   0.1111111
        k(   13) = (   0.0567933   0.0983690   0.0000000), wk =   0.1111111
        k(   14) = (   0.0567933  -0.0655793   0.0000000), wk =   0.1111111
        k(   15) = (   0.0567933  -0.0327897   0.0000000), wk =   0.1111111
        k(   16) = (   0.0567933   0.0000000   0.0000000), wk =   0.1111111
        k(   17) = (  -0.0851900  -0.0491845   0.0000000), wk =   0.0555556
        k(   18) = (  -0.0851900  -0.0163948   0.0000000), wk =   0.1111111
        k(   19) = (  -0.0851900   0.0163948   0.0000000), wk =   0.1111111
        k(   20) = (  -0.0851900  -0.1475534   0.0000000), wk =   0.0555556

     Largest allocated arrays     est. size (Mb)     dimensions
     Largest temporary arrays     est. size (Mb)     dimensions

     Check: negative/imaginary core charge=   -0.000002    0.000000

     Initial potential from superposition of free atoms
     Check: negative starting charge=   -0.193733

     starting charge  140.69788, renormalised to  141.00000

[...]

     *
     * You are using vdW-DF for exchange-correlation in this calculation.
     * Please cite the following three references that made this development
     * possible:
     *
     *   M. Dion, H. Rydberg, E. Schroder, D. C. Langreth, and
     *   B. I. Lundqvist, Phys. Rev. Lett. 92, 246401 (2004).
     *
     *   T. Thonhauser, V. R. Cooper, S. Li, A. Puzder, P. Hyldgaard, and
     *   D. C. Langreth, Phys. Rev. B 76, 125112 (2007).
     *
     *   G. Roman-Perez and J. M. Soler, Phys. Rev. Lett. 103, 096102 (2009).
     *
     *
     * If you are using vdW-DF2, please also cite:
     *
     *   K. Lee, E. D. Murray, L. Kong, B. I. Lundqvist, and
     *   D. C. Langreth, Phys. Rev. B 82, 081101(R) (2010).
     *
     *
     * If you are calculating the stress with vdW-DF, please also cite:
     *
     *   R. Sabatini, E. Kucukbenli, B. Kolb, T. Thonhauser, and
     *   S. de Gironcoli, J. Phys.: Condens. Matter 24, 424209 (2012).
     *

     Carrying out vdW-DF run using the following parameters:

     Nqs =      20    Nr_points =    1024   r_max =   100.000
     q_mesh =
               0.00001000     0.04494208     0.09755937     0.15916263
               0.23128650     0.31572767     0.41458969     0.53033537
               0.66584808     0.82450364     1.01025438     1.22772762
               1.48234092     1.78043706     2.12944203     2.53805004
               3.01644009     3.57652955     4.23227104     5.00000000

     Gradients computed in reciprocal space

[...]

     Starting wfc are  120 randomized atomic wfcs

     Self-consistent Calculation

[...]

     total energy              =   -1531.05318701 Ry
     Harris-Foulkes estimate   =   -1531.05318642 Ry
     estimated scf accuracy    <       0.00000171 Ry

     iteration # 16     ecut=    36.75 Ry     beta=0.10
     Davidson diagonalization with overlap
     ethr =  1.21E-09,  avg # of iterations =  2.0

[...]

     negative rho (up, down):  2.021E-01 0.000E+00

     Adding external electric field

     Computed dipole along edir(3) :
        Dipole               -0.0272 Ry au,         -0.0691 Debye
        Dipole field         -0.0001 Ry au

        Potential amp.        0.0063 Ry
        Total length         45.6792 bohr

     End of self-consistent calculation

[...]

          k = 0.0568 0.0000 0.0000 ( 18777 PWs)   bands (ev):

[...]

          k =-0.0852-0.1476 0.0000 ( 18736 PWs)   bands (ev):

   -74.1851 -73.9447 -73.9125 -38.3325 -38.1347 -38.1330 -38.0253 -37.9705
   -37.9690 -37.9550 -37.9402 -37.9385  -6.1471  -6.0342  -5.0699  -4.9442
    -4.8533  -4.8367  -4.7804  -4.7350  -4.5833  -4.4998  -4.4782  -4.3534
    -4.1261  -4.0753  -4.0532  -3.9694  -3.9683  -3.9560  -3.9001  -3.7780
    -3.4010  -3.3999  -3.3419  -3.2487  -3.2478  -3.2155  -3.2042  -3.1756
    -3.1511  -3.0949  -3.0788  -2.9988  -2.9831  -2.9744  -2.8776  -2.8195
    -2.6687  -2.6666  -2.6343  -2.5312  -2.5135  -2.4704  -2.3193  -2.2525
    -1.9351  -1.8135  -1.5957  -1.5147  -1.5008  -1.2297  -0.7373  -0.6052
     0.1184   0.3309   0.5381   0.5734   0.7131   0.7508   0.8435   0.8764
     0.8902   1.1352   1.2400   1.4533   1.9557   2.0578   2.4532   2.6460
     3.5999   3.9246   4.5892   4.6637   4.9101   5.0384   6.2911   6.3148
     6.4741   6.9247   6.9612   7.0348   7.0423   7.1120   7.3874   7.5228
     7.6258   7.8757   8.1253   8.1753

     the Fermi energy is     0.9602 ev

!    total energy              =   -1531.05318722 Ry
     Harris-Foulkes estimate   =   -1531.05318654 Ry
     estimated scf accuracy    <       0.00000084 Ry

     The total energy is the sum of the following terms:

     one-electron contribution =   -9551.98826567 Ry
     hartree contribution      =    4841.90165458 Ry
     xc contribution           =    -703.08106438 Ry
     ewald contribution        =    3882.21792583 Ry
     electric field correction =       0.00000186 Ry
     smearing contrib. (-TS)   =      -0.10343945 Ry

     convergence has been achieved in  16 iterations

 BEEF-vdW xc energy contributions
           1 :   -626.872435491719
           2 :    582.494464129256
           3 :   -503.145467594486
           4 :    404.333144019884
           5 :   -302.888894604024
           6 :    212.539126187625
           7 :   -141.211980828320
           8 :    90.5899643710520
           9 :   -57.6274042478375
          10 :    37.0752647727817
          11 :   -23.8870677571767
          12 :    14.6473678596144
          13 :   -7.79017233965465
          14 :    2.93401573365531
          15 :   3.592000966000342E-002
          16 :   -1.59759007639354
          17 :    2.67840484536532
          18 :   -4.29415772307516
          19 :    7.04009884856555
          20 :   -10.7686185799225
          21 :    14.6347260581655
          22 :   -17.4866055627880
          23 :    18.3955230912007
          24 :   -17.0711696898702
          25 :    13.9763952024060
          26 :   -10.1159465609861
          27 :    6.61819239652004
          28 :   -4.31193477887336
          29 :    3.47527673554760
          30 :   -3.84123598169208
          31 :   -50.7426912919557
          32 :   -37.2146396505084

     Forces acting on atoms (Ry/au):

     negative rho (up, down):  2.021E-01 0.000E+00
     atom    1 type  1   force =    -0.00000056    0.00572399   -0.00506388
     atom    2 type  1   force =     0.00495785   -0.00286389   -0.00506486
     atom    3 type  1   force =    -0.00495792   -0.00286466   -0.00506152
     atom    4 type  2   force =     0.00000051    0.00000079    0.03091067
     atom    5 type  1   force =    -0.00000247   -0.01440281   -0.00780423
     atom    6 type  1   force =    -0.01247483    0.00720229   -0.00780692
     atom    7 type  1   force =     0.01247177    0.00720400   -0.00780443
     atom    8 type  2   force =     0.00000177   -0.00000190    0.00338007
     atom    9 type  1   force =     0.00000076   -0.00038929    0.00137974
     atom   10 type  1   force =    -0.00033827    0.00019635    0.00137428
     atom   11 type  1   force =     0.00033994    0.00019644    0.00137675
     atom   12 type  2   force =     0.00000144   -0.00000131    0.00018434

     Total force =     0.044198     Total SCF correction =     0.004522
     SCF correction compared to forces is large: reduce conv_thr to get better values

     entering subroutine stress ...

     negative rho (up, down):  2.021E-01 0.000E+00
          total   stress  (Ry/bohr**3)                   (kbar)     P=  -16.28
  -0.00014968  -0.00000000  -0.00000000        -22.02     -0.00     -0.00
  -0.00000000  -0.00014968  -0.00000000         -0.00    -22.02     -0.00
  -0.00000000  -0.00000000  -0.00003258         -0.00     -0.00     -4.79

 !ASE

     Writing output data file calc.save

     General routines

     Parallel routines

   This run was terminated on:  21: 4:11  19Dec2018

   JOB DONE.
Job  /afs/slac/g/suncat/bin/suncat-tsmpirun -x LD_LIBRARY_PATH -wdir /scratch/qe773404_7yqyo pw.x -in pw.inp

TID   HOST_NAME   COMMAND_LINE            STATUS            TERMINATION_TIME
00000 suncat0192 pw.x -in pw.inp   Done                     12/19/2018 21:04:11
00001 suncat0192 pw.x -in pw.inp   Done                     12/19/2018 21:04:11
00002 suncat0192 pw.x -in pw.inp   Done                     12/19/2018 21:04:11
00003 suncat0192 pw.x -in pw.inp   Done                     12/19/2018 21:04:11
00004 suncat0192 pw.x -in pw.inp   Done                     12/19/2018 21:04:11
00005 suncat0192 pw.x -in pw.inp   Done                     12/19/2018 21:04:11
00006 suncat0192 pw.x -in pw.inp   Done                     12/19/2018 21:04:11
00007 suncat0192 pw.x -in pw.inp   Done                     12/19/2018 21:04:11
00008 suncat0191 pw.x -in pw.inp   Done                     12/19/2018 21:04:11
00009 suncat0191 pw.x -in pw.inp   Done                     12/19/2018 21:04:11
00010 suncat0191 pw.x -in pw.inp   Done                     12/19/2018 21:04:11
00011 suncat0191 pw.x -in pw.inp   Done                     12/19/2018 21:04:11
00012 suncat0191 pw.x -in pw.inp   Done                     12/19/2018 21:04:11
00013 suncat0191 pw.x -in pw.inp   Done                     12/19/2018 21:04:11
00014 suncat0191 pw.x -in pw.inp   Done                     12/19/2018 21:04:11
00015 suncat0191 pw.x -in pw.inp   Done                     12/19/2018 21:04:11
00016 suncat0190 pw.x -in pw.inp   Done                     12/19/2018 21:04:11
00017 suncat0190 pw.x -in pw.inp   Done                     12/19/2018 21:04:11
00018 suncat0190 pw.x -in pw.inp   Done                     12/19/2018 21:04:11
00019 suncat0190 pw.x -in pw.inp   Done                     12/19/2018 21:04:11
00020 suncat0190 pw.x -in pw.inp   Done                     12/19/2018 21:04:11
00021 suncat0190 pw.x -in pw.inp   Done                     12/19/2018 21:04:11
00022 suncat0190 pw.x -in pw.inp   Done                     12/19/2018 21:04:11
00023 suncat0190 pw.x -in pw.inp   Done                     12/19/2018 21:04:11
00024 suncat0009 pw.x -in pw.inp   Done                     12/19/2018 21:04:11
00025 suncat0009 pw.x -in pw.inp   Done                     12/19/2018 21:04:11
00026 suncat0009 pw.x -in pw.inp   Done                     12/19/2018 21:04:11
00027 suncat0009 pw.x -in pw.inp   Done                     12/19/2018 21:04:11
00028 suncat0009 pw.x -in pw.inp   Done                     12/19/2018 21:04:11
00029 suncat0009 pw.x -in pw.inp   Done                     12/19/2018 21:04:11
00030 suncat0009 pw.x -in pw.inp   Done                     12/19/2018 21:04:11
00031 suncat0009 pw.x -in pw.inp   Done                     12/19/2018 21:04:11
00032 suncat0008 pw.x -in pw.inp   Done                     12/19/2018 21:04:11
00033 suncat0008 pw.x -in pw.inp   Done                     12/19/2018 21:04:11
00034 suncat0008 pw.x -in pw.inp   Done                     12/19/2018 21:04:11
00035 suncat0008 pw.x -in pw.inp   Done                     12/19/2018 21:04:11
00036 suncat0008 pw.x -in pw.inp   Done                     12/19/2018 21:04:11
00037 suncat0008 pw.x -in pw.inp   Done                     12/19/2018 21:04:11
00038 suncat0008 pw.x -in pw.inp   Done                     12/19/2018 21:04:11
00039 suncat0008 pw.x -in pw.inp   Done                     12/19/2018 21:04:11
00040 suncat0007 pw.x -in pw.inp   Done                     12/19/2018 21:04:11
00041 suncat0007 pw.x -in pw.inp   Done                     12/19/2018 21:04:11
00042 suncat0007 pw.x -in pw.inp   Done                     12/19/2018 21:04:11
00043 suncat0007 pw.x -in pw.inp   Done                     12/19/2018 21:04:11
00044 suncat0007 pw.x -in pw.inp   Done                     12/19/2018 21:04:11
00045 suncat0007 pw.x -in pw.inp   Done                     12/19/2018 21:04:11
00046 suncat0007 pw.x -in pw.inp   Done                     12/19/2018 21:04:11
00047 suncat0007 pw.x -in pw.inp   Done                     12/19/2018 21:04:11
00048 suncat0006 pw.x -in pw.inp   Done                     12/19/2018 21:04:11
00049 suncat0006 pw.x -in pw.inp   Done                     12/19/2018 21:04:11
00050 suncat0006 pw.x -in pw.inp   Done                     12/19/2018 21:04:11
00051 suncat0006 pw.x -in pw.inp   Done                     12/19/2018 21:04:11
00052 suncat0006 pw.x -in pw.inp   Done                     12/19/2018 21:04:11
00053 suncat0006 pw.x -in pw.inp   Done                     12/19/2018 21:04:11
00054 suncat0006 pw.x -in pw.inp   Done                     12/19/2018 21:04:11
00055 suncat0006 pw.x -in pw.inp   Done                     12/19/2018 21:04:11
00056 suncat0005 pw.x -in pw.inp   Done                     12/19/2018 21:04:11
00057 suncat0005 pw.x -in pw.inp   Done                     12/19/2018 21:04:11
00058 suncat0005 pw.x -in pw.inp   Done                     12/19/2018 21:04:11
00059 suncat0005 pw.x -in pw.inp   Done                     12/19/2018 21:04:11
00060 suncat0005 pw.x -in pw.inp   Done                     12/19/2018 21:04:11
00061 suncat0005 pw.x -in pw.inp   Done                     12/19/2018 21:04:11
00062 suncat0005 pw.x -in pw.inp   Done                     12/19/2018 21:04:11
00063 suncat0005 pw.x -in pw.inp   Done                     12/19/2018 21:04:11