     Program PWSCF v.5.1rc2 (svn rev. 11289) starts on  2Jan2019 at  4:27: 4

     Current dimensions of program PWSCF are:
     Max number of different atomic species (ntypx) = 10
     Max number of k-points (npk) =  40000
     Max angular momentum in pseudopotentials (lmaxx) =  3
     Presently stress not available with electric field

     IMPORTANT: XC functional enforced from input :
     Exchange-correlation      = BEEF-VDW ( 1  4 27 13 2)
     Any further DFT definition will be discarded
     Please, verify this is what you really want

     Subspace diagonalization in iterative solution of the eigenvalue problem:
     a serial algorithm will be used

     bravais-lattice index     =            0
     lattice parameter (alat)  =       1.8897  a.u.
     unit-cell volume          =    4451.9318 (a.u.)^3
     number of atoms/cell      =           12
     number of atomic types    =            2
     number of electrons       =       153.00
     number of Kohn-Sham states=          106
     kinetic-energy cutoff     =      36.7493  Ry
     charge density cutoff     =     367.4932  Ry
     convergence threshold     =      1.0E-06
     mixing beta               =       0.1000
     number of iterations used =           10  plain     mixing
     Exchange-correlation      = BEEF-VDW ( 1  4 27 13 2)
     nstep                     =           50

     celldm(1)=   1.889726  celldm(2)=   0.000000  celldm(3)=   0.000000
     celldm(4)=   0.000000  celldm(5)=   0.000000  celldm(6)=   0.000000

     crystal axes: (cart. coord. in units of alat)
               a(1) = (   5.570568   0.000000   0.000000 )
               a(2) = (  -2.785284   4.824253   0.000000 )
               a(3) = (   0.000000   0.000000  24.548350 )

     reciprocal axes: (cart. coord. in units 2 pi/alat)
               b(1) = (  0.179515  0.103643  0.000000 )
               b(2) = (  0.000000  0.207286  0.000000 )
               b(3) = (  0.000000  0.000000  0.040736 )

     PseudoPot. # 1 for V  read from file:
     /afs/slac.stanford.edu/u/if/mamunm/psp/gbrv1.5pbe/V.UPF
     MD5 check sum: 22b79981416ebb76fdaf5b1b8640f6fb
     Pseudo is Ultrasoft + core correction, Zval = 13.0
     Generated by new atomic code, or converted to UPF format
     Using radial grid of  853 points,  6 beta functions with:
                l(1) =   0
                l(2) =   0
                l(3) =   1
                l(4) =   1
                l(5) =   2
                l(6) =   2
     Q(r) pseudized with  8 coefficients,  rinner =    1.100   1.100   1.100
                                                       1.100   1.100

     PseudoPot. # 2 for Hg read from file:
     /afs/slac.stanford.edu/u/if/mamunm/psp/gbrv1.5pbe/Hg.UPF
     MD5 check sum: 8f42caffe07f7fd9c0a564347f8c5498
     Pseudo is Ultrasoft + core correction, Zval = 12.0
     Generated by new atomic code, or converted to UPF format
     Using radial grid of  985 points,  6 beta functions with:
                l(1) =   0
                l(2) =   0
                l(3) =   1
                l(4) =   1
                l(5) =   2
                l(6) =   2
     Q(r) pseudized with  8 coefficients,  rinner =    2.000   2.000   2.000
                                                       2.000   2.000

     vdW kernel table read from file vdW_kernel_table
     MD5 check sum: 095c7af220d748ca6e76c0b4c6cfb241

     atomic species   valence    mass     pseudopotential
        V1            13.00    50.94150     V ( 1.00)
        Hg1           12.00   200.59200     Hg( 1.00)

     No symmetry found

   Cartesian axes

     site n.     atom                  positions (alat units)
         1           V1  tau(   1) = (   0.0000000   0.0000000  10.0000000  )
         2           V1  tau(   2) = (  -1.3926420   2.4121267  10.0000000  )
         3           V1  tau(   3) = (   1.3926420   2.4121267  10.0000000  )
         4           Hg1 tau(   4) = (   2.7852840   0.0000000  10.0000000  )
         5           V1  tau(   5) = (   2.7852840   1.6080845  12.2741749  )
         6           V1  tau(   6) = (   1.3926420   4.0202112  12.2741749  )
         7           V1  tau(   7) = (  -1.3926420   4.0202112  12.2741749  )
         8           Hg1 tau(   8) = (   0.0000000   1.6080845  12.2741749  )
         9           V1  tau(   9) = (  -0.0000000   3.2161690  14.5483498  )
        10           V1  tau(  10) = (   1.3926420   0.8040422  14.5483498  )
        11           V1  tau(  11) = (   4.1779260   0.8040422  14.5483498  )
        12           Hg1 tau(  12) = (   2.7852840   3.2161690  14.5483498  )

     number of k points=    20  Fermi-Dirac smearing, width (Ry)=  0.0110
                       cart. coord. in units 2pi/alat
        k(    1) = (   0.0000000   0.0000000   0.0000000), wk =   0.0555556
        k(    2) = (   0.0000000   0.0345477   0.0000000), wk =   0.1111111
        k(    3) = (   0.0000000   0.0690953   0.0000000), wk =   0.1111111
        k(    4) = (   0.0000000  -0.1036430   0.0000000), wk =   0.0555556
        k(    5) = (   0.0299192   0.0172738   0.0000000), wk =   0.1111111
        k(    6) = (   0.0299192   0.0518215   0.0000000), wk =   0.1111111
        k(    7) = (   0.0299192   0.0863691   0.0000000), wk =   0.1111111
        k(    8) = (   0.0299192  -0.0863691   0.0000000), wk =   0.1111111
        k(    9) = (   0.0299192  -0.0518215   0.0000000), wk =   0.1111111
        k(   10) = (   0.0299192  -0.0172738   0.0000000), wk =   0.1111111
        k(   11) = (   0.0598383   0.0345477   0.0000000), wk =   0.1111111
        k(   12) = (   0.0598383   0.0690953   0.0000000), wk =   0.1111111
        k(   13) = (   0.0598383   0.1036430   0.0000000), wk =   0.1111111
        k(   14) = (   0.0598383  -0.0690953   0.0000000), wk =   0.1111111
        k(   15) = (   0.0598383  -0.0345477   0.0000000), wk =   0.1111111
        k(   16) = (   0.0598383   0.0000000   0.0000000), wk =   0.1111111
        k(   17) = (  -0.0897575  -0.0518215   0.0000000), wk =   0.0555556
        k(   18) = (  -0.0897575  -0.0172738   0.0000000), wk =   0.1111111
        k(   19) = (  -0.0897575   0.0172738   0.0000000), wk =   0.1111111
        k(   20) = (  -0.0897575  -0.1554645   0.0000000), wk =   0.0555556

     Largest allocated arrays     est. size (Mb)     dimensions
     Largest temporary arrays     est. size (Mb)     dimensions

     Initial potential from superposition of free atoms
     Check: negative starting charge=   -0.007214

     starting charge  152.98878, renormalised to  153.00000

     negative rho (up, down):  7.215E-03 0.000E+00

     *
     * You are using vdW-DF for exchange-correlation in this calculation.
     * Please cite the following three references that made this development
     * possible:
     *
     *   M. Dion, H. Rydberg, E. Schroder, D. C. Langreth, and
     *   B. I. Lundqvist, Phys. Rev. Lett. 92, 246401 (2004).
     *
     *   T. Thonhauser, V. R. Cooper, S. Li, A. Puzder, P. Hyldgaard, and
     *   D. C. Langreth, Phys. Rev. B 76, 125112 (2007).
     *
     *   G. Roman-Perez and J. M. Soler, Phys. Rev. Lett. 103, 096102 (2009).
     *
     *
     * If you are using vdW-DF2, please also cite:
     *
     *   K. Lee, E. D. Murray, L. Kong, B. I. Lundqvist, and
     *   D. C. Langreth, Phys. Rev. B 82, 081101(R) (2010).
     *
     *
     * If you are calculating the stress with vdW-DF, please also cite:
     *
     *   R. Sabatini, E. Kucukbenli, B. Kolb, T. Thonhauser, and
     *   S. de Gironcoli, J. Phys.: Condens. Matter 24, 424209 (2012).
     *

     Carrying out vdW-DF run using the following parameters:

     Nqs =      20    Nr_points =    1024   r_max =   100.000
     q_mesh =
               0.00001000     0.04494208     0.09755937     0.15916263
               0.23128650     0.31572767     0.41458969     0.53033537
               0.66584808     0.82450364     1.01025438     1.22772762
               1.48234092     1.78043706     2.12944203     2.53805004
               3.01644009     3.57652955     4.23227104     5.00000000

     Gradients computed in reciprocal space

     Adding external electric field

     Computed dipole along edir(3) :
        Dipole               -0.0000 Ry au,         -0.0000 Debye
        Dipole field         -0.0000 Ry au

        Potential amp.        0.0000 Ry
        Total length         45.2299 bohr

     Starting wfc are  117 randomized atomic wfcs

     Self-consistent Calculation

     iteration #  1     ecut=    36.75 Ry     beta=0.10
     Davidson diagonalization with overlap
     ethr =  1.00E-02,  avg # of iterations =  3.5

[...]

     total energy              =   -1638.22533104 Ry
     Harris-Foulkes estimate   =   -1639.35406934 Ry
     estimated scf accuracy    <       6.33103957 Ry

[...]

     End of self-consistent calculation

          k = 0.0000 0.0000 0.0000 ( 16703 PWs)   bands (ev):

   -63.2389 -63.2325 -63.1803 -63.1802 -63.1788 -63.1787 -63.1278 -63.0780
   -63.0779 -37.2144 -37.1710 -37.1709 -37.1648 -37.1648 -37.1435 -37.1408
   -37.1408 -37.1096 -37.1096 -37.1054 -37.0897 -37.0896 -36.9958 -36.9958
   -36.9385 -36.9166 -36.8650 -36.8650 -36.8163 -36.8152 -36.7388 -36.7388
   -36.7356 -36.7356 -36.6846 -36.6846  -7.0155  -6.9800  -6.9800  -6.9034
    -6.9034  -6.8581  -6.6855  -6.6855  -6.6359  -6.6359  -6.6097  -6.5067
    -6.3490  -6.3490  -6.2545  -6.2545  -5.1074  -4.4238  -1.9052  -1.6502
    -1.2058  -0.3568  -0.2846  -0.2845  -0.2386  -0.1544  -0.1543   0.1175
     0.1175   0.2119   0.2119   0.4725   0.4725   0.5703   0.6325   0.8954
     0.8954   1.0395   1.1467   1.1467   1.3137   1.3402   1.4394   1.4394
     1.7271   1.9530   1.9530   2.1983   2.4489   2.4646   2.4646   2.5829
     2.5829   2.6650   2.6650   2.7673   2.7674   2.8571   2.8571   3.0263
     3.0264   3.2174   3.2488   3.2489   3.7019   3.7090   3.7575   3.8542
     3.9747   4.1360

[...]

          k =-0.0898-0.0518 0.0000 ( 16776 PWs)   bands (ev):

[...]

     the Fermi energy is     1.1117 ev

!    total energy              =   -1638.69252314 Ry
     Harris-Foulkes estimate   =   -1638.69252301 Ry
     estimated scf accuracy    <       0.00000062 Ry

     The total energy is the sum of the following terms:

     one-electron contribution =  -13179.53116575 Ry
     hartree contribution      =    6603.13656474 Ry
     xc contribution           =    -304.51181466 Ry
     ewald contribution        =    5242.34378686 Ry
     electric field correction =       0.00000000 Ry
     smearing contrib. (-TS)   =      -0.12989434 Ry

     convergence has been achieved in  23 iterations

 BEEF-vdW xc energy contributions
           1 :   -264.268008988151
           2 :    239.887846673439
           3 :   -198.800233553260
           4 :    152.657643332060
           5 :   -112.053100424728
           6 :    82.7987368676227
           7 :   -65.0988973667559
           8 :    55.3540309861889
           9 :   -49.0717535131280
          10 :    43.1689978700741
          11 :   -36.7426309116217
          12 :    30.4216885529295
          13 :   -25.1383927433947
          14 :    21.2208433150477
          15 :   -18.2747930317043
          16 :    15.6906526195168
          17 :   -13.2267946507428
[...]
               b(3) = (  0.000000  0.000000  0.040736 )

     PseudoPot. # 1 for V  read from file:
     /afs/slac.stanford.edu/u/if/mamunm/psp/gbrv1.5pbe/V.UPF
     MD5 check sum: 22b79981416ebb76fdaf5b1b8640f6fb
     Pseudo is Ultrasoft + core correction, Zval = 13.0
     Generated by new atomic code, or converted to UPF format
     Using radial grid of  853 points,  6 beta functions with:
                l(1) =   0
                l(2) =   0
                l(3) =   1
                l(4) =   1
                l(5) =   2
                l(6) =   2
     Q(r) pseudized with  8 coefficients,  rinner =    1.100   1.100   1.100
                                                       1.100   1.100

     PseudoPot. # 2 for Hg read from file:
     /afs/slac.stanford.edu/u/if/mamunm/psp/gbrv1.5pbe/Hg.UPF
     MD5 check sum: 8f42caffe07f7fd9c0a564347f8c5498
     Pseudo is Ultrasoft + core correction, Zval = 12.0
     Generated by new atomic code, or converted to UPF format
     Using radial grid of  985 points,  6 beta functions with:
                l(1) =   0
                l(2) =   0
                l(3) =   1
                l(4) =   1
                l(5) =   2
                l(6) =   2
     Q(r) pseudized with  8 coefficients,  rinner =    2.000   2.000   2.000
                                                       2.000   2.000

     vdW kernel table read from file vdW_kernel_table
     MD5 check sum: 095c7af220d748ca6e76c0b4c6cfb241

     atomic species   valence    mass     pseudopotential
        V1            13.00    50.94150     V ( 1.00)
        Hg1           12.00   200.59200     Hg( 1.00)

     No symmetry found

   Cartesian axes

     site n.     atom                  positions (alat units)
         1           V1  tau(   1) = (   0.0000000   0.0000000  10.0000000  )
         2           V1  tau(   2) = (  -1.3926420   2.4121267  10.0000000  )
         3           V1  tau(   3) = (   1.3926420   2.4121267  10.0000000  )
         4           Hg1 tau(   4) = (   2.7852840   0.0000000  10.0000000  )
         5           V1  tau(   5) = (   2.7852840   1.6080845  12.2741749  )
         6           V1  tau(   6) = (   1.3926420   4.0202112  12.2741749  )
         7           V1  tau(   7) = (  -1.3926420   4.0202112  12.2741749  )
         8           Hg1 tau(   8) = (   0.0000000   1.6080845  12.2741749  )
         9           V1  tau(   9) = (  -0.0000178   3.3726621  14.3659637  )
        10           V1  tau(  10) = (   1.5281890   0.7258027  14.3659385  )
        11           V1  tau(  11) = (   4.0423451   0.7257996  14.3659355  )
        12           Hg1 tau(  12) = (   2.7852676   3.2161916  14.9712670  )

     number of k points=    20  Fermi-Dirac smearing, width (Ry)=  0.0110
                       cart. coord. in units 2pi/alat
        k(    1) = (   0.0000000   0.0000000   0.0000000), wk =   0.0555556
        k(    2) = (   0.0000000   0.0345477   0.0000000), wk =   0.1111111
        k(    3) = (   0.0000000   0.0690953   0.0000000), wk =   0.1111111
        k(    4) = (   0.0000000  -0.1036430   0.0000000), wk =   0.0555556
        k(    5) = (   0.0299192   0.0172738   0.0000000), wk =   0.1111111
        k(    6) = (   0.0299192   0.0518215   0.0000000), wk =   0.1111111
        k(    7) = (   0.0299192   0.0863691   0.0000000), wk =   0.1111111
        k(    8) = (   0.0299192  -0.0863691   0.0000000), wk =   0.1111111
        k(    9) = (   0.0299192  -0.0518215   0.0000000), wk =   0.1111111
        k(   10) = (   0.0299192  -0.0172738   0.0000000), wk =   0.1111111
        k(   11) = (   0.0598383   0.0345477   0.0000000), wk =   0.1111111
        k(   12) = (   0.0598383   0.0690953   0.0000000), wk =   0.1111111
        k(   13) = (   0.0598383   0.1036430   0.0000000), wk =   0.1111111
        k(   14) = (   0.0598383  -0.0690953   0.0000000), wk =   0.1111111
        k(   15) = (   0.0598383  -0.0345477   0.0000000), wk =   0.1111111
        k(   16) = (   0.0598383   0.0000000   0.0000000), wk =   0.1111111
        k(   17) = (  -0.0897575  -0.0518215   0.0000000), wk =   0.0555556
        k(   18) = (  -0.0897575  -0.0172738   0.0000000), wk =   0.1111111
        k(   19) = (  -0.0897575   0.0172738   0.0000000), wk =   0.1111111
        k(   20) = (  -0.0897575  -0.1554645   0.0000000), wk =   0.0555556

     Largest allocated arrays     est. size (Mb)     dimensions
     Largest temporary arrays     est. size (Mb)     dimensions

     Initial potential from superposition of free atoms
     Check: negative starting charge=   -0.006896

     starting charge  152.98878, renormalised to  153.00000

[...]

     *
     * You are using vdW-DF for exchange-correlation in this calculation.
     * Please cite the following three references that made this development
     * possible:
     *
     *   M. Dion, H. Rydberg, E. Schroder, D. C. Langreth, and
     *   B. I. Lundqvist, Phys. Rev. Lett. 92, 246401 (2004).
     *
     *   T. Thonhauser, V. R. Cooper, S. Li, A. Puzder, P. Hyldgaard, and
     *   D. C. Langreth, Phys. Rev. B 76, 125112 (2007).
     *
     *   G. Roman-Perez and J. M. Soler, Phys. Rev. Lett. 103, 096102 (2009).
     *
     *
     * If you are using vdW-DF2, please also cite:
     *
     *   K. Lee, E. D. Murray, L. Kong, B. I. Lundqvist, and
     *   D. C. Langreth, Phys. Rev. B 82, 081101(R) (2010).
     *
     *
     * If you are calculating the stress with vdW-DF, please also cite:
     *
     *   R. Sabatini, E. Kucukbenli, B. Kolb, T. Thonhauser, and
     *   S. de Gironcoli, J. Phys.: Condens. Matter 24, 424209 (2012).
     *

     Carrying out vdW-DF run using the following parameters:

     Nqs =      20    Nr_points =    1024   r_max =   100.000
     q_mesh =
               0.00001000     0.04494208     0.09755937     0.15916263
               0.23128650     0.31572767     0.41458969     0.53033537
               0.66584808     0.82450364     1.01025438     1.22772762
               1.48234092     1.78043706     2.12944203     2.53805004
               3.01644009     3.57652955     4.23227104     5.00000000

     Gradients computed in reciprocal space

[...]

     Starting wfc are  117 randomized atomic wfcs

     Self-consistent Calculation

[...]

     total energy              =   -1638.73631435 Ry
     Harris-Foulkes estimate   =   -1638.73631418 Ry
     estimated scf accuracy    <       0.00000111 Ry

     iteration # 23     ecut=    36.75 Ry     beta=0.10
     Davidson diagonalization with overlap
     ethr =  7.28E-10,  avg # of iterations =  1.1

[...]

     negative rho (up, down):  8.204E-03 0.000E+00

     Adding external electric field

     Computed dipole along edir(3) :
        Dipole               -0.0940 Ry au,         -0.2388 Debye
        Dipole field         -0.0003 Ry au

        Potential amp.        0.0240 Ry
        Total length         45.2299 bohr

     End of self-consistent calculation

[...]

          k = 0.0598 0.0000 0.0000 ( 16738 PWs)   bands (ev):

[...]

          k =-0.0898-0.1555 0.0000 ( 16776 PWs)   bands (ev):

   -63.3504 -63.3325 -63.3137 -63.2297 -63.1674 -63.1466 -63.1363 -63.1126
   -63.1016 -37.3174 -37.3048 -37.2765 -37.2602 -37.2430 -37.1895 -37.1798
   -37.1709 -37.1536 -37.1492 -37.1096 -37.1081 -37.0986 -37.0903 -37.0262
   -37.0174 -36.9953 -36.9295 -36.9130 -36.8868 -36.8571 -36.8005 -36.7988
   -36.7653 -36.7570 -36.7327 -36.7040  -7.0481  -6.9667  -6.9208  -6.8870
    -6.8823  -6.7752  -6.6198  -6.5607  -6.5344  -6.4449  -6.1962  -6.0946
    -6.0316  -5.9355  -5.8935  -5.4240  -4.9547  -4.0652  -2.7734  -1.9208
    -1.7733  -1.5270  -1.1813  -0.6486  -0.4371  -0.2914  -0.2293  -0.2119
    -0.1260  -0.0341   0.0629   0.0878   0.2189   0.3546   0.4191   0.5124
     0.5536   0.5722   0.6995   0.7900   0.9571   0.9695   1.1248   1.2432
     1.3246   1.3828   1.4948   1.4987   1.8676   2.0275   2.0647   2.1683
     2.2950   2.3131   2.3738   2.4699   2.4770   2.5201   2.5801   2.7076
     2.9457   3.1065   3.1879   3.2596   3.2832   3.4289   3.6614   4.0993
     4.5689   4.6140

     the Fermi energy is     0.9827 ev

!    total energy              =   -1638.73631431 Ry
     Harris-Foulkes estimate   =   -1638.73631147 Ry
     estimated scf accuracy    <       0.00000099 Ry

     The total energy is the sum of the following terms:

     one-electron contribution =  -13243.71354674 Ry
     hartree contribution      =    6635.05671247 Ry
     xc contribution           =    -304.67571271 Ry
     ewald contribution        =    5274.71918240 Ry
     electric field correction =       0.00002492 Ry
     smearing contrib. (-TS)   =      -0.12297465 Ry

     convergence has been achieved in  23 iterations

 BEEF-vdW xc energy contributions
           1 :   -264.508911181171
           2 :    240.118075453838
           3 :   -198.996817550167
           4 :    152.784817715616
           5 :   -112.084065705112
           6 :    82.7457123640764
           7 :   -65.0185866896724
           8 :    55.3167028079211
           9 :   -49.1140627690626
          10 :    43.2620638532354
          11 :   -36.7959882308811
          12 :    30.3277940911016
          13 :   -24.8424499752552
          14 :    20.7777452777111
          15 :   -17.8459833058672
          16 :    15.4623621913375
          17 :   -13.2893215458849
          18 :    11.4376100697921
          19 :   -10.2266467313690
          20 :    9.76897563022783
          21 :   -9.75877843877237
          22 :    9.63366540584980
          23 :   -8.96447800682461
          24 :    7.75279599119625
          25 :   -6.41462975270531
          26 :    5.47805761302982
          27 :   -5.22856855505825
          28 :    5.54397718039650
          29 :   -6.00815913230900
          30 :    6.19671485588378
          31 :   -26.2165161924885
          32 :   -19.1197024329387

     Forces acting on atoms (Ry/au):

     negative rho (up, down):  8.204E-03 0.000E+00
     atom    1 type  1   force =    -0.00000272   -0.01083531    0.02037653
     atom    2 type  1   force =    -0.00939108    0.00542132    0.02037513
     atom    3 type  1   force =     0.00938364    0.00542028    0.02037962
     atom    4 type  2   force =     0.00000131   -0.00002197   -0.05193600
     atom    5 type  1   force =    -0.00000058    0.02062473    0.00224760
     atom    6 type  1   force =     0.01784963   -0.01030768    0.00226138
     atom    7 type  1   force =    -0.01785529   -0.01030970    0.00225490
     atom    8 type  2   force =     0.00002743   -0.00001766   -0.01859244
     atom    9 type  1   force =    -0.00000296    0.00066920    0.00067395
     atom   10 type  1   force =     0.00057713   -0.00033254    0.00067432
     atom   11 type  1   force =    -0.00057952   -0.00033011    0.00067543
     atom   12 type  2   force =    -0.00000698    0.00001943    0.00060958

     Total force =     0.077038     Total SCF correction =     0.005140

     entering subroutine stress ...

     negative rho (up, down):  8.204E-03 0.000E+00
          total   stress  (Ry/bohr**3)                   (kbar)     P=   -7.58
  -0.00007303  -0.00000001  -0.00000000        -10.74     -0.00     -0.00
  -0.00000001  -0.00007303  -0.00000000         -0.00    -10.74     -0.00
  -0.00000000  -0.00000000  -0.00000856         -0.00     -0.00     -1.26

 !ASE

     Writing output data file calc.save

     General routines

     Parallel routines

   This run was terminated on:   6:49:30   2Jan2019

   JOB DONE.
Job  /afs/slac/g/suncat/bin/suncat-tsmpirun -x LD_LIBRARY_PATH -wdir /scratch/qe649305_MYyPI pw.x -in pw.inp

TID   HOST_NAME   COMMAND_LINE            STATUS            TERMINATION_TIME
00000 suncat0075 pw.x -in pw.inp   Done                     01/02/2019 06:49:30
00001 suncat0075 pw.x -in pw.inp   Done                     01/02/2019 06:49:30
00002 suncat0075 pw.x -in pw.inp   Done                     01/02/2019 06:49:30
00003 suncat0075 pw.x -in pw.inp   Done                     01/02/2019 06:49:30
00004 suncat0075 pw.x -in pw.inp   Done                     01/02/2019 06:49:30
00005 suncat0075 pw.x -in pw.inp   Done                     01/02/2019 06:49:30
00006 suncat0075 pw.x -in pw.inp   Done                     01/02/2019 06:49:30
00007 suncat0075 pw.x -in pw.inp   Done                     01/02/2019 06:49:30
00008 suncat0055 pw.x -in pw.inp   Done                     01/02/2019 06:49:30
00009 suncat0055 pw.x -in pw.inp   Done                     01/02/2019 06:49:30
00010 suncat0055 pw.x -in pw.inp   Done                     01/02/2019 06:49:30
00011 suncat0055 pw.x -in pw.inp   Done                     01/02/2019 06:49:30
00012 suncat0055 pw.x -in pw.inp   Done                     01/02/2019 06:49:30
00013 suncat0055 pw.x -in pw.inp   Done                     01/02/2019 06:49:30
00014 suncat0055 pw.x -in pw.inp   Done                     01/02/2019 06:49:30
00015 suncat0055 pw.x -in pw.inp   Done                     01/02/2019 06:49:30
00016 suncat0051 pw.x -in pw.inp   Done                     01/02/2019 06:49:30
00017 suncat0051 pw.x -in pw.inp   Done                     01/02/2019 06:49:30
00018 suncat0051 pw.x -in pw.inp   Done                     01/02/2019 06:49:30
00019 suncat0051 pw.x -in pw.inp   Done                     01/02/2019 06:49:30
00020 suncat0051 pw.x -in pw.inp   Done                     01/02/2019 06:49:30
00021 suncat0051 pw.x -in pw.inp   Done                     01/02/2019 06:49:30
00022 suncat0051 pw.x -in pw.inp   Done                     01/02/2019 06:49:30
00023 suncat0051 pw.x -in pw.inp   Done                     01/02/2019 06:49:30
00024 suncat0022 pw.x -in pw.inp   Done                     01/02/2019 06:49:30
00025 suncat0022 pw.x -in pw.inp   Done                     01/02/2019 06:49:30
00026 suncat0022 pw.x -in pw.inp   Done                     01/02/2019 06:49:30
00027 suncat0022 pw.x -in pw.inp   Done                     01/02/2019 06:49:30
00028 suncat0022 pw.x -in pw.inp   Done                     01/02/2019 06:49:30
00029 suncat0022 pw.x -in pw.inp   Done                     01/02/2019 06:49:30
00030 suncat0022 pw.x -in pw.inp   Done                     01/02/2019 06:49:30
00031 suncat0022 pw.x -in pw.inp   Done                     01/02/2019 06:49:30
00032 suncat0015 pw.x -in pw.inp   Done                     01/02/2019 06:49:30
00033 suncat0015 pw.x -in pw.inp   Done                     01/02/2019 06:49:30
00034 suncat0015 pw.x -in pw.inp   Done                     01/02/2019 06:49:30
00035 suncat0015 pw.x -in pw.inp   Done                     01/02/2019 06:49:30
00036 suncat0015 pw.x -in pw.inp   Done                     01/02/2019 06:49:30
00037 suncat0015 pw.x -in pw.inp   Done                     01/02/2019 06:49:30
00038 suncat0015 pw.x -in pw.inp   Done                     01/02/2019 06:49:30
00039 suncat0015 pw.x -in pw.inp   Done                     01/02/2019 06:49:30
00040 suncat0196 pw.x -in pw.inp   Done                     01/02/2019 06:49:30
00041 suncat0196 pw.x -in pw.inp   Done                     01/02/2019 06:49:30
00042 suncat0196 pw.x -in pw.inp   Done                     01/02/2019 06:49:30
00043 suncat0196 pw.x -in pw.inp   Done                     01/02/2019 06:49:30
00044 suncat0196 pw.x -in pw.inp   Done                     01/02/2019 06:49:30
00045 suncat0196 pw.x -in pw.inp   Done                     01/02/2019 06:49:30
00046 suncat0196 pw.x -in pw.inp   Done                     01/02/2019 06:49:30
00047 suncat0196 pw.x -in pw.inp   Done                     01/02/2019 06:49:30
00048 suncat0270 pw.x -in pw.inp   Done                     01/02/2019 06:49:30
00049 suncat0270 pw.x -in pw.inp   Done                     01/02/2019 06:49:30
00050 suncat0270 pw.x -in pw.inp   Done                     01/02/2019 06:49:30
00051 suncat0270 pw.x -in pw.inp   Done                     01/02/2019 06:49:30
00052 suncat0270 pw.x -in pw.inp   Done                     01/02/2019 06:49:30
00053 suncat0270 pw.x -in pw.inp   Done                     01/02/2019 06:49:30
00054 suncat0270 pw.x -in pw.inp   Done                     01/02/2019 06:49:30
00055 suncat0270 pw.x -in pw.inp   Done                     01/02/2019 06:49:30
00056 suncat0268 pw.x -in pw.inp   Done                     01/02/2019 06:49:30
00057 suncat0268 pw.x -in pw.inp   Done                     01/02/2019 06:49:30
00058 suncat0268 pw.x -in pw.inp   Done                     01/02/2019 06:49:30
00059 suncat0268 pw.x -in pw.inp   Done                     01/02/2019 06:49:30
00060 suncat0268 pw.x -in pw.inp   Done                     01/02/2019 06:49:30
00061 suncat0268 pw.x -in pw.inp   Done                     01/02/2019 06:49:30
00062 suncat0268 pw.x -in pw.inp   Done                     01/02/2019 06:49:30
00063 suncat0268 pw.x -in pw.inp   Done                     01/02/2019 06:49:30