     Program PWSCF v.5.1rc2 (svn rev. 11289) starts on 20Dec2018 at  8:35: 5

     Current dimensions of program PWSCF are:
     Max number of different atomic species (ntypx) = 10
     Max number of k-points (npk) =  40000
     Max angular momentum in pseudopotentials (lmaxx) =  3
     Presently stress not available with electric field

     IMPORTANT: XC functional enforced from input :
     Exchange-correlation      = BEEF-VDW ( 1  4 27 13 2)
     Any further DFT definition will be discarded
     Please, verify this is what you really want

     Subspace diagonalization in iterative solution of the eigenvalue problem:
     a serial algorithm will be used

     Found symmetry operation: I + ( -0.5000 -0.5000  0.0000)
     This is a supercell, fractional translations are disabled

     bravais-lattice index     =            0
     lattice parameter (alat)  =       1.8897  a.u.
     unit-cell volume          =    5774.1448 (a.u.)^3
     number of atoms/cell      =           12
     number of atomic types    =            2
     number of electrons       =       144.00
     number of Kohn-Sham states=          102
     kinetic-energy cutoff     =      36.7493  Ry
     charge density cutoff     =     367.4932  Ry
     convergence threshold     =      1.0E-06
     mixing beta               =       0.1000
     number of iterations used =           10  plain     mixing
     Exchange-correlation      = BEEF-VDW ( 1  4 27 13 2)
     nstep                     =           50

     celldm(1)=   1.889726  celldm(2)=   0.000000  celldm(3)=   0.000000
     celldm(4)=   0.000000  celldm(5)=   0.000000  celldm(6)=   0.000000

     crystal axes: (cart. coord. in units of alat)
               a(1) = (   6.198750   0.000000   0.000000 )
               a(2) = (   2.865181   5.496839   0.000000 )
               a(3) = (   0.000000   0.000000  25.111573 )

     reciprocal axes: (cart. coord. in units 2 pi/alat)
               b(1) = (  0.161323 -0.084088  0.000000 )
               b(2) = (  0.000000  0.181923  0.000000 )
               b(3) = (  0.000000  0.000000  0.039822 )

     PseudoPot. # 1 for V  read from file:
     /afs/slac.stanford.edu/u/if/mamunm/psp/gbrv1.5pbe/V.UPF
     MD5 check sum: 22b79981416ebb76fdaf5b1b8640f6fb
     Pseudo is Ultrasoft + core correction, Zval = 13.0
     Generated by new atomic code, or converted to UPF format
     Using radial grid of  853 points,  6 beta functions with:
                l(1) =   0
                l(2) =   0
                l(3) =   1
                l(4) =   1
                l(5) =   2
                l(6) =   2
     Q(r) pseudized with  8 coefficients,  rinner =    1.100   1.100   1.100
                                                       1.100   1.100

     PseudoPot. # 2 for Y  read from file:
     /afs/slac.stanford.edu/u/if/mamunm/psp/gbrv1.5pbe/Y.UPF
     MD5 check sum: d034151ed7554c50b6e82763ed42c788
     Pseudo is Ultrasoft + core correction, Zval = 11.0
     Generated by new atomic code, or converted to UPF format
     Using radial grid of  885 points,  6 beta functions with:
                l(1) =   0
                l(2) =   0
                l(3) =   1
                l(4) =   1
                l(5) =   2
                l(6) =   2
     Q(r) pseudized with  8 coefficients,  rinner =    1.200   1.200   1.200
                                                       1.200   1.200

     vdW kernel table read from file vdW_kernel_table
     MD5 check sum: 095c7af220d748ca6e76c0b4c6cfb241

     atomic species   valence    mass     pseudopotential
        V1            13.00    50.94150     V ( 1.00)
        Y1            11.00    88.90584     Y ( 1.00)

     No symmetry found

   Cartesian axes

     site n.     atom                  positions (alat units)
         1           V1  tau(   1) = (   0.0000000   0.0000000  10.0000000  )
         2           V1  tau(   2) = (   4.5319658   2.7484195  10.0000000  )
         3           Y1  tau(   3) = (   3.0993751   0.0000000  10.0000000  )
         4           Y1  tau(   4) = (   1.4325907   2.7484195  10.0000000  )
         5           V1  tau(   5) = (   6.1987502   3.7592442  12.5557863  )
         6           V1  tau(   6) = (   1.6667844   1.0108247  12.5557863  )
         7           Y1  tau(   7) = (   3.0993751   3.7592442  12.5557863  )
         8           Y1  tau(   8) = (   4.7661595   1.0108247  12.5557863  )
         9           V1  tau(   9) = (   3.3335689   2.0216494  15.1115725  )
        10           V1  tau(  10) = (   7.8655346   4.7700689  15.1115725  )
        11           Y1  tau(  11) = (   6.4329440   2.0216494  15.1115725  )
        12           Y1  tau(  12) = (   4.7661595   4.7700689  15.1115725  )

     number of k points=    20  Fermi-Dirac smearing, width (Ry)=  0.0110
                       cart. coord. in units 2pi/alat
        k(    1) = (   0.0000000   0.0000000   0.0000000), wk =   0.0555556
        k(    2) = (   0.0000000   0.0303205   0.0000000), wk =   0.1111111
        k(    3) = (   0.0000000   0.0606409   0.0000000), wk =   0.1111111
        k(    4) = (   0.0000000  -0.0909614   0.0000000), wk =   0.0555556
        k(    5) = (   0.0268871  -0.0140147   0.0000000), wk =   0.1111111
        k(    6) = (   0.0268871   0.0163058   0.0000000), wk =   0.1111111
        k(    7) = (   0.0268871   0.0466262   0.0000000), wk =   0.1111111
        k(    8) = (   0.0268871  -0.1049761   0.0000000), wk =   0.1111111
        k(    9) = (   0.0268871  -0.0746556   0.0000000), wk =   0.1111111
        k(   10) = (   0.0268871  -0.0443352   0.0000000), wk =   0.1111111
        k(   11) = (   0.0537743  -0.0280294   0.0000000), wk =   0.1111111
        k(   12) = (   0.0537743   0.0022911   0.0000000), wk =   0.1111111
        k(   13) = (   0.0537743   0.0326115   0.0000000), wk =   0.1111111
        k(   14) = (   0.0537743  -0.1189908   0.0000000), wk =   0.1111111
        k(   15) = (   0.0537743  -0.0886703   0.0000000), wk =   0.1111111
        k(   16) = (   0.0537743  -0.0583498   0.0000000), wk =   0.1111111
        k(   17) = (  -0.0806614   0.0420441   0.0000000), wk =   0.0555556
        k(   18) = (  -0.0806614   0.0723645   0.0000000), wk =   0.1111111
        k(   19) = (  -0.0806614   0.1026850   0.0000000), wk =   0.1111111
        k(   20) = (  -0.0806614  -0.0489173   0.0000000), wk =   0.0555556

     Largest allocated arrays     est. size (Mb)     dimensions
     Largest temporary arrays     est. size (Mb)     dimensions

     Initial potential from superposition of free atoms
     Check: negative starting charge=   -0.005011

     starting charge  143.96582, renormalised to  144.00000

     negative rho (up, down):  5.012E-03 0.000E+00

     *
     * You are using vdW-DF for exchange-correlation in this calculation.
     * Please cite the following three references that made this development
     * possible:
     *
     *   M. Dion, H. Rydberg, E. Schroder, D. C. Langreth, and
     *   B. I. Lundqvist, Phys. Rev. Lett. 92, 246401 (2004).
     *
     *   T. Thonhauser, V. R. Cooper, S. Li, A. Puzder, P. Hyldgaard, and
     *   D. C. Langreth, Phys. Rev. B 76, 125112 (2007).
     *
     *   G. Roman-Perez and J. M. Soler, Phys. Rev. Lett. 103, 096102 (2009).
     *
     *
     * If you are using vdW-DF2, please also cite:
     *
     *   K. Lee, E. D. Murray, L. Kong, B. I. Lundqvist, and
     *   D. C. Langreth, Phys. Rev. B 82, 081101(R) (2010).
     *
     *
     * If you are calculating the stress with vdW-DF, please also cite:
     *
     *   R. Sabatini, E. Kucukbenli, B. Kolb, T. Thonhauser, and
     *   S. de Gironcoli, J. Phys.: Condens. Matter 24, 424209 (2012).
     *

     Carrying out vdW-DF run using the following parameters:

     Nqs =      20    Nr_points =    1024   r_max =   100.000
     q_mesh =
               0.00001000     0.04494208     0.09755937     0.15916263
               0.23128650     0.31572767     0.41458969     0.53033537
               0.66584808     0.82450364     1.01025438     1.22772762
               1.48234092     1.78043706     2.12944203     2.53805004
               3.01644009     3.57652955     4.23227104     5.00000000

     Gradients computed in reciprocal space

     Adding external electric field

     Computed dipole along edir(3) :
        Dipole                0.0000 Ry au,          0.0000 Debye
        Dipole field          0.0000 Ry au

        Potential amp.       -0.0000 Ry
        Total length         46.2676 bohr

     Starting wfc are  138 randomized atomic wfcs

     Self-consistent Calculation

     iteration #  1     ecut=    36.75 Ry     beta=0.10
     Davidson diagonalization with overlap
     ethr =  1.00E-02,  avg # of iterations =  2.1

[...]

     total energy              =   -1434.67200419 Ry
     Harris-Foulkes estimate   =   -1436.84194819 Ry
     estimated scf accuracy    <      11.96110465 Ry

[...]

     End of self-consistent calculation

          k = 0.0000 0.0000 0.0000 ( 21771 PWs)   bands (ev):

   -63.2818 -63.2761 -63.2645 -63.2642 -63.2587 -63.2585 -41.6298 -41.6293
   -41.5513 -41.5505 -41.0033 -40.9233 -37.1370 -37.1296 -37.1129 -37.1098
   -37.1075 -37.1073 -37.1026 -37.0952 -37.0884 -37.0568 -37.0505 -37.0480
   -37.0441 -37.0403 -37.0359 -37.0357 -37.0348 -37.0301 -22.0094 -22.0084
   -21.7739 -21.6797 -21.6748 -21.5840 -21.5681 -21.5623 -21.4809 -21.4697
   -21.4244 -21.2415 -21.2410 -20.9856 -20.9649 -20.8953 -20.8651 -20.6426
    -3.8121  -2.6794  -1.7108  -1.3800  -1.3361  -0.9018  -0.8400  -0.8107
    -0.6640  -0.5527  -0.4793  -0.3527  -0.2359  -0.2061  -0.1488   0.2581
     0.2967   0.4412   0.9238   0.9851   1.0141   1.0260   1.2453   1.2755
     1.3126   1.3275   1.4788   1.4872   1.4881   1.5341   1.6118   1.6489
     1.9438   2.0172   2.0888   2.0965   2.1661   2.1764   2.4536   2.4967
     2.5429   2.6960   2.7134   2.8469   2.9478   3.0155   3.2098   3.2227
     3.2327   3.3039   3.3915   3.9011   3.9332   3.9503

[...]

          k =-0.0807 0.0420 0.0000 ( 21712 PWs)   bands (ev):

[...]

     the Fermi energy is     1.0170 ev

!    total energy              =   -1436.12704449 Ry
     Harris-Foulkes estimate   =   -1436.12704438 Ry
     estimated scf accuracy    <       0.00000017 Ry

     The total energy is the sum of the following terms:

     one-electron contribution =   -8948.14661835 Ry
     hartree contribution      =    4465.12806521 Ry
     xc contribution           =    -291.69870344 Ry
     ewald contribution        =    3338.76284247 Ry
     electric field correction =       0.00000000 Ry
     smearing contrib. (-TS)   =      -0.17263038 Ry

     convergence has been achieved in  28 iterations

 BEEF-vdW xc energy contributions
           1 :   -253.197223915456
           2 :    227.242482106403
           3 :   -183.282358819828
           4 :    133.369032545117
           5 :   -88.4386145995881
           6 :    54.5758345411617
           7 :   -32.3810004038534
           8 :    19.0087761244163
           9 :   -11.0891227222534
          10 :    6.67779913797904
          11 :   -5.43829683644282
          12 :    7.50884226273149
          13 :   -12.2254233745220
          14 :    17.7028516022423
[...]

[...]

   This run was terminated on:  11: 4:40  20Dec2018

[...]

     Program PWSCF v.5.1rc2 (svn rev. 11289) starts on 20Dec2018 at 11: 4:47

[...]

   This run was terminated on:  14: 1: 5  20Dec2018

[...]

     Program PWSCF v.5.1rc2 (svn rev. 11289) starts on 20Dec2018 at 16:10: 4

[...]

     iteration # 11     ecut=    36.75 Ry     beta=0.10
     Davidson diagonalization with overlap
     c_bands:  1 eigenvalues not converged
     ethr =  1.64E-05,  avg # of iterations =  9.2

[...]

     Program PWSCF v.5.1rc2 (svn rev. 11289) starts on 20Dec2018 at 17: 7:46

[...]

   This run was terminated on:  17:26:23  20Dec2018

[...]

   This run was terminated on:  17:45: 8  20Dec2018

[...]

     Program PWSCF v.5.1rc2 (svn rev. 11289) starts on 20Dec2018 at 17:45:14

     Current dimensions of program PWSCF are:
     Max number of different atomic species (ntypx) = 10
     Max number of k-points (npk) =  40000
     Max angular momentum in pseudopotentials (lmaxx) =  3
     Presently stress not available with electric field

     IMPORTANT: XC functional enforced from input :
     Exchange-correlation      = BEEF-VDW ( 1  4 27 13 2)
     Any further DFT definition will be discarded
     Please, verify this is what you really want

     Subspace diagonalization in iterative solution of the eigenvalue problem:
     a serial algorithm will be used

     bravais-lattice index     =            0
     lattice parameter (alat)  =       1.8897  a.u.
     unit-cell volume          =    5774.1448 (a.u.)^3
     number of atoms/cell      =           12
     number of atomic types    =            2
     number of electrons       =       144.00
     number of Kohn-Sham states=          102
     kinetic-energy cutoff     =      36.7493  Ry
     charge density cutoff     =     367.4932  Ry
     convergence threshold     =      1.0E-06
     mixing beta               =       0.1000
     number of iterations used =           10  plain     mixing
     Exchange-correlation      = BEEF-VDW ( 1  4 27 13 2)
     nstep                     =           50

     celldm(1)=   1.889726  celldm(2)=   0.000000  celldm(3)=   0.000000
     celldm(4)=   0.000000  celldm(5)=   0.000000  celldm(6)=   0.000000

     crystal axes: (cart. coord. in units of alat)
               a(1) = (   6.198750   0.000000   0.000000 )
               a(2) = (   2.865181   5.496839   0.000000 )
               a(3) = (   0.000000   0.000000  25.111573 )

     reciprocal axes: (cart. coord. in units 2 pi/alat)
               b(1) = (  0.161323 -0.084088  0.000000 )
               b(2) = (  0.000000  0.181923  0.000000 )
               b(3) = (  0.000000  0.000000  0.039822 )

     PseudoPot. # 1 for V  read from file:
     /afs/slac.stanford.edu/u/if/mamunm/psp/gbrv1.5pbe/V.UPF
     MD5 check sum: 22b79981416ebb76fdaf5b1b8640f6fb
     Pseudo is Ultrasoft + core correction, Zval = 13.0
     Generated by new atomic code, or converted to UPF format
     Using radial grid of  853 points,  6 beta functions with:
                l(1) =   0
                l(2) =   0
                l(3) =   1
                l(4) =   1
                l(5) =   2
                l(6) =   2
     Q(r) pseudized with  8 coefficients,  rinner =    1.100   1.100   1.100
                                                       1.100   1.100

     PseudoPot. # 2 for Y  read from file:
     /afs/slac.stanford.edu/u/if/mamunm/psp/gbrv1.5pbe/Y.UPF
     MD5 check sum: d034151ed7554c50b6e82763ed42c788
     Pseudo is Ultrasoft + core correction, Zval = 11.0
     Generated by new atomic code, or converted to UPF format
     Using radial grid of  885 points,  6 beta functions with:
                l(1) =   0
                l(2) =   0
                l(3) =   1
                l(4) =   1
                l(5) =   2
                l(6) =   2
     Q(r) pseudized with  8 coefficients,  rinner =    1.200   1.200   1.200
                                                       1.200   1.200

     vdW kernel table read from file vdW_kernel_table
     MD5 check sum: 095c7af220d748ca6e76c0b4c6cfb241

     atomic species   valence    mass     pseudopotential
        V1            13.00    50.94150     V ( 1.00)
        Y1            11.00    88.90584     Y ( 1.00)

     No symmetry found

   Cartesian axes

     site n.     atom                  positions (alat units)
         1           V1  tau(   1) = (   0.0000000   0.0000000  10.0000000  )
         2           V1  tau(   2) = (   4.5319658   2.7484195  10.0000000  )
         3           Y1  tau(   3) = (   3.0993751   0.0000000  10.0000000  )
         4           Y1  tau(   4) = (   1.4325907   2.7484195  10.0000000  )
         5           V1  tau(   5) = (   6.1987502   3.7592442  12.5557863  )
         6           V1  tau(   6) = (   1.6667844   1.0108247  12.5557863  )
         7           Y1  tau(   7) = (   3.0993751   3.7592442  12.5557863  )
         8           Y1  tau(   8) = (   4.7661595   1.0108247  12.5557863  )
         9           V1  tau(   9) = (   1.3386319   0.8118599  14.3715858  )
        10           V1  tau(  10) = (   5.8705153   3.5601402  14.3714347  )
        11           Y1  tau(  11) = (   4.4738467   0.8336940  15.7346566  )
        12           Y1  tau(  12) = (   2.8080728   3.5824328  15.7348307  )

     number of k points=    20  Fermi-Dirac smearing, width (Ry)=  0.0110
                       cart. coord. in units 2pi/alat
        k(    1) = (   0.0000000   0.0000000   0.0000000), wk =   0.0555556
        k(    2) = (   0.0000000   0.0303205   0.0000000), wk =   0.1111111
        k(    3) = (   0.0000000   0.0606409   0.0000000), wk =   0.1111111
        k(    4) = (   0.0000000  -0.0909614   0.0000000), wk =   0.0555556
        k(    5) = (   0.0268871  -0.0140147   0.0000000), wk =   0.1111111
        k(    6) = (   0.0268871   0.0163058   0.0000000), wk =   0.1111111
        k(    7) = (   0.0268871   0.0466262   0.0000000), wk =   0.1111111
        k(    8) = (   0.0268871  -0.1049761   0.0000000), wk =   0.1111111
        k(    9) = (   0.0268871  -0.0746556   0.0000000), wk =   0.1111111
        k(   10) = (   0.0268871  -0.0443352   0.0000000), wk =   0.1111111
        k(   11) = (   0.0537743  -0.0280294   0.0000000), wk =   0.1111111
        k(   12) = (   0.0537743   0.0022911   0.0000000), wk =   0.1111111
        k(   13) = (   0.0537743   0.0326115   0.0000000), wk =   0.1111111
        k(   14) = (   0.0537743  -0.1189908   0.0000000), wk =   0.1111111
        k(   15) = (   0.0537743  -0.0886703   0.0000000), wk =   0.1111111
        k(   16) = (   0.0537743  -0.0583498   0.0000000), wk =   0.1111111
        k(   17) = (  -0.0806614   0.0420441   0.0000000), wk =   0.0555556
        k(   18) = (  -0.0806614   0.0723645   0.0000000), wk =   0.1111111
        k(   19) = (  -0.0806614   0.1026850   0.0000000), wk =   0.1111111
        k(   20) = (  -0.0806614  -0.0489173   0.0000000), wk =   0.0555556

     Largest allocated arrays     est. size (Mb)     dimensions
     Largest temporary arrays     est. size (Mb)     dimensions

     Initial potential from superposition of free atoms
     Check: negative starting charge=   -0.005267

     starting charge  143.96582, renormalised to  144.00000

[...]

     *
     * You are using vdW-DF for exchange-correlation in this calculation.
     * Please cite the following three references that made this development
     * possible:
     *
     *   M. Dion, H. Rydberg, E. Schroder, D. C. Langreth, and
     *   B. I. Lundqvist, Phys. Rev. Lett. 92, 246401 (2004).
     *
     *   T. Thonhauser, V. R. Cooper, S. Li, A. Puzder, P. Hyldgaard, and
     *   D. C. Langreth, Phys. Rev. B 76, 125112 (2007).
     *
     *   G. Roman-Perez and J. M. Soler, Phys. Rev. Lett. 103, 096102 (2009).
     *
     *
     * If you are using vdW-DF2, please also cite:
     *
     *   K. Lee, E. D. Murray, L. Kong, B. I. Lundqvist, and
     *   D. C. Langreth, Phys. Rev. B 82, 081101(R) (2010).
     *
     *
     * If you are calculating the stress with vdW-DF, please also cite:
     *
     *   R. Sabatini, E. Kucukbenli, B. Kolb, T. Thonhauser, and
     *   S. de Gironcoli, J. Phys.: Condens. Matter 24, 424209 (2012).
     *

     Carrying out vdW-DF run using the following parameters:

     Nqs =      20    Nr_points =    1024   r_max =   100.000
     q_mesh =
               0.00001000     0.04494208     0.09755937     0.15916263
               0.23128650     0.31572767     0.41458969     0.53033537
               0.66584808     0.82450364     1.01025438     1.22772762
               1.48234092     1.78043706     2.12944203     2.53805004
               3.01644009     3.57652955     4.23227104     5.00000000

     Gradients computed in reciprocal space

[...]

     Starting wfc are  138 randomized atomic wfcs

     Self-consistent Calculation

[...]

     total energy              =   -1436.22741008 Ry
     Harris-Foulkes estimate   =   -1436.22740908 Ry
     estimated scf accuracy    <       0.00000217 Ry

     iteration # 23     ecut=    36.75 Ry     beta=0.10
     Davidson diagonalization with overlap
     ethr =  1.51E-09,  avg # of iterations =  3.0

[...]

     negative rho (up, down):  5.877E-03 0.000E+00

     Adding external electric field

     Computed dipole along edir(3) :
        Dipole                0.3437 Ry au,          0.8735 Debye
        Dipole field          0.0007 Ry au

        Potential amp.       -0.0692 Ry
        Total length         46.2676 bohr

     End of self-consistent calculation

[...]

          k = 0.0538-0.0583 0.0000 ( 21719 PWs)   bands (ev):

[...]

          k =-0.0807-0.0489 0.0000 ( 21728 PWs)   bands (ev):

   -62.8893 -62.8830 -62.8825 -62.8768 -61.8629 -61.8576 -42.1406 -42.0661
   -41.2892 -41.2099 -40.8892 -40.8091 -37.8146 -37.8066 -36.7346 -36.7336
   -36.7273 -36.6629 -36.6453 -36.6405 -36.5671 -36.5599 -36.5533 -36.4848
   -35.9702 -35.9649 -35.9597 -35.8948 -34.3746 -34.3696 -22.3498 -22.2658
   -22.1767 -22.0016 -21.9103 -21.6754 -21.6163 -21.4010 -21.2983 -21.2923
   -21.2403 -21.1335 -20.9028 -20.8860 -20.8136 -20.7951 -20.7203 -20.5169
    -1.9508  -1.7858  -1.1940  -0.8540  -0.6765  -0.5234  -0.4803  -0.1663
    -0.0683  -0.0579   0.1926   0.3109   0.3175   0.5383   0.5727   0.6397
     0.6961   0.8378   0.9250   1.0059   1.1137   1.1440   1.2228   1.3200
     1.4171   1.4558   1.4963   1.6233   1.6902   1.8162   1.8623   1.8726
     1.9724   2.0373   2.1818   2.2000   2.3081   2.3703   2.4572   2.6143
     2.6874   2.7529   2.9635   3.0183   3.1992   3.5302   3.6268   3.7290
     3.8304   3.9780   4.2336   4.3093   4.3818   4.5250

     the Fermi energy is     1.3798 ev

!    total energy              =   -1436.22741114 Ry
     Harris-Foulkes estimate   =   -1436.22740293 Ry
     estimated scf accuracy    <       0.00000092 Ry

     The total energy is the sum of the following terms:

     one-electron contribution =   -9063.60766928 Ry
     hartree contribution      =    4524.80943846 Ry
     xc contribution           =    -292.21615136 Ry
     ewald contribution        =    3394.91442418 Ry
     electric field correction =       0.00025704 Ry
     smearing contrib. (-TS)   =      -0.12771018 Ry

     convergence has been achieved in  23 iterations

 BEEF-vdW xc energy contributions
           1 :   -253.735481770539
           2 :    227.859121194152
           3 :   -183.975857043375
           4 :    133.998339208848
           5 :   -88.7287662765721
           6 :    54.2379692827468
           7 :   -31.3136080546515
           8 :    17.4382671531013
           9 :   -9.51139852165153
          10 :    5.60331212291783
          11 :   -5.10149235791044
          12 :    7.73855729146698
          13 :   -12.5634274538427
          14 :    17.6927287829271
          15 :   -20.9783069477263
          16 :    21.0321319709018
          17 :   -17.8553103346551
          18 :    12.6717718802888
          19 :   -7.16707915298252
          20 :    2.68219707113496
          21 :   0.175973328699570
          22 :   -1.43058733911573
          23 :    1.38394386785671
          24 :  -0.340595473575547
          25 :   -1.44182714290696
          26 :    3.63891964076743
          27 :   -5.77093380266029
          28 :    7.27577101993290
          29 :   -7.72808751982706
          30 :    7.05273362415420
          31 :   -25.0092950121959
          32 :   -17.4748844580539

     Forces acting on atoms (Ry/au):

     negative rho (up, down):  5.877E-03 0.000E+00
     atom    1 type  1   force =     0.00686737    0.00416314    0.02931547
     atom    2 type  1   force =     0.00686022    0.00416144    0.02931302
     atom    3 type  2   force =    -0.01201720   -0.00727385   -0.01782731
     atom    4 type  2   force =    -0.01200782   -0.00729434   -0.01782768
     atom    5 type  1   force =    -0.01725308   -0.01046667   -0.01173875
     atom    6 type  1   force =    -0.01726611   -0.01046671   -0.01172994
     atom    7 type  2   force =     0.02224543    0.01347450    0.00117533
     atom    8 type  2   force =     0.02224379    0.01350603    0.00116468
     atom    9 type  1   force =     0.00000712    0.00000540   -0.00028811
     atom   10 type  1   force =     0.00001554    0.00000793   -0.00019621
     atom   11 type  2   force =     0.00016352    0.00005087   -0.00067981
     atom   12 type  2   force =     0.00014121    0.00013226   -0.00068071

     Total force =     0.072977     Total SCF correction =     0.003278

     entering subroutine stress ...

     negative rho (up, down):  5.877E-03 0.000E+00
          total   stress  (Ry/bohr**3)                   (kbar)     P=   -5.22
  -0.00005458  -0.00002604   0.00000887         -8.03     -3.83      1.31
  -0.00002604  -0.00002743   0.00000538         -3.83     -4.04      0.79
   0.00000887   0.00000538  -0.00002451          1.31      0.79     -3.61

 !ASE

     Writing output data file calc.save

     General routines

     Parallel routines

   This run was terminated on:  18: 3:16  20Dec2018

   JOB DONE.
Job  /afs/slac/g/suncat/bin/suncat-tsmpirun -x LD_LIBRARY_PATH -wdir /scratch/qe530783_Oij2M pw.x -in pw.inp

TID   HOST_NAME   COMMAND_LINE            STATUS            TERMINATION_TIME
00000 suncat2066 pw.x -in pw.inp   Done                     12/20/2018 18:03:16
00001 suncat2066 pw.x -in pw.inp   Done                     12/20/2018 18:03:16
00002 suncat2066 pw.x -in pw.inp   Done                     12/20/2018 18:03:16
00003 suncat2066 pw.x -in pw.inp   Done                     12/20/2018 18:03:16
00004 suncat2066 pw.x -in pw.inp   Done                     12/20/2018 18:03:16
00005 suncat2066 pw.x -in pw.inp   Done                     12/20/2018 18:03:16
00006 suncat2066 pw.x -in pw.inp   Done                     12/20/2018 18:03:16
00007 suncat2066 pw.x -in pw.inp   Done                     12/20/2018 18:03:16
00008 suncat2066 pw.x -in pw.inp   Done                     12/20/2018 18:03:16
00009 suncat2066 pw.x -in pw.inp   Done                     12/20/2018 18:03:16
00010 suncat2066 pw.x -in pw.inp   Done                     12/20/2018 18:03:16
00011 suncat2066 pw.x -in pw.inp   Done                     12/20/2018 18:03:16
00012 suncat2066 pw.x -in pw.inp   Done                     12/20/2018 18:03:16
00013 suncat2066 pw.x -in pw.inp   Done                     12/20/2018 18:03:16
00014 suncat2066 pw.x -in pw.inp   Done                     12/20/2018 18:03:16
00015 suncat2066 pw.x -in pw.inp   Done                     12/20/2018 18:03:16
00016 suncat2052 pw.x -in pw.inp   Done                     12/20/2018 18:03:16
00017 suncat2052 pw.x -in pw.inp   Done                     12/20/2018 18:03:16
00018 suncat2052 pw.x -in pw.inp   Done                     12/20/2018 18:03:16
00019 suncat2052 pw.x -in pw.inp   Done                     12/20/2018 18:03:16
00020 suncat2052 pw.x -in pw.inp   Done                     12/20/2018 18:03:16
00021 suncat2052 pw.x -in pw.inp   Done                     12/20/2018 18:03:16
00022 suncat2052 pw.x -in pw.inp   Done                     12/20/2018 18:03:16
00023 suncat2052 pw.x -in pw.inp   Done                     12/20/2018 18:03:16
00024 suncat2052 pw.x -in pw.inp   Done                     12/20/2018 18:03:16
00025 suncat2052 pw.x -in pw.inp   Done                     12/20/2018 18:03:16
00026 suncat2052 pw.x -in pw.inp   Done                     12/20/2018 18:03:16
00027 suncat2052 pw.x -in pw.inp   Done                     12/20/2018 18:03:16
00028 suncat2052 pw.x -in pw.inp   Done                     12/20/2018 18:03:16
00029 suncat2052 pw.x -in pw.inp   Done                     12/20/2018 18:03:16
00030 suncat2052 pw.x -in pw.inp   Done                     12/20/2018 18:03:16
00031 suncat2052 pw.x -in pw.inp   Done                     12/20/2018 18:03:16