     Program PWSCF v.5.1rc2 (svn rev. 11289) starts on 27Dec2018 at 19:23:39

     Current dimensions of program PWSCF are:
     Max number of different atomic species (ntypx) = 10
     Max number of k-points (npk) =  40000
     Max angular momentum in pseudopotentials (lmaxx) =  3
     Presently stress not available with electric field

     IMPORTANT: XC functional enforced from input :
     Exchange-correlation      = BEEF-VDW ( 1  4 27 13 2)
     Any further DFT definition will be discarded
     Please, verify this is what you really want

     Subspace diagonalization in iterative solution of the eigenvalue problem:
     a serial algorithm will be used

     bravais-lattice index     =            0
     lattice parameter (alat)  =       1.8897  a.u.
     unit-cell volume          =    4972.5486 (a.u.)^3
     number of atoms/cell      =           12
     number of atomic types    =            2
     number of electrons       =       177.00
     number of Kohn-Sham states=          118
     kinetic-energy cutoff     =      36.7493  Ry
     charge density cutoff     =     367.4932  Ry
     convergence threshold     =      1.0E-06
     mixing beta               =       0.1000
     number of iterations used =           10  plain     mixing
     Exchange-correlation      = BEEF-VDW ( 1  4 27 13 2)
     nstep                     =           50

     celldm(1)=   1.889726  celldm(2)=   0.000000  celldm(3)=   0.000000
     celldm(4)=   0.000000  celldm(5)=   0.000000  celldm(6)=   0.000000

     crystal axes: (cart. coord. in units of alat)
               a(1) = (   5.859221   0.000000   0.000000 )
               a(2) = (  -2.929611   5.074235   0.000000 )
               a(3) = (   0.000000   0.000000  24.784034 )

     reciprocal axes: (cart. coord. in units 2 pi/alat)
               b(1) = (  0.170671  0.098537  0.000000 )
               b(2) = (  0.000000  0.197074  0.000000 )
               b(3) = (  0.000000  0.000000  0.040349 )

     PseudoPot. # 1 for Pt read from file:
     /afs/slac.stanford.edu/u/if/mamunm/psp/gbrv1.5pbe/Pt.UPF
     MD5 check sum: f09d6de1a584b5a045c4fc126da2d0c4
     Pseudo is Ultrasoft + core correction, Zval = 16.0
     Generated by new atomic code, or converted to UPF format
     Using radial grid of  985 points,  6 beta functions with:
                l(1) =   0
                l(2) =   0
                l(3) =   1
                l(4) =   1
                l(5) =   2
                l(6) =   2
     Q(r) pseudized with  8 coefficients,  rinner =    1.300   1.300   1.300
                                                       1.300   1.300

     PseudoPot. # 2 for Y  read from file:
     /afs/slac.stanford.edu/u/if/mamunm/psp/gbrv1.5pbe/Y.UPF
     MD5 check sum: d034151ed7554c50b6e82763ed42c788
     Pseudo is Ultrasoft + core correction, Zval = 11.0
     Generated by new atomic code, or converted to UPF format
     Using radial grid of  885 points,  6 beta functions with:
                l(1) =   0
                l(2) =   0
                l(3) =   1
                l(4) =   1
                l(5) =   2
                l(6) =   2
     Q(r) pseudized with  8 coefficients,  rinner =    1.200   1.200   1.200
                                                       1.200   1.200

     vdW kernel table read from file vdW_kernel_table
     MD5 check sum: 095c7af220d748ca6e76c0b4c6cfb241

     atomic species   valence    mass     pseudopotential
        Pt1           16.00   195.08400     Pt( 1.00)
        Y1            11.00    88.90584     Y ( 1.00)

     No symmetry found

   Cartesian axes

     site n.     atom                  positions (alat units)
         1           Pt1 tau(   1) = (   0.0000000   0.0000000  10.0000000  )
         2           Pt1 tau(   2) = (  -1.4648053   2.5371173  10.0000000  )
         3           Pt1 tau(   3) = (   1.4648053   2.5371173  10.0000000  )
         4           Y1  tau(   4) = (   2.9296107   0.0000000  10.0000000  )
         5           Pt1 tau(   5) = (   2.9296107   1.6914115  12.3920171  )
         6           Pt1 tau(   6) = (   1.4648053   4.2285288  12.3920171  )
         7           Pt1 tau(   7) = (  -1.4648053   4.2285288  12.3920171  )
         8           Y1  tau(   8) = (   0.0000000   1.6914115  12.3920171  )
         9           Pt1 tau(   9) = (  -0.0000000   3.3828230  14.7840342  )
        10           Pt1 tau(  10) = (   1.4648053   0.8457058  14.7840342  )
        11           Pt1 tau(  11) = (   4.3944160   0.8457058  14.7840342  )
        12           Y1  tau(  12) = (   2.9296107   3.3828230  14.7840342  )

     number of k points=    20  Fermi-Dirac smearing, width (Ry)=  0.0110
                       cart. coord. in units 2pi/alat
        k(    1) = (   0.0000000   0.0000000   0.0000000), wk =   0.0555556
        k(    2) = (   0.0000000   0.0328457   0.0000000), wk =   0.1111111
        k(    3) = (   0.0000000   0.0656914   0.0000000), wk =   0.1111111
        k(    4) = (   0.0000000  -0.0985370   0.0000000), wk =   0.0555556
        k(    5) = (   0.0284452   0.0164228   0.0000000), wk =   0.1111111
        k(    6) = (   0.0284452   0.0492685   0.0000000), wk =   0.1111111
        k(    7) = (   0.0284452   0.0821142   0.0000000), wk =   0.1111111
        k(    8) = (   0.0284452  -0.0821142   0.0000000), wk =   0.1111111
        k(    9) = (   0.0284452  -0.0492685   0.0000000), wk =   0.1111111
        k(   10) = (   0.0284452  -0.0164228   0.0000000), wk =   0.1111111
        k(   11) = (   0.0568904   0.0328457   0.0000000), wk =   0.1111111
        k(   12) = (   0.0568904   0.0656914   0.0000000), wk =   0.1111111
        k(   13) = (   0.0568904   0.0985370   0.0000000), wk =   0.1111111
        k(   14) = (   0.0568904  -0.0656914   0.0000000), wk =   0.1111111
        k(   15) = (   0.0568904  -0.0328457   0.0000000), wk =   0.1111111
        k(   16) = (   0.0568904   0.0000000   0.0000000), wk =   0.1111111
        k(   17) = (  -0.0853356  -0.0492685   0.0000000), wk =   0.0555556
        k(   18) = (  -0.0853356  -0.0164228   0.0000000), wk =   0.1111111
        k(   19) = (  -0.0853356   0.0164228   0.0000000), wk =   0.1111111
        k(   20) = (  -0.0853356  -0.1478055   0.0000000), wk =   0.0555556

     Largest allocated arrays     est. size (Mb)     dimensions
     Largest temporary arrays     est. size (Mb)     dimensions

     Initial potential from superposition of free atoms
     Check: negative starting charge=   -1.636737

     starting charge  172.48649, renormalised to  177.00000

     negative rho (up, down):  1.680E+00 0.000E+00

     *
     * You are using vdW-DF for exchange-correlation in this calculation.
     * Please cite the following three references that made this development
     * possible:
     *
     *   M. Dion, H. Rydberg, E. Schroder, D. C. Langreth, and
     *   B. I. Lundqvist, Phys. Rev. Lett. 92, 246401 (2004).
     *
     *   T. Thonhauser, V. R. Cooper, S. Li, A. Puzder, P. Hyldgaard, and
     *   D. C. Langreth, Phys. Rev. B 76, 125112 (2007).
     *
     *   G. Roman-Perez and J. M. Soler, Phys. Rev. Lett. 103, 096102 (2009).
     *
     *
     * If you are using vdW-DF2, please also cite:
     *
     *   K. Lee, E. D. Murray, L. Kong, B. I. Lundqvist, and
     *   D. C. Langreth, Phys. Rev. B 82, 081101(R) (2010).
     *
     *
     * If you are calculating the stress with vdW-DF, please also cite:
     *
     *   R. Sabatini, E. Kucukbenli, B. Kolb, T. Thonhauser, and
     *   S. de Gironcoli, J. Phys.: Condens. Matter 24, 424209 (2012).
     *

     Carrying out vdW-DF run using the following parameters:

     Nqs =      20    Nr_points =    1024   r_max =   100.000
     q_mesh =
               0.00001000     0.04494208     0.09755937     0.15916263
               0.23128650     0.31572767     0.41458969     0.53033537
               0.66584808     0.82450364     1.01025438     1.22772762
               1.48234092     1.78043706     2.12944203     2.53805004
               3.01644009     3.57652955     4.23227104     5.00000000

     Gradients computed in reciprocal space

     Adding external electric field

     Computed dipole along edir(3) :
        Dipole               -0.0000 Ry au,         -0.0000 Debye
        Dipole field         -0.0000 Ry au

        Potential amp.        0.0000 Ry
        Total length         45.6642 bohr

     Starting wfc are  147 randomized atomic wfcs

     Self-consistent Calculation

     iteration #  1     ecut=    36.75 Ry     beta=0.10
     Davidson diagonalization with overlap
     ethr =  1.00E-02,  avg # of iterations =  7.1

[...]

     total energy              =   -2193.29190790 Ry
     Harris-Foulkes estimate   =   -2195.51343499 Ry
     estimated scf accuracy    <      13.83988347 Ry

[...]

     End of self-consistent calculation

          k = 0.0000 0.0000 0.0000 ( 18847 PWs)   bands (ev):

   -50.6477 -50.5553 -50.5552 -50.5375 -50.5186 -50.5186 -50.4440 -50.4440
   -50.4390 -50.3040 -50.3020 -50.3020 -50.3000 -50.2938 -50.2938 -50.2253
   -50.2233 -50.1431 -50.1431 -50.1423 -50.1423 -50.0730 -50.0642 -50.0531
   -50.0531 -50.0487 -50.0487 -40.8879 -40.8859 -40.0325 -20.9593 -20.9354
   -20.8165 -20.8165 -20.8104 -20.8104 -20.0900 -20.0900 -20.0484  -5.3035
    -3.8739  -3.5779  -3.1846  -3.1846  -3.0198  -3.0198  -2.8721  -2.6511
    -2.5300  -2.5300  -2.4782  -2.4782  -2.4390  -2.2576  -1.3828  -1.2372
    -1.2372  -1.2119  -1.2119  -0.8275  -0.7590  -0.5897  -0.5584  -0.3969
    -0.3969  -0.3450  -0.3450  -0.1014  -0.1014  -0.0134  -0.0134   0.0888
     0.0888   0.4417   0.8600   0.8600   0.8853   0.8853   1.0552   1.0552
     1.1016   1.4295   1.6042   1.6042   1.8359   2.0816   2.1323   2.1592
     2.9311   3.0230   3.7577   3.7577   3.8147   4.0568   4.0568   4.4100
     4.4100   4.6483   4.6483   4.8608   5.0585   5.0585   5.4212   5.4212
     5.8873   5.9493   6.2936   6.2936   6.3451   6.3451   6.5186   6.6831
     7.5512   7.6103   7.8417   7.8417   8.4947   8.8652

[...]

          k =-0.0853-0.0493 0.0000 ( 18680 PWs)   bands (ev):

[...]

     the Fermi energy is     1.8454 ev

!    total energy              =   -2192.98075240 Ry
     Harris-Foulkes estimate   =   -2192.98073448 Ry
     estimated scf accuracy    <       0.00000023 Ry

     The total energy is the sum of the following terms:

     one-electron contribution =  -15406.48514194 Ry
     hartree contribution      =    7732.73165744 Ry
     xc contribution           =    -612.95263950 Ry
     ewald contribution        =    6093.77849779 Ry
     electric field correction =       0.00000000 Ry
     smearing contrib. (-TS)   =      -0.05312619 Ry

     convergence has been achieved in  16 iterations

 BEEF-vdW xc energy contributions
           1 :   -543.842699769853
           2 :    503.687995974390
           3 :   -432.049550798732
           4 :    343.100716021122
           5 :   -252.035927654196
           6 :    171.095668912174
           7 :   -107.288227646251
           8 :    62.0851820048099
           9 :   -32.7647137590752
          10 :    14.6141520686720
          11 :   -3.06305002642375
          12 :   -5.00247294096448
          13 :    10.9684882752659
          14 :   -15.0086505002391
[...]
     MD5 check sum: f09d6de1a584b5a045c4fc126da2d0c4
     Pseudo is Ultrasoft + core correction, Zval = 16.0
     Generated by new atomic code, or converted to UPF format
     Using radial grid of  985 points,  6 beta functions with:
                l(1) =   0
                l(2) =   0
                l(3) =   1
                l(4) =   1
                l(5) =   2
                l(6) =   2
     Q(r) pseudized with  8 coefficients,  rinner =    1.300   1.300   1.300
                                                       1.300   1.300

     PseudoPot. # 2 for Y  read from file:
     /afs/slac.stanford.edu/u/if/mamunm/psp/gbrv1.5pbe/Y.UPF
     MD5 check sum: d034151ed7554c50b6e82763ed42c788
     Pseudo is Ultrasoft + core correction, Zval = 11.0
     Generated by new atomic code, or converted to UPF format
     Using radial grid of  885 points,  6 beta functions with:
                l(1) =   0
                l(2) =   0
                l(3) =   1
                l(4) =   1
                l(5) =   2
                l(6) =   2
     Q(r) pseudized with  8 coefficients,  rinner =    1.200   1.200   1.200
                                                       1.200   1.200

     vdW kernel table read from file vdW_kernel_table
     MD5 check sum: 095c7af220d748ca6e76c0b4c6cfb241

     atomic species   valence    mass     pseudopotential
        Pt1           16.00   195.08400     Pt( 1.00)
        Y1            11.00    88.90584     Y ( 1.00)

     No symmetry found

   Cartesian axes

     site n.     atom                  positions (alat units)
         1           Pt1 tau(   1) = (   0.0000000   0.0000000  10.0000000  )
         2           Pt1 tau(   2) = (  -1.4648053   2.5371173  10.0000000  )
         3           Pt1 tau(   3) = (   1.4648053   2.5371173  10.0000000  )
         4           Y1  tau(   4) = (   2.9296107   0.0000000  10.0000000  )
         5           Pt1 tau(   5) = (   2.9296107   1.6914115  12.3920171  )
         6           Pt1 tau(   6) = (   1.4648053   4.2285288  12.3920171  )
         7           Pt1 tau(   7) = (  -1.4648053   4.2285288  12.3920171  )
         8           Y1  tau(   8) = (   0.0000000   1.6914115  12.3920171  )
         9           Pt1 tau(   9) = (  -0.0000006   3.3596758  14.7502757  )
        10           Pt1 tau(  10) = (   1.4447581   0.8572772  14.7502754  )
        11           Pt1 tau(  11) = (   4.4144626   0.8572770  14.7502755  )
        12           Y1  tau(  12) = (   2.9296097   3.3828172  14.8666110  )

     number of k points=    20  Fermi-Dirac smearing, width (Ry)=  0.0110
                       cart. coord. in units 2pi/alat
        k(    1) = (   0.0000000   0.0000000   0.0000000), wk =   0.0555556
        k(    2) = (   0.0000000   0.0328457   0.0000000), wk =   0.1111111
        k(    3) = (   0.0000000   0.0656914   0.0000000), wk =   0.1111111
        k(    4) = (   0.0000000  -0.0985370   0.0000000), wk =   0.0555556
        k(    5) = (   0.0284452   0.0164228   0.0000000), wk =   0.1111111
        k(    6) = (   0.0284452   0.0492685   0.0000000), wk =   0.1111111
        k(    7) = (   0.0284452   0.0821142   0.0000000), wk =   0.1111111
        k(    8) = (   0.0284452  -0.0821142   0.0000000), wk =   0.1111111
        k(    9) = (   0.0284452  -0.0492685   0.0000000), wk =   0.1111111
        k(   10) = (   0.0284452  -0.0164228   0.0000000), wk =   0.1111111
        k(   11) = (   0.0568904   0.0328457   0.0000000), wk =   0.1111111
        k(   12) = (   0.0568904   0.0656914   0.0000000), wk =   0.1111111
        k(   13) = (   0.0568904   0.0985370   0.0000000), wk =   0.1111111
        k(   14) = (   0.0568904  -0.0656914   0.0000000), wk =   0.1111111
        k(   15) = (   0.0568904  -0.0328457   0.0000000), wk =   0.1111111
        k(   16) = (   0.0568904   0.0000000   0.0000000), wk =   0.1111111
        k(   17) = (  -0.0853356  -0.0492685   0.0000000), wk =   0.0555556
        k(   18) = (  -0.0853356  -0.0164228   0.0000000), wk =   0.1111111
        k(   19) = (  -0.0853356   0.0164228   0.0000000), wk =   0.1111111
        k(   20) = (  -0.0853356  -0.1478055   0.0000000), wk =   0.0555556

     Largest allocated arrays     est. size (Mb)     dimensions
     Largest temporary arrays     est. size (Mb)     dimensions

     Initial potential from superposition of free atoms
     Check: negative starting charge=   -1.640061

     starting charge  172.48649, renormalised to  177.00000

[...]

     *
     * You are using vdW-DF for exchange-correlation in this calculation.
     * Please cite the following three references that made this development
     * possible:
     *
     *   M. Dion, H. Rydberg, E. Schroder, D. C. Langreth, and
     *   B. I. Lundqvist, Phys. Rev. Lett. 92, 246401 (2004).
     *
     *   T. Thonhauser, V. R. Cooper, S. Li, A. Puzder, P. Hyldgaard, and
     *   D. C. Langreth, Phys. Rev. B 76, 125112 (2007).
     *
     *   G. Roman-Perez and J. M. Soler, Phys. Rev. Lett. 103, 096102 (2009).
     *
     *
     * If you are using vdW-DF2, please also cite:
     *
     *   K. Lee, E. D. Murray, L. Kong, B. I. Lundqvist, and
     *   D. C. Langreth, Phys. Rev. B 82, 081101(R) (2010).
     *
     *
     * If you are calculating the stress with vdW-DF, please also cite:
     *
     *   R. Sabatini, E. Kucukbenli, B. Kolb, T. Thonhauser, and
     *   S. de Gironcoli, J. Phys.: Condens. Matter 24, 424209 (2012).
     *

     Carrying out vdW-DF run using the following parameters:

     Nqs =      20    Nr_points =    1024   r_max =   100.000
     q_mesh =
               0.00001000     0.04494208     0.09755937     0.15916263
               0.23128650     0.31572767     0.41458969     0.53033537
               0.66584808     0.82450364     1.01025438     1.22772762
               1.48234092     1.78043706     2.12944203     2.53805004
               3.01644009     3.57652955     4.23227104     5.00000000

     Gradients computed in reciprocal space

[...]

     Starting wfc are  147 randomized atomic wfcs

     Self-consistent Calculation

[...]

     total energy              =   -2193.00050571 Ry
     Harris-Foulkes estimate   =   -2193.00049884 Ry
     estimated scf accuracy    <       0.00000141 Ry

     iteration # 16     ecut=    36.75 Ry     beta=0.10
     Davidson diagonalization with overlap
     ethr =  7.97E-10,  avg # of iterations =  2.7

[...]

     negative rho (up, down):  1.576E+00 0.000E+00

     Adding external electric field

     Computed dipole along edir(3) :
        Dipole                0.0441 Ry au,          0.1122 Debye
        Dipole field          0.0001 Ry au

        Potential amp.       -0.0102 Ry
        Total length         45.6642 bohr

     End of self-consistent calculation

[...]

          k = 0.0569 0.0000 0.0000 ( 18689 PWs)   bands (ev):

[...]

          k =-0.0853-0.1478 0.0000 ( 18680 PWs)   bands (ev):

   -50.5338 -50.4883 -50.4680 -50.4641 -50.4455 -50.4303 -50.4258 -50.4169
   -50.3765 -50.2755 -50.2442 -50.2432 -50.2247 -50.2219 -50.2091 -50.1957
   -50.1842 -50.1770 -50.1485 -50.1260 -50.0933 -50.0446 -50.0371 -50.0310
   -50.0061 -49.9999 -49.9939 -40.9463 -40.8192 -39.9248 -21.0053 -20.8919
   -20.8794 -20.8675 -20.7856 -20.7624 -20.0322 -20.0064 -19.9598  -3.8220
    -3.5449  -2.6215  -2.4666  -2.4257  -2.3394  -2.2212  -2.1107  -2.0883
    -1.9248  -1.8612  -1.8223  -1.5957  -1.5463  -1.4856  -1.3014  -1.2910
    -1.2505  -1.1578  -1.1203  -0.8339  -0.6972  -0.6603  -0.6256  -0.6049
    -0.5975  -0.4664  -0.4177  -0.3972  -0.3885  -0.3504  -0.3075  -0.3069
    -0.1897  -0.0195   0.0013   0.1489   0.1950   0.2224   0.3074   0.3546
     0.4394   0.5999   0.6518   1.0581   1.1322   1.1921   1.2944   1.5832
     1.9238   2.0026   2.3411   2.7644   3.5664   3.7302   4.1049   4.3101
     4.3648   4.4425   4.6099   4.8100   4.8913   4.9175   5.0786   5.1117
     6.1183   6.3906   6.7979   6.8503   7.1784   7.3056   7.4193   7.6341
     7.8511   7.8660   8.0144   8.1345   8.3302   8.4479

     the Fermi energy is     1.9033 ev

!    total energy              =   -2193.00052300 Ry
     Harris-Foulkes estimate   =   -2193.00050645 Ry
     estimated scf accuracy    <       0.00000053 Ry

     The total energy is the sum of the following terms:

     one-electron contribution =  -15432.41049698 Ry
     hartree contribution      =    7745.98830851 Ry
     xc contribution           =    -612.96417757 Ry
     ewald contribution        =    6106.43943288 Ry
     electric field correction =       0.00000492 Ry
     smearing contrib. (-TS)   =      -0.05359477 Ry

     convergence has been achieved in  16 iterations

 BEEF-vdW xc energy contributions
           1 :   -544.362866471481
           2 :    504.216987365635
           3 :   -432.590654808353
           4 :    343.648665519142
           5 :   -252.578554983946
           6 :    171.621100185455
           7 :   -107.793908293253
           8 :    62.5807862851424
           9 :   -33.2661142177184
          10 :    15.1337886407696
          11 :   -3.60336880264470
          12 :   -4.44972868559762
          13 :    10.4175761806314
          14 :   -14.4721554277024
          15 :    16.3657743174027
          16 :   -16.0926201455359
          17 :    14.1726666949214
          18 :   -11.5475293148131
          19 :    9.23180871464797
          20 :   -7.94027962869268
          21 :    7.86054942333135
          22 :   -8.64991468601261
          23 :    9.63127627075005
          24 :   -10.1011450814599
          25 :    9.62327810741090
          26 :   -8.19701278405660
          27 :    6.23526554433670
          28 :   -4.36945533536766
          29 :    3.16779263116018
          30 :   -2.89766368054779
          31 :   -45.5533639905191
          32 :   -33.2240802977390

     Forces acting on atoms (Ry/au):

     negative rho (up, down):  1.576E+00 0.000E+00
     atom    1 type  1   force =     0.00000007    0.00539612    0.00550684
     atom    2 type  1   force =     0.00467353   -0.00269776    0.00550705
     atom    3 type  1   force =    -0.00467341   -0.00269756    0.00550718
     atom    4 type  2   force =    -0.00000049    0.00000185   -0.01385533
     atom    5 type  1   force =     0.00000002    0.00385160    0.00282631
     atom    6 type  1   force =     0.00333580   -0.00192621    0.00282634
     atom    7 type  1   force =    -0.00333581   -0.00192612    0.00282666
     atom    8 type  2   force =     0.00000056   -0.00000129   -0.01017355
     atom    9 type  1   force =    -0.00000009    0.00096486   -0.00052859
     atom   10 type  1   force =     0.00083554   -0.00048286   -0.00052869
     atom   11 type  1   force =    -0.00083553   -0.00048260   -0.00052867
     atom   12 type  2   force =    -0.00000018   -0.00000004    0.00061444

     Total force =     0.023373     Total SCF correction =     0.004847
     SCF correction compared to forces is large: reduce conv_thr to get better values

     entering subroutine stress ...

     negative rho (up, down):  1.576E+00 0.000E+00
          total   stress  (Ry/bohr**3)                   (kbar)     P=  -13.18
  -0.00012690  -0.00000000  -0.00000000        -18.67     -0.00     -0.00
  -0.00000000  -0.00012690   0.00000000         -0.00    -18.67      0.00
  -0.00000000   0.00000000  -0.00001494         -0.00      0.00     -2.20

 !ASE

     Writing output data file calc.save

     General routines

     Parallel routines

   This run was terminated on:  20: 7: 4  27Dec2018

   JOB DONE.
Job  /afs/slac/g/suncat/bin/suncat-tsmpirun -x LD_LIBRARY_PATH -wdir /scratch/qe110577_arizj pw.x -in pw.inp

TID   HOST_NAME   COMMAND_LINE            STATUS            TERMINATION_TIME
00000 suncat0277 pw.x -in pw.inp   Done                     12/27/2018 20:07:04
00001 suncat0277 pw.x -in pw.inp   Done                     12/27/2018 20:07:04
00002 suncat0277 pw.x -in pw.inp   Done                     12/27/2018 20:07:04
00003 suncat0277 pw.x -in pw.inp   Done                     12/27/2018 20:07:04
00004 suncat0277 pw.x -in pw.inp   Done                     12/27/2018 20:07:04
00005 suncat0277 pw.x -in pw.inp   Done                     12/27/2018 20:07:04
00006 suncat0277 pw.x -in pw.inp   Done                     12/27/2018 20:07:04
00007 suncat0277 pw.x -in pw.inp   Done                     12/27/2018 20:07:04
00008 suncat0276 pw.x -in pw.inp   Done                     12/27/2018 20:07:04
00009 suncat0276 pw.x -in pw.inp   Done                     12/27/2018 20:07:04
00010 suncat0276 pw.x -in pw.inp   Done                     12/27/2018 20:07:04
00011 suncat0276 pw.x -in pw.inp   Done                     12/27/2018 20:07:04
00012 suncat0276 pw.x -in pw.inp   Done                     12/27/2018 20:07:04
00013 suncat0276 pw.x -in pw.inp   Done                     12/27/2018 20:07:04
00014 suncat0276 pw.x -in pw.inp   Done                     12/27/2018 20:07:04
00015 suncat0276 pw.x -in pw.inp   Done                     12/27/2018 20:07:04
00016 suncat0274 pw.x -in pw.inp   Done                     12/27/2018 20:07:04
00017 suncat0274 pw.x -in pw.inp   Done                     12/27/2018 20:07:04
00018 suncat0274 pw.x -in pw.inp   Done                     12/27/2018 20:07:04
00019 suncat0274 pw.x -in pw.inp   Done                     12/27/2018 20:07:04
00020 suncat0274 pw.x -in pw.inp   Done                     12/27/2018 20:07:04
00021 suncat0274 pw.x -in pw.inp   Done                     12/27/2018 20:07:04
00022 suncat0274 pw.x -in pw.inp   Done                     12/27/2018 20:07:04
00023 suncat0274 pw.x -in pw.inp   Done                     12/27/2018 20:07:04
00024 suncat0273 pw.x -in pw.inp   Done                     12/27/2018 20:07:04
00025 suncat0273 pw.x -in pw.inp   Done                     12/27/2018 20:07:04
00026 suncat0273 pw.x -in pw.inp   Done                     12/27/2018 20:07:04
00027 suncat0273 pw.x -in pw.inp   Done                     12/27/2018 20:07:04
00028 suncat0273 pw.x -in pw.inp   Done                     12/27/2018 20:07:04
00029 suncat0273 pw.x -in pw.inp   Done                     12/27/2018 20:07:04
00030 suncat0273 pw.x -in pw.inp   Done                     12/27/2018 20:07:04
00031 suncat0273 pw.x -in pw.inp   Done                     12/27/2018 20:07:04
00032 suncat0230 pw.x -in pw.inp   Done                     12/27/2018 20:07:04
00033 suncat0230 pw.x -in pw.inp   Done                     12/27/2018 20:07:04
00034 suncat0230 pw.x -in pw.inp   Done                     12/27/2018 20:07:04
00035 suncat0230 pw.x -in pw.inp   Done                     12/27/2018 20:07:04
00036 suncat0230 pw.x -in pw.inp   Done                     12/27/2018 20:07:04
00037 suncat0230 pw.x -in pw.inp   Done                     12/27/2018 20:07:04
00038 suncat0230 pw.x -in pw.inp   Done                     12/27/2018 20:07:04
00039 suncat0230 pw.x -in pw.inp   Done                     12/27/2018 20:07:04
00040 suncat0229 pw.x -in pw.inp   Done                     12/27/2018 20:07:04
00041 suncat0229 pw.x -in pw.inp   Done                     12/27/2018 20:07:04
00042 suncat0229 pw.x -in pw.inp   Done                     12/27/2018 20:07:04
00043 suncat0229 pw.x -in pw.inp   Done                     12/27/2018 20:07:04
00044 suncat0229 pw.x -in pw.inp   Done                     12/27/2018 20:07:04
00045 suncat0229 pw.x -in pw.inp   Done                     12/27/2018 20:07:04
00046 suncat0229 pw.x -in pw.inp   Done                     12/27/2018 20:07:04
00047 suncat0229 pw.x -in pw.inp   Done                     12/27/2018 20:07:04
00048 suncat0205 pw.x -in pw.inp   Done                     12/27/2018 20:07:04
00049 suncat0205 pw.x -in pw.inp   Done                     12/27/2018 20:07:04
00050 suncat0205 pw.x -in pw.inp   Done                     12/27/2018 20:07:04
00051 suncat0205 pw.x -in pw.inp   Done                     12/27/2018 20:07:04
00052 suncat0205 pw.x -in pw.inp   Done                     12/27/2018 20:07:04
00053 suncat0205 pw.x -in pw.inp   Done                     12/27/2018 20:07:04
00054 suncat0205 pw.x -in pw.inp   Done                     12/27/2018 20:07:04
00055 suncat0205 pw.x -in pw.inp   Done                     12/27/2018 20:07:04
00056 suncat0204 pw.x -in pw.inp   Done                     12/27/2018 20:07:04
00057 suncat0204 pw.x -in pw.inp   Done                     12/27/2018 20:07:04
00058 suncat0204 pw.x -in pw.inp   Done                     12/27/2018 20:07:04
00059 suncat0204 pw.x -in pw.inp   Done                     12/27/2018 20:07:04
00060 suncat0204 pw.x -in pw.inp   Done                     12/27/2018 20:07:04
00061 suncat0204 pw.x -in pw.inp   Done                     12/27/2018 20:07:04
00062 suncat0204 pw.x -in pw.inp   Done                     12/27/2018 20:07:04
00063 suncat0204 pw.x -in pw.inp   Done                     12/27/2018 20:07:04