     Program PWSCF v.5.1rc2 (svn rev. 11289) starts on 28Dec2018 at  2:30:56

     Current dimensions of program PWSCF are:
     Max number of different atomic species (ntypx) = 10
     Max number of k-points (npk) =  40000
     Max angular momentum in pseudopotentials (lmaxx) =  3
     Presently stress not available with electric field

     IMPORTANT: XC functional enforced from input :
     Exchange-correlation      = BEEF-VDW ( 1  4 27 13 2)
     Any further DFT definition will be discarded
     Please, verify this is what you really want

     Subspace diagonalization in iterative solution of the eigenvalue problem:
     a serial algorithm will be used

     bravais-lattice index     =            0
     lattice parameter (alat)  =       1.8897  a.u.
     unit-cell volume          =    6317.3294 (a.u.)^3
     number of atoms/cell      =           12
     number of atomic types    =            2
     number of electrons       =       156.00
     number of Kohn-Sham states=          108
     kinetic-energy cutoff     =      36.7493  Ry
     charge density cutoff     =     367.4932  Ry
     convergence threshold     =      1.0E-06
     mixing beta               =       0.1000
     number of iterations used =           10  plain     mixing
     Exchange-correlation      = BEEF-VDW ( 1  4 27 13 2)
     nstep                     =           50

     celldm(1)=   1.889726  celldm(2)=   0.000000  celldm(3)=   0.000000
     celldm(4)=   0.000000  celldm(5)=   0.000000  celldm(6)=   0.000000

     crystal axes: (cart. coord. in units of alat)
               a(1) = (   6.532144   0.000000   0.000000 )
               a(2) = (  -3.266072   5.657003   0.000000 )
               a(3) = (   0.000000   0.000000  25.333474 )

     reciprocal axes: (cart. coord. in units 2 pi/alat)
               b(1) = (  0.153089  0.088386  0.000000 )
               b(2) = (  0.000000  0.176772  0.000000 )
               b(3) = (  0.000000  0.000000  0.039473 )

     PseudoPot. # 1 for Tl read from file:
     /afs/slac.stanford.edu/u/if/mamunm/psp/gbrv1.5pbe/Tl.UPF
     MD5 check sum: b76cf1f7e72655a2b2c53cf6385d7059
     Pseudo is Ultrasoft + core correction, Zval = 13.0
     Generated by new atomic code, or converted to UPF format
     Using radial grid of  899 points,  6 beta functions with:
                l(1) =   0
                l(2) =   0
                l(3) =   1
                l(4) =   1
                l(5) =   2
                l(6) =   2
     Q(r) pseudized with  6 coefficients,  rinner =    1.100   1.100   1.100
                                                       1.100   1.100

     PseudoPot. # 2 for V  read from file:
     /afs/slac.stanford.edu/u/if/mamunm/psp/gbrv1.5pbe/V.UPF
     MD5 check sum: 22b79981416ebb76fdaf5b1b8640f6fb
     Pseudo is Ultrasoft + core correction, Zval = 13.0
     Generated by new atomic code, or converted to UPF format
     Using radial grid of  853 points,  6 beta functions with:
                l(1) =   0
                l(2) =   0
                l(3) =   1
                l(4) =   1
                l(5) =   2
                l(6) =   2
     Q(r) pseudized with  8 coefficients,  rinner =    1.100   1.100   1.100
                                                       1.100   1.100

     vdW kernel table read from file vdW_kernel_table
     MD5 check sum: 095c7af220d748ca6e76c0b4c6cfb241

     atomic species   valence    mass     pseudopotential
        Tl1           13.00   204.38000     Tl( 1.00)
        V1            13.00    50.94150     V ( 1.00)

     No symmetry found

   Cartesian axes

     site n.     atom                  positions (alat units)
         1           Tl1 tau(   1) = (   0.0000000   0.0000000  10.0000000  )
         2           Tl1 tau(   2) = (  -1.6330361   2.8285015  10.0000000  )
         3           Tl1 tau(   3) = (   1.6330361   2.8285015  10.0000000  )
         4           V1  tau(   4) = (   3.2660722   0.0000000  10.0000000  )
         5           Tl1 tau(   5) = (   3.2660722   1.8856677  12.6667368  )
         6           Tl1 tau(   6) = (   1.6330361   4.7141691  12.6667368  )
         7           Tl1 tau(   7) = (  -1.6330361   4.7141691  12.6667368  )
         8           V1  tau(   8) = (   0.0000000   1.8856677  12.6667368  )
         9           Tl1 tau(   9) = (  -0.0000000   3.7713353  15.3334735  )
        10           Tl1 tau(  10) = (   1.6330361   0.9428338  15.3334735  )
        11           Tl1 tau(  11) = (   4.8991083   0.9428338  15.3334735  )
        12           V1  tau(  12) = (   3.2660722   3.7713353  15.3334735  )

     number of k points=    20  Fermi-Dirac smearing, width (Ry)=  0.0110
                       cart. coord. in units 2pi/alat
        k(    1) = (   0.0000000   0.0000000   0.0000000), wk =   0.0555556
        k(    2) = (   0.0000000   0.0294620   0.0000000), wk =   0.1111111
        k(    3) = (   0.0000000   0.0589240   0.0000000), wk =   0.1111111
        k(    4) = (   0.0000000  -0.0883860   0.0000000), wk =   0.0555556
        k(    5) = (   0.0255148   0.0147310   0.0000000), wk =   0.1111111
        k(    6) = (   0.0255148   0.0441930   0.0000000), wk =   0.1111111
        k(    7) = (   0.0255148   0.0736550   0.0000000), wk =   0.1111111
        k(    8) = (   0.0255148  -0.0736550   0.0000000), wk =   0.1111111
        k(    9) = (   0.0255148  -0.0441930   0.0000000), wk =   0.1111111
        k(   10) = (   0.0255148  -0.0147310   0.0000000), wk =   0.1111111
        k(   11) = (   0.0510297   0.0294620   0.0000000), wk =   0.1111111
        k(   12) = (   0.0510297   0.0589240   0.0000000), wk =   0.1111111
        k(   13) = (   0.0510297   0.0883860   0.0000000), wk =   0.1111111
        k(   14) = (   0.0510297  -0.0589240   0.0000000), wk =   0.1111111
        k(   15) = (   0.0510297  -0.0294620   0.0000000), wk =   0.1111111
        k(   16) = (   0.0510297   0.0000000   0.0000000), wk =   0.1111111
        k(   17) = (  -0.0765445  -0.0441930   0.0000000), wk =   0.0555556
        k(   18) = (  -0.0765445  -0.0147310   0.0000000), wk =   0.1111111
        k(   19) = (  -0.0765445   0.0147310   0.0000000), wk =   0.1111111
        k(   20) = (  -0.0765445  -0.1325790   0.0000000), wk =   0.0555556

     Largest allocated arrays     est. size (Mb)     dimensions
     Largest temporary arrays     est. size (Mb)     dimensions

     Check: negative/imaginary core charge=   -0.000001    0.000000

     Initial potential from superposition of free atoms
     Check: negative starting charge=   -0.457965

     starting charge  155.95253, renormalised to  156.00000

     negative rho (up, down):  4.581E-01 0.000E+00

     *
     * You are using vdW-DF for exchange-correlation in this calculation.
     * Please cite the following three references that made this development
     * possible:
     *
     *   M. Dion, H. Rydberg, E. Schroder, D. C. Langreth, and
     *   B. I. Lundqvist, Phys. Rev. Lett. 92, 246401 (2004).
     *
     *   T. Thonhauser, V. R. Cooper, S. Li, A. Puzder, P. Hyldgaard, and
     *   D. C. Langreth, Phys. Rev. B 76, 125112 (2007).
     *
     *   G. Roman-Perez and J. M. Soler, Phys. Rev. Lett. 103, 096102 (2009).
     *
     *
     * If you are using vdW-DF2, please also cite:
     *
     *   K. Lee, E. D. Murray, L. Kong, B. I. Lundqvist, and
     *   D. C. Langreth, Phys. Rev. B 82, 081101(R) (2010).
     *
     *
     * If you are calculating the stress with vdW-DF, please also cite:
     *
     *   R. Sabatini, E. Kucukbenli, B. Kolb, T. Thonhauser, and
     *   S. de Gironcoli, J. Phys.: Condens. Matter 24, 424209 (2012).
     *

     Carrying out vdW-DF run using the following parameters:

     Nqs =      20    Nr_points =    1024   r_max =   100.000
     q_mesh =
               0.00001000     0.04494208     0.09755937     0.15916263
               0.23128650     0.31572767     0.41458969     0.53033537
               0.66584808     0.82450364     1.01025438     1.22772762
               1.48234092     1.78043706     2.12944203     2.53805004
               3.01644009     3.57652955     4.23227104     5.00000000

     Gradients computed in reciprocal space

     Adding external electric field

     Computed dipole along edir(3) :
        Dipole                0.0000 Ry au,          0.0000 Debye
        Dipole field          0.0000 Ry au

        Potential amp.       -0.0000 Ry
        Total length         46.6765 bohr

     Starting wfc are  111 randomized atomic wfcs

     Self-consistent Calculation

     iteration #  1     ecut=    36.75 Ry     beta=0.10
     Davidson diagonalization with overlap
     ethr =  1.00E-02,  avg # of iterations =  7.1

[...]

     total energy              =   -1756.69721841 Ry
     Harris-Foulkes estimate   =   -1758.24201695 Ry
     estimated scf accuracy    <       8.57875750 Ry

[...]

     End of self-consistent calculation

          k = 0.0000 0.0000 0.0000 ( 23727 PWs)   bands (ev):

   -63.7626 -63.7626 -63.6660 -37.6300 -37.6299 -37.5721 -37.5720 -37.5720
   -37.5720 -37.5187 -37.5187 -37.4399 -11.4423 -11.3508 -11.3366 -11.3365
   -11.2959 -11.2783 -11.1743 -11.1743 -11.1312 -11.1263 -11.1263 -11.0704
   -11.0704 -11.0204 -10.9983 -10.9983 -10.9431 -10.8829 -10.8367 -10.8367
   -10.8174 -10.7700 -10.7447 -10.7446 -10.7375 -10.7374 -10.6587 -10.6587
   -10.6200 -10.6134 -10.6133 -10.6083 -10.6083 -10.6009 -10.6009 -10.5379
   -10.5379 -10.4508 -10.4508 -10.4123 -10.3826 -10.3778 -10.3778 -10.2788
   -10.2750  -8.7316  -7.3650  -5.5158  -4.4316  -4.4314  -3.8774  -3.8774
    -2.9424  -2.9424  -1.9777  -1.3206  -1.0343  -0.9276  -0.9276  -0.5451
     0.3964   0.3964   0.4305   0.4305   0.6220   0.9018   0.9018   0.9174
     0.9174   1.1878   1.2515   1.3131   1.3131   1.3950   1.3950   1.4077
     1.4078   1.7072   1.7072   1.7657   2.6005   2.9710   3.4096   4.1144
     4.3645   4.7082   4.7082   4.7251   4.7251   5.1434   5.2848   5.5260
     5.9121   6.3327   6.8475   6.8476

[...]

          k =-0.0765-0.0442 0.0000 ( 23728 PWs)   bands (ev):

[...]

     the Fermi energy is     0.8754 ev

!    total energy              =   -1757.88903274 Ry
     Harris-Foulkes estimate   =   -1757.88903813 Ry
     estimated scf accuracy    <       0.00000055 Ry

     The total energy is the sum of the following terms:

     one-electron contribution =   -9329.90663450 Ry
     hartree contribution      =    4722.57747033 Ry
     xc contribution           =    -637.05317860 Ry
     ewald contribution        =    3486.60277660 Ry
     electric field correction =       0.00000000 Ry
     smearing contrib. (-TS)   =      -0.10946658 Ry

     convergence has been achieved in  24 iterations

 BEEF-vdW xc energy contributions
           1 :   -565.753060302395
           2 :    523.584315837047
           3 :   -450.088854385543
           4 :    362.326938881787
           5 :   -277.109941036161
           6 :    205.728648828493
           7 :   -151.935447984713
           8 :    113.280678216267
           9 :   -84.4350694421270
          10 :    60.5411731606339
          11 :   -39.1636670554427
          12 :    20.4046594324510
          13 :   -5.72267199117755
          14 :   -3.60335164206583
[...]

     PseudoPot. # 1 for Tl read from file:
     /afs/slac.stanford.edu/u/if/mamunm/psp/gbrv1.5pbe/Tl.UPF
     MD5 check sum: b76cf1f7e72655a2b2c53cf6385d7059
     Pseudo is Ultrasoft + core correction, Zval = 13.0
     Generated by new atomic code, or converted to UPF format
     Using radial grid of  899 points,  6 beta functions with:
                l(1) =   0
                l(2) =   0
                l(3) =   1
                l(4) =   1
                l(5) =   2
                l(6) =   2
     Q(r) pseudized with  6 coefficients,  rinner =    1.100   1.100   1.100
                                                       1.100   1.100

     PseudoPot. # 2 for V  read from file:
     /afs/slac.stanford.edu/u/if/mamunm/psp/gbrv1.5pbe/V.UPF
     MD5 check sum: 22b79981416ebb76fdaf5b1b8640f6fb
     Pseudo is Ultrasoft + core correction, Zval = 13.0
     Generated by new atomic code, or converted to UPF format
     Using radial grid of  853 points,  6 beta functions with:
                l(1) =   0
                l(2) =   0
                l(3) =   1
                l(4) =   1
                l(5) =   2
                l(6) =   2
     Q(r) pseudized with  8 coefficients,  rinner =    1.100   1.100   1.100
                                                       1.100   1.100

     vdW kernel table read from file vdW_kernel_table
     MD5 check sum: 095c7af220d748ca6e76c0b4c6cfb241

     atomic species   valence    mass     pseudopotential
        Tl1           13.00   204.38000     Tl( 1.00)
        V1            13.00    50.94150     V ( 1.00)

     No symmetry found

   Cartesian axes

     site n.     atom                  positions (alat units)
         1           Tl1 tau(   1) = (   0.0000000   0.0000000  10.0000000  )
         2           Tl1 tau(   2) = (  -1.6330361   2.8285015  10.0000000  )
         3           Tl1 tau(   3) = (   1.6330361   2.8285015  10.0000000  )
         4           V1  tau(   4) = (   3.2660722   0.0000000  10.0000000  )
         5           Tl1 tau(   5) = (   3.2660722   1.8856677  12.6667368  )
         6           Tl1 tau(   6) = (   1.6330361   4.7141691  12.6667368  )
         7           Tl1 tau(   7) = (  -1.6330361   4.7141691  12.6667368  )
         8           V1  tau(   8) = (   0.0000000   1.8856677  12.6667368  )
         9           Tl1 tau(   9) = (   0.0000014   3.7503767  15.5642264  )
        10           Tl1 tau(  10) = (   1.6150460   0.9530138  15.5646898  )
        11           Tl1 tau(  11) = (   4.9170987   0.9530892  15.5648716  )
        12           V1  tau(  12) = (   3.2660755   3.7714330  14.8434218  )

     number of k points=    20  Fermi-Dirac smearing, width (Ry)=  0.0110
                       cart. coord. in units 2pi/alat
        k(    1) = (   0.0000000   0.0000000   0.0000000), wk =   0.0555556
        k(    2) = (   0.0000000   0.0294620   0.0000000), wk =   0.1111111
        k(    3) = (   0.0000000   0.0589240   0.0000000), wk =   0.1111111
        k(    4) = (   0.0000000  -0.0883860   0.0000000), wk =   0.0555556
        k(    5) = (   0.0255148   0.0147310   0.0000000), wk =   0.1111111
        k(    6) = (   0.0255148   0.0441930   0.0000000), wk =   0.1111111
        k(    7) = (   0.0255148   0.0736550   0.0000000), wk =   0.1111111
        k(    8) = (   0.0255148  -0.0736550   0.0000000), wk =   0.1111111
        k(    9) = (   0.0255148  -0.0441930   0.0000000), wk =   0.1111111
        k(   10) = (   0.0255148  -0.0147310   0.0000000), wk =   0.1111111
        k(   11) = (   0.0510297   0.0294620   0.0000000), wk =   0.1111111
        k(   12) = (   0.0510297   0.0589240   0.0000000), wk =   0.1111111
        k(   13) = (   0.0510297   0.0883860   0.0000000), wk =   0.1111111
        k(   14) = (   0.0510297  -0.0589240   0.0000000), wk =   0.1111111
        k(   15) = (   0.0510297  -0.0294620   0.0000000), wk =   0.1111111
        k(   16) = (   0.0510297   0.0000000   0.0000000), wk =   0.1111111
        k(   17) = (  -0.0765445  -0.0441930   0.0000000), wk =   0.0555556
        k(   18) = (  -0.0765445  -0.0147310   0.0000000), wk =   0.1111111
        k(   19) = (  -0.0765445   0.0147310   0.0000000), wk =   0.1111111
        k(   20) = (  -0.0765445  -0.1325790   0.0000000), wk =   0.0555556

     Largest allocated arrays     est. size (Mb)     dimensions
     Largest temporary arrays     est. size (Mb)     dimensions

     Check: negative/imaginary core charge=   -0.000001    0.000000

     Initial potential from superposition of free atoms
     Check: negative starting charge=   -0.458772

     starting charge  155.95253, renormalised to  156.00000

[...]

     *
     * You are using vdW-DF for exchange-correlation in this calculation.
     * Please cite the following three references that made this development
     * possible:
     *
     *   M. Dion, H. Rydberg, E. Schroder, D. C. Langreth, and
     *   B. I. Lundqvist, Phys. Rev. Lett. 92, 246401 (2004).
     *
     *   T. Thonhauser, V. R. Cooper, S. Li, A. Puzder, P. Hyldgaard, and
     *   D. C. Langreth, Phys. Rev. B 76, 125112 (2007).
     *
     *   G. Roman-Perez and J. M. Soler, Phys. Rev. Lett. 103, 096102 (2009).
     *
     *
     * If you are using vdW-DF2, please also cite:
     *
     *   K. Lee, E. D. Murray, L. Kong, B. I. Lundqvist, and
     *   D. C. Langreth, Phys. Rev. B 82, 081101(R) (2010).
     *
     *
     * If you are calculating the stress with vdW-DF, please also cite:
     *
     *   R. Sabatini, E. Kucukbenli, B. Kolb, T. Thonhauser, and
     *   S. de Gironcoli, J. Phys.: Condens. Matter 24, 424209 (2012).
     *

     Carrying out vdW-DF run using the following parameters:

     Nqs =      20    Nr_points =    1024   r_max =   100.000
     q_mesh =
               0.00001000     0.04494208     0.09755937     0.15916263
               0.23128650     0.31572767     0.41458969     0.53033537
               0.66584808     0.82450364     1.01025438     1.22772762
               1.48234092     1.78043706     2.12944203     2.53805004
               3.01644009     3.57652955     4.23227104     5.00000000

     Gradients computed in reciprocal space

[...]

     Starting wfc are  111 randomized atomic wfcs

     Self-consistent Calculation

[...]

     total energy              =   -1757.93259687 Ry
     Harris-Foulkes estimate   =   -1757.93259569 Ry
     estimated scf accuracy    <       0.00000224 Ry

     iteration # 20     ecut=    36.75 Ry     beta=0.10
     Davidson diagonalization with overlap
     ethr =  1.43E-09,  avg # of iterations =  2.0

[...]

     negative rho (up, down):  4.854E-01 0.000E+00

     Adding external electric field

     Computed dipole along edir(3) :
        Dipole                0.0384 Ry au,          0.0977 Debye
        Dipole field          0.0001 Ry au

        Potential amp.       -0.0071 Ry
        Total length         46.6765 bohr

     End of self-consistent calculation

[...]

          k = 0.0510 0.0000 0.0000 ( 23758 PWs)   bands (ev):

[...]

          k =-0.0765-0.1326 0.0000 ( 23728 PWs)   bands (ev):

   -63.7494 -63.7037 -63.6408 -37.6170 -37.5558 -37.5558 -37.5420 -37.5420
   -37.5240 -37.4920 -37.4919 -37.4190 -11.2758 -11.1738 -11.1683 -11.1406
   -11.1021 -11.0743 -11.0282 -11.0027 -10.9916 -10.9767 -10.9593 -10.9473
   -10.9148 -10.8898 -10.8847 -10.8557 -10.8520 -10.8087 -10.7960 -10.7858
   -10.7850 -10.7806 -10.7476 -10.7471 -10.7364 -10.7299 -10.7189 -10.7026
   -10.7002 -10.6963 -10.6889 -10.6828 -10.6652 -10.6635 -10.6429 -10.6371
   -10.6051 -10.6006 -10.5968 -10.5832 -10.5576 -10.5163 -10.4544 -10.3966
   -10.3481  -7.5576  -7.1592  -6.1690  -5.8525  -5.0680  -4.9521  -4.5696
    -3.8631  -2.7564  -1.9634  -1.3133  -0.5193   0.0431   0.1105   0.1757
     0.2981   0.3420   0.5964   0.7216   0.9151   0.9692   1.1472   1.2021
     1.2309   1.2703   1.3712   1.4610   1.6129   1.7100   2.0693   2.3671
     2.4963   2.5458   3.1269   3.1320   3.2141   3.4645   3.7378   3.8227
     4.2860   4.7336   4.7451   4.9120   4.9517   5.0819   5.1430   5.4334
     5.4899   5.6655   5.9221   5.9926

     the Fermi energy is     0.8972 ev

!    total energy              =   -1757.93259018 Ry
     Harris-Foulkes estimate   =   -1757.93259632 Ry
     estimated scf accuracy    <       0.00000076 Ry

     The total energy is the sum of the following terms:

     one-electron contribution =   -9248.29118453 Ry
     hartree contribution      =    4681.87266967 Ry
     xc contribution           =    -637.02914090 Ry
     ewald contribution        =    3445.61751622 Ry
     electric field correction =       0.00000294 Ry
     smearing contrib. (-TS)   =      -0.10245358 Ry

     convergence has been achieved in  20 iterations

 BEEF-vdW xc energy contributions
           1 :   -565.878313278241
           2 :    523.672780289144
           3 :   -450.141567010775
           4 :    362.382798780595
           5 :   -277.212605055166
           6 :    205.892188006510
           7 :   -152.131970770738
           8 :    113.454753656781
           9 :   -84.5371048039069
          10 :    60.5625449507476
          11 :   -39.1518890836652
          12 :    20.4426450631248
          13 :   -5.87870538492405
          14 :   -3.32455436320595
          15 :    7.19630578902911
          16 :   -7.16187206466759
          17 :    5.44546068995305
          18 :   -4.14330047236581
          19 :    4.42384444573293
          20 :   -6.20984978596732
          21 :    8.45673316866987
          22 :   -9.87565384808681
          23 :    9.71313678041486
          24 :   -8.16671561788758
          25 :    6.20863689502971
          26 :   -4.94803234474375
          27 :    4.93467547611647
          28 :   -5.84210083412950
          29 :    6.71304281403582
          30 :   -6.59672200755563
          31 :   -46.5715159920341
          32 :   -33.9850088475486

     Forces acting on atoms (Ry/au):

     negative rho (up, down):  4.854E-01 0.000E+00
     atom    1 type  1   force =     0.00000177    0.01186571   -0.02207191
     atom    2 type  1   force =     0.01025871   -0.00593977   -0.02197493
     atom    3 type  1   force =    -0.01025732   -0.00594432   -0.02197491
     atom    4 type  2   force =     0.00000099   -0.00000072    0.05616946
     atom    5 type  1   force =     0.00000016   -0.01638938    0.00241909
     atom    6 type  1   force =    -0.01417715    0.00821422    0.00240584
     atom    7 type  1   force =     0.01417699    0.00821418    0.00240186
     atom    8 type  2   force =    -0.00000071    0.00000919    0.00156412
     atom    9 type  1   force =     0.00000003    0.00036788    0.00016775
     atom   10 type  1   force =     0.00033695   -0.00020506    0.00025568
     atom   11 type  1   force =    -0.00034137   -0.00020432    0.00025474
     atom   12 type  2   force =     0.00000095    0.00001239    0.00038320

     Total force =     0.076524     Total SCF correction =     0.003424

     entering subroutine stress ...

     negative rho (up, down):  4.854E-01 0.000E+00
          total   stress  (Ry/bohr**3)                   (kbar)     P=  -10.65
  -0.00009558  -0.00000000  -0.00000000        -14.06     -0.00     -0.00
  -0.00000000  -0.00009559  -0.00000001         -0.00    -14.06     -0.00
  -0.00000000  -0.00000001  -0.00002596         -0.00     -0.00     -3.82

 !ASE

     Writing output data file calc.save

     General routines

     Parallel routines

   This run was terminated on:   4: 8:41  28Dec2018

   JOB DONE.
Job  /afs/slac/g/suncat/bin/suncat-tsmpirun -x LD_LIBRARY_PATH -wdir /scratch/qe111223_6XbfK pw.x -in pw.inp

TID   HOST_NAME   COMMAND_LINE            STATUS            TERMINATION_TIME
00000 suncat0041 pw.x -in pw.inp   Done                     12/28/2018 04:08:41
00001 suncat0041 pw.x -in pw.inp   Done                     12/28/2018 04:08:41
00002 suncat0041 pw.x -in pw.inp   Done                     12/28/2018 04:08:41
00003 suncat0041 pw.x -in pw.inp   Done                     12/28/2018 04:08:41
00004 suncat0041 pw.x -in pw.inp   Done                     12/28/2018 04:08:41
00005 suncat0041 pw.x -in pw.inp   Done                     12/28/2018 04:08:41
00006 suncat0041 pw.x -in pw.inp   Done                     12/28/2018 04:08:41
00007 suncat0041 pw.x -in pw.inp   Done                     12/28/2018 04:08:41
00008 suncat0039 pw.x -in pw.inp   Done                     12/28/2018 04:08:41
00009 suncat0039 pw.x -in pw.inp   Done                     12/28/2018 04:08:41
00010 suncat0039 pw.x -in pw.inp   Done                     12/28/2018 04:08:41
00011 suncat0039 pw.x -in pw.inp   Done                     12/28/2018 04:08:41
00012 suncat0039 pw.x -in pw.inp   Done                     12/28/2018 04:08:41
00013 suncat0039 pw.x -in pw.inp   Done                     12/28/2018 04:08:41
00014 suncat0039 pw.x -in pw.inp   Done                     12/28/2018 04:08:41
00015 suncat0039 pw.x -in pw.inp   Done                     12/28/2018 04:08:41
00016 suncat0169 pw.x -in pw.inp   Done                     12/28/2018 04:08:41
00017 suncat0169 pw.x -in pw.inp   Done                     12/28/2018 04:08:41
00018 suncat0169 pw.x -in pw.inp   Done                     12/28/2018 04:08:41
00019 suncat0169 pw.x -in pw.inp   Done                     12/28/2018 04:08:41
00020 suncat0169 pw.x -in pw.inp   Done                     12/28/2018 04:08:41
00021 suncat0169 pw.x -in pw.inp   Done                     12/28/2018 04:08:41
00022 suncat0169 pw.x -in pw.inp   Done                     12/28/2018 04:08:41
00023 suncat0169 pw.x -in pw.inp   Done                     12/28/2018 04:08:41
00024 suncat0168 pw.x -in pw.inp   Done                     12/28/2018 04:08:41
00025 suncat0168 pw.x -in pw.inp   Done                     12/28/2018 04:08:41
00026 suncat0168 pw.x -in pw.inp   Done                     12/28/2018 04:08:41
00027 suncat0168 pw.x -in pw.inp   Done                     12/28/2018 04:08:41
00028 suncat0168 pw.x -in pw.inp   Done                     12/28/2018 04:08:41
00029 suncat0168 pw.x -in pw.inp   Done                     12/28/2018 04:08:41
00030 suncat0168 pw.x -in pw.inp   Done                     12/28/2018 04:08:41
00031 suncat0168 pw.x -in pw.inp   Done                     12/28/2018 04:08:41
00032 suncat0161 pw.x -in pw.inp   Done                     12/28/2018 04:08:41
00033 suncat0161 pw.x -in pw.inp   Done                     12/28/2018 04:08:41
00034 suncat0161 pw.x -in pw.inp   Done                     12/28/2018 04:08:41
00035 suncat0161 pw.x -in pw.inp   Done                     12/28/2018 04:08:41
00036 suncat0161 pw.x -in pw.inp   Done                     12/28/2018 04:08:41
00037 suncat0161 pw.x -in pw.inp   Done                     12/28/2018 04:08:41
00038 suncat0161 pw.x -in pw.inp   Done                     12/28/2018 04:08:41
00039 suncat0161 pw.x -in pw.inp   Done                     12/28/2018 04:08:41
00040 suncat0250 pw.x -in pw.inp   Done                     12/28/2018 04:08:41
00041 suncat0250 pw.x -in pw.inp   Done                     12/28/2018 04:08:41
00042 suncat0250 pw.x -in pw.inp   Done                     12/28/2018 04:08:41
00043 suncat0250 pw.x -in pw.inp   Done                     12/28/2018 04:08:41
00044 suncat0250 pw.x -in pw.inp   Done                     12/28/2018 04:08:41
00045 suncat0250 pw.x -in pw.inp   Done                     12/28/2018 04:08:41
00046 suncat0250 pw.x -in pw.inp   Done                     12/28/2018 04:08:41
00047 suncat0250 pw.x -in pw.inp   Done                     12/28/2018 04:08:41
00048 suncat0249 pw.x -in pw.inp   Done                     12/28/2018 04:08:41
00049 suncat0249 pw.x -in pw.inp   Done                     12/28/2018 04:08:41
00050 suncat0249 pw.x -in pw.inp   Done                     12/28/2018 04:08:41
00051 suncat0249 pw.x -in pw.inp   Done                     12/28/2018 04:08:41
00052 suncat0249 pw.x -in pw.inp   Done                     12/28/2018 04:08:41
00053 suncat0249 pw.x -in pw.inp   Done                     12/28/2018 04:08:41
00054 suncat0249 pw.x -in pw.inp   Done                     12/28/2018 04:08:41
00055 suncat0249 pw.x -in pw.inp   Done                     12/28/2018 04:08:41
00056 suncat0231 pw.x -in pw.inp   Done                     12/28/2018 04:08:41
00057 suncat0231 pw.x -in pw.inp   Done                     12/28/2018 04:08:41
00058 suncat0231 pw.x -in pw.inp   Done                     12/28/2018 04:08:41
00059 suncat0231 pw.x -in pw.inp   Done                     12/28/2018 04:08:41
00060 suncat0231 pw.x -in pw.inp   Done                     12/28/2018 04:08:41
00061 suncat0231 pw.x -in pw.inp   Done                     12/28/2018 04:08:41
00062 suncat0231 pw.x -in pw.inp   Done                     12/28/2018 04:08:41
00063 suncat0231 pw.x -in pw.inp   Done                     12/28/2018 04:08:41