     Program PWSCF v.5.1rc2 (svn rev. 11289) starts on 26Dec2018 at 11: 7:49

     Current dimensions of program PWSCF are:
     Max number of different atomic species (ntypx) = 10
     Max number of k-points (npk) =  40000
     Max angular momentum in pseudopotentials (lmaxx) =  3
     Presently stress not available with electric field

     IMPORTANT: XC functional enforced from input :
     Exchange-correlation      = BEEF-VDW ( 1  4 27 13 2)
     Any further DFT definition will be discarded
     Please, verify this is what you really want

     Subspace diagonalization in iterative solution of the eigenvalue problem:
     a serial algorithm will be used

     bravais-lattice index     =            0
     lattice parameter (alat)  =       1.8897  a.u.
     unit-cell volume          =    5520.5645 (a.u.)^3
     number of atoms/cell      =           12
     number of atomic types    =            2
     number of electrons       =       147.00
     number of Kohn-Sham states=          103
     kinetic-energy cutoff     =      36.7493  Ry
     charge density cutoff     =     367.4932  Ry
     convergence threshold     =      1.0E-06
     mixing beta               =       0.1000
     number of iterations used =           10  plain     mixing
     Exchange-correlation      = BEEF-VDW ( 1  4 27 13 2)
     nstep                     =           50

     celldm(1)=   1.889726  celldm(2)=   0.000000  celldm(3)=   0.000000
     celldm(4)=   0.000000  celldm(5)=   0.000000  celldm(6)=   0.000000

     crystal axes: (cart. coord. in units of alat)
               a(1) = (   6.144812   0.000000   0.000000 )
               a(2) = (  -3.072406   5.321564   0.000000 )
               a(3) = (   0.000000   0.000000  25.017218 )

     reciprocal axes: (cart. coord. in units 2 pi/alat)
               b(1) = (  0.162739  0.093957  0.000000 )
               b(2) = (  0.000000  0.187915  0.000000 )
               b(3) = (  0.000000  0.000000  0.039972 )

     PseudoPot. # 1 for Hg read from file:
     /afs/slac.stanford.edu/u/if/mamunm/psp/gbrv1.5pbe/Hg.UPF
     MD5 check sum: 8f42caffe07f7fd9c0a564347f8c5498
     Pseudo is Ultrasoft + core correction, Zval = 12.0
     Generated by new atomic code, or converted to UPF format
     Using radial grid of  985 points,  6 beta functions with:
                l(1) =   0
                l(2) =   0
                l(3) =   1
                l(4) =   1
                l(5) =   2
                l(6) =   2
     Q(r) pseudized with  8 coefficients,  rinner =    2.000   2.000   2.000
                                                       2.000   2.000

     PseudoPot. # 2 for V  read from file:
     /afs/slac.stanford.edu/u/if/mamunm/psp/gbrv1.5pbe/V.UPF
     MD5 check sum: 22b79981416ebb76fdaf5b1b8640f6fb
     Pseudo is Ultrasoft + core correction, Zval = 13.0
     Generated by new atomic code, or converted to UPF format
     Using radial grid of  853 points,  6 beta functions with:
                l(1) =   0
                l(2) =   0
                l(3) =   1
                l(4) =   1
                l(5) =   2
                l(6) =   2
     Q(r) pseudized with  8 coefficients,  rinner =    1.100   1.100   1.100
                                                       1.100   1.100

     vdW kernel table read from file vdW_kernel_table
     MD5 check sum: 095c7af220d748ca6e76c0b4c6cfb241

     atomic species   valence    mass     pseudopotential
        Hg1           12.00   200.59200     Hg( 1.00)
        V1            13.00    50.94150     V ( 1.00)

     No symmetry found

   Cartesian axes

     site n.     atom                  positions (alat units)
         1           Hg1 tau(   1) = (   0.0000000   0.0000000  10.0000000  )
         2           Hg1 tau(   2) = (  -1.5362031   2.6607818  10.0000000  )
         3           Hg1 tau(   3) = (   1.5362031   2.6607818  10.0000000  )
         4           V1  tau(   4) = (   3.0724061   0.0000000  10.0000000  )
         5           Hg1 tau(   5) = (   3.0724061   1.7738545  12.5086091  )
         6           Hg1 tau(   6) = (   1.5362031   4.4346363  12.5086091  )
         7           Hg1 tau(   7) = (  -1.5362031   4.4346363  12.5086091  )
         8           V1  tau(   8) = (   0.0000000   1.7738545  12.5086091  )
         9           Hg1 tau(   9) = (  -0.0000000   3.5477090  15.0172182  )
        10           Hg1 tau(  10) = (   1.5362031   0.8869273  15.0172182  )
        11           Hg1 tau(  11) = (   4.6086092   0.8869273  15.0172182  )
        12           V1  tau(  12) = (   3.0724061   3.5477090  15.0172182  )

     number of k points=    20  Fermi-Dirac smearing, width (Ry)=  0.0110
                       cart. coord. in units 2pi/alat
        k(    1) = (   0.0000000   0.0000000   0.0000000), wk =   0.0555556
        k(    2) = (   0.0000000   0.0313191   0.0000000), wk =   0.1111111
        k(    3) = (   0.0000000   0.0626382   0.0000000), wk =   0.1111111
        k(    4) = (   0.0000000  -0.0939573   0.0000000), wk =   0.0555556
        k(    5) = (   0.0271232   0.0156596   0.0000000), wk =   0.1111111
        k(    6) = (   0.0271232   0.0469787   0.0000000), wk =   0.1111111
        k(    7) = (   0.0271232   0.0782978   0.0000000), wk =   0.1111111
        k(    8) = (   0.0271232  -0.0782978   0.0000000), wk =   0.1111111
        k(    9) = (   0.0271232  -0.0469787   0.0000000), wk =   0.1111111
        k(   10) = (   0.0271232  -0.0156596   0.0000000), wk =   0.1111111
        k(   11) = (   0.0542463   0.0313191   0.0000000), wk =   0.1111111
        k(   12) = (   0.0542463   0.0626382   0.0000000), wk =   0.1111111
        k(   13) = (   0.0542463   0.0939573   0.0000000), wk =   0.1111111
        k(   14) = (   0.0542463  -0.0626382   0.0000000), wk =   0.1111111
        k(   15) = (   0.0542463  -0.0313191   0.0000000), wk =   0.1111111
        k(   16) = (   0.0542463  -0.0000000   0.0000000), wk =   0.1111111
        k(   17) = (  -0.0813695  -0.0469787   0.0000000), wk =   0.0555556
        k(   18) = (  -0.0813695  -0.0156596   0.0000000), wk =   0.1111111
        k(   19) = (  -0.0813695   0.0156596   0.0000000), wk =   0.1111111
        k(   20) = (  -0.0813695  -0.1409360   0.0000000), wk =   0.0555556

     Largest allocated arrays     est. size (Mb)     dimensions
     Largest temporary arrays     est. size (Mb)     dimensions

     Initial potential from superposition of free atoms
     Check: negative starting charge=   -0.003352

     starting charge  146.99579, renormalised to  147.00000

     negative rho (up, down):  3.352E-03 0.000E+00

     *
     * You are using vdW-DF for exchange-correlation in this calculation.
     * Please cite the following three references that made this development
     * possible:
     *
     *   M. Dion, H. Rydberg, E. Schroder, D. C. Langreth, and
     *   B. I. Lundqvist, Phys. Rev. Lett. 92, 246401 (2004).
     *
     *   T. Thonhauser, V. R. Cooper, S. Li, A. Puzder, P. Hyldgaard, and
     *   D. C. Langreth, Phys. Rev. B 76, 125112 (2007).
     *
     *   G. Roman-Perez and J. M. Soler, Phys. Rev. Lett. 103, 096102 (2009).
     *
     *
     * If you are using vdW-DF2, please also cite:
     *
     *   K. Lee, E. D. Murray, L. Kong, B. I. Lundqvist, and
     *   D. C. Langreth, Phys. Rev. B 82, 081101(R) (2010).
     *
     *
     * If you are calculating the stress with vdW-DF, please also cite:
     *
     *   R. Sabatini, E. Kucukbenli, B. Kolb, T. Thonhauser, and
     *   S. de Gironcoli, J. Phys.: Condens. Matter 24, 424209 (2012).
     *

     Carrying out vdW-DF run using the following parameters:

     Nqs =      20    Nr_points =    1024   r_max =   100.000
     q_mesh =
               0.00001000     0.04494208     0.09755937     0.15916263
               0.23128650     0.31572767     0.41458969     0.53033537
               0.66584808     0.82450364     1.01025438     1.22772762
               1.48234092     1.78043706     2.12944203     2.53805004
               3.01644009     3.57652955     4.23227104     5.00000000

     Gradients computed in reciprocal space

     Adding external electric field

     Computed dipole along edir(3) :
        Dipole               -0.0000 Ry au,         -0.0000 Debye
        Dipole field         -0.0000 Ry au

        Potential amp.        0.0000 Ry
        Total length         46.0938 bohr

     Starting wfc are  111 randomized atomic wfcs

     Self-consistent Calculation

     iteration #  1     ecut=    36.75 Ry     beta=0.10
     Davidson diagonalization with overlap
     ethr =  1.00E-02,  avg # of iterations =  7.6

[...]

     total energy              =   -1417.94675267 Ry
     Harris-Foulkes estimate   =   -1419.23344946 Ry
     estimated scf accuracy    <       7.15530000 Ry

[...]

     End of self-consistent calculation

          k = 0.0000 0.0000 0.0000 ( 20827 PWs)   bands (ev):

   -63.7248 -63.6851 -63.6850 -37.6114 -37.6112 -37.6054 -37.5310 -37.5310
   -37.4612 -37.4611 -37.4611 -37.4611  -8.1670  -7.5853  -7.5157  -7.4494
    -7.4416  -7.4416  -7.3809  -7.2672  -7.2561  -7.2561  -7.0885  -7.0885
    -7.0074  -7.0074  -6.8234  -6.7568  -6.7019  -6.7019  -6.5310  -6.4299
    -6.4299  -6.3164  -6.2671  -6.1937  -6.1936  -6.1169  -6.1169  -5.9874
    -5.9874  -5.8974  -5.8974  -5.8396  -5.7751  -5.7751  -5.7154  -5.7154
    -5.6893  -5.6892  -5.6796  -5.4723  -5.4723  -5.3982  -5.2768  -5.2522
    -5.2522  -5.0500  -5.0329  -3.2211  -1.5900  -1.5900  -1.3550  -1.3550
    -0.7867  -0.3746  -0.3746  -0.2179   0.1087   0.2098   0.2098   0.5638
     1.0298   1.0298   1.1051   1.1051   1.1585   1.2056   1.2056   1.6998
     1.6998   1.7472   1.7472   1.7967   1.8431   2.4639   2.4639   2.8289
     2.8289   3.3028   3.4125   3.4125   4.1740   4.3225   4.7851   4.9461
     5.1617   5.9049   6.1508   6.8274   6.8274   6.9649   6.9649

[...]

          k =-0.0814-0.0470 0.0000 ( 20740 PWs)   bands (ev):

[...]

     the Fermi energy is     0.8806 ev

!    total energy              =   -1418.70590933 Ry
     Harris-Foulkes estimate   =   -1418.70590764 Ry
     estimated scf accuracy    <       0.00000049 Ry

     The total energy is the sum of the following terms:

     one-electron contribution =   -9494.05186405 Ry
     hartree contribution      =    4812.38986442 Ry
     xc contribution           =    -425.00994227 Ry
     ewald contribution        =    3688.07414487 Ry
     electric field correction =       0.00000000 Ry
     smearing contrib. (-TS)   =      -0.10811230 Ry

     convergence has been achieved in  17 iterations

 BEEF-vdW xc energy contributions
           1 :   -371.597166695726
           2 :    340.862091992196
           3 :   -287.892098971796
           4 :    225.921313978346
           5 :   -167.755304282971
           6 :    121.750696468840
           7 :   -90.3623288682171
           8 :    71.1989887941666
           9 :   -59.5161208359674
          10 :    50.7584236972408
          11 :   -42.1403002656543
          12 :    32.9442107690210
          13 :   -23.8704124944325
          14 :    16.0598392162890
          15 :   -10.3216593395456
          16 :    6.78493897274865
          17 :   -4.93937024004526
          18 :    3.92324572485302
[...]
     MD5 check sum: 8f42caffe07f7fd9c0a564347f8c5498
     Pseudo is Ultrasoft + core correction, Zval = 12.0
     Generated by new atomic code, or converted to UPF format
     Using radial grid of  985 points,  6 beta functions with:
                l(1) =   0
                l(2) =   0
                l(3) =   1
                l(4) =   1
                l(5) =   2
                l(6) =   2
     Q(r) pseudized with  8 coefficients,  rinner =    2.000   2.000   2.000
                                                       2.000   2.000

     PseudoPot. # 2 for V  read from file:
     /afs/slac.stanford.edu/u/if/mamunm/psp/gbrv1.5pbe/V.UPF
     MD5 check sum: 22b79981416ebb76fdaf5b1b8640f6fb
     Pseudo is Ultrasoft + core correction, Zval = 13.0
     Generated by new atomic code, or converted to UPF format
     Using radial grid of  853 points,  6 beta functions with:
                l(1) =   0
                l(2) =   0
                l(3) =   1
                l(4) =   1
                l(5) =   2
                l(6) =   2
     Q(r) pseudized with  8 coefficients,  rinner =    1.100   1.100   1.100
                                                       1.100   1.100

     vdW kernel table read from file vdW_kernel_table
     MD5 check sum: 095c7af220d748ca6e76c0b4c6cfb241

     atomic species   valence    mass     pseudopotential
        Hg1           12.00   200.59200     Hg( 1.00)
        V1            13.00    50.94150     V ( 1.00)

     No symmetry found

   Cartesian axes

     site n.     atom                  positions (alat units)
         1           Hg1 tau(   1) = (   0.0000000   0.0000000  10.0000000  )
         2           Hg1 tau(   2) = (  -1.5362031   2.6607818  10.0000000  )
         3           Hg1 tau(   3) = (   1.5362031   2.6607818  10.0000000  )
         4           V1  tau(   4) = (   3.0724061   0.0000000  10.0000000  )
         5           Hg1 tau(   5) = (   3.0724061   1.7738545  12.5086091  )
         6           Hg1 tau(   6) = (   1.5362031   4.4346363  12.5086091  )
         7           Hg1 tau(   7) = (  -1.5362031   4.4346363  12.5086091  )
         8           V1  tau(   8) = (   0.0000000   1.7738545  12.5086091  )
         9           Hg1 tau(   9) = (  -0.0000038   3.5404934  15.3175883  )
        10           Hg1 tau(  10) = (   1.5299236   0.8905467  15.3175689  )
        11           Hg1 tau(  11) = (   4.6148532   0.8905296  15.3175966  )
        12           V1  tau(  12) = (   3.0723959   3.5477096  14.7157339  )

     number of k points=    20  Fermi-Dirac smearing, width (Ry)=  0.0110
                       cart. coord. in units 2pi/alat
        k(    1) = (   0.0000000   0.0000000   0.0000000), wk =   0.0555556
        k(    2) = (   0.0000000   0.0313191   0.0000000), wk =   0.1111111
        k(    3) = (   0.0000000   0.0626382   0.0000000), wk =   0.1111111
        k(    4) = (   0.0000000  -0.0939573   0.0000000), wk =   0.0555556
        k(    5) = (   0.0271232   0.0156596   0.0000000), wk =   0.1111111
        k(    6) = (   0.0271232   0.0469787   0.0000000), wk =   0.1111111
        k(    7) = (   0.0271232   0.0782978   0.0000000), wk =   0.1111111
        k(    8) = (   0.0271232  -0.0782978   0.0000000), wk =   0.1111111
        k(    9) = (   0.0271232  -0.0469787   0.0000000), wk =   0.1111111
        k(   10) = (   0.0271232  -0.0156596   0.0000000), wk =   0.1111111
        k(   11) = (   0.0542463   0.0313191   0.0000000), wk =   0.1111111
        k(   12) = (   0.0542463   0.0626382   0.0000000), wk =   0.1111111
        k(   13) = (   0.0542463   0.0939573   0.0000000), wk =   0.1111111
        k(   14) = (   0.0542463  -0.0626382   0.0000000), wk =   0.1111111
        k(   15) = (   0.0542463  -0.0313191   0.0000000), wk =   0.1111111
        k(   16) = (   0.0542463  -0.0000000   0.0000000), wk =   0.1111111
        k(   17) = (  -0.0813695  -0.0469787   0.0000000), wk =   0.0555556
        k(   18) = (  -0.0813695  -0.0156596   0.0000000), wk =   0.1111111
        k(   19) = (  -0.0813695   0.0156596   0.0000000), wk =   0.1111111
        k(   20) = (  -0.0813695  -0.1409360   0.0000000), wk =   0.0555556

     Largest allocated arrays     est. size (Mb)     dimensions
     Largest temporary arrays     est. size (Mb)     dimensions

     Initial potential from superposition of free atoms
     Check: negative starting charge=   -0.003412

     starting charge  146.99579, renormalised to  147.00000

[...]

     *
     * You are using vdW-DF for exchange-correlation in this calculation.
     * Please cite the following three references that made this development
     * possible:
     *
     *   M. Dion, H. Rydberg, E. Schroder, D. C. Langreth, and
     *   B. I. Lundqvist, Phys. Rev. Lett. 92, 246401 (2004).
     *
     *   T. Thonhauser, V. R. Cooper, S. Li, A. Puzder, P. Hyldgaard, and
     *   D. C. Langreth, Phys. Rev. B 76, 125112 (2007).
     *
     *   G. Roman-Perez and J. M. Soler, Phys. Rev. Lett. 103, 096102 (2009).
     *
     *
     * If you are using vdW-DF2, please also cite:
     *
     *   K. Lee, E. D. Murray, L. Kong, B. I. Lundqvist, and
     *   D. C. Langreth, Phys. Rev. B 82, 081101(R) (2010).
     *
     *
     * If you are calculating the stress with vdW-DF, please also cite:
     *
     *   R. Sabatini, E. Kucukbenli, B. Kolb, T. Thonhauser, and
     *   S. de Gironcoli, J. Phys.: Condens. Matter 24, 424209 (2012).
     *

     Carrying out vdW-DF run using the following parameters:

     Nqs =      20    Nr_points =    1024   r_max =   100.000
     q_mesh =
               0.00001000     0.04494208     0.09755937     0.15916263
               0.23128650     0.31572767     0.41458969     0.53033537
               0.66584808     0.82450364     1.01025438     1.22772762
               1.48234092     1.78043706     2.12944203     2.53805004
               3.01644009     3.57652955     4.23227104     5.00000000

     Gradients computed in reciprocal space

[...]

     Starting wfc are  111 randomized atomic wfcs

     Self-consistent Calculation

[...]

     iteration # 12     ecut=    36.75 Ry     beta=0.10
     Davidson diagonalization with overlap
     c_bands:  1 eigenvalues not converged
     ethr =  6.32E-07,  avg # of iterations =  7.5

[...]

     total energy              =   -1418.74571093 Ry
     Harris-Foulkes estimate   =   -1418.74571162 Ry
     estimated scf accuracy    <       0.00000735 Ry

     iteration # 17     ecut=    36.75 Ry     beta=0.10
     Davidson diagonalization with overlap
     ethr =  5.00E-09,  avg # of iterations =  1.1

[...]

     negative rho (up, down):  3.327E-03 0.000E+00

     Adding external electric field

     Computed dipole along edir(3) :
        Dipole               -0.0694 Ry au,         -0.1763 Debye
        Dipole field         -0.0002 Ry au

        Potential amp.        0.0146 Ry
        Total length         46.0938 bohr

     End of self-consistent calculation

[...]

          k = 0.0542-0.0000 0.0000 ( 20745 PWs)   bands (ev):

[...]

          k =-0.0814-0.1409 0.0000 ( 20740 PWs)   bands (ev):

   -63.8084 -63.7425 -63.7211 -37.6823 -37.6517 -37.6334 -37.6134 -37.6133
   -37.5207 -37.5206 -37.5052 -37.5050  -7.4646  -7.2636  -7.1701  -7.0452
    -7.0040  -6.9643  -6.9112  -6.8610  -6.8521  -6.8318  -6.7304  -6.7296
    -6.7258  -6.5847  -6.5429  -6.5163  -6.4561  -6.4445  -6.3730  -6.3210
    -6.3030  -6.2902  -6.1939  -6.1652  -6.1602  -6.1382  -6.1361  -6.1221
    -6.0962  -6.0728  -6.0426  -6.0296  -6.0117  -5.9878  -5.9647  -5.9390
    -5.9317  -5.8427  -5.8238  -5.7610  -5.7240  -5.6631  -5.6020  -5.5450
    -5.5409  -5.3683  -5.2436  -4.3665  -4.1774  -3.1095  -2.4053  -2.3142
    -1.3010  -1.1265  -0.4334  -0.1307   0.2196   0.4822   0.5417   0.6432
     0.6573   0.7864   0.8646   0.9300   1.1937   1.2543   1.3416   1.4435
     1.8441   2.0020   2.0127   2.5300   2.6779   2.8861   4.0449   4.4539
     4.4933   4.5319   4.9486   5.1296   5.2660   5.4484   5.6527   5.7190
     5.7568   6.0623   6.1708   6.2435   6.8792   6.9568   7.0429

     the Fermi energy is     0.8138 ev

!    total energy              =   -1418.74571048 Ry
     Harris-Foulkes estimate   =   -1418.74571137 Ry
     estimated scf accuracy    <       0.00000086 Ry

     The total energy is the sum of the following terms:

     one-electron contribution =   -9292.43539327 Ry
     hartree contribution      =    4711.58513984 Ry
     xc contribution           =    -424.91826141 Ry
     ewald contribution        =    3587.13115211 Ry
     electric field correction =       0.00001095 Ry
     smearing contrib. (-TS)   =      -0.10835871 Ry

     convergence has been achieved in  17 iterations

 BEEF-vdW xc energy contributions
           1 :   -371.648415957626
           2 :    340.805261118289
           3 :   -287.714502794843
           4 :    225.720681572549
           5 :   -167.671853903033
           6 :    121.869959363138
           7 :   -90.6531934719626
           8 :    71.5285858654173
           9 :   -59.7334722272771
          10 :    50.7894904515363
          11 :   -42.0310532571253
          12 :    32.8284637642871
          13 :   -23.8896038515486
          14 :    16.2844059720467
          15 :   -10.7149177576052
          16 :    7.22421289585031
          17 :   -5.28152377676213
          18 :    4.08142551430046
          19 :   -2.91164354508419
          20 :    1.44763642166265
          21 :   0.157282115786813
          22 :   -1.44845498026052
          23 :    2.02140426854658
          24 :   -1.83566073006796
          25 :    1.28317859928472
          26 :  -0.959957971722247
          27 :    1.28499359302157
          28 :   -2.22065193350335
          29 :    3.28395315413707
          30 :   -3.84799337928257
          31 :   -35.0806348902311
          32 :   -25.7385609144659

     Forces acting on atoms (Ry/au):

     negative rho (up, down):  3.327E-03 0.000E+00
     atom    1 type  1   force =    -0.00000007    0.00513485   -0.02241555
     atom    2 type  1   force =     0.00444797   -0.00256532   -0.02241575
     atom    3 type  1   force =    -0.00444770   -0.00256717   -0.02241576
     atom    4 type  2   force =    -0.00000093   -0.00000060    0.03938446
     atom    5 type  1   force =     0.00000055   -0.01493928    0.00944359
     atom    6 type  1   force =    -0.01293533    0.00746928    0.00944265
     atom    7 type  1   force =     0.01293636    0.00746837    0.00944371
     atom    8 type  2   force =    -0.00000015   -0.00000068    0.00183091
     atom    9 type  1   force =    -0.00000185    0.00150297   -0.00044380
     atom   10 type  1   force =     0.00130467   -0.00075184   -0.00044363
     atom   11 type  1   force =    -0.00130356   -0.00074989   -0.00044484
     atom   12 type  2   force =     0.00000005   -0.00000069   -0.00096599

     Total force =     0.063924     Total SCF correction =     0.002807

     entering subroutine stress ...

     negative rho (up, down):  3.327E-03 0.000E+00
          total   stress  (Ry/bohr**3)                   (kbar)     P=   -3.62
  -0.00004616  -0.00000000   0.00000000         -6.79     -0.00      0.00
  -0.00000000  -0.00004616  -0.00000000         -0.00     -6.79     -0.00
   0.00000000  -0.00000000   0.00001843          0.00     -0.00      2.71

 !ASE

     Writing output data file calc.save

     General routines

     Parallel routines

   This run was terminated on:  13:39:24  26Dec2018

   JOB DONE.
Job  /afs/slac/g/suncat/bin/suncat-tsmpirun -x LD_LIBRARY_PATH -wdir /scratch/qe109843_2qoBk pw.x -in pw.inp

TID   HOST_NAME   COMMAND_LINE            STATUS            TERMINATION_TIME
00000 suncat0048 pw.x -in pw.inp   Done                     12/26/2018 13:39:24
00001 suncat0048 pw.x -in pw.inp   Done                     12/26/2018 13:39:24
00002 suncat0048 pw.x -in pw.inp   Done                     12/26/2018 13:39:24
00003 suncat0048 pw.x -in pw.inp   Done                     12/26/2018 13:39:24
00004 suncat0048 pw.x -in pw.inp   Done                     12/26/2018 13:39:24
00005 suncat0048 pw.x -in pw.inp   Done                     12/26/2018 13:39:24
00006 suncat0048 pw.x -in pw.inp   Done                     12/26/2018 13:39:24
00007 suncat0048 pw.x -in pw.inp   Done                     12/26/2018 13:39:24
00008 suncat0047 pw.x -in pw.inp   Done                     12/26/2018 13:39:24
00009 suncat0047 pw.x -in pw.inp   Done                     12/26/2018 13:39:24
00010 suncat0047 pw.x -in pw.inp   Done                     12/26/2018 13:39:24
00011 suncat0047 pw.x -in pw.inp   Done                     12/26/2018 13:39:24
00012 suncat0047 pw.x -in pw.inp   Done                     12/26/2018 13:39:24
00013 suncat0047 pw.x -in pw.inp   Done                     12/26/2018 13:39:24
00014 suncat0047 pw.x -in pw.inp   Done                     12/26/2018 13:39:24
00015 suncat0047 pw.x -in pw.inp   Done                     12/26/2018 13:39:24
00016 suncat0193 pw.x -in pw.inp   Done                     12/26/2018 13:39:24
00017 suncat0193 pw.x -in pw.inp   Done                     12/26/2018 13:39:24
00018 suncat0193 pw.x -in pw.inp   Done                     12/26/2018 13:39:24
00019 suncat0193 pw.x -in pw.inp   Done                     12/26/2018 13:39:24
00020 suncat0193 pw.x -in pw.inp   Done                     12/26/2018 13:39:24
00021 suncat0193 pw.x -in pw.inp   Done                     12/26/2018 13:39:24
00022 suncat0193 pw.x -in pw.inp   Done                     12/26/2018 13:39:24
00023 suncat0193 pw.x -in pw.inp   Done                     12/26/2018 13:39:24
00024 suncat0192 pw.x -in pw.inp   Done                     12/26/2018 13:39:24
00025 suncat0192 pw.x -in pw.inp   Done                     12/26/2018 13:39:24
00026 suncat0192 pw.x -in pw.inp   Done                     12/26/2018 13:39:24
00027 suncat0192 pw.x -in pw.inp   Done                     12/26/2018 13:39:24
00028 suncat0192 pw.x -in pw.inp   Done                     12/26/2018 13:39:24
00029 suncat0192 pw.x -in pw.inp   Done                     12/26/2018 13:39:24
00030 suncat0192 pw.x -in pw.inp   Done                     12/26/2018 13:39:24
00031 suncat0192 pw.x -in pw.inp   Done                     12/26/2018 13:39:24
00032 suncat0155 pw.x -in pw.inp   Done                     12/26/2018 13:39:24
00033 suncat0155 pw.x -in pw.inp   Done                     12/26/2018 13:39:24
00034 suncat0155 pw.x -in pw.inp   Done                     12/26/2018 13:39:24
00035 suncat0155 pw.x -in pw.inp   Done                     12/26/2018 13:39:24
00036 suncat0155 pw.x -in pw.inp   Done                     12/26/2018 13:39:24
00037 suncat0155 pw.x -in pw.inp   Done                     12/26/2018 13:39:24
00038 suncat0155 pw.x -in pw.inp   Done                     12/26/2018 13:39:24
00039 suncat0155 pw.x -in pw.inp   Done                     12/26/2018 13:39:24
00040 suncat0154 pw.x -in pw.inp   Done                     12/26/2018 13:39:24
00041 suncat0154 pw.x -in pw.inp   Done                     12/26/2018 13:39:24
00042 suncat0154 pw.x -in pw.inp   Done                     12/26/2018 13:39:24
00043 suncat0154 pw.x -in pw.inp   Done                     12/26/2018 13:39:24
00044 suncat0154 pw.x -in pw.inp   Done                     12/26/2018 13:39:24
00045 suncat0154 pw.x -in pw.inp   Done                     12/26/2018 13:39:24
00046 suncat0154 pw.x -in pw.inp   Done                     12/26/2018 13:39:24
00047 suncat0154 pw.x -in pw.inp   Done                     12/26/2018 13:39:24
00048 suncat0209 pw.x -in pw.inp   Done                     12/26/2018 13:39:24
00049 suncat0209 pw.x -in pw.inp   Done                     12/26/2018 13:39:24
00050 suncat0209 pw.x -in pw.inp   Done                     12/26/2018 13:39:24
00051 suncat0209 pw.x -in pw.inp   Done                     12/26/2018 13:39:24
00052 suncat0209 pw.x -in pw.inp   Done                     12/26/2018 13:39:24
00053 suncat0209 pw.x -in pw.inp   Done                     12/26/2018 13:39:24
00054 suncat0209 pw.x -in pw.inp   Done                     12/26/2018 13:39:24
00055 suncat0209 pw.x -in pw.inp   Done                     12/26/2018 13:39:24
00056 suncat0203 pw.x -in pw.inp   Done                     12/26/2018 13:39:24
00057 suncat0203 pw.x -in pw.inp   Done                     12/26/2018 13:39:24
00058 suncat0203 pw.x -in pw.inp   Done                     12/26/2018 13:39:24
00059 suncat0203 pw.x -in pw.inp   Done                     12/26/2018 13:39:24
00060 suncat0203 pw.x -in pw.inp   Done                     12/26/2018 13:39:24
00061 suncat0203 pw.x -in pw.inp   Done                     12/26/2018 13:39:24
00062 suncat0203 pw.x -in pw.inp   Done                     12/26/2018 13:39:24
00063 suncat0203 pw.x -in pw.inp   Done                     12/26/2018 13:39:24