     Program PWSCF v.5.1rc2 (svn rev. 11289) starts on  2Jan2019 at  6:57: 9

     Current dimensions of program PWSCF are:
     Max number of different atomic species (ntypx) = 10
     Max number of k-points (npk) =  40000
     Max angular momentum in pseudopotentials (lmaxx) =  3
     Presently stress not available with electric field

     IMPORTANT: XC functional enforced from input :
     Exchange-correlation      = BEEF-VDW ( 1  4 27 13 2)
     Any further DFT definition will be discarded
     Please, verify this is what you really want

     Subspace diagonalization in iterative solution of the eigenvalue problem:
     a serial algorithm will be used

     bravais-lattice index     =            0
     lattice parameter (alat)  =       1.8897  a.u.
     unit-cell volume          =    4665.2702 (a.u.)^3
     number of atoms/cell      =           12
     number of atomic types    =            2
     number of electrons       =       159.00
     number of Kohn-Sham states=          109
     kinetic-energy cutoff     =      36.7493  Ry
     charge density cutoff     =     367.4932  Ry
     convergence threshold     =      1.0E-06
     mixing beta               =       0.1000
     number of iterations used =           10  plain     mixing
     Exchange-correlation      = BEEF-VDW ( 1  4 27 13 2)
     nstep                     =           50

     celldm(1)=   1.889726  celldm(2)=   0.000000  celldm(3)=   0.000000
     celldm(4)=   0.000000  celldm(5)=   0.000000  celldm(6)=   0.000000

     crystal axes: (cart. coord. in units of alat)
               a(1) = (   5.691083   0.000000   0.000000 )
               a(2) = (  -2.845542   4.928623   0.000000 )
               a(3) = (   0.000000   0.000000  24.646750 )

     reciprocal axes: (cart. coord. in units 2 pi/alat)
               b(1) = (  0.175713  0.101448  0.000000 )
               b(2) = (  0.000000  0.202896  0.000000 )
               b(3) = (  0.000000  0.000000  0.040573 )

     PseudoPot. # 1 for W  read from file:
     /afs/slac.stanford.edu/u/if/mamunm/psp/gbrv1.5pbe/W.UPF
     MD5 check sum: 9c083fa34c2a2ea0f02f1f893e16e1c8
     Pseudo is Ultrasoft + core correction, Zval = 14.0
     Generated by new atomic code, or converted to UPF format
     Using radial grid of  923 points,  8 beta functions with:
                l(1) =   0
                l(2) =   0
                l(3) =   0
                l(4) =   1
                l(5) =   1
                l(6) =   2
                l(7) =   2
                l(8) =   3
     Q(r) pseudized with  6 coefficients,  rinner =    1.350   1.350   1.350
                                                       1.350   1.350   1.350
                                                       1.350

     PseudoPot. # 2 for Au read from file:
     /afs/slac.stanford.edu/u/if/mamunm/psp/gbrv1.5pbe/Au.UPF
     MD5 check sum: 9d7f43293ad2c663164586bc4b293ffc
     Pseudo is Ultrasoft + core correction, Zval = 11.0
     Generated by new atomic code, or converted to UPF format
     Using radial grid of  985 points,  7 beta functions with:
                l(1) =   0
                l(2) =   0
                l(3) =   1
                l(4) =   1
                l(5) =   2
                l(6) =   2
                l(7) =   3
     Q(r) pseudized with  6 coefficients,  rinner =    1.900   1.900   1.900
                                                       1.900   1.900   1.900
                                                       1.900

     vdW kernel table read from file vdW_kernel_table
     MD5 check sum: 095c7af220d748ca6e76c0b4c6cfb241

     atomic species   valence    mass     pseudopotential
        W1            14.00   183.84000     W ( 1.00)
        Au1           11.00   196.96657     Au( 1.00)

     No symmetry found

   Cartesian axes

     site n.     atom                  positions (alat units)
         1           W1  tau(   1) = (   0.0000000   0.0000000  10.0000000  )
         2           W1  tau(   2) = (  -1.4227709   2.4643114  10.0000000  )
         3           W1  tau(   3) = (   1.4227709   2.4643114  10.0000000  )
         4           Au1 tau(   4) = (   2.8455417   0.0000000  10.0000000  )
         5           W1  tau(   5) = (   2.8455417   1.6428743  12.3233751  )
         6           W1  tau(   6) = (   1.4227709   4.1071857  12.3233751  )
         7           W1  tau(   7) = (  -1.4227709   4.1071857  12.3233751  )
         8           Au1 tau(   8) = (   0.0000000   1.6428743  12.3233751  )
         9           W1  tau(   9) = (  -0.0000000   3.2857485  14.6467502  )
        10           W1  tau(  10) = (   1.4227709   0.8214371  14.6467502  )
        11           W1  tau(  11) = (   4.2683126   0.8214371  14.6467502  )
        12           Au1 tau(  12) = (   2.8455417   3.2857485  14.6467502  )

     number of k points=    20  Fermi-Dirac smearing, width (Ry)=  0.0110
                       cart. coord. in units 2pi/alat
        k(    1) = (   0.0000000   0.0000000   0.0000000), wk =   0.0555556
        k(    2) = (   0.0000000   0.0338161   0.0000000), wk =   0.1111111
        k(    3) = (   0.0000000   0.0676321   0.0000000), wk =   0.1111111
        k(    4) = (   0.0000000  -0.1014482   0.0000000), wk =   0.0555556
        k(    5) = (   0.0292856   0.0169080   0.0000000), wk =   0.1111111
        k(    6) = (   0.0292856   0.0507241   0.0000000), wk =   0.1111111
        k(    7) = (   0.0292856   0.0845402   0.0000000), wk =   0.1111111
        k(    8) = (   0.0292856  -0.0845402   0.0000000), wk =   0.1111111
        k(    9) = (   0.0292856  -0.0507241   0.0000000), wk =   0.1111111
        k(   10) = (   0.0292856  -0.0169080   0.0000000), wk =   0.1111111
        k(   11) = (   0.0585712   0.0338161   0.0000000), wk =   0.1111111
        k(   12) = (   0.0585712   0.0676321   0.0000000), wk =   0.1111111
        k(   13) = (   0.0585712   0.1014482   0.0000000), wk =   0.1111111
        k(   14) = (   0.0585712  -0.0676321   0.0000000), wk =   0.1111111
        k(   15) = (   0.0585712  -0.0338161   0.0000000), wk =   0.1111111
        k(   16) = (   0.0585712   0.0000000   0.0000000), wk =   0.1111111
        k(   17) = (  -0.0878567  -0.0507241   0.0000000), wk =   0.0555556
        k(   18) = (  -0.0878567  -0.0169080   0.0000000), wk =   0.1111111
        k(   19) = (  -0.0878567   0.0169080   0.0000000), wk =   0.1111111
        k(   20) = (  -0.0878567  -0.1521723   0.0000000), wk =   0.0555556

     Largest allocated arrays     est. size (Mb)     dimensions
     Largest temporary arrays     est. size (Mb)     dimensions

     Check: negative/imaginary core charge=   -0.000001    0.000000

     Initial potential from superposition of free atoms
     Check: negative starting charge=   -0.572480

     starting charge  158.09657, renormalised to  159.00000

     negative rho (up, down):  5.758E-01 0.000E+00

     *
     * You are using vdW-DF for exchange-correlation in this calculation.
     * Please cite the following three references that made this development
     * possible:
     *
     *   M. Dion, H. Rydberg, E. Schroder, D. C. Langreth, and
     *   B. I. Lundqvist, Phys. Rev. Lett. 92, 246401 (2004).
     *
     *   T. Thonhauser, V. R. Cooper, S. Li, A. Puzder, P. Hyldgaard, and
     *   D. C. Langreth, Phys. Rev. B 76, 125112 (2007).
     *
     *   G. Roman-Perez and J. M. Soler, Phys. Rev. Lett. 103, 096102 (2009).
     *
     *
     * If you are using vdW-DF2, please also cite:
     *
     *   K. Lee, E. D. Murray, L. Kong, B. I. Lundqvist, and
     *   D. C. Langreth, Phys. Rev. B 82, 081101(R) (2010).
     *
     *
     * If you are calculating the stress with vdW-DF, please also cite:
     *
     *   R. Sabatini, E. Kucukbenli, B. Kolb, T. Thonhauser, and
     *   S. de Gironcoli, J. Phys.: Condens. Matter 24, 424209 (2012).
     *

     Carrying out vdW-DF run using the following parameters:

     Nqs =      20    Nr_points =    1024   r_max =   100.000
     q_mesh =
               0.00001000     0.04494208     0.09755937     0.15916263
               0.23128650     0.31572767     0.41458969     0.53033537
               0.66584808     0.82450364     1.01025438     1.22772762
               1.48234092     1.78043706     2.12944203     2.53805004
               3.01644009     3.57652955     4.23227104     5.00000000

     Gradients computed in reciprocal space

     Adding external electric field

     Computed dipole along edir(3) :
        Dipole                0.0000 Ry au,          0.0000 Debye
        Dipole field          0.0000 Ry au

        Potential amp.       -0.0000 Ry
        Total length         45.4112 bohr

     Starting wfc are  144 randomized atomic wfcs

     Self-consistent Calculation

     iteration #  1     ecut=    36.75 Ry     beta=0.10
     Davidson diagonalization with overlap
     ethr =  1.00E-02,  avg # of iterations =  2.0

[...]

     total energy              =   -1793.45171119 Ry
     Harris-Foulkes estimate   =   -1794.11395169 Ry
     estimated scf accuracy    <       3.93181400 Ry

[...]

     End of self-consistent calculation

          k = 0.0000 0.0000 0.0000 ( 17603 PWs)   bands (ev):

   -72.3631 -72.3466 -72.3094 -72.3005 -72.3005 -72.2951 -72.2951 -72.2679
   -72.2679 -36.8899 -36.7409 -36.7206 -36.7059 -36.7059 -36.6941 -36.6645
   -36.6645 -36.5662 -36.5662 -36.5123 -36.4274 -36.4274 -36.3911 -36.3911
   -36.2974 -36.2047 -36.1756 -36.1756 -36.1600 -36.1161 -36.0333 -36.0333
   -35.9597 -35.9597 -35.9537 -35.9537  -6.7980  -5.1286  -4.7312  -4.6220
    -4.6220  -4.4176  -4.4176  -3.9726  -3.9091  -3.9091  -3.8975  -3.8975
    -3.8909  -3.1075  -3.0023  -3.0023  -2.8787  -2.8787  -2.7666  -2.2119
    -1.3137  -0.6702  -0.4951  -0.3906  -0.3906   0.0363   0.0364   0.1896
     0.1896   0.7028   0.8225   0.8226   0.8669   0.8669   1.0677   1.0677
     1.2229   1.6700   1.6700   1.7285   2.1194   2.3252   2.4153   2.4153
     2.7951   3.2992   3.2992   3.5577   3.6589   4.1001   4.1001   4.3238
     4.3238   4.4790   4.4791   4.8354   4.8354   4.8643   4.8643   5.1705
     5.1705   5.3015   5.4773   5.4773   5.7788   5.9580   5.9639   5.9639
     6.3992   6.5635   6.8599   7.0915   7.0936

[...]

          k =-0.0879-0.0507 0.0000 ( 17540 PWs)   bands (ev):

[...]

     the Fermi energy is     2.0419 ev

!    total energy              =   -1793.53170583 Ry
     Harris-Foulkes estimate   =   -1793.53170577 Ry
     estimated scf accuracy    <       0.00000058 Ry

     The total energy is the sum of the following terms:

     one-electron contribution =  -13128.06573469 Ry
     hartree contribution      =    6573.51091711 Ry
     xc contribution           =    -574.50033659 Ry
     ewald contribution        =    5335.60255842 Ry
     electric field correction =       0.00000000 Ry
     smearing contrib. (-TS)   =      -0.07911008 Ry

     convergence has been achieved in  15 iterations

 BEEF-vdW xc energy contributions
           1 :   -508.034859755433
           2 :    471.165922562848
           3 :   -405.656690671036
           4 :    325.022371737870
           5 :   -243.721090447867
           6 :    173.119217569305
           7 :   -119.121113594123
           8 :    81.9922424463874
[...]
     Generated by new atomic code, or converted to UPF format
     Using radial grid of  923 points,  8 beta functions with:
                l(1) =   0
                l(2) =   0
                l(3) =   0
                l(4) =   1
                l(5) =   1
                l(6) =   2
                l(7) =   2
                l(8) =   3
     Q(r) pseudized with  6 coefficients,  rinner =    1.350   1.350   1.350
                                                       1.350   1.350   1.350
                                                       1.350

     PseudoPot. # 2 for Au read from file:
     /afs/slac.stanford.edu/u/if/mamunm/psp/gbrv1.5pbe/Au.UPF
     MD5 check sum: 9d7f43293ad2c663164586bc4b293ffc
     Pseudo is Ultrasoft + core correction, Zval = 11.0
     Generated by new atomic code, or converted to UPF format
     Using radial grid of  985 points,  7 beta functions with:
                l(1) =   0
                l(2) =   0
                l(3) =   1
                l(4) =   1
                l(5) =   2
                l(6) =   2
                l(7) =   3
     Q(r) pseudized with  6 coefficients,  rinner =    1.900   1.900   1.900
                                                       1.900   1.900   1.900
                                                       1.900

     vdW kernel table read from file vdW_kernel_table
     MD5 check sum: 095c7af220d748ca6e76c0b4c6cfb241

     atomic species   valence    mass     pseudopotential
        W1            14.00   183.84000     W ( 1.00)
        Au1           11.00   196.96657     Au( 1.00)

     No symmetry found

   Cartesian axes

     site n.     atom                  positions (alat units)
         1           W1  tau(   1) = (   0.0000000   0.0000000  10.0000000  )
         2           W1  tau(   2) = (  -1.4227709   2.4643114  10.0000000  )
         3           W1  tau(   3) = (   1.4227709   2.4643114  10.0000000  )
         4           Au1 tau(   4) = (   2.8455417   0.0000000  10.0000000  )
         5           W1  tau(   5) = (   2.8455417   1.6428743  12.3233751  )
         6           W1  tau(   6) = (   1.4227709   4.1071857  12.3233751  )
         7           W1  tau(   7) = (  -1.4227709   4.1071857  12.3233751  )
         8           Au1 tau(   8) = (   0.0000000   1.6428743  12.3233751  )
         9           W1  tau(   9) = (   0.0000043   3.3523155  14.5351309  )
        10           W1  tau(  10) = (   1.4804262   0.7881462  14.5351318  )
        11           W1  tau(  11) = (   4.2106621   0.7881445  14.5351314  )
        12           Au1 tau(  12) = (   2.8455365   3.2857444  14.8189894  )

     number of k points=    20  Fermi-Dirac smearing, width (Ry)=  0.0110
                       cart. coord. in units 2pi/alat
        k(    1) = (   0.0000000   0.0000000   0.0000000), wk =   0.0555556
        k(    2) = (   0.0000000   0.0338161   0.0000000), wk =   0.1111111
        k(    3) = (   0.0000000   0.0676321   0.0000000), wk =   0.1111111
        k(    4) = (   0.0000000  -0.1014482   0.0000000), wk =   0.0555556
        k(    5) = (   0.0292856   0.0169080   0.0000000), wk =   0.1111111
        k(    6) = (   0.0292856   0.0507241   0.0000000), wk =   0.1111111
        k(    7) = (   0.0292856   0.0845402   0.0000000), wk =   0.1111111
        k(    8) = (   0.0292856  -0.0845402   0.0000000), wk =   0.1111111
        k(    9) = (   0.0292856  -0.0507241   0.0000000), wk =   0.1111111
        k(   10) = (   0.0292856  -0.0169080   0.0000000), wk =   0.1111111
        k(   11) = (   0.0585712   0.0338161   0.0000000), wk =   0.1111111
        k(   12) = (   0.0585712   0.0676321   0.0000000), wk =   0.1111111
        k(   13) = (   0.0585712   0.1014482   0.0000000), wk =   0.1111111
        k(   14) = (   0.0585712  -0.0676321   0.0000000), wk =   0.1111111
        k(   15) = (   0.0585712  -0.0338161   0.0000000), wk =   0.1111111
        k(   16) = (   0.0585712   0.0000000   0.0000000), wk =   0.1111111
        k(   17) = (  -0.0878567  -0.0507241   0.0000000), wk =   0.0555556
        k(   18) = (  -0.0878567  -0.0169080   0.0000000), wk =   0.1111111
        k(   19) = (  -0.0878567   0.0169080   0.0000000), wk =   0.1111111
        k(   20) = (  -0.0878567  -0.1521723   0.0000000), wk =   0.0555556

     Largest allocated arrays     est. size (Mb)     dimensions
     Largest temporary arrays     est. size (Mb)     dimensions

     Check: negative/imaginary core charge=   -0.000001    0.000000

     Initial potential from superposition of free atoms
     Check: negative starting charge=   -0.570570

     starting charge  158.09657, renormalised to  159.00000

[...]

     *
     * You are using vdW-DF for exchange-correlation in this calculation.
     * Please cite the following three references that made this development
     * possible:
     *
     *   M. Dion, H. Rydberg, E. Schroder, D. C. Langreth, and
     *   B. I. Lundqvist, Phys. Rev. Lett. 92, 246401 (2004).
     *
     *   T. Thonhauser, V. R. Cooper, S. Li, A. Puzder, P. Hyldgaard, and
     *   D. C. Langreth, Phys. Rev. B 76, 125112 (2007).
     *
     *   G. Roman-Perez and J. M. Soler, Phys. Rev. Lett. 103, 096102 (2009).
     *
     *
     * If you are using vdW-DF2, please also cite:
     *
     *   K. Lee, E. D. Murray, L. Kong, B. I. Lundqvist, and
     *   D. C. Langreth, Phys. Rev. B 82, 081101(R) (2010).
     *
     *
     * If you are calculating the stress with vdW-DF, please also cite:
     *
     *   R. Sabatini, E. Kucukbenli, B. Kolb, T. Thonhauser, and
     *   S. de Gironcoli, J. Phys.: Condens. Matter 24, 424209 (2012).
     *

     Carrying out vdW-DF run using the following parameters:

     Nqs =      20    Nr_points =    1024   r_max =   100.000
     q_mesh =
               0.00001000     0.04494208     0.09755937     0.15916263
               0.23128650     0.31572767     0.41458969     0.53033537
               0.66584808     0.82450364     1.01025438     1.22772762
               1.48234092     1.78043706     2.12944203     2.53805004
               3.01644009     3.57652955     4.23227104     5.00000000

     Gradients computed in reciprocal space

[...]

     Starting wfc are  144 randomized atomic wfcs

     Self-consistent Calculation

[...]

     total energy              =   -1793.56455695 Ry
     Harris-Foulkes estimate   =   -1793.56455745 Ry
     estimated scf accuracy    <       0.00000749 Ry

     iteration # 15     ecut=    36.75 Ry     beta=0.10
     Davidson diagonalization with overlap
     ethr =  4.71E-09,  avg # of iterations =  1.0

[...]

     negative rho (up, down):  5.933E-01 0.000E+00

     Adding external electric field

     Computed dipole along edir(3) :
        Dipole               -0.0185 Ry au,         -0.0469 Debye
        Dipole field         -0.0000 Ry au

        Potential amp.        0.0045 Ry
        Total length         45.4112 bohr

     End of self-consistent calculation

[...]

          k = 0.0586 0.0000 0.0000 ( 17573 PWs)   bands (ev):

[...]

          k =-0.0879-0.1522 0.0000 ( 17540 PWs)   bands (ev):

   -72.3842 -72.3670 -72.3480 -72.3170 -72.2959 -72.2766 -72.2397 -72.2170
   -72.2037 -36.8305 -36.7727 -36.7252 -36.6541 -36.6270 -36.5950 -36.5934
   -36.5552 -36.5350 -36.4789 -36.4576 -36.4566 -36.4335 -36.3970 -36.3906
   -36.3571 -36.3194 -36.2558 -36.2414 -36.1957 -36.1286 -36.1093 -36.0933
   -36.0534 -36.0499 -36.0163 -35.9163  -5.2404  -4.8557  -4.1826  -4.1420
    -4.1038  -3.8012  -3.7907  -3.5656  -3.5058  -3.4869  -3.1152  -3.1119
    -3.0517  -2.8589  -2.8279  -2.7945  -2.6127  -2.5602  -2.4146  -2.2517
    -2.0715  -1.5422  -1.3625  -0.7946  -0.7848  -0.3533  -0.1307  -0.1025
    -0.0769  -0.0046   0.1223   0.4056   0.5270   0.5389   0.6882   0.7743
     0.7880   0.9837   1.0151   1.2029   1.5304   1.5709   1.7038   1.9042
     2.1208   2.2819   2.3196   2.3712   2.7739   3.1226   3.1850   3.4493
     3.5344   3.7619   3.7711   3.9455   4.0537   4.1934   4.1935   4.3443
     4.7351   4.9840   5.3405   5.3687   5.5062   5.5928   6.1892   6.5651
     6.8051   7.5159   7.6307   7.9318   7.9357

     the Fermi energy is     2.0003 ev

!    total energy              =   -1793.56455766 Ry
     Harris-Foulkes estimate   =   -1793.56455724 Ry
     estimated scf accuracy    <       0.00000092 Ry

     The total energy is the sum of the following terms:

     one-electron contribution =  -13226.29644779 Ry
     hartree contribution      =    6622.68080309 Ry
     xc contribution           =    -574.70303725 Ry
     ewald contribution        =    5384.83256012 Ry
     electric field correction =       0.00000092 Ry
     smearing contrib. (-TS)   =      -0.07843675 Ry

     convergence has been achieved in  15 iterations

 BEEF-vdW xc energy contributions
           1 :   -508.570519755512
           2 :    471.729876570841
           3 :   -406.258373044559
           4 :    325.637881040802
           5 :   -244.296095527041
           6 :    173.593878414503
           7 :   -119.463522039942
           8 :    82.2193853817307
           9 :   -58.2124041930548
          10 :    42.3360826061742
          11 :   -30.2588654736995
          12 :    19.6023072052600
          13 :   -9.92119218874450
          14 :    1.87106766604074
          15 :    3.80850889143437
          16 :   -6.98005628873545
          17 :    8.24101746447093
          18 :   -8.59943911033940
          19 :    8.96762716312367
          20 :   -9.77647420287133
          21 :    10.8880343275117
          22 :   -11.8063169706564
          23 :    12.0298516459388
          24 :   -11.3464767823184
          25 :    9.92990419786281
          26 :   -8.22564948402783
          27 :    6.71896592020232
          28 :   -5.72276418578815
          29 :    5.28628420951475
          30 :   -5.24611705100904
          31 :   -43.9818514002349
          32 :   -32.7517798971361

     Forces acting on atoms (Ry/au):

     negative rho (up, down):  5.933E-01 0.000E+00
     atom    1 type  1   force =    -0.00000016   -0.01877957    0.02853965
     atom    2 type  1   force =    -0.01626407    0.00939040    0.02854084
     atom    3 type  1   force =     0.01626374    0.00938913    0.02853925
     atom    4 type  2   force =    -0.00000201   -0.00000053   -0.03205724
     atom    5 type  1   force =     0.00000060    0.01206155   -0.01111817
     atom    6 type  1   force =     0.01044656   -0.00603033   -0.01111836
     atom    7 type  1   force =    -0.01044637   -0.00603183   -0.01111905
     atom    8 type  2   force =     0.00000083    0.00000060   -0.02081968
     atom    9 type  1   force =    -0.00000152    0.00030269   -0.00005653
     atom   10 type  1   force =     0.00026261   -0.00015150   -0.00005643
     atom   11 type  1   force =    -0.00026223   -0.00014967   -0.00005719
     atom   12 type  2   force =     0.00000203   -0.00000093    0.00078289

     Total force =     0.075967     Total SCF correction =     0.002605

     entering subroutine stress ...

     negative rho (up, down):  5.933E-01 0.000E+00
          total   stress  (Ry/bohr**3)                   (kbar)     P=  -29.00
  -0.00024080   0.00000000   0.00000000        -35.42      0.00      0.00
   0.00000000  -0.00024080   0.00000000          0.00    -35.42      0.00
   0.00000000   0.00000000  -0.00010982          0.00      0.00    -16.15

 !ASE

     Writing output data file calc.save

     General routines

     Parallel routines

   This run was terminated on:   8:27:18   2Jan2019

   JOB DONE.
Job  /afs/slac/g/suncat/bin/suncat-tsmpirun -x LD_LIBRARY_PATH -wdir /scratch/qe649341_3phQ0 pw.x -in pw.inp

TID   HOST_NAME   COMMAND_LINE            STATUS            TERMINATION_TIME
00000 suncat0036 pw.x -in pw.inp   Done                     01/02/2019 08:27:18
00001 suncat0036 pw.x -in pw.inp   Done                     01/02/2019 08:27:18
00002 suncat0036 pw.x -in pw.inp   Done                     01/02/2019 08:27:18
00003 suncat0036 pw.x -in pw.inp   Done                     01/02/2019 08:27:18
00004 suncat0036 pw.x -in pw.inp   Done                     01/02/2019 08:27:18
00005 suncat0036 pw.x -in pw.inp   Done                     01/02/2019 08:27:18
00006 suncat0036 pw.x -in pw.inp   Done                     01/02/2019 08:27:18
00007 suncat0036 pw.x -in pw.inp   Done                     01/02/2019 08:27:18
00008 suncat0035 pw.x -in pw.inp   Done                     01/02/2019 08:27:18
00009 suncat0035 pw.x -in pw.inp   Done                     01/02/2019 08:27:18
00010 suncat0035 pw.x -in pw.inp   Done                     01/02/2019 08:27:18
00011 suncat0035 pw.x -in pw.inp   Done                     01/02/2019 08:27:18
00012 suncat0035 pw.x -in pw.inp   Done                     01/02/2019 08:27:18
00013 suncat0035 pw.x -in pw.inp   Done                     01/02/2019 08:27:18
00014 suncat0035 pw.x -in pw.inp   Done                     01/02/2019 08:27:18
00015 suncat0035 pw.x -in pw.inp   Done                     01/02/2019 08:27:18
00016 suncat0033 pw.x -in pw.inp   Done                     01/02/2019 08:27:18
00017 suncat0033 pw.x -in pw.inp   Done                     01/02/2019 08:27:18
00018 suncat0033 pw.x -in pw.inp   Done                     01/02/2019 08:27:18
00019 suncat0033 pw.x -in pw.inp   Done                     01/02/2019 08:27:18
00020 suncat0033 pw.x -in pw.inp   Done                     01/02/2019 08:27:18
00021 suncat0033 pw.x -in pw.inp   Done                     01/02/2019 08:27:18
00022 suncat0033 pw.x -in pw.inp   Done                     01/02/2019 08:27:18
00023 suncat0033 pw.x -in pw.inp   Done                     01/02/2019 08:27:18
00024 suncat0032 pw.x -in pw.inp   Done                     01/02/2019 08:27:18
00025 suncat0032 pw.x -in pw.inp   Done                     01/02/2019 08:27:18
00026 suncat0032 pw.x -in pw.inp   Done                     01/02/2019 08:27:18
00027 suncat0032 pw.x -in pw.inp   Done                     01/02/2019 08:27:18
00028 suncat0032 pw.x -in pw.inp   Done                     01/02/2019 08:27:18
00029 suncat0032 pw.x -in pw.inp   Done                     01/02/2019 08:27:18
00030 suncat0032 pw.x -in pw.inp   Done                     01/02/2019 08:27:18
00031 suncat0032 pw.x -in pw.inp   Done                     01/02/2019 08:27:18
00032 suncat0274 pw.x -in pw.inp   Done                     01/02/2019 08:27:18
00033 suncat0274 pw.x -in pw.inp   Done                     01/02/2019 08:27:18
00034 suncat0274 pw.x -in pw.inp   Done                     01/02/2019 08:27:18
00035 suncat0274 pw.x -in pw.inp   Done                     01/02/2019 08:27:18
00036 suncat0274 pw.x -in pw.inp   Done                     01/02/2019 08:27:18
00037 suncat0274 pw.x -in pw.inp   Done                     01/02/2019 08:27:18
00038 suncat0274 pw.x -in pw.inp   Done                     01/02/2019 08:27:18
00039 suncat0274 pw.x -in pw.inp   Done                     01/02/2019 08:27:18
00040 suncat0273 pw.x -in pw.inp   Done                     01/02/2019 08:27:18
00041 suncat0273 pw.x -in pw.inp   Done                     01/02/2019 08:27:18
00042 suncat0273 pw.x -in pw.inp   Done                     01/02/2019 08:27:18
00043 suncat0273 pw.x -in pw.inp   Done                     01/02/2019 08:27:18
00044 suncat0273 pw.x -in pw.inp   Done                     01/02/2019 08:27:18
00045 suncat0273 pw.x -in pw.inp   Done                     01/02/2019 08:27:18
00046 suncat0273 pw.x -in pw.inp   Done                     01/02/2019 08:27:18
00047 suncat0273 pw.x -in pw.inp   Done                     01/02/2019 08:27:18
00048 suncat0230 pw.x -in pw.inp   Done                     01/02/2019 08:27:18
00049 suncat0230 pw.x -in pw.inp   Done                     01/02/2019 08:27:18
00050 suncat0230 pw.x -in pw.inp   Done                     01/02/2019 08:27:18
00051 suncat0230 pw.x -in pw.inp   Done                     01/02/2019 08:27:18
00052 suncat0230 pw.x -in pw.inp   Done                     01/02/2019 08:27:18
00053 suncat0230 pw.x -in pw.inp   Done                     01/02/2019 08:27:18
00054 suncat0230 pw.x -in pw.inp   Done                     01/02/2019 08:27:18
00055 suncat0230 pw.x -in pw.inp   Done                     01/02/2019 08:27:18
00056 suncat0229 pw.x -in pw.inp   Done                     01/02/2019 08:27:18
00057 suncat0229 pw.x -in pw.inp   Done                     01/02/2019 08:27:18
00058 suncat0229 pw.x -in pw.inp   Done                     01/02/2019 08:27:18
00059 suncat0229 pw.x -in pw.inp   Done                     01/02/2019 08:27:18
00060 suncat0229 pw.x -in pw.inp   Done                     01/02/2019 08:27:18
00061 suncat0229 pw.x -in pw.inp   Done                     01/02/2019 08:27:18
00062 suncat0229 pw.x -in pw.inp   Done                     01/02/2019 08:27:18
00063 suncat0229 pw.x -in pw.inp   Done                     01/02/2019 08:27:18