     Program PWSCF v.5.1rc2 (svn rev. 11289) starts on 28Dec2018 at  2: 6:42

     Current dimensions of program PWSCF are:
     Max number of different atomic species (ntypx) = 10
     Max number of k-points (npk) =  40000
     Max angular momentum in pseudopotentials (lmaxx) =  3
     Presently stress not available with electric field

     IMPORTANT: XC functional enforced from input :
     Exchange-correlation      = BEEF-VDW ( 1  4 27 13 2)
     Any further DFT definition will be discarded
     Please, verify this is what you really want

     Subspace diagonalization in iterative solution of the eigenvalue problem:
     a serial algorithm will be used

     bravais-lattice index     =            0
     lattice parameter (alat)  =       1.8897  a.u.
     unit-cell volume          =    4703.0447 (a.u.)^3
     number of atoms/cell      =           12
     number of atomic types    =            2
     number of electrons       =       147.00
     number of Kohn-Sham states=          103
     kinetic-energy cutoff     =      36.7493  Ry
     charge density cutoff     =     367.4932  Ry
     convergence threshold     =      1.0E-06
     mixing beta               =       0.1000
     number of iterations used =           10  plain     mixing
     Exchange-correlation      = BEEF-VDW ( 1  4 27 13 2)
     nstep                     =           50

     celldm(1)=   1.889726  celldm(2)=   0.000000  celldm(3)=   0.000000
     celldm(4)=   0.000000  celldm(5)=   0.000000  celldm(6)=   0.000000

     crystal axes: (cart. coord. in units of alat)
               a(1) = (   5.712090   0.000000   0.000000 )
               a(2) = (  -2.856045   4.946815   0.000000 )
               a(3) = (   0.000000   0.000000  24.663902 )

     reciprocal axes: (cart. coord. in units 2 pi/alat)
               b(1) = (  0.175067  0.101075  0.000000 )
               b(2) = (  0.000000  0.202150  0.000000 )
               b(3) = (  0.000000  0.000000  0.040545 )

     PseudoPot. # 1 for Ti read from file:
     /afs/slac.stanford.edu/u/if/mamunm/psp/gbrv1.5pbe/Ti.UPF
     MD5 check sum: 88a00a6731bd790ddea75d31a80cb452
     Pseudo is Ultrasoft + core correction, Zval = 12.0
     Generated by new atomic code, or converted to UPF format
     Using radial grid of  851 points,  6 beta functions with:
                l(1) =   0
                l(2) =   0
                l(3) =   1
                l(4) =   1
                l(5) =   2
                l(6) =   2
     Q(r) pseudized with  6 coefficients,  rinner =    1.000   1.000   1.000
                                                       1.000   1.000

     PseudoPot. # 2 for V  read from file:
     /afs/slac.stanford.edu/u/if/mamunm/psp/gbrv1.5pbe/V.UPF
     MD5 check sum: 22b79981416ebb76fdaf5b1b8640f6fb
     Pseudo is Ultrasoft + core correction, Zval = 13.0
     Generated by new atomic code, or converted to UPF format
     Using radial grid of  853 points,  6 beta functions with:
                l(1) =   0
                l(2) =   0
                l(3) =   1
                l(4) =   1
                l(5) =   2
                l(6) =   2
     Q(r) pseudized with  8 coefficients,  rinner =    1.100   1.100   1.100
                                                       1.100   1.100

     vdW kernel table read from file vdW_kernel_table
     MD5 check sum: 095c7af220d748ca6e76c0b4c6cfb241

     atomic species   valence    mass     pseudopotential
        Ti1           12.00    47.86700     Ti( 1.00)
        V1            13.00    50.94150     V ( 1.00)

     No symmetry found

   Cartesian axes

     site n.     atom                  positions (alat units)
         1           Ti1 tau(   1) = (   0.0000000   0.0000000  10.0000000  )
         2           Ti1 tau(   2) = (  -1.4280225   2.4734075  10.0000000  )
         3           Ti1 tau(   3) = (   1.4280225   2.4734075  10.0000000  )
         4           V1  tau(   4) = (   2.8560450   0.0000000  10.0000000  )
         5           Ti1 tau(   5) = (   2.8560450   1.6489384  12.3319510  )
         6           Ti1 tau(   6) = (   1.4280225   4.1223459  12.3319510  )
         7           Ti1 tau(   7) = (  -1.4280225   4.1223459  12.3319510  )
         8           V1  tau(   8) = (   0.0000000   1.6489384  12.3319510  )
         9           Ti1 tau(   9) = (  -0.0000000   3.2978767  14.6639020  )
        10           Ti1 tau(  10) = (   1.4280225   0.8244692  14.6639020  )
        11           Ti1 tau(  11) = (   4.2840675   0.8244692  14.6639020  )
        12           V1  tau(  12) = (   2.8560450   3.2978767  14.6639020  )

     number of k points=    20  Fermi-Dirac smearing, width (Ry)=  0.0110
                       cart. coord. in units 2pi/alat
        k(    1) = (   0.0000000   0.0000000   0.0000000), wk =   0.0555556
        k(    2) = (   0.0000000   0.0336917   0.0000000), wk =   0.1111111
        k(    3) = (   0.0000000   0.0673834   0.0000000), wk =   0.1111111
        k(    4) = (   0.0000000  -0.1010751   0.0000000), wk =   0.0555556
        k(    5) = (   0.0291779   0.0168459   0.0000000), wk =   0.1111111
        k(    6) = (   0.0291779   0.0505376   0.0000000), wk =   0.1111111
        k(    7) = (   0.0291779   0.0842293   0.0000000), wk =   0.1111111
        k(    8) = (   0.0291779  -0.0842293   0.0000000), wk =   0.1111111
        k(    9) = (   0.0291779  -0.0505376   0.0000000), wk =   0.1111111
        k(   10) = (   0.0291779  -0.0168459   0.0000000), wk =   0.1111111
        k(   11) = (   0.0583558   0.0336917   0.0000000), wk =   0.1111111
        k(   12) = (   0.0583558   0.0673834   0.0000000), wk =   0.1111111
        k(   13) = (   0.0583558   0.1010751   0.0000000), wk =   0.1111111
        k(   14) = (   0.0583558  -0.0673834   0.0000000), wk =   0.1111111
        k(   15) = (   0.0583558  -0.0336917   0.0000000), wk =   0.1111111
        k(   16) = (   0.0583558   0.0000000   0.0000000), wk =   0.1111111
        k(   17) = (  -0.0875336  -0.0505376   0.0000000), wk =   0.0555556
        k(   18) = (  -0.0875336  -0.0168459   0.0000000), wk =   0.1111111
        k(   19) = (  -0.0875336   0.0168459   0.0000000), wk =   0.1111111
        k(   20) = (  -0.0875336  -0.1516127   0.0000000), wk =   0.0555556

     Largest allocated arrays     est. size (Mb)     dimensions
     Largest temporary arrays     est. size (Mb)     dimensions

     Check: negative/imaginary core charge=   -0.000006    0.000000

     Initial potential from superposition of free atoms
     Check: negative starting charge=   -0.011650

     starting charge  137.99592, renormalised to  147.00000

     negative rho (up, down):  1.241E-02 0.000E+00

     *
     * You are using vdW-DF for exchange-correlation in this calculation.
     * Please cite the following three references that made this development
     * possible:
     *
     *   M. Dion, H. Rydberg, E. Schroder, D. C. Langreth, and
     *   B. I. Lundqvist, Phys. Rev. Lett. 92, 246401 (2004).
     *
     *   T. Thonhauser, V. R. Cooper, S. Li, A. Puzder, P. Hyldgaard, and
     *   D. C. Langreth, Phys. Rev. B 76, 125112 (2007).
     *
     *   G. Roman-Perez and J. M. Soler, Phys. Rev. Lett. 103, 096102 (2009).
     *
     *
     * If you are using vdW-DF2, please also cite:
     *
     *   K. Lee, E. D. Murray, L. Kong, B. I. Lundqvist, and
     *   D. C. Langreth, Phys. Rev. B 82, 081101(R) (2010).
     *
     *
     * If you are calculating the stress with vdW-DF, please also cite:
     *
     *   R. Sabatini, E. Kucukbenli, B. Kolb, T. Thonhauser, and
     *   S. de Gironcoli, J. Phys.: Condens. Matter 24, 424209 (2012).
     *

     Carrying out vdW-DF run using the following parameters:

     Nqs =      20    Nr_points =    1024   r_max =   100.000
     q_mesh =
               0.00001000     0.04494208     0.09755937     0.15916263
               0.23128650     0.31572767     0.41458969     0.53033537
               0.66584808     0.82450364     1.01025438     1.22772762
               1.48234092     1.78043706     2.12944203     2.53805004
               3.01644009     3.57652955     4.23227104     5.00000000

     Gradients computed in reciprocal space

     Adding external electric field

     Computed dipole along edir(3) :
        Dipole                0.0000 Ry au,          0.0000 Debye
        Dipole field          0.0000 Ry au

        Potential amp.       -0.0000 Ry
        Total length         45.4428 bohr

     Starting wfc are  120 randomized atomic wfcs

     Self-consistent Calculation

     iteration #  1     ecut=    36.75 Ry     beta=0.10
     Davidson diagonalization with overlap
     ethr =  1.00E-02,  avg # of iterations =  4.7

[...]

     total energy              =   -1516.73754085 Ry
     Harris-Foulkes estimate   =   -1520.54362424 Ry
     estimated scf accuracy    <      21.53593994 Ry

[...]

     End of self-consistent calculation

          k = 0.0000 0.0000 0.0000 ( 17741 PWs)   bands (ev):

   -63.4847 -63.4374 -63.4371 -56.2787 -56.2725 -56.2010 -56.2010 -56.1995
   -56.1994 -56.0886 -56.0206 -56.0206 -37.2939 -37.2878 -37.2857 -37.2836
   -37.2836 -37.2364 -37.2364 -37.2355 -37.2355 -32.7917 -32.7558 -32.6561
   -32.6034 -32.6034 -32.5547 -32.5547 -32.5520 -32.5520 -32.5421 -32.5381
   -32.4749 -32.4748 -32.3257 -32.3257 -32.3109 -32.2924 -32.2198 -32.2198
   -32.2176 -32.2153 -32.2153 -32.1928 -32.1928 -32.1028 -32.0478 -32.0478
    -4.8531  -3.5034  -2.2822  -1.7605  -1.6728  -1.6728  -1.6286  -1.5266
    -1.5266  -1.1756  -1.1058  -1.1058  -0.9435  -0.9435  -0.9360  -0.2743
    -0.2743  -0.2546   0.5200   0.6067   0.7434   0.7434   0.8146   1.0572
     1.0890   1.2207   1.2315   1.2315   1.3613   1.3613   1.4836   1.4836
     1.5216   1.5216   1.5432   1.5432   1.6716   1.7807   1.7994   1.7994
     2.3168   2.3168   2.4590   2.4935   2.4935   2.6837   2.7676   2.7676
     2.9831   3.0957   3.0957   3.3021   3.3021   3.5784   3.5785

[...]

          k =-0.0875-0.0505 0.0000 ( 17668 PWs)   bands (ev):

[...]

     the Fermi energy is     0.7249 ev

!    total energy              =   -1516.05131872 Ry
     Harris-Foulkes estimate   =   -1516.05131745 Ry
     estimated scf accuracy    <       0.00000090 Ry

     The total energy is the sum of the following terms:

     one-electron contribution =  -11580.92195128 Ry
     hartree contribution      =    5775.44005415 Ry
     xc contribution           =    -229.48093200 Ry
     ewald contribution        =    4519.05797135 Ry
     electric field correction =       0.00000000 Ry
     smearing contrib. (-TS)   =      -0.14646093 Ry

     convergence has been achieved in  24 iterations

 BEEF-vdW xc energy contributions
           1 :   -197.319760081244
           2 :    176.491985226344
           3 :   -142.284918071715
           4 :    105.619842691356
           5 :   -75.6075047794558
           6 :    55.9711373418784
           7 :   -44.8861170056648
           8 :    37.6518482328816
           9 :   -30.1277051354406
          10 :    20.8408311231720
          11 :   -10.9332406693744
          12 :    2.54232183691877
          13 :    2.99705089556792
          14 :   -5.96220332566259
          15 :    7.75039859986313
          16 :   -9.68101850307764
[...]
               b(3) = (  0.000000  0.000000  0.040545 )

     PseudoPot. # 1 for Ti read from file:
     /afs/slac.stanford.edu/u/if/mamunm/psp/gbrv1.5pbe/Ti.UPF
     MD5 check sum: 88a00a6731bd790ddea75d31a80cb452
     Pseudo is Ultrasoft + core correction, Zval = 12.0
     Generated by new atomic code, or converted to UPF format
     Using radial grid of  851 points,  6 beta functions with:
                l(1) =   0
                l(2) =   0
                l(3) =   1
                l(4) =   1
                l(5) =   2
                l(6) =   2
     Q(r) pseudized with  6 coefficients,  rinner =    1.000   1.000   1.000
                                                       1.000   1.000

     PseudoPot. # 2 for V  read from file:
     /afs/slac.stanford.edu/u/if/mamunm/psp/gbrv1.5pbe/V.UPF
     MD5 check sum: 22b79981416ebb76fdaf5b1b8640f6fb
     Pseudo is Ultrasoft + core correction, Zval = 13.0
     Generated by new atomic code, or converted to UPF format
     Using radial grid of  853 points,  6 beta functions with:
                l(1) =   0
                l(2) =   0
                l(3) =   1
                l(4) =   1
                l(5) =   2
                l(6) =   2
     Q(r) pseudized with  8 coefficients,  rinner =    1.100   1.100   1.100
                                                       1.100   1.100

     vdW kernel table read from file vdW_kernel_table
     MD5 check sum: 095c7af220d748ca6e76c0b4c6cfb241

     atomic species   valence    mass     pseudopotential
        Ti1           12.00    47.86700     Ti( 1.00)
        V1            13.00    50.94150     V ( 1.00)

     No symmetry found

   Cartesian axes

     site n.     atom                  positions (alat units)
         1           Ti1 tau(   1) = (   0.0000000   0.0000000  10.0000000  )
         2           Ti1 tau(   2) = (  -1.4280225   2.4734075  10.0000000  )
         3           Ti1 tau(   3) = (   1.4280225   2.4734075  10.0000000  )
         4           V1  tau(   4) = (   2.8560450   0.0000000  10.0000000  )
         5           Ti1 tau(   5) = (   2.8560450   1.6489384  12.3319510  )
         6           Ti1 tau(   6) = (   1.4280225   4.1223459  12.3319510  )
         7           Ti1 tau(   7) = (  -1.4280225   4.1223459  12.3319510  )
         8           V1  tau(   8) = (   0.0000000   1.6489384  12.3319510  )
         9           Ti1 tau(   9) = (   0.0000058   3.2584194  14.5957162  )
        10           Ti1 tau(  10) = (   1.3938512   0.8441973  14.5957178  )
        11           Ti1 tau(  11) = (   4.3182423   0.8441945  14.5957172  )
        12           V1  tau(  12) = (   2.8560437   3.2978774  14.4102566  )

     number of k points=    20  Fermi-Dirac smearing, width (Ry)=  0.0110
                       cart. coord. in units 2pi/alat
        k(    1) = (   0.0000000   0.0000000   0.0000000), wk =   0.0555556
        k(    2) = (   0.0000000   0.0336917   0.0000000), wk =   0.1111111
        k(    3) = (   0.0000000   0.0673834   0.0000000), wk =   0.1111111
        k(    4) = (   0.0000000  -0.1010751   0.0000000), wk =   0.0555556
        k(    5) = (   0.0291779   0.0168459   0.0000000), wk =   0.1111111
        k(    6) = (   0.0291779   0.0505376   0.0000000), wk =   0.1111111
        k(    7) = (   0.0291779   0.0842293   0.0000000), wk =   0.1111111
        k(    8) = (   0.0291779  -0.0842293   0.0000000), wk =   0.1111111
        k(    9) = (   0.0291779  -0.0505376   0.0000000), wk =   0.1111111
        k(   10) = (   0.0291779  -0.0168459   0.0000000), wk =   0.1111111
        k(   11) = (   0.0583558   0.0336917   0.0000000), wk =   0.1111111
        k(   12) = (   0.0583558   0.0673834   0.0000000), wk =   0.1111111
        k(   13) = (   0.0583558   0.1010751   0.0000000), wk =   0.1111111
        k(   14) = (   0.0583558  -0.0673834   0.0000000), wk =   0.1111111
        k(   15) = (   0.0583558  -0.0336917   0.0000000), wk =   0.1111111
        k(   16) = (   0.0583558   0.0000000   0.0000000), wk =   0.1111111
        k(   17) = (  -0.0875336  -0.0505376   0.0000000), wk =   0.0555556
        k(   18) = (  -0.0875336  -0.0168459   0.0000000), wk =   0.1111111
        k(   19) = (  -0.0875336   0.0168459   0.0000000), wk =   0.1111111
        k(   20) = (  -0.0875336  -0.1516127   0.0000000), wk =   0.0555556

     Largest allocated arrays     est. size (Mb)     dimensions
     Largest temporary arrays     est. size (Mb)     dimensions

     Check: negative/imaginary core charge=   -0.000006    0.000000

     Initial potential from superposition of free atoms
     Check: negative starting charge=   -0.013759

     starting charge  137.99592, renormalised to  147.00000

[...]

     *
     * You are using vdW-DF for exchange-correlation in this calculation.
     * Please cite the following three references that made this development
     * possible:
     *
     *   M. Dion, H. Rydberg, E. Schroder, D. C. Langreth, and
     *   B. I. Lundqvist, Phys. Rev. Lett. 92, 246401 (2004).
     *
     *   T. Thonhauser, V. R. Cooper, S. Li, A. Puzder, P. Hyldgaard, and
     *   D. C. Langreth, Phys. Rev. B 76, 125112 (2007).
     *
     *   G. Roman-Perez and J. M. Soler, Phys. Rev. Lett. 103, 096102 (2009).
     *
     *
     * If you are using vdW-DF2, please also cite:
     *
     *   K. Lee, E. D. Murray, L. Kong, B. I. Lundqvist, and
     *   D. C. Langreth, Phys. Rev. B 82, 081101(R) (2010).
     *
     *
     * If you are calculating the stress with vdW-DF, please also cite:
     *
     *   R. Sabatini, E. Kucukbenli, B. Kolb, T. Thonhauser, and
     *   S. de Gironcoli, J. Phys.: Condens. Matter 24, 424209 (2012).
     *

     Carrying out vdW-DF run using the following parameters:

     Nqs =      20    Nr_points =    1024   r_max =   100.000
     q_mesh =
               0.00001000     0.04494208     0.09755937     0.15916263
               0.23128650     0.31572767     0.41458969     0.53033537
               0.66584808     0.82450364     1.01025438     1.22772762
               1.48234092     1.78043706     2.12944203     2.53805004
               3.01644009     3.57652955     4.23227104     5.00000000

     Gradients computed in reciprocal space

[...]

     Starting wfc are  120 randomized atomic wfcs

     Self-consistent Calculation

[...]

     total energy              =   -1516.06535391 Ry
     Harris-Foulkes estimate   =   -1516.06535329 Ry
     estimated scf accuracy    <       0.00000202 Ry

     iteration # 25     ecut=    36.75 Ry     beta=0.10
     Davidson diagonalization with overlap
     ethr =  1.37E-09,  avg # of iterations =  2.0

[...]

     negative rho (up, down):  8.730E-03 0.000E+00

     Adding external electric field

     Computed dipole along edir(3) :
        Dipole                0.0331 Ry au,          0.0841 Debye
        Dipole field          0.0001 Ry au

        Potential amp.       -0.0080 Ry
        Total length         45.4428 bohr

     End of self-consistent calculation

[...]

          k = 0.0584 0.0000 0.0000 ( 17715 PWs)   bands (ev):

[...]

          k =-0.0875-0.1516 0.0000 ( 17668 PWs)   bands (ev):

   -63.4565 -63.4010 -63.3194 -56.2364 -56.2174 -56.2057 -56.1920 -56.1815
   -56.1671 -55.9823 -55.9598 -55.9365 -37.2702 -37.2567 -37.2532 -37.2474
   -37.2009 -37.1970 -37.1575 -37.1440 -37.1401 -32.6557 -32.6225 -32.6062
   -32.5647 -32.5319 -32.5232 -32.4812 -32.4811 -32.4727 -32.4442 -32.4367
   -32.4181 -32.4147 -32.3970 -32.3867 -32.3786 -32.3458 -32.2264 -32.2079
   -32.1910 -32.1685 -32.1426 -32.1295 -32.1232 -32.1177 -32.1024 -31.9847
    -3.2904  -3.2478  -2.0767  -2.0674  -1.3545  -1.2780  -1.0828  -1.0679
    -1.0277  -1.0115  -0.4072  -0.4005  -0.3505  -0.3441  -0.1988  -0.1674
     0.0703   0.1262   0.1792   0.1866   0.2008   0.2346   0.4143   0.4603
     0.4998   0.5461   0.6504   0.6948   0.7003   0.7700   0.9395   0.9878
     1.0580   1.2707   1.3318   1.4180   1.4655   1.5544   1.7584   1.8015
     1.9935   2.1275   2.2654   2.3549   2.3819   2.4113   2.4677   2.5546
     2.6697   2.6888   2.7646   2.8288   2.8621   2.9185   2.9795

     the Fermi energy is     0.7471 ev

!    total energy              =   -1516.06535534 Ry
     Harris-Foulkes estimate   =   -1516.06535392 Ry
     estimated scf accuracy    <       0.00000072 Ry

     The total energy is the sum of the following terms:

     one-electron contribution =  -11770.00575258 Ry
     hartree contribution      =    5870.23968988 Ry
     xc contribution           =    -229.65702509 Ry
     ewald contribution        =    4613.49881624 Ry
     electric field correction =       0.00000292 Ry
     smearing contrib. (-TS)   =      -0.14108672 Ry

     convergence has been achieved in  25 iterations

 BEEF-vdW xc energy contributions
           1 :   -197.597541477469
           2 :    176.825655748749
           3 :   -142.667822997056
           4 :    105.973893989428
           5 :   -75.8385466591724
           6 :    56.0446521294325
           7 :   -44.8627558205326
           8 :    37.6504875203134
           9 :   -30.2421530117298
          10 :    21.0727559629404
          11 :   -11.1915765458352
          12 :    2.71047397609570
          13 :    2.97504235646014
          14 :   -6.04173093374382
          15 :    7.82162725140120
          16 :   -9.65166674966784
          17 :    11.9087366451605
          18 :   -13.8912661869058
          19 :    14.5155247174980
          20 :   -13.2236034229746
          21 :    10.4109890544999
          22 :   -7.11830288736670
          23 :    4.29126371296857
          24 :   -2.19597845726372
          25 :   0.388742379194071
          26 :    1.80056172121559
          27 :   -4.67906503196642
          28 :    7.92772564500370
          29 :   -10.8226824593057
          30 :    12.7345244851773
          31 :   -20.7949081006169
          32 :   -14.8632262862376

     Forces acting on atoms (Ry/au):

     negative rho (up, down):  8.730E-03 0.000E+00
     atom    1 type  1   force =    -0.00000003    0.00705905    0.00614815
     atom    2 type  1   force =     0.00611319   -0.00352938    0.00614781
     atom    3 type  1   force =    -0.00611315   -0.00352925    0.00614859
     atom    4 type  2   force =    -0.00000041   -0.00000019    0.02551617
     atom    5 type  1   force =     0.00000012   -0.00847865   -0.01335662
     atom    6 type  1   force =    -0.00734392    0.00423954   -0.01335590
     atom    7 type  1   force =     0.00734425    0.00423903   -0.01335319
     atom    8 type  2   force =     0.00000049   -0.00000006   -0.00383778
     atom    9 type  1   force =    -0.00000135    0.00044512   -0.00011901
     atom   10 type  1   force =     0.00038601   -0.00022299   -0.00011845
     atom   11 type  1   force =    -0.00038547   -0.00022209   -0.00011946
     atom   12 type  2   force =     0.00000028   -0.00000012    0.00029970

     Total force =     0.040990     Total SCF correction =     0.002480

     entering subroutine stress ...

     negative rho (up, down):  8.730E-03 0.000E+00
          total   stress  (Ry/bohr**3)                   (kbar)     P=   -8.02
  -0.00006063  -0.00000000  -0.00000000         -8.92     -0.00     -0.00
  -0.00000000  -0.00006063  -0.00000000         -0.00     -8.92     -0.00
  -0.00000000  -0.00000000  -0.00004235         -0.00     -0.00     -6.23

 !ASE

     Writing output data file calc.save

     General routines

     Parallel routines

   This run was terminated on:   3:26:38  28Dec2018

   JOB DONE.
Job  /afs/slac/g/suncat/bin/suncat-tsmpirun -x LD_LIBRARY_PATH -wdir /scratch/qe111153_YAlp0 pw.x -in pw.inp

TID   HOST_NAME   COMMAND_LINE            STATUS            TERMINATION_TIME
00000 suncat0048 pw.x -in pw.inp   Done                     12/28/2018 03:26:38
00001 suncat0048 pw.x -in pw.inp   Done                     12/28/2018 03:26:38
00002 suncat0048 pw.x -in pw.inp   Done                     12/28/2018 03:26:38
00003 suncat0048 pw.x -in pw.inp   Done                     12/28/2018 03:26:38
00004 suncat0048 pw.x -in pw.inp   Done                     12/28/2018 03:26:38
00005 suncat0048 pw.x -in pw.inp   Done                     12/28/2018 03:26:38
00006 suncat0048 pw.x -in pw.inp   Done                     12/28/2018 03:26:38
00007 suncat0048 pw.x -in pw.inp   Done                     12/28/2018 03:26:38
00008 suncat0047 pw.x -in pw.inp   Done                     12/28/2018 03:26:38
00009 suncat0047 pw.x -in pw.inp   Done                     12/28/2018 03:26:38
00010 suncat0047 pw.x -in pw.inp   Done                     12/28/2018 03:26:38
00011 suncat0047 pw.x -in pw.inp   Done                     12/28/2018 03:26:38
00012 suncat0047 pw.x -in pw.inp   Done                     12/28/2018 03:26:38
00013 suncat0047 pw.x -in pw.inp   Done                     12/28/2018 03:26:38
00014 suncat0047 pw.x -in pw.inp   Done                     12/28/2018 03:26:38
00015 suncat0047 pw.x -in pw.inp   Done                     12/28/2018 03:26:38
00016 suncat0024 pw.x -in pw.inp   Done                     12/28/2018 03:26:38
00017 suncat0024 pw.x -in pw.inp   Done                     12/28/2018 03:26:38
00018 suncat0024 pw.x -in pw.inp   Done                     12/28/2018 03:26:38
00019 suncat0024 pw.x -in pw.inp   Done                     12/28/2018 03:26:38
00020 suncat0024 pw.x -in pw.inp   Done                     12/28/2018 03:26:38
00021 suncat0024 pw.x -in pw.inp   Done                     12/28/2018 03:26:38
00022 suncat0024 pw.x -in pw.inp   Done                     12/28/2018 03:26:38
00023 suncat0024 pw.x -in pw.inp   Done                     12/28/2018 03:26:38
00024 suncat0023 pw.x -in pw.inp   Done                     12/28/2018 03:26:38
00025 suncat0023 pw.x -in pw.inp   Done                     12/28/2018 03:26:38
00026 suncat0023 pw.x -in pw.inp   Done                     12/28/2018 03:26:38
00027 suncat0023 pw.x -in pw.inp   Done                     12/28/2018 03:26:38
00028 suncat0023 pw.x -in pw.inp   Done                     12/28/2018 03:26:38
00029 suncat0023 pw.x -in pw.inp   Done                     12/28/2018 03:26:38
00030 suncat0023 pw.x -in pw.inp   Done                     12/28/2018 03:26:38
00031 suncat0023 pw.x -in pw.inp   Done                     12/28/2018 03:26:38
00032 suncat0022 pw.x -in pw.inp   Done                     12/28/2018 03:26:38
00033 suncat0022 pw.x -in pw.inp   Done                     12/28/2018 03:26:38
00034 suncat0022 pw.x -in pw.inp   Done                     12/28/2018 03:26:38
00035 suncat0022 pw.x -in pw.inp   Done                     12/28/2018 03:26:38
00036 suncat0022 pw.x -in pw.inp   Done                     12/28/2018 03:26:38
00037 suncat0022 pw.x -in pw.inp   Done                     12/28/2018 03:26:38
00038 suncat0022 pw.x -in pw.inp   Done                     12/28/2018 03:26:38
00039 suncat0022 pw.x -in pw.inp   Done                     12/28/2018 03:26:38
00040 suncat0018 pw.x -in pw.inp   Done                     12/28/2018 03:26:38
00041 suncat0018 pw.x -in pw.inp   Done                     12/28/2018 03:26:38
00042 suncat0018 pw.x -in pw.inp   Done                     12/28/2018 03:26:38
00043 suncat0018 pw.x -in pw.inp   Done                     12/28/2018 03:26:38
00044 suncat0018 pw.x -in pw.inp   Done                     12/28/2018 03:26:38
00045 suncat0018 pw.x -in pw.inp   Done                     12/28/2018 03:26:38
00046 suncat0018 pw.x -in pw.inp   Done                     12/28/2018 03:26:38
00047 suncat0018 pw.x -in pw.inp   Done                     12/28/2018 03:26:38
00048 suncat0017 pw.x -in pw.inp   Done                     12/28/2018 03:26:38
00049 suncat0017 pw.x -in pw.inp   Done                     12/28/2018 03:26:38
00050 suncat0017 pw.x -in pw.inp   Done                     12/28/2018 03:26:38
00051 suncat0017 pw.x -in pw.inp   Done                     12/28/2018 03:26:38
00052 suncat0017 pw.x -in pw.inp   Done                     12/28/2018 03:26:38
00053 suncat0017 pw.x -in pw.inp   Done                     12/28/2018 03:26:38
00054 suncat0017 pw.x -in pw.inp   Done                     12/28/2018 03:26:38
00055 suncat0017 pw.x -in pw.inp   Done                     12/28/2018 03:26:38
00056 suncat0016 pw.x -in pw.inp   Done                     12/28/2018 03:26:38
00057 suncat0016 pw.x -in pw.inp   Done                     12/28/2018 03:26:38
00058 suncat0016 pw.x -in pw.inp   Done                     12/28/2018 03:26:38
00059 suncat0016 pw.x -in pw.inp   Done                     12/28/2018 03:26:38
00060 suncat0016 pw.x -in pw.inp   Done                     12/28/2018 03:26:38
00061 suncat0016 pw.x -in pw.inp   Done                     12/28/2018 03:26:38
00062 suncat0016 pw.x -in pw.inp   Done                     12/28/2018 03:26:38
00063 suncat0016 pw.x -in pw.inp   Done                     12/28/2018 03:26:38