     Program PWSCF v.5.1rc2 (svn rev. 11289) starts on  2Jan2019 at 12:16:23

     Current dimensions of program PWSCF are:
     Max number of different atomic species (ntypx) = 10
     Max number of k-points (npk) =  40000
     Max angular momentum in pseudopotentials (lmaxx) =  3
     Presently stress not available with electric field

     IMPORTANT: XC functional enforced from input :
     Exchange-correlation      = BEEF-VDW ( 1  4 27 13 2)
     Any further DFT definition will be discarded
     Please, verify this is what you really want

     Subspace diagonalization in iterative solution of the eigenvalue problem:
     a serial algorithm will be used

     Generating pointlists ...
     new r_m :   0.4125 (alat units)  0.7795 (a.u.) for type    1
     new r_m :   0.4125 (alat units)  0.7795 (a.u.) for type    2

     bravais-lattice index     =            0
     lattice parameter (alat)  =       1.8897  a.u.
     unit-cell volume          =    6931.8282 (a.u.)^3
     number of atoms/cell      =           12
     number of atomic types    =            2
     number of electrons       =       144.00
     number of Kohn-Sham states=           92
     kinetic-energy cutoff     =      36.7493  Ry
     charge density cutoff     =     367.4932  Ry
     convergence threshold     =      1.0E-05
     mixing beta               =       0.1000
     number of iterations used =           10  plain     mixing
     Exchange-correlation      = BEEF-VDW ( 1  4 27 13 2)
     nstep                     =           50

     celldm(1)=   1.889726  celldm(2)=   0.000000  celldm(3)=   0.000000
     celldm(4)=   0.000000  celldm(5)=   0.000000  celldm(6)=   0.000000

     crystal axes: (cart. coord. in units of alat)
               a(1) = (   6.811836   0.000000   0.000000 )
               a(2) = (  -3.405918   5.899223   0.000000 )
               a(3) = (   0.000000   0.000000  25.561841 )

     reciprocal axes: (cart. coord. in units 2 pi/alat)
               b(1) = (  0.146803  0.084757  0.000000 )
               b(2) = (  0.000000  0.169514  0.000000 )
               b(3) = (  0.000000  0.000000  0.039121 )

     PseudoPot. # 1 for Y  read from file:
     /afs/slac.stanford.edu/u/if/mamunm/psp/gbrv1.5pbe/Y.UPF
     MD5 check sum: d034151ed7554c50b6e82763ed42c788
     Pseudo is Ultrasoft + core correction, Zval = 11.0
     Generated by new atomic code, or converted to UPF format
     Using radial grid of  885 points,  6 beta functions with:
                l(1) =   0
                l(2) =   0
                l(3) =   1
                l(4) =   1
                l(5) =   2
                l(6) =   2
     Q(r) pseudized with  8 coefficients,  rinner =    1.200   1.200   1.200
                                                       1.200   1.200

     PseudoPot. # 2 for Mn read from file:
     /afs/slac.stanford.edu/u/if/mamunm/psp/gbrv1.5pbe/Mn.UPF
     MD5 check sum: 82ef2b46521d7a7d9e736dc3972e4928
     Pseudo is Ultrasoft + core correction, Zval = 15.0
     Generated by new atomic code, or converted to UPF format
     Using radial grid of  859 points,  6 beta functions with:
                l(1) =   0
                l(2) =   0
                l(3) =   1
                l(4) =   1
                l(5) =   2
                l(6) =   2
     Q(r) pseudized with  8 coefficients,  rinner =    0.950   0.950   0.950
                                                       0.950   0.950

     vdW kernel table read from file vdW_kernel_table
     MD5 check sum: 095c7af220d748ca6e76c0b4c6cfb241

     atomic species   valence    mass     pseudopotential
        Y1            11.00    88.90584     Y ( 1.00)
        Mn1           15.00    54.93804     Mn( 1.00)

     Starting magnetic structure
     atomic species   magnetization
        Y1           0.182
        Mn1          0.133

     No symmetry found

   Cartesian axes

     site n.     atom                  positions (alat units)
         1           Y1  tau(   1) = (   0.0000000   0.0000000  10.0000000  )
         2           Y1  tau(   2) = (  -1.7029591   2.9496117  10.0000000  )
         3           Y1  tau(   3) = (   1.7029591   2.9496117  10.0000000  )
         4           Mn1 tau(   4) = (   3.4059182   0.0000000  10.0000000  )
         5           Y1  tau(   5) = (   3.4059182   1.9664078  12.7809206  )
         6           Y1  tau(   6) = (   1.7029591   4.9160195  12.7809206  )
         7           Y1  tau(   7) = (  -1.7029591   4.9160195  12.7809206  )
         8           Mn1 tau(   8) = (   0.0000000   1.9664078  12.7809206  )
         9           Y1  tau(   9) = (  -0.0000000   3.9328156  15.5618412  )
        10           Y1  tau(  10) = (   1.7029591   0.9832039  15.5618412  )
        11           Y1  tau(  11) = (   5.1088774   0.9832039  15.5618412  )
        12           Mn1 tau(  12) = (   3.4059182   3.9328156  15.5618412  )

     number of k points=    40  Fermi-Dirac smearing, width (Ry)=  0.0110
                       cart. coord. in units 2pi/alat
        k(    1) = (   0.0000000   0.0000000   0.0000000), wk =   0.0277778
        k(    2) = (   0.0000000   0.0282523   0.0000000), wk =   0.0555556
        k(    3) = (   0.0000000   0.0565046   0.0000000), wk =   0.0555556
        k(    4) = (   0.0000000  -0.0847569   0.0000000), wk =   0.0277778
        k(    5) = (   0.0244672   0.0141262   0.0000000), wk =   0.0555556
        k(    6) = (   0.0244672   0.0423785   0.0000000), wk =   0.0555556
        k(    7) = (   0.0244672   0.0706308   0.0000000), wk =   0.0555556
        k(    8) = (   0.0244672  -0.0706308   0.0000000), wk =   0.0555556
        k(    9) = (   0.0244672  -0.0423785   0.0000000), wk =   0.0555556
        k(   10) = (   0.0244672  -0.0141262   0.0000000), wk =   0.0555556
        k(   11) = (   0.0489344   0.0282523   0.0000000), wk =   0.0555556
        k(   12) = (   0.0489344   0.0565046   0.0000000), wk =   0.0555556
        k(   13) = (   0.0489344   0.0847569   0.0000000), wk =   0.0555556
        k(   14) = (   0.0489344  -0.0565046   0.0000000), wk =   0.0555556
        k(   15) = (   0.0489344  -0.0282523   0.0000000), wk =   0.0555556
        k(   16) = (   0.0489344  -0.0000000   0.0000000), wk =   0.0555556
        k(   17) = (  -0.0734016  -0.0423785   0.0000000), wk =   0.0277778
        k(   18) = (  -0.0734016  -0.0141262   0.0000000), wk =   0.0555556
        k(   19) = (  -0.0734016   0.0141262   0.0000000), wk =   0.0555556
        k(   20) = (  -0.0734016  -0.1271354   0.0000000), wk =   0.0277778
        k(   21) = (   0.0000000   0.0000000   0.0000000), wk =   0.0277778
        k(   22) = (   0.0000000   0.0282523   0.0000000), wk =   0.0555556
        k(   23) = (   0.0000000   0.0565046   0.0000000), wk =   0.0555556
        k(   24) = (   0.0000000  -0.0847569   0.0000000), wk =   0.0277778
        k(   25) = (   0.0244672   0.0141262   0.0000000), wk =   0.0555556
        k(   26) = (   0.0244672   0.0423785   0.0000000), wk =   0.0555556
        k(   27) = (   0.0244672   0.0706308   0.0000000), wk =   0.0555556
        k(   28) = (   0.0244672  -0.0706308   0.0000000), wk =   0.0555556
        k(   29) = (   0.0244672  -0.0423785   0.0000000), wk =   0.0555556
        k(   30) = (   0.0244672  -0.0141262   0.0000000), wk =   0.0555556
        k(   31) = (   0.0489344   0.0282523   0.0000000), wk =   0.0555556
        k(   32) = (   0.0489344   0.0565046   0.0000000), wk =   0.0555556
        k(   33) = (   0.0489344   0.0847569   0.0000000), wk =   0.0555556
        k(   34) = (   0.0489344  -0.0565046   0.0000000), wk =   0.0555556
        k(   35) = (   0.0489344  -0.0282523   0.0000000), wk =   0.0555556
        k(   36) = (   0.0489344  -0.0000000   0.0000000), wk =   0.0555556
        k(   37) = (  -0.0734016  -0.0423785   0.0000000), wk =   0.0277778
        k(   38) = (  -0.0734016  -0.0141262   0.0000000), wk =   0.0555556
        k(   39) = (  -0.0734016   0.0141262   0.0000000), wk =   0.0555556
        k(   40) = (  -0.0734016  -0.1271354   0.0000000), wk =   0.0277778

     Largest allocated arrays     est. size (Mb)     dimensions
     Largest temporary arrays     est. size (Mb)     dimensions

     Check: negative/imaginary core charge=   -0.000003    0.000000

     Initial potential from superposition of free atoms
     Check: negative starting charge=(component1):   -0.000968
     Check: negative starting charge=(component2):   -0.000734

     starting charge  142.45952, renormalised to  144.00000

     negative rho (up, down):  9.779E-04 7.420E-04

     *
     * You are using vdW-DF for exchange-correlation in this calculation.
     * Please cite the following three references that made this development
     * possible:
     *
     *   M. Dion, H. Rydberg, E. Schroder, D. C. Langreth, and
     *   B. I. Lundqvist, Phys. Rev. Lett. 92, 246401 (2004).
     *
     *   T. Thonhauser, V. R. Cooper, S. Li, A. Puzder, P. Hyldgaard, and
     *   D. C. Langreth, Phys. Rev. B 76, 125112 (2007).
     *
     *   G. Roman-Perez and J. M. Soler, Phys. Rev. Lett. 103, 096102 (2009).
     *
     *
     * If you are using vdW-DF2, please also cite:
     *
     *   K. Lee, E. D. Murray, L. Kong, B. I. Lundqvist, and
     *   D. C. Langreth, Phys. Rev. B 82, 081101(R) (2010).
     *
     *
     * If you are calculating the stress with vdW-DF, please also cite:
     *
     *   R. Sabatini, E. Kucukbenli, B. Kolb, T. Thonhauser, and
     *   S. de Gironcoli, J. Phys.: Condens. Matter 24, 424209 (2012).
     *

     Carrying out vdW-DF run using the following parameters:

     Nqs =      20    Nr_points =    1024   r_max =   100.000
     q_mesh =
               0.00001000     0.04494208     0.09755937     0.15916263
               0.23128650     0.31572767     0.41458969     0.53033537
               0.66584808     0.82450364     1.01025438     1.22772762
               1.48234092     1.78043706     2.12944203     2.53805004
               3.01644009     3.57652955     4.23227104     5.00000000

     Gradients computed in reciprocal space

     Adding external electric field

     Computed dipole along edir(3) :
        Dipole                0.0000 Ry au,          0.0000 Debye
        Dipole field          0.0000 Ry au

        Potential amp.       -0.0000 Ry
        Total length         47.0973 bohr

[...]

     Starting wfc are  156 randomized atomic wfcs

     Self-consistent Calculation

     iteration #  1     ecut=    36.75 Ry     beta=0.10
     Davidson diagonalization with overlap
     ethr =  1.00E-02,  avg # of iterations =  2.0

[...]

     Magnetic moment per site:
     atom:    1    charge:    0.8713    magn:    0.1441    constr:    0.0000
     atom:    2    charge:    0.8713    magn:    0.1441    constr:    0.0000
     atom:    3    charge:    0.8713    magn:    0.1441    constr:    0.0000
     atom:    4    charge:    6.0824    magn:    0.8028    constr:    0.0000
     atom:    5    charge:    0.8730    magn:    0.1445    constr:    0.0000
     atom:    6    charge:    0.8730    magn:    0.1445    constr:    0.0000
     atom:    7    charge:    0.8730    magn:    0.1445    constr:    0.0000
     atom:    8    charge:    6.0917    magn:    0.7795    constr:    0.0000
[...]
                       cart. coord. in units 2pi/alat
        k(    1) = (   0.0000000   0.0000000   0.0000000), wk =   0.0277778
        k(    2) = (   0.0000000   0.0282523   0.0000000), wk =   0.0555556
        k(    3) = (   0.0000000   0.0565046   0.0000000), wk =   0.0555556
        k(    4) = (   0.0000000  -0.0847569   0.0000000), wk =   0.0277778
        k(    5) = (   0.0244672   0.0141262   0.0000000), wk =   0.0555556
        k(    6) = (   0.0244672   0.0423785   0.0000000), wk =   0.0555556
        k(    7) = (   0.0244672   0.0706308   0.0000000), wk =   0.0555556
        k(    8) = (   0.0244672  -0.0706308   0.0000000), wk =   0.0555556
        k(    9) = (   0.0244672  -0.0423785   0.0000000), wk =   0.0555556
        k(   10) = (   0.0244672  -0.0141262   0.0000000), wk =   0.0555556
        k(   11) = (   0.0489344   0.0282523   0.0000000), wk =   0.0555556
        k(   12) = (   0.0489344   0.0565046   0.0000000), wk =   0.0555556
        k(   13) = (   0.0489344   0.0847569   0.0000000), wk =   0.0555556
        k(   14) = (   0.0489344  -0.0565046   0.0000000), wk =   0.0555556
        k(   15) = (   0.0489344  -0.0282523   0.0000000), wk =   0.0555556
        k(   16) = (   0.0489344  -0.0000000   0.0000000), wk =   0.0555556
        k(   17) = (  -0.0734016  -0.0423785   0.0000000), wk =   0.0277778
        k(   18) = (  -0.0734016  -0.0141262   0.0000000), wk =   0.0555556
        k(   19) = (  -0.0734016   0.0141262   0.0000000), wk =   0.0555556
        k(   20) = (  -0.0734016  -0.1271354   0.0000000), wk =   0.0277778
        k(   21) = (   0.0000000   0.0000000   0.0000000), wk =   0.0277778
        k(   22) = (   0.0000000   0.0282523   0.0000000), wk =   0.0555556
        k(   23) = (   0.0000000   0.0565046   0.0000000), wk =   0.0555556
        k(   24) = (   0.0000000  -0.0847569   0.0000000), wk =   0.0277778
        k(   25) = (   0.0244672   0.0141262   0.0000000), wk =   0.0555556
        k(   26) = (   0.0244672   0.0423785   0.0000000), wk =   0.0555556
        k(   27) = (   0.0244672   0.0706308   0.0000000), wk =   0.0555556
        k(   28) = (   0.0244672  -0.0706308   0.0000000), wk =   0.0555556
        k(   29) = (   0.0244672  -0.0423785   0.0000000), wk =   0.0555556
        k(   30) = (   0.0244672  -0.0141262   0.0000000), wk =   0.0555556
        k(   31) = (   0.0489344   0.0282523   0.0000000), wk =   0.0555556
        k(   32) = (   0.0489344   0.0565046   0.0000000), wk =   0.0555556
        k(   33) = (   0.0489344   0.0847569   0.0000000), wk =   0.0555556
        k(   34) = (   0.0489344  -0.0565046   0.0000000), wk =   0.0555556
        k(   35) = (   0.0489344  -0.0282523   0.0000000), wk =   0.0555556
        k(   36) = (   0.0489344  -0.0000000   0.0000000), wk =   0.0555556
        k(   37) = (  -0.0734016  -0.0423785   0.0000000), wk =   0.0277778
        k(   38) = (  -0.0734016  -0.0141262   0.0000000), wk =   0.0555556
        k(   39) = (  -0.0734016   0.0141262   0.0000000), wk =   0.0555556
        k(   40) = (  -0.0734016  -0.1271354   0.0000000), wk =   0.0277778

     Largest allocated arrays     est. size (Mb)     dimensions
     Largest temporary arrays     est. size (Mb)     dimensions

     Check: negative/imaginary core charge=   -0.000003    0.000000

     Initial potential from superposition of free atoms
     Check: negative starting charge=(component1):   -0.000961
     Check: negative starting charge=(component2):   -0.000729

     starting charge  142.45952, renormalised to  144.00000

[...]

     *
     * You are using vdW-DF for exchange-correlation in this calculation.
     * Please cite the following three references that made this development
     * possible:
     *
     *   M. Dion, H. Rydberg, E. Schroder, D. C. Langreth, and
     *   B. I. Lundqvist, Phys. Rev. Lett. 92, 246401 (2004).
     *
     *   T. Thonhauser, V. R. Cooper, S. Li, A. Puzder, P. Hyldgaard, and
     *   D. C. Langreth, Phys. Rev. B 76, 125112 (2007).
     *
     *   G. Roman-Perez and J. M. Soler, Phys. Rev. Lett. 103, 096102 (2009).
     *
     *
     * If you are using vdW-DF2, please also cite:
     *
     *   K. Lee, E. D. Murray, L. Kong, B. I. Lundqvist, and
     *   D. C. Langreth, Phys. Rev. B 82, 081101(R) (2010).
     *
     *
     * If you are calculating the stress with vdW-DF, please also cite:
     *
     *   R. Sabatini, E. Kucukbenli, B. Kolb, T. Thonhauser, and
     *   S. de Gironcoli, J. Phys.: Condens. Matter 24, 424209 (2012).
     *

     Carrying out vdW-DF run using the following parameters:

     Nqs =      20    Nr_points =    1024   r_max =   100.000
     q_mesh =
               0.00001000     0.04494208     0.09755937     0.15916263
               0.23128650     0.31572767     0.41458969     0.53033537
               0.66584808     0.82450364     1.01025438     1.22772762
               1.48234092     1.78043706     2.12944203     2.53805004
               3.01644009     3.57652955     4.23227104     5.00000000

     Gradients computed in reciprocal space

[...]

     Starting wfc are  156 randomized atomic wfcs

     Self-consistent Calculation

[...]

     total energy              =   -1479.41671777 Ry
     Harris-Foulkes estimate   =   -1479.41665010 Ry
     estimated scf accuracy    <       0.00001391 Ry

[...]

     iteration # 30     ecut=    36.75 Ry     beta=0.10
     Davidson diagonalization with overlap
     ethr =  9.66E-09,  avg # of iterations =  4.7

[...]

     negative rho (up, down):  9.293E-04 8.180E-04

[...]

     Adding external electric field

     Computed dipole along edir(3) :
        Dipole                0.0421 Ry au,          0.1070 Debye
        Dipole field          0.0001 Ry au

        Potential amp.       -0.0072 Ry
        Total length         47.0973 bohr

     Magnetic moment per site:
     atom:    1    charge:    0.8641    magn:   -0.0032    constr:    0.0000
     atom:    2    charge:    0.8641    magn:   -0.0032    constr:    0.0000
     atom:    3    charge:    0.8641    magn:   -0.0032    constr:    0.0000
     atom:    4    charge:    6.0089    magn:    1.5807    constr:    0.0000
     atom:    5    charge:    0.8636    magn:   -0.0091    constr:    0.0000
     atom:    6    charge:    0.8636    magn:   -0.0091    constr:    0.0000
     atom:    7    charge:    0.8636    magn:   -0.0091    constr:    0.0000
     atom:    8    charge:    5.9981    magn:    1.5250    constr:    0.0000
     atom:    9    charge:    0.8641    magn:   -0.0031    constr:    0.0000
     atom:   10    charge:    0.8641    magn:   -0.0031    constr:    0.0000
     atom:   11    charge:    0.8641    magn:   -0.0031    constr:    0.0000
     atom:   12    charge:    6.0075    magn:    1.5106    constr:    0.0000

     End of self-consistent calculation

 ------ SPIN UP ------------

[...]

 ------ SPIN DOWN ----------

[...]

          k = 0.0489-0.0000 0.0000 ( 26063 PWs)   bands (ev):

[...]

          k =-0.0734-0.1271 0.0000 ( 26014 PWs)   bands (ev):

   -76.3832 -76.3171 -76.2405 -45.1678 -45.1508 -45.1507 -45.1197 -45.0789
   -45.0788 -45.0033 -45.0033 -44.9942 -42.2639 -42.2587 -42.2445 -42.2359
   -42.2248 -42.2172 -41.7362 -41.7166 -41.6967 -22.4195 -22.3895 -22.3597
   -22.3236 -22.3201 -22.2836 -22.2729 -22.2664 -22.2236 -22.2064 -22.2037
   -22.1849 -22.1590 -22.1540 -22.1430 -22.1338 -21.9341 -21.9328 -21.9234
   -21.7348 -21.7013 -21.6635 -21.6609 -21.6598 -21.6587 -21.6340 -21.4813
    -2.4561  -2.4257  -1.4375  -1.3982  -0.8135  -0.6287  -0.4794  -0.1940
    -0.1231   0.0656   0.2756   0.5410   0.6364   0.6642   0.7987   0.8155
     0.8401   0.9068   0.9384   1.0582   1.1066   1.1271   1.2285   1.2672
     1.3188   1.3435   1.3576   1.5037   1.5323   1.5633   1.7109   1.7155
     1.8327   1.9648   2.0862   2.1902   2.2801   2.2839   2.5125   2.5132
     2.5918   2.8150   2.8213   2.8966

     the Fermi energy is     1.0114 ev

!    total energy              =   -1479.41681837 Ry
     Harris-Foulkes estimate   =   -1479.41673902 Ry
     estimated scf accuracy    <       0.00000804 Ry

     The total energy is the sum of the following terms:

     one-electron contribution =   -7647.98835288 Ry
     hartree contribution      =    3816.48861838 Ry
     xc contribution           =    -337.15199831 Ry
     ewald contribution        =    2689.35247803 Ry
     electric field correction =       0.00000321 Ry
     smearing contrib. (-TS)   =      -0.11756679 Ry

     total magnetization       =    10.27 Bohr mag/cell
     absolute magnetization    =    15.89 Bohr mag/cell

     convergence has been achieved in  30 iterations

 BEEF-vdW xc energy contributions
           1 :   -294.238098447579
           2 :    264.467161799633
           3 :   -213.782940952702
           4 :    155.379200822045
           5 :   -101.006447655597
           6 :    57.4055971768859
           7 :   -26.2085775783763
           8 :    6.04643182851908
           9 :    5.21837908024651
          10 :   -9.38138650542601
          11 :    7.88884141191409
          12 :   -2.29778147517777
          13 :   -5.38826317511695
          14 :    12.7879738490107
          15 :   -17.6252710807341
          16 :    18.4041471711408
          17 :   -14.9201802132814
          18 :    8.29775159847594
          19 :  -0.502827433456275
          20 :   -6.42515674404615
          21 :    11.0397583880905
          22 :   -12.7868441748967
          23 :    11.9134568329107
          24 :   -9.16344157489294
          25 :    5.46360625547999
          26 :   -1.70877017684381
          27 :   -1.36578195348108
          28 :    3.27061736129707
          29 :   -3.82182786226878
          30 :    3.14542064703346
          31 :   -27.6130275605842
          32 :   -18.9841209650217

     Forces acting on atoms (Ry/au):

     negative rho (up, down):  9.293E-04 8.180E-04
     atom    1 type  1   force =    -0.00000484    0.01059838   -0.00190561
     atom    2 type  1   force =     0.00916354   -0.00529288   -0.00189845
     atom    3 type  1   force =    -0.00916188   -0.00529312   -0.00191195
     atom    4 type  2   force =    -0.00000181    0.00000015    0.02102372
     atom    5 type  1   force =     0.00000623    0.00295003   -0.00400183
     atom    6 type  1   force =     0.00256111   -0.00147316   -0.00399618
     atom    7 type  1   force =    -0.00256303   -0.00147332   -0.00399304
     atom    8 type  2   force =     0.00000715    0.00000283    0.00031098
     atom    9 type  1   force =     0.00000018   -0.00012732   -0.00148659
     atom   10 type  1   force =    -0.00013138    0.00005953   -0.00149370
     atom   11 type  1   force =     0.00012547    0.00005459   -0.00149833
     atom   12 type  2   force =    -0.00000073   -0.00000571    0.00085097

     Total force =     0.029510     Total SCF correction =     0.003460
     SCF correction compared to forces is large: reduce conv_thr to get better values

     entering subroutine stress ...

     negative rho (up, down):  9.293E-04 8.180E-04
          total   stress  (Ry/bohr**3)                   (kbar)     P=   -2.76
  -0.00002051   0.00000000  -0.00000000         -3.02      0.00     -0.00
   0.00000000  -0.00002051  -0.00000000          0.00     -3.02     -0.00
  -0.00000000  -0.00000000  -0.00001516         -0.00     -0.00     -2.23

 !ASE

     Writing output data file calc.save

     General routines

     Parallel routines

   This run was terminated on:  20:59: 4   2Jan2019

   JOB DONE.
Job  /afs/slac/g/suncat/bin/suncat-tsmpirun -x LD_LIBRARY_PATH -wdir /scratch/qe649425_GW0NM pw.x -in pw.inp

TID   HOST_NAME   COMMAND_LINE            STATUS            TERMINATION_TIME
00000 suncat0178 pw.x -in pw.inp   Done                     01/02/2019 20:59:04
00001 suncat0178 pw.x -in pw.inp   Done                     01/02/2019 20:59:04
00002 suncat0178 pw.x -in pw.inp   Done                     01/02/2019 20:59:04
00003 suncat0178 pw.x -in pw.inp   Done                     01/02/2019 20:59:04
00004 suncat0178 pw.x -in pw.inp   Done                     01/02/2019 20:59:04
00005 suncat0178 pw.x -in pw.inp   Done                     01/02/2019 20:59:04
00006 suncat0178 pw.x -in pw.inp   Done                     01/02/2019 20:59:04
00007 suncat0178 pw.x -in pw.inp   Done                     01/02/2019 20:59:04
00008 suncat0177 pw.x -in pw.inp   Done                     01/02/2019 20:59:04
00009 suncat0177 pw.x -in pw.inp   Done                     01/02/2019 20:59:04
00010 suncat0177 pw.x -in pw.inp   Done                     01/02/2019 20:59:04
00011 suncat0177 pw.x -in pw.inp   Done                     01/02/2019 20:59:04
00012 suncat0177 pw.x -in pw.inp   Done                     01/02/2019 20:59:04
00013 suncat0177 pw.x -in pw.inp   Done                     01/02/2019 20:59:04
00014 suncat0177 pw.x -in pw.inp   Done                     01/02/2019 20:59:04
00015 suncat0177 pw.x -in pw.inp   Done                     01/02/2019 20:59:04
00016 suncat0113 pw.x -in pw.inp   Done                     01/02/2019 20:59:04
00017 suncat0113 pw.x -in pw.inp   Done                     01/02/2019 20:59:04
00018 suncat0113 pw.x -in pw.inp   Done                     01/02/2019 20:59:04
00019 suncat0113 pw.x -in pw.inp   Done                     01/02/2019 20:59:04
00020 suncat0113 pw.x -in pw.inp   Done                     01/02/2019 20:59:04
00021 suncat0113 pw.x -in pw.inp   Done                     01/02/2019 20:59:04
00022 suncat0113 pw.x -in pw.inp   Done                     01/02/2019 20:59:04
00023 suncat0113 pw.x -in pw.inp   Done                     01/02/2019 20:59:04
00024 suncat0267 pw.x -in pw.inp   Done                     01/02/2019 20:59:04
00025 suncat0267 pw.x -in pw.inp   Done                     01/02/2019 20:59:04
00026 suncat0267 pw.x -in pw.inp   Done                     01/02/2019 20:59:04
00027 suncat0267 pw.x -in pw.inp   Done                     01/02/2019 20:59:04
00028 suncat0267 pw.x -in pw.inp   Done                     01/02/2019 20:59:04
00029 suncat0267 pw.x -in pw.inp   Done                     01/02/2019 20:59:04
00030 suncat0267 pw.x -in pw.inp   Done                     01/02/2019 20:59:04
00031 suncat0267 pw.x -in pw.inp   Done                     01/02/2019 20:59:04
00032 suncat0254 pw.x -in pw.inp   Done                     01/02/2019 20:59:04
00033 suncat0254 pw.x -in pw.inp   Done                     01/02/2019 20:59:04
00034 suncat0254 pw.x -in pw.inp   Done                     01/02/2019 20:59:04
00035 suncat0254 pw.x -in pw.inp   Done                     01/02/2019 20:59:04
00036 suncat0254 pw.x -in pw.inp   Done                     01/02/2019 20:59:04
00037 suncat0254 pw.x -in pw.inp   Done                     01/02/2019 20:59:04
00038 suncat0254 pw.x -in pw.inp   Done                     01/02/2019 20:59:04
00039 suncat0254 pw.x -in pw.inp   Done                     01/02/2019 20:59:04
00040 suncat0253 pw.x -in pw.inp   Done                     01/02/2019 20:59:04
00041 suncat0253 pw.x -in pw.inp   Done                     01/02/2019 20:59:04
00042 suncat0253 pw.x -in pw.inp   Done                     01/02/2019 20:59:04
00043 suncat0253 pw.x -in pw.inp   Done                     01/02/2019 20:59:04
00044 suncat0253 pw.x -in pw.inp   Done                     01/02/2019 20:59:04
00045 suncat0253 pw.x -in pw.inp   Done                     01/02/2019 20:59:04
00046 suncat0253 pw.x -in pw.inp   Done                     01/02/2019 20:59:04
00047 suncat0253 pw.x -in pw.inp   Done                     01/02/2019 20:59:04
00048 suncat0228 pw.x -in pw.inp   Done                     01/02/2019 20:59:04
00049 suncat0228 pw.x -in pw.inp   Done                     01/02/2019 20:59:04
00050 suncat0228 pw.x -in pw.inp   Done                     01/02/2019 20:59:04
00051 suncat0228 pw.x -in pw.inp   Done                     01/02/2019 20:59:04
00052 suncat0228 pw.x -in pw.inp   Done                     01/02/2019 20:59:04
00053 suncat0228 pw.x -in pw.inp   Done                     01/02/2019 20:59:04
00054 suncat0228 pw.x -in pw.inp   Done                     01/02/2019 20:59:04
00055 suncat0228 pw.x -in pw.inp   Done                     01/02/2019 20:59:04
00056 suncat0227 pw.x -in pw.inp   Done                     01/02/2019 20:59:04
00057 suncat0227 pw.x -in pw.inp   Done                     01/02/2019 20:59:04
00058 suncat0227 pw.x -in pw.inp   Done                     01/02/2019 20:59:04
00059 suncat0227 pw.x -in pw.inp   Done                     01/02/2019 20:59:04
00060 suncat0227 pw.x -in pw.inp   Done                     01/02/2019 20:59:04
00061 suncat0227 pw.x -in pw.inp   Done                     01/02/2019 20:59:04
00062 suncat0227 pw.x -in pw.inp   Done                     01/02/2019 20:59:04
00063 suncat0227 pw.x -in pw.inp   Done                     01/02/2019 20:59:04