     Program PWSCF v.5.1rc2 (svn rev. 11289) starts on  2Jan2019 at  4:52:10

     Current dimensions of program PWSCF are:
     Max number of different atomic species (ntypx) = 10
     Max number of k-points (npk) =  40000
     Max angular momentum in pseudopotentials (lmaxx) =  3
     Presently stress not available with electric field

     IMPORTANT: XC functional enforced from input :
     Exchange-correlation      = BEEF-VDW ( 1  4 27 13 2)
     Any further DFT definition will be discarded
     Please, verify this is what you really want

     Subspace diagonalization in iterative solution of the eigenvalue problem:
     a serial algorithm will be used

     bravais-lattice index     =            0
     lattice parameter (alat)  =       1.8897  a.u.
     unit-cell volume          =    4305.2917 (a.u.)^3
     number of atoms/cell      =           12
     number of atomic types    =            2
     number of electrons       =       159.00
     number of Kohn-Sham states=          109
     kinetic-energy cutoff     =      36.7493  Ry
     charge density cutoff     =     367.4932  Ry
     convergence threshold     =      1.0E-06
     mixing beta               =       0.1000
     number of iterations used =           10  plain     mixing
     Exchange-correlation      = BEEF-VDW ( 1  4 27 13 2)
     nstep                     =           50

     celldm(1)=   1.889726  celldm(2)=   0.000000  celldm(3)=   0.000000
     celldm(4)=   0.000000  celldm(5)=   0.000000  celldm(6)=   0.000000

     crystal axes: (cart. coord. in units of alat)
               a(1) = (   5.485796   0.000000   0.000000 )
               a(2) = (  -2.742898   4.750839   0.000000 )
               a(3) = (   0.000000   0.000000  24.479134 )

     reciprocal axes: (cart. coord. in units 2 pi/alat)
               b(1) = (  0.182289  0.105245  0.000000 )
               b(2) = (  0.000000  0.210489  0.000000 )
               b(3) = (  0.000000  0.000000  0.040851 )

     PseudoPot. # 1 for V  read from file:
     /afs/slac.stanford.edu/u/if/mamunm/psp/gbrv1.5pbe/V.UPF
     MD5 check sum: 22b79981416ebb76fdaf5b1b8640f6fb
     Pseudo is Ultrasoft + core correction, Zval = 13.0
     Generated by new atomic code, or converted to UPF format
     Using radial grid of  853 points,  6 beta functions with:
                l(1) =   0
                l(2) =   0
                l(3) =   1
                l(4) =   1
                l(5) =   2
                l(6) =   2
     Q(r) pseudized with  8 coefficients,  rinner =    1.100   1.100   1.100
                                                       1.100   1.100

     PseudoPot. # 2 for Mo read from file:
     /afs/slac.stanford.edu/u/if/mamunm/psp/gbrv1.5pbe/Mo.UPF
     MD5 check sum: 30c4dcd161f5d35cd49bb5239c51a633
     Pseudo is Ultrasoft + core correction, Zval = 14.0
     Generated by new atomic code, or converted to UPF format
     Using radial grid of  889 points,  6 beta functions with:
                l(1) =   0
                l(2) =   0
                l(3) =   1
                l(4) =   1
                l(5) =   2
                l(6) =   2
     Q(r) pseudized with  6 coefficients,  rinner =    1.000   1.000   1.000
                                                       1.000   1.000

     vdW kernel table read from file vdW_kernel_table
     MD5 check sum: 095c7af220d748ca6e76c0b4c6cfb241

     atomic species   valence    mass     pseudopotential
        V1            13.00    50.94150     V ( 1.00)
        Mo1           14.00    95.95000     Mo( 1.00)

     No symmetry found

   Cartesian axes

     site n.     atom                  positions (alat units)
         1           V1  tau(   1) = (   0.0000000   0.0000000  10.0000000  )
         2           V1  tau(   2) = (  -1.3714490   2.3754193  10.0000000  )
         3           V1  tau(   3) = (   1.3714490   2.3754193  10.0000000  )
         4           Mo1 tau(   4) = (   2.7428980   0.0000000  10.0000000  )
         5           V1  tau(   5) = (   2.7428980   1.5836129  12.2395668  )
         6           V1  tau(   6) = (   1.3714490   3.9590322  12.2395668  )
         7           V1  tau(   7) = (  -1.3714490   3.9590322  12.2395668  )
         8           Mo1 tau(   8) = (   0.0000000   1.5836129  12.2395668  )
         9           V1  tau(   9) = (  -0.0000000   3.1672258  14.4791337  )
        10           V1  tau(  10) = (   1.3714490   0.7918064  14.4791337  )
        11           V1  tau(  11) = (   4.1143470   0.7918064  14.4791337  )
        12           Mo1 tau(  12) = (   2.7428980   3.1672258  14.4791337  )

     number of k points=    20  Fermi-Dirac smearing, width (Ry)=  0.0110
                       cart. coord. in units 2pi/alat
        k(    1) = (   0.0000000   0.0000000   0.0000000), wk =   0.0555556
        k(    2) = (   0.0000000   0.0350815   0.0000000), wk =   0.1111111
        k(    3) = (   0.0000000   0.0701631   0.0000000), wk =   0.1111111
        k(    4) = (   0.0000000  -0.1052446   0.0000000), wk =   0.0555556
        k(    5) = (   0.0303815   0.0175408   0.0000000), wk =   0.1111111
        k(    6) = (   0.0303815   0.0526223   0.0000000), wk =   0.1111111
        k(    7) = (   0.0303815   0.0877038   0.0000000), wk =   0.1111111
        k(    8) = (   0.0303815  -0.0877038   0.0000000), wk =   0.1111111
        k(    9) = (   0.0303815  -0.0526223   0.0000000), wk =   0.1111111
        k(   10) = (   0.0303815  -0.0175408   0.0000000), wk =   0.1111111
        k(   11) = (   0.0607630   0.0350815   0.0000000), wk =   0.1111111
        k(   12) = (   0.0607630   0.0701631   0.0000000), wk =   0.1111111
        k(   13) = (   0.0607630   0.1052446   0.0000000), wk =   0.1111111
        k(   14) = (   0.0607630  -0.0701631   0.0000000), wk =   0.1111111
        k(   15) = (   0.0607630  -0.0350815   0.0000000), wk =   0.1111111
        k(   16) = (   0.0607630   0.0000000   0.0000000), wk =   0.1111111
        k(   17) = (  -0.0911445  -0.0526223   0.0000000), wk =   0.0555556
        k(   18) = (  -0.0911445  -0.0175408   0.0000000), wk =   0.1111111
        k(   19) = (  -0.0911445   0.0175408   0.0000000), wk =   0.1111111
        k(   20) = (  -0.0911445  -0.1578669   0.0000000), wk =   0.0555556

     Largest allocated arrays     est. size (Mb)     dimensions
     Largest temporary arrays     est. size (Mb)     dimensions

     Initial potential from superposition of free atoms
     Check: negative starting charge=   -0.008728

     starting charge  158.98576, renormalised to  159.00000

     negative rho (up, down):  8.729E-03 0.000E+00

     *
     * You are using vdW-DF for exchange-correlation in this calculation.
     * Please cite the following three references that made this development
     * possible:
     *
     *   M. Dion, H. Rydberg, E. Schroder, D. C. Langreth, and
     *   B. I. Lundqvist, Phys. Rev. Lett. 92, 246401 (2004).
     *
     *   T. Thonhauser, V. R. Cooper, S. Li, A. Puzder, P. Hyldgaard, and
     *   D. C. Langreth, Phys. Rev. B 76, 125112 (2007).
     *
     *   G. Roman-Perez and J. M. Soler, Phys. Rev. Lett. 103, 096102 (2009).
     *
     *
     * If you are using vdW-DF2, please also cite:
     *
     *   K. Lee, E. D. Murray, L. Kong, B. I. Lundqvist, and
     *   D. C. Langreth, Phys. Rev. B 82, 081101(R) (2010).
     *
     *
     * If you are calculating the stress with vdW-DF, please also cite:
     *
     *   R. Sabatini, E. Kucukbenli, B. Kolb, T. Thonhauser, and
     *   S. de Gironcoli, J. Phys.: Condens. Matter 24, 424209 (2012).
     *

     Carrying out vdW-DF run using the following parameters:

     Nqs =      20    Nr_points =    1024   r_max =   100.000
     q_mesh =
               0.00001000     0.04494208     0.09755937     0.15916263
               0.23128650     0.31572767     0.41458969     0.53033537
               0.66584808     0.82450364     1.01025438     1.22772762
               1.48234092     1.78043706     2.12944203     2.53805004
               3.01644009     3.57652955     4.23227104     5.00000000

     Gradients computed in reciprocal space

     Adding external electric field

     Computed dipole along edir(3) :
        Dipole               -0.0000 Ry au,         -0.0000 Debye
        Dipole field         -0.0000 Ry au

        Potential amp.        0.0000 Ry
        Total length         45.1024 bohr

     Starting wfc are  129 randomized atomic wfcs

     Self-consistent Calculation

     iteration #  1     ecut=    36.75 Ry     beta=0.10
     Davidson diagonalization with overlap
     ethr =  1.00E-02,  avg # of iterations =  2.2

[...]

     total energy              =   -1730.13823863 Ry
     Harris-Foulkes estimate   =   -1732.15249380 Ry
     estimated scf accuracy    <      11.10345018 Ry

[...]

     End of self-consistent calculation

          k = 0.0000 0.0000 0.0000 ( 16079 PWs)   bands (ev):

   -63.0605 -62.9932 -62.9827 -62.9827 -62.9779 -62.9273 -62.9272 -62.9232
   -62.9231 -59.5535 -59.4174 -59.4167 -37.1184 -37.0265 -37.0264 -37.0222
   -36.9922 -36.9875 -36.9617 -36.9617 -36.8720 -36.8720 -36.8704 -36.8123
   -36.8122 -36.7779 -36.7779 -36.7225 -36.6800 -36.6670 -36.6670 -36.6109
   -36.6004 -36.6003 -36.5846 -36.5258 -36.5257 -36.5243 -36.5243 -33.5763
   -33.5686 -33.5686 -33.4977 -33.4703 -33.4217 -33.4217 -33.4151 -33.4151
    -4.7756  -3.2730  -2.4650  -2.3769  -2.3769  -2.0751  -2.0751  -1.6498
    -1.5296  -1.5296  -1.4505  -1.4505  -1.4306  -1.3086  -0.9355  -0.5487
    -0.5487  -0.0920   0.4538   0.5382   0.5382   0.7048   0.9235   1.1191
     1.2589   1.2589   1.2752   1.4366   1.4366   1.4758   1.4759   1.4996
     1.4996   1.5736   1.5886   1.5886   1.9453   2.0392   2.2304   2.2304
     2.5479   2.6328   2.6328   2.9326   2.9326   3.1788   3.2686   3.2687
     3.3826   3.3827   3.4787   3.4787   3.5881   3.7583   3.9427   3.9428
     4.0305   4.0355   4.0355   4.1417   4.1949

[...]

          k =-0.0911-0.0526 0.0000 ( 16164 PWs)   bands (ev):

[...]

     the Fermi energy is     1.2702 ev

!    total energy              =   -1731.41646268 Ry
     Harris-Foulkes estimate   =   -1731.41646070 Ry
     estimated scf accuracy    <       0.00000073 Ry

     The total energy is the sum of the following terms:

     one-electron contribution =  -14756.18263778 Ry
     hartree contribution      =    7366.28949061 Ry
     xc contribution           =    -243.00167806 Ry
     ewald contribution        =    5901.62346050 Ry
     electric field correction =       0.00000000 Ry
     smearing contrib. (-TS)   =      -0.14509794 Ry

     convergence has been achieved in  22 iterations

 BEEF-vdW xc energy contributions
           1 :   -209.260358171505
           2 :    188.599341613832
           3 :   -154.220975171331
           4 :    116.617110253108
           5 :   -85.1800985817088
           6 :    64.7186205700419
           7 :   -54.6863074454899
           8 :    50.9716660690821
           9 :   -48.8418458882813
          10 :    45.3186208835887
          11 :   -39.9692453729672
          12 :    34.1399549588369
          13 :   -29.4765461970704
          14 :    26.7280016458841
          15 :   -25.4455491073933
          16 :    24.5256079949674
[...]
     /afs/slac.stanford.edu/u/if/mamunm/psp/gbrv1.5pbe/V.UPF
     MD5 check sum: 22b79981416ebb76fdaf5b1b8640f6fb
     Pseudo is Ultrasoft + core correction, Zval = 13.0
     Generated by new atomic code, or converted to UPF format
     Using radial grid of  853 points,  6 beta functions with:
                l(1) =   0
                l(2) =   0
                l(3) =   1
                l(4) =   1
                l(5) =   2
                l(6) =   2
     Q(r) pseudized with  8 coefficients,  rinner =    1.100   1.100   1.100
                                                       1.100   1.100

     PseudoPot. # 2 for Mo read from file:
     /afs/slac.stanford.edu/u/if/mamunm/psp/gbrv1.5pbe/Mo.UPF
     MD5 check sum: 30c4dcd161f5d35cd49bb5239c51a633
     Pseudo is Ultrasoft + core correction, Zval = 14.0
     Generated by new atomic code, or converted to UPF format
     Using radial grid of  889 points,  6 beta functions with:
                l(1) =   0
                l(2) =   0
                l(3) =   1
                l(4) =   1
                l(5) =   2
                l(6) =   2
     Q(r) pseudized with  6 coefficients,  rinner =    1.000   1.000   1.000
                                                       1.000   1.000

     vdW kernel table read from file vdW_kernel_table
     MD5 check sum: 095c7af220d748ca6e76c0b4c6cfb241

     atomic species   valence    mass     pseudopotential
        V1            13.00    50.94150     V ( 1.00)
        Mo1           14.00    95.95000     Mo( 1.00)

     No symmetry found

   Cartesian axes

     site n.     atom                  positions (alat units)
         1           V1  tau(   1) = (   0.0000000   0.0000000  10.0000000  )
         2           V1  tau(   2) = (  -1.3714490   2.3754193  10.0000000  )
         3           V1  tau(   3) = (   1.3714490   2.3754193  10.0000000  )
         4           Mo1 tau(   4) = (   2.7428980   0.0000000  10.0000000  )
         5           V1  tau(   5) = (   2.7428980   1.5836129  12.2395668  )
         6           V1  tau(   6) = (   1.3714490   3.9590322  12.2395668  )
         7           V1  tau(   7) = (  -1.3714490   3.9590322  12.2395668  )
         8           Mo1 tau(   8) = (   0.0000000   1.5836129  12.2395668  )
         9           V1  tau(   9) = (  -0.0000239   3.2085320  14.4919631  )
        10           V1  tau(  10) = (   1.4072165   0.7711287  14.4919506  )
        11           V1  tau(  11) = (   4.0786164   0.7711844  14.4919652  )
        12           Mo1 tau(  12) = (   2.7429141   3.1672246  14.4591155  )

     number of k points=    20  Fermi-Dirac smearing, width (Ry)=  0.0110
                       cart. coord. in units 2pi/alat
        k(    1) = (   0.0000000   0.0000000   0.0000000), wk =   0.0555556
        k(    2) = (   0.0000000   0.0350815   0.0000000), wk =   0.1111111
        k(    3) = (   0.0000000   0.0701631   0.0000000), wk =   0.1111111
        k(    4) = (   0.0000000  -0.1052446   0.0000000), wk =   0.0555556
        k(    5) = (   0.0303815   0.0175408   0.0000000), wk =   0.1111111
        k(    6) = (   0.0303815   0.0526223   0.0000000), wk =   0.1111111
        k(    7) = (   0.0303815   0.0877038   0.0000000), wk =   0.1111111
        k(    8) = (   0.0303815  -0.0877038   0.0000000), wk =   0.1111111
        k(    9) = (   0.0303815  -0.0526223   0.0000000), wk =   0.1111111
        k(   10) = (   0.0303815  -0.0175408   0.0000000), wk =   0.1111111
        k(   11) = (   0.0607630   0.0350815   0.0000000), wk =   0.1111111
        k(   12) = (   0.0607630   0.0701631   0.0000000), wk =   0.1111111
        k(   13) = (   0.0607630   0.1052446   0.0000000), wk =   0.1111111
        k(   14) = (   0.0607630  -0.0701631   0.0000000), wk =   0.1111111
        k(   15) = (   0.0607630  -0.0350815   0.0000000), wk =   0.1111111
        k(   16) = (   0.0607630   0.0000000   0.0000000), wk =   0.1111111
        k(   17) = (  -0.0911445  -0.0526223   0.0000000), wk =   0.0555556
        k(   18) = (  -0.0911445  -0.0175408   0.0000000), wk =   0.1111111
        k(   19) = (  -0.0911445   0.0175408   0.0000000), wk =   0.1111111
        k(   20) = (  -0.0911445  -0.1578669   0.0000000), wk =   0.0555556

     Largest allocated arrays     est. size (Mb)     dimensions
     Largest temporary arrays     est. size (Mb)     dimensions

     Initial potential from superposition of free atoms
     Check: negative starting charge=   -0.007701

     starting charge  158.98576, renormalised to  159.00000

[...]

     *
     * You are using vdW-DF for exchange-correlation in this calculation.
     * Please cite the following three references that made this development
     * possible:
     *
     *   M. Dion, H. Rydberg, E. Schroder, D. C. Langreth, and
     *   B. I. Lundqvist, Phys. Rev. Lett. 92, 246401 (2004).
     *
     *   T. Thonhauser, V. R. Cooper, S. Li, A. Puzder, P. Hyldgaard, and
     *   D. C. Langreth, Phys. Rev. B 76, 125112 (2007).
     *
     *   G. Roman-Perez and J. M. Soler, Phys. Rev. Lett. 103, 096102 (2009).
     *
     *
     * If you are using vdW-DF2, please also cite:
     *
     *   K. Lee, E. D. Murray, L. Kong, B. I. Lundqvist, and
     *   D. C. Langreth, Phys. Rev. B 82, 081101(R) (2010).
     *
     *
     * If you are calculating the stress with vdW-DF, please also cite:
     *
     *   R. Sabatini, E. Kucukbenli, B. Kolb, T. Thonhauser, and
     *   S. de Gironcoli, J. Phys.: Condens. Matter 24, 424209 (2012).
     *

     Carrying out vdW-DF run using the following parameters:

     Nqs =      20    Nr_points =    1024   r_max =   100.000
     q_mesh =
               0.00001000     0.04494208     0.09755937     0.15916263
               0.23128650     0.31572767     0.41458969     0.53033537
               0.66584808     0.82450364     1.01025438     1.22772762
               1.48234092     1.78043706     2.12944203     2.53805004
               3.01644009     3.57652955     4.23227104     5.00000000

     Gradients computed in reciprocal space

[...]

     Starting wfc are  129 randomized atomic wfcs

     Self-consistent Calculation

[...]

     total energy              =   -1731.41699090 Ry
     Harris-Foulkes estimate   =   -1731.41699075 Ry
     estimated scf accuracy    <       0.00000102 Ry

     iteration # 24     ecut=    36.75 Ry     beta=0.10
     Davidson diagonalization with overlap
     ethr =  6.45E-10,  avg # of iterations =  2.1

[...]

     negative rho (up, down):  1.090E-02 0.000E+00

     Adding external electric field

     Computed dipole along edir(3) :
        Dipole                0.0025 Ry au,          0.0064 Debye
        Dipole field          0.0000 Ry au

        Potential amp.       -0.0007 Ry
        Total length         45.1024 bohr

     End of self-consistent calculation

[...]

          k = 0.0608 0.0000 0.0000 ( 16226 PWs)   bands (ev):

[...]

          k =-0.0911-0.1579 0.0000 ( 16164 PWs)   bands (ev):

   -63.0287 -63.0086 -62.9784 -62.9653 -62.9583 -62.9444 -62.9387 -62.9240
   -62.9194 -59.5612 -59.4210 -59.4124 -37.0350 -36.9934 -36.9694 -36.9237
   -36.9171 -36.9059 -36.8933 -36.8884 -36.8505 -36.8376 -36.8094 -36.7907
   -36.7589 -36.7583 -36.7450 -36.7388 -36.7348 -36.7206 -36.6996 -36.6848
   -36.6768 -36.6608 -36.6416 -36.6373 -36.6028 -36.5355 -36.5300 -33.6160
   -33.5871 -33.5798 -33.4855 -33.4778 -33.4632 -33.4530 -33.4395 -33.4259
    -3.1374  -3.0337  -2.0337  -1.8149  -1.6114  -1.5581  -1.3425  -1.1587
    -0.9960  -0.9158  -0.8920  -0.5839  -0.5767  -0.4545  -0.3918  -0.2161
    -0.1417  -0.0926   0.0229   0.1882   0.2621   0.3282   0.3824   0.5978
     0.6575   0.6614   0.6957   0.8456   0.9254   0.9272   0.9760   1.1195
     1.2339   1.2785   1.3004   1.3367   1.3871   1.4186   1.8421   1.8562
     2.1291   2.1605   2.3433   2.3496   2.3688   2.3928   2.6022   2.7202
     2.7358   2.7892   2.8593   2.8909   2.9433   2.9473   3.0539   3.1974
     3.2474   3.4271   3.5655   3.6869   3.8934

     the Fermi energy is     1.2739 ev

!    total energy              =   -1731.41699114 Ry
     Harris-Foulkes estimate   =   -1731.41699094 Ry
     estimated scf accuracy    <       0.00000037 Ry

     The total energy is the sum of the following terms:

     one-electron contribution =  -14747.89085780 Ry
     hartree contribution      =    7362.14211197 Ry
     xc contribution           =    -242.99793956 Ry
     ewald contribution        =    5897.47458599 Ry
     electric field correction =       0.00000002 Ry
     smearing contrib. (-TS)   =      -0.14489175 Ry

     convergence has been achieved in  24 iterations

 BEEF-vdW xc energy contributions
           1 :   -209.256599420358
           2 :    188.593947116100
           3 :   -154.213530446516
           4 :    116.608352497513
           5 :   -85.1708279440929
           6 :    64.7090663417749
           7 :   -54.6768719134797
           8 :    50.9637668172516
           9 :   -48.8373600340934
          10 :    45.3176357532937
          11 :   -39.9684731348689
          12 :    34.1343755194368
          13 :   -29.4635972720927
          14 :    26.7108874242459
          15 :   -25.4320716686795
          16 :    24.5229733423241
          17 :   -23.0752400208365
          18 :    20.9214424422804
          19 :   -18.5676033693072
          20 :    16.6668902471936
          21 :   -15.4886364410528
          22 :    14.7643699055085
          23 :   -13.9695766757314
          24 :    12.7665680840326
          25 :   -11.2548989960757
          26 :    9.85733718494510
          27 :   -8.96277816596483
          28 :    8.61069763968635
          29 :   -8.45209700022264
          30 :    8.00352758315373
          31 :   -22.1702743656170
          32 :   -16.2459834123014

     Forces acting on atoms (Ry/au):

     negative rho (up, down):  1.090E-02 0.000E+00
     atom    1 type  1   force =     0.00000178   -0.00478897   -0.00175331
     atom    2 type  1   force =    -0.00414783    0.00239715   -0.00175728
     atom    3 type  1   force =     0.00414824    0.00239502   -0.00175860
     atom    4 type  2   force =    -0.00000015    0.00000053    0.00236430
     atom    5 type  1   force =    -0.00000383    0.00069345   -0.00243442
     atom    6 type  1   force =     0.00059660   -0.00034865   -0.00242912
     atom    7 type  1   force =    -0.00059767   -0.00034497   -0.00243394
     atom    8 type  2   force =     0.00000082   -0.00000018    0.01182379
     atom    9 type  1   force =     0.00000482   -0.00105361   -0.00054992
     atom   10 type  1   force =    -0.00090516    0.00052791   -0.00054835
     atom   11 type  1   force =     0.00090832    0.00052383   -0.00055910
     atom   12 type  2   force =    -0.00000594   -0.00000151    0.00003595

     Total force =     0.015713     Total SCF correction =     0.002382
     SCF correction compared to forces is large: reduce conv_thr to get better values

     entering subroutine stress ...

     negative rho (up, down):  1.090E-02 0.000E+00
          total   stress  (Ry/bohr**3)                   (kbar)     P=  -25.70
  -0.00025939   0.00000000   0.00000001        -38.16      0.00      0.00
   0.00000000  -0.00025939  -0.00000000          0.00    -38.16     -0.00
   0.00000001  -0.00000000  -0.00000543          0.00     -0.00     -0.80

 !ASE

     Writing output data file calc.save

     General routines

     Parallel routines

   This run was terminated on:   5:51:51   2Jan2019

   JOB DONE.
Job  /afs/slac/g/suncat/bin/suncat-tsmpirun -x LD_LIBRARY_PATH -wdir /scratch/qe649313_1NDUo pw.x -in pw.inp

TID   HOST_NAME   COMMAND_LINE            STATUS            TERMINATION_TIME
00000 suncat0141 pw.x -in pw.inp   Done                     01/02/2019 05:51:51
00001 suncat0141 pw.x -in pw.inp   Done                     01/02/2019 05:51:51
00002 suncat0141 pw.x -in pw.inp   Done                     01/02/2019 05:51:51
00003 suncat0141 pw.x -in pw.inp   Done                     01/02/2019 05:51:51
00004 suncat0141 pw.x -in pw.inp   Done                     01/02/2019 05:51:51
00005 suncat0141 pw.x -in pw.inp   Done                     01/02/2019 05:51:51
00006 suncat0141 pw.x -in pw.inp   Done                     01/02/2019 05:51:51
00007 suncat0141 pw.x -in pw.inp   Done                     01/02/2019 05:51:51
00008 suncat0140 pw.x -in pw.inp   Done                     01/02/2019 05:51:51
00009 suncat0140 pw.x -in pw.inp   Done                     01/02/2019 05:51:51
00010 suncat0140 pw.x -in pw.inp   Done                     01/02/2019 05:51:51
00011 suncat0140 pw.x -in pw.inp   Done                     01/02/2019 05:51:51
00012 suncat0140 pw.x -in pw.inp   Done                     01/02/2019 05:51:51
00013 suncat0140 pw.x -in pw.inp   Done                     01/02/2019 05:51:51
00014 suncat0140 pw.x -in pw.inp   Done                     01/02/2019 05:51:51
00015 suncat0140 pw.x -in pw.inp   Done                     01/02/2019 05:51:51
00016 suncat0135 pw.x -in pw.inp   Done                     01/02/2019 05:51:51
00017 suncat0135 pw.x -in pw.inp   Done                     01/02/2019 05:51:51
00018 suncat0135 pw.x -in pw.inp   Done                     01/02/2019 05:51:51
00019 suncat0135 pw.x -in pw.inp   Done                     01/02/2019 05:51:51
00020 suncat0135 pw.x -in pw.inp   Done                     01/02/2019 05:51:51
00021 suncat0135 pw.x -in pw.inp   Done                     01/02/2019 05:51:51
00022 suncat0135 pw.x -in pw.inp   Done                     01/02/2019 05:51:51
00023 suncat0135 pw.x -in pw.inp   Done                     01/02/2019 05:51:51
00024 suncat0134 pw.x -in pw.inp   Done                     01/02/2019 05:51:51
00025 suncat0134 pw.x -in pw.inp   Done                     01/02/2019 05:51:51
00026 suncat0134 pw.x -in pw.inp   Done                     01/02/2019 05:51:51
00027 suncat0134 pw.x -in pw.inp   Done                     01/02/2019 05:51:51
00028 suncat0134 pw.x -in pw.inp   Done                     01/02/2019 05:51:51
00029 suncat0134 pw.x -in pw.inp   Done                     01/02/2019 05:51:51
00030 suncat0134 pw.x -in pw.inp   Done                     01/02/2019 05:51:51
00031 suncat0134 pw.x -in pw.inp   Done                     01/02/2019 05:51:51
00032 suncat0272 pw.x -in pw.inp   Done                     01/02/2019 05:51:51
00033 suncat0272 pw.x -in pw.inp   Done                     01/02/2019 05:51:51
00034 suncat0272 pw.x -in pw.inp   Done                     01/02/2019 05:51:51
00035 suncat0272 pw.x -in pw.inp   Done                     01/02/2019 05:51:51
00036 suncat0272 pw.x -in pw.inp   Done                     01/02/2019 05:51:51
00037 suncat0272 pw.x -in pw.inp   Done                     01/02/2019 05:51:51
00038 suncat0272 pw.x -in pw.inp   Done                     01/02/2019 05:51:51
00039 suncat0272 pw.x -in pw.inp   Done                     01/02/2019 05:51:51
00040 suncat0262 pw.x -in pw.inp   Done                     01/02/2019 05:51:51
00041 suncat0262 pw.x -in pw.inp   Done                     01/02/2019 05:51:51
00042 suncat0262 pw.x -in pw.inp   Done                     01/02/2019 05:51:51
00043 suncat0262 pw.x -in pw.inp   Done                     01/02/2019 05:51:51
00044 suncat0262 pw.x -in pw.inp   Done                     01/02/2019 05:51:51
00045 suncat0262 pw.x -in pw.inp   Done                     01/02/2019 05:51:51
00046 suncat0262 pw.x -in pw.inp   Done                     01/02/2019 05:51:51
00047 suncat0262 pw.x -in pw.inp   Done                     01/02/2019 05:51:51
00048 suncat0258 pw.x -in pw.inp   Done                     01/02/2019 05:51:51
00049 suncat0258 pw.x -in pw.inp   Done                     01/02/2019 05:51:51
00050 suncat0258 pw.x -in pw.inp   Done                     01/02/2019 05:51:51
00051 suncat0258 pw.x -in pw.inp   Done                     01/02/2019 05:51:51
00052 suncat0258 pw.x -in pw.inp   Done                     01/02/2019 05:51:51
00053 suncat0258 pw.x -in pw.inp   Done                     01/02/2019 05:51:51
00054 suncat0258 pw.x -in pw.inp   Done                     01/02/2019 05:51:51
00055 suncat0258 pw.x -in pw.inp   Done                     01/02/2019 05:51:51
00056 suncat0257 pw.x -in pw.inp   Done                     01/02/2019 05:51:51
00057 suncat0257 pw.x -in pw.inp   Done                     01/02/2019 05:51:51
00058 suncat0257 pw.x -in pw.inp   Done                     01/02/2019 05:51:51
00059 suncat0257 pw.x -in pw.inp   Done                     01/02/2019 05:51:51
00060 suncat0257 pw.x -in pw.inp   Done                     01/02/2019 05:51:51
00061 suncat0257 pw.x -in pw.inp   Done                     01/02/2019 05:51:51
00062 suncat0257 pw.x -in pw.inp   Done                     01/02/2019 05:51:51
00063 suncat0257 pw.x -in pw.inp   Done                     01/02/2019 05:51:51