     Program PWSCF v.5.1rc2 (svn rev. 11289) starts on 25Dec2018 at 18:54:58

     Current dimensions of program PWSCF are:
     Max number of different atomic species (ntypx) = 10
     Max number of k-points (npk) =  40000
     Max angular momentum in pseudopotentials (lmaxx) =  3
     Presently stress not available with electric field

     IMPORTANT: XC functional enforced from input :
     Exchange-correlation      = BEEF-VDW ( 1  4 27 13 2)
     Any further DFT definition will be discarded
     Please, verify this is what you really want

     Subspace diagonalization in iterative solution of the eigenvalue problem:
     a serial algorithm will be used

     bravais-lattice index     =            0
     lattice parameter (alat)  =       1.8897  a.u.
     unit-cell volume          =    3942.9259 (a.u.)^3
     number of atoms/cell      =           12
     number of atomic types    =            2
     number of electrons       =       210.00
     number of Kohn-Sham states=          135
     kinetic-energy cutoff     =      36.7493  Ry
     charge density cutoff     =     367.4932  Ry
     convergence threshold     =      1.0E-06
     mixing beta               =       0.1000
     number of iterations used =           10  plain     mixing
     Exchange-correlation      = BEEF-VDW ( 1  4 27 13 2)
     nstep                     =           50

     celldm(1)=   1.889726  celldm(2)=   0.000000  celldm(3)=   0.000000
     celldm(4)=   0.000000  celldm(5)=   0.000000  celldm(6)=   0.000000

     crystal axes: (cart. coord. in units of alat)
               a(1) = (   5.268949   0.000000   0.000000 )
               a(2) = (  -2.634474   4.563044   0.000000 )
               a(3) = (   0.000000   0.000000  24.302079 )

     reciprocal axes: (cart. coord. in units 2 pi/alat)
               b(1) = (  0.189791  0.109576  0.000000 )
               b(2) = (  0.000000  0.219152  0.000000 )
               b(3) = (  0.000000  0.000000  0.041149 )

     PseudoPot. # 1 for Cu read from file:
     /afs/slac.stanford.edu/u/if/mamunm/psp/gbrv1.5pbe/Cu.UPF
     MD5 check sum: 6e991ff952a84172a2a52a1c1e996048
     Pseudo is Ultrasoft + core correction, Zval = 19.0
     Generated by new atomic code, or converted to UPF format
     Using radial grid of  867 points,  6 beta functions with:
                l(1) =   0
                l(2) =   0
                l(3) =   1
                l(4) =   1
                l(5) =   2
                l(6) =   2
     Q(r) pseudized with  8 coefficients,  rinner =    1.150   1.150   1.150
                                                       1.150   1.150

     PseudoPot. # 2 for V  read from file:
     /afs/slac.stanford.edu/u/if/mamunm/psp/gbrv1.5pbe/V.UPF
     MD5 check sum: 22b79981416ebb76fdaf5b1b8640f6fb
     Pseudo is Ultrasoft + core correction, Zval = 13.0
     Generated by new atomic code, or converted to UPF format
     Using radial grid of  853 points,  6 beta functions with:
                l(1) =   0
                l(2) =   0
                l(3) =   1
                l(4) =   1
                l(5) =   2
                l(6) =   2
     Q(r) pseudized with  8 coefficients,  rinner =    1.100   1.100   1.100
                                                       1.100   1.100

     vdW kernel table read from file vdW_kernel_table
     MD5 check sum: 095c7af220d748ca6e76c0b4c6cfb241

     atomic species   valence    mass     pseudopotential
        Cu1           19.00    63.54600     Cu( 1.00)
        V1            13.00    50.94150     V ( 1.00)

     No symmetry found

   Cartesian axes

     site n.     atom                  positions (alat units)
         1           Cu1 tau(   1) = (   0.0000000   0.0000000  10.0000000  )
         2           Cu1 tau(   2) = (  -1.3172372   2.2815218  10.0000000  )
         3           Cu1 tau(   3) = (   1.3172372   2.2815218  10.0000000  )
         4           V1  tau(   4) = (   2.6344744   0.0000000  10.0000000  )
         5           Cu1 tau(   5) = (   2.6344744   1.5210145  12.1510393  )
         6           Cu1 tau(   6) = (   1.3172372   3.8025363  12.1510393  )
         7           Cu1 tau(   7) = (  -1.3172372   3.8025363  12.1510393  )
         8           V1  tau(   8) = (   0.0000000   1.5210145  12.1510393  )
         9           Cu1 tau(   9) = (  -0.0000000   3.0420290  14.3020787  )
        10           Cu1 tau(  10) = (   1.3172372   0.7605073  14.3020787  )
        11           Cu1 tau(  11) = (   3.9517116   0.7605073  14.3020787  )
        12           V1  tau(  12) = (   2.6344744   3.0420290  14.3020787  )

     number of k points=    20  Fermi-Dirac smearing, width (Ry)=  0.0110
                       cart. coord. in units 2pi/alat
        k(    1) = (   0.0000000   0.0000000   0.0000000), wk =   0.0555556
        k(    2) = (   0.0000000   0.0365253   0.0000000), wk =   0.1111111
        k(    3) = (   0.0000000   0.0730507   0.0000000), wk =   0.1111111
        k(    4) = (   0.0000000  -0.1095760   0.0000000), wk =   0.0555556
        k(    5) = (   0.0316319   0.0182627   0.0000000), wk =   0.1111111
        k(    6) = (   0.0316319   0.0547880   0.0000000), wk =   0.1111111
        k(    7) = (   0.0316319   0.0913133   0.0000000), wk =   0.1111111
        k(    8) = (   0.0316319  -0.0913133   0.0000000), wk =   0.1111111
        k(    9) = (   0.0316319  -0.0547880   0.0000000), wk =   0.1111111
        k(   10) = (   0.0316319  -0.0182627   0.0000000), wk =   0.1111111
        k(   11) = (   0.0632637   0.0365253   0.0000000), wk =   0.1111111
        k(   12) = (   0.0632637   0.0730507   0.0000000), wk =   0.1111111
        k(   13) = (   0.0632637   0.1095760   0.0000000), wk =   0.1111111
        k(   14) = (   0.0632637  -0.0730507   0.0000000), wk =   0.1111111
        k(   15) = (   0.0632637  -0.0365253   0.0000000), wk =   0.1111111
        k(   16) = (   0.0632637   0.0000000   0.0000000), wk =   0.1111111
        k(   17) = (  -0.0948956  -0.0547880   0.0000000), wk =   0.0555556
        k(   18) = (  -0.0948956  -0.0182627   0.0000000), wk =   0.1111111
        k(   19) = (  -0.0948956   0.0182627   0.0000000), wk =   0.1111111
        k(   20) = (  -0.0948956  -0.1643640   0.0000000), wk =   0.0555556

     Largest allocated arrays     est. size (Mb)     dimensions
     Largest temporary arrays     est. size (Mb)     dimensions

     Initial potential from superposition of free atoms
     Check: negative starting charge=   -0.002652

     starting charge  200.99630, renormalised to  210.00000

     negative rho (up, down):  2.771E-03 0.000E+00

     *
     * You are using vdW-DF for exchange-correlation in this calculation.
     * Please cite the following three references that made this development
     * possible:
     *
     *   M. Dion, H. Rydberg, E. Schroder, D. C. Langreth, and
     *   B. I. Lundqvist, Phys. Rev. Lett. 92, 246401 (2004).
     *
     *   T. Thonhauser, V. R. Cooper, S. Li, A. Puzder, P. Hyldgaard, and
     *   D. C. Langreth, Phys. Rev. B 76, 125112 (2007).
     *
     *   G. Roman-Perez and J. M. Soler, Phys. Rev. Lett. 103, 096102 (2009).
     *
     *
     * If you are using vdW-DF2, please also cite:
     *
     *   K. Lee, E. D. Murray, L. Kong, B. I. Lundqvist, and
     *   D. C. Langreth, Phys. Rev. B 82, 081101(R) (2010).
     *
     *
     * If you are calculating the stress with vdW-DF, please also cite:
     *
     *   R. Sabatini, E. Kucukbenli, B. Kolb, T. Thonhauser, and
     *   S. de Gironcoli, J. Phys.: Condens. Matter 24, 424209 (2012).
     *

     Carrying out vdW-DF run using the following parameters:

     Nqs =      20    Nr_points =    1024   r_max =   100.000
     q_mesh =
               0.00001000     0.04494208     0.09755937     0.15916263
               0.23128650     0.31572767     0.41458969     0.53033537
               0.66584808     0.82450364     1.01025438     1.22772762
               1.48234092     1.78043706     2.12944203     2.53805004
               3.01644009     3.57652955     4.23227104     5.00000000

     Gradients computed in reciprocal space

     Adding external electric field

     Computed dipole along edir(3) :
        Dipole               -0.0000 Ry au,         -0.0000 Debye
        Dipole field         -0.0000 Ry au

        Potential amp.        0.0000 Ry
        Total length         44.7762 bohr

     Starting wfc are  147 randomized atomic wfcs

     Self-consistent Calculation

     iteration #  1     ecut=    36.75 Ry     beta=0.10
     Davidson diagonalization with overlap
     ethr =  1.00E-02,  avg # of iterations =  7.4

[...]

     total energy              =   -4081.27909329 Ry
     Harris-Foulkes estimate   =   -4086.70929256 Ry
     estimated scf accuracy    <      31.36746389 Ry

[...]

     End of self-consistent calculation

          k = 0.0000 0.0000 0.0000 ( 14909 PWs)   bands (ev):

  -112.2053-112.2009-112.2009-112.0626-112.0625-112.0583-112.0583-112.0582
  -112.0582 -69.6386 -69.6275 -69.6275 -69.6144 -69.6144 -69.6009 -69.5518
   -69.5518 -69.5517 -69.5517 -69.5393 -69.5322 -69.5317 -69.5035 -69.5035
   -69.4565 -69.4564 -69.4214 -69.4214 -69.4212 -69.4212 -69.3687 -69.3664
   -69.3529 -69.3529 -69.3521 -69.3521 -64.0242 -63.9827 -63.9824 -37.8803
   -37.8524 -37.8507 -37.7969 -37.7969 -37.7652 -37.7652 -37.7643 -37.7643
    -7.1710  -5.4428  -4.2273  -3.8432  -3.8432  -3.7199  -3.7199  -3.6632
    -3.5916  -3.3423  -3.3423  -3.3394  -3.3377  -3.3377  -3.2970  -2.7727
    -2.7005  -2.7005  -2.5380  -2.5380  -2.3743  -2.3375  -2.3258  -2.2860
    -2.1821  -2.1821  -2.1284  -2.1284  -2.0815  -2.0815  -1.9839  -1.9839
    -1.9739  -1.9739  -1.8066  -1.5984  -1.5984  -1.5952  -1.5952  -1.5462
    -1.5462  -1.4302  -1.2810  -1.2810  -1.2505  -1.1658  -1.1396  -1.1127
    -0.2956   0.2011   0.3713   0.3713   0.4660   0.4660   0.6336   0.6779
     0.6779   0.8423   0.8423   1.2354   1.2354   1.2619   1.3355   1.4892
     1.4892   1.5545   1.5545   2.8118   2.8118   2.9095   2.9104   2.9104
     3.0563   4.3480   4.6078   5.0734   5.7130   5.7130   5.9778   6.1477
     6.1477   6.4160   6.9101   7.0288   7.0288   7.1449   7.7649

[...]

          k =-0.0949-0.0548 0.0000 ( 14814 PWs)   bands (ev):

[...]

     the Fermi energy is     0.6378 ev

!    total energy              =   -4081.43035546 Ry
     Harris-Foulkes estimate   =   -4081.43034930 Ry
     estimated scf accuracy    <       0.00000024 Ry

     The total energy is the sum of the following terms:

     one-electron contribution =  -30226.03100961 Ry
     hartree contribution      =   15119.04627021 Ry
     xc contribution           =    -420.64147013 Ry
     ewald contribution        =   11446.30765190 Ry
     electric field correction =       0.00000000 Ry
     smearing contrib. (-TS)   =      -0.11179783 Ry

     convergence has been achieved in  20 iterations

 BEEF-vdW xc energy contributions
           1 :   -371.391083575512
           2 :    336.231706124982
           3 :   -276.871350319545
           4 :    209.999916401812
           5 :   -150.736648885104
           6 :    107.118346310580
           7 :   -78.8532445182229
           8 :    60.2207382967562
           9 :   -44.8456404358293
[...]
     Using radial grid of  867 points,  6 beta functions with:
                l(1) =   0
                l(2) =   0
                l(3) =   1
                l(4) =   1
                l(5) =   2
                l(6) =   2
     Q(r) pseudized with  8 coefficients,  rinner =    1.150   1.150   1.150
                                                       1.150   1.150

     PseudoPot. # 2 for V  read from file:
     /afs/slac.stanford.edu/u/if/mamunm/psp/gbrv1.5pbe/V.UPF
     MD5 check sum: 22b79981416ebb76fdaf5b1b8640f6fb
     Pseudo is Ultrasoft + core correction, Zval = 13.0
     Generated by new atomic code, or converted to UPF format
     Using radial grid of  853 points,  6 beta functions with:
                l(1) =   0
                l(2) =   0
                l(3) =   1
                l(4) =   1
                l(5) =   2
                l(6) =   2
     Q(r) pseudized with  8 coefficients,  rinner =    1.100   1.100   1.100
                                                       1.100   1.100

     vdW kernel table read from file vdW_kernel_table
     MD5 check sum: 095c7af220d748ca6e76c0b4c6cfb241

     atomic species   valence    mass     pseudopotential
        Cu1           19.00    63.54600     Cu( 1.00)
        V1            13.00    50.94150     V ( 1.00)

     No symmetry found

   Cartesian axes

     site n.     atom                  positions (alat units)
         1           Cu1 tau(   1) = (   0.0000000   0.0000000  10.0000000  )
         2           Cu1 tau(   2) = (  -1.3172372   2.2815218  10.0000000  )
         3           Cu1 tau(   3) = (   1.3172372   2.2815218  10.0000000  )
         4           V1  tau(   4) = (   2.6344744   0.0000000  10.0000000  )
         5           Cu1 tau(   5) = (   2.6344744   1.5210145  12.1510393  )
         6           Cu1 tau(   6) = (   1.3172372   3.8025363  12.1510393  )
         7           Cu1 tau(   7) = (  -1.3172372   3.8025363  12.1510393  )
         8           V1  tau(   8) = (   0.0000000   1.5210145  12.1510393  )
         9           Cu1 tau(   9) = (   0.0000053   3.0555628  14.2429060  )
        10           Cu1 tau(  10) = (   1.3289686   0.7537445  14.2428954  )
        11           Cu1 tau(  11) = (   3.9399901   0.7537358  14.2428925  )
        12           V1  tau(  12) = (   2.6344841   3.0420361  14.2765566  )

     number of k points=    20  Fermi-Dirac smearing, width (Ry)=  0.0110
                       cart. coord. in units 2pi/alat
        k(    1) = (   0.0000000   0.0000000   0.0000000), wk =   0.0555556
        k(    2) = (   0.0000000   0.0365253   0.0000000), wk =   0.1111111
        k(    3) = (   0.0000000   0.0730507   0.0000000), wk =   0.1111111
        k(    4) = (   0.0000000  -0.1095760   0.0000000), wk =   0.0555556
        k(    5) = (   0.0316319   0.0182627   0.0000000), wk =   0.1111111
        k(    6) = (   0.0316319   0.0547880   0.0000000), wk =   0.1111111
        k(    7) = (   0.0316319   0.0913133   0.0000000), wk =   0.1111111
        k(    8) = (   0.0316319  -0.0913133   0.0000000), wk =   0.1111111
        k(    9) = (   0.0316319  -0.0547880   0.0000000), wk =   0.1111111
        k(   10) = (   0.0316319  -0.0182627   0.0000000), wk =   0.1111111
        k(   11) = (   0.0632637   0.0365253   0.0000000), wk =   0.1111111
        k(   12) = (   0.0632637   0.0730507   0.0000000), wk =   0.1111111
        k(   13) = (   0.0632637   0.1095760   0.0000000), wk =   0.1111111
        k(   14) = (   0.0632637  -0.0730507   0.0000000), wk =   0.1111111
        k(   15) = (   0.0632637  -0.0365253   0.0000000), wk =   0.1111111
        k(   16) = (   0.0632637   0.0000000   0.0000000), wk =   0.1111111
        k(   17) = (  -0.0948956  -0.0547880   0.0000000), wk =   0.0555556
        k(   18) = (  -0.0948956  -0.0182627   0.0000000), wk =   0.1111111
        k(   19) = (  -0.0948956   0.0182627   0.0000000), wk =   0.1111111
        k(   20) = (  -0.0948956  -0.1643640   0.0000000), wk =   0.0555556

     Largest allocated arrays     est. size (Mb)     dimensions
     Largest temporary arrays     est. size (Mb)     dimensions

     Initial potential from superposition of free atoms
     Check: negative starting charge=   -0.003458

     starting charge  200.99630, renormalised to  210.00000

[...]

     *
     * You are using vdW-DF for exchange-correlation in this calculation.
     * Please cite the following three references that made this development
     * possible:
     *
     *   M. Dion, H. Rydberg, E. Schroder, D. C. Langreth, and
     *   B. I. Lundqvist, Phys. Rev. Lett. 92, 246401 (2004).
     *
     *   T. Thonhauser, V. R. Cooper, S. Li, A. Puzder, P. Hyldgaard, and
     *   D. C. Langreth, Phys. Rev. B 76, 125112 (2007).
     *
     *   G. Roman-Perez and J. M. Soler, Phys. Rev. Lett. 103, 096102 (2009).
     *
     *
     * If you are using vdW-DF2, please also cite:
     *
     *   K. Lee, E. D. Murray, L. Kong, B. I. Lundqvist, and
     *   D. C. Langreth, Phys. Rev. B 82, 081101(R) (2010).
     *
     *
     * If you are calculating the stress with vdW-DF, please also cite:
     *
     *   R. Sabatini, E. Kucukbenli, B. Kolb, T. Thonhauser, and
     *   S. de Gironcoli, J. Phys.: Condens. Matter 24, 424209 (2012).
     *

     Carrying out vdW-DF run using the following parameters:

     Nqs =      20    Nr_points =    1024   r_max =   100.000
     q_mesh =
               0.00001000     0.04494208     0.09755937     0.15916263
               0.23128650     0.31572767     0.41458969     0.53033537
               0.66584808     0.82450364     1.01025438     1.22772762
               1.48234092     1.78043706     2.12944203     2.53805004
               3.01644009     3.57652955     4.23227104     5.00000000

     Gradients computed in reciprocal space

[...]

     Starting wfc are  147 randomized atomic wfcs

     Self-consistent Calculation

[...]

     total energy              =   -4081.43182367 Ry
     Harris-Foulkes estimate   =   -4081.43182229 Ry
     estimated scf accuracy    <       0.00000315 Ry

     iteration # 20     ecut=    36.75 Ry     beta=0.10
     Davidson diagonalization with overlap
     ethr =  1.50E-09,  avg # of iterations =  2.0

[...]

     negative rho (up, down):  4.258E-03 0.000E+00

     Adding external electric field

     Computed dipole along edir(3) :
        Dipole                0.0019 Ry au,          0.0048 Debye
        Dipole field          0.0000 Ry au

        Potential amp.       -0.0005 Ry
        Total length         44.7762 bohr

     End of self-consistent calculation

[...]

          k = 0.0633 0.0000 0.0000 ( 14837 PWs)   bands (ev):

[...]

          k =-0.0949-0.1644 0.0000 ( 14814 PWs)   bands (ev):

  -112.2207-112.2192-112.2178-112.0871-112.0856-112.0841-112.0545-112.0531
  -112.0516 -69.6528 -69.6465 -69.6423 -69.6320 -69.6261 -69.6199 -69.5702
   -69.5628 -69.5562 -69.5493 -69.5428 -69.5386 -69.5334 -69.5324 -69.5205
   -69.4744 -69.4639 -69.4541 -69.4368 -69.4256 -69.4147 -69.3914 -69.3858
   -69.3789 -69.3570 -69.3523 -69.3464 -64.0084 -63.9749 -63.9735 -37.8656
   -37.8541 -37.8437 -37.7848 -37.7846 -37.7579 -37.7565 -37.7559 -37.7545
    -5.5715  -5.4067  -4.0718  -3.9749  -3.5799  -3.4009  -3.3582  -3.3303
    -3.2967  -3.2437  -3.0976  -2.9496  -2.9402  -2.9175  -2.9109  -2.7824
    -2.7679  -2.7143  -2.7068  -2.6308  -2.4958  -2.4333  -2.3890  -2.3517
    -2.3289  -2.3043  -2.2810  -2.2775  -2.2339  -2.2269  -2.1960  -2.1960
    -2.1822  -2.0858  -2.0301  -2.0228  -1.9313  -1.9242  -1.9121  -1.8779
    -1.8507  -1.8059  -1.7472  -1.7065  -1.5367  -1.4946  -1.3460  -1.3340
    -1.2409  -1.2124  -0.5220  -0.3450   0.0306   0.2205   0.3437   0.4021
     0.5810   0.6331   0.6880   0.7354   0.7804   1.0229   1.2040   1.2665
     1.5207   1.7304   2.2219   2.4637   2.9151   3.2722   3.9019   3.9980
     4.6027   4.9035   5.9419   5.9721   6.4998   6.5164   6.8123   6.8177
     7.2690   7.4582   7.7226   7.8087   7.8260   8.1031   8.1043

     the Fermi energy is     0.6445 ev

!    total energy              =   -4081.43183024 Ry
     Harris-Foulkes estimate   =   -4081.43182404 Ry
     estimated scf accuracy    <       0.00000070 Ry

     The total energy is the sum of the following terms:

     one-electron contribution =  -30436.17557466 Ry
     hartree contribution      =   15224.08250200 Ry
     xc contribution           =    -420.68637719 Ry
     ewald contribution        =   11551.45814054 Ry
     electric field correction =       0.00000001 Ry
     smearing contrib. (-TS)   =      -0.11052094 Ry

     convergence has been achieved in  20 iterations

 BEEF-vdW xc energy contributions
           1 :   -371.440903021795
           2 :    336.314565963127
           3 :   -276.989948388546
           4 :    210.121189969545
           5 :   -150.815815768252
           6 :    107.134356097741
           7 :   -78.8279187586512
           8 :    60.2055451079029
           9 :   -44.8845289845910
          10 :    29.5359971273747
          11 :   -14.8082801754070
          12 :    3.52537392016109
          13 :    2.15633948558036
          14 :   -2.61528245706825
          15 :   0.573537055772931
          16 :   0.732668712378711
          17 :   0.425291411512944
          18 :   -3.45385129243084
          19 :    6.24498732707855
          20 :   -6.88611368989814
          21 :    5.02380633647419
          22 :   -2.00493993099286
          23 :  -0.172497182513951
          24 :   0.268380210608598
          25 :    1.42202171181793
          26 :   -3.40090961644137
          27 :    4.09370651552899
          28 :   -2.93827861011323
          29 :   0.696429443638067
          30 :    1.16438204570767
          31 :   -30.7714012676423
          32 :   -21.2173450879642

     Forces acting on atoms (Ry/au):

     negative rho (up, down):  4.258E-03 0.000E+00
     atom    1 type  1   force =    -0.00000070   -0.00289620    0.00798501
     atom    2 type  1   force =    -0.00250810    0.00144836    0.00798487
     atom    3 type  1   force =     0.00250802    0.00144844    0.00798533
     atom    4 type  2   force =     0.00000048    0.00000013    0.00296797
     atom    5 type  1   force =     0.00000162    0.00059738   -0.00652842
     atom    6 type  1   force =     0.00051677   -0.00029892   -0.00652994
     atom    7 type  1   force =    -0.00051631   -0.00029926   -0.00653013
     atom    8 type  2   force =     0.00000033    0.00000027   -0.00682533
     atom    9 type  1   force =    -0.00000049   -0.00058697   -0.00055400
     atom   10 type  1   force =    -0.00050981    0.00029231   -0.00055185
     atom   11 type  1   force =     0.00050827    0.00029501   -0.00055123
     atom   12 type  2   force =    -0.00000008   -0.00000055    0.00114774

     Total force =     0.020102     Total SCF correction =     0.006756
     SCF correction compared to forces is large: reduce conv_thr to get better values

     entering subroutine stress ...

     negative rho (up, down):  4.258E-03 0.000E+00
          total   stress  (Ry/bohr**3)                   (kbar)     P=  -17.79
  -0.00014314   0.00000000  -0.00000000        -21.06      0.00     -0.00
   0.00000000  -0.00014314  -0.00000000          0.00    -21.06     -0.00
  -0.00000000  -0.00000000  -0.00007655         -0.00     -0.00    -11.26

 !ASE

     Writing output data file calc.save

     General routines

     Parallel routines

   This run was terminated on:  20:49:57  25Dec2018

   JOB DONE.
Job  /afs/slac/g/suncat/bin/suncat-tsmpirun -x LD_LIBRARY_PATH -wdir /scratch/qe109602_xyMDJ pw.x -in pw.inp

TID   HOST_NAME   COMMAND_LINE            STATUS            TERMINATION_TIME
00000 suncat0266 pw.x -in pw.inp   Done                     12/25/2018 20:49:57
00001 suncat0266 pw.x -in pw.inp   Done                     12/25/2018 20:49:57
00002 suncat0266 pw.x -in pw.inp   Done                     12/25/2018 20:49:57
00003 suncat0266 pw.x -in pw.inp   Done                     12/25/2018 20:49:57
00004 suncat0266 pw.x -in pw.inp   Done                     12/25/2018 20:49:57
00005 suncat0266 pw.x -in pw.inp   Done                     12/25/2018 20:49:57
00006 suncat0266 pw.x -in pw.inp   Done                     12/25/2018 20:49:57
00007 suncat0266 pw.x -in pw.inp   Done                     12/25/2018 20:49:57
00008 suncat0264 pw.x -in pw.inp   Done                     12/25/2018 20:49:57
00009 suncat0264 pw.x -in pw.inp   Done                     12/25/2018 20:49:57
00010 suncat0264 pw.x -in pw.inp   Done                     12/25/2018 20:49:57
00011 suncat0264 pw.x -in pw.inp   Done                     12/25/2018 20:49:57
00012 suncat0264 pw.x -in pw.inp   Done                     12/25/2018 20:49:57
00013 suncat0264 pw.x -in pw.inp   Done                     12/25/2018 20:49:57
00014 suncat0264 pw.x -in pw.inp   Done                     12/25/2018 20:49:57
00015 suncat0264 pw.x -in pw.inp   Done                     12/25/2018 20:49:57
00016 suncat0256 pw.x -in pw.inp   Done                     12/25/2018 20:49:57
00017 suncat0256 pw.x -in pw.inp   Done                     12/25/2018 20:49:57
00018 suncat0256 pw.x -in pw.inp   Done                     12/25/2018 20:49:57
00019 suncat0256 pw.x -in pw.inp   Done                     12/25/2018 20:49:57
00020 suncat0256 pw.x -in pw.inp   Done                     12/25/2018 20:49:57
00021 suncat0256 pw.x -in pw.inp   Done                     12/25/2018 20:49:57
00022 suncat0256 pw.x -in pw.inp   Done                     12/25/2018 20:49:57
00023 suncat0256 pw.x -in pw.inp   Done                     12/25/2018 20:49:57
00024 suncat0255 pw.x -in pw.inp   Done                     12/25/2018 20:49:57
00025 suncat0255 pw.x -in pw.inp   Done                     12/25/2018 20:49:57
00026 suncat0255 pw.x -in pw.inp   Done                     12/25/2018 20:49:57
00027 suncat0255 pw.x -in pw.inp   Done                     12/25/2018 20:49:57
00028 suncat0255 pw.x -in pw.inp   Done                     12/25/2018 20:49:57
00029 suncat0255 pw.x -in pw.inp   Done                     12/25/2018 20:49:57
00030 suncat0255 pw.x -in pw.inp   Done                     12/25/2018 20:49:57
00031 suncat0255 pw.x -in pw.inp   Done                     12/25/2018 20:49:57
00032 suncat0234 pw.x -in pw.inp   Done                     12/25/2018 20:49:57
00033 suncat0234 pw.x -in pw.inp   Done                     12/25/2018 20:49:57
00034 suncat0234 pw.x -in pw.inp   Done                     12/25/2018 20:49:57
00035 suncat0234 pw.x -in pw.inp   Done                     12/25/2018 20:49:57
00036 suncat0234 pw.x -in pw.inp   Done                     12/25/2018 20:49:57
00037 suncat0234 pw.x -in pw.inp   Done                     12/25/2018 20:49:57
00038 suncat0234 pw.x -in pw.inp   Done                     12/25/2018 20:49:57
00039 suncat0234 pw.x -in pw.inp   Done                     12/25/2018 20:49:57
00040 suncat0233 pw.x -in pw.inp   Done                     12/25/2018 20:49:57
00041 suncat0233 pw.x -in pw.inp   Done                     12/25/2018 20:49:57
00042 suncat0233 pw.x -in pw.inp   Done                     12/25/2018 20:49:57
00043 suncat0233 pw.x -in pw.inp   Done                     12/25/2018 20:49:57
00044 suncat0233 pw.x -in pw.inp   Done                     12/25/2018 20:49:57
00045 suncat0233 pw.x -in pw.inp   Done                     12/25/2018 20:49:57
00046 suncat0233 pw.x -in pw.inp   Done                     12/25/2018 20:49:57
00047 suncat0233 pw.x -in pw.inp   Done                     12/25/2018 20:49:57
00048 suncat0222 pw.x -in pw.inp   Done                     12/25/2018 20:49:57
00049 suncat0222 pw.x -in pw.inp   Done                     12/25/2018 20:49:57
00050 suncat0222 pw.x -in pw.inp   Done                     12/25/2018 20:49:57
00051 suncat0222 pw.x -in pw.inp   Done                     12/25/2018 20:49:57
00052 suncat0222 pw.x -in pw.inp   Done                     12/25/2018 20:49:57
00053 suncat0222 pw.x -in pw.inp   Done                     12/25/2018 20:49:57
00054 suncat0222 pw.x -in pw.inp   Done                     12/25/2018 20:49:57
00055 suncat0222 pw.x -in pw.inp   Done                     12/25/2018 20:49:57
00056 suncat0221 pw.x -in pw.inp   Done                     12/25/2018 20:49:57
00057 suncat0221 pw.x -in pw.inp   Done                     12/25/2018 20:49:57
00058 suncat0221 pw.x -in pw.inp   Done                     12/25/2018 20:49:57
00059 suncat0221 pw.x -in pw.inp   Done                     12/25/2018 20:49:57
00060 suncat0221 pw.x -in pw.inp   Done                     12/25/2018 20:49:57
00061 suncat0221 pw.x -in pw.inp   Done                     12/25/2018 20:49:57
00062 suncat0221 pw.x -in pw.inp   Done                     12/25/2018 20:49:57
00063 suncat0221 pw.x -in pw.inp   Done                     12/25/2018 20:49:57