     Program PWSCF v.5.1rc2 (svn rev. 11289) starts on 25Dec2018 at  4:17:34

     Current dimensions of program PWSCF are:
     Max number of different atomic species (ntypx) = 10
     Max number of k-points (npk) =  40000
     Max angular momentum in pseudopotentials (lmaxx) =  3
     Presently stress not available with electric field

     IMPORTANT: XC functional enforced from input :
     Exchange-correlation      = BEEF-VDW ( 1  4 27 13 2)
     Any further DFT definition will be discarded
     Please, verify this is what you really want

     Subspace diagonalization in iterative solution of the eigenvalue problem:
     a serial algorithm will be used

     Found symmetry operation: I + ( -0.5000  0.0000  0.0000)
     This is a supercell, fractional translations are disabled

     bravais-lattice index     =            0
     lattice parameter (alat)  =       1.8897  a.u.
     unit-cell volume          =    5685.7328 (a.u.)^3
     number of atoms/cell      =           12
     number of atomic types    =            2
     number of electrons       =       150.00
     number of Kohn-Sham states=          105
     kinetic-energy cutoff     =      36.7493  Ry
     charge density cutoff     =     367.4932  Ry
     convergence threshold     =      1.0E-06
     mixing beta               =       0.1000
     number of iterations used =           10  plain     mixing
     Exchange-correlation      = BEEF-VDW ( 1  4 27 13 2)
     nstep                     =           50

     celldm(1)=   1.889726  celldm(2)=   0.000000  celldm(3)=   0.000000
     celldm(4)=   0.000000  celldm(5)=   0.000000  celldm(6)=   0.000000

     crystal axes: (cart. coord. in units of alat)
               a(1) = (   5.841236   0.000000   0.000000 )
               a(2) = (  -2.920618   5.761501   0.000000 )
               a(3) = (   0.000000   0.000000  25.035106 )

     reciprocal axes: (cart. coord. in units 2 pi/alat)
               b(1) = (  0.171197  0.086783  0.000000 )
               b(2) = (  0.000000  0.173566  0.000000 )
               b(3) = (  0.000000  0.000000  0.039944 )

     PseudoPot. # 1 for Y  read from file:
     /afs/slac.stanford.edu/u/if/mamunm/psp/gbrv1.5pbe/Y.UPF
     MD5 check sum: d034151ed7554c50b6e82763ed42c788
     Pseudo is Ultrasoft + core correction, Zval = 11.0
     Generated by new atomic code, or converted to UPF format
     Using radial grid of  885 points,  6 beta functions with:
                l(1) =   0
                l(2) =   0
                l(3) =   1
                l(4) =   1
                l(5) =   2
                l(6) =   2
     Q(r) pseudized with  8 coefficients,  rinner =    1.200   1.200   1.200
                                                       1.200   1.200

     PseudoPot. # 2 for W  read from file:
     /afs/slac.stanford.edu/u/if/mamunm/psp/gbrv1.5pbe/W.UPF
     MD5 check sum: 9c083fa34c2a2ea0f02f1f893e16e1c8
     Pseudo is Ultrasoft + core correction, Zval = 14.0
     Generated by new atomic code, or converted to UPF format
     Using radial grid of  923 points,  8 beta functions with:
                l(1) =   0
                l(2) =   0
                l(3) =   0
                l(4) =   1
                l(5) =   1
                l(6) =   2
                l(7) =   2
                l(8) =   3
     Q(r) pseudized with  6 coefficients,  rinner =    1.350   1.350   1.350
                                                       1.350   1.350   1.350
                                                       1.350

     vdW kernel table read from file vdW_kernel_table
     MD5 check sum: 095c7af220d748ca6e76c0b4c6cfb241

     atomic species   valence    mass     pseudopotential
        Y1            11.00    88.90584     Y ( 1.00)
        W1            14.00   183.84000     W ( 1.00)

     No symmetry found

   Cartesian axes

     site n.     atom                  positions (alat units)
         1           Y1  tau(   1) = (   0.0000000   0.0000000  10.0000000  )
         2           Y1  tau(   2) = (   2.9206181   0.0000000  10.0000000  )
         3           W1  tau(   3) = (   1.4603090   2.8807505  10.0000000  )
         4           W1  tau(   4) = (  -1.4603090   2.8807505  10.0000000  )
         5           Y1  tau(   5) = (   2.9206181   1.4805187  12.5175532  )
         6           Y1  tau(   6) = (   0.0000000   1.4805187  12.5175532  )
         7           W1  tau(   7) = (  -1.4603090   4.3612692  12.5175532  )
         8           W1  tau(   8) = (   1.4603090   4.3612692  12.5175532  )
         9           Y1  tau(   9) = (  -0.0000000   2.9610375  15.0351065  )
        10           Y1  tau(  10) = (   2.9206181   2.9610375  15.0351065  )
        11           W1  tau(  11) = (   4.3809271   0.0802870  15.0351065  )
        12           W1  tau(  12) = (   1.4603090   0.0802870  15.0351065  )

     number of k points=    20  Fermi-Dirac smearing, width (Ry)=  0.0110
                       cart. coord. in units 2pi/alat
        k(    1) = (   0.0000000   0.0000000   0.0000000), wk =   0.0555556
        k(    2) = (   0.0000000   0.0289276   0.0000000), wk =   0.1111111
        k(    3) = (   0.0000000   0.0578553   0.0000000), wk =   0.1111111
        k(    4) = (   0.0000000  -0.0867829   0.0000000), wk =   0.0555556
        k(    5) = (   0.0285328   0.0144638   0.0000000), wk =   0.1111111
        k(    6) = (   0.0285328   0.0433915   0.0000000), wk =   0.1111111
        k(    7) = (   0.0285328   0.0723191   0.0000000), wk =   0.1111111
        k(    8) = (   0.0285328  -0.0723191   0.0000000), wk =   0.1111111
        k(    9) = (   0.0285328  -0.0433915   0.0000000), wk =   0.1111111
        k(   10) = (   0.0285328  -0.0144638   0.0000000), wk =   0.1111111
        k(   11) = (   0.0570655   0.0289276   0.0000000), wk =   0.1111111
        k(   12) = (   0.0570655   0.0578553   0.0000000), wk =   0.1111111
        k(   13) = (   0.0570655   0.0867829   0.0000000), wk =   0.1111111
        k(   14) = (   0.0570655  -0.0578553   0.0000000), wk =   0.1111111
        k(   15) = (   0.0570655  -0.0289276   0.0000000), wk =   0.1111111
        k(   16) = (   0.0570655   0.0000000   0.0000000), wk =   0.1111111
        k(   17) = (  -0.0855983  -0.0433915   0.0000000), wk =   0.0555556
        k(   18) = (  -0.0855983  -0.0144638   0.0000000), wk =   0.1111111
        k(   19) = (  -0.0855983   0.0144638   0.0000000), wk =   0.1111111
        k(   20) = (  -0.0855983  -0.1301744   0.0000000), wk =   0.0555556

     Largest allocated arrays     est. size (Mb)     dimensions
     Largest temporary arrays     est. size (Mb)     dimensions

     Initial potential from superposition of free atoms
     Check: negative starting charge=   -0.376571

     starting charge  149.37115, renormalised to  150.00000

     negative rho (up, down):  3.782E-01 0.000E+00

     *
     * You are using vdW-DF for exchange-correlation in this calculation.
     * Please cite the following three references that made this development
     * possible:
     *
     *   M. Dion, H. Rydberg, E. Schroder, D. C. Langreth, and
     *   B. I. Lundqvist, Phys. Rev. Lett. 92, 246401 (2004).
     *
     *   T. Thonhauser, V. R. Cooper, S. Li, A. Puzder, P. Hyldgaard, and
     *   D. C. Langreth, Phys. Rev. B 76, 125112 (2007).
     *
     *   G. Roman-Perez and J. M. Soler, Phys. Rev. Lett. 103, 096102 (2009).
     *
     *
     * If you are using vdW-DF2, please also cite:
     *
     *   K. Lee, E. D. Murray, L. Kong, B. I. Lundqvist, and
     *   D. C. Langreth, Phys. Rev. B 82, 081101(R) (2010).
     *
     *
     * If you are calculating the stress with vdW-DF, please also cite:
     *
     *   R. Sabatini, E. Kucukbenli, B. Kolb, T. Thonhauser, and
     *   S. de Gironcoli, J. Phys.: Condens. Matter 24, 424209 (2012).
     *

     Carrying out vdW-DF run using the following parameters:

     Nqs =      20    Nr_points =    1024   r_max =   100.000
     q_mesh =
               0.00001000     0.04494208     0.09755937     0.15916263
               0.23128650     0.31572767     0.41458969     0.53033537
               0.66584808     0.82450364     1.01025438     1.22772762
               1.48234092     1.78043706     2.12944203     2.53805004
               3.01644009     3.57652955     4.23227104     5.00000000

     Gradients computed in reciprocal space

     Adding external electric field

     Computed dipole along edir(3) :
        Dipole                0.0000 Ry au,          0.0000 Debye
        Dipole field          0.0000 Ry au

        Potential amp.       -0.0000 Ry
        Total length         46.1268 bohr

     Starting wfc are  156 randomized atomic wfcs

     Self-consistent Calculation

     iteration #  1     ecut=    36.75 Ry     beta=0.10
     Davidson diagonalization with overlap
     ethr =  1.00E-02,  avg # of iterations =  2.0

[...]

     total energy              =   -1523.58198934 Ry
     Harris-Foulkes estimate   =   -1524.55702623 Ry
     estimated scf accuracy    <       5.53309530 Ry

[...]

     End of self-consistent calculation

          k = 0.0000 0.0000 0.0000 ( 21397 PWs)   bands (ev):

   -72.6034 -72.5790 -72.4466 -72.4461 -72.4223 -72.4219 -41.0287 -41.0174
   -40.8094 -40.7986 -40.5388 -40.3194 -36.8573 -36.7717 -36.7212 -36.6655
   -36.6642 -36.6085 -36.5603 -36.5435 -36.4983 -36.4921 -36.4896 -36.4439
   -36.4418 -36.4273 -36.4075 -36.3854 -36.2172 -36.2159 -21.8941 -21.8792
   -21.5254 -21.4171 -21.2718 -21.1109 -20.8896 -20.8696 -20.8558 -20.6490
   -20.6320 -20.3782 -20.2965 -20.2645 -20.2582 -20.1495 -20.1106 -19.7956
    -4.3419  -3.0325  -2.3519  -1.7990  -1.4159  -1.3766  -1.2627  -1.0405
    -1.0113  -0.8208  -0.6423  -0.6002  -0.5893  -0.5623  -0.4822   0.1530
     0.4925   0.5091   0.6298   0.8999   0.9853   1.6029   1.6250   1.8045
     1.8522   1.9299   2.1935   2.1941   2.4382   2.7348   2.8696   2.8755
     2.8909   2.9114   3.1127   3.1133   3.1378   3.1791   3.3681   3.4609
     3.4978   3.6457   3.8345   3.9588   4.1821   4.2999   4.3960   4.7005
     4.7361   4.7374   5.0062   5.0850   5.1763   5.5102   5.6710   5.7968
     6.2253

[...]

          k =-0.0856-0.0434 0.0000 ( 21410 PWs)   bands (ev):

[...]

     the Fermi energy is     1.7506 ev

!    total energy              =   -1524.08712749 Ry
     Harris-Foulkes estimate   =   -1524.08712613 Ry
     estimated scf accuracy    <       0.00000076 Ry

     The total energy is the sum of the following terms:

     one-electron contribution =   -9579.36528209 Ry
     hartree contribution      =    4778.41452468 Ry
     xc contribution           =    -424.89382824 Ry
     ewald contribution        =    3701.85345204 Ry
     electric field correction =       0.00000000 Ry
     smearing contrib. (-TS)   =      -0.09599389 Ry

     convergence has been achieved in  16 iterations

 BEEF-vdW xc energy contributions
           1 :   -372.689567416033
           2 :    340.884315638019
           3 :   -285.146130281434
           4 :    218.076520066686
           5 :   -152.508401582028
           6 :    97.7306785869940
           7 :   -57.7768497210425
           8 :    31.9579935969036
           9 :   -16.8552471064539
          10 :    8.57637164969628
[...]
     /afs/slac.stanford.edu/u/if/mamunm/psp/gbrv1.5pbe/Y.UPF
     MD5 check sum: d034151ed7554c50b6e82763ed42c788
     Pseudo is Ultrasoft + core correction, Zval = 11.0
     Generated by new atomic code, or converted to UPF format
     Using radial grid of  885 points,  6 beta functions with:
                l(1) =   0
                l(2) =   0
                l(3) =   1
                l(4) =   1
                l(5) =   2
                l(6) =   2
     Q(r) pseudized with  8 coefficients,  rinner =    1.200   1.200   1.200
                                                       1.200   1.200

     PseudoPot. # 2 for W  read from file:
     /afs/slac.stanford.edu/u/if/mamunm/psp/gbrv1.5pbe/W.UPF
     MD5 check sum: 9c083fa34c2a2ea0f02f1f893e16e1c8
     Pseudo is Ultrasoft + core correction, Zval = 14.0
     Generated by new atomic code, or converted to UPF format
     Using radial grid of  923 points,  8 beta functions with:
                l(1) =   0
                l(2) =   0
                l(3) =   0
                l(4) =   1
                l(5) =   1
                l(6) =   2
                l(7) =   2
                l(8) =   3
     Q(r) pseudized with  6 coefficients,  rinner =    1.350   1.350   1.350
                                                       1.350   1.350   1.350
                                                       1.350

     vdW kernel table read from file vdW_kernel_table
     MD5 check sum: 095c7af220d748ca6e76c0b4c6cfb241

     atomic species   valence    mass     pseudopotential
        Y1            11.00    88.90584     Y ( 1.00)
        W1            14.00   183.84000     W ( 1.00)

     No symmetry found

   Cartesian axes

     site n.     atom                  positions (alat units)
         1           Y1  tau(   1) = (   0.0000000   0.0000000  10.0000000  )
         2           Y1  tau(   2) = (   2.9206181   0.0000000  10.0000000  )
         3           W1  tau(   3) = (   1.4603090   2.8807505  10.0000000  )
         4           W1  tau(   4) = (  -1.4603090   2.8807505  10.0000000  )
         5           Y1  tau(   5) = (   2.9206181   1.4805187  12.5175532  )
         6           Y1  tau(   6) = (   0.0000000   1.4805187  12.5175532  )
         7           W1  tau(   7) = (  -1.4603090   4.3612692  12.5175532  )
         8           W1  tau(   8) = (   1.4603090   4.3612692  12.5175532  )
         9           Y1  tau(   9) = (  -0.0000389   3.0928816  15.2566436  )
        10           Y1  tau(  10) = (   2.9205919   3.0928811  15.2566522  )
        11           W1  tau(  11) = (   1.4603600   5.7096389  14.6999432  )
        12           W1  tau(  12) = (  -1.4602365   5.7096329  14.6999204  )

     number of k points=    20  Fermi-Dirac smearing, width (Ry)=  0.0110
                       cart. coord. in units 2pi/alat
        k(    1) = (   0.0000000   0.0000000   0.0000000), wk =   0.0555556
        k(    2) = (   0.0000000   0.0289276   0.0000000), wk =   0.1111111
        k(    3) = (   0.0000000   0.0578553   0.0000000), wk =   0.1111111
        k(    4) = (   0.0000000  -0.0867829   0.0000000), wk =   0.0555556
        k(    5) = (   0.0285328   0.0144638   0.0000000), wk =   0.1111111
        k(    6) = (   0.0285328   0.0433915   0.0000000), wk =   0.1111111
        k(    7) = (   0.0285328   0.0723191   0.0000000), wk =   0.1111111
        k(    8) = (   0.0285328  -0.0723191   0.0000000), wk =   0.1111111
        k(    9) = (   0.0285328  -0.0433915   0.0000000), wk =   0.1111111
        k(   10) = (   0.0285328  -0.0144638   0.0000000), wk =   0.1111111
        k(   11) = (   0.0570655   0.0289276   0.0000000), wk =   0.1111111
        k(   12) = (   0.0570655   0.0578553   0.0000000), wk =   0.1111111
        k(   13) = (   0.0570655   0.0867829   0.0000000), wk =   0.1111111
        k(   14) = (   0.0570655  -0.0578553   0.0000000), wk =   0.1111111
        k(   15) = (   0.0570655  -0.0289276   0.0000000), wk =   0.1111111
        k(   16) = (   0.0570655   0.0000000   0.0000000), wk =   0.1111111
        k(   17) = (  -0.0855983  -0.0433915   0.0000000), wk =   0.0555556
        k(   18) = (  -0.0855983  -0.0144638   0.0000000), wk =   0.1111111
        k(   19) = (  -0.0855983   0.0144638   0.0000000), wk =   0.1111111
        k(   20) = (  -0.0855983  -0.1301744   0.0000000), wk =   0.0555556

     Largest allocated arrays     est. size (Mb)     dimensions
     Largest temporary arrays     est. size (Mb)     dimensions

     Initial potential from superposition of free atoms
     Check: negative starting charge=   -0.375010

     starting charge  149.37115, renormalised to  150.00000

[...]

     *
     * You are using vdW-DF for exchange-correlation in this calculation.
     * Please cite the following three references that made this development
     * possible:
     *
     *   M. Dion, H. Rydberg, E. Schroder, D. C. Langreth, and
     *   B. I. Lundqvist, Phys. Rev. Lett. 92, 246401 (2004).
     *
     *   T. Thonhauser, V. R. Cooper, S. Li, A. Puzder, P. Hyldgaard, and
     *   D. C. Langreth, Phys. Rev. B 76, 125112 (2007).
     *
     *   G. Roman-Perez and J. M. Soler, Phys. Rev. Lett. 103, 096102 (2009).
     *
     *
     * If you are using vdW-DF2, please also cite:
     *
     *   K. Lee, E. D. Murray, L. Kong, B. I. Lundqvist, and
     *   D. C. Langreth, Phys. Rev. B 82, 081101(R) (2010).
     *
     *
     * If you are calculating the stress with vdW-DF, please also cite:
     *
     *   R. Sabatini, E. Kucukbenli, B. Kolb, T. Thonhauser, and
     *   S. de Gironcoli, J. Phys.: Condens. Matter 24, 424209 (2012).
     *

     Carrying out vdW-DF run using the following parameters:

     Nqs =      20    Nr_points =    1024   r_max =   100.000
     q_mesh =
               0.00001000     0.04494208     0.09755937     0.15916263
               0.23128650     0.31572767     0.41458969     0.53033537
               0.66584808     0.82450364     1.01025438     1.22772762
               1.48234092     1.78043706     2.12944203     2.53805004
               3.01644009     3.57652955     4.23227104     5.00000000

     Gradients computed in reciprocal space

[...]

     Starting wfc are  156 randomized atomic wfcs

     Self-consistent Calculation

[...]

     total energy              =   -1524.17537208 Ry
     Harris-Foulkes estimate   =   -1524.17537218 Ry
     estimated scf accuracy    <       0.00000144 Ry

     iteration # 17     ecut=    36.75 Ry     beta=0.10
     Davidson diagonalization with overlap
     ethr =  9.63E-10,  avg # of iterations =  3.1

[...]

     negative rho (up, down):  3.885E-01 0.000E+00

     Adding external electric field

     Computed dipole along edir(3) :
        Dipole                0.2580 Ry au,          0.6558 Debye
        Dipole field          0.0006 Ry au

        Potential amp.       -0.0526 Ry
        Total length         46.1268 bohr

     End of self-consistent calculation

[...]

          k = 0.0571 0.0000 0.0000 ( 21359 PWs)   bands (ev):

[...]

          k =-0.0856-0.1302 0.0000 ( 21410 PWs)   bands (ev):

   -72.2264 -72.2264 -72.1844 -72.1842 -71.9772 -71.9771 -40.8120 -40.8120
   -40.6708 -40.6708 -40.0994 -40.0994 -36.6128 -36.6128 -36.3106 -36.3106
   -36.2721 -36.2719 -36.2445 -36.2445 -36.2017 -36.2015 -36.1969 -36.1967
   -36.0558 -36.0557 -36.0361 -36.0361 -35.8117 -35.8116 -21.0354 -21.0354
   -20.9704 -20.9704 -20.8777 -20.8777 -20.8444 -20.8444 -20.6833 -20.6833
   -20.5108 -20.5108 -20.3463 -20.3463 -19.9937 -19.9937 -19.9677 -19.9677
    -2.5392  -2.5392  -1.2995  -1.2995  -0.5316  -0.5315  -0.3471  -0.3471
    -0.1727  -0.1727   0.0795   0.0795   0.4991   0.4991   0.5749   0.5749
     0.8877   0.8878   1.1078   1.1079   1.2934   1.2935   1.4165   1.4166
     1.5503   1.5504   1.7002   1.7002   2.0813   2.0813   2.2655   2.2655
     2.5478   2.5478   2.6735   2.6735   3.0452   3.0452   3.4665   3.4666
     3.8229   3.8229   3.9889   3.9889   4.2388   4.2388   4.4357   4.4357
     4.7471   4.7472   4.9088   4.9089   5.0865   5.0865   5.5061   5.5061
     5.8105

     the Fermi energy is     2.0036 ev

!    total energy              =   -1524.17537308 Ry
     Harris-Foulkes estimate   =   -1524.17536938 Ry
     estimated scf accuracy    <       0.00000076 Ry

     The total energy is the sum of the following terms:

     one-electron contribution =   -9701.04179281 Ry
     hartree contribution      =    4840.70159776 Ry
     xc contribution           =    -425.14259808 Ry
     ewald contribution        =    3761.39770705 Ry
     electric field correction =       0.00014715 Ry
     smearing contrib. (-TS)   =      -0.09043416 Ry

     convergence has been achieved in  17 iterations

 BEEF-vdW xc energy contributions
           1 :   -372.943826672060
           2 :    341.210512664381
           3 :   -285.567045435768
           4 :    218.535836516747
           5 :   -152.874939202622
           6 :    97.8533248732468
           7 :   -57.5759393422018
           8 :    31.4905217939958
           9 :   -16.2967015378478
          10 :    8.12551794042901
          11 :   -4.04892967757314
          12 :    2.49316810877508
          13 :   -2.74375980221487
          14 :    4.15302945039491
          15 :   -5.68707296030954
          16 :    6.08042244461217
          17 :   -4.39740516187180
          18 :   0.546858302723706
          19 :    4.61022303874927
          20 :   -9.62656869270631
          21 :    13.0951339035106
          22 :   -14.2112430818474
          23 :    13.0136580124567
          24 :   -10.2392959024043
          25 :    6.92425097035397
          26 :   -3.98399248718965
          27 :    1.95891800313206
          28 :  -0.978056432333460
          29 :   0.873505137782104
          30 :   -1.33943517483272
          31 :   -34.4433479228987
          32 :   -24.8562828207773

     Forces acting on atoms (Ry/au):

     negative rho (up, down):  3.885E-01 0.000E+00
     atom    1 type  1   force =     0.00000778   -0.02597561   -0.04128758
     atom    2 type  1   force =     0.00000714   -0.02597512   -0.04128840
     atom    3 type  2   force =     0.00000644    0.02048416    0.05951547
     atom    4 type  2   force =     0.00000736    0.02048633    0.05951871
     atom    5 type  1   force =    -0.00002153    0.02295533   -0.00212276
     atom    6 type  1   force =     0.00000148    0.02295217   -0.00212420
     atom    7 type  2   force =    -0.00000456   -0.01632551   -0.01793832
     atom    8 type  2   force =    -0.00000038   -0.01633648   -0.01794731
     atom    9 type  1   force =    -0.00000226   -0.00067742    0.00068901
     atom   10 type  1   force =    -0.00000936   -0.00067839    0.00068952
     atom   11 type  2   force =     0.00000343   -0.00045648    0.00114114
     atom   12 type  2   force =     0.00000446   -0.00045298    0.00115472

     Total force =     0.122179     Total SCF correction =     0.002359

     entering subroutine stress ...

     negative rho (up, down):  3.885E-01 0.000E+00
          total   stress  (Ry/bohr**3)                   (kbar)     P=  -13.42
  -0.00007331  -0.00000000   0.00000000        -10.78     -0.00      0.00
  -0.00000000  -0.00013814   0.00000746         -0.00    -20.32      1.10
   0.00000000   0.00000746  -0.00006221          0.00      1.10     -9.15

 !ASE

     Writing output data file calc.save

     General routines

     Parallel routines

   This run was terminated on:   6:38: 3  25Dec2018

   JOB DONE.
Job  /afs/slac/g/suncat/bin/suncat-tsmpirun -x LD_LIBRARY_PATH -wdir /scratch/qe109199_13gZ7 pw.x -in pw.inp

TID   HOST_NAME   COMMAND_LINE            STATUS            TERMINATION_TIME
00000 suncat0086 pw.x -in pw.inp   Done                     12/25/2018 06:38:03
00001 suncat0086 pw.x -in pw.inp   Done                     12/25/2018 06:38:03
00002 suncat0086 pw.x -in pw.inp   Done                     12/25/2018 06:38:03
00003 suncat0086 pw.x -in pw.inp   Done                     12/25/2018 06:38:03
00004 suncat0086 pw.x -in pw.inp   Done                     12/25/2018 06:38:03
00005 suncat0086 pw.x -in pw.inp   Done                     12/25/2018 06:38:03
00006 suncat0086 pw.x -in pw.inp   Done                     12/25/2018 06:38:03
00007 suncat0086 pw.x -in pw.inp   Done                     12/25/2018 06:38:03
00008 suncat0085 pw.x -in pw.inp   Done                     12/25/2018 06:38:03
00009 suncat0085 pw.x -in pw.inp   Done                     12/25/2018 06:38:03
00010 suncat0085 pw.x -in pw.inp   Done                     12/25/2018 06:38:03
00011 suncat0085 pw.x -in pw.inp   Done                     12/25/2018 06:38:03
00012 suncat0085 pw.x -in pw.inp   Done                     12/25/2018 06:38:03
00013 suncat0085 pw.x -in pw.inp   Done                     12/25/2018 06:38:03
00014 suncat0085 pw.x -in pw.inp   Done                     12/25/2018 06:38:03
00015 suncat0085 pw.x -in pw.inp   Done                     12/25/2018 06:38:03
00016 suncat0076 pw.x -in pw.inp   Done                     12/25/2018 06:38:03
00017 suncat0076 pw.x -in pw.inp   Done                     12/25/2018 06:38:03
00018 suncat0076 pw.x -in pw.inp   Done                     12/25/2018 06:38:03
00019 suncat0076 pw.x -in pw.inp   Done                     12/25/2018 06:38:03
00020 suncat0076 pw.x -in pw.inp   Done                     12/25/2018 06:38:03
00021 suncat0076 pw.x -in pw.inp   Done                     12/25/2018 06:38:03
00022 suncat0076 pw.x -in pw.inp   Done                     12/25/2018 06:38:03
00023 suncat0076 pw.x -in pw.inp   Done                     12/25/2018 06:38:03
00024 suncat0064 pw.x -in pw.inp   Done                     12/25/2018 06:38:03
00025 suncat0064 pw.x -in pw.inp   Done                     12/25/2018 06:38:03
00026 suncat0064 pw.x -in pw.inp   Done                     12/25/2018 06:38:03
00027 suncat0064 pw.x -in pw.inp   Done                     12/25/2018 06:38:03
00028 suncat0064 pw.x -in pw.inp   Done                     12/25/2018 06:38:03
00029 suncat0064 pw.x -in pw.inp   Done                     12/25/2018 06:38:03
00030 suncat0064 pw.x -in pw.inp   Done                     12/25/2018 06:38:03
00031 suncat0064 pw.x -in pw.inp   Done                     12/25/2018 06:38:03
00032 suncat0063 pw.x -in pw.inp   Done                     12/25/2018 06:38:03
00033 suncat0063 pw.x -in pw.inp   Done                     12/25/2018 06:38:03
00034 suncat0063 pw.x -in pw.inp   Done                     12/25/2018 06:38:03
00035 suncat0063 pw.x -in pw.inp   Done                     12/25/2018 06:38:03
00036 suncat0063 pw.x -in pw.inp   Done                     12/25/2018 06:38:03
00037 suncat0063 pw.x -in pw.inp   Done                     12/25/2018 06:38:03
00038 suncat0063 pw.x -in pw.inp   Done                     12/25/2018 06:38:03
00039 suncat0063 pw.x -in pw.inp   Done                     12/25/2018 06:38:03
00040 suncat0051 pw.x -in pw.inp   Done                     12/25/2018 06:38:03
00041 suncat0051 pw.x -in pw.inp   Done                     12/25/2018 06:38:03
00042 suncat0051 pw.x -in pw.inp   Done                     12/25/2018 06:38:03
00043 suncat0051 pw.x -in pw.inp   Done                     12/25/2018 06:38:03
00044 suncat0051 pw.x -in pw.inp   Done                     12/25/2018 06:38:03
00045 suncat0051 pw.x -in pw.inp   Done                     12/25/2018 06:38:03
00046 suncat0051 pw.x -in pw.inp   Done                     12/25/2018 06:38:03
00047 suncat0051 pw.x -in pw.inp   Done                     12/25/2018 06:38:03
00048 suncat0117 pw.x -in pw.inp   Done                     12/25/2018 06:38:03
00049 suncat0117 pw.x -in pw.inp   Done                     12/25/2018 06:38:03
00050 suncat0117 pw.x -in pw.inp   Done                     12/25/2018 06:38:03
00051 suncat0117 pw.x -in pw.inp   Done                     12/25/2018 06:38:03
00052 suncat0117 pw.x -in pw.inp   Done                     12/25/2018 06:38:03
00053 suncat0117 pw.x -in pw.inp   Done                     12/25/2018 06:38:03
00054 suncat0117 pw.x -in pw.inp   Done                     12/25/2018 06:38:03
00055 suncat0117 pw.x -in pw.inp   Done                     12/25/2018 06:38:03
00056 suncat0116 pw.x -in pw.inp   Done                     12/25/2018 06:38:03
00057 suncat0116 pw.x -in pw.inp   Done                     12/25/2018 06:38:03
00058 suncat0116 pw.x -in pw.inp   Done                     12/25/2018 06:38:03
00059 suncat0116 pw.x -in pw.inp   Done                     12/25/2018 06:38:03
00060 suncat0116 pw.x -in pw.inp   Done                     12/25/2018 06:38:03
00061 suncat0116 pw.x -in pw.inp   Done                     12/25/2018 06:38:03
00062 suncat0116 pw.x -in pw.inp   Done                     12/25/2018 06:38:03
00063 suncat0116 pw.x -in pw.inp   Done                     12/25/2018 06:38:03