     Program PWSCF v.5.1rc2 (svn rev. 11289) starts on  2Jan2019 at 13: 5: 2

     Current dimensions of program PWSCF are:
     Max number of different atomic species (ntypx) = 10
     Max number of k-points (npk) =  40000
     Max angular momentum in pseudopotentials (lmaxx) =  3
     Presently stress not available with electric field

     IMPORTANT: XC functional enforced from input :
     Exchange-correlation      = BEEF-VDW ( 1  4 27 13 2)
     Any further DFT definition will be discarded
     Please, verify this is what you really want

     Subspace diagonalization in iterative solution of the eigenvalue problem:
     a serial algorithm will be used

     bravais-lattice index     =            0
     lattice parameter (alat)  =       1.8897  a.u.
     unit-cell volume          =    6373.6453 (a.u.)^3
     number of atoms/cell      =           12
     number of atomic types    =            2
     number of electrons       =       144.00
     number of Kohn-Sham states=          102
     kinetic-energy cutoff     =      36.7493  Ry
     charge density cutoff     =     367.4932  Ry
     convergence threshold     =      1.0E-06
     mixing beta               =       0.1000
     number of iterations used =           10  plain     mixing
     Exchange-correlation      = BEEF-VDW ( 1  4 27 13 2)
     nstep                     =           50

     celldm(1)=   1.889726  celldm(2)=   0.000000  celldm(3)=   0.000000
     celldm(4)=   0.000000  celldm(5)=   0.000000  celldm(6)=   0.000000

     crystal axes: (cart. coord. in units of alat)
               a(1) = (   6.558419   0.000000   0.000000 )
               a(2) = (  -3.279209   5.679757   0.000000 )
               a(3) = (   0.000000   0.000000  25.354927 )

     reciprocal axes: (cart. coord. in units 2 pi/alat)
               b(1) = (  0.152476  0.088032  0.000000 )
               b(2) = (  0.000000  0.176064  0.000000 )
               b(3) = (  0.000000  0.000000  0.039440 )

     PseudoPot. # 1 for Y  read from file:
     /afs/slac.stanford.edu/u/if/mamunm/psp/gbrv1.5pbe/Y.UPF
     MD5 check sum: d034151ed7554c50b6e82763ed42c788
     Pseudo is Ultrasoft + core correction, Zval = 11.0
     Generated by new atomic code, or converted to UPF format
     Using radial grid of  885 points,  6 beta functions with:
                l(1) =   0
                l(2) =   0
                l(3) =   1
                l(4) =   1
                l(5) =   2
                l(6) =   2
     Q(r) pseudized with  8 coefficients,  rinner =    1.200   1.200   1.200
                                                       1.200   1.200

     PseudoPot. # 2 for Re read from file:
     /afs/slac.stanford.edu/u/if/mamunm/psp/gbrv1.5pbe/Re.UPF
     MD5 check sum: 85f993410f3e006da9d71c142b4ad953
     Pseudo is Ultrasoft + core correction, Zval = 15.0
     Generated by new atomic code, or converted to UPF format
     Using radial grid of  981 points,  8 beta functions with:
                l(1) =   0
                l(2) =   0
                l(3) =   1
                l(4) =   1
                l(5) =   2
                l(6) =   2
                l(7) =   3
                l(8) =   3
     Q(r) pseudized with  8 coefficients,  rinner =    1.150   1.150   1.150
                                                       1.150   1.150   1.150
                                                       1.150

     vdW kernel table read from file vdW_kernel_table
     MD5 check sum: 095c7af220d748ca6e76c0b4c6cfb241

     atomic species   valence    mass     pseudopotential
        Y1            11.00    88.90584     Y ( 1.00)
        Re1           15.00   186.20700     Re( 1.00)

     No symmetry found

   Cartesian axes

     site n.     atom                  positions (alat units)
         1           Y1  tau(   1) = (   0.0000000   0.0000000  10.0000000  )
         2           Y1  tau(   2) = (  -1.6396047   2.8398787  10.0000000  )
         3           Y1  tau(   3) = (   1.6396047   2.8398787  10.0000000  )
         4           Re1 tau(   4) = (   3.2792094   0.0000000  10.0000000  )
         5           Y1  tau(   5) = (   3.2792094   1.8932525  12.6774633  )
         6           Y1  tau(   6) = (   1.6396047   4.7331311  12.6774633  )
         7           Y1  tau(   7) = (  -1.6396047   4.7331311  12.6774633  )
         8           Re1 tau(   8) = (   0.0000000   1.8932525  12.6774633  )
         9           Y1  tau(   9) = (  -0.0000000   3.7865049  15.3549266  )
        10           Y1  tau(  10) = (   1.6396047   0.9466262  15.3549266  )
        11           Y1  tau(  11) = (   4.9188142   0.9466262  15.3549266  )
        12           Re1 tau(  12) = (   3.2792094   3.7865049  15.3549266  )

     number of k points=    20  Fermi-Dirac smearing, width (Ry)=  0.0110
                       cart. coord. in units 2pi/alat
        k(    1) = (   0.0000000   0.0000000   0.0000000), wk =   0.0555556
        k(    2) = (   0.0000000   0.0293440   0.0000000), wk =   0.1111111
        k(    3) = (   0.0000000   0.0586880   0.0000000), wk =   0.1111111
        k(    4) = (   0.0000000  -0.0880319   0.0000000), wk =   0.0555556
        k(    5) = (   0.0254126   0.0146720   0.0000000), wk =   0.1111111
        k(    6) = (   0.0254126   0.0440160   0.0000000), wk =   0.1111111
        k(    7) = (   0.0254126   0.0733599   0.0000000), wk =   0.1111111
        k(    8) = (   0.0254126  -0.0733599   0.0000000), wk =   0.1111111
        k(    9) = (   0.0254126  -0.0440160   0.0000000), wk =   0.1111111
        k(   10) = (   0.0254126  -0.0146720   0.0000000), wk =   0.1111111
        k(   11) = (   0.0508253   0.0293440   0.0000000), wk =   0.1111111
        k(   12) = (   0.0508253   0.0586880   0.0000000), wk =   0.1111111
        k(   13) = (   0.0508253   0.0880319   0.0000000), wk =   0.1111111
        k(   14) = (   0.0508253  -0.0586880   0.0000000), wk =   0.1111111
        k(   15) = (   0.0508253  -0.0293440   0.0000000), wk =   0.1111111
        k(   16) = (   0.0508253   0.0000000   0.0000000), wk =   0.1111111
        k(   17) = (  -0.0762379  -0.0440160   0.0000000), wk =   0.0555556
        k(   18) = (  -0.0762379  -0.0146720   0.0000000), wk =   0.1111111
        k(   19) = (  -0.0762379   0.0146720   0.0000000), wk =   0.1111111
        k(   20) = (  -0.0762379  -0.1320479   0.0000000), wk =   0.0555556

     Largest allocated arrays     est. size (Mb)     dimensions
     Largest temporary arrays     est. size (Mb)     dimensions

     Initial potential from superposition of free atoms
     Check: negative starting charge=   -0.386660

     starting charge  142.45964, renormalised to  144.00000

     negative rho (up, down):  3.908E-01 0.000E+00

     *
     * You are using vdW-DF for exchange-correlation in this calculation.
     * Please cite the following three references that made this development
     * possible:
     *
     *   M. Dion, H. Rydberg, E. Schroder, D. C. Langreth, and
     *   B. I. Lundqvist, Phys. Rev. Lett. 92, 246401 (2004).
     *
     *   T. Thonhauser, V. R. Cooper, S. Li, A. Puzder, P. Hyldgaard, and
     *   D. C. Langreth, Phys. Rev. B 76, 125112 (2007).
     *
     *   G. Roman-Perez and J. M. Soler, Phys. Rev. Lett. 103, 096102 (2009).
     *
     *
     * If you are using vdW-DF2, please also cite:
     *
     *   K. Lee, E. D. Murray, L. Kong, B. I. Lundqvist, and
     *   D. C. Langreth, Phys. Rev. B 82, 081101(R) (2010).
     *
     *
     * If you are calculating the stress with vdW-DF, please also cite:
     *
     *   R. Sabatini, E. Kucukbenli, B. Kolb, T. Thonhauser, and
     *   S. de Gironcoli, J. Phys.: Condens. Matter 24, 424209 (2012).
     *

     Carrying out vdW-DF run using the following parameters:

     Nqs =      20    Nr_points =    1024   r_max =   100.000
     q_mesh =
               0.00001000     0.04494208     0.09755937     0.15916263
               0.23128650     0.31572767     0.41458969     0.53033537
               0.66584808     0.82450364     1.01025438     1.22772762
               1.48234092     1.78043706     2.12944203     2.53805004
               3.01644009     3.57652955     4.23227104     5.00000000

     Gradients computed in reciprocal space

     Adding external electric field

     Computed dipole along edir(3) :
        Dipole                0.0000 Ry au,          0.0000 Debye
        Dipole field          0.0000 Ry au

        Potential amp.       -0.0000 Ry
        Total length         46.7160 bohr

     Starting wfc are  156 randomized atomic wfcs

     Self-consistent Calculation

     iteration #  1     ecut=    36.75 Ry     beta=0.10
     Davidson diagonalization with overlap
     ethr =  1.00E-02,  avg # of iterations =  2.0

[...]

     total energy              =   -1418.81166664 Ry
     Harris-Foulkes estimate   =   -1420.17918152 Ry
     estimated scf accuracy    <       7.77020973 Ry

[...]

     End of self-consistent calculation

          k = 0.0000 0.0000 0.0000 ( 23859 PWs)   bands (ev):

   -78.3083 -78.0895 -78.0893 -41.5427 -41.5403 -41.4479 -41.4478 -41.4473
   -41.4473 -40.9779 -40.8859 -40.8858 -39.9851 -39.9617 -39.9617 -39.7866
   -39.7866 -39.7862 -39.7862 -39.7509 -39.7496 -22.0426 -22.0023 -21.7152
   -21.6695 -21.6695 -21.6111 -21.6110 -21.5643 -21.5424 -21.5424 -21.4533
   -21.4532 -21.3971 -21.1792 -21.1631 -21.1385 -21.1385 -21.1228 -21.1228
   -21.0141 -21.0141 -20.8767 -20.8306 -20.8306 -20.6412 -20.5726 -20.5726
    -3.5806  -2.5210  -1.9110  -1.0407  -0.9248  -0.7927  -0.7927  -0.6831
    -0.6831  -0.5579  -0.3216  -0.3216  -0.1793  -0.1793  -0.0769   0.5664
     0.5665   0.8021   1.1331   1.1846   1.1846   1.3200   1.8586   2.0067
     2.1153   2.3252   2.3252   2.3931   2.3931   2.4521   2.6648   2.6649
     2.8077   2.8078   2.8285   2.8818   2.8818   3.2259   3.2259   3.3699
     3.4413   3.4414   3.6013   3.6013   3.8191   3.9288   4.1581   4.1581
     4.8197   4.8362   5.0748   5.1392   5.1392   5.2080

[...]

          k =-0.0762-0.0440 0.0000 ( 24008 PWs)   bands (ev):

[...]

     the Fermi energy is     1.5042 ev

!    total energy              =   -1419.36614168 Ry
     Harris-Foulkes estimate   =   -1419.36990472 Ry
     estimated scf accuracy    <       0.00000041 Ry

     The total energy is the sum of the following terms:

     one-electron contribution =   -7844.32561940 Ry
     hartree contribution      =    3914.35145616 Ry
     xc contribution           =    -416.73902692 Ry
     ewald contribution        =    2927.44355749 Ry
     electric field correction =       0.00000004 Ry
     smearing contrib. (-TS)   =      -0.09650906 Ry

     convergence has been achieved in  19 iterations

 BEEF-vdW xc energy contributions
           1 :   -366.249218469362
           2 :    333.428894867951
           3 :   -275.897235822315
           4 :    206.516749664407
           5 :   -138.219134896517
           6 :    80.2997613828718
           7 :   -37.0183427274221
           8 :    8.38952607526835
           9 :    7.92028613692219
          10 :   -14.8200505753380
          11 :    14.8649400790964
          12 :   -10.2092512954175
          13 :    2.97860275458777
          14 :    4.51213127556156
[...]

     PseudoPot. # 1 for Y  read from file:
     /afs/slac.stanford.edu/u/if/mamunm/psp/gbrv1.5pbe/Y.UPF
     MD5 check sum: d034151ed7554c50b6e82763ed42c788
     Pseudo is Ultrasoft + core correction, Zval = 11.0
     Generated by new atomic code, or converted to UPF format
     Using radial grid of  885 points,  6 beta functions with:
                l(1) =   0
                l(2) =   0
                l(3) =   1
                l(4) =   1
                l(5) =   2
                l(6) =   2
     Q(r) pseudized with  8 coefficients,  rinner =    1.200   1.200   1.200
                                                       1.200   1.200

     PseudoPot. # 2 for Re read from file:
     /afs/slac.stanford.edu/u/if/mamunm/psp/gbrv1.5pbe/Re.UPF
     MD5 check sum: 85f993410f3e006da9d71c142b4ad953
     Pseudo is Ultrasoft + core correction, Zval = 15.0
     Generated by new atomic code, or converted to UPF format
     Using radial grid of  981 points,  8 beta functions with:
                l(1) =   0
                l(2) =   0
                l(3) =   1
                l(4) =   1
                l(5) =   2
                l(6) =   2
                l(7) =   3
                l(8) =   3
     Q(r) pseudized with  8 coefficients,  rinner =    1.150   1.150   1.150
                                                       1.150   1.150   1.150
                                                       1.150

     vdW kernel table read from file vdW_kernel_table
     MD5 check sum: 095c7af220d748ca6e76c0b4c6cfb241

     atomic species   valence    mass     pseudopotential
        Y1            11.00    88.90584     Y ( 1.00)
        Re1           15.00   186.20700     Re( 1.00)

     No symmetry found

   Cartesian axes

     site n.     atom                  positions (alat units)
         1           Y1  tau(   1) = (   0.0000000   0.0000000  10.0000000  )
         2           Y1  tau(   2) = (  -1.6396047   2.8398787  10.0000000  )
         3           Y1  tau(   3) = (   1.6396047   2.8398787  10.0000000  )
         4           Re1 tau(   4) = (   3.2792094   0.0000000  10.0000000  )
         5           Y1  tau(   5) = (   3.2792094   1.8932525  12.6774633  )
         6           Y1  tau(   6) = (   1.6396047   4.7331311  12.6774633  )
         7           Y1  tau(   7) = (  -1.6396047   4.7331311  12.6774633  )
         8           Re1 tau(   8) = (   0.0000000   1.8932525  12.6774633  )
         9           Y1  tau(   9) = (   0.0000036   3.7358808  15.3723510  )
        10           Y1  tau(  10) = (   1.5959855   0.9720441  15.3723744  )
        11           Y1  tau(  11) = (   4.9624209   0.9720372  15.3724044  )
        12           Re1 tau(  12) = (   3.2792040   3.7863336  14.9335908  )

     number of k points=    20  Fermi-Dirac smearing, width (Ry)=  0.0110
                       cart. coord. in units 2pi/alat
        k(    1) = (   0.0000000   0.0000000   0.0000000), wk =   0.0555556
        k(    2) = (   0.0000000   0.0293440   0.0000000), wk =   0.1111111
        k(    3) = (   0.0000000   0.0586880   0.0000000), wk =   0.1111111
        k(    4) = (   0.0000000  -0.0880319   0.0000000), wk =   0.0555556
        k(    5) = (   0.0254126   0.0146720   0.0000000), wk =   0.1111111
        k(    6) = (   0.0254126   0.0440160   0.0000000), wk =   0.1111111
        k(    7) = (   0.0254126   0.0733599   0.0000000), wk =   0.1111111
        k(    8) = (   0.0254126  -0.0733599   0.0000000), wk =   0.1111111
        k(    9) = (   0.0254126  -0.0440160   0.0000000), wk =   0.1111111
        k(   10) = (   0.0254126  -0.0146720   0.0000000), wk =   0.1111111
        k(   11) = (   0.0508253   0.0293440   0.0000000), wk =   0.1111111
        k(   12) = (   0.0508253   0.0586880   0.0000000), wk =   0.1111111
        k(   13) = (   0.0508253   0.0880319   0.0000000), wk =   0.1111111
        k(   14) = (   0.0508253  -0.0586880   0.0000000), wk =   0.1111111
        k(   15) = (   0.0508253  -0.0293440   0.0000000), wk =   0.1111111
        k(   16) = (   0.0508253   0.0000000   0.0000000), wk =   0.1111111
        k(   17) = (  -0.0762379  -0.0440160   0.0000000), wk =   0.0555556
        k(   18) = (  -0.0762379  -0.0146720   0.0000000), wk =   0.1111111
        k(   19) = (  -0.0762379   0.0146720   0.0000000), wk =   0.1111111
        k(   20) = (  -0.0762379  -0.1320479   0.0000000), wk =   0.0555556

     Largest allocated arrays     est. size (Mb)     dimensions
     Largest temporary arrays     est. size (Mb)     dimensions

     Initial potential from superposition of free atoms
     Check: negative starting charge=   -0.386317

     starting charge  142.45964, renormalised to  144.00000

[...]

     *
     * You are using vdW-DF for exchange-correlation in this calculation.
     * Please cite the following three references that made this development
     * possible:
     *
     *   M. Dion, H. Rydberg, E. Schroder, D. C. Langreth, and
     *   B. I. Lundqvist, Phys. Rev. Lett. 92, 246401 (2004).
     *
     *   T. Thonhauser, V. R. Cooper, S. Li, A. Puzder, P. Hyldgaard, and
     *   D. C. Langreth, Phys. Rev. B 76, 125112 (2007).
     *
     *   G. Roman-Perez and J. M. Soler, Phys. Rev. Lett. 103, 096102 (2009).
     *
     *
     * If you are using vdW-DF2, please also cite:
     *
     *   K. Lee, E. D. Murray, L. Kong, B. I. Lundqvist, and
     *   D. C. Langreth, Phys. Rev. B 82, 081101(R) (2010).
     *
     *
     * If you are calculating the stress with vdW-DF, please also cite:
     *
     *   R. Sabatini, E. Kucukbenli, B. Kolb, T. Thonhauser, and
     *   S. de Gironcoli, J. Phys.: Condens. Matter 24, 424209 (2012).
     *

     Carrying out vdW-DF run using the following parameters:

     Nqs =      20    Nr_points =    1024   r_max =   100.000
     q_mesh =
               0.00001000     0.04494208     0.09755937     0.15916263
               0.23128650     0.31572767     0.41458969     0.53033537
               0.66584808     0.82450364     1.01025438     1.22772762
               1.48234092     1.78043706     2.12944203     2.53805004
               3.01644009     3.57652955     4.23227104     5.00000000

     Gradients computed in reciprocal space

[...]

     Starting wfc are  156 randomized atomic wfcs

     Self-consistent Calculation

[...]

     total energy              =   -1419.40398406 Ry
     Harris-Foulkes estimate   =   -1419.40398409 Ry
     estimated scf accuracy    <       0.00000334 Ry

     iteration # 20     ecut=    36.75 Ry     beta=0.10
     Davidson diagonalization with overlap
     ethr =  1.20E-09,  avg # of iterations =  2.5

[...]

     negative rho (up, down):  3.824E-01 0.000E+00

     Adding external electric field

     Computed dipole along edir(3) :
        Dipole                0.1066 Ry au,          0.2709 Debye
        Dipole field          0.0002 Ry au

        Potential amp.       -0.0196 Ry
        Total length         46.7160 bohr

     End of self-consistent calculation

[...]

          k = 0.0508 0.0000 0.0000 ( 23966 PWs)   bands (ev):

[...]

          k =-0.0762-0.1320 0.0000 ( 24008 PWs)   bands (ev):

   -78.2523 -77.9766 -77.9056 -41.4841 -41.4417 -41.4296 -41.4138 -41.3974
   -41.3663 -40.7020 -40.6674 -40.6356 -39.9320 -39.9047 -39.9029 -39.6805
   -39.6796 -39.6319 -39.6314 -39.6290 -39.5633 -21.7868 -21.7411 -21.5804
   -21.5409 -21.5137 -21.4788 -21.4679 -21.4601 -21.4238 -21.4050 -21.3925
   -21.3772 -21.3692 -21.3276 -21.3038 -21.2983 -21.0908 -21.0572 -20.9971
   -20.7452 -20.6939 -20.6397 -20.6235 -20.6191 -20.5941 -20.5786 -20.3538
    -2.2924  -2.0366  -1.3377  -0.8673  -0.5133  -0.1909  -0.1679  -0.0233
    -0.0181   0.0242   0.3662   0.3834   0.4469   0.5337   0.6164   0.6846
     0.8652   0.9094   0.9789   1.0442   1.0626   1.1306   1.2812   1.3322
     1.4155   1.5247   1.7010   1.8349   1.9160   2.0761   2.0998   2.1971
     2.2504   2.2759   2.4010   2.5101   2.9407   3.0065   3.1000   3.2704
     3.3466   3.6376   3.6878   3.7427   3.9326   3.9865   4.0246   4.2222
     4.3799   4.5182   4.7019   4.9287   5.0042   5.0516

     the Fermi energy is     1.5845 ev

!    total energy              =   -1419.40398466 Ry
     Harris-Foulkes estimate   =   -1419.40398288 Ry
     estimated scf accuracy    <       0.00000056 Ry

     The total energy is the sum of the following terms:

     one-electron contribution =   -7973.60516708 Ry
     hartree contribution      =    3979.57622294 Ry
     xc contribution           =    -416.87274933 Ry
     ewald contribution        =    2991.59273649 Ry
     electric field correction =       0.00002240 Ry
     smearing contrib. (-TS)   =      -0.09505008 Ry

     convergence has been achieved in  20 iterations

 BEEF-vdW xc energy contributions
           1 :   -366.493559972965
           2 :    333.721381625242
           3 :   -276.246805791108
           4 :    206.877088461380
           5 :   -138.506124737908
           6 :    80.4380819226575
           7 :   -36.9929149634913
           8 :    8.26300438086986
           9 :    8.04301647104620
          10 :   -14.8565694451108
          11 :    14.8005657324182
          12 :   -10.0925265290479
          13 :    2.87746678895968
          14 :    4.55699851973225
          15 :   -10.0078392010573
          16 :    11.9247735097273
          17 :   -9.91568606454439
          18 :    4.81393445260392
          19 :    1.75003957613706
          20 :   -8.01164288113455
          21 :    12.6188281737808
          22 :   -14.8709490933078
          23 :    14.6782027882022
          24 :   -12.3977047619994
          25 :    8.68355981582982
          26 :   -4.38782810317184
          27 :   0.452901516245674
          28 :    2.27265783584801
          29 :   -3.28166443770147
          30 :    2.60117535123356
          31 :   -33.1763023338057
          32 :   -23.3181062383989

     Forces acting on atoms (Ry/au):

     negative rho (up, down):  3.824E-01 0.000E+00
     atom    1 type  1   force =    -0.00000232    0.02532246   -0.00986571
     atom    2 type  1   force =     0.02193487   -0.01266068   -0.00986499
     atom    3 type  1   force =    -0.02193431   -0.01265652   -0.00986473
     atom    4 type  2   force =     0.00000346   -0.00000978    0.05501020
     atom    5 type  1   force =     0.00000012   -0.00936230   -0.00859834
     atom    6 type  1   force =    -0.00809651    0.00466671   -0.00856247
     atom    7 type  1   force =     0.00809814    0.00466363   -0.00856509
     atom    8 type  2   force =    -0.00000330   -0.00000443    0.00653014
     atom    9 type  1   force =     0.00000131   -0.00059524   -0.00184001
     atom   10 type  1   force =    -0.00050005    0.00032445   -0.00183759
     atom   11 type  1   force =     0.00050109    0.00032536   -0.00183690
     atom   12 type  2   force =    -0.00000251   -0.00001367   -0.00070450

     Total force =     0.076022     Total SCF correction =     0.002574

     entering subroutine stress ...

     negative rho (up, down):  3.824E-01 0.000E+00
          total   stress  (Ry/bohr**3)                   (kbar)     P=   -6.53
  -0.00005053  -0.00000000  -0.00000000         -7.43     -0.00     -0.00
  -0.00000000  -0.00005051   0.00000000         -0.00     -7.43      0.00
  -0.00000000   0.00000000  -0.00003209         -0.00      0.00     -4.72

 !ASE

     Writing output data file calc.save

     General routines

     Parallel routines

   This run was terminated on:  15:20:15   2Jan2019

   JOB DONE.
Job  /afs/slac/g/suncat/bin/suncat-tsmpirun -x LD_LIBRARY_PATH -wdir /scratch/qe649441_MdQtM pw.x -in pw.inp

TID   HOST_NAME   COMMAND_LINE            STATUS            TERMINATION_TIME
00000 suncat0043 pw.x -in pw.inp   Done                     01/02/2019 15:20:15
00001 suncat0043 pw.x -in pw.inp   Done                     01/02/2019 15:20:15
00002 suncat0043 pw.x -in pw.inp   Done                     01/02/2019 15:20:15
00003 suncat0043 pw.x -in pw.inp   Done                     01/02/2019 15:20:15
00004 suncat0043 pw.x -in pw.inp   Done                     01/02/2019 15:20:15
00005 suncat0043 pw.x -in pw.inp   Done                     01/02/2019 15:20:15
00006 suncat0043 pw.x -in pw.inp   Done                     01/02/2019 15:20:15
00007 suncat0043 pw.x -in pw.inp   Done                     01/02/2019 15:20:15
00008 suncat0041 pw.x -in pw.inp   Done                     01/02/2019 15:20:15
00009 suncat0041 pw.x -in pw.inp   Done                     01/02/2019 15:20:15
00010 suncat0041 pw.x -in pw.inp   Done                     01/02/2019 15:20:15
00011 suncat0041 pw.x -in pw.inp   Done                     01/02/2019 15:20:15
00012 suncat0041 pw.x -in pw.inp   Done                     01/02/2019 15:20:15
00013 suncat0041 pw.x -in pw.inp   Done                     01/02/2019 15:20:15
00014 suncat0041 pw.x -in pw.inp   Done                     01/02/2019 15:20:15
00015 suncat0041 pw.x -in pw.inp   Done                     01/02/2019 15:20:15
00016 suncat0039 pw.x -in pw.inp   Done                     01/02/2019 15:20:15
00017 suncat0039 pw.x -in pw.inp   Done                     01/02/2019 15:20:15
00018 suncat0039 pw.x -in pw.inp   Done                     01/02/2019 15:20:15
00019 suncat0039 pw.x -in pw.inp   Done                     01/02/2019 15:20:15
00020 suncat0039 pw.x -in pw.inp   Done                     01/02/2019 15:20:15
00021 suncat0039 pw.x -in pw.inp   Done                     01/02/2019 15:20:15
00022 suncat0039 pw.x -in pw.inp   Done                     01/02/2019 15:20:15
00023 suncat0039 pw.x -in pw.inp   Done                     01/02/2019 15:20:15
00024 suncat0025 pw.x -in pw.inp   Done                     01/02/2019 15:20:15
00025 suncat0025 pw.x -in pw.inp   Done                     01/02/2019 15:20:15
00026 suncat0025 pw.x -in pw.inp   Done                     01/02/2019 15:20:15
00027 suncat0025 pw.x -in pw.inp   Done                     01/02/2019 15:20:15
00028 suncat0025 pw.x -in pw.inp   Done                     01/02/2019 15:20:15
00029 suncat0025 pw.x -in pw.inp   Done                     01/02/2019 15:20:15
00030 suncat0025 pw.x -in pw.inp   Done                     01/02/2019 15:20:15
00031 suncat0025 pw.x -in pw.inp   Done                     01/02/2019 15:20:15
00032 suncat0013 pw.x -in pw.inp   Done                     01/02/2019 15:20:15
00033 suncat0013 pw.x -in pw.inp   Done                     01/02/2019 15:20:15
00034 suncat0013 pw.x -in pw.inp   Done                     01/02/2019 15:20:15
00035 suncat0013 pw.x -in pw.inp   Done                     01/02/2019 15:20:15
00036 suncat0013 pw.x -in pw.inp   Done                     01/02/2019 15:20:15
00037 suncat0013 pw.x -in pw.inp   Done                     01/02/2019 15:20:15
00038 suncat0013 pw.x -in pw.inp   Done                     01/02/2019 15:20:15
00039 suncat0013 pw.x -in pw.inp   Done                     01/02/2019 15:20:15
00040 suncat0008 pw.x -in pw.inp   Done                     01/02/2019 15:20:15
00041 suncat0008 pw.x -in pw.inp   Done                     01/02/2019 15:20:15
00042 suncat0008 pw.x -in pw.inp   Done                     01/02/2019 15:20:15
00043 suncat0008 pw.x -in pw.inp   Done                     01/02/2019 15:20:15
00044 suncat0008 pw.x -in pw.inp   Done                     01/02/2019 15:20:15
00045 suncat0008 pw.x -in pw.inp   Done                     01/02/2019 15:20:15
00046 suncat0008 pw.x -in pw.inp   Done                     01/02/2019 15:20:15
00047 suncat0008 pw.x -in pw.inp   Done                     01/02/2019 15:20:15
00048 suncat0117 pw.x -in pw.inp   Done                     01/02/2019 15:20:15
00049 suncat0117 pw.x -in pw.inp   Done                     01/02/2019 15:20:15
00050 suncat0117 pw.x -in pw.inp   Done                     01/02/2019 15:20:15
00051 suncat0117 pw.x -in pw.inp   Done                     01/02/2019 15:20:15
00052 suncat0117 pw.x -in pw.inp   Done                     01/02/2019 15:20:15
00053 suncat0117 pw.x -in pw.inp   Done                     01/02/2019 15:20:15
00054 suncat0117 pw.x -in pw.inp   Done                     01/02/2019 15:20:15
00055 suncat0117 pw.x -in pw.inp   Done                     01/02/2019 15:20:15
00056 suncat0250 pw.x -in pw.inp   Done                     01/02/2019 15:20:15
00057 suncat0250 pw.x -in pw.inp   Done                     01/02/2019 15:20:15
00058 suncat0250 pw.x -in pw.inp   Done                     01/02/2019 15:20:15
00059 suncat0250 pw.x -in pw.inp   Done                     01/02/2019 15:20:15
00060 suncat0250 pw.x -in pw.inp   Done                     01/02/2019 15:20:15
00061 suncat0250 pw.x -in pw.inp   Done                     01/02/2019 15:20:15
00062 suncat0250 pw.x -in pw.inp   Done                     01/02/2019 15:20:15
00063 suncat0250 pw.x -in pw.inp   Done                     01/02/2019 15:20:15