     Program PWSCF v.5.1rc2 (svn rev. 11289) starts on  2Jan2019 at  4:31: 8

     Current dimensions of program PWSCF are:
     Max number of different atomic species (ntypx) = 10
     Max number of k-points (npk) =  40000
     Max angular momentum in pseudopotentials (lmaxx) =  3
     Presently stress not available with electric field

     IMPORTANT: XC functional enforced from input :
     Exchange-correlation      = BEEF-VDW ( 1  4 27 13 2)
     Any further DFT definition will be discarded
     Please, verify this is what you really want

     Subspace diagonalization in iterative solution of the eigenvalue problem:
     a serial algorithm will be used

     bravais-lattice index     =            0
     lattice parameter (alat)  =       1.8897  a.u.
     unit-cell volume          =    4489.8902 (a.u.)^3
     number of atoms/cell      =           12
     number of atomic types    =            2
     number of electrons       =       156.00
     number of Kohn-Sham states=          108
     kinetic-energy cutoff     =      36.7493  Ry
     charge density cutoff     =     367.4932  Ry
     convergence threshold     =      1.0E-06
     mixing beta               =       0.1000
     number of iterations used =           10  plain     mixing
     Exchange-correlation      = BEEF-VDW ( 1  4 27 13 2)
     nstep                     =           50

     celldm(1)=   1.889726  celldm(2)=   0.000000  celldm(3)=   0.000000
     celldm(4)=   0.000000  celldm(5)=   0.000000  celldm(6)=   0.000000

     crystal axes: (cart. coord. in units of alat)
               a(1) = (   5.592250   0.000000   0.000000 )
               a(2) = (  -2.796125   4.843030   0.000000 )
               a(3) = (   0.000000   0.000000  24.566053 )

     reciprocal axes: (cart. coord. in units 2 pi/alat)
               b(1) = (  0.178819  0.103241  0.000000 )
               b(2) = (  0.000000  0.206482  0.000000 )
               b(3) = (  0.000000  0.000000  0.040707 )

     PseudoPot. # 1 for V  read from file:
     /afs/slac.stanford.edu/u/if/mamunm/psp/gbrv1.5pbe/V.UPF
     MD5 check sum: 22b79981416ebb76fdaf5b1b8640f6fb
     Pseudo is Ultrasoft + core correction, Zval = 13.0
     Generated by new atomic code, or converted to UPF format
     Using radial grid of  853 points,  6 beta functions with:
                l(1) =   0
                l(2) =   0
                l(3) =   1
                l(4) =   1
                l(5) =   2
                l(6) =   2
     Q(r) pseudized with  8 coefficients,  rinner =    1.100   1.100   1.100
                                                       1.100   1.100

     PseudoPot. # 2 for In read from file:
     /afs/slac.stanford.edu/u/if/mamunm/psp/gbrv1.5pbe/In.UPF
     MD5 check sum: 90777abd96fbb83f2e67db2a40c566b9
     Pseudo is Ultrasoft + core correction, Zval = 13.0
     Generated by new atomic code, or converted to UPF format
     Using radial grid of  889 points,  6 beta functions with:
                l(1) =   0
                l(2) =   0
                l(3) =   1
                l(4) =   1
                l(5) =   2
                l(6) =   2
     Q(r) pseudized with  6 coefficients,  rinner =    1.400   1.400   1.400
                                                       1.400   1.400

     vdW kernel table read from file vdW_kernel_table
     MD5 check sum: 095c7af220d748ca6e76c0b4c6cfb241

     atomic species   valence    mass     pseudopotential
        V1            13.00    50.94150     V ( 1.00)
        In1           13.00   114.81800     In( 1.00)

     No symmetry found

   Cartesian axes

     site n.     atom                  positions (alat units)
         1           V1  tau(   1) = (   0.0000000   0.0000000  10.0000000  )
         2           V1  tau(   2) = (  -1.3980624   2.4215152  10.0000000  )
         3           V1  tau(   3) = (   1.3980624   2.4215152  10.0000000  )
         4           In1 tau(   4) = (   2.7961248   0.0000000  10.0000000  )
         5           V1  tau(   5) = (   2.7961248   1.6143434  12.2830264  )
         6           V1  tau(   6) = (   1.3980624   4.0358586  12.2830264  )
         7           V1  tau(   7) = (  -1.3980624   4.0358586  12.2830264  )
         8           In1 tau(   8) = (   0.0000000   1.6143434  12.2830264  )
         9           V1  tau(   9) = (  -0.0000000   3.2286869  14.5660528  )
        10           V1  tau(  10) = (   1.3980624   0.8071717  14.5660528  )
        11           V1  tau(  11) = (   4.1941873   0.8071717  14.5660528  )
        12           In1 tau(  12) = (   2.7961248   3.2286869  14.5660528  )

     number of k points=    20  Fermi-Dirac smearing, width (Ry)=  0.0110
                       cart. coord. in units 2pi/alat
        k(    1) = (   0.0000000   0.0000000   0.0000000), wk =   0.0555556
        k(    2) = (   0.0000000   0.0344137   0.0000000), wk =   0.1111111
        k(    3) = (   0.0000000   0.0688274   0.0000000), wk =   0.1111111
        k(    4) = (   0.0000000  -0.1032411   0.0000000), wk =   0.0555556
        k(    5) = (   0.0298032   0.0172069   0.0000000), wk =   0.1111111
        k(    6) = (   0.0298032   0.0516206   0.0000000), wk =   0.1111111
        k(    7) = (   0.0298032   0.0860343   0.0000000), wk =   0.1111111
        k(    8) = (   0.0298032  -0.0860343   0.0000000), wk =   0.1111111
        k(    9) = (   0.0298032  -0.0516206   0.0000000), wk =   0.1111111
        k(   10) = (   0.0298032  -0.0172069   0.0000000), wk =   0.1111111
        k(   11) = (   0.0596063   0.0344137   0.0000000), wk =   0.1111111
        k(   12) = (   0.0596063   0.0688274   0.0000000), wk =   0.1111111
        k(   13) = (   0.0596063   0.1032411   0.0000000), wk =   0.1111111
        k(   14) = (   0.0596063  -0.0688274   0.0000000), wk =   0.1111111
        k(   15) = (   0.0596063  -0.0344137   0.0000000), wk =   0.1111111
        k(   16) = (   0.0596063  -0.0000000   0.0000000), wk =   0.1111111
        k(   17) = (  -0.0894095  -0.0516206   0.0000000), wk =   0.0555556
        k(   18) = (  -0.0894095  -0.0172069   0.0000000), wk =   0.1111111
        k(   19) = (  -0.0894095   0.0172069   0.0000000), wk =   0.1111111
        k(   20) = (  -0.0894095  -0.1548617   0.0000000), wk =   0.0555556

     Largest allocated arrays     est. size (Mb)     dimensions
     Largest temporary arrays     est. size (Mb)     dimensions

     Initial potential from superposition of free atoms
     Check: negative starting charge=   -0.007039

     starting charge  151.48895, renormalised to  156.00000

     negative rho (up, down):  7.248E-03 0.000E+00

     *
     * You are using vdW-DF for exchange-correlation in this calculation.
     * Please cite the following three references that made this development
     * possible:
     *
     *   M. Dion, H. Rydberg, E. Schroder, D. C. Langreth, and
     *   B. I. Lundqvist, Phys. Rev. Lett. 92, 246401 (2004).
     *
     *   T. Thonhauser, V. R. Cooper, S. Li, A. Puzder, P. Hyldgaard, and
     *   D. C. Langreth, Phys. Rev. B 76, 125112 (2007).
     *
     *   G. Roman-Perez and J. M. Soler, Phys. Rev. Lett. 103, 096102 (2009).
     *
     *
     * If you are using vdW-DF2, please also cite:
     *
     *   K. Lee, E. D. Murray, L. Kong, B. I. Lundqvist, and
     *   D. C. Langreth, Phys. Rev. B 82, 081101(R) (2010).
     *
     *
     * If you are calculating the stress with vdW-DF, please also cite:
     *
     *   R. Sabatini, E. Kucukbenli, B. Kolb, T. Thonhauser, and
     *   S. de Gironcoli, J. Phys.: Condens. Matter 24, 424209 (2012).
     *

     Carrying out vdW-DF run using the following parameters:

     Nqs =      20    Nr_points =    1024   r_max =   100.000
     q_mesh =
               0.00001000     0.04494208     0.09755937     0.15916263
               0.23128650     0.31572767     0.41458969     0.53033537
               0.66584808     0.82450364     1.01025438     1.22772762
               1.48234092     1.78043706     2.12944203     2.53805004
               3.01644009     3.57652955     4.23227104     5.00000000

     Gradients computed in reciprocal space

     Adding external electric field

     Computed dipole along edir(3) :
        Dipole               -0.0000 Ry au,         -0.0000 Debye
        Dipole field         -0.0000 Ry au

        Potential amp.        0.0000 Ry
        Total length         45.2625 bohr

     Starting wfc are  117 randomized atomic wfcs

     Self-consistent Calculation

     iteration #  1     ecut=    36.75 Ry     beta=0.10
     Davidson diagonalization with overlap
     ethr =  1.00E-02,  avg # of iterations =  3.1

[...]

     total energy              =   -1716.20221114 Ry
     Harris-Foulkes estimate   =   -1717.30735355 Ry
     estimated scf accuracy    <       6.81764949 Ry

[...]

     End of self-consistent calculation

          k = 0.0000 0.0000 0.0000 ( 16811 PWs)   bands (ev):

   -63.3258 -63.3180 -63.2685 -63.2685 -63.2666 -63.2666 -63.2398 -63.1936
   -63.1935 -37.2981 -37.2605 -37.2605 -37.2566 -37.2498 -37.2252 -37.2238
   -37.2238 -37.1914 -37.1914 -37.1876 -37.1691 -37.1691 -37.1002 -37.1002
   -37.0365 -37.0023 -36.9636 -36.9635 -36.9421 -36.9327 -36.8416 -36.8416
   -36.8391 -36.8391 -36.8059 -36.8057 -13.4069 -13.4069 -13.3994 -13.3709
   -13.3709 -13.2358 -13.2316 -13.2316 -13.2290 -13.2290 -13.2223 -13.1726
   -13.1726 -13.1679 -13.1678  -7.1358  -5.5660  -4.6850  -1.9805  -1.8841
    -1.7676  -1.1030  -1.1030  -0.9801  -0.9801  -0.6475  -0.5930  -0.5929
    -0.5726  -0.3223  -0.3223   0.0288   0.0288   0.3555   0.3575   0.5579
     0.7355   0.7355   0.8720   0.8720   1.0018   1.0018   1.1461   1.2070
     1.2070   1.2281   1.4167   2.0947   2.1097   2.1097   2.2106   2.2307
     2.2307   2.3116   2.3116   2.4765   2.4765   2.5325   2.5326   2.8565
     2.8566   2.9170   3.0654   3.0654   3.0902   3.3357   3.5688   3.6005
     3.6005   3.6320   3.7151   4.0237

[...]

          k =-0.0894-0.0516 0.0000 ( 16912 PWs)   bands (ev):

[...]

     the Fermi energy is     0.9762 ev

!    total energy              =   -1715.84197312 Ry
     Harris-Foulkes estimate   =   -1715.84197229 Ry
     estimated scf accuracy    <       0.00000077 Ry

     The total energy is the sum of the following terms:

     one-electron contribution =  -13639.28748545 Ry
     hartree contribution      =    6830.99514410 Ry
     xc contribution           =    -300.81614113 Ry
     ewald contribution        =    5393.39649231 Ry
     electric field correction =       0.00000000 Ry
     smearing contrib. (-TS)   =      -0.12998296 Ry

     convergence has been achieved in  23 iterations

 BEEF-vdW xc energy contributions
           1 :   -260.922922673086
           2 :    236.128759770053
           3 :   -194.801041572757
           4 :    149.381261950418
           5 :   -110.895433445026
           6 :    84.8305396458819
           7 :   -70.3262515552497
           8 :    62.4572166461681
           9 :   -55.8390874592597
          10 :    47.4451327895407
          11 :   -37.4009630356689
          12 :    27.8435031588052
          13 :   -20.9506804569743
          14 :    17.4455476040029
          15 :   -16.3438481887969
          16 :    15.8294989479207
[...]
               b(3) = (  0.000000  0.000000  0.040707 )

     PseudoPot. # 1 for V  read from file:
     /afs/slac.stanford.edu/u/if/mamunm/psp/gbrv1.5pbe/V.UPF
     MD5 check sum: 22b79981416ebb76fdaf5b1b8640f6fb
     Pseudo is Ultrasoft + core correction, Zval = 13.0
     Generated by new atomic code, or converted to UPF format
     Using radial grid of  853 points,  6 beta functions with:
                l(1) =   0
                l(2) =   0
                l(3) =   1
                l(4) =   1
                l(5) =   2
                l(6) =   2
     Q(r) pseudized with  8 coefficients,  rinner =    1.100   1.100   1.100
                                                       1.100   1.100

     PseudoPot. # 2 for In read from file:
     /afs/slac.stanford.edu/u/if/mamunm/psp/gbrv1.5pbe/In.UPF
     MD5 check sum: 90777abd96fbb83f2e67db2a40c566b9
     Pseudo is Ultrasoft + core correction, Zval = 13.0
     Generated by new atomic code, or converted to UPF format
     Using radial grid of  889 points,  6 beta functions with:
                l(1) =   0
                l(2) =   0
                l(3) =   1
                l(4) =   1
                l(5) =   2
                l(6) =   2
     Q(r) pseudized with  6 coefficients,  rinner =    1.400   1.400   1.400
                                                       1.400   1.400

     vdW kernel table read from file vdW_kernel_table
     MD5 check sum: 095c7af220d748ca6e76c0b4c6cfb241

     atomic species   valence    mass     pseudopotential
        V1            13.00    50.94150     V ( 1.00)
        In1           13.00   114.81800     In( 1.00)

     No symmetry found

   Cartesian axes

     site n.     atom                  positions (alat units)
         1           V1  tau(   1) = (   0.0000000   0.0000000  10.0000000  )
         2           V1  tau(   2) = (  -1.3980624   2.4215152  10.0000000  )
         3           V1  tau(   3) = (   1.3980624   2.4215152  10.0000000  )
         4           In1 tau(   4) = (   2.7961248   0.0000000  10.0000000  )
         5           V1  tau(   5) = (   2.7961248   1.6143434  12.2830264  )
         6           V1  tau(   6) = (   1.3980624   4.0358586  12.2830264  )
         7           V1  tau(   7) = (  -1.3980624   4.0358586  12.2830264  )
         8           In1 tau(   8) = (   0.0000000   1.6143434  12.2830264  )
         9           V1  tau(   9) = (  -0.0000114   3.3969689  14.3768957  )
        10           V1  tau(  10) = (   1.5437715   0.7230833  14.3769062  )
        11           V1  tau(  11) = (   4.0484688   0.7230920  14.3769071  )
        12           In1 tau(  12) = (   2.7961275   3.2287232  15.0125374  )

     number of k points=    20  Fermi-Dirac smearing, width (Ry)=  0.0110
                       cart. coord. in units 2pi/alat
        k(    1) = (   0.0000000   0.0000000   0.0000000), wk =   0.0555556
        k(    2) = (   0.0000000   0.0344137   0.0000000), wk =   0.1111111
        k(    3) = (   0.0000000   0.0688274   0.0000000), wk =   0.1111111
        k(    4) = (   0.0000000  -0.1032411   0.0000000), wk =   0.0555556
        k(    5) = (   0.0298032   0.0172069   0.0000000), wk =   0.1111111
        k(    6) = (   0.0298032   0.0516206   0.0000000), wk =   0.1111111
        k(    7) = (   0.0298032   0.0860343   0.0000000), wk =   0.1111111
        k(    8) = (   0.0298032  -0.0860343   0.0000000), wk =   0.1111111
        k(    9) = (   0.0298032  -0.0516206   0.0000000), wk =   0.1111111
        k(   10) = (   0.0298032  -0.0172069   0.0000000), wk =   0.1111111
        k(   11) = (   0.0596063   0.0344137   0.0000000), wk =   0.1111111
        k(   12) = (   0.0596063   0.0688274   0.0000000), wk =   0.1111111
        k(   13) = (   0.0596063   0.1032411   0.0000000), wk =   0.1111111
        k(   14) = (   0.0596063  -0.0688274   0.0000000), wk =   0.1111111
        k(   15) = (   0.0596063  -0.0344137   0.0000000), wk =   0.1111111
        k(   16) = (   0.0596063  -0.0000000   0.0000000), wk =   0.1111111
        k(   17) = (  -0.0894095  -0.0516206   0.0000000), wk =   0.0555556
        k(   18) = (  -0.0894095  -0.0172069   0.0000000), wk =   0.1111111
        k(   19) = (  -0.0894095   0.0172069   0.0000000), wk =   0.1111111
        k(   20) = (  -0.0894095  -0.1548617   0.0000000), wk =   0.0555556

     Largest allocated arrays     est. size (Mb)     dimensions
     Largest temporary arrays     est. size (Mb)     dimensions

     Initial potential from superposition of free atoms
     Check: negative starting charge=   -0.006251

     starting charge  151.48895, renormalised to  156.00000

[...]

     *
     * You are using vdW-DF for exchange-correlation in this calculation.
     * Please cite the following three references that made this development
     * possible:
     *
     *   M. Dion, H. Rydberg, E. Schroder, D. C. Langreth, and
     *   B. I. Lundqvist, Phys. Rev. Lett. 92, 246401 (2004).
     *
     *   T. Thonhauser, V. R. Cooper, S. Li, A. Puzder, P. Hyldgaard, and
     *   D. C. Langreth, Phys. Rev. B 76, 125112 (2007).
     *
     *   G. Roman-Perez and J. M. Soler, Phys. Rev. Lett. 103, 096102 (2009).
     *
     *
     * If you are using vdW-DF2, please also cite:
     *
     *   K. Lee, E. D. Murray, L. Kong, B. I. Lundqvist, and
     *   D. C. Langreth, Phys. Rev. B 82, 081101(R) (2010).
     *
     *
     * If you are calculating the stress with vdW-DF, please also cite:
     *
     *   R. Sabatini, E. Kucukbenli, B. Kolb, T. Thonhauser, and
     *   S. de Gironcoli, J. Phys.: Condens. Matter 24, 424209 (2012).
     *

     Carrying out vdW-DF run using the following parameters:

     Nqs =      20    Nr_points =    1024   r_max =   100.000
     q_mesh =
               0.00001000     0.04494208     0.09755937     0.15916263
               0.23128650     0.31572767     0.41458969     0.53033537
               0.66584808     0.82450364     1.01025438     1.22772762
               1.48234092     1.78043706     2.12944203     2.53805004
               3.01644009     3.57652955     4.23227104     5.00000000

     Gradients computed in reciprocal space

[...]

     Starting wfc are  117 randomized atomic wfcs

     Self-consistent Calculation

[...]

     total energy              =   -1715.90230616 Ry
     Harris-Foulkes estimate   =   -1715.90230583 Ry
     estimated scf accuracy    <       0.00000157 Ry

     iteration # 26     ecut=    36.75 Ry     beta=0.10
     Davidson diagonalization with overlap
     ethr =  1.00E-09,  avg # of iterations =  1.4

[...]

     negative rho (up, down):  7.782E-03 0.000E+00

     Adding external electric field

     Computed dipole along edir(3) :
        Dipole               -0.0472 Ry au,         -0.1200 Debye
        Dipole field         -0.0001 Ry au

        Potential amp.        0.0120 Ry
        Total length         45.2625 bohr

     End of self-consistent calculation

[...]

          k = 0.0596-0.0000 0.0000 ( 16880 PWs)   bands (ev):

[...]

          k =-0.0894-0.1549 0.0000 ( 16912 PWs)   bands (ev):

   -63.3724 -63.3552 -63.3371 -63.2821 -63.2328 -63.2120 -63.1979 -63.1560
   -63.1479 -37.3554 -37.3259 -37.3074 -37.2809 -37.2720 -37.2286 -37.2243
   -37.2126 -37.1934 -37.1923 -37.1533 -37.1364 -37.1334 -37.1284 -37.0702
   -37.0586 -37.0506 -36.9793 -36.9780 -36.9266 -36.9154 -36.8557 -36.8485
   -36.8261 -36.8031 -36.7983 -36.7427 -13.4690 -13.4524 -13.4420 -13.4160
   -13.4121 -13.3099 -13.2851 -13.2830 -13.2583 -13.2489 -13.1295 -13.1121
   -13.1025 -13.0987 -13.0931  -5.8853  -5.2482  -4.4358  -3.2108  -2.2778
    -2.1738  -2.1647  -1.4005  -0.9982  -0.8622  -0.7706  -0.5959  -0.5860
    -0.5508  -0.2436  -0.1058  -0.0466  -0.0153   0.1605   0.2553   0.2649
     0.3177   0.4645   0.5418   0.6004   0.6767   0.7735   0.9492   0.9907
     1.1196   1.2315   1.2689   1.3064   1.7167   1.9371   1.9785   1.9996
     2.0426   2.1788   2.2089   2.2180   2.3659   2.4083   2.4636   2.5415
     2.6789   2.8438   2.9360   2.9624   3.0006   3.1622   3.5844   3.6711
     3.9100   4.3005   4.4243   4.6811

     the Fermi energy is     0.9091 ev

!    total energy              =   -1715.90230669 Ry
     Harris-Foulkes estimate   =   -1715.90230610 Ry
     estimated scf accuracy    <       0.00000033 Ry

     The total energy is the sum of the following terms:

     one-electron contribution =  -13685.38165419 Ry
     hartree contribution      =    6853.98859186 Ry
     xc contribution           =    -300.94354301 Ry
     ewald contribution        =    5416.54973097 Ry
     electric field correction =       0.00000624 Ry
     smearing contrib. (-TS)   =      -0.11543857 Ry

     convergence has been achieved in  26 iterations

 BEEF-vdW xc energy contributions
           1 :   -261.141981689215
           2 :    236.354388682704
           3 :   -195.014053469974
           4 :    149.533420993297
           5 :   -110.936553420241
           6 :    84.7446752805223
           7 :   -70.1466628291950
           8 :    62.2508751957640
           9 :   -55.6739060184725
          10 :    47.3572515467948
          11 :   -37.3742480190116
          12 :    27.8124438878299
          13 :   -20.8341145450482
          14 :    17.2001623609970
          15 :   -16.0031610052807
          16 :    15.4920076042830
          17 :   -14.2565207298757
          18 :    11.9617712053919
          19 :   -9.26645334729835
          20 :    7.14181395779372
          21 :   -6.15242398351245
          22 :    6.16299473384458
          23 :   -6.56141450274242
          24 :    6.72893033856741
          25 :   -6.40067831101521
          26 :    5.71823155787638
          27 :   -5.02655710401314
          28 :    4.61009808569435
          29 :   -4.54539241847095
          30 :    4.71922261486674
          31 :   -25.6606349592418
          32 :   -18.6173039742042

     Forces acting on atoms (Ry/au):

     negative rho (up, down):  7.782E-03 0.000E+00
     atom    1 type  1   force =     0.00000188   -0.01273579    0.02583372
     atom    2 type  1   force =    -0.01103088    0.00636822    0.02582582
     atom    3 type  1   force =     0.01103374    0.00636784    0.02583073
     atom    4 type  2   force =     0.00000821   -0.00000620   -0.06440147
     atom    5 type  1   force =    -0.00000054    0.01913003    0.00164661
     atom    6 type  1   force =     0.01657053   -0.00956477    0.00164712
     atom    7 type  1   force =    -0.01656911   -0.00956315    0.00164645
     atom    8 type  2   force =    -0.00000174   -0.00000084   -0.01846138
     atom    9 type  1   force =     0.00000032    0.00004141    0.00019846
     atom   10 type  1   force =     0.00003362   -0.00001788    0.00019770
     atom   11 type  1   force =    -0.00003902   -0.00002127    0.00019540
     atom   12 type  2   force =    -0.00000700    0.00000240   -0.00015916

     Total force =     0.089905     Total SCF correction =     0.001593

     entering subroutine stress ...

     negative rho (up, down):  7.782E-03 0.000E+00
          total   stress  (Ry/bohr**3)                   (kbar)     P=   -8.63
  -0.00008013  -0.00000001  -0.00000000        -11.79     -0.00     -0.00
  -0.00000001  -0.00008015   0.00000000         -0.00    -11.79      0.00
  -0.00000000   0.00000000  -0.00001567         -0.00      0.00     -2.31

 !ASE

     Writing output data file calc.save

     General routines

     Parallel routines

   This run was terminated on:   7:31:45   2Jan2019

   JOB DONE.
Job  /afs/slac/g/suncat/bin/suncat-tsmpirun -x LD_LIBRARY_PATH -wdir /scratch/qe649308_oXzgZ pw.x -in pw.inp

TID   HOST_NAME   COMMAND_LINE            STATUS            TERMINATION_TIME
00000 suncat0163 pw.x -in pw.inp   Done                     01/02/2019 07:31:45
00001 suncat0163 pw.x -in pw.inp   Done                     01/02/2019 07:31:45
00002 suncat0163 pw.x -in pw.inp   Done                     01/02/2019 07:31:45
00003 suncat0163 pw.x -in pw.inp   Done                     01/02/2019 07:31:45
00004 suncat0163 pw.x -in pw.inp   Done                     01/02/2019 07:31:45
00005 suncat0163 pw.x -in pw.inp   Done                     01/02/2019 07:31:45
00006 suncat0163 pw.x -in pw.inp   Done                     01/02/2019 07:31:45
00007 suncat0163 pw.x -in pw.inp   Done                     01/02/2019 07:31:45
00008 suncat0162 pw.x -in pw.inp   Done                     01/02/2019 07:31:45
00009 suncat0162 pw.x -in pw.inp   Done                     01/02/2019 07:31:45
00010 suncat0162 pw.x -in pw.inp   Done                     01/02/2019 07:31:45
00011 suncat0162 pw.x -in pw.inp   Done                     01/02/2019 07:31:45
00012 suncat0162 pw.x -in pw.inp   Done                     01/02/2019 07:31:45
00013 suncat0162 pw.x -in pw.inp   Done                     01/02/2019 07:31:45
00014 suncat0162 pw.x -in pw.inp   Done                     01/02/2019 07:31:45
00015 suncat0162 pw.x -in pw.inp   Done                     01/02/2019 07:31:45
00016 suncat0139 pw.x -in pw.inp   Done                     01/02/2019 07:31:45
00017 suncat0139 pw.x -in pw.inp   Done                     01/02/2019 07:31:45
00018 suncat0139 pw.x -in pw.inp   Done                     01/02/2019 07:31:45
00019 suncat0139 pw.x -in pw.inp   Done                     01/02/2019 07:31:45
00020 suncat0139 pw.x -in pw.inp   Done                     01/02/2019 07:31:45
00021 suncat0139 pw.x -in pw.inp   Done                     01/02/2019 07:31:45
00022 suncat0139 pw.x -in pw.inp   Done                     01/02/2019 07:31:45
00023 suncat0139 pw.x -in pw.inp   Done                     01/02/2019 07:31:45
00024 suncat0133 pw.x -in pw.inp   Done                     01/02/2019 07:31:45
00025 suncat0133 pw.x -in pw.inp   Done                     01/02/2019 07:31:45
00026 suncat0133 pw.x -in pw.inp   Done                     01/02/2019 07:31:45
00027 suncat0133 pw.x -in pw.inp   Done                     01/02/2019 07:31:45
00028 suncat0133 pw.x -in pw.inp   Done                     01/02/2019 07:31:45
00029 suncat0133 pw.x -in pw.inp   Done                     01/02/2019 07:31:45
00030 suncat0133 pw.x -in pw.inp   Done                     01/02/2019 07:31:45
00031 suncat0133 pw.x -in pw.inp   Done                     01/02/2019 07:31:45
00032 suncat0123 pw.x -in pw.inp   Done                     01/02/2019 07:31:45
00033 suncat0123 pw.x -in pw.inp   Done                     01/02/2019 07:31:45
00034 suncat0123 pw.x -in pw.inp   Done                     01/02/2019 07:31:45
00035 suncat0123 pw.x -in pw.inp   Done                     01/02/2019 07:31:45
00036 suncat0123 pw.x -in pw.inp   Done                     01/02/2019 07:31:45
00037 suncat0123 pw.x -in pw.inp   Done                     01/02/2019 07:31:45
00038 suncat0123 pw.x -in pw.inp   Done                     01/02/2019 07:31:45
00039 suncat0123 pw.x -in pw.inp   Done                     01/02/2019 07:31:45
00040 suncat0122 pw.x -in pw.inp   Done                     01/02/2019 07:31:45
00041 suncat0122 pw.x -in pw.inp   Done                     01/02/2019 07:31:45
00042 suncat0122 pw.x -in pw.inp   Done                     01/02/2019 07:31:45
00043 suncat0122 pw.x -in pw.inp   Done                     01/02/2019 07:31:45
00044 suncat0122 pw.x -in pw.inp   Done                     01/02/2019 07:31:45
00045 suncat0122 pw.x -in pw.inp   Done                     01/02/2019 07:31:45
00046 suncat0122 pw.x -in pw.inp   Done                     01/02/2019 07:31:45
00047 suncat0122 pw.x -in pw.inp   Done                     01/02/2019 07:31:45
00048 suncat0207 pw.x -in pw.inp   Done                     01/02/2019 07:31:45
00049 suncat0207 pw.x -in pw.inp   Done                     01/02/2019 07:31:45
00050 suncat0207 pw.x -in pw.inp   Done                     01/02/2019 07:31:45
00051 suncat0207 pw.x -in pw.inp   Done                     01/02/2019 07:31:45
00052 suncat0207 pw.x -in pw.inp   Done                     01/02/2019 07:31:45
00053 suncat0207 pw.x -in pw.inp   Done                     01/02/2019 07:31:45
00054 suncat0207 pw.x -in pw.inp   Done                     01/02/2019 07:31:45
00055 suncat0207 pw.x -in pw.inp   Done                     01/02/2019 07:31:45
00056 suncat0206 pw.x -in pw.inp   Done                     01/02/2019 07:31:45
00057 suncat0206 pw.x -in pw.inp   Done                     01/02/2019 07:31:45
00058 suncat0206 pw.x -in pw.inp   Done                     01/02/2019 07:31:45
00059 suncat0206 pw.x -in pw.inp   Done                     01/02/2019 07:31:45
00060 suncat0206 pw.x -in pw.inp   Done                     01/02/2019 07:31:45
00061 suncat0206 pw.x -in pw.inp   Done                     01/02/2019 07:31:45
00062 suncat0206 pw.x -in pw.inp   Done                     01/02/2019 07:31:45
00063 suncat0206 pw.x -in pw.inp   Done                     01/02/2019 07:31:45