     Program PWSCF v.5.1rc2 (svn rev. 11289) starts on 26Dec2018 at 11:16:59

     Current dimensions of program PWSCF are:
     Max number of different atomic species (ntypx) = 10
     Max number of k-points (npk) =  40000
     Max angular momentum in pseudopotentials (lmaxx) =  3
     Presently stress not available with electric field

     IMPORTANT: XC functional enforced from input :
     Exchange-correlation      = BEEF-VDW ( 1  4 27 13 2)
     Any further DFT definition will be discarded
     Please, verify this is what you really want

     Subspace diagonalization in iterative solution of the eigenvalue problem:
     a serial algorithm will be used

     bravais-lattice index     =            0
     lattice parameter (alat)  =       1.8897  a.u.
     unit-cell volume          =    6473.4207 (a.u.)^3
     number of atoms/cell      =           12
     number of atomic types    =            2
     number of electrons       =       141.00
     number of Kohn-Sham states=          100
     kinetic-energy cutoff     =      36.7493  Ry
     charge density cutoff     =     367.4932  Ry
     convergence threshold     =      1.0E-06
     mixing beta               =       0.1000
     number of iterations used =           10  plain     mixing
     Exchange-correlation      = BEEF-VDW ( 1  4 27 13 2)
     nstep                     =           50

     celldm(1)=   1.889726  celldm(2)=   0.000000  celldm(3)=   0.000000
     celldm(4)=   0.000000  celldm(5)=   0.000000  celldm(6)=   0.000000

     crystal axes: (cart. coord. in units of alat)
               a(1) = (   6.604640   0.000000   0.000000 )
               a(2) = (  -3.302320   5.719786   0.000000 )
               a(3) = (   0.000000   0.000000  25.392666 )

     reciprocal axes: (cart. coord. in units 2 pi/alat)
               b(1) = (  0.151409  0.087416  0.000000 )
               b(2) = (  0.000000  0.174832  0.000000 )
               b(3) = (  0.000000  0.000000  0.039381 )

     PseudoPot. # 1 for Hg read from file:
     /afs/slac.stanford.edu/u/if/mamunm/psp/gbrv1.5pbe/Hg.UPF
     MD5 check sum: 8f42caffe07f7fd9c0a564347f8c5498
     Pseudo is Ultrasoft + core correction, Zval = 12.0
     Generated by new atomic code, or converted to UPF format
     Using radial grid of  985 points,  6 beta functions with:
                l(1) =   0
                l(2) =   0
                l(3) =   1
                l(4) =   1
                l(5) =   2
                l(6) =   2
     Q(r) pseudized with  8 coefficients,  rinner =    2.000   2.000   2.000
                                                       2.000   2.000

     PseudoPot. # 2 for Y  read from file:
     /afs/slac.stanford.edu/u/if/mamunm/psp/gbrv1.5pbe/Y.UPF
     MD5 check sum: d034151ed7554c50b6e82763ed42c788
     Pseudo is Ultrasoft + core correction, Zval = 11.0
     Generated by new atomic code, or converted to UPF format
     Using radial grid of  885 points,  6 beta functions with:
                l(1) =   0
                l(2) =   0
                l(3) =   1
                l(4) =   1
                l(5) =   2
                l(6) =   2
     Q(r) pseudized with  8 coefficients,  rinner =    1.200   1.200   1.200
                                                       1.200   1.200

     vdW kernel table read from file vdW_kernel_table
     MD5 check sum: 095c7af220d748ca6e76c0b4c6cfb241

     atomic species   valence    mass     pseudopotential
        Hg1           12.00   200.59200     Hg( 1.00)
        Y1            11.00    88.90584     Y ( 1.00)

     No symmetry found

   Cartesian axes

     site n.     atom                  positions (alat units)
         1           Hg1 tau(   1) = (   0.0000000   0.0000000  10.0000000  )
         2           Hg1 tau(   2) = (  -1.6511600   2.8598930  10.0000000  )
         3           Hg1 tau(   3) = (   1.6511600   2.8598930  10.0000000  )
         4           Y1  tau(   4) = (   3.3023200   0.0000000  10.0000000  )
         5           Hg1 tau(   5) = (   3.3023200   1.9065953  12.6963330  )
         6           Hg1 tau(   6) = (   1.6511600   4.7664883  12.6963330  )
         7           Hg1 tau(   7) = (  -1.6511600   4.7664883  12.6963330  )
         8           Y1  tau(   8) = (   0.0000000   1.9065953  12.6963330  )
         9           Hg1 tau(   9) = (  -0.0000000   3.8131907  15.3926660  )
        10           Hg1 tau(  10) = (   1.6511600   0.9532977  15.3926660  )
        11           Hg1 tau(  11) = (   4.9534800   0.9532977  15.3926660  )
        12           Y1  tau(  12) = (   3.3023200   3.8131907  15.3926660  )

     number of k points=    20  Fermi-Dirac smearing, width (Ry)=  0.0110
                       cart. coord. in units 2pi/alat
        k(    1) = (   0.0000000   0.0000000   0.0000000), wk =   0.0555556
        k(    2) = (   0.0000000   0.0291386   0.0000000), wk =   0.1111111
        k(    3) = (   0.0000000   0.0582772   0.0000000), wk =   0.1111111
        k(    4) = (   0.0000000  -0.0874159   0.0000000), wk =   0.0555556
        k(    5) = (   0.0252348   0.0145693   0.0000000), wk =   0.1111111
        k(    6) = (   0.0252348   0.0437079   0.0000000), wk =   0.1111111
        k(    7) = (   0.0252348   0.0728465   0.0000000), wk =   0.1111111
        k(    8) = (   0.0252348  -0.0728465   0.0000000), wk =   0.1111111
        k(    9) = (   0.0252348  -0.0437079   0.0000000), wk =   0.1111111
        k(   10) = (   0.0252348  -0.0145693   0.0000000), wk =   0.1111111
        k(   11) = (   0.0504696   0.0291386   0.0000000), wk =   0.1111111
        k(   12) = (   0.0504696   0.0582772   0.0000000), wk =   0.1111111
        k(   13) = (   0.0504696   0.0874159   0.0000000), wk =   0.1111111
        k(   14) = (   0.0504696  -0.0582772   0.0000000), wk =   0.1111111
        k(   15) = (   0.0504696  -0.0291386   0.0000000), wk =   0.1111111
        k(   16) = (   0.0504696   0.0000000   0.0000000), wk =   0.1111111
        k(   17) = (  -0.0757044  -0.0437079   0.0000000), wk =   0.0555556
        k(   18) = (  -0.0757044  -0.0145693   0.0000000), wk =   0.1111111
        k(   19) = (  -0.0757044   0.0145693   0.0000000), wk =   0.1111111
        k(   20) = (  -0.0757044  -0.1311238   0.0000000), wk =   0.0555556

     Largest allocated arrays     est. size (Mb)     dimensions
     Largest temporary arrays     est. size (Mb)     dimensions

     Initial potential from superposition of free atoms
     Check: negative starting charge=   -0.000319

     starting charge  140.98607, renormalised to  141.00000

     negative rho (up, down):  3.188E-04 0.000E+00

     *
     * You are using vdW-DF for exchange-correlation in this calculation.
     * Please cite the following three references that made this development
     * possible:
     *
     *   M. Dion, H. Rydberg, E. Schroder, D. C. Langreth, and
     *   B. I. Lundqvist, Phys. Rev. Lett. 92, 246401 (2004).
     *
     *   T. Thonhauser, V. R. Cooper, S. Li, A. Puzder, P. Hyldgaard, and
     *   D. C. Langreth, Phys. Rev. B 76, 125112 (2007).
     *
     *   G. Roman-Perez and J. M. Soler, Phys. Rev. Lett. 103, 096102 (2009).
     *
     *
     * If you are using vdW-DF2, please also cite:
     *
     *   K. Lee, E. D. Murray, L. Kong, B. I. Lundqvist, and
     *   D. C. Langreth, Phys. Rev. B 82, 081101(R) (2010).
     *
     *
     * If you are calculating the stress with vdW-DF, please also cite:
     *
     *   R. Sabatini, E. Kucukbenli, B. Kolb, T. Thonhauser, and
     *   S. de Gironcoli, J. Phys.: Condens. Matter 24, 424209 (2012).
     *

     Carrying out vdW-DF run using the following parameters:

     Nqs =      20    Nr_points =    1024   r_max =   100.000
     q_mesh =
               0.00001000     0.04494208     0.09755937     0.15916263
               0.23128650     0.31572767     0.41458969     0.53033537
               0.66584808     0.82450364     1.01025438     1.22772762
               1.48234092     1.78043706     2.12944203     2.53805004
               3.01644009     3.57652955     4.23227104     5.00000000

     Gradients computed in reciprocal space

     Adding external electric field

     Computed dipole along edir(3) :
        Dipole                0.0000 Ry au,          0.0000 Debye
        Dipole field          0.0000 Ry au

        Potential amp.       -0.0000 Ry
        Total length         46.7856 bohr

     Starting wfc are  120 randomized atomic wfcs

     Self-consistent Calculation

     iteration #  1     ecut=    36.75 Ry     beta=0.10
     Davidson diagonalization with overlap
     ethr =  1.00E-02,  avg # of iterations =  6.9

     Threshold (ethr) on eigenvalues was too large:
     Diagonalizing with lowered threshold

     Davidson diagonalization with overlap
     ethr =  1.82E-04,  avg # of iterations =  8.8

[...]

     total energy              =   -1263.20446717 Ry
     Harris-Foulkes estimate   =   -1263.24303128 Ry
     estimated scf accuracy    <       0.27901783 Ry

[...]

     End of self-consistent calculation

          k = 0.0000 0.0000 0.0000 ( 24225 PWs)   bands (ev):

   -43.1895 -43.1894 -43.0119 -23.1835 -23.1812 -23.0357 -23.0357 -23.0352
   -23.0352 -22.9797 -22.8887 -22.8887  -6.9522  -6.7872  -6.7654  -6.7654
    -6.7558  -6.7453  -6.7114  -6.7051  -6.6635  -6.6635  -6.6071  -6.6071
    -6.5765  -6.5765  -6.4915  -6.3378  -6.3378  -6.3128  -6.2221  -6.2023
    -6.2023  -6.0980  -6.0550  -6.0369  -6.0369  -5.9627  -5.9627  -5.9585
    -5.9585  -5.8789  -5.8789  -5.8372  -5.7140  -5.7140  -5.7069  -5.7069
    -5.6593  -5.6593  -5.5142  -5.5142  -5.5138  -5.3577  -5.3577  -5.3472
    -5.2937  -5.2655  -5.1954  -3.2939  -2.0671  -2.0671  -1.6996  -1.6996
    -0.9020  -0.9020  -0.3080   0.1414   0.4475   0.5603   0.5603   0.8571
     1.6810   1.7190   1.7190   1.8794   1.8794   2.5043   2.5043   2.5405
     2.5405   2.8301   3.2925   3.5966   3.5966   3.9855   3.9855   4.0343
     4.0566   4.0566   4.2022   4.6387   4.6387   4.6839   4.7932   4.8001
     4.9802   5.7315   6.2734   6.2734

[...]

          k =-0.0757-0.0437 0.0000 ( 24388 PWs)   bands (ev):

[...]

     the Fermi energy is     1.0856 ev

!    total energy              =   -1263.19991566 Ry
     Harris-Foulkes estimate   =   -1263.19991617 Ry
     estimated scf accuracy    <       0.00000093 Ry

     The total energy is the sum of the following terms:

     one-electron contribution =   -7277.74487221 Ry
     hartree contribution      =    3705.57596149 Ry
     xc contribution           =    -448.55147050 Ry
     ewald contribution        =    2757.57774463 Ry
     electric field correction =       0.00000000 Ry
     smearing contrib. (-TS)   =      -0.05727907 Ry

     convergence has been achieved in  13 iterations

 BEEF-vdW xc energy contributions
           1 :   -392.901216126948
           2 :    359.878473153385
           3 :   -302.582855155447
           4 :    234.731808964434
           5 :   -169.813444166234
           6 :    117.037345623877
           7 :   -79.7923171532143
           8 :    56.5087583877257
           9 :   -42.9329271084304
          10 :    34.5622712949721
          11 :   -28.2656352126928
          12 :    22.6963042773503
          13 :   -17.7580620892955
[...]
     Pseudo is Ultrasoft + core correction, Zval = 12.0
     Generated by new atomic code, or converted to UPF format
     Using radial grid of  985 points,  6 beta functions with:
                l(1) =   0
                l(2) =   0
                l(3) =   1
                l(4) =   1
                l(5) =   2
                l(6) =   2
     Q(r) pseudized with  8 coefficients,  rinner =    2.000   2.000   2.000
                                                       2.000   2.000

     PseudoPot. # 2 for Y  read from file:
     /afs/slac.stanford.edu/u/if/mamunm/psp/gbrv1.5pbe/Y.UPF
     MD5 check sum: d034151ed7554c50b6e82763ed42c788
     Pseudo is Ultrasoft + core correction, Zval = 11.0
     Generated by new atomic code, or converted to UPF format
     Using radial grid of  885 points,  6 beta functions with:
                l(1) =   0
                l(2) =   0
                l(3) =   1
                l(4) =   1
                l(5) =   2
                l(6) =   2
     Q(r) pseudized with  8 coefficients,  rinner =    1.200   1.200   1.200
                                                       1.200   1.200

     vdW kernel table read from file vdW_kernel_table
     MD5 check sum: 095c7af220d748ca6e76c0b4c6cfb241

     atomic species   valence    mass     pseudopotential
        Hg1           12.00   200.59200     Hg( 1.00)
        Y1            11.00    88.90584     Y ( 1.00)

     No symmetry found

   Cartesian axes

     site n.     atom                  positions (alat units)
         1           Hg1 tau(   1) = (   0.0000000   0.0000000  10.0000000  )
         2           Hg1 tau(   2) = (  -1.6511600   2.8598930  10.0000000  )
         3           Hg1 tau(   3) = (   1.6511600   2.8598930  10.0000000  )
         4           Y1  tau(   4) = (   3.3023200   0.0000000  10.0000000  )
         5           Hg1 tau(   5) = (   3.3023200   1.9065953  12.6963330  )
         6           Hg1 tau(   6) = (   1.6511600   4.7664883  12.6963330  )
         7           Hg1 tau(   7) = (  -1.6511600   4.7664883  12.6963330  )
         8           Y1  tau(   8) = (   0.0000000   1.9065953  12.6963330  )
         9           Hg1 tau(   9) = (   0.0000025   3.8289731  15.5128909  )
        10           Hg1 tau(  10) = (   1.6648357   0.9454327  15.5128746  )
        11           Hg1 tau(  11) = (   4.9398073   0.9454168  15.5128903  )
        12           Y1  tau(  12) = (   3.3023374   3.8132068  15.1585217  )

     number of k points=    20  Fermi-Dirac smearing, width (Ry)=  0.0110
                       cart. coord. in units 2pi/alat
        k(    1) = (   0.0000000   0.0000000   0.0000000), wk =   0.0555556
        k(    2) = (   0.0000000   0.0291386   0.0000000), wk =   0.1111111
        k(    3) = (   0.0000000   0.0582772   0.0000000), wk =   0.1111111
        k(    4) = (   0.0000000  -0.0874159   0.0000000), wk =   0.0555556
        k(    5) = (   0.0252348   0.0145693   0.0000000), wk =   0.1111111
        k(    6) = (   0.0252348   0.0437079   0.0000000), wk =   0.1111111
        k(    7) = (   0.0252348   0.0728465   0.0000000), wk =   0.1111111
        k(    8) = (   0.0252348  -0.0728465   0.0000000), wk =   0.1111111
        k(    9) = (   0.0252348  -0.0437079   0.0000000), wk =   0.1111111
        k(   10) = (   0.0252348  -0.0145693   0.0000000), wk =   0.1111111
        k(   11) = (   0.0504696   0.0291386   0.0000000), wk =   0.1111111
        k(   12) = (   0.0504696   0.0582772   0.0000000), wk =   0.1111111
        k(   13) = (   0.0504696   0.0874159   0.0000000), wk =   0.1111111
        k(   14) = (   0.0504696  -0.0582772   0.0000000), wk =   0.1111111
        k(   15) = (   0.0504696  -0.0291386   0.0000000), wk =   0.1111111
        k(   16) = (   0.0504696   0.0000000   0.0000000), wk =   0.1111111
        k(   17) = (  -0.0757044  -0.0437079   0.0000000), wk =   0.0555556
        k(   18) = (  -0.0757044  -0.0145693   0.0000000), wk =   0.1111111
        k(   19) = (  -0.0757044   0.0145693   0.0000000), wk =   0.1111111
        k(   20) = (  -0.0757044  -0.1311238   0.0000000), wk =   0.0555556

     Largest allocated arrays     est. size (Mb)     dimensions
     Largest temporary arrays     est. size (Mb)     dimensions

     Initial potential from superposition of free atoms
     Check: negative starting charge=   -0.000312

     starting charge  140.98607, renormalised to  141.00000

[...]

     *
     * You are using vdW-DF for exchange-correlation in this calculation.
     * Please cite the following three references that made this development
     * possible:
     *
     *   M. Dion, H. Rydberg, E. Schroder, D. C. Langreth, and
     *   B. I. Lundqvist, Phys. Rev. Lett. 92, 246401 (2004).
     *
     *   T. Thonhauser, V. R. Cooper, S. Li, A. Puzder, P. Hyldgaard, and
     *   D. C. Langreth, Phys. Rev. B 76, 125112 (2007).
     *
     *   G. Roman-Perez and J. M. Soler, Phys. Rev. Lett. 103, 096102 (2009).
     *
     *
     * If you are using vdW-DF2, please also cite:
     *
     *   K. Lee, E. D. Murray, L. Kong, B. I. Lundqvist, and
     *   D. C. Langreth, Phys. Rev. B 82, 081101(R) (2010).
     *
     *
     * If you are calculating the stress with vdW-DF, please also cite:
     *
     *   R. Sabatini, E. Kucukbenli, B. Kolb, T. Thonhauser, and
     *   S. de Gironcoli, J. Phys.: Condens. Matter 24, 424209 (2012).
     *

     Carrying out vdW-DF run using the following parameters:

     Nqs =      20    Nr_points =    1024   r_max =   100.000
     q_mesh =
               0.00001000     0.04494208     0.09755937     0.15916263
               0.23128650     0.31572767     0.41458969     0.53033537
               0.66584808     0.82450364     1.01025438     1.22772762
               1.48234092     1.78043706     2.12944203     2.53805004
               3.01644009     3.57652955     4.23227104     5.00000000

     Gradients computed in reciprocal space

[...]

     Starting wfc are  120 randomized atomic wfcs

     Self-consistent Calculation

[...]

     Threshold (ethr) on eigenvalues was too large:
     Diagonalizing with lowered threshold

     Davidson diagonalization with overlap
     ethr =  1.98E-04,  avg # of iterations =  8.8

[...]

     total energy              =   -1263.20704801 Ry
     Harris-Foulkes estimate   =   -1263.20704792 Ry
     estimated scf accuracy    <       0.00000184 Ry

     iteration # 13     ecut=    36.75 Ry     beta=0.10
     Davidson diagonalization with overlap
     ethr =  1.31E-09,  avg # of iterations =  2.0

[...]

     negative rho (up, down):  6.452E-05 0.000E+00

     Adding external electric field

     Computed dipole along edir(3) :
        Dipole               -0.0927 Ry au,         -0.2356 Debye
        Dipole field         -0.0002 Ry au

        Potential amp.        0.0168 Ry
        Total length         46.7856 bohr

     End of self-consistent calculation

[...]

          k = 0.0505 0.0000 0.0000 ( 24374 PWs)   bands (ev):

[...]

          k =-0.0757-0.1311 0.0000 ( 24388 PWs)   bands (ev):

   -43.2558 -43.1200 -43.0754 -23.2522 -23.1070 -23.1034 -23.0863 -23.0684
   -22.9900 -22.9889 -22.9498 -22.9470  -6.7889  -6.7037  -6.6792  -6.5917
    -6.5635  -6.5434  -6.5315  -6.5312  -6.5075  -6.4981  -6.4636  -6.4413
    -6.3823  -6.3455  -6.3250  -6.3053  -6.2479  -6.2475  -6.2062  -6.1573
    -6.1311  -6.1277  -6.1079  -6.0940  -6.0785  -6.0580  -6.0445  -6.0355
    -6.0241  -6.0173  -5.9898  -5.9756  -5.9603  -5.9501  -5.9402  -5.8956
    -5.8791  -5.8738  -5.8419  -5.8090  -5.7703  -5.7095  -5.6302  -5.5093
    -5.4129  -5.3678  -5.2295  -4.1597  -3.9951  -3.0778  -2.6484  -2.4263
    -1.7828  -0.8734  -0.6118  -0.2826   0.5885   1.0448   1.0918   1.1325
     1.3679   1.4281   1.7571   1.9343   2.1157   2.3969   2.9443   3.0636
     3.1398   3.5102   3.6622   3.7045   3.8156   3.8950   4.0356   4.2462
     4.4197   4.6284   4.8598   4.9755   5.0088   5.0483   5.1678   5.2732
     5.6401   5.7219   5.8304   5.9917

     the Fermi energy is     1.0206 ev

!    total energy              =   -1263.20704786 Ry
     Harris-Foulkes estimate   =   -1263.20704742 Ry
     estimated scf accuracy    <       0.00000099 Ry

     The total energy is the sum of the following terms:

     one-electron contribution =   -7235.44482464 Ry
     hartree contribution      =    3684.14221173 Ry
     xc contribution           =    -448.56274168 Ry
     ewald contribution        =    2736.71750447 Ry
     electric field correction =       0.00001668 Ry
     smearing contrib. (-TS)   =      -0.05921443 Ry

     convergence has been achieved in  13 iterations

 BEEF-vdW xc energy contributions
           1 :   -392.906924828686
           2 :    359.861827644893
           3 :   -302.545759581854
           4 :    234.697771214857
           5 :   -169.806129629358
           6 :    117.060289552688
           7 :   -79.8225338886944
           8 :    56.5118197392658
           9 :   -42.8905933988098
          10 :    34.4886447926817
          11 :   -28.1972424429683
          12 :    22.6671246588128
          13 :   -17.7799468855989
          14 :    13.8007552320738
          15 :   -10.7565528873048
          16 :    8.26003791024743
          17 :   -5.70492360683386
          18 :    2.62177696136109
          19 :    1.01926070154877
          20 :   -4.72525513616932
          21 :    7.68181152220927
          22 :   -9.16069523851672
          23 :    8.92030469235772
          24 :   -7.36905792918867
          25 :    5.38440006592970
          26 :   -3.88142278431036
          27 :    3.37262926388757
          28 :   -3.76783870853887
          29 :    4.51539321372826
          30 :   -4.97976421116152
          31 :   -36.7066277669600
          32 :   -26.6058151607102

     Forces acting on atoms (Ry/au):

     negative rho (up, down):  6.452E-05 0.000E+00
     atom    1 type  1   force =    -0.00000045   -0.00376097   -0.00519716
     atom    2 type  1   force =    -0.00325610    0.00188042   -0.00519685
     atom    3 type  1   force =     0.00325572    0.00188025   -0.00519753
     atom    4 type  2   force =    -0.00000133   -0.00000086    0.01730179
     atom    5 type  1   force =    -0.00000060   -0.00677956   -0.00401878
     atom    6 type  1   force =    -0.00587298    0.00338838   -0.00401963
     atom    7 type  1   force =     0.00587327    0.00339008   -0.00401996
     atom    8 type  2   force =     0.00000090   -0.00000130    0.00550955
     atom    9 type  1   force =     0.00000049    0.00087248    0.00102532
     atom   10 type  1   force =     0.00075561   -0.00043758    0.00102614
     atom   11 type  1   force =    -0.00075421   -0.00043502    0.00102644
     atom   12 type  2   force =    -0.00000034    0.00000369    0.00176068

     Total force =     0.025458     Total SCF correction =     0.002858
     SCF correction compared to forces is large: reduce conv_thr to get better values

     entering subroutine stress ...

     negative rho (up, down):  6.452E-05 0.000E+00
          total   stress  (Ry/bohr**3)                   (kbar)     P=   -1.82
  -0.00002014   0.00000000  -0.00000000         -2.96      0.00     -0.00
   0.00000000  -0.00002014  -0.00000000          0.00     -2.96     -0.00
  -0.00000000  -0.00000000   0.00000323         -0.00     -0.00      0.48

 !ASE

     Writing output data file calc.save

     General routines

     Parallel routines

   This run was terminated on:  13: 3:23  26Dec2018

   JOB DONE.
Job  /afs/slac/g/suncat/bin/suncat-tsmpirun -x LD_LIBRARY_PATH -wdir /scratch/qe109846_n47ct pw.x -in pw.inp

TID   HOST_NAME   COMMAND_LINE            STATUS            TERMINATION_TIME
00000 suncat0180 pw.x -in pw.inp   Done                     12/26/2018 13:03:23
00001 suncat0180 pw.x -in pw.inp   Done                     12/26/2018 13:03:23
00002 suncat0180 pw.x -in pw.inp   Done                     12/26/2018 13:03:23
00003 suncat0180 pw.x -in pw.inp   Done                     12/26/2018 13:03:23
00004 suncat0180 pw.x -in pw.inp   Done                     12/26/2018 13:03:23
00005 suncat0180 pw.x -in pw.inp   Done                     12/26/2018 13:03:23
00006 suncat0180 pw.x -in pw.inp   Done                     12/26/2018 13:03:23
00007 suncat0180 pw.x -in pw.inp   Done                     12/26/2018 13:03:23
00008 suncat0167 pw.x -in pw.inp   Done                     12/26/2018 13:03:23
00009 suncat0167 pw.x -in pw.inp   Done                     12/26/2018 13:03:23
00010 suncat0167 pw.x -in pw.inp   Done                     12/26/2018 13:03:23
00011 suncat0167 pw.x -in pw.inp   Done                     12/26/2018 13:03:23
00012 suncat0167 pw.x -in pw.inp   Done                     12/26/2018 13:03:23
00013 suncat0167 pw.x -in pw.inp   Done                     12/26/2018 13:03:23
00014 suncat0167 pw.x -in pw.inp   Done                     12/26/2018 13:03:23
00015 suncat0167 pw.x -in pw.inp   Done                     12/26/2018 13:03:23
00016 suncat0166 pw.x -in pw.inp   Done                     12/26/2018 13:03:23
00017 suncat0166 pw.x -in pw.inp   Done                     12/26/2018 13:03:23
00018 suncat0166 pw.x -in pw.inp   Done                     12/26/2018 13:03:23
00019 suncat0166 pw.x -in pw.inp   Done                     12/26/2018 13:03:23
00020 suncat0166 pw.x -in pw.inp   Done                     12/26/2018 13:03:23
00021 suncat0166 pw.x -in pw.inp   Done                     12/26/2018 13:03:23
00022 suncat0166 pw.x -in pw.inp   Done                     12/26/2018 13:03:23
00023 suncat0166 pw.x -in pw.inp   Done                     12/26/2018 13:03:23
00024 suncat0165 pw.x -in pw.inp   Done                     12/26/2018 13:03:23
00025 suncat0165 pw.x -in pw.inp   Done                     12/26/2018 13:03:23
00026 suncat0165 pw.x -in pw.inp   Done                     12/26/2018 13:03:23
00027 suncat0165 pw.x -in pw.inp   Done                     12/26/2018 13:03:23
00028 suncat0165 pw.x -in pw.inp   Done                     12/26/2018 13:03:23
00029 suncat0165 pw.x -in pw.inp   Done                     12/26/2018 13:03:23
00030 suncat0165 pw.x -in pw.inp   Done                     12/26/2018 13:03:23
00031 suncat0165 pw.x -in pw.inp   Done                     12/26/2018 13:03:23
00032 suncat0164 pw.x -in pw.inp   Done                     12/26/2018 13:03:23
00033 suncat0164 pw.x -in pw.inp   Done                     12/26/2018 13:03:23
00034 suncat0164 pw.x -in pw.inp   Done                     12/26/2018 13:03:23
00035 suncat0164 pw.x -in pw.inp   Done                     12/26/2018 13:03:23
00036 suncat0164 pw.x -in pw.inp   Done                     12/26/2018 13:03:23
00037 suncat0164 pw.x -in pw.inp   Done                     12/26/2018 13:03:23
00038 suncat0164 pw.x -in pw.inp   Done                     12/26/2018 13:03:23
00039 suncat0164 pw.x -in pw.inp   Done                     12/26/2018 13:03:23
00040 suncat0149 pw.x -in pw.inp   Done                     12/26/2018 13:03:23
00041 suncat0149 pw.x -in pw.inp   Done                     12/26/2018 13:03:23
00042 suncat0149 pw.x -in pw.inp   Done                     12/26/2018 13:03:23
00043 suncat0149 pw.x -in pw.inp   Done                     12/26/2018 13:03:23
00044 suncat0149 pw.x -in pw.inp   Done                     12/26/2018 13:03:23
00045 suncat0149 pw.x -in pw.inp   Done                     12/26/2018 13:03:23
00046 suncat0149 pw.x -in pw.inp   Done                     12/26/2018 13:03:23
00047 suncat0149 pw.x -in pw.inp   Done                     12/26/2018 13:03:23
00048 suncat0148 pw.x -in pw.inp   Done                     12/26/2018 13:03:23
00049 suncat0148 pw.x -in pw.inp   Done                     12/26/2018 13:03:23
00050 suncat0148 pw.x -in pw.inp   Done                     12/26/2018 13:03:23
00051 suncat0148 pw.x -in pw.inp   Done                     12/26/2018 13:03:23
00052 suncat0148 pw.x -in pw.inp   Done                     12/26/2018 13:03:23
00053 suncat0148 pw.x -in pw.inp   Done                     12/26/2018 13:03:23
00054 suncat0148 pw.x -in pw.inp   Done                     12/26/2018 13:03:23
00055 suncat0148 pw.x -in pw.inp   Done                     12/26/2018 13:03:23
00056 suncat0137 pw.x -in pw.inp   Done                     12/26/2018 13:03:23
00057 suncat0137 pw.x -in pw.inp   Done                     12/26/2018 13:03:23
00058 suncat0137 pw.x -in pw.inp   Done                     12/26/2018 13:03:23
00059 suncat0137 pw.x -in pw.inp   Done                     12/26/2018 13:03:23
00060 suncat0137 pw.x -in pw.inp   Done                     12/26/2018 13:03:23
00061 suncat0137 pw.x -in pw.inp   Done                     12/26/2018 13:03:23
00062 suncat0137 pw.x -in pw.inp   Done                     12/26/2018 13:03:23
00063 suncat0137 pw.x -in pw.inp   Done                     12/26/2018 13:03:23