     Program PWSCF v.5.1rc2 (svn rev. 11289) starts on  2Jan2019 at 12:55:21

     Current dimensions of program PWSCF are:
     Max number of different atomic species (ntypx) = 10
     Max number of k-points (npk) =  40000
     Max angular momentum in pseudopotentials (lmaxx) =  3
     Presently stress not available with electric field

     IMPORTANT: XC functional enforced from input :
     Exchange-correlation      = BEEF-VDW ( 1  4 27 13 2)
     Any further DFT definition will be discarded
     Please, verify this is what you really want

     Subspace diagonalization in iterative solution of the eigenvalue problem:
     a serial algorithm will be used

     bravais-lattice index     =            0
     lattice parameter (alat)  =       1.8897  a.u.
     unit-cell volume          =    7190.8417 (a.u.)^3
     number of atoms/cell      =           12
     number of atomic types    =            2
     number of electrons       =       141.00
     number of Kohn-Sham states=          100
     kinetic-energy cutoff     =      36.7493  Ry
     charge density cutoff     =     367.4932  Ry
     convergence threshold     =      1.0E-06
     mixing beta               =       0.1000
     number of iterations used =           10  plain     mixing
     Exchange-correlation      = BEEF-VDW ( 1  4 27 13 2)
     nstep                     =           50

     celldm(1)=   1.889726  celldm(2)=   0.000000  celldm(3)=   0.000000
     celldm(4)=   0.000000  celldm(5)=   0.000000  celldm(6)=   0.000000

     crystal axes: (cart. coord. in units of alat)
               a(1) = (   6.925386   0.000000   0.000000 )
               a(2) = (  -3.462693   5.997561   0.000000 )
               a(3) = (   0.000000   0.000000  25.654554 )

     reciprocal axes: (cart. coord. in units 2 pi/alat)
               b(1) = (  0.144396  0.083367  0.000000 )
               b(2) = (  0.000000  0.166734  0.000000 )
               b(3) = (  0.000000  0.000000  0.038979 )

     PseudoPot. # 1 for Y  read from file:
     /afs/slac.stanford.edu/u/if/mamunm/psp/gbrv1.5pbe/Y.UPF
     MD5 check sum: d034151ed7554c50b6e82763ed42c788
     Pseudo is Ultrasoft + core correction, Zval = 11.0
     Generated by new atomic code, or converted to UPF format
     Using radial grid of  885 points,  6 beta functions with:
                l(1) =   0
                l(2) =   0
                l(3) =   1
                l(4) =   1
                l(5) =   2
                l(6) =   2
     Q(r) pseudized with  8 coefficients,  rinner =    1.200   1.200   1.200
                                                       1.200   1.200

     PseudoPot. # 2 for Pb read from file:
     /afs/slac.stanford.edu/u/if/mamunm/psp/gbrv1.5pbe/Pb.UPF
     MD5 check sum: 3d1c1779aa92214d1e8f3a7db79003e2
     Pseudo is Ultrasoft + core correction, Zval = 14.0
     Generated by new atomic code, or converted to UPF format
     Using radial grid of  899 points,  6 beta functions with:
                l(1) =   0
                l(2) =   0
                l(3) =   1
                l(4) =   1
                l(5) =   2
                l(6) =   2
     Q(r) pseudized with  6 coefficients,  rinner =    1.000   1.000   1.000
                                                       1.000   1.000

     vdW kernel table read from file vdW_kernel_table
     MD5 check sum: 095c7af220d748ca6e76c0b4c6cfb241

     atomic species   valence    mass     pseudopotential
        Y1            11.00    88.90584     Y ( 1.00)
        Pb1           14.00   207.20000     Pb( 1.00)

     No symmetry found

   Cartesian axes

     site n.     atom                  positions (alat units)
         1           Y1  tau(   1) = (   0.0000000   0.0000000  10.0000000  )
         2           Y1  tau(   2) = (  -1.7313466   2.9987803  10.0000000  )
         3           Y1  tau(   3) = (   1.7313466   2.9987803  10.0000000  )
         4           Pb1 tau(   4) = (   3.4626932   0.0000000  10.0000000  )
         5           Y1  tau(   5) = (   3.4626932   1.9991869  12.8272772  )
         6           Y1  tau(   6) = (   1.7313466   4.9979671  12.8272772  )
         7           Y1  tau(   7) = (  -1.7313466   4.9979671  12.8272772  )
         8           Pb1 tau(   8) = (   0.0000000   1.9991869  12.8272772  )
         9           Y1  tau(   9) = (  -0.0000000   3.9983737  15.6545543  )
        10           Y1  tau(  10) = (   1.7313466   0.9995934  15.6545543  )
        11           Y1  tau(  11) = (   5.1940398   0.9995934  15.6545543  )
        12           Pb1 tau(  12) = (   3.4626932   3.9983737  15.6545543  )

     number of k points=    20  Fermi-Dirac smearing, width (Ry)=  0.0110
                       cart. coord. in units 2pi/alat
        k(    1) = (   0.0000000   0.0000000   0.0000000), wk =   0.0555556
        k(    2) = (   0.0000000   0.0277891   0.0000000), wk =   0.1111111
        k(    3) = (   0.0000000   0.0555782   0.0000000), wk =   0.1111111
        k(    4) = (   0.0000000  -0.0833672   0.0000000), wk =   0.0555556
        k(    5) = (   0.0240660   0.0138945   0.0000000), wk =   0.1111111
        k(    6) = (   0.0240660   0.0416836   0.0000000), wk =   0.1111111
        k(    7) = (   0.0240660   0.0694727   0.0000000), wk =   0.1111111
        k(    8) = (   0.0240660  -0.0694727   0.0000000), wk =   0.1111111
        k(    9) = (   0.0240660  -0.0416836   0.0000000), wk =   0.1111111
        k(   10) = (   0.0240660  -0.0138945   0.0000000), wk =   0.1111111
        k(   11) = (   0.0481321   0.0277891   0.0000000), wk =   0.1111111
        k(   12) = (   0.0481321   0.0555782   0.0000000), wk =   0.1111111
        k(   13) = (   0.0481321   0.0833672   0.0000000), wk =   0.1111111
        k(   14) = (   0.0481321  -0.0555782   0.0000000), wk =   0.1111111
        k(   15) = (   0.0481321  -0.0277891   0.0000000), wk =   0.1111111
        k(   16) = (   0.0481321   0.0000000   0.0000000), wk =   0.1111111
        k(   17) = (  -0.0721981  -0.0416836   0.0000000), wk =   0.0555556
        k(   18) = (  -0.0721981  -0.0138945   0.0000000), wk =   0.1111111
        k(   19) = (  -0.0721981   0.0138945   0.0000000), wk =   0.1111111
        k(   20) = (  -0.0721981  -0.1250508   0.0000000), wk =   0.0555556

     Largest allocated arrays     est. size (Mb)     dimensions
     Largest temporary arrays     est. size (Mb)     dimensions

     Check: negative/imaginary core charge=   -0.000001    0.000000

     Initial potential from superposition of free atoms
     Check: negative starting charge=   -0.051350

     starting charge  140.95272, renormalised to  141.00000

     negative rho (up, down):  5.137E-02 0.000E+00

     *
     * You are using vdW-DF for exchange-correlation in this calculation.
     * Please cite the following three references that made this development
     * possible:
     *
     *   M. Dion, H. Rydberg, E. Schroder, D. C. Langreth, and
     *   B. I. Lundqvist, Phys. Rev. Lett. 92, 246401 (2004).
     *
     *   T. Thonhauser, V. R. Cooper, S. Li, A. Puzder, P. Hyldgaard, and
     *   D. C. Langreth, Phys. Rev. B 76, 125112 (2007).
     *
     *   G. Roman-Perez and J. M. Soler, Phys. Rev. Lett. 103, 096102 (2009).
     *
     *
     * If you are using vdW-DF2, please also cite:
     *
     *   K. Lee, E. D. Murray, L. Kong, B. I. Lundqvist, and
     *   D. C. Langreth, Phys. Rev. B 82, 081101(R) (2010).
     *
     *
     * If you are calculating the stress with vdW-DF, please also cite:
     *
     *   R. Sabatini, E. Kucukbenli, B. Kolb, T. Thonhauser, and
     *   S. de Gironcoli, J. Phys.: Condens. Matter 24, 424209 (2012).
     *

     Carrying out vdW-DF run using the following parameters:

     Nqs =      20    Nr_points =    1024   r_max =   100.000
     q_mesh =
               0.00001000     0.04494208     0.09755937     0.15916263
               0.23128650     0.31572767     0.41458969     0.53033537
               0.66584808     0.82450364     1.01025438     1.22772762
               1.48234092     1.78043706     2.12944203     2.53805004
               3.01644009     3.57652955     4.23227104     5.00000000

     Gradients computed in reciprocal space

     Adding external electric field

     Computed dipole along edir(3) :
        Dipole               -0.0000 Ry au,         -0.0000 Debye
        Dipole field         -0.0000 Ry au

        Potential amp.        0.0000 Ry
        Total length         47.2681 bohr

     Starting wfc are  144 randomized atomic wfcs

     Self-consistent Calculation

     iteration #  1     ecut=    36.75 Ry     beta=0.10
     Davidson diagonalization with overlap
     ethr =  1.00E-02,  avg # of iterations =  2.0

[...]

     total energy              =   -1341.23783706 Ry
     Harris-Foulkes estimate   =   -1341.75301311 Ry
     estimated scf accuracy    <       2.96673444 Ry

[...]

     End of self-consistent calculation

          k = 0.0000 0.0000 0.0000 ( 27081 PWs)   bands (ev):

   -42.1549 -42.1539 -42.1072 -42.1072 -42.1070 -42.1070 -41.6379 -41.5901
   -41.5901 -22.2793 -22.2752 -22.2398 -22.2096 -22.2096 -22.1900 -22.1900
   -22.1796 -22.1594 -22.1594 -22.1208 -22.1208 -21.9568 -21.9500 -21.8633
   -21.7865 -21.7865 -21.7735 -21.7735 -21.6939 -21.6939 -21.5511 -21.5280
   -21.5280 -21.4703 -21.3337 -21.3337 -15.5073 -15.5073 -15.5049 -15.4908
   -15.4908 -15.3277 -15.3259 -15.3259 -15.3243 -15.3243 -15.3241 -15.3109
   -15.3109 -15.3073 -15.3073  -7.4346  -6.8992  -6.8677  -1.5575  -1.4566
    -0.9644  -0.4759  -0.4759  -0.3965  -0.3965  -0.0217   0.3117   0.3117
     0.3773   0.6189   0.6189   0.8154   0.8805   0.8805   1.2065   1.2065
     1.2299   1.4626   1.4850   1.4850   1.8190   2.0332   2.1046   2.1046
     2.3824   2.4906   2.5065   2.5065   3.0927   3.1565   3.3609   3.5240
     3.9633   3.9634   3.9718   3.9718   4.0794   4.0795   4.1353   4.1900
     4.1901   4.2645   4.5344   4.5344

[...]

          k =-0.0722-0.0417 0.0000 ( 27002 PWs)   bands (ev):

[...]

     the Fermi energy is     1.3191 ev

!    total energy              =   -1341.47699068 Ry
     Harris-Foulkes estimate   =   -1341.47702581 Ry
     estimated scf accuracy    <       0.00000034 Ry

     The total energy is the sum of the following terms:

     one-electron contribution =   -6592.42699315 Ry
     hartree contribution      =    3309.38057281 Ry
     xc contribution           =    -450.48306360 Ry
     ewald contribution        =    2392.14885124 Ry
     electric field correction =       0.00000000 Ry
     smearing contrib. (-TS)   =      -0.09635799 Ry

     convergence has been achieved in  16 iterations

 BEEF-vdW xc energy contributions
           1 :   -396.872274950931
           2 :    362.143408093729
           3 :   -301.648335664746
           4 :    229.384206640525
           5 :   -159.023721380489
           6 :    99.9095704118868
           7 :   -55.8349822375991
           8 :    26.2377802068328
           9 :   -8.40178263202790
          10 :  -0.695029213516591
          11 :    3.52863528432351
          12 :   -2.07296345000861
          13 :   -1.80196567757218
          14 :    6.13258142943738
          15 :   -9.09375142675788
          16 :    9.46476781662591
[...]
               b(3) = (  0.000000  0.000000  0.038979 )

     PseudoPot. # 1 for Y  read from file:
     /afs/slac.stanford.edu/u/if/mamunm/psp/gbrv1.5pbe/Y.UPF
     MD5 check sum: d034151ed7554c50b6e82763ed42c788
     Pseudo is Ultrasoft + core correction, Zval = 11.0
     Generated by new atomic code, or converted to UPF format
     Using radial grid of  885 points,  6 beta functions with:
                l(1) =   0
                l(2) =   0
                l(3) =   1
                l(4) =   1
                l(5) =   2
                l(6) =   2
     Q(r) pseudized with  8 coefficients,  rinner =    1.200   1.200   1.200
                                                       1.200   1.200

     PseudoPot. # 2 for Pb read from file:
     /afs/slac.stanford.edu/u/if/mamunm/psp/gbrv1.5pbe/Pb.UPF
     MD5 check sum: 3d1c1779aa92214d1e8f3a7db79003e2
     Pseudo is Ultrasoft + core correction, Zval = 14.0
     Generated by new atomic code, or converted to UPF format
     Using radial grid of  899 points,  6 beta functions with:
                l(1) =   0
                l(2) =   0
                l(3) =   1
                l(4) =   1
                l(5) =   2
                l(6) =   2
     Q(r) pseudized with  6 coefficients,  rinner =    1.000   1.000   1.000
                                                       1.000   1.000

     vdW kernel table read from file vdW_kernel_table
     MD5 check sum: 095c7af220d748ca6e76c0b4c6cfb241

     atomic species   valence    mass     pseudopotential
        Y1            11.00    88.90584     Y ( 1.00)
        Pb1           14.00   207.20000     Pb( 1.00)

     No symmetry found

   Cartesian axes

     site n.     atom                  positions (alat units)
         1           Y1  tau(   1) = (   0.0000000   0.0000000  10.0000000  )
         2           Y1  tau(   2) = (  -1.7313466   2.9987803  10.0000000  )
         3           Y1  tau(   3) = (   1.7313466   2.9987803  10.0000000  )
         4           Pb1 tau(   4) = (   3.4626932   0.0000000  10.0000000  )
         5           Y1  tau(   5) = (   3.4626932   1.9991869  12.8272772  )
         6           Y1  tau(   6) = (   1.7313466   4.9979671  12.8272772  )
         7           Y1  tau(   7) = (  -1.7313466   4.9979671  12.8272772  )
         8           Pb1 tau(   8) = (   0.0000000   1.9991869  12.8272772  )
         9           Y1  tau(   9) = (  -0.0000146   3.9789168  15.6955887  )
        10           Y1  tau(  10) = (   1.7144989   1.0093117  15.6955741  )
        11           Y1  tau(  11) = (   5.2109001   1.0093144  15.6956046  )
        12           Pb1 tau(  12) = (   3.4627158   3.9984418  15.6227988  )

     number of k points=    20  Fermi-Dirac smearing, width (Ry)=  0.0110
                       cart. coord. in units 2pi/alat
        k(    1) = (   0.0000000   0.0000000   0.0000000), wk =   0.0555556
        k(    2) = (   0.0000000   0.0277891   0.0000000), wk =   0.1111111
        k(    3) = (   0.0000000   0.0555782   0.0000000), wk =   0.1111111
        k(    4) = (   0.0000000  -0.0833672   0.0000000), wk =   0.0555556
        k(    5) = (   0.0240660   0.0138945   0.0000000), wk =   0.1111111
        k(    6) = (   0.0240660   0.0416836   0.0000000), wk =   0.1111111
        k(    7) = (   0.0240660   0.0694727   0.0000000), wk =   0.1111111
        k(    8) = (   0.0240660  -0.0694727   0.0000000), wk =   0.1111111
        k(    9) = (   0.0240660  -0.0416836   0.0000000), wk =   0.1111111
        k(   10) = (   0.0240660  -0.0138945   0.0000000), wk =   0.1111111
        k(   11) = (   0.0481321   0.0277891   0.0000000), wk =   0.1111111
        k(   12) = (   0.0481321   0.0555782   0.0000000), wk =   0.1111111
        k(   13) = (   0.0481321   0.0833672   0.0000000), wk =   0.1111111
        k(   14) = (   0.0481321  -0.0555782   0.0000000), wk =   0.1111111
        k(   15) = (   0.0481321  -0.0277891   0.0000000), wk =   0.1111111
        k(   16) = (   0.0481321   0.0000000   0.0000000), wk =   0.1111111
        k(   17) = (  -0.0721981  -0.0416836   0.0000000), wk =   0.0555556
        k(   18) = (  -0.0721981  -0.0138945   0.0000000), wk =   0.1111111
        k(   19) = (  -0.0721981   0.0138945   0.0000000), wk =   0.1111111
        k(   20) = (  -0.0721981  -0.1250508   0.0000000), wk =   0.0555556

     Largest allocated arrays     est. size (Mb)     dimensions
     Largest temporary arrays     est. size (Mb)     dimensions

     Check: negative/imaginary core charge=   -0.000001    0.000000

     Initial potential from superposition of free atoms
     Check: negative starting charge=   -0.051563

     starting charge  140.95272, renormalised to  141.00000

[...]

     *
     * You are using vdW-DF for exchange-correlation in this calculation.
     * Please cite the following three references that made this development
     * possible:
     *
     *   M. Dion, H. Rydberg, E. Schroder, D. C. Langreth, and
     *   B. I. Lundqvist, Phys. Rev. Lett. 92, 246401 (2004).
     *
     *   T. Thonhauser, V. R. Cooper, S. Li, A. Puzder, P. Hyldgaard, and
     *   D. C. Langreth, Phys. Rev. B 76, 125112 (2007).
     *
     *   G. Roman-Perez and J. M. Soler, Phys. Rev. Lett. 103, 096102 (2009).
     *
     *
     * If you are using vdW-DF2, please also cite:
     *
     *   K. Lee, E. D. Murray, L. Kong, B. I. Lundqvist, and
     *   D. C. Langreth, Phys. Rev. B 82, 081101(R) (2010).
     *
     *
     * If you are calculating the stress with vdW-DF, please also cite:
     *
     *   R. Sabatini, E. Kucukbenli, B. Kolb, T. Thonhauser, and
     *   S. de Gironcoli, J. Phys.: Condens. Matter 24, 424209 (2012).
     *

     Carrying out vdW-DF run using the following parameters:

     Nqs =      20    Nr_points =    1024   r_max =   100.000
     q_mesh =
               0.00001000     0.04494208     0.09755937     0.15916263
               0.23128650     0.31572767     0.41458969     0.53033537
               0.66584808     0.82450364     1.01025438     1.22772762
               1.48234092     1.78043706     2.12944203     2.53805004
               3.01644009     3.57652955     4.23227104     5.00000000

     Gradients computed in reciprocal space

[...]

     Starting wfc are  144 randomized atomic wfcs

     Self-consistent Calculation

[...]

     total energy              =   -1341.47785739 Ry
     Harris-Foulkes estimate   =   -1341.47784577 Ry
     estimated scf accuracy    <       0.00000136 Ry

     iteration # 16     ecut=    36.75 Ry     beta=0.10
     Davidson diagonalization with overlap
     ethr =  9.62E-10,  avg # of iterations =  4.4

[...]

     negative rho (up, down):  5.780E-02 0.000E+00

     Adding external electric field

     Computed dipole along edir(3) :
        Dipole                0.0103 Ry au,          0.0263 Debye
        Dipole field          0.0000 Ry au

        Potential amp.       -0.0017 Ry
        Total length         47.2681 bohr

     End of self-consistent calculation

[...]

          k = 0.0481 0.0000 0.0000 ( 27071 PWs)   bands (ev):

[...]

          k =-0.0722-0.1251 0.0000 ( 27002 PWs)   bands (ev):

   -42.1581 -42.1414 -42.1261 -42.1259 -42.1103 -42.0945 -41.6293 -41.6134
   -41.5974 -22.2383 -22.2155 -22.1932 -22.1900 -22.1701 -22.1521 -22.1428
   -22.1282 -22.1089 -22.0848 -22.0778 -22.0629 -22.0541 -22.0358 -21.9875
   -21.9639 -21.8096 -21.7845 -21.7706 -21.6242 -21.6070 -21.5988 -21.5862
   -21.5281 -21.5248 -21.4970 -21.3580 -15.4937 -15.4873 -15.4868 -15.4766
   -15.4754 -15.3237 -15.3173 -15.3164 -15.3137 -15.3079 -15.3078 -15.3064
   -15.3043 -15.2970 -15.2965  -7.0880  -6.8146  -6.7222  -2.2323  -1.6296
    -1.5956  -1.3386  -0.4645  -0.3976  -0.2015  -0.0557  -0.0031   0.0422
     0.3051   0.8611   0.8908   1.0224   1.1458   1.2978   1.5369   1.6008
     1.6378   1.6808   1.8278   1.8594   1.8797   1.9232   2.2590   2.4095
     2.4409   2.5375   2.7349   2.8632   2.8722   3.0827   3.2836   3.3956
     3.5568   3.6563   3.7621   3.8288   3.8511   3.9402   3.9688   4.0680
     4.0754   4.1195   4.3536   4.3694

     the Fermi energy is     1.3315 ev

!    total energy              =   -1341.47782244 Ry
     Harris-Foulkes estimate   =   -1341.47785775 Ry
     estimated scf accuracy    <       0.00000038 Ry

     The total energy is the sum of the following terms:

     one-electron contribution =   -6574.19365178 Ry
     hartree contribution      =    3300.26493831 Ry
     xc contribution           =    -450.45889510 Ry
     ewald contribution        =    2383.00568590 Ry
     electric field correction =       0.00000019 Ry
     smearing contrib. (-TS)   =      -0.09589996 Ry

     convergence has been achieved in  16 iterations

 BEEF-vdW xc energy contributions
           1 :   -396.848521694152
           2 :    362.112230924959
           3 :   -301.611075782338
           4 :    229.350663243477
           5 :   -159.002740900813
           6 :    99.8997395326917
           7 :   -55.8250637259935
           8 :    26.2164251200582
           9 :   -8.36767809038719
          10 :  -0.731235221466761
          11 :    3.55227092425565
          12 :   -2.07698589106764
          13 :   -1.81066231667887
          14 :    6.13721907792609
          15 :   -9.07981678347670
          16 :    9.43115688818222
          17 :   -6.90850132328598
          18 :    2.09062076845640
          19 :    3.91552337509853
          20 :   -9.83305137785186
          21 :    14.4593659865820
          22 :   -16.8403381431397
          23 :    16.4610988388626
          24 :   -13.4407206653534
          25 :    8.60507780430152
          26 :   -3.31256009151042
          27 :  -0.975599675279625
          28 :    3.22261181434811
          29 :   -3.18958738633489
          30 :    1.45671972813687
          31 :   -35.1475930361225
          32 :   -24.7772006955714

     Forces acting on atoms (Ry/au):

     negative rho (up, down):  5.780E-02 0.000E+00
     atom    1 type  1   force =     0.00000056    0.00620615   -0.00416050
     atom    2 type  1   force =     0.00537225   -0.00310427   -0.00416119
     atom    3 type  1   force =    -0.00537504   -0.00310720   -0.00416034
     atom    4 type  2   force =    -0.00000135   -0.00000133    0.00298326
     atom    5 type  1   force =     0.00000356   -0.00140835    0.00238585
     atom    6 type  1   force =    -0.00121584    0.00070752    0.00238459
     atom    7 type  1   force =     0.00121489    0.00070471    0.00238056
     atom    8 type  2   force =     0.00000423    0.00000211    0.00169551
     atom    9 type  1   force =    -0.00000064    0.00084101   -0.00005260
     atom   10 type  1   force =     0.00072889   -0.00042024   -0.00004933
     atom   11 type  1   force =    -0.00072917   -0.00041905   -0.00005485
     atom   12 type  2   force =    -0.00000234   -0.00000105    0.00080905

     Total force =     0.014319     Total SCF correction =     0.000929

     entering subroutine stress ...

     negative rho (up, down):  5.780E-02 0.000E+00
          total   stress  (Ry/bohr**3)                   (kbar)     P=   -3.80
  -0.00004157   0.00000000  -0.00000000         -6.12      0.00     -0.00
   0.00000000  -0.00004157  -0.00000000          0.00     -6.12     -0.00
  -0.00000000  -0.00000000   0.00000574         -0.00     -0.00      0.84

 !ASE

     Writing output data file calc.save

     General routines

     Parallel routines

   This run was terminated on:  14:44:58   2Jan2019

   JOB DONE.
Job  /afs/slac/g/suncat/bin/suncat-tsmpirun -x LD_LIBRARY_PATH -wdir /scratch/qe649434_FOX1F pw.x -in pw.inp

TID   HOST_NAME   COMMAND_LINE            STATUS            TERMINATION_TIME
00000 suncat0141 pw.x -in pw.inp   Done                     01/02/2019 14:44:58
00001 suncat0141 pw.x -in pw.inp   Done                     01/02/2019 14:44:58
00002 suncat0141 pw.x -in pw.inp   Done                     01/02/2019 14:44:58
00003 suncat0141 pw.x -in pw.inp   Done                     01/02/2019 14:44:58
00004 suncat0141 pw.x -in pw.inp   Done                     01/02/2019 14:44:58
00005 suncat0141 pw.x -in pw.inp   Done                     01/02/2019 14:44:58
00006 suncat0141 pw.x -in pw.inp   Done                     01/02/2019 14:44:58
00007 suncat0141 pw.x -in pw.inp   Done                     01/02/2019 14:44:58
00008 suncat0140 pw.x -in pw.inp   Done                     01/02/2019 14:44:58
00009 suncat0140 pw.x -in pw.inp   Done                     01/02/2019 14:44:58
00010 suncat0140 pw.x -in pw.inp   Done                     01/02/2019 14:44:58
00011 suncat0140 pw.x -in pw.inp   Done                     01/02/2019 14:44:58
00012 suncat0140 pw.x -in pw.inp   Done                     01/02/2019 14:44:58
00013 suncat0140 pw.x -in pw.inp   Done                     01/02/2019 14:44:58
00014 suncat0140 pw.x -in pw.inp   Done                     01/02/2019 14:44:58
00015 suncat0140 pw.x -in pw.inp   Done                     01/02/2019 14:44:58
00016 suncat0135 pw.x -in pw.inp   Done                     01/02/2019 14:44:58
00017 suncat0135 pw.x -in pw.inp   Done                     01/02/2019 14:44:58
00018 suncat0135 pw.x -in pw.inp   Done                     01/02/2019 14:44:58
00019 suncat0135 pw.x -in pw.inp   Done                     01/02/2019 14:44:58
00020 suncat0135 pw.x -in pw.inp   Done                     01/02/2019 14:44:58
00021 suncat0135 pw.x -in pw.inp   Done                     01/02/2019 14:44:58
00022 suncat0135 pw.x -in pw.inp   Done                     01/02/2019 14:44:58
00023 suncat0135 pw.x -in pw.inp   Done                     01/02/2019 14:44:58
00024 suncat0134 pw.x -in pw.inp   Done                     01/02/2019 14:44:58
00025 suncat0134 pw.x -in pw.inp   Done                     01/02/2019 14:44:58
00026 suncat0134 pw.x -in pw.inp   Done                     01/02/2019 14:44:58
00027 suncat0134 pw.x -in pw.inp   Done                     01/02/2019 14:44:58
00028 suncat0134 pw.x -in pw.inp   Done                     01/02/2019 14:44:58
00029 suncat0134 pw.x -in pw.inp   Done                     01/02/2019 14:44:58
00030 suncat0134 pw.x -in pw.inp   Done                     01/02/2019 14:44:58
00031 suncat0134 pw.x -in pw.inp   Done                     01/02/2019 14:44:58
00032 suncat0272 pw.x -in pw.inp   Done                     01/02/2019 14:44:58
00033 suncat0272 pw.x -in pw.inp   Done                     01/02/2019 14:44:58
00034 suncat0272 pw.x -in pw.inp   Done                     01/02/2019 14:44:58
00035 suncat0272 pw.x -in pw.inp   Done                     01/02/2019 14:44:58
00036 suncat0272 pw.x -in pw.inp   Done                     01/02/2019 14:44:58
00037 suncat0272 pw.x -in pw.inp   Done                     01/02/2019 14:44:58
00038 suncat0272 pw.x -in pw.inp   Done                     01/02/2019 14:44:58
00039 suncat0272 pw.x -in pw.inp   Done                     01/02/2019 14:44:58
00040 suncat0262 pw.x -in pw.inp   Done                     01/02/2019 14:44:58
00041 suncat0262 pw.x -in pw.inp   Done                     01/02/2019 14:44:58
00042 suncat0262 pw.x -in pw.inp   Done                     01/02/2019 14:44:58
00043 suncat0262 pw.x -in pw.inp   Done                     01/02/2019 14:44:58
00044 suncat0262 pw.x -in pw.inp   Done                     01/02/2019 14:44:58
00045 suncat0262 pw.x -in pw.inp   Done                     01/02/2019 14:44:58
00046 suncat0262 pw.x -in pw.inp   Done                     01/02/2019 14:44:58
00047 suncat0262 pw.x -in pw.inp   Done                     01/02/2019 14:44:58
00048 suncat0258 pw.x -in pw.inp   Done                     01/02/2019 14:44:58
00049 suncat0258 pw.x -in pw.inp   Done                     01/02/2019 14:44:58
00050 suncat0258 pw.x -in pw.inp   Done                     01/02/2019 14:44:58
00051 suncat0258 pw.x -in pw.inp   Done                     01/02/2019 14:44:58
00052 suncat0258 pw.x -in pw.inp   Done                     01/02/2019 14:44:58
00053 suncat0258 pw.x -in pw.inp   Done                     01/02/2019 14:44:58
00054 suncat0258 pw.x -in pw.inp   Done                     01/02/2019 14:44:58
00055 suncat0258 pw.x -in pw.inp   Done                     01/02/2019 14:44:58
00056 suncat0257 pw.x -in pw.inp   Done                     01/02/2019 14:44:58
00057 suncat0257 pw.x -in pw.inp   Done                     01/02/2019 14:44:58
00058 suncat0257 pw.x -in pw.inp   Done                     01/02/2019 14:44:58
00059 suncat0257 pw.x -in pw.inp   Done                     01/02/2019 14:44:58
00060 suncat0257 pw.x -in pw.inp   Done                     01/02/2019 14:44:58
00061 suncat0257 pw.x -in pw.inp   Done                     01/02/2019 14:44:58
00062 suncat0257 pw.x -in pw.inp   Done                     01/02/2019 14:44:58
00063 suncat0257 pw.x -in pw.inp   Done                     01/02/2019 14:44:58