     Program PWSCF v.5.1rc2 (svn rev. 11289) starts on  2Jan2019 at  9:31:34

     Current dimensions of program PWSCF are:
     Max number of different atomic species (ntypx) = 10
     Max number of k-points (npk) =  40000
     Max angular momentum in pseudopotentials (lmaxx) =  3
     Presently stress not available with electric field

     IMPORTANT: XC functional enforced from input :
     Exchange-correlation      = BEEF-VDW ( 1  4 27 13 2)
     Any further DFT definition will be discarded
     Please, verify this is what you really want

     Subspace diagonalization in iterative solution of the eigenvalue problem:
     a serial algorithm will be used

     bravais-lattice index     =            0
     lattice parameter (alat)  =       1.8897  a.u.
     unit-cell volume          =    4579.9947 (a.u.)^3
     number of atoms/cell      =           12
     number of atomic types    =            2
     number of electrons       =       174.00
     number of Kohn-Sham states=          117
     kinetic-energy cutoff     =      36.7493  Ry
     charge density cutoff     =     367.4932  Ry
     convergence threshold     =      1.0E-06
     mixing beta               =       0.1000
     number of iterations used =           10  plain     mixing
     Exchange-correlation      = BEEF-VDW ( 1  4 27 13 2)
     nstep                     =           50

     celldm(1)=   1.889726  celldm(2)=   0.000000  celldm(3)=   0.000000
     celldm(4)=   0.000000  celldm(5)=   0.000000  celldm(6)=   0.000000

     crystal axes: (cart. coord. in units of alat)
               a(1) = (   5.643299   0.000000   0.000000 )
               a(2) = (  -2.821649   4.887240   0.000000 )
               a(3) = (   0.000000   0.000000  24.607734 )

     reciprocal axes: (cart. coord. in units 2 pi/alat)
               b(1) = (  0.177201  0.102307  0.000000 )
               b(2) = (  0.000000  0.204614  0.000000 )
               b(3) = (  0.000000  0.000000  0.040638 )

     PseudoPot. # 1 for W  read from file:
     /afs/slac.stanford.edu/u/if/mamunm/psp/gbrv1.5pbe/W.UPF
     MD5 check sum: 9c083fa34c2a2ea0f02f1f893e16e1c8
     Pseudo is Ultrasoft + core correction, Zval = 14.0
     Generated by new atomic code, or converted to UPF format
     Using radial grid of  923 points,  8 beta functions with:
                l(1) =   0
                l(2) =   0
                l(3) =   0
                l(4) =   1
                l(5) =   1
                l(6) =   2
                l(7) =   2
                l(8) =   3
     Q(r) pseudized with  6 coefficients,  rinner =    1.350   1.350   1.350
                                                       1.350   1.350   1.350
                                                       1.350

     PseudoPot. # 2 for Pd read from file:
     /afs/slac.stanford.edu/u/if/mamunm/psp/gbrv1.5pbe/Pd.UPF
     MD5 check sum: 2d733d2bc2cbfd217af676df1668a4bc
     Pseudo is Ultrasoft + core correction, Zval = 16.0
     Generated by new atomic code, or converted to UPF format
     Using radial grid of  887 points,  6 beta functions with:
                l(1) =   0
                l(2) =   0
                l(3) =   1
                l(4) =   1
                l(5) =   2
                l(6) =   2
     Q(r) pseudized with  8 coefficients,  rinner =    1.130   1.130   1.130
                                                       1.130   1.130

     vdW kernel table read from file vdW_kernel_table
     MD5 check sum: 095c7af220d748ca6e76c0b4c6cfb241

     atomic species   valence    mass     pseudopotential
        W1            14.00   183.84000     W ( 1.00)
        Pd1           16.00   106.42000     Pd( 1.00)

     No symmetry found

   Cartesian axes

     site n.     atom                  positions (alat units)
         1           W1  tau(   1) = (   0.0000000   0.0000000  10.0000000  )
         2           W1  tau(   2) = (  -1.4108247   2.4436201  10.0000000  )
         3           W1  tau(   3) = (   1.4108247   2.4436201  10.0000000  )
         4           Pd1 tau(   4) = (   2.8216495   0.0000000  10.0000000  )
         5           W1  tau(   5) = (   2.8216495   1.6290801  12.3038672  )
         6           W1  tau(   6) = (   1.4108247   4.0727002  12.3038672  )
         7           W1  tau(   7) = (  -1.4108247   4.0727002  12.3038672  )
         8           Pd1 tau(   8) = (   0.0000000   1.6290801  12.3038672  )
         9           W1  tau(   9) = (  -0.0000000   3.2581602  14.6077343  )
        10           W1  tau(  10) = (   1.4108247   0.8145400  14.6077343  )
        11           W1  tau(  11) = (   4.2324742   0.8145400  14.6077343  )
        12           Pd1 tau(  12) = (   2.8216495   3.2581602  14.6077343  )

     number of k points=    20  Fermi-Dirac smearing, width (Ry)=  0.0110
                       cart. coord. in units 2pi/alat
        k(    1) = (   0.0000000   0.0000000   0.0000000), wk =   0.0555556
        k(    2) = (   0.0000000   0.0341024   0.0000000), wk =   0.1111111
        k(    3) = (   0.0000000   0.0682048   0.0000000), wk =   0.1111111
        k(    4) = (   0.0000000  -0.1023072   0.0000000), wk =   0.0555556
        k(    5) = (   0.0295336   0.0170512   0.0000000), wk =   0.1111111
        k(    6) = (   0.0295336   0.0511536   0.0000000), wk =   0.1111111
        k(    7) = (   0.0295336   0.0852560   0.0000000), wk =   0.1111111
        k(    8) = (   0.0295336  -0.0852560   0.0000000), wk =   0.1111111
        k(    9) = (   0.0295336  -0.0511536   0.0000000), wk =   0.1111111
        k(   10) = (   0.0295336  -0.0170512   0.0000000), wk =   0.1111111
        k(   11) = (   0.0590671   0.0341024   0.0000000), wk =   0.1111111
        k(   12) = (   0.0590671   0.0682048   0.0000000), wk =   0.1111111
        k(   13) = (   0.0590671   0.1023072   0.0000000), wk =   0.1111111
        k(   14) = (   0.0590671  -0.0682048   0.0000000), wk =   0.1111111
        k(   15) = (   0.0590671  -0.0341024   0.0000000), wk =   0.1111111
        k(   16) = (   0.0590671   0.0000000   0.0000000), wk =   0.1111111
        k(   17) = (  -0.0886007  -0.0511536   0.0000000), wk =   0.0555556
        k(   18) = (  -0.0886007  -0.0170512   0.0000000), wk =   0.1111111
        k(   19) = (  -0.0886007   0.0170512   0.0000000), wk =   0.1111111
        k(   20) = (  -0.0886007  -0.1534608   0.0000000), wk =   0.0555556

     Largest allocated arrays     est. size (Mb)     dimensions
     Largest temporary arrays     est. size (Mb)     dimensions

     Initial potential from superposition of free atoms
     Check: negative starting charge=   -0.798229

     starting charge  171.59692, renormalised to  174.00000

     negative rho (up, down):  8.094E-01 0.000E+00

     *
     * You are using vdW-DF for exchange-correlation in this calculation.
     * Please cite the following three references that made this development
     * possible:
     *
     *   M. Dion, H. Rydberg, E. Schroder, D. C. Langreth, and
     *   B. I. Lundqvist, Phys. Rev. Lett. 92, 246401 (2004).
     *
     *   T. Thonhauser, V. R. Cooper, S. Li, A. Puzder, P. Hyldgaard, and
     *   D. C. Langreth, Phys. Rev. B 76, 125112 (2007).
     *
     *   G. Roman-Perez and J. M. Soler, Phys. Rev. Lett. 103, 096102 (2009).
     *
     *
     * If you are using vdW-DF2, please also cite:
     *
     *   K. Lee, E. D. Murray, L. Kong, B. I. Lundqvist, and
     *   D. C. Langreth, Phys. Rev. B 82, 081101(R) (2010).
     *
     *
     * If you are calculating the stress with vdW-DF, please also cite:
     *
     *   R. Sabatini, E. Kucukbenli, B. Kolb, T. Thonhauser, and
     *   S. de Gironcoli, J. Phys.: Condens. Matter 24, 424209 (2012).
     *

     Carrying out vdW-DF run using the following parameters:

     Nqs =      20    Nr_points =    1024   r_max =   100.000
     q_mesh =
               0.00001000     0.04494208     0.09755937     0.15916263
               0.23128650     0.31572767     0.41458969     0.53033537
               0.66584808     0.82450364     1.01025438     1.22772762
               1.48234092     1.78043706     2.12944203     2.53805004
               3.01644009     3.57652955     4.23227104     5.00000000

     Gradients computed in reciprocal space

     Adding external electric field

     Computed dipole along edir(3) :
        Dipole                0.0000 Ry au,          0.0000 Debye
        Dipole field          0.0000 Ry au

        Potential amp.       -0.0000 Ry
        Total length         45.3393 bohr

     Starting wfc are  153 randomized atomic wfcs

     Self-consistent Calculation

     iteration #  1     ecut=    36.75 Ry     beta=0.10
     Davidson diagonalization with overlap
     ethr =  1.00E-02,  avg # of iterations =  2.5

[...]

     total energy              =   -2041.43744915 Ry
     Harris-Foulkes estimate   =   -2044.49012512 Ry
     estimated scf accuracy    <      17.37382093 Ry

[...]

     End of self-consistent calculation

          k = 0.0000 0.0000 0.0000 ( 17303 PWs)   bands (ev):

   -72.1068 -72.0943 -72.0400 -72.0400 -72.0366 -72.0366 -72.0335 -71.9836
   -71.9836 -48.7934 -48.7934 -48.7748 -48.5291 -48.5291 -48.5287 -48.5287
   -48.4512 -48.4501 -36.6909 -36.5219 -36.5170 -36.4488 -36.4466 -36.4466
   -36.4105 -36.4105 -36.3129 -36.3129 -36.2721 -36.1726 -36.1726 -36.1123
   -36.1123 -35.9997 -35.9198 -35.8812 -35.8812 -35.8801 -35.8028 -35.7440
   -35.7440 -35.6932 -35.6932 -35.6873 -35.6873  -5.7778  -4.0921  -3.5565
    -3.2517  -3.2517  -3.0684  -3.0684  -2.8668  -2.5644  -2.4889  -2.4889
    -2.4722  -2.4722  -2.4127  -1.9424  -1.3819  -1.3819  -1.0146  -1.0146
    -0.6849  -0.3967  -0.3460   0.1000   0.3566   0.3566   0.6447   0.6447
     0.8534   0.8534   1.0856   1.2300   1.2300   1.4645   1.4645   1.6313
     1.8339   1.8339   2.0400   2.0761   2.0761   2.4252   2.7917   2.9333
     2.9333   3.3479   3.8951   4.0278   4.0278   4.0408   4.4939   4.4939
     4.6758   4.6758   4.9116   4.9116   5.2804   5.2804   5.2874   5.2874
     5.5671   5.5671   5.8683   5.8683   5.9748   6.2028   6.4477   6.6003
     6.6003   6.6646   6.7082   7.3094   7.3546

[...]

          k =-0.0886-0.0512 0.0000 ( 17264 PWs)   bands (ev):

[...]

     the Fermi energy is     2.2426 ev

!    total energy              =   -2042.89055125 Ry
     Harris-Foulkes estimate   =   -2042.89667361 Ry
     estimated scf accuracy    <       0.00000015 Ry

     The total energy is the sum of the following terms:

     one-electron contribution =  -16208.57056507 Ry
     hartree contribution      =    8102.60659312 Ry
     xc contribution           =    -480.06964996 Ry
     ewald contribution        =    6543.22427708 Ry
     electric field correction =       0.00000000 Ry
     smearing contrib. (-TS)   =      -0.08120643 Ry

     convergence has been achieved in  16 iterations

 BEEF-vdW xc energy contributions
           1 :   -421.472709920283
           2 :    389.265414193331
           3 :   -332.734992600215
           4 :    264.660362820753
           5 :   -198.312773870578
           6 :    143.478584771852
           7 :   -104.297784471677
           8 :    79.4426086744459
           9 :   -64.1786196254750
          10 :    53.1480225400844
[...]
     Pseudo is Ultrasoft + core correction, Zval = 14.0
     Generated by new atomic code, or converted to UPF format
     Using radial grid of  923 points,  8 beta functions with:
                l(1) =   0
                l(2) =   0
                l(3) =   0
                l(4) =   1
                l(5) =   1
                l(6) =   2
                l(7) =   2
                l(8) =   3
     Q(r) pseudized with  6 coefficients,  rinner =    1.350   1.350   1.350
                                                       1.350   1.350   1.350
                                                       1.350

     PseudoPot. # 2 for Pd read from file:
     /afs/slac.stanford.edu/u/if/mamunm/psp/gbrv1.5pbe/Pd.UPF
     MD5 check sum: 2d733d2bc2cbfd217af676df1668a4bc
     Pseudo is Ultrasoft + core correction, Zval = 16.0
     Generated by new atomic code, or converted to UPF format
     Using radial grid of  887 points,  6 beta functions with:
                l(1) =   0
                l(2) =   0
                l(3) =   1
                l(4) =   1
                l(5) =   2
                l(6) =   2
     Q(r) pseudized with  8 coefficients,  rinner =    1.130   1.130   1.130
                                                       1.130   1.130

     vdW kernel table read from file vdW_kernel_table
     MD5 check sum: 095c7af220d748ca6e76c0b4c6cfb241

     atomic species   valence    mass     pseudopotential
        W1            14.00   183.84000     W ( 1.00)
        Pd1           16.00   106.42000     Pd( 1.00)

     No symmetry found

   Cartesian axes

     site n.     atom                  positions (alat units)
         1           W1  tau(   1) = (   0.0000000   0.0000000  10.0000000  )
         2           W1  tau(   2) = (  -1.4108247   2.4436201  10.0000000  )
         3           W1  tau(   3) = (   1.4108247   2.4436201  10.0000000  )
         4           Pd1 tau(   4) = (   2.8216495   0.0000000  10.0000000  )
         5           W1  tau(   5) = (   2.8216495   1.6290801  12.3038672  )
         6           W1  tau(   6) = (   1.4108247   4.0727002  12.3038672  )
         7           W1  tau(   7) = (  -1.4108247   4.0727002  12.3038672  )
         8           Pd1 tau(   8) = (   0.0000000   1.6290801  12.3038672  )
         9           W1  tau(   9) = (  -0.0000007   3.2779654  14.4946966  )
        10           W1  tau(  10) = (   1.4279757   0.8046377  14.4946954  )
        11           W1  tau(  11) = (   4.2153238   0.8046379  14.4946970  )
        12           Pd1 tau(  12) = (   2.8216498   3.2581613  14.6668325  )

     number of k points=    20  Fermi-Dirac smearing, width (Ry)=  0.0110
                       cart. coord. in units 2pi/alat
        k(    1) = (   0.0000000   0.0000000   0.0000000), wk =   0.0555556
        k(    2) = (   0.0000000   0.0341024   0.0000000), wk =   0.1111111
        k(    3) = (   0.0000000   0.0682048   0.0000000), wk =   0.1111111
        k(    4) = (   0.0000000  -0.1023072   0.0000000), wk =   0.0555556
        k(    5) = (   0.0295336   0.0170512   0.0000000), wk =   0.1111111
        k(    6) = (   0.0295336   0.0511536   0.0000000), wk =   0.1111111
        k(    7) = (   0.0295336   0.0852560   0.0000000), wk =   0.1111111
        k(    8) = (   0.0295336  -0.0852560   0.0000000), wk =   0.1111111
        k(    9) = (   0.0295336  -0.0511536   0.0000000), wk =   0.1111111
        k(   10) = (   0.0295336  -0.0170512   0.0000000), wk =   0.1111111
        k(   11) = (   0.0590671   0.0341024   0.0000000), wk =   0.1111111
        k(   12) = (   0.0590671   0.0682048   0.0000000), wk =   0.1111111
        k(   13) = (   0.0590671   0.1023072   0.0000000), wk =   0.1111111
        k(   14) = (   0.0590671  -0.0682048   0.0000000), wk =   0.1111111
        k(   15) = (   0.0590671  -0.0341024   0.0000000), wk =   0.1111111
        k(   16) = (   0.0590671   0.0000000   0.0000000), wk =   0.1111111
        k(   17) = (  -0.0886007  -0.0511536   0.0000000), wk =   0.0555556
        k(   18) = (  -0.0886007  -0.0170512   0.0000000), wk =   0.1111111
        k(   19) = (  -0.0886007   0.0170512   0.0000000), wk =   0.1111111
        k(   20) = (  -0.0886007  -0.1534608   0.0000000), wk =   0.0555556

     Largest allocated arrays     est. size (Mb)     dimensions
     Largest temporary arrays     est. size (Mb)     dimensions

     Initial potential from superposition of free atoms
     Check: negative starting charge=   -0.798080

     starting charge  171.59692, renormalised to  174.00000

[...]

     *
     * You are using vdW-DF for exchange-correlation in this calculation.
     * Please cite the following three references that made this development
     * possible:
     *
     *   M. Dion, H. Rydberg, E. Schroder, D. C. Langreth, and
     *   B. I. Lundqvist, Phys. Rev. Lett. 92, 246401 (2004).
     *
     *   T. Thonhauser, V. R. Cooper, S. Li, A. Puzder, P. Hyldgaard, and
     *   D. C. Langreth, Phys. Rev. B 76, 125112 (2007).
     *
     *   G. Roman-Perez and J. M. Soler, Phys. Rev. Lett. 103, 096102 (2009).
     *
     *
     * If you are using vdW-DF2, please also cite:
     *
     *   K. Lee, E. D. Murray, L. Kong, B. I. Lundqvist, and
     *   D. C. Langreth, Phys. Rev. B 82, 081101(R) (2010).
     *
     *
     * If you are calculating the stress with vdW-DF, please also cite:
     *
     *   R. Sabatini, E. Kucukbenli, B. Kolb, T. Thonhauser, and
     *   S. de Gironcoli, J. Phys.: Condens. Matter 24, 424209 (2012).
     *

     Carrying out vdW-DF run using the following parameters:

     Nqs =      20    Nr_points =    1024   r_max =   100.000
     q_mesh =
               0.00001000     0.04494208     0.09755937     0.15916263
               0.23128650     0.31572767     0.41458969     0.53033537
               0.66584808     0.82450364     1.01025438     1.22772762
               1.48234092     1.78043706     2.12944203     2.53805004
               3.01644009     3.57652955     4.23227104     5.00000000

     Gradients computed in reciprocal space

[...]

     Starting wfc are  153 randomized atomic wfcs

     Self-consistent Calculation

[...]

     total energy              =   -2042.90955210 Ry
     Harris-Foulkes estimate   =   -2042.90955207 Ry
     estimated scf accuracy    <       0.00000485 Ry

     iteration # 16     ecut=    36.75 Ry     beta=0.10
     Davidson diagonalization with overlap
     ethr =  2.79E-09,  avg # of iterations =  2.0

[...]

     negative rho (up, down):  8.347E-01 0.000E+00

     Adding external electric field

     Computed dipole along edir(3) :
        Dipole                0.0168 Ry au,          0.0426 Debye
        Dipole field          0.0000 Ry au

        Potential amp.       -0.0042 Ry
        Total length         45.3393 bohr

     End of self-consistent calculation

[...]

          k = 0.0591 0.0000 0.0000 ( 17226 PWs)   bands (ev):

[...]

          k =-0.0886-0.1535 0.0000 ( 17264 PWs)   bands (ev):

   -72.1006 -72.0810 -72.0605 -72.0102 -71.9852 -71.9603 -71.9501 -71.9452
   -71.9273 -48.8863 -48.8853 -48.8820 -48.5457 -48.5447 -48.4715 -48.4377
   -48.4367 -48.3227 -36.5606 -36.5089 -36.4380 -36.3634 -36.3608 -36.3098
   -36.2987 -36.2774 -36.2324 -36.1940 -36.1743 -36.1451 -36.1205 -36.0998
   -36.0871 -36.0626 -36.0571 -35.9741 -35.9383 -35.9140 -35.9076 -35.7868
   -35.7828 -35.7520 -35.7347 -35.7097 -35.6390  -4.0721  -3.9344  -2.7551
    -2.6552  -2.5231  -2.5185  -2.2772  -2.0908  -2.0573  -2.0187  -1.9167
    -1.7665  -1.5756  -1.4581  -1.3120  -1.2407  -1.2185  -1.0421  -0.9603
    -0.7764  -0.7747  -0.5714  -0.5240  -0.3458  -0.2450   0.2451   0.3174
     0.4381   0.5372   0.5398   0.7532   0.9228   0.9326   0.9996   1.0295
     1.1168   1.2735   1.2765   1.5191   1.5546   2.0073   2.0214   2.2029
     2.3231   2.5441   2.6412   2.7880   2.8743   3.1559   3.4824   3.5202
     3.8871   3.9263   4.0983   4.1854   4.3932   4.4461   4.6101   4.6792
     4.6838   5.1163   5.3674   5.7560   5.9710   6.0220   6.1542   6.8240
     7.0254   7.2440   7.7478   8.0785   8.1925

     the Fermi energy is     2.2408 ev

!    total energy              =   -2042.90955173 Ry
     Harris-Foulkes estimate   =   -2042.90955273 Ry
     estimated scf accuracy    <       0.00000097 Ry

     The total energy is the sum of the following terms:

     one-electron contribution =  -16359.28638817 Ry
     hartree contribution      =    8178.04746349 Ry
     xc contribution           =    -480.28802735 Ry
     ewald contribution        =    6618.69687569 Ry
     electric field correction =       0.00000077 Ry
     smearing contrib. (-TS)   =      -0.07947616 Ry

     convergence has been achieved in  16 iterations

 BEEF-vdW xc energy contributions
           1 :   -421.878164654904
           2 :    389.727577420882
           3 :   -333.272607136831
           4 :    265.235013413212
           5 :   -198.841438012858
           6 :    143.874938074522
           7 :   -104.521108198532
           8 :    79.5254334778202
           9 :   -64.2149641332883
          10 :    53.2467300809111
          11 :   -42.8488795260249
          12 :    31.7685904217212
          13 :   -20.8620978053856
          14 :    11.8585905367743
          15 :   -6.06606192697774
          16 :    3.62439826627809
          17 :   -3.52393815067131
          18 :    4.20980700272167
          19 :   -4.36559113023776
          20 :    3.46033705005021
          21 :   -1.82470212022014
          22 :   0.284941684404657
          23 :   0.395738897007163
          24 :   4.462817679683440E-002
          25 :   -1.25899682017797
          26 :    2.52613624381820
          27 :   -3.16464853972764
          28 :    2.88749235491258
          29 :   -1.91531152378229
          30 :   0.811192869793047
          31 :   -38.6980840954265
          32 :   -28.9624675154923

     Forces acting on atoms (Ry/au):

     negative rho (up, down):  8.347E-01 0.000E+00
     atom    1 type  1   force =    -0.00000023   -0.00818908    0.02729394
     atom    2 type  1   force =    -0.00709209    0.00409461    0.02729397
     atom    3 type  1   force =     0.00709244    0.00409450    0.02729460
     atom    4 type  2   force =     0.00000040   -0.00000019   -0.01392689
     atom    5 type  1   force =    -0.00000010    0.00622474   -0.01439628
     atom    6 type  1   force =     0.00539043   -0.00311242   -0.01439611
     atom    7 type  1   force =    -0.00539070   -0.00311220   -0.01439583
     atom    8 type  2   force =    -0.00000028    0.00000009   -0.02598812
     atom    9 type  1   force =     0.00000040    0.00003103    0.00008339
     atom   10 type  1   force =     0.00002720   -0.00001487    0.00008349
     atom   11 type  1   force =    -0.00002722   -0.00001562    0.00008351
     atom   12 type  2   force =    -0.00000025   -0.00000058    0.00097032

     Total force =     0.063596     Total SCF correction =     0.002670

     entering subroutine stress ...

     negative rho (up, down):  8.347E-01 0.000E+00
          total   stress  (Ry/bohr**3)                   (kbar)     P=  -29.62
  -0.00023754  -0.00000000   0.00000000        -34.94     -0.00      0.00
  -0.00000000  -0.00023754  -0.00000000         -0.00    -34.94     -0.00
   0.00000000  -0.00000000  -0.00012891          0.00     -0.00    -18.96

 !ASE

     Writing output data file calc.save

     General routines

     Parallel routines

   This run was terminated on:  10:39: 2   2Jan2019

   JOB DONE.
Job  /afs/slac/g/suncat/bin/suncat-tsmpirun -x LD_LIBRARY_PATH -wdir /scratch/qe649374_d12e7 pw.x -in pw.inp

TID   HOST_NAME   COMMAND_LINE            STATUS            TERMINATION_TIME
00000 suncat0178 pw.x -in pw.inp   Done                     01/02/2019 10:39:02
00001 suncat0178 pw.x -in pw.inp   Done                     01/02/2019 10:39:02
00002 suncat0178 pw.x -in pw.inp   Done                     01/02/2019 10:39:02
00003 suncat0178 pw.x -in pw.inp   Done                     01/02/2019 10:39:02
00004 suncat0178 pw.x -in pw.inp   Done                     01/02/2019 10:39:02
00005 suncat0178 pw.x -in pw.inp   Done                     01/02/2019 10:39:02
00006 suncat0178 pw.x -in pw.inp   Done                     01/02/2019 10:39:02
00007 suncat0178 pw.x -in pw.inp   Done                     01/02/2019 10:39:02
00008 suncat0177 pw.x -in pw.inp   Done                     01/02/2019 10:39:02
00009 suncat0177 pw.x -in pw.inp   Done                     01/02/2019 10:39:02
00010 suncat0177 pw.x -in pw.inp   Done                     01/02/2019 10:39:02
00011 suncat0177 pw.x -in pw.inp   Done                     01/02/2019 10:39:02
00012 suncat0177 pw.x -in pw.inp   Done                     01/02/2019 10:39:02
00013 suncat0177 pw.x -in pw.inp   Done                     01/02/2019 10:39:02
00014 suncat0177 pw.x -in pw.inp   Done                     01/02/2019 10:39:02
00015 suncat0177 pw.x -in pw.inp   Done                     01/02/2019 10:39:02
00016 suncat0113 pw.x -in pw.inp   Done                     01/02/2019 10:39:02
00017 suncat0113 pw.x -in pw.inp   Done                     01/02/2019 10:39:02
00018 suncat0113 pw.x -in pw.inp   Done                     01/02/2019 10:39:02
00019 suncat0113 pw.x -in pw.inp   Done                     01/02/2019 10:39:02
00020 suncat0113 pw.x -in pw.inp   Done                     01/02/2019 10:39:02
00021 suncat0113 pw.x -in pw.inp   Done                     01/02/2019 10:39:02
00022 suncat0113 pw.x -in pw.inp   Done                     01/02/2019 10:39:02
00023 suncat0113 pw.x -in pw.inp   Done                     01/02/2019 10:39:02
00024 suncat0267 pw.x -in pw.inp   Done                     01/02/2019 10:39:02
00025 suncat0267 pw.x -in pw.inp   Done                     01/02/2019 10:39:02
00026 suncat0267 pw.x -in pw.inp   Done                     01/02/2019 10:39:02
00027 suncat0267 pw.x -in pw.inp   Done                     01/02/2019 10:39:02
00028 suncat0267 pw.x -in pw.inp   Done                     01/02/2019 10:39:02
00029 suncat0267 pw.x -in pw.inp   Done                     01/02/2019 10:39:02
00030 suncat0267 pw.x -in pw.inp   Done                     01/02/2019 10:39:02
00031 suncat0267 pw.x -in pw.inp   Done                     01/02/2019 10:39:02
00032 suncat0254 pw.x -in pw.inp   Done                     01/02/2019 10:39:02
00033 suncat0254 pw.x -in pw.inp   Done                     01/02/2019 10:39:02
00034 suncat0254 pw.x -in pw.inp   Done                     01/02/2019 10:39:02
00035 suncat0254 pw.x -in pw.inp   Done                     01/02/2019 10:39:02
00036 suncat0254 pw.x -in pw.inp   Done                     01/02/2019 10:39:02
00037 suncat0254 pw.x -in pw.inp   Done                     01/02/2019 10:39:02
00038 suncat0254 pw.x -in pw.inp   Done                     01/02/2019 10:39:02
00039 suncat0254 pw.x -in pw.inp   Done                     01/02/2019 10:39:02
00040 suncat0253 pw.x -in pw.inp   Done                     01/02/2019 10:39:02
00041 suncat0253 pw.x -in pw.inp   Done                     01/02/2019 10:39:02
00042 suncat0253 pw.x -in pw.inp   Done                     01/02/2019 10:39:02
00043 suncat0253 pw.x -in pw.inp   Done                     01/02/2019 10:39:02
00044 suncat0253 pw.x -in pw.inp   Done                     01/02/2019 10:39:02
00045 suncat0253 pw.x -in pw.inp   Done                     01/02/2019 10:39:02
00046 suncat0253 pw.x -in pw.inp   Done                     01/02/2019 10:39:02
00047 suncat0253 pw.x -in pw.inp   Done                     01/02/2019 10:39:02
00048 suncat0228 pw.x -in pw.inp   Done                     01/02/2019 10:39:02
00049 suncat0228 pw.x -in pw.inp   Done                     01/02/2019 10:39:02
00050 suncat0228 pw.x -in pw.inp   Done                     01/02/2019 10:39:02
00051 suncat0228 pw.x -in pw.inp   Done                     01/02/2019 10:39:02
00052 suncat0228 pw.x -in pw.inp   Done                     01/02/2019 10:39:02
00053 suncat0228 pw.x -in pw.inp   Done                     01/02/2019 10:39:02
00054 suncat0228 pw.x -in pw.inp   Done                     01/02/2019 10:39:02
00055 suncat0228 pw.x -in pw.inp   Done                     01/02/2019 10:39:02
00056 suncat0227 pw.x -in pw.inp   Done                     01/02/2019 10:39:02
00057 suncat0227 pw.x -in pw.inp   Done                     01/02/2019 10:39:02
00058 suncat0227 pw.x -in pw.inp   Done                     01/02/2019 10:39:02
00059 suncat0227 pw.x -in pw.inp   Done                     01/02/2019 10:39:02
00060 suncat0227 pw.x -in pw.inp   Done                     01/02/2019 10:39:02
00061 suncat0227 pw.x -in pw.inp   Done                     01/02/2019 10:39:02
00062 suncat0227 pw.x -in pw.inp   Done                     01/02/2019 10:39:02
00063 suncat0227 pw.x -in pw.inp   Done                     01/02/2019 10:39:02