     Program PWSCF v.5.1rc2 (svn rev. 11289) starts on 26Dec2018 at 18:27:31

     Current dimensions of program PWSCF are:
     Max number of different atomic species (ntypx) = 10
     Max number of k-points (npk) =  40000
     Max angular momentum in pseudopotentials (lmaxx) =  3
     Presently stress not available with electric field

     IMPORTANT: XC functional enforced from input :
     Exchange-correlation      = BEEF-VDW ( 1  4 27 13 2)
     Any further DFT definition will be discarded
     Please, verify this is what you really want

     Subspace diagonalization in iterative solution of the eigenvalue problem:
     a serial algorithm will be used

     bravais-lattice index     =            0
     lattice parameter (alat)  =       1.8897  a.u.
     unit-cell volume          =    8415.5108 (a.u.)^3
     number of atoms/cell      =           12
     number of atomic types    =            2
     number of electrons       =       132.00
     number of Kohn-Sham states=           96
     kinetic-energy cutoff     =      36.7493  Ry
     charge density cutoff     =     367.4932  Ry
     convergence threshold     =      1.0E-06
     mixing beta               =       0.1000
     number of iterations used =           10  plain     mixing
     Exchange-correlation      = BEEF-VDW ( 1  4 27 13 2)
     nstep                     =           50

     celldm(1)=   1.889726  celldm(2)=   0.000000  celldm(3)=   0.000000
     celldm(4)=   0.000000  celldm(5)=   0.000000  celldm(6)=   0.000000

     crystal axes: (cart. coord. in units of alat)
               a(1) = (   7.432236   0.000000   0.000000 )
               a(2) = (  -3.716118   6.436505   0.000000 )
               a(3) = (   0.000000   0.000000  26.068395 )

     reciprocal axes: (cart. coord. in units 2 pi/alat)
               b(1) = (  0.134549  0.077682  0.000000 )
               b(2) = (  0.000000  0.155364  0.000000 )
               b(3) = (  0.000000  0.000000  0.038361 )

     PseudoPot. # 1 for La read from file:
     /afs/slac.stanford.edu/u/if/mamunm/psp/gbrv1.5pbe/La.UPF
     MD5 check sum: 5937b0c7494ba0601a847275249473aa
     Pseudo is Ultrasoft + core correction, Zval = 11.0
     Generated by new atomic code, or converted to UPF format
     Using radial grid of  995 points,  8 beta functions with:
                l(1) =   0
                l(2) =   0
                l(3) =   1
                l(4) =   1
                l(5) =   2
                l(6) =   2
                l(7) =   3
                l(8) =   3
     Q(r) pseudized with  8 coefficients,  rinner =    1.700   1.700   1.700
                                                       1.700   1.700   1.700
                                                       1.700

     PseudoPot. # 2 for Y  read from file:
     /afs/slac.stanford.edu/u/if/mamunm/psp/gbrv1.5pbe/Y.UPF
     MD5 check sum: d034151ed7554c50b6e82763ed42c788
     Pseudo is Ultrasoft + core correction, Zval = 11.0
     Generated by new atomic code, or converted to UPF format
     Using radial grid of  885 points,  6 beta functions with:
                l(1) =   0
                l(2) =   0
                l(3) =   1
                l(4) =   1
                l(5) =   2
                l(6) =   2
     Q(r) pseudized with  8 coefficients,  rinner =    1.200   1.200   1.200
                                                       1.200   1.200

     vdW kernel table read from file vdW_kernel_table
     MD5 check sum: 095c7af220d748ca6e76c0b4c6cfb241

     atomic species   valence    mass     pseudopotential
        La1           11.00   138.90547     La( 1.00)
        Y1            11.00    88.90584     Y ( 1.00)

     No symmetry found

   Cartesian axes

     site n.     atom                  positions (alat units)
         1           La1 tau(   1) = (   0.0000000   0.0000000  10.0000000  )
         2           La1 tau(   2) = (  -1.8580589   3.2182525  10.0000000  )
         3           La1 tau(   3) = (   1.8580589   3.2182525  10.0000000  )
         4           Y1  tau(   4) = (   3.7161179   0.0000000  10.0000000  )
         5           La1 tau(   5) = (   3.7161179   2.1455017  13.0341975  )
         6           La1 tau(   6) = (   1.8580589   5.3637541  13.0341975  )
         7           La1 tau(   7) = (  -1.8580589   5.3637541  13.0341975  )
         8           Y1  tau(   8) = (   0.0000000   2.1455017  13.0341975  )
         9           La1 tau(   9) = (  -0.0000000   4.2910033  16.0683951  )
        10           La1 tau(  10) = (   1.8580589   1.0727508  16.0683951  )
        11           La1 tau(  11) = (   5.5741768   1.0727508  16.0683951  )
        12           Y1  tau(  12) = (   3.7161179   4.2910033  16.0683951  )

     number of k points=    20  Fermi-Dirac smearing, width (Ry)=  0.0110
                       cart. coord. in units 2pi/alat
        k(    1) = (   0.0000000   0.0000000   0.0000000), wk =   0.0555556
        k(    2) = (   0.0000000   0.0258940   0.0000000), wk =   0.1111111
        k(    3) = (   0.0000000   0.0517879   0.0000000), wk =   0.1111111
        k(    4) = (   0.0000000  -0.0776819   0.0000000), wk =   0.0555556
        k(    5) = (   0.0224248   0.0129470   0.0000000), wk =   0.1111111
        k(    6) = (   0.0224248   0.0388410   0.0000000), wk =   0.1111111
        k(    7) = (   0.0224248   0.0647349   0.0000000), wk =   0.1111111
        k(    8) = (   0.0224248  -0.0647349   0.0000000), wk =   0.1111111
        k(    9) = (   0.0224248  -0.0388410   0.0000000), wk =   0.1111111
        k(   10) = (   0.0224248  -0.0129470   0.0000000), wk =   0.1111111
        k(   11) = (   0.0448497   0.0258940   0.0000000), wk =   0.1111111
        k(   12) = (   0.0448497   0.0517879   0.0000000), wk =   0.1111111
        k(   13) = (   0.0448497   0.0776819   0.0000000), wk =   0.1111111
        k(   14) = (   0.0448497  -0.0517879   0.0000000), wk =   0.1111111
        k(   15) = (   0.0448497  -0.0258940   0.0000000), wk =   0.1111111
        k(   16) = (   0.0448497   0.0000000   0.0000000), wk =   0.1111111
        k(   17) = (  -0.0672745  -0.0388410   0.0000000), wk =   0.0555556
        k(   18) = (  -0.0672745  -0.0129470   0.0000000), wk =   0.1111111
        k(   19) = (  -0.0672745   0.0129470   0.0000000), wk =   0.1111111
        k(   20) = (  -0.0672745  -0.1165229   0.0000000), wk =   0.0555556

     Largest allocated arrays     est. size (Mb)     dimensions
     Largest temporary arrays     est. size (Mb)     dimensions

     Initial potential from superposition of free atoms
     Check: negative starting charge=   -0.627287

     starting charge  131.69798, renormalised to  132.00000

     negative rho (up, down):  6.287E-01 0.000E+00

     *
     * You are using vdW-DF for exchange-correlation in this calculation.
     * Please cite the following three references that made this development
     * possible:
     *
     *   M. Dion, H. Rydberg, E. Schroder, D. C. Langreth, and
     *   B. I. Lundqvist, Phys. Rev. Lett. 92, 246401 (2004).
     *
     *   T. Thonhauser, V. R. Cooper, S. Li, A. Puzder, P. Hyldgaard, and
     *   D. C. Langreth, Phys. Rev. B 76, 125112 (2007).
     *
     *   G. Roman-Perez and J. M. Soler, Phys. Rev. Lett. 103, 096102 (2009).
     *
     *
     * If you are using vdW-DF2, please also cite:
     *
     *   K. Lee, E. D. Murray, L. Kong, B. I. Lundqvist, and
     *   D. C. Langreth, Phys. Rev. B 82, 081101(R) (2010).
     *
     *
     * If you are calculating the stress with vdW-DF, please also cite:
     *
     *   R. Sabatini, E. Kucukbenli, B. Kolb, T. Thonhauser, and
     *   S. de Gironcoli, J. Phys.: Condens. Matter 24, 424209 (2012).
     *

     Carrying out vdW-DF run using the following parameters:

     Nqs =      20    Nr_points =    1024   r_max =   100.000
     q_mesh =
               0.00001000     0.04494208     0.09755937     0.15916263
               0.23128650     0.31572767     0.41458969     0.53033537
               0.66584808     0.82450364     1.01025438     1.22772762
               1.48234092     1.78043706     2.12944203     2.53805004
               3.01644009     3.57652955     4.23227104     5.00000000

     Gradients computed in reciprocal space

     Adding external electric field

     Computed dipole along edir(3) :
        Dipole                0.0000 Ry au,          0.0000 Debye
        Dipole field          0.0000 Ry au

        Potential amp.       -0.0000 Ry
        Total length         48.0306 bohr

     Starting wfc are  219 randomized atomic wfcs

     Self-consistent Calculation

     iteration #  1     ecut=    36.75 Ry     beta=0.10
     Davidson diagonalization with overlap
     ethr =  1.00E-02,  avg # of iterations =  2.0

[...]

     total energy              =   -1216.46590152 Ry
     Harris-Foulkes estimate   =   -1218.00785097 Ry
     estimated scf accuracy    <       8.57843700 Ry

[...]

     iteration # 10     ecut=    36.75 Ry     beta=0.10
     Davidson diagonalization with overlap
     c_bands:  1 eigenvalues not converged
     c_bands:  1 eigenvalues not converged
     c_bands:  1 eigenvalues not converged
     ethr =  3.67E-06,  avg # of iterations = 12.8

[...]

     End of self-consistent calculation

          k = 0.0000 0.0000 0.0000 ( 31721 PWs)   bands (ev):

   -41.8427 -41.8425 -41.3341 -31.6801 -31.6756 -31.5755 -31.5755 -31.5744
   -31.5744 -31.2251 -31.1255 -31.1255 -21.8298 -21.8267 -21.7475 -21.7475
   -21.7467 -21.7467 -21.2928 -21.2928 -21.2592 -15.8235 -15.7736 -15.5372
   -15.4820 -15.4820 -15.4129 -15.4129 -15.3549 -15.3549 -15.3364 -15.3096
   -15.2014 -15.2014 -14.9450 -14.9179 -14.9108 -14.9108 -14.7838 -14.7838
   -14.7663 -14.7663 -14.6777 -14.6235 -14.6235 -14.4824 -14.3800 -14.3800
    -1.5963  -0.8630  -0.5024  -0.1690   0.1364   0.2134   0.2134   0.2677
     0.4282   0.4282   0.6413   0.6413   0.6413   0.7593   0.7593   1.1646
     1.4519   1.4519   1.8196   1.8968   2.1745   2.2935   2.2935   2.5386
     2.6561   2.7669   2.7670   2.8124   2.8756   2.8756   2.8858   2.8908
     2.9157   2.9294   2.9890   2.9891   3.0274   3.0274   3.0631   3.0632
     3.0669   3.0670   3.0719   3.0947   3.1047   3.1048   3.1204   3.1207

[...]

          k =-0.0673-0.0388 0.0000 ( 31590 PWs)   bands (ev):

[...]

     the Fermi energy is     1.6334 ev

!    total energy              =   -1217.15008692 Ry
     Harris-Foulkes estimate   =   -1217.15010325 Ry
     estimated scf accuracy    <       0.00000091 Ry

     The total energy is the sum of the following terms:

     one-electron contribution =   -4749.07464981 Ry
     hartree contribution      =    2380.64664241 Ry
     xc contribution           =    -540.86664824 Ry
     ewald contribution        =    1692.27786211 Ry
     electric field correction =       0.00000009 Ry
     smearing contrib. (-TS)   =      -0.13329349 Ry

     convergence has been achieved in  20 iterations

 BEEF-vdW xc energy contributions
           1 :   -477.749197234310
           2 :    438.003086211060
           3 :   -367.956860209894
           4 :    282.890669505661
           5 :   -198.732003605103
           6 :    127.657710788875
           7 :   -75.9588837209969
           8 :    44.2455660643807
[...]
                l(1) =   0
                l(2) =   0
                l(3) =   1
                l(4) =   1
                l(5) =   2
                l(6) =   2
                l(7) =   3
                l(8) =   3
     Q(r) pseudized with  8 coefficients,  rinner =    1.700   1.700   1.700
                                                       1.700   1.700   1.700
                                                       1.700

     PseudoPot. # 2 for Y  read from file:
     /afs/slac.stanford.edu/u/if/mamunm/psp/gbrv1.5pbe/Y.UPF
     MD5 check sum: d034151ed7554c50b6e82763ed42c788
     Pseudo is Ultrasoft + core correction, Zval = 11.0
     Generated by new atomic code, or converted to UPF format
     Using radial grid of  885 points,  6 beta functions with:
                l(1) =   0
                l(2) =   0
                l(3) =   1
                l(4) =   1
                l(5) =   2
                l(6) =   2
     Q(r) pseudized with  8 coefficients,  rinner =    1.200   1.200   1.200
                                                       1.200   1.200

     vdW kernel table read from file vdW_kernel_table
     MD5 check sum: 095c7af220d748ca6e76c0b4c6cfb241

     atomic species   valence    mass     pseudopotential
        La1           11.00   138.90547     La( 1.00)
        Y1            11.00    88.90584     Y ( 1.00)

     No symmetry found

   Cartesian axes

     site n.     atom                  positions (alat units)
         1           La1 tau(   1) = (   0.0000000   0.0000000  10.0000000  )
         2           La1 tau(   2) = (  -1.8580589   3.2182525  10.0000000  )
         3           La1 tau(   3) = (   1.8580589   3.2182525  10.0000000  )
         4           Y1  tau(   4) = (   3.7161179   0.0000000  10.0000000  )
         5           La1 tau(   5) = (   3.7161179   2.1455017  13.0341975  )
         6           La1 tau(   6) = (   1.8580589   5.3637541  13.0341975  )
         7           La1 tau(   7) = (  -1.8580589   5.3637541  13.0341975  )
         8           Y1  tau(   8) = (   0.0000000   2.1455017  13.0341975  )
         9           La1 tau(   9) = (   0.0000051   4.2901949  16.0347307  )
        10           La1 tau(  10) = (   1.8573428   1.0731293  16.0347528  )
        11           La1 tau(  11) = (   5.5748896   1.0731547  16.0347356  )
        12           Y1  tau(  12) = (   3.7161368   4.2910181  15.9044081  )

     number of k points=    20  Fermi-Dirac smearing, width (Ry)=  0.0110
                       cart. coord. in units 2pi/alat
        k(    1) = (   0.0000000   0.0000000   0.0000000), wk =   0.0555556
        k(    2) = (   0.0000000   0.0258940   0.0000000), wk =   0.1111111
        k(    3) = (   0.0000000   0.0517879   0.0000000), wk =   0.1111111
        k(    4) = (   0.0000000  -0.0776819   0.0000000), wk =   0.0555556
        k(    5) = (   0.0224248   0.0129470   0.0000000), wk =   0.1111111
        k(    6) = (   0.0224248   0.0388410   0.0000000), wk =   0.1111111
        k(    7) = (   0.0224248   0.0647349   0.0000000), wk =   0.1111111
        k(    8) = (   0.0224248  -0.0647349   0.0000000), wk =   0.1111111
        k(    9) = (   0.0224248  -0.0388410   0.0000000), wk =   0.1111111
        k(   10) = (   0.0224248  -0.0129470   0.0000000), wk =   0.1111111
        k(   11) = (   0.0448497   0.0258940   0.0000000), wk =   0.1111111
        k(   12) = (   0.0448497   0.0517879   0.0000000), wk =   0.1111111
        k(   13) = (   0.0448497   0.0776819   0.0000000), wk =   0.1111111
        k(   14) = (   0.0448497  -0.0517879   0.0000000), wk =   0.1111111
        k(   15) = (   0.0448497  -0.0258940   0.0000000), wk =   0.1111111
        k(   16) = (   0.0448497   0.0000000   0.0000000), wk =   0.1111111
        k(   17) = (  -0.0672745  -0.0388410   0.0000000), wk =   0.0555556
        k(   18) = (  -0.0672745  -0.0129470   0.0000000), wk =   0.1111111
        k(   19) = (  -0.0672745   0.0129470   0.0000000), wk =   0.1111111
        k(   20) = (  -0.0672745  -0.1165229   0.0000000), wk =   0.0555556

     Largest allocated arrays     est. size (Mb)     dimensions
     Largest temporary arrays     est. size (Mb)     dimensions

     Initial potential from superposition of free atoms
     Check: negative starting charge=   -0.627712

     starting charge  131.69798, renormalised to  132.00000

[...]

     *
     * You are using vdW-DF for exchange-correlation in this calculation.
     * Please cite the following three references that made this development
     * possible:
     *
     *   M. Dion, H. Rydberg, E. Schroder, D. C. Langreth, and
     *   B. I. Lundqvist, Phys. Rev. Lett. 92, 246401 (2004).
     *
     *   T. Thonhauser, V. R. Cooper, S. Li, A. Puzder, P. Hyldgaard, and
     *   D. C. Langreth, Phys. Rev. B 76, 125112 (2007).
     *
     *   G. Roman-Perez and J. M. Soler, Phys. Rev. Lett. 103, 096102 (2009).
     *
     *
     * If you are using vdW-DF2, please also cite:
     *
     *   K. Lee, E. D. Murray, L. Kong, B. I. Lundqvist, and
     *   D. C. Langreth, Phys. Rev. B 82, 081101(R) (2010).
     *
     *
     * If you are calculating the stress with vdW-DF, please also cite:
     *
     *   R. Sabatini, E. Kucukbenli, B. Kolb, T. Thonhauser, and
     *   S. de Gironcoli, J. Phys.: Condens. Matter 24, 424209 (2012).
     *

     Carrying out vdW-DF run using the following parameters:

     Nqs =      20    Nr_points =    1024   r_max =   100.000
     q_mesh =
               0.00001000     0.04494208     0.09755937     0.15916263
               0.23128650     0.31572767     0.41458969     0.53033537
               0.66584808     0.82450364     1.01025438     1.22772762
               1.48234092     1.78043706     2.12944203     2.53805004
               3.01644009     3.57652955     4.23227104     5.00000000

     Gradients computed in reciprocal space

[...]

     Starting wfc are  219 randomized atomic wfcs

     Self-consistent Calculation

[...]

     iteration # 12     ecut=    36.75 Ry     beta=0.10
     Davidson diagonalization with overlap
     c_bands:  1 eigenvalues not converged
     c_bands:  1 eigenvalues not converged
     c_bands:  1 eigenvalues not converged
     c_bands:  1 eigenvalues not converged
     c_bands:  1 eigenvalues not converged
     ethr =  2.51E-06,  avg # of iterations = 10.6

[...]

     total energy              =   -1217.16767197 Ry
     Harris-Foulkes estimate   =   -1217.16767430 Ry
     estimated scf accuracy    <       0.00000124 Ry

     iteration # 21     ecut=    36.75 Ry     beta=0.10
     Davidson diagonalization with overlap
     ethr =  9.40E-10,  avg # of iterations =  3.0

[...]

     negative rho (up, down):  4.469E-01 0.000E+00

     Adding external electric field

     Computed dipole along edir(3) :
        Dipole                0.0046 Ry au,          0.0117 Debye
        Dipole field          0.0000 Ry au

        Potential amp.       -0.0007 Ry
        Total length         48.0306 bohr

     End of self-consistent calculation

[...]

          k = 0.0448 0.0000 0.0000 ( 31657 PWs)   bands (ev):

[...]

          k =-0.0673-0.1165 0.0000 ( 31590 PWs)   bands (ev):

   -41.8491 -41.7288 -41.3190 -31.6492 -31.6397 -31.6150 -31.6051 -31.5803
   -31.5704 -31.1559 -31.1228 -31.0889 -21.8374 -21.7506 -21.7473 -21.7270
   -21.6430 -21.6396 -21.2777 -21.2742 -21.2476 -15.6248 -15.5813 -15.4927
   -15.3826 -15.3693 -15.3304 -15.2606 -15.2572 -15.2537 -15.2516 -15.2211
   -15.2170 -15.2072 -15.1762 -15.1580 -15.1534 -15.0679 -14.8363 -14.8187
   -14.7829 -14.7339 -14.6765 -14.6521 -14.6148 -14.6049 -14.5712 -14.3770
    -0.4106  -0.4021   0.1705   0.2363   0.4899   0.6594   0.8274   0.9096
     0.9528   0.9826   1.1834   1.2355   1.3303   1.4058   1.5464   1.5738
     1.5762   1.6329   1.6743   1.6975   1.8051   1.8494   1.9208   1.9550
     2.0316   2.0669   2.1547   2.2057   2.3055   2.3186   2.3499   2.4055
     2.5025   2.5107   2.5209   2.6406   2.7244   2.7706   2.9457   2.9641
     3.0014   3.0178   3.0487   3.0543   3.0568   3.0681   3.0805   3.1140

     the Fermi energy is     1.6325 ev

!    total energy              =   -1217.16765998 Ry
     Harris-Foulkes estimate   =   -1217.16767212 Ry
     estimated scf accuracy    <       0.00000084 Ry

     The total energy is the sum of the following terms:

     one-electron contribution =   -4795.22161011 Ry
     hartree contribution      =    2403.82448905 Ry
     xc contribution           =    -540.94689217 Ry
     ewald contribution        =    1715.30868431 Ry
     electric field correction =       0.00000003 Ry
     smearing contrib. (-TS)   =      -0.13233109 Ry

     convergence has been achieved in  21 iterations

 BEEF-vdW xc energy contributions
           1 :   -478.282655501445
           2 :    438.557940189280
           3 :   -368.530900674675
           4 :    283.455321234924
           5 :   -199.252135284093
           6 :    128.117194265853
           7 :   -76.3727154467333
           8 :    44.6511897951422
           9 :   -29.5664577669073
          10 :    25.7945286301287
          11 :   -27.7992394930376
          12 :    30.8959674659207
          13 :   -31.7423932089769
          14 :    28.5128066993146
          15 :   -20.9472327560508
          16 :    10.2525838855355
          17 :    1.28749078068824
          18 :   -11.0477909214050
          19 :    16.9546815272711
          20 :   -18.1907438731974
          21 :    15.4100371171743
          22 :   -10.3897323663181
          23 :    5.29081372042464
          24 :   -1.85439473281031
          25 :   0.854214736984773
          26 :   -1.99066257260245
          27 :    4.20753033044218
          28 :   -6.24665972001969
          29 :    7.18799329797332
          30 :   -6.76929317770089
          31 :   -41.3325380671209
          32 :   -29.4465656995089

     Forces acting on atoms (Ry/au):

     negative rho (up, down):  4.469E-01 0.000E+00
     atom    1 type  1   force =    -0.00000136    0.00001110    0.00146004
     atom    2 type  1   force =     0.00001196   -0.00000632    0.00145766
     atom    3 type  1   force =    -0.00000999   -0.00000465    0.00145634
     atom    4 type  2   force =     0.00000063   -0.00000007    0.00927746
     atom    5 type  1   force =    -0.00000288   -0.00129146   -0.00425621
     atom    6 type  1   force =    -0.00111950    0.00064347   -0.00425997
     atom    7 type  1   force =     0.00111961    0.00064745   -0.00425784
     atom    8 type  2   force =     0.00000167    0.00000022   -0.00024956
     atom    9 type  1   force =     0.00000010    0.00008677   -0.00042488
     atom   10 type  1   force =     0.00007750   -0.00004129   -0.00042950
     atom   11 type  1   force =    -0.00007863   -0.00004335   -0.00042537
     atom   12 type  2   force =     0.00000091   -0.00000188    0.00065181

     Total force =     0.012365     Total SCF correction =     0.000626

     entering subroutine stress ...

     negative rho (up, down):  4.469E-01 0.000E+00
          total   stress  (Ry/bohr**3)                   (kbar)     P=   -2.43
  -0.00001928   0.00000000  -0.00000000         -2.84      0.00     -0.00
   0.00000000  -0.00001928   0.00000000          0.00     -2.84      0.00
  -0.00000000   0.00000000  -0.00001091         -0.00      0.00     -1.60

 !ASE

     Writing output data file calc.save

     General routines

     Parallel routines

   This run was terminated on:  19:58: 3  26Dec2018

   JOB DONE.
Job  /afs/slac/g/suncat/bin/suncat-tsmpirun -x LD_LIBRARY_PATH -wdir /scratch/qe110040_1KXif pw.x -in pw.inp

TID   HOST_NAME   COMMAND_LINE            STATUS            TERMINATION_TIME
00000 suncat0169 pw.x -in pw.inp   Done                     12/26/2018 19:58:03
00001 suncat0169 pw.x -in pw.inp   Done                     12/26/2018 19:58:03
00002 suncat0169 pw.x -in pw.inp   Done                     12/26/2018 19:58:03
00003 suncat0169 pw.x -in pw.inp   Done                     12/26/2018 19:58:03
00004 suncat0169 pw.x -in pw.inp   Done                     12/26/2018 19:58:03
00005 suncat0169 pw.x -in pw.inp   Done                     12/26/2018 19:58:03
00006 suncat0169 pw.x -in pw.inp   Done                     12/26/2018 19:58:03
00007 suncat0169 pw.x -in pw.inp   Done                     12/26/2018 19:58:03
00008 suncat0168 pw.x -in pw.inp   Done                     12/26/2018 19:58:03
00009 suncat0168 pw.x -in pw.inp   Done                     12/26/2018 19:58:03
00010 suncat0168 pw.x -in pw.inp   Done                     12/26/2018 19:58:03
00011 suncat0168 pw.x -in pw.inp   Done                     12/26/2018 19:58:03
00012 suncat0168 pw.x -in pw.inp   Done                     12/26/2018 19:58:03
00013 suncat0168 pw.x -in pw.inp   Done                     12/26/2018 19:58:03
00014 suncat0168 pw.x -in pw.inp   Done                     12/26/2018 19:58:03
00015 suncat0168 pw.x -in pw.inp   Done                     12/26/2018 19:58:03
00016 suncat0161 pw.x -in pw.inp   Done                     12/26/2018 19:58:03
00017 suncat0161 pw.x -in pw.inp   Done                     12/26/2018 19:58:03
00018 suncat0161 pw.x -in pw.inp   Done                     12/26/2018 19:58:03
00019 suncat0161 pw.x -in pw.inp   Done                     12/26/2018 19:58:03
00020 suncat0161 pw.x -in pw.inp   Done                     12/26/2018 19:58:03
00021 suncat0161 pw.x -in pw.inp   Done                     12/26/2018 19:58:03
00022 suncat0161 pw.x -in pw.inp   Done                     12/26/2018 19:58:03
00023 suncat0161 pw.x -in pw.inp   Done                     12/26/2018 19:58:03
00024 suncat0159 pw.x -in pw.inp   Done                     12/26/2018 19:58:03
00025 suncat0159 pw.x -in pw.inp   Done                     12/26/2018 19:58:03
00026 suncat0159 pw.x -in pw.inp   Done                     12/26/2018 19:58:03
00027 suncat0159 pw.x -in pw.inp   Done                     12/26/2018 19:58:03
00028 suncat0159 pw.x -in pw.inp   Done                     12/26/2018 19:58:03
00029 suncat0159 pw.x -in pw.inp   Done                     12/26/2018 19:58:03
00030 suncat0159 pw.x -in pw.inp   Done                     12/26/2018 19:58:03
00031 suncat0159 pw.x -in pw.inp   Done                     12/26/2018 19:58:03
00032 suncat0156 pw.x -in pw.inp   Done                     12/26/2018 19:58:03
00033 suncat0156 pw.x -in pw.inp   Done                     12/26/2018 19:58:03
00034 suncat0156 pw.x -in pw.inp   Done                     12/26/2018 19:58:03
00035 suncat0156 pw.x -in pw.inp   Done                     12/26/2018 19:58:03
00036 suncat0156 pw.x -in pw.inp   Done                     12/26/2018 19:58:03
00037 suncat0156 pw.x -in pw.inp   Done                     12/26/2018 19:58:03
00038 suncat0156 pw.x -in pw.inp   Done                     12/26/2018 19:58:03
00039 suncat0156 pw.x -in pw.inp   Done                     12/26/2018 19:58:03
00040 suncat0153 pw.x -in pw.inp   Done                     12/26/2018 19:58:03
00041 suncat0153 pw.x -in pw.inp   Done                     12/26/2018 19:58:03
00042 suncat0153 pw.x -in pw.inp   Done                     12/26/2018 19:58:03
00043 suncat0153 pw.x -in pw.inp   Done                     12/26/2018 19:58:03
00044 suncat0153 pw.x -in pw.inp   Done                     12/26/2018 19:58:03
00045 suncat0153 pw.x -in pw.inp   Done                     12/26/2018 19:58:03
00046 suncat0153 pw.x -in pw.inp   Done                     12/26/2018 19:58:03
00047 suncat0153 pw.x -in pw.inp   Done                     12/26/2018 19:58:03
00048 suncat0114 pw.x -in pw.inp   Done                     12/26/2018 19:58:03
00049 suncat0114 pw.x -in pw.inp   Done                     12/26/2018 19:58:03
00050 suncat0114 pw.x -in pw.inp   Done                     12/26/2018 19:58:03
00051 suncat0114 pw.x -in pw.inp   Done                     12/26/2018 19:58:03
00052 suncat0114 pw.x -in pw.inp   Done                     12/26/2018 19:58:03
00053 suncat0114 pw.x -in pw.inp   Done                     12/26/2018 19:58:03
00054 suncat0114 pw.x -in pw.inp   Done                     12/26/2018 19:58:03
00055 suncat0114 pw.x -in pw.inp   Done                     12/26/2018 19:58:03
00056 suncat0267 pw.x -in pw.inp   Done                     12/26/2018 19:58:03
00057 suncat0267 pw.x -in pw.inp   Done                     12/26/2018 19:58:03
00058 suncat0267 pw.x -in pw.inp   Done                     12/26/2018 19:58:03
00059 suncat0267 pw.x -in pw.inp   Done                     12/26/2018 19:58:03
00060 suncat0267 pw.x -in pw.inp   Done                     12/26/2018 19:58:03
00061 suncat0267 pw.x -in pw.inp   Done                     12/26/2018 19:58:03
00062 suncat0267 pw.x -in pw.inp   Done                     12/26/2018 19:58:03
00063 suncat0267 pw.x -in pw.inp   Done                     12/26/2018 19:58:03