     Program PWSCF v.5.1rc2 (svn rev. 11289) starts on  2Jan2019 at 10:32:29

     Current dimensions of program PWSCF are:
     Max number of different atomic species (ntypx) = 10
     Max number of k-points (npk) =  40000
     Max angular momentum in pseudopotentials (lmaxx) =  3
     Presently stress not available with electric field

     IMPORTANT: XC functional enforced from input :
     Exchange-correlation      = BEEF-VDW ( 1  4 27 13 2)
     Any further DFT definition will be discarded
     Please, verify this is what you really want

     Subspace diagonalization in iterative solution of the eigenvalue problem:
     a serial algorithm will be used

     bravais-lattice index     =            0
     lattice parameter (alat)  =       1.8897  a.u.
     unit-cell volume          =    6954.5833 (a.u.)^3
     number of atoms/cell      =           12
     number of atomic types    =            2
     number of electrons       =       156.00
     number of Kohn-Sham states=          108
     kinetic-energy cutoff     =      36.7493  Ry
     charge density cutoff     =     367.4932  Ry
     convergence threshold     =      1.0E-06
     mixing beta               =       0.1000
     number of iterations used =           10  plain     mixing
     Exchange-correlation      = BEEF-VDW ( 1  4 27 13 2)
     nstep                     =           50

     celldm(1)=   1.889726  celldm(2)=   0.000000  celldm(3)=   0.000000
     celldm(4)=   0.000000  celldm(5)=   0.000000  celldm(6)=   0.000000

     crystal axes: (cart. coord. in units of alat)
               a(1) = (   6.821910   0.000000   0.000000 )
               a(2) = (  -3.410955   5.907948   0.000000 )
               a(3) = (   0.000000   0.000000  25.570067 )

     reciprocal axes: (cart. coord. in units 2 pi/alat)
               b(1) = (  0.146587  0.084632  0.000000 )
               b(2) = (  0.000000  0.169264  0.000000 )
               b(3) = (  0.000000  0.000000  0.039108 )

     PseudoPot. # 1 for Y  read from file:
     /afs/slac.stanford.edu/u/if/mamunm/psp/gbrv1.5pbe/Y.UPF
     MD5 check sum: d034151ed7554c50b6e82763ed42c788
     Pseudo is Ultrasoft + core correction, Zval = 11.0
     Generated by new atomic code, or converted to UPF format
     Using radial grid of  885 points,  6 beta functions with:
                l(1) =   0
                l(2) =   0
                l(3) =   1
                l(4) =   1
                l(5) =   2
                l(6) =   2
     Q(r) pseudized with  8 coefficients,  rinner =    1.200   1.200   1.200
                                                       1.200   1.200

     PseudoPot. # 2 for Ag read from file:
     /afs/slac.stanford.edu/u/if/mamunm/psp/gbrv1.5pbe/Ag.UPF
     MD5 check sum: d66d668201baa78d5eb5b04ef7011058
     Pseudo is Ultrasoft + core correction, Zval = 19.0
     Generated by new atomic code, or converted to UPF format
     Using radial grid of  887 points,  6 beta functions with:
                l(1) =   0
                l(2) =   0
                l(3) =   1
                l(4) =   1
                l(5) =   2
                l(6) =   2
     Q(r) pseudized with  6 coefficients,  rinner =    1.300   1.300   1.300
                                                       1.300   1.300

     vdW kernel table read from file vdW_kernel_table
     MD5 check sum: 095c7af220d748ca6e76c0b4c6cfb241

     atomic species   valence    mass     pseudopotential
        Y1            11.00    88.90584     Y ( 1.00)
        Ag1           19.00   107.86820     Ag( 1.00)

     No symmetry found

   Cartesian axes

     site n.     atom                  positions (alat units)
         1           Y1  tau(   1) = (   0.0000000   0.0000000  10.0000000  )
         2           Y1  tau(   2) = (  -1.7054776   2.9539739  10.0000000  )
         3           Y1  tau(   3) = (   1.7054776   2.9539739  10.0000000  )
         4           Ag1 tau(   4) = (   3.4109552   0.0000000  10.0000000  )
         5           Y1  tau(   5) = (   3.4109552   1.9693159  12.7850333  )
         6           Y1  tau(   6) = (   1.7054776   4.9232898  12.7850333  )
         7           Y1  tau(   7) = (  -1.7054776   4.9232898  12.7850333  )
         8           Ag1 tau(   8) = (   0.0000000   1.9693159  12.7850333  )
         9           Y1  tau(   9) = (  -0.0000000   3.9386318  15.5700665  )
        10           Y1  tau(  10) = (   1.7054776   0.9846580  15.5700665  )
        11           Y1  tau(  11) = (   5.1164328   0.9846580  15.5700665  )
        12           Ag1 tau(  12) = (   3.4109552   3.9386318  15.5700665  )

     number of k points=    20  Fermi-Dirac smearing, width (Ry)=  0.0110
                       cart. coord. in units 2pi/alat
        k(    1) = (   0.0000000   0.0000000   0.0000000), wk =   0.0555556
        k(    2) = (   0.0000000   0.0282106   0.0000000), wk =   0.1111111
        k(    3) = (   0.0000000   0.0564212   0.0000000), wk =   0.1111111
        k(    4) = (   0.0000000  -0.0846318   0.0000000), wk =   0.0555556
        k(    5) = (   0.0244311   0.0141053   0.0000000), wk =   0.1111111
        k(    6) = (   0.0244311   0.0423159   0.0000000), wk =   0.1111111
        k(    7) = (   0.0244311   0.0705265   0.0000000), wk =   0.1111111
        k(    8) = (   0.0244311  -0.0705265   0.0000000), wk =   0.1111111
        k(    9) = (   0.0244311  -0.0423159   0.0000000), wk =   0.1111111
        k(   10) = (   0.0244311  -0.0141053   0.0000000), wk =   0.1111111
        k(   11) = (   0.0488622   0.0282106   0.0000000), wk =   0.1111111
        k(   12) = (   0.0488622   0.0564212   0.0000000), wk =   0.1111111
        k(   13) = (   0.0488622   0.0846318   0.0000000), wk =   0.1111111
        k(   14) = (   0.0488622  -0.0564212   0.0000000), wk =   0.1111111
        k(   15) = (   0.0488622  -0.0282106   0.0000000), wk =   0.1111111
        k(   16) = (   0.0488622   0.0000000   0.0000000), wk =   0.1111111
        k(   17) = (  -0.0732933  -0.0423159   0.0000000), wk =   0.0555556
        k(   18) = (  -0.0732933  -0.0141053   0.0000000), wk =   0.1111111
        k(   19) = (  -0.0732933   0.0141053   0.0000000), wk =   0.1111111
        k(   20) = (  -0.0732933  -0.1269476   0.0000000), wk =   0.0555556

     Largest allocated arrays     est. size (Mb)     dimensions
     Largest temporary arrays     est. size (Mb)     dimensions

     Initial potential from superposition of free atoms
     Check: negative starting charge=   -0.001219

     starting charge  154.45964, renormalised to  156.00000

     negative rho (up, down):  1.231E-03 0.000E+00

     *
     * You are using vdW-DF for exchange-correlation in this calculation.
     * Please cite the following three references that made this development
     * possible:
     *
     *   M. Dion, H. Rydberg, E. Schroder, D. C. Langreth, and
     *   B. I. Lundqvist, Phys. Rev. Lett. 92, 246401 (2004).
     *
     *   T. Thonhauser, V. R. Cooper, S. Li, A. Puzder, P. Hyldgaard, and
     *   D. C. Langreth, Phys. Rev. B 76, 125112 (2007).
     *
     *   G. Roman-Perez and J. M. Soler, Phys. Rev. Lett. 103, 096102 (2009).
     *
     *
     * If you are using vdW-DF2, please also cite:
     *
     *   K. Lee, E. D. Murray, L. Kong, B. I. Lundqvist, and
     *   D. C. Langreth, Phys. Rev. B 82, 081101(R) (2010).
     *
     *
     * If you are calculating the stress with vdW-DF, please also cite:
     *
     *   R. Sabatini, E. Kucukbenli, B. Kolb, T. Thonhauser, and
     *   S. de Gironcoli, J. Phys.: Condens. Matter 24, 424209 (2012).
     *

     Carrying out vdW-DF run using the following parameters:

     Nqs =      20    Nr_points =    1024   r_max =   100.000
     q_mesh =
               0.00001000     0.04494208     0.09755937     0.15916263
               0.23128650     0.31572767     0.41458969     0.53033537
               0.66584808     0.82450364     1.01025438     1.22772762
               1.48234092     1.78043706     2.12944203     2.53805004
               3.01644009     3.57652955     4.23227104     5.00000000

     Gradients computed in reciprocal space

     Adding external electric field

     Computed dipole along edir(3) :
        Dipole                0.0000 Ry au,          0.0000 Debye
        Dipole field          0.0000 Ry au

        Potential amp.       -0.0000 Ry
        Total length         47.1124 bohr

     Starting wfc are  156 randomized atomic wfcs

     Self-consistent Calculation

     iteration #  1     ecut=    36.75 Ry     beta=0.10
     Davidson diagonalization with overlap
     ethr =  1.00E-02,  avg # of iterations =  2.0

[...]

     total energy              =   -1732.89126492 Ry
     Harris-Foulkes estimate   =   -1733.70482244 Ry
     estimated scf accuracy    <       4.69436318 Ry

[...]

     End of self-consistent calculation

          k = 0.0000 0.0000 0.0000 ( 26181 PWs)   bands (ev):

   -90.8919 -90.8454 -90.8453 -54.3544 -54.3544 -54.3501 -54.3240 -54.3240
   -54.3239 -54.3239 -54.3024 -54.3022 -42.1366 -42.1351 -42.0790 -42.0790
   -42.0787 -42.0787 -41.6767 -41.6199 -41.6199 -22.3389 -22.3132 -22.2395
   -22.1956 -22.1956 -22.1714 -22.1637 -22.1637 -22.1464 -22.1464 -22.0968
   -22.0968 -21.9511 -21.8942 -21.8850 -21.7591 -21.7591 -21.7377 -21.7377
   -21.6884 -21.6884 -21.5813 -21.5443 -21.5442 -21.4364 -21.3588 -21.3588
    -3.5660  -3.2704  -3.2704  -3.2403  -3.2403  -3.2401  -3.2031  -3.2031
    -3.1976  -3.1558  -3.1558  -3.1109  -3.0304  -3.0304  -2.9845  -2.9845
    -2.3164  -1.6563  -0.9001  -0.5620  -0.4595   0.4668   0.4668   0.6757
     0.8476   0.8753   0.8753   1.0332   1.0332   1.2460   1.2460   1.5217
     1.5353   1.5783   1.5783   1.8492   2.0517   2.2820   2.2820   2.3601
     2.3601   2.6124   2.6493   2.6493   2.7226   2.7226   2.9071   3.1892
     3.8407   4.1993   4.1993   4.2131   4.2819   4.3861   4.4920   4.4920
     4.6146   4.6146   4.6653   4.6653

[...]

          k =-0.0733-0.0423 0.0000 ( 26122 PWs)   bands (ev):

[...]

     the Fermi energy is     1.2653 ev

!    total energy              =   -1733.14505403 Ry
     Harris-Foulkes estimate   =   -1733.14505528 Ry
     estimated scf accuracy    <       0.00000025 Ry

     The total energy is the sum of the following terms:

     one-electron contribution =   -8830.73353383 Ry
     hartree contribution      =    4407.35317752 Ry
     xc contribution           =    -344.37492578 Ry
     ewald contribution        =    3034.72922306 Ry
     electric field correction =       0.00000000 Ry
     smearing contrib. (-TS)   =      -0.11899500 Ry

     convergence has been achieved in  17 iterations

 BEEF-vdW xc energy contributions
           1 :   -299.983344721981
           2 :    270.101964216237
           3 :   -218.877974789294
           4 :    159.424744315681
           5 :   -104.055287994798
           6 :    60.3912699227549
           7 :   -30.4905880645973
           8 :    12.5282398728269
           9 :   -3.37788510583351
          10 :   0.483859766100409
          11 :   -2.33145847572990
          12 :    7.81786385407099
          13 :   -15.3980822613460
          14 :    22.8051552160587
          15 :   -27.5980036739438
          16 :    28.1331911330210
[...]
     Generated by new atomic code, or converted to UPF format
     Using radial grid of  885 points,  6 beta functions with:
                l(1) =   0
                l(2) =   0
                l(3) =   1
                l(4) =   1
                l(5) =   2
                l(6) =   2
     Q(r) pseudized with  8 coefficients,  rinner =    1.200   1.200   1.200
                                                       1.200   1.200

     PseudoPot. # 2 for Ag read from file:
     /afs/slac.stanford.edu/u/if/mamunm/psp/gbrv1.5pbe/Ag.UPF
     MD5 check sum: d66d668201baa78d5eb5b04ef7011058
     Pseudo is Ultrasoft + core correction, Zval = 19.0
     Generated by new atomic code, or converted to UPF format
     Using radial grid of  887 points,  6 beta functions with:
                l(1) =   0
                l(2) =   0
                l(3) =   1
                l(4) =   1
                l(5) =   2
                l(6) =   2
     Q(r) pseudized with  6 coefficients,  rinner =    1.300   1.300   1.300
                                                       1.300   1.300

     vdW kernel table read from file vdW_kernel_table
     MD5 check sum: 095c7af220d748ca6e76c0b4c6cfb241

     atomic species   valence    mass     pseudopotential
        Y1            11.00    88.90584     Y ( 1.00)
        Ag1           19.00   107.86820     Ag( 1.00)

     No symmetry found

   Cartesian axes

     site n.     atom                  positions (alat units)
         1           Y1  tau(   1) = (   0.0000000   0.0000000  10.0000000  )
         2           Y1  tau(   2) = (  -1.7054776   2.9539739  10.0000000  )
         3           Y1  tau(   3) = (   1.7054776   2.9539739  10.0000000  )
         4           Ag1 tau(   4) = (   3.4109552   0.0000000  10.0000000  )
         5           Y1  tau(   5) = (   3.4109552   1.9693159  12.7850333  )
         6           Y1  tau(   6) = (   1.7054776   4.9232898  12.7850333  )
         7           Y1  tau(   7) = (  -1.7054776   4.9232898  12.7850333  )
         8           Ag1 tau(   8) = (   0.0000000   1.9693159  12.7850333  )
         9           Y1  tau(   9) = (  -0.0000071   3.9204091  15.6035419  )
        10           Y1  tau(  10) = (   1.6897014   0.9937405  15.6035492  )
        11           Y1  tau(  11) = (   5.1322110   0.9937550  15.6035190  )
        12           Ag1 tau(  12) = (   3.4109478   3.9386361  15.2963559  )

     number of k points=    20  Fermi-Dirac smearing, width (Ry)=  0.0110
                       cart. coord. in units 2pi/alat
        k(    1) = (   0.0000000   0.0000000   0.0000000), wk =   0.0555556
        k(    2) = (   0.0000000   0.0282106   0.0000000), wk =   0.1111111
        k(    3) = (   0.0000000   0.0564212   0.0000000), wk =   0.1111111
        k(    4) = (   0.0000000  -0.0846318   0.0000000), wk =   0.0555556
        k(    5) = (   0.0244311   0.0141053   0.0000000), wk =   0.1111111
        k(    6) = (   0.0244311   0.0423159   0.0000000), wk =   0.1111111
        k(    7) = (   0.0244311   0.0705265   0.0000000), wk =   0.1111111
        k(    8) = (   0.0244311  -0.0705265   0.0000000), wk =   0.1111111
        k(    9) = (   0.0244311  -0.0423159   0.0000000), wk =   0.1111111
        k(   10) = (   0.0244311  -0.0141053   0.0000000), wk =   0.1111111
        k(   11) = (   0.0488622   0.0282106   0.0000000), wk =   0.1111111
        k(   12) = (   0.0488622   0.0564212   0.0000000), wk =   0.1111111
        k(   13) = (   0.0488622   0.0846318   0.0000000), wk =   0.1111111
        k(   14) = (   0.0488622  -0.0564212   0.0000000), wk =   0.1111111
        k(   15) = (   0.0488622  -0.0282106   0.0000000), wk =   0.1111111
        k(   16) = (   0.0488622   0.0000000   0.0000000), wk =   0.1111111
        k(   17) = (  -0.0732933  -0.0423159   0.0000000), wk =   0.0555556
        k(   18) = (  -0.0732933  -0.0141053   0.0000000), wk =   0.1111111
        k(   19) = (  -0.0732933   0.0141053   0.0000000), wk =   0.1111111
        k(   20) = (  -0.0732933  -0.1269476   0.0000000), wk =   0.0555556

     Largest allocated arrays     est. size (Mb)     dimensions
     Largest temporary arrays     est. size (Mb)     dimensions

     Initial potential from superposition of free atoms
     Check: negative starting charge=   -0.001198

     starting charge  154.45964, renormalised to  156.00000

[...]

     *
     * You are using vdW-DF for exchange-correlation in this calculation.
     * Please cite the following three references that made this development
     * possible:
     *
     *   M. Dion, H. Rydberg, E. Schroder, D. C. Langreth, and
     *   B. I. Lundqvist, Phys. Rev. Lett. 92, 246401 (2004).
     *
     *   T. Thonhauser, V. R. Cooper, S. Li, A. Puzder, P. Hyldgaard, and
     *   D. C. Langreth, Phys. Rev. B 76, 125112 (2007).
     *
     *   G. Roman-Perez and J. M. Soler, Phys. Rev. Lett. 103, 096102 (2009).
     *
     *
     * If you are using vdW-DF2, please also cite:
     *
     *   K. Lee, E. D. Murray, L. Kong, B. I. Lundqvist, and
     *   D. C. Langreth, Phys. Rev. B 82, 081101(R) (2010).
     *
     *
     * If you are calculating the stress with vdW-DF, please also cite:
     *
     *   R. Sabatini, E. Kucukbenli, B. Kolb, T. Thonhauser, and
     *   S. de Gironcoli, J. Phys.: Condens. Matter 24, 424209 (2012).
     *

     Carrying out vdW-DF run using the following parameters:

     Nqs =      20    Nr_points =    1024   r_max =   100.000
     q_mesh =
               0.00001000     0.04494208     0.09755937     0.15916263
               0.23128650     0.31572767     0.41458969     0.53033537
               0.66584808     0.82450364     1.01025438     1.22772762
               1.48234092     1.78043706     2.12944203     2.53805004
               3.01644009     3.57652955     4.23227104     5.00000000

     Gradients computed in reciprocal space

[...]

     Starting wfc are  156 randomized atomic wfcs

     Self-consistent Calculation

[...]

     iteration # 10     ecut=    36.75 Ry     beta=0.10
     Davidson diagonalization with overlap
     c_bands:  1 eigenvalues not converged
     c_bands:  1 eigenvalues not converged
     c_bands:  1 eigenvalues not converged
     ethr =  1.29E-06,  avg # of iterations =  5.2

[...]

     total energy              =   -1733.15210503 Ry
     Harris-Foulkes estimate   =   -1733.15210553 Ry
     estimated scf accuracy    <       0.00000251 Ry

     iteration # 17     ecut=    36.75 Ry     beta=0.10
     Davidson diagonalization with overlap
     ethr =  1.61E-09,  avg # of iterations =  2.6

[...]

     negative rho (up, down):  8.244E-04 0.000E+00

     Adding external electric field

     Computed dipole along edir(3) :
        Dipole                0.0351 Ry au,          0.0892 Debye
        Dipole field          0.0001 Ry au

        Potential amp.       -0.0060 Ry
        Total length         47.1124 bohr

     End of self-consistent calculation

[...]

          k = 0.0489 0.0000 0.0000 ( 26175 PWs)   bands (ev):

[...]

          k =-0.0733-0.1269 0.0000 ( 26122 PWs)   bands (ev):

   -90.9692 -90.8476 -90.8216 -54.4531 -54.4301 -54.4300 -54.3114 -54.3114
   -54.3043 -54.2995 -54.2994 -54.2798 -42.1171 -42.0973 -42.0865 -42.0786
   -42.0676 -42.0485 -41.6263 -41.6074 -41.5883 -22.2240 -22.1940 -22.1799
   -22.1605 -22.1423 -22.1172 -22.1041 -22.0918 -22.0496 -22.0475 -22.0203
   -22.0161 -21.9989 -21.9738 -21.9671 -21.9480 -21.7920 -21.7554 -21.7330
   -21.6041 -21.5806 -21.5473 -21.5418 -21.5274 -21.5143 -21.4973 -21.3487
    -3.2792  -3.2313  -3.2297  -3.2075  -3.1985  -3.1591  -3.1354  -3.0940
    -3.0861  -3.0708  -3.0633  -3.0540  -3.0270  -3.0151  -2.9481  -2.2326
    -2.1932  -1.3604  -1.1862  -0.6119  -0.2799  -0.1050   0.3450   0.5374
     0.7556   0.8476   0.9351   1.1440   1.1511   1.1939   1.3445   1.4103
     1.4925   1.5480   1.6448   1.8512   1.9408   1.9786   1.9866   2.1286
     2.1559   2.4090   2.5772   2.6520   2.7909   2.8130   2.9086   3.0037
     3.1059   3.7638   3.8583   3.9847   3.9940   4.0709   4.1304   4.2221
     4.3652   4.3853   4.3988   4.5446

     the Fermi energy is     1.2937 ev

!    total energy              =   -1733.15210412 Ry
     Harris-Foulkes estimate   =   -1733.15210539 Ry
     estimated scf accuracy    <       0.00000025 Ry

     The total energy is the sum of the following terms:

     one-electron contribution =   -8920.49488058 Ry
     hartree contribution      =    4452.26870845 Ry
     xc contribution           =    -344.37435784 Ry
     ewald contribution        =    3079.56674587 Ry
     electric field correction =       0.00000223 Ry
     smearing contrib. (-TS)   =      -0.11832224 Ry

     convergence has been achieved in  17 iterations

 BEEF-vdW xc energy contributions
           1 :   -299.987728468696
           2 :    270.123554441847
           3 :   -218.916346403593
           4 :    159.458385714503
           5 :   -104.054208637926
           6 :    60.3376553914405
           7 :   -30.3936958664162
           8 :    12.4222421522523
           9 :   -3.30168276189340
          10 :   0.456113465301939
          11 :   -2.33939032709219
          12 :    7.82813196797844
          13 :   -15.3807782450358
          14 :    22.7526689233108
          15 :   -27.5266791020466
          16 :    28.0702351292570
          17 :   -24.2318823875307
          18 :    17.3107577858287
          19 :   -9.37109698641342
          20 :    2.36826195808692
          21 :    2.44052159996392
          22 :   -4.62968167957757
          23 :    4.41122461491676
          24 :   -2.35478011235529
          25 :  -0.815096248020154
          26 :    4.31879854900689
          27 :   -7.39144326300192
          28 :    9.39312839551775
          29 :   -9.96039671098544
          30 :    9.12004070791664
          31 :   -28.9545635584448
          32 :   -20.1364667551280

     Forces acting on atoms (Ry/au):

     negative rho (up, down):  8.244E-04 0.000E+00
     atom    1 type  1   force =    -0.00000066    0.00784892   -0.00508608
     atom    2 type  1   force =     0.00679528   -0.00392652   -0.00508179
     atom    3 type  1   force =    -0.00679650   -0.00392440   -0.00508406
     atom    4 type  2   force =    -0.00000075   -0.00000039    0.02120868
     atom    5 type  1   force =    -0.00000066   -0.00188350   -0.00013916
     atom    6 type  1   force =    -0.00163132    0.00094047   -0.00014173
     atom    7 type  1   force =     0.00163122    0.00094253   -0.00014018
     atom    8 type  2   force =     0.00000180    0.00000242   -0.00053469
     atom    9 type  1   force =     0.00000116   -0.00049692   -0.00134206
     atom   10 type  1   force =    -0.00042888    0.00025101   -0.00134581
     atom   11 type  1   force =     0.00042814    0.00024687   -0.00134247
     atom   12 type  2   force =     0.00000119   -0.00000049   -0.00097064

     Total force =     0.027023     Total SCF correction =     0.000867

     entering subroutine stress ...

     negative rho (up, down):  8.244E-04 0.000E+00
          total   stress  (Ry/bohr**3)                   (kbar)     P=   -3.00
  -0.00002378  -0.00000000   0.00000000         -3.50     -0.00      0.00
  -0.00000000  -0.00002378   0.00000000         -0.00     -3.50      0.00
   0.00000000   0.00000000  -0.00001371          0.00      0.00     -2.02

 !ASE

     Writing output data file calc.save

     General routines

     Parallel routines

   This run was terminated on:  12:55: 7   2Jan2019

   JOB DONE.
Job  /afs/slac/g/suncat/bin/suncat-tsmpirun -x LD_LIBRARY_PATH -wdir /scratch/qe649401_dhut5 pw.x -in pw.inp

TID   HOST_NAME   COMMAND_LINE            STATUS            TERMINATION_TIME
00000 suncat0141 pw.x -in pw.inp   Done                     01/02/2019 12:55:07
00001 suncat0141 pw.x -in pw.inp   Done                     01/02/2019 12:55:07
00002 suncat0141 pw.x -in pw.inp   Done                     01/02/2019 12:55:07
00003 suncat0141 pw.x -in pw.inp   Done                     01/02/2019 12:55:07
00004 suncat0141 pw.x -in pw.inp   Done                     01/02/2019 12:55:07
00005 suncat0141 pw.x -in pw.inp   Done                     01/02/2019 12:55:07
00006 suncat0141 pw.x -in pw.inp   Done                     01/02/2019 12:55:07
00007 suncat0141 pw.x -in pw.inp   Done                     01/02/2019 12:55:07
00008 suncat0140 pw.x -in pw.inp   Done                     01/02/2019 12:55:07
00009 suncat0140 pw.x -in pw.inp   Done                     01/02/2019 12:55:07
00010 suncat0140 pw.x -in pw.inp   Done                     01/02/2019 12:55:07
00011 suncat0140 pw.x -in pw.inp   Done                     01/02/2019 12:55:07
00012 suncat0140 pw.x -in pw.inp   Done                     01/02/2019 12:55:07
00013 suncat0140 pw.x -in pw.inp   Done                     01/02/2019 12:55:07
00014 suncat0140 pw.x -in pw.inp   Done                     01/02/2019 12:55:07
00015 suncat0140 pw.x -in pw.inp   Done                     01/02/2019 12:55:07
00016 suncat0135 pw.x -in pw.inp   Done                     01/02/2019 12:55:07
00017 suncat0135 pw.x -in pw.inp   Done                     01/02/2019 12:55:07
00018 suncat0135 pw.x -in pw.inp   Done                     01/02/2019 12:55:07
00019 suncat0135 pw.x -in pw.inp   Done                     01/02/2019 12:55:07
00020 suncat0135 pw.x -in pw.inp   Done                     01/02/2019 12:55:07
00021 suncat0135 pw.x -in pw.inp   Done                     01/02/2019 12:55:07
00022 suncat0135 pw.x -in pw.inp   Done                     01/02/2019 12:55:07
00023 suncat0135 pw.x -in pw.inp   Done                     01/02/2019 12:55:07
00024 suncat0134 pw.x -in pw.inp   Done                     01/02/2019 12:55:07
00025 suncat0134 pw.x -in pw.inp   Done                     01/02/2019 12:55:07
00026 suncat0134 pw.x -in pw.inp   Done                     01/02/2019 12:55:07
00027 suncat0134 pw.x -in pw.inp   Done                     01/02/2019 12:55:07
00028 suncat0134 pw.x -in pw.inp   Done                     01/02/2019 12:55:07
00029 suncat0134 pw.x -in pw.inp   Done                     01/02/2019 12:55:07
00030 suncat0134 pw.x -in pw.inp   Done                     01/02/2019 12:55:07
00031 suncat0134 pw.x -in pw.inp   Done                     01/02/2019 12:55:07
00032 suncat0272 pw.x -in pw.inp   Done                     01/02/2019 12:55:07
00033 suncat0272 pw.x -in pw.inp   Done                     01/02/2019 12:55:07
00034 suncat0272 pw.x -in pw.inp   Done                     01/02/2019 12:55:07
00035 suncat0272 pw.x -in pw.inp   Done                     01/02/2019 12:55:07
00036 suncat0272 pw.x -in pw.inp   Done                     01/02/2019 12:55:07
00037 suncat0272 pw.x -in pw.inp   Done                     01/02/2019 12:55:07
00038 suncat0272 pw.x -in pw.inp   Done                     01/02/2019 12:55:07
00039 suncat0272 pw.x -in pw.inp   Done                     01/02/2019 12:55:07
00040 suncat0262 pw.x -in pw.inp   Done                     01/02/2019 12:55:07
00041 suncat0262 pw.x -in pw.inp   Done                     01/02/2019 12:55:07
00042 suncat0262 pw.x -in pw.inp   Done                     01/02/2019 12:55:07
00043 suncat0262 pw.x -in pw.inp   Done                     01/02/2019 12:55:07
00044 suncat0262 pw.x -in pw.inp   Done                     01/02/2019 12:55:07
00045 suncat0262 pw.x -in pw.inp   Done                     01/02/2019 12:55:07
00046 suncat0262 pw.x -in pw.inp   Done                     01/02/2019 12:55:07
00047 suncat0262 pw.x -in pw.inp   Done                     01/02/2019 12:55:07
00048 suncat0258 pw.x -in pw.inp   Done                     01/02/2019 12:55:07
00049 suncat0258 pw.x -in pw.inp   Done                     01/02/2019 12:55:07
00050 suncat0258 pw.x -in pw.inp   Done                     01/02/2019 12:55:07
00051 suncat0258 pw.x -in pw.inp   Done                     01/02/2019 12:55:07
00052 suncat0258 pw.x -in pw.inp   Done                     01/02/2019 12:55:07
00053 suncat0258 pw.x -in pw.inp   Done                     01/02/2019 12:55:07
00054 suncat0258 pw.x -in pw.inp   Done                     01/02/2019 12:55:07
00055 suncat0258 pw.x -in pw.inp   Done                     01/02/2019 12:55:07
00056 suncat0257 pw.x -in pw.inp   Done                     01/02/2019 12:55:07
00057 suncat0257 pw.x -in pw.inp   Done                     01/02/2019 12:55:07
00058 suncat0257 pw.x -in pw.inp   Done                     01/02/2019 12:55:07
00059 suncat0257 pw.x -in pw.inp   Done                     01/02/2019 12:55:07
00060 suncat0257 pw.x -in pw.inp   Done                     01/02/2019 12:55:07
00061 suncat0257 pw.x -in pw.inp   Done                     01/02/2019 12:55:07
00062 suncat0257 pw.x -in pw.inp   Done                     01/02/2019 12:55:07
00063 suncat0257 pw.x -in pw.inp   Done                     01/02/2019 12:55:07