     Program PWSCF v.5.1rc2 (svn rev. 11289) starts on  2Jan2019 at  8:44:40

     Current dimensions of program PWSCF are:
     Max number of different atomic species (ntypx) = 10
     Max number of k-points (npk) =  40000
     Max angular momentum in pseudopotentials (lmaxx) =  3
     Presently stress not available with electric field

     IMPORTANT: XC functional enforced from input :
     Exchange-correlation      = BEEF-VDW ( 1  4 27 13 2)
     Any further DFT definition will be discarded
     Please, verify this is what you really want

     Subspace diagonalization in iterative solution of the eigenvalue problem:
     a serial algorithm will be used

     bravais-lattice index     =            0
     lattice parameter (alat)  =       1.8897  a.u.
     unit-cell volume          =    4567.1289 (a.u.)^3
     number of atoms/cell      =           12
     number of atomic types    =            2
     number of electrons       =       171.00
     number of Kohn-Sham states=          115
     kinetic-energy cutoff     =      36.7493  Ry
     charge density cutoff     =     367.4932  Ry
     convergence threshold     =      1.0E-06
     mixing beta               =       0.1000
     number of iterations used =           10  plain     mixing
     Exchange-correlation      = BEEF-VDW ( 1  4 27 13 2)
     nstep                     =           50

     celldm(1)=   1.889726  celldm(2)=   0.000000  celldm(3)=   0.000000
     celldm(4)=   0.000000  celldm(5)=   0.000000  celldm(6)=   0.000000

     crystal axes: (cart. coord. in units of alat)
               a(1) = (   5.636045   0.000000   0.000000 )
               a(2) = (  -2.818023   4.880958   0.000000 )
               a(3) = (   0.000000   0.000000  24.601812 )

     reciprocal axes: (cart. coord. in units 2 pi/alat)
               b(1) = (  0.177429  0.102439  0.000000 )
               b(2) = (  0.000000  0.204878  0.000000 )
               b(3) = (  0.000000  0.000000  0.040647 )

     PseudoPot. # 1 for W  read from file:
     /afs/slac.stanford.edu/u/if/mamunm/psp/gbrv1.5pbe/W.UPF
     MD5 check sum: 9c083fa34c2a2ea0f02f1f893e16e1c8
     Pseudo is Ultrasoft + core correction, Zval = 14.0
     Generated by new atomic code, or converted to UPF format
     Using radial grid of  923 points,  8 beta functions with:
                l(1) =   0
                l(2) =   0
                l(3) =   0
                l(4) =   1
                l(5) =   1
                l(6) =   2
                l(7) =   2
                l(8) =   3
     Q(r) pseudized with  6 coefficients,  rinner =    1.350   1.350   1.350
                                                       1.350   1.350   1.350
                                                       1.350

     PseudoPot. # 2 for Ir read from file:
     /afs/slac.stanford.edu/u/if/mamunm/psp/gbrv1.5pbe/Ir.UPF
     MD5 check sum: 8836f839c3459d2b385c504ce6d91f2c
     Pseudo is Ultrasoft + core correction, Zval = 15.0
     Generated by new atomic code, or converted to UPF format
     Using radial grid of  983 points,  7 beta functions with:
                l(1) =   0
                l(2) =   0
                l(3) =   1
                l(4) =   1
                l(5) =   1
                l(6) =   2
                l(7) =   2
     Q(r) pseudized with  8 coefficients,  rinner =    1.400   1.400   1.400
                                                       1.400   1.400

     vdW kernel table read from file vdW_kernel_table
     MD5 check sum: 095c7af220d748ca6e76c0b4c6cfb241

     atomic species   valence    mass     pseudopotential
        W1            14.00   183.84000     W ( 1.00)
        Ir1           15.00   192.21700     Ir( 1.00)

     No symmetry found

   Cartesian axes

     site n.     atom                  positions (alat units)
         1           W1  tau(   1) = (   0.0000000   0.0000000  10.0000000  )
         2           W1  tau(   2) = (  -1.4090113   2.4404792  10.0000000  )
         3           W1  tau(   3) = (   1.4090113   2.4404792  10.0000000  )
         4           Ir1 tau(   4) = (   2.8180226   0.0000000  10.0000000  )
         5           W1  tau(   5) = (   2.8180226   1.6269861  12.3009058  )
         6           W1  tau(   6) = (   1.4090113   4.0674653  12.3009058  )
         7           W1  tau(   7) = (  -1.4090113   4.0674653  12.3009058  )
         8           Ir1 tau(   8) = (   0.0000000   1.6269861  12.3009058  )
         9           W1  tau(   9) = (  -0.0000000   3.2539722  14.6018117  )
        10           W1  tau(  10) = (   1.4090113   0.8134931  14.6018117  )
        11           W1  tau(  11) = (   4.2270339   0.8134931  14.6018117  )
        12           Ir1 tau(  12) = (   2.8180226   3.2539722  14.6018117  )

     number of k points=    20  Fermi-Dirac smearing, width (Ry)=  0.0110
                       cart. coord. in units 2pi/alat
        k(    1) = (   0.0000000   0.0000000   0.0000000), wk =   0.0555556
        k(    2) = (   0.0000000   0.0341463   0.0000000), wk =   0.1111111
        k(    3) = (   0.0000000   0.0682926   0.0000000), wk =   0.1111111
        k(    4) = (   0.0000000  -0.1024389   0.0000000), wk =   0.0555556
        k(    5) = (   0.0295716   0.0170731   0.0000000), wk =   0.1111111
        k(    6) = (   0.0295716   0.0512194   0.0000000), wk =   0.1111111
        k(    7) = (   0.0295716   0.0853657   0.0000000), wk =   0.1111111
        k(    8) = (   0.0295716  -0.0853657   0.0000000), wk =   0.1111111
        k(    9) = (   0.0295716  -0.0512194   0.0000000), wk =   0.1111111
        k(   10) = (   0.0295716  -0.0170731   0.0000000), wk =   0.1111111
        k(   11) = (   0.0591431   0.0341463   0.0000000), wk =   0.1111111
        k(   12) = (   0.0591431   0.0682926   0.0000000), wk =   0.1111111
        k(   13) = (   0.0591431   0.1024389   0.0000000), wk =   0.1111111
        k(   14) = (   0.0591431  -0.0682926   0.0000000), wk =   0.1111111
        k(   15) = (   0.0591431  -0.0341463   0.0000000), wk =   0.1111111
        k(   16) = (   0.0591431   0.0000000   0.0000000), wk =   0.1111111
        k(   17) = (  -0.0887147  -0.0512194   0.0000000), wk =   0.0555556
        k(   18) = (  -0.0887147  -0.0170731   0.0000000), wk =   0.1111111
        k(   19) = (  -0.0887147   0.0170731   0.0000000), wk =   0.1111111
        k(   20) = (  -0.0887147  -0.1536583   0.0000000), wk =   0.0555556

     Largest allocated arrays     est. size (Mb)     dimensions
     Largest temporary arrays     est. size (Mb)     dimensions

     Initial potential from superposition of free atoms
     Check: negative starting charge=   -1.669540

     starting charge  168.59685, renormalised to  171.00000

     negative rho (up, down):  1.693E+00 0.000E+00

     *
     * You are using vdW-DF for exchange-correlation in this calculation.
     * Please cite the following three references that made this development
     * possible:
     *
     *   M. Dion, H. Rydberg, E. Schroder, D. C. Langreth, and
     *   B. I. Lundqvist, Phys. Rev. Lett. 92, 246401 (2004).
     *
     *   T. Thonhauser, V. R. Cooper, S. Li, A. Puzder, P. Hyldgaard, and
     *   D. C. Langreth, Phys. Rev. B 76, 125112 (2007).
     *
     *   G. Roman-Perez and J. M. Soler, Phys. Rev. Lett. 103, 096102 (2009).
     *
     *
     * If you are using vdW-DF2, please also cite:
     *
     *   K. Lee, E. D. Murray, L. Kong, B. I. Lundqvist, and
     *   D. C. Langreth, Phys. Rev. B 82, 081101(R) (2010).
     *
     *
     * If you are calculating the stress with vdW-DF, please also cite:
     *
     *   R. Sabatini, E. Kucukbenli, B. Kolb, T. Thonhauser, and
     *   S. de Gironcoli, J. Phys.: Condens. Matter 24, 424209 (2012).
     *

     Carrying out vdW-DF run using the following parameters:

     Nqs =      20    Nr_points =    1024   r_max =   100.000
     q_mesh =
               0.00001000     0.04494208     0.09755937     0.15916263
               0.23128650     0.31572767     0.41458969     0.53033537
               0.66584808     0.82450364     1.01025438     1.22772762
               1.48234092     1.78043706     2.12944203     2.53805004
               3.01644009     3.57652955     4.23227104     5.00000000

     Gradients computed in reciprocal space

     Adding external electric field

     Computed dipole along edir(3) :
        Dipole                0.0000 Ry au,          0.0000 Debye
        Dipole field          0.0000 Ry au

        Potential amp.       -0.0000 Ry
        Total length         45.3284 bohr

     Starting wfc are  153 randomized atomic wfcs

     Self-consistent Calculation

     iteration #  1     ecut=    36.75 Ry     beta=0.10
     Davidson diagonalization with overlap
     ethr =  1.00E-02,  avg # of iterations =  2.1

[...]

     total energy              =   -1993.35342484 Ry
     Harris-Foulkes estimate   =   -1994.86468638 Ry
     estimated scf accuracy    <       9.01822919 Ry

[...]

     End of self-consistent calculation

          k = 0.0000 0.0000 0.0000 ( 17219 PWs)   bands (ev):

   -71.8606 -71.8516 -71.7952 -71.7952 -71.7929 -71.7929 -71.7636 -71.7101
   -71.7101 -46.8677 -46.8420 -46.8420 -46.5511 -46.5488 -46.5306 -46.5306
   -46.5301 -46.5301 -36.4443 -36.2776 -36.2751 -36.2176 -36.2081 -36.2081
   -36.1451 -36.1451 -36.0639 -36.0458 -36.0458 -35.9627 -35.9627 -35.8719
   -35.8719 -35.7351 -35.6468 -35.6231 -35.6231 -35.6210 -35.5370 -35.4732
   -35.4732 -35.4366 -35.4366 -35.4298 -35.4298  -6.0448  -4.2459  -3.5747
    -3.1468  -3.1468  -3.0283  -2.8999  -2.8999  -2.7303  -2.2222  -2.2222
    -2.1839  -2.1759  -2.1759  -1.8970  -0.8628  -0.8628  -0.3413  -0.1482
    -0.1482   0.0966   0.2837   0.6952   1.1289   1.1289   1.3061   1.3930
     1.3930   1.5248   1.5248   1.5751   1.5751   1.8384   1.8384   1.8473
     2.2489   2.8173   2.8391   2.8391   2.9375   2.9375   2.9546   3.4652
     3.4652   4.1149   4.1241   4.2270   4.2270   4.3223   4.9455   4.9455
     5.0422   5.0422   5.7173   5.7173   5.8946   5.8946   6.2487   6.2487
     6.3424   6.3424   6.4592   6.4653   6.6144   6.6144   6.7615   6.8348
     6.8348   6.9384   7.4377

[...]

          k =-0.0887-0.0512 0.0000 ( 17232 PWs)   bands (ev):

[...]

     the Fermi energy is     2.5097 ev

!    total energy              =   -1993.68515706 Ry
     Harris-Foulkes estimate   =   -1993.68517704 Ry
     estimated scf accuracy    <       0.00000025 Ry

     The total energy is the sum of the following terms:

     one-electron contribution =  -15586.94157832 Ry
     hartree contribution      =    7788.35229439 Ry
     xc contribution           =    -538.62599752 Ry
     ewald contribution        =    6343.60496384 Ry
     electric field correction =       0.00000000 Ry
     smearing contrib. (-TS)   =      -0.07483944 Ry

     convergence has been achieved in  16 iterations

 BEEF-vdW xc energy contributions
           1 :   -474.708152301355
           2 :    440.050332317158
           3 :   -378.648033439832
           4 :    303.469694885879
           5 :   -228.305329561392
           6 :    163.855645445514
           7 :   -115.434769706952
           8 :    82.8308329326263
           9 :   -61.9996975970339
          10 :    47.6145006983435
[...]
     Pseudo is Ultrasoft + core correction, Zval = 14.0
     Generated by new atomic code, or converted to UPF format
     Using radial grid of  923 points,  8 beta functions with:
                l(1) =   0
                l(2) =   0
                l(3) =   0
                l(4) =   1
                l(5) =   1
                l(6) =   2
                l(7) =   2
                l(8) =   3
     Q(r) pseudized with  6 coefficients,  rinner =    1.350   1.350   1.350
                                                       1.350   1.350   1.350
                                                       1.350

     PseudoPot. # 2 for Ir read from file:
     /afs/slac.stanford.edu/u/if/mamunm/psp/gbrv1.5pbe/Ir.UPF
     MD5 check sum: 8836f839c3459d2b385c504ce6d91f2c
     Pseudo is Ultrasoft + core correction, Zval = 15.0
     Generated by new atomic code, or converted to UPF format
     Using radial grid of  983 points,  7 beta functions with:
                l(1) =   0
                l(2) =   0
                l(3) =   1
                l(4) =   1
                l(5) =   1
                l(6) =   2
                l(7) =   2
     Q(r) pseudized with  8 coefficients,  rinner =    1.400   1.400   1.400
                                                       1.400   1.400

     vdW kernel table read from file vdW_kernel_table
     MD5 check sum: 095c7af220d748ca6e76c0b4c6cfb241

     atomic species   valence    mass     pseudopotential
        W1            14.00   183.84000     W ( 1.00)
        Ir1           15.00   192.21700     Ir( 1.00)

     No symmetry found

   Cartesian axes

     site n.     atom                  positions (alat units)
         1           W1  tau(   1) = (   0.0000000   0.0000000  10.0000000  )
         2           W1  tau(   2) = (  -1.4090113   2.4404792  10.0000000  )
         3           W1  tau(   3) = (   1.4090113   2.4404792  10.0000000  )
         4           Ir1 tau(   4) = (   2.8180226   0.0000000  10.0000000  )
         5           W1  tau(   5) = (   2.8180226   1.6269861  12.3009058  )
         6           W1  tau(   6) = (   1.4090113   4.0674653  12.3009058  )
         7           W1  tau(   7) = (  -1.4090113   4.0674653  12.3009058  )
         8           Ir1 tau(   8) = (   0.0000000   1.6269861  12.3009058  )
         9           W1  tau(   9) = (   0.0000008   3.2456215  14.4976587  )
        10           W1  tau(  10) = (   1.4017784   0.8176682  14.4976603  )
        11           W1  tau(  11) = (   4.2342660   0.8176676  14.4976588  )
        12           Ir1 tau(  12) = (   2.8180230   3.2539735  14.5515805  )

     number of k points=    20  Fermi-Dirac smearing, width (Ry)=  0.0110
                       cart. coord. in units 2pi/alat
        k(    1) = (   0.0000000   0.0000000   0.0000000), wk =   0.0555556
        k(    2) = (   0.0000000   0.0341463   0.0000000), wk =   0.1111111
        k(    3) = (   0.0000000   0.0682926   0.0000000), wk =   0.1111111
        k(    4) = (   0.0000000  -0.1024389   0.0000000), wk =   0.0555556
        k(    5) = (   0.0295716   0.0170731   0.0000000), wk =   0.1111111
        k(    6) = (   0.0295716   0.0512194   0.0000000), wk =   0.1111111
        k(    7) = (   0.0295716   0.0853657   0.0000000), wk =   0.1111111
        k(    8) = (   0.0295716  -0.0853657   0.0000000), wk =   0.1111111
        k(    9) = (   0.0295716  -0.0512194   0.0000000), wk =   0.1111111
        k(   10) = (   0.0295716  -0.0170731   0.0000000), wk =   0.1111111
        k(   11) = (   0.0591431   0.0341463   0.0000000), wk =   0.1111111
        k(   12) = (   0.0591431   0.0682926   0.0000000), wk =   0.1111111
        k(   13) = (   0.0591431   0.1024389   0.0000000), wk =   0.1111111
        k(   14) = (   0.0591431  -0.0682926   0.0000000), wk =   0.1111111
        k(   15) = (   0.0591431  -0.0341463   0.0000000), wk =   0.1111111
        k(   16) = (   0.0591431   0.0000000   0.0000000), wk =   0.1111111
        k(   17) = (  -0.0887147  -0.0512194   0.0000000), wk =   0.0555556
        k(   18) = (  -0.0887147  -0.0170731   0.0000000), wk =   0.1111111
        k(   19) = (  -0.0887147   0.0170731   0.0000000), wk =   0.1111111
        k(   20) = (  -0.0887147  -0.1536583   0.0000000), wk =   0.0555556

     Largest allocated arrays     est. size (Mb)     dimensions
     Largest temporary arrays     est. size (Mb)     dimensions

     Initial potential from superposition of free atoms
     Check: negative starting charge=   -1.664427

     starting charge  168.59685, renormalised to  171.00000

[...]

     *
     * You are using vdW-DF for exchange-correlation in this calculation.
     * Please cite the following three references that made this development
     * possible:
     *
     *   M. Dion, H. Rydberg, E. Schroder, D. C. Langreth, and
     *   B. I. Lundqvist, Phys. Rev. Lett. 92, 246401 (2004).
     *
     *   T. Thonhauser, V. R. Cooper, S. Li, A. Puzder, P. Hyldgaard, and
     *   D. C. Langreth, Phys. Rev. B 76, 125112 (2007).
     *
     *   G. Roman-Perez and J. M. Soler, Phys. Rev. Lett. 103, 096102 (2009).
     *
     *
     * If you are using vdW-DF2, please also cite:
     *
     *   K. Lee, E. D. Murray, L. Kong, B. I. Lundqvist, and
     *   D. C. Langreth, Phys. Rev. B 82, 081101(R) (2010).
     *
     *
     * If you are calculating the stress with vdW-DF, please also cite:
     *
     *   R. Sabatini, E. Kucukbenli, B. Kolb, T. Thonhauser, and
     *   S. de Gironcoli, J. Phys.: Condens. Matter 24, 424209 (2012).
     *

     Carrying out vdW-DF run using the following parameters:

     Nqs =      20    Nr_points =    1024   r_max =   100.000
     q_mesh =
               0.00001000     0.04494208     0.09755937     0.15916263
               0.23128650     0.31572767     0.41458969     0.53033537
               0.66584808     0.82450364     1.01025438     1.22772762
               1.48234092     1.78043706     2.12944203     2.53805004
               3.01644009     3.57652955     4.23227104     5.00000000

     Gradients computed in reciprocal space

[...]

     Starting wfc are  153 randomized atomic wfcs

     Self-consistent Calculation

[...]

     total energy              =   -1993.70503956 Ry
     Harris-Foulkes estimate   =   -1993.70504087 Ry
     estimated scf accuracy    <       0.00000118 Ry

     iteration # 16     ecut=    36.75 Ry     beta=0.10
     Davidson diagonalization with overlap
     ethr =  6.91E-10,  avg # of iterations =  2.6

[...]

     negative rho (up, down):  1.556E+00 0.000E+00

     Adding external electric field

     Computed dipole along edir(3) :
        Dipole                0.0138 Ry au,          0.0350 Debye
        Dipole field          0.0000 Ry au

        Potential amp.       -0.0034 Ry
        Total length         45.3284 bohr

     End of self-consistent calculation

[...]

          k = 0.0591 0.0000 0.0000 ( 17178 PWs)   bands (ev):

[...]

          k =-0.0887-0.1537 0.0000 ( 17232 PWs)   bands (ev):

   -71.8494 -71.8294 -71.8091 -71.7180 -71.6985 -71.6705 -71.6614 -71.6515
   -71.6351 -46.9191 -46.8907 -46.8885 -46.5381 -46.5209 -46.5178 -46.5156
   -46.5080 -46.5058 -36.2801 -36.2273 -36.1777 -36.0907 -36.0906 -36.0583
   -36.0390 -36.0176 -35.9562 -35.9513 -35.9041 -35.8647 -35.8345 -35.8191
   -35.8087 -35.7940 -35.7889 -35.7165 -35.6659 -35.6593 -35.6421 -35.5044
   -35.4940 -35.4833 -35.4377 -35.4123 -35.3472  -4.2433  -4.1041  -2.7292
    -2.6175  -2.2791  -2.2748  -2.0769  -1.9997  -1.8758  -1.7736  -1.5954
    -1.4008  -1.1657  -1.0478  -0.9620  -0.8197  -0.5938  -0.4928  -0.4783
    -0.2892  -0.2290   0.0157   0.1252   0.2231   0.2286   0.4491   0.8428
     0.9632   1.0195   1.0461   1.2514   1.2809   1.2993   1.3243   1.3870
     1.4379   1.6439   1.8221   1.8661   2.0567   2.5179   2.5276   2.7094
     2.9020   3.1435   3.3315   3.3360   3.5777   3.6460   3.8057   3.9440
     4.1117   4.1709   4.4063   4.5185   4.7698   4.8946   5.0733   5.2301
     5.4499   5.7846   6.0634   6.2910   6.4017   6.4646   7.2999   7.3318
     7.6324   7.7571   8.0268

     the Fermi energy is     2.5214 ev

!    total energy              =   -1993.70501728 Ry
     Harris-Foulkes estimate   =   -1993.70503977 Ry
     estimated scf accuracy    <       0.00000050 Ry

     The total energy is the sum of the following terms:

     one-electron contribution =  -15789.88799812 Ry
     hartree contribution      =    7890.02110348 Ry
     xc contribution           =    -538.88837273 Ry
     ewald contribution        =    6445.12059866 Ry
     electric field correction =       0.00000052 Ry
     smearing contrib. (-TS)   =      -0.07034909 Ry

     convergence has been achieved in  16 iterations

 BEEF-vdW xc energy contributions
           1 :   -475.229667169586
           2 :    440.648834542374
           3 :   -379.349032123067
           4 :    304.223684223624
           5 :   -229.006537171913
           6 :    164.395565683253
           7 :   -115.762224610781
           8 :    82.9844734180207
           9 :   -62.0930581020643
          10 :    47.7804297196478
          11 :   -35.6702216209579
          12 :    23.5637192505228
          13 :   -11.4628084534768
          14 :   0.696519583645568
          15 :    7.24948951323080
          16 :   -11.6397434243042
          17 :    12.8186220597526
          18 :   -11.9620261028890
          19 :    10.4864428880493
          20 :   -9.45393489493085
          21 :    9.25106533251653
          22 :   -9.64049623397864
          23 :    10.0819174650948
          24 :   -10.1089393415522
          25 :    9.56596100482028
          26 :   -8.62202112384875
          27 :    7.60714082207073
          28 :   -6.80023825652938
          29 :    6.29595264263776
          30 :   -6.00754919166445
          31 :   -42.2605717992167
          32 :   -31.7003194995578

     Forces acting on atoms (Ry/au):

     negative rho (up, down):  1.556E+00 0.000E+00
     atom    1 type  1   force =    -0.00000045    0.00550753    0.02886043
     atom    2 type  1   force =     0.00477050   -0.00275361    0.02885895
     atom    3 type  1   force =    -0.00477015   -0.00275319    0.02885980
     atom    4 type  2   force =    -0.00000037    0.00000024    0.00557513
     atom    5 type  1   force =    -0.00000019    0.00128062   -0.02208321
     atom    6 type  1   force =     0.00110892   -0.00064022   -0.02208364
     atom    7 type  1   force =    -0.00110899   -0.00063998   -0.02208325
     atom    8 type  2   force =     0.00000021   -0.00000015   -0.02713629
     atom    9 type  1   force =     0.00000047    0.00047334    0.00032192
     atom   10 type  1   force =     0.00040963   -0.00023648    0.00032271
     atom   11 type  1   force =    -0.00040968   -0.00023691    0.00032286
     atom   12 type  2   force =     0.00000010   -0.00000118    0.00026459

     Total force =     0.069470     Total SCF correction =     0.001967

     entering subroutine stress ...

     negative rho (up, down):  1.556E+00 0.000E+00
          total   stress  (Ry/bohr**3)                   (kbar)     P=  -38.03
  -0.00030827   0.00000000   0.00000000        -45.35      0.00      0.00
   0.00000000  -0.00030827  -0.00000000          0.00    -45.35     -0.00
   0.00000000  -0.00000000  -0.00015910          0.00     -0.00    -23.41

 !ASE

     Writing output data file calc.save

     General routines

     Parallel routines

   This run was terminated on:  10:22:38   2Jan2019

   JOB DONE.
Job  /afs/slac/g/suncat/bin/suncat-tsmpirun -x LD_LIBRARY_PATH -wdir /scratch/qe649358_gAhPN pw.x -in pw.inp

TID   HOST_NAME   COMMAND_LINE            STATUS            TERMINATION_TIME
00000 suncat0243 pw.x -in pw.inp   Done                     01/02/2019 10:22:38
00001 suncat0243 pw.x -in pw.inp   Done                     01/02/2019 10:22:38
00002 suncat0243 pw.x -in pw.inp   Done                     01/02/2019 10:22:38
00003 suncat0243 pw.x -in pw.inp   Done                     01/02/2019 10:22:38
00004 suncat0243 pw.x -in pw.inp   Done                     01/02/2019 10:22:38
00005 suncat0243 pw.x -in pw.inp   Done                     01/02/2019 10:22:38
00006 suncat0243 pw.x -in pw.inp   Done                     01/02/2019 10:22:38
00007 suncat0243 pw.x -in pw.inp   Done                     01/02/2019 10:22:38
00008 suncat0242 pw.x -in pw.inp   Done                     01/02/2019 10:22:38
00009 suncat0242 pw.x -in pw.inp   Done                     01/02/2019 10:22:38
00010 suncat0242 pw.x -in pw.inp   Done                     01/02/2019 10:22:38
00011 suncat0242 pw.x -in pw.inp   Done                     01/02/2019 10:22:38
00012 suncat0242 pw.x -in pw.inp   Done                     01/02/2019 10:22:38
00013 suncat0242 pw.x -in pw.inp   Done                     01/02/2019 10:22:38
00014 suncat0242 pw.x -in pw.inp   Done                     01/02/2019 10:22:38
00015 suncat0242 pw.x -in pw.inp   Done                     01/02/2019 10:22:38
00016 suncat0241 pw.x -in pw.inp   Done                     01/02/2019 10:22:38
00017 suncat0241 pw.x -in pw.inp   Done                     01/02/2019 10:22:38
00018 suncat0241 pw.x -in pw.inp   Done                     01/02/2019 10:22:38
00019 suncat0241 pw.x -in pw.inp   Done                     01/02/2019 10:22:38
00020 suncat0241 pw.x -in pw.inp   Done                     01/02/2019 10:22:38
00021 suncat0241 pw.x -in pw.inp   Done                     01/02/2019 10:22:38
00022 suncat0241 pw.x -in pw.inp   Done                     01/02/2019 10:22:38
00023 suncat0241 pw.x -in pw.inp   Done                     01/02/2019 10:22:38
00024 suncat0240 pw.x -in pw.inp   Done                     01/02/2019 10:22:38
00025 suncat0240 pw.x -in pw.inp   Done                     01/02/2019 10:22:38
00026 suncat0240 pw.x -in pw.inp   Done                     01/02/2019 10:22:38
00027 suncat0240 pw.x -in pw.inp   Done                     01/02/2019 10:22:38
00028 suncat0240 pw.x -in pw.inp   Done                     01/02/2019 10:22:38
00029 suncat0240 pw.x -in pw.inp   Done                     01/02/2019 10:22:38
00030 suncat0240 pw.x -in pw.inp   Done                     01/02/2019 10:22:38
00031 suncat0240 pw.x -in pw.inp   Done                     01/02/2019 10:22:38
00032 suncat0209 pw.x -in pw.inp   Done                     01/02/2019 10:22:38
00033 suncat0209 pw.x -in pw.inp   Done                     01/02/2019 10:22:38
00034 suncat0209 pw.x -in pw.inp   Done                     01/02/2019 10:22:38
00035 suncat0209 pw.x -in pw.inp   Done                     01/02/2019 10:22:38
00036 suncat0209 pw.x -in pw.inp   Done                     01/02/2019 10:22:38
00037 suncat0209 pw.x -in pw.inp   Done                     01/02/2019 10:22:38
00038 suncat0209 pw.x -in pw.inp   Done                     01/02/2019 10:22:38
00039 suncat0209 pw.x -in pw.inp   Done                     01/02/2019 10:22:38
00040 suncat0205 pw.x -in pw.inp   Done                     01/02/2019 10:22:38
00041 suncat0205 pw.x -in pw.inp   Done                     01/02/2019 10:22:38
00042 suncat0205 pw.x -in pw.inp   Done                     01/02/2019 10:22:38
00043 suncat0205 pw.x -in pw.inp   Done                     01/02/2019 10:22:38
00044 suncat0205 pw.x -in pw.inp   Done                     01/02/2019 10:22:38
00045 suncat0205 pw.x -in pw.inp   Done                     01/02/2019 10:22:38
00046 suncat0205 pw.x -in pw.inp   Done                     01/02/2019 10:22:38
00047 suncat0205 pw.x -in pw.inp   Done                     01/02/2019 10:22:38
00048 suncat0204 pw.x -in pw.inp   Done                     01/02/2019 10:22:38
00049 suncat0204 pw.x -in pw.inp   Done                     01/02/2019 10:22:38
00050 suncat0204 pw.x -in pw.inp   Done                     01/02/2019 10:22:38
00051 suncat0204 pw.x -in pw.inp   Done                     01/02/2019 10:22:38
00052 suncat0204 pw.x -in pw.inp   Done                     01/02/2019 10:22:38
00053 suncat0204 pw.x -in pw.inp   Done                     01/02/2019 10:22:38
00054 suncat0204 pw.x -in pw.inp   Done                     01/02/2019 10:22:38
00055 suncat0204 pw.x -in pw.inp   Done                     01/02/2019 10:22:38
00056 suncat0203 pw.x -in pw.inp   Done                     01/02/2019 10:22:38
00057 suncat0203 pw.x -in pw.inp   Done                     01/02/2019 10:22:38
00058 suncat0203 pw.x -in pw.inp   Done                     01/02/2019 10:22:38
00059 suncat0203 pw.x -in pw.inp   Done                     01/02/2019 10:22:38
00060 suncat0203 pw.x -in pw.inp   Done                     01/02/2019 10:22:38
00061 suncat0203 pw.x -in pw.inp   Done                     01/02/2019 10:22:38
00062 suncat0203 pw.x -in pw.inp   Done                     01/02/2019 10:22:38
00063 suncat0203 pw.x -in pw.inp   Done                     01/02/2019 10:22:38