     Program PWSCF v.5.1rc2 (svn rev. 11289) starts on  2Jan2019 at 10:52: 3

     Current dimensions of program PWSCF are:
     Max number of different atomic species (ntypx) = 10
     Max number of k-points (npk) =  40000
     Max angular momentum in pseudopotentials (lmaxx) =  3
     Presently stress not available with electric field

     IMPORTANT: XC functional enforced from input :
     Exchange-correlation      = BEEF-VDW ( 1  4 27 13 2)
     Any further DFT definition will be discarded
     Please, verify this is what you really want

     Subspace diagonalization in iterative solution of the eigenvalue problem:
     a serial algorithm will be used

     bravais-lattice index     =            0
     lattice parameter (alat)  =       1.8897  a.u.
     unit-cell volume          =    6527.7022 (a.u.)^3
     number of atoms/cell      =           12
     number of atomic types    =            2
     number of electrons       =       141.00
     number of Kohn-Sham states=          100
     kinetic-energy cutoff     =      36.7493  Ry
     charge density cutoff     =     367.4932  Ry
     convergence threshold     =      1.0E-06
     mixing beta               =       0.1000
     number of iterations used =           10  plain     mixing
     Exchange-correlation      = BEEF-VDW ( 1  4 27 13 2)
     nstep                     =           50

     celldm(1)=   1.889726  celldm(2)=   0.000000  celldm(3)=   0.000000
     celldm(4)=   0.000000  celldm(5)=   0.000000  celldm(6)=   0.000000

     crystal axes: (cart. coord. in units of alat)
               a(1) = (   6.629612   0.000000   0.000000 )
               a(2) = (  -3.314806   5.741412   0.000000 )
               a(3) = (   0.000000   0.000000  25.413055 )

     reciprocal axes: (cart. coord. in units 2 pi/alat)
               b(1) = (  0.150838  0.087087  0.000000 )
               b(2) = (  0.000000  0.174173  0.000000 )
               b(3) = (  0.000000  0.000000  0.039350 )

     PseudoPot. # 1 for Y  read from file:
     /afs/slac.stanford.edu/u/if/mamunm/psp/gbrv1.5pbe/Y.UPF
     MD5 check sum: d034151ed7554c50b6e82763ed42c788
     Pseudo is Ultrasoft + core correction, Zval = 11.0
     Generated by new atomic code, or converted to UPF format
     Using radial grid of  885 points,  6 beta functions with:
                l(1) =   0
                l(2) =   0
                l(3) =   1
                l(4) =   1
                l(5) =   2
                l(6) =   2
     Q(r) pseudized with  8 coefficients,  rinner =    1.200   1.200   1.200
                                                       1.200   1.200

     PseudoPot. # 2 for Cr read from file:
     /afs/slac.stanford.edu/u/if/mamunm/psp/gbrv1.5pbe/Cr.UPF
     MD5 check sum: 0d52af634a40206e4dee301ad30da4bf
     Pseudo is Ultrasoft + core correction, Zval = 14.0
     Generated by new atomic code, or converted to UPF format
     Using radial grid of  857 points,  6 beta functions with:
                l(1) =   0
                l(2) =   0
                l(3) =   1
                l(4) =   1
                l(5) =   2
                l(6) =   2
     Q(r) pseudized with  8 coefficients,  rinner =    0.950   0.950   0.950
                                                       0.950   0.950

     vdW kernel table read from file vdW_kernel_table
     MD5 check sum: 095c7af220d748ca6e76c0b4c6cfb241

     atomic species   valence    mass     pseudopotential
        Y1            11.00    88.90584     Y ( 1.00)
        Cr1           14.00    51.99610     Cr( 1.00)

     No symmetry found

   Cartesian axes

     site n.     atom                  positions (alat units)
         1           Y1  tau(   1) = (   0.0000000   0.0000000  10.0000000  )
         2           Y1  tau(   2) = (  -1.6574030   2.8707062  10.0000000  )
         3           Y1  tau(   3) = (   1.6574030   2.8707062  10.0000000  )
         4           Cr1 tau(   4) = (   3.3148060   0.0000000  10.0000000  )
         5           Y1  tau(   5) = (   3.3148060   1.9138041  12.7065277  )
         6           Y1  tau(   6) = (   1.6574030   4.7845103  12.7065277  )
         7           Y1  tau(   7) = (  -1.6574030   4.7845103  12.7065277  )
         8           Cr1 tau(   8) = (   0.0000000   1.9138041  12.7065277  )
         9           Y1  tau(   9) = (  -0.0000000   3.8276082  15.4130555  )
        10           Y1  tau(  10) = (   1.6574030   0.9569021  15.4130555  )
        11           Y1  tau(  11) = (   4.9722089   0.9569021  15.4130555  )
        12           Cr1 tau(  12) = (   3.3148060   3.8276082  15.4130555  )

     number of k points=    20  Fermi-Dirac smearing, width (Ry)=  0.0110
                       cart. coord. in units 2pi/alat
        k(    1) = (   0.0000000   0.0000000   0.0000000), wk =   0.0555556
        k(    2) = (   0.0000000   0.0290289   0.0000000), wk =   0.1111111
        k(    3) = (   0.0000000   0.0580577   0.0000000), wk =   0.1111111
        k(    4) = (   0.0000000  -0.0870866   0.0000000), wk =   0.0555556
        k(    5) = (   0.0251397   0.0145144   0.0000000), wk =   0.1111111
        k(    6) = (   0.0251397   0.0435433   0.0000000), wk =   0.1111111
        k(    7) = (   0.0251397   0.0725722   0.0000000), wk =   0.1111111
        k(    8) = (   0.0251397  -0.0725722   0.0000000), wk =   0.1111111
        k(    9) = (   0.0251397  -0.0435433   0.0000000), wk =   0.1111111
        k(   10) = (   0.0251397  -0.0145144   0.0000000), wk =   0.1111111
        k(   11) = (   0.0502795   0.0290289   0.0000000), wk =   0.1111111
        k(   12) = (   0.0502795   0.0580577   0.0000000), wk =   0.1111111
        k(   13) = (   0.0502795   0.0870866   0.0000000), wk =   0.1111111
        k(   14) = (   0.0502795  -0.0580577   0.0000000), wk =   0.1111111
        k(   15) = (   0.0502795  -0.0290289   0.0000000), wk =   0.1111111
        k(   16) = (   0.0502795   0.0000000   0.0000000), wk =   0.1111111
        k(   17) = (  -0.0754192  -0.0435433   0.0000000), wk =   0.0555556
        k(   18) = (  -0.0754192  -0.0145144   0.0000000), wk =   0.1111111
        k(   19) = (  -0.0754192   0.0145144   0.0000000), wk =   0.1111111
        k(   20) = (  -0.0754192  -0.1306299   0.0000000), wk =   0.0555556

     Largest allocated arrays     est. size (Mb)     dimensions
     Largest temporary arrays     est. size (Mb)     dimensions

     Check: negative/imaginary core charge=   -0.000002    0.000000

     Initial potential from superposition of free atoms
     Check: negative starting charge=   -0.004596

     starting charge  137.95973, renormalised to  141.00000

     negative rho (up, down):  4.697E-03 0.000E+00

     *
     * You are using vdW-DF for exchange-correlation in this calculation.
     * Please cite the following three references that made this development
     * possible:
     *
     *   M. Dion, H. Rydberg, E. Schroder, D. C. Langreth, and
     *   B. I. Lundqvist, Phys. Rev. Lett. 92, 246401 (2004).
     *
     *   T. Thonhauser, V. R. Cooper, S. Li, A. Puzder, P. Hyldgaard, and
     *   D. C. Langreth, Phys. Rev. B 76, 125112 (2007).
     *
     *   G. Roman-Perez and J. M. Soler, Phys. Rev. Lett. 103, 096102 (2009).
     *
     *
     * If you are using vdW-DF2, please also cite:
     *
     *   K. Lee, E. D. Murray, L. Kong, B. I. Lundqvist, and
     *   D. C. Langreth, Phys. Rev. B 82, 081101(R) (2010).
     *
     *
     * If you are calculating the stress with vdW-DF, please also cite:
     *
     *   R. Sabatini, E. Kucukbenli, B. Kolb, T. Thonhauser, and
     *   S. de Gironcoli, J. Phys.: Condens. Matter 24, 424209 (2012).
     *

     Carrying out vdW-DF run using the following parameters:

     Nqs =      20    Nr_points =    1024   r_max =   100.000
     q_mesh =
               0.00001000     0.04494208     0.09755937     0.15916263
               0.23128650     0.31572767     0.41458969     0.53033537
               0.66584808     0.82450364     1.01025438     1.22772762
               1.48234092     1.78043706     2.12944203     2.53805004
               3.01644009     3.57652955     4.23227104     5.00000000

     Gradients computed in reciprocal space

     Adding external electric field

     Computed dipole along edir(3) :
        Dipole                0.0000 Ry au,          0.0000 Debye
        Dipole field          0.0000 Ry au

        Potential amp.       -0.0000 Ry
        Total length         46.8231 bohr

     Starting wfc are  147 randomized atomic wfcs

     Self-consistent Calculation

     iteration #  1     ecut=    36.75 Ry     beta=0.10
     Davidson diagonalization with overlap
     ethr =  1.00E-02,  avg # of iterations =  2.7

[...]

     total energy              =   -1367.65761132 Ry
     Harris-Foulkes estimate   =   -1373.90818575 Ry
     estimated scf accuracy    <      34.54705105 Ry

[...]

     iteration # 14     ecut=    36.75 Ry     beta=0.10
     Davidson diagonalization with overlap
     c_bands:  1 eigenvalues not converged
     ethr =  4.94E-06,  avg # of iterations = 10.0

[...]

     End of self-consistent calculation

          k = 0.0000 0.0000 0.0000 ( 24489 PWs)   bands (ev):

   -70.4218 -70.3102 -70.3101 -41.9948 -41.9936 -41.9118 -41.9118 -41.9116
   -41.9116 -41.7319 -41.6978 -41.6978 -41.6293 -41.6271 -41.6156 -41.6156
   -41.6152 -41.6152 -41.4562 -41.3777 -41.3777 -22.4145 -22.3777 -22.1422
   -22.1030 -22.1030 -22.0527 -22.0527 -22.0192 -21.9962 -21.9962 -21.9199
   -21.9199 -21.8405 -21.6690 -21.6554 -21.6047 -21.6047 -21.5909 -21.5909
   -21.4900 -21.4900 -21.3635 -21.3143 -21.3142 -21.1492 -21.0893 -21.0892
    -3.4930  -2.4674  -1.5675  -1.1731  -0.9737  -0.6684  -0.5278  -0.5278
    -0.4901  -0.4901  -0.1467  -0.1467   0.0074   0.0405   0.0405   0.4644
     0.5830   0.5830   1.0141   1.0344   1.1040   1.1040   1.4326   1.5111
     1.6363   1.7173   1.7173   1.7580   1.7580   1.9657   2.0059   2.0059
     2.1302   2.1302   2.1841   2.1841   2.2541   2.5938   2.5938   2.6493
     2.6493   2.8105   2.8696   2.8696   3.0075   3.0075   3.1907   3.3583
     4.1417   4.2432   4.4719   4.4719

[...]

          k =-0.0754-0.0435 0.0000 ( 24548 PWs)   bands (ev):

[...]

     the Fermi energy is     1.0783 ev

!    total energy              =   -1371.54771654 Ry
     Harris-Foulkes estimate   =   -1371.54771991 Ry
     estimated scf accuracy    <       0.00000044 Ry

     The total energy is the sum of the following terms:

     one-electron contribution =   -7526.72217371 Ry
     hartree contribution      =    3756.48206003 Ry
     xc contribution           =    -324.04539247 Ry
     ewald contribution        =    2722.89192471 Ry
     electric field correction =       0.00000000 Ry
     smearing contrib. (-TS)   =      -0.15413509 Ry

     convergence has been achieved in  22 iterations

 BEEF-vdW xc energy contributions
           1 :   -282.254539808713
           2 :    253.559495934540
           3 :   -204.404894987031
           4 :    147.418488745111
           5 :   -94.3845902749158
           6 :    52.4591907730959
           7 :   -23.3914810856888
           8 :    5.32500644827888
           9 :    4.53931221404810
          10 :   -8.15084870179516
          11 :    6.41441892724509
[...]
               b(3) = (  0.000000  0.000000  0.039350 )

     PseudoPot. # 1 for Y  read from file:
     /afs/slac.stanford.edu/u/if/mamunm/psp/gbrv1.5pbe/Y.UPF
     MD5 check sum: d034151ed7554c50b6e82763ed42c788
     Pseudo is Ultrasoft + core correction, Zval = 11.0
     Generated by new atomic code, or converted to UPF format
     Using radial grid of  885 points,  6 beta functions with:
                l(1) =   0
                l(2) =   0
                l(3) =   1
                l(4) =   1
                l(5) =   2
                l(6) =   2
     Q(r) pseudized with  8 coefficients,  rinner =    1.200   1.200   1.200
                                                       1.200   1.200

     PseudoPot. # 2 for Cr read from file:
     /afs/slac.stanford.edu/u/if/mamunm/psp/gbrv1.5pbe/Cr.UPF
     MD5 check sum: 0d52af634a40206e4dee301ad30da4bf
     Pseudo is Ultrasoft + core correction, Zval = 14.0
     Generated by new atomic code, or converted to UPF format
     Using radial grid of  857 points,  6 beta functions with:
                l(1) =   0
                l(2) =   0
                l(3) =   1
                l(4) =   1
                l(5) =   2
                l(6) =   2
     Q(r) pseudized with  8 coefficients,  rinner =    0.950   0.950   0.950
                                                       0.950   0.950

     vdW kernel table read from file vdW_kernel_table
     MD5 check sum: 095c7af220d748ca6e76c0b4c6cfb241

     atomic species   valence    mass     pseudopotential
        Y1            11.00    88.90584     Y ( 1.00)
        Cr1           14.00    51.99610     Cr( 1.00)

     No symmetry found

   Cartesian axes

     site n.     atom                  positions (alat units)
         1           Y1  tau(   1) = (   0.0000000   0.0000000  10.0000000  )
         2           Y1  tau(   2) = (  -1.6574030   2.8707062  10.0000000  )
         3           Y1  tau(   3) = (   1.6574030   2.8707062  10.0000000  )
         4           Cr1 tau(   4) = (   3.3148060   0.0000000  10.0000000  )
         5           Y1  tau(   5) = (   3.3148060   1.9138041  12.7065277  )
         6           Y1  tau(   6) = (   1.6574030   4.7845103  12.7065277  )
         7           Y1  tau(   7) = (  -1.6574030   4.7845103  12.7065277  )
         8           Cr1 tau(   8) = (   0.0000000   1.9138041  12.7065277  )
         9           Y1  tau(   9) = (   0.0000497   3.7781920  15.3793812  )
        10           Y1  tau(  10) = (   1.6146712   0.9815702  15.3794465  )
        11           Y1  tau(  11) = (   5.0149676   0.9815731  15.3793403  )
        12           Cr1 tau(  12) = (   3.3148094   3.8276194  14.9593491  )

     number of k points=    20  Fermi-Dirac smearing, width (Ry)=  0.0110
                       cart. coord. in units 2pi/alat
        k(    1) = (   0.0000000   0.0000000   0.0000000), wk =   0.0555556
        k(    2) = (   0.0000000   0.0290289   0.0000000), wk =   0.1111111
        k(    3) = (   0.0000000   0.0580577   0.0000000), wk =   0.1111111
        k(    4) = (   0.0000000  -0.0870866   0.0000000), wk =   0.0555556
        k(    5) = (   0.0251397   0.0145144   0.0000000), wk =   0.1111111
        k(    6) = (   0.0251397   0.0435433   0.0000000), wk =   0.1111111
        k(    7) = (   0.0251397   0.0725722   0.0000000), wk =   0.1111111
        k(    8) = (   0.0251397  -0.0725722   0.0000000), wk =   0.1111111
        k(    9) = (   0.0251397  -0.0435433   0.0000000), wk =   0.1111111
        k(   10) = (   0.0251397  -0.0145144   0.0000000), wk =   0.1111111
        k(   11) = (   0.0502795   0.0290289   0.0000000), wk =   0.1111111
        k(   12) = (   0.0502795   0.0580577   0.0000000), wk =   0.1111111
        k(   13) = (   0.0502795   0.0870866   0.0000000), wk =   0.1111111
        k(   14) = (   0.0502795  -0.0580577   0.0000000), wk =   0.1111111
        k(   15) = (   0.0502795  -0.0290289   0.0000000), wk =   0.1111111
        k(   16) = (   0.0502795   0.0000000   0.0000000), wk =   0.1111111
        k(   17) = (  -0.0754192  -0.0435433   0.0000000), wk =   0.0555556
        k(   18) = (  -0.0754192  -0.0145144   0.0000000), wk =   0.1111111
        k(   19) = (  -0.0754192   0.0145144   0.0000000), wk =   0.1111111
        k(   20) = (  -0.0754192  -0.1306299   0.0000000), wk =   0.0555556

     Largest allocated arrays     est. size (Mb)     dimensions
     Largest temporary arrays     est. size (Mb)     dimensions

     Check: negative/imaginary core charge=   -0.000002    0.000000

     Initial potential from superposition of free atoms
     Check: negative starting charge=   -0.003606

     starting charge  137.95973, renormalised to  141.00000

[...]

     *
     * You are using vdW-DF for exchange-correlation in this calculation.
     * Please cite the following three references that made this development
     * possible:
     *
     *   M. Dion, H. Rydberg, E. Schroder, D. C. Langreth, and
     *   B. I. Lundqvist, Phys. Rev. Lett. 92, 246401 (2004).
     *
     *   T. Thonhauser, V. R. Cooper, S. Li, A. Puzder, P. Hyldgaard, and
     *   D. C. Langreth, Phys. Rev. B 76, 125112 (2007).
     *
     *   G. Roman-Perez and J. M. Soler, Phys. Rev. Lett. 103, 096102 (2009).
     *
     *
     * If you are using vdW-DF2, please also cite:
     *
     *   K. Lee, E. D. Murray, L. Kong, B. I. Lundqvist, and
     *   D. C. Langreth, Phys. Rev. B 82, 081101(R) (2010).
     *
     *
     * If you are calculating the stress with vdW-DF, please also cite:
     *
     *   R. Sabatini, E. Kucukbenli, B. Kolb, T. Thonhauser, and
     *   S. de Gironcoli, J. Phys.: Condens. Matter 24, 424209 (2012).
     *

     Carrying out vdW-DF run using the following parameters:

     Nqs =      20    Nr_points =    1024   r_max =   100.000
     q_mesh =
               0.00001000     0.04494208     0.09755937     0.15916263
               0.23128650     0.31572767     0.41458969     0.53033537
               0.66584808     0.82450364     1.01025438     1.22772762
               1.48234092     1.78043706     2.12944203     2.53805004
               3.01644009     3.57652955     4.23227104     5.00000000

     Gradients computed in reciprocal space

[...]

     Starting wfc are  147 randomized atomic wfcs

     Self-consistent Calculation

[...]

     total energy              =   -1371.57427391 Ry
     Harris-Foulkes estimate   =   -1371.57427502 Ry
     estimated scf accuracy    <       0.00000268 Ry

     iteration # 24     ecut=    36.75 Ry     beta=0.10
     Davidson diagonalization with overlap
     ethr =  1.90E-09,  avg # of iterations =  2.0

[...]

     negative rho (up, down):  2.411E-03 0.000E+00

     Adding external electric field

     Computed dipole along edir(3) :
        Dipole                0.0526 Ry au,          0.1337 Debye
        Dipole field          0.0001 Ry au

        Potential amp.       -0.0095 Ry
        Total length         46.8231 bohr

     End of self-consistent calculation

[...]

          k = 0.0503 0.0000 0.0000 ( 24562 PWs)   bands (ev):

[...]

          k =-0.0754-0.1306 0.0000 ( 24548 PWs)   bands (ev):

   -70.3817 -70.2628 -70.1850 -41.9396 -41.9360 -41.9074 -41.9019 -41.8802
   -41.8772 -41.6955 -41.6578 -41.6569 -41.5785 -41.5702 -41.5692 -41.5234
   -41.5227 -41.4598 -41.2297 -41.2062 -41.1812 -22.2057 -22.1798 -22.0518
   -22.0023 -21.9934 -21.9476 -21.9465 -21.9283 -21.9194 -21.8820 -21.8799
   -21.8697 -21.8361 -21.8269 -21.8104 -21.7845 -21.5782 -21.5694 -21.4971
   -21.2590 -21.2185 -21.1656 -21.1633 -21.1616 -21.1482 -21.1264 -20.9221
    -2.1373  -2.0855  -1.1942  -1.1582  -0.6328  -0.2773  -0.2505  -0.1164
    -0.0556   0.0266   0.3950   0.5008   0.5218   0.5774   0.5951   0.6480
     0.7138   0.8058   0.8219   0.8915   0.8995   0.9358   1.0039   1.0200
     1.0629   1.1311   1.2653   1.3996   1.4716   1.5241   1.6083   1.6619
     1.6635   1.7595   1.8915   1.9895   2.3016   2.3516   2.4500   2.5234
     2.5500   2.9809   2.9845   3.1306   3.1368   3.2144   3.2634   3.2825
     3.3573   3.9444   4.0771   4.3144

     the Fermi energy is     1.1175 ev

!    total energy              =   -1371.57426815 Ry
     Harris-Foulkes estimate   =   -1371.57427537 Ry
     estimated scf accuracy    <       0.00000098 Ry

     The total energy is the sum of the following terms:

     one-electron contribution =   -7689.54314818 Ry
     hartree contribution      =    3838.30192046 Ry
     xc contribution           =    -324.17260435 Ry
     ewald contribution        =    2803.98749811 Ry
     electric field correction =       0.00000533 Ry
     smearing contrib. (-TS)   =      -0.14793952 Ry

     convergence has been achieved in  24 iterations

 BEEF-vdW xc energy contributions
           1 :   -282.384843387867
           2 :    253.738944694140
           3 :   -204.627058059915
           4 :    147.613009001898
           5 :   -94.4637506003795
           6 :    52.3859290174662
           7 :   -23.2158232240897
           8 :    5.15568203803463
           9 :    4.61191504275422
          10 :   -8.12189972680198
          11 :    6.36707657366622
          12 :  -0.185610037596518
          13 :   -8.74065707687544
          14 :    17.6820557721623
          15 :   -23.6685410956937
          16 :    24.7566924591048
          17 :   -20.8853522547631
          18 :    13.7580816167197
          19 :   -5.87841844433490
          20 :  -0.612472974964419
          21 :    4.62722787589837
          22 :   -6.11363458512051
          23 :    5.57310649760626
          24 :   -3.57564326115534
          25 :   0.582758234163123
          26 :    2.93026974697187
          27 :   -6.30534444451081
          28 :    8.73981019698635
          29 :   -9.58043721352925
          30 :    8.67762713432398
          31 :   -27.1335316093045
          32 :   -18.7357970366978

     Forces acting on atoms (Ry/au):

     negative rho (up, down):  2.411E-03 0.000E+00
     atom    1 type  1   force =    -0.00000473    0.01879809   -0.00677311
     atom    2 type  1   force =     0.01627916   -0.00940142   -0.00677482
     atom    3 type  1   force =    -0.01627681   -0.00939830   -0.00677249
     atom    4 type  2   force =    -0.00000189    0.00000068    0.03944790
     atom    5 type  1   force =    -0.00000338   -0.00179253   -0.00826809
     atom    6 type  1   force =    -0.00155266    0.00089555   -0.00827316
     atom    7 type  1   force =     0.00155433    0.00089705   -0.00826564
     atom    8 type  2   force =     0.00000119   -0.00000249    0.00632066
     atom    9 type  1   force =     0.00000307   -0.00001769    0.00008764
     atom   10 type  1   force =    -0.00001950    0.00001143    0.00008636
     atom   11 type  1   force =     0.00001991    0.00001158    0.00009287
     atom   12 type  2   force =     0.00000133   -0.00000195   -0.00090812

     Total force =     0.054858     Total SCF correction =     0.003055

     entering subroutine stress ...

     negative rho (up, down):  2.411E-03 0.000E+00
          total   stress  (Ry/bohr**3)                   (kbar)     P=   -3.29
  -0.00002466  -0.00000000   0.00000000         -3.63     -0.00      0.00
  -0.00000000  -0.00002466   0.00000000         -0.00     -3.63      0.00
   0.00000000   0.00000000  -0.00001774          0.00      0.00     -2.61

 !ASE

     Writing output data file calc.save

     General routines

     Parallel routines

   This run was terminated on:  13:22:19   2Jan2019

   JOB DONE.
Job  /afs/slac/g/suncat/bin/suncat-tsmpirun -x LD_LIBRARY_PATH -wdir /scratch/qe649410_WtL4f pw.x -in pw.inp

TID   HOST_NAME   COMMAND_LINE            STATUS            TERMINATION_TIME
00000 suncat0097 pw.x -in pw.inp   Done                     01/02/2019 13:22:19
00001 suncat0097 pw.x -in pw.inp   Done                     01/02/2019 13:22:19
00002 suncat0097 pw.x -in pw.inp   Done                     01/02/2019 13:22:19
00003 suncat0097 pw.x -in pw.inp   Done                     01/02/2019 13:22:19
00004 suncat0097 pw.x -in pw.inp   Done                     01/02/2019 13:22:19
00005 suncat0097 pw.x -in pw.inp   Done                     01/02/2019 13:22:19
00006 suncat0097 pw.x -in pw.inp   Done                     01/02/2019 13:22:19
00007 suncat0097 pw.x -in pw.inp   Done                     01/02/2019 13:22:19
00008 suncat0094 pw.x -in pw.inp   Done                     01/02/2019 13:22:19
00009 suncat0094 pw.x -in pw.inp   Done                     01/02/2019 13:22:19
00010 suncat0094 pw.x -in pw.inp   Done                     01/02/2019 13:22:19
00011 suncat0094 pw.x -in pw.inp   Done                     01/02/2019 13:22:19
00012 suncat0094 pw.x -in pw.inp   Done                     01/02/2019 13:22:19
00013 suncat0094 pw.x -in pw.inp   Done                     01/02/2019 13:22:19
00014 suncat0094 pw.x -in pw.inp   Done                     01/02/2019 13:22:19
00015 suncat0094 pw.x -in pw.inp   Done                     01/02/2019 13:22:19
00016 suncat0093 pw.x -in pw.inp   Done                     01/02/2019 13:22:19
00017 suncat0093 pw.x -in pw.inp   Done                     01/02/2019 13:22:19
00018 suncat0093 pw.x -in pw.inp   Done                     01/02/2019 13:22:19
00019 suncat0093 pw.x -in pw.inp   Done                     01/02/2019 13:22:19
00020 suncat0093 pw.x -in pw.inp   Done                     01/02/2019 13:22:19
00021 suncat0093 pw.x -in pw.inp   Done                     01/02/2019 13:22:19
00022 suncat0093 pw.x -in pw.inp   Done                     01/02/2019 13:22:19
00023 suncat0093 pw.x -in pw.inp   Done                     01/02/2019 13:22:19
00024 suncat0091 pw.x -in pw.inp   Done                     01/02/2019 13:22:19
00025 suncat0091 pw.x -in pw.inp   Done                     01/02/2019 13:22:19
00026 suncat0091 pw.x -in pw.inp   Done                     01/02/2019 13:22:19
00027 suncat0091 pw.x -in pw.inp   Done                     01/02/2019 13:22:19
00028 suncat0091 pw.x -in pw.inp   Done                     01/02/2019 13:22:19
00029 suncat0091 pw.x -in pw.inp   Done                     01/02/2019 13:22:19
00030 suncat0091 pw.x -in pw.inp   Done                     01/02/2019 13:22:19
00031 suncat0091 pw.x -in pw.inp   Done                     01/02/2019 13:22:19
00032 suncat0029 pw.x -in pw.inp   Done                     01/02/2019 13:22:19
00033 suncat0029 pw.x -in pw.inp   Done                     01/02/2019 13:22:19
00034 suncat0029 pw.x -in pw.inp   Done                     01/02/2019 13:22:19
00035 suncat0029 pw.x -in pw.inp   Done                     01/02/2019 13:22:19
00036 suncat0029 pw.x -in pw.inp   Done                     01/02/2019 13:22:19
00037 suncat0029 pw.x -in pw.inp   Done                     01/02/2019 13:22:19
00038 suncat0029 pw.x -in pw.inp   Done                     01/02/2019 13:22:19
00039 suncat0029 pw.x -in pw.inp   Done                     01/02/2019 13:22:19
00040 suncat0019 pw.x -in pw.inp   Done                     01/02/2019 13:22:19
00041 suncat0019 pw.x -in pw.inp   Done                     01/02/2019 13:22:19
00042 suncat0019 pw.x -in pw.inp   Done                     01/02/2019 13:22:19
00043 suncat0019 pw.x -in pw.inp   Done                     01/02/2019 13:22:19
00044 suncat0019 pw.x -in pw.inp   Done                     01/02/2019 13:22:19
00045 suncat0019 pw.x -in pw.inp   Done                     01/02/2019 13:22:19
00046 suncat0019 pw.x -in pw.inp   Done                     01/02/2019 13:22:19
00047 suncat0019 pw.x -in pw.inp   Done                     01/02/2019 13:22:19
00048 suncat0018 pw.x -in pw.inp   Done                     01/02/2019 13:22:19
00049 suncat0018 pw.x -in pw.inp   Done                     01/02/2019 13:22:19
00050 suncat0018 pw.x -in pw.inp   Done                     01/02/2019 13:22:19
00051 suncat0018 pw.x -in pw.inp   Done                     01/02/2019 13:22:19
00052 suncat0018 pw.x -in pw.inp   Done                     01/02/2019 13:22:19
00053 suncat0018 pw.x -in pw.inp   Done                     01/02/2019 13:22:19
00054 suncat0018 pw.x -in pw.inp   Done                     01/02/2019 13:22:19
00055 suncat0018 pw.x -in pw.inp   Done                     01/02/2019 13:22:19
00056 suncat0001 pw.x -in pw.inp   Done                     01/02/2019 13:22:19
00057 suncat0001 pw.x -in pw.inp   Done                     01/02/2019 13:22:19
00058 suncat0001 pw.x -in pw.inp   Done                     01/02/2019 13:22:19
00059 suncat0001 pw.x -in pw.inp   Done                     01/02/2019 13:22:19
00060 suncat0001 pw.x -in pw.inp   Done                     01/02/2019 13:22:19
00061 suncat0001 pw.x -in pw.inp   Done                     01/02/2019 13:22:19
00062 suncat0001 pw.x -in pw.inp   Done                     01/02/2019 13:22:19
00063 suncat0001 pw.x -in pw.inp   Done                     01/02/2019 13:22:19