     Program PWSCF v.5.1rc2 (svn rev. 11289) starts on 26Dec2018 at  8: 3:51

     Current dimensions of program PWSCF are:
     Max number of different atomic species (ntypx) = 10
     Max number of k-points (npk) =  40000
     Max angular momentum in pseudopotentials (lmaxx) =  3
     Presently stress not available with electric field

     IMPORTANT: XC functional enforced from input :
     Exchange-correlation      = BEEF-VDW ( 1  4 27 13 2)
     Any further DFT definition will be discarded
     Please, verify this is what you really want

     Subspace diagonalization in iterative solution of the eigenvalue problem:
     a serial algorithm will be used

     bravais-lattice index     =            0
     lattice parameter (alat)  =       1.8897  a.u.
     unit-cell volume          =    5484.6874 (a.u.)^3
     number of atoms/cell      =           12
     number of atomic types    =            2
     number of electrons       =       147.00
     number of Kohn-Sham states=          103
     kinetic-energy cutoff     =      36.7493  Ry
     charge density cutoff     =     367.4932  Ry
     convergence threshold     =      1.0E-06
     mixing beta               =       0.1000
     number of iterations used =           10  plain     mixing
     Exchange-correlation      = BEEF-VDW ( 1  4 27 13 2)
     nstep                     =           50

     celldm(1)=   1.889726  celldm(2)=   0.000000  celldm(3)=   0.000000
     celldm(4)=   0.000000  celldm(5)=   0.000000  celldm(6)=   0.000000

     crystal axes: (cart. coord. in units of alat)
               a(1) = (   6.126631   0.000000   0.000000 )
               a(2) = (  -3.063315   5.305818   0.000000 )
               a(3) = (   0.000000   0.000000  25.002373 )

     reciprocal axes: (cart. coord. in units 2 pi/alat)
               b(1) = (  0.163222  0.094236  0.000000 )
               b(2) = (  0.000000  0.188472  0.000000 )
               b(3) = (  0.000000  0.000000  0.039996 )

     PseudoPot. # 1 for Hf read from file:
     /afs/slac.stanford.edu/u/if/mamunm/psp/gbrv1.5pbe/Hf.UPF
     MD5 check sum: 8ee9378dfe14276e333edf04c5e4aa26
     Pseudo is Ultrasoft + core correction, Zval = 12.0
     Generated by new atomic code, or converted to UPF format
     Using radial grid of  921 points,  8 beta functions with:
                l(1) =   0
                l(2) =   0
                l(3) =   0
                l(4) =   1
                l(5) =   1
                l(6) =   2
                l(7) =   2
                l(8) =   3
     Q(r) pseudized with  6 coefficients,  rinner =    1.200   1.200   1.200
                                                       1.200   1.200   1.200
                                                       1.200

     PseudoPot. # 2 for V  read from file:
     /afs/slac.stanford.edu/u/if/mamunm/psp/gbrv1.5pbe/V.UPF
     MD5 check sum: 22b79981416ebb76fdaf5b1b8640f6fb
     Pseudo is Ultrasoft + core correction, Zval = 13.0
     Generated by new atomic code, or converted to UPF format
     Using radial grid of  853 points,  6 beta functions with:
                l(1) =   0
                l(2) =   0
                l(3) =   1
                l(4) =   1
                l(5) =   2
                l(6) =   2
     Q(r) pseudized with  8 coefficients,  rinner =    1.100   1.100   1.100
                                                       1.100   1.100

     vdW kernel table read from file vdW_kernel_table
     MD5 check sum: 095c7af220d748ca6e76c0b4c6cfb241

     atomic species   valence    mass     pseudopotential
        Hf1           12.00   178.49000     Hf( 1.00)
        V1            13.00    50.94150     V ( 1.00)

     No symmetry found

   Cartesian axes

     site n.     atom                  positions (alat units)
         1           Hf1 tau(   1) = (   0.0000000   0.0000000  10.0000000  )
         2           Hf1 tau(   2) = (   4.5949731   2.6529089  10.0000000  )
         3           Hf1 tau(   3) = (   1.5316577   2.6529089  10.0000000  )
         4           V1  tau(   4) = (   3.0633154   0.0000000  10.0000000  )
         5           Hf1 tau(   5) = (   3.0633154   1.7686060  12.5011865  )
         6           Hf1 tau(   6) = (   1.5316577   4.4215149  12.5011865  )
         7           Hf1 tau(   7) = (  -1.5316577   4.4215149  12.5011865  )
         8           V1  tau(   8) = (   0.0000000   1.7686060  12.5011865  )
         9           Hf1 tau(   9) = (  -0.0000000   3.5372119  15.0023731  )
        10           Hf1 tau(  10) = (   1.5316577   0.8843030  15.0023731  )
        11           Hf1 tau(  11) = (   4.5949731   0.8843030  15.0023731  )
        12           V1  tau(  12) = (   3.0633154   3.5372119  15.0023731  )

     number of k points=    20  Fermi-Dirac smearing, width (Ry)=  0.0110
                       cart. coord. in units 2pi/alat
        k(    1) = (   0.0000000   0.0000000   0.0000000), wk =   0.0555556
        k(    2) = (   0.0000000   0.0314121   0.0000000), wk =   0.1111111
        k(    3) = (   0.0000000   0.0628241   0.0000000), wk =   0.1111111
        k(    4) = (   0.0000000  -0.0942362   0.0000000), wk =   0.0555556
        k(    5) = (   0.0272036   0.0157060   0.0000000), wk =   0.1111111
        k(    6) = (   0.0272036   0.0471181   0.0000000), wk =   0.1111111
        k(    7) = (   0.0272036   0.0785301   0.0000000), wk =   0.1111111
        k(    8) = (   0.0272036  -0.0785301   0.0000000), wk =   0.1111111
        k(    9) = (   0.0272036  -0.0471181   0.0000000), wk =   0.1111111
        k(   10) = (   0.0272036  -0.0157060   0.0000000), wk =   0.1111111
        k(   11) = (   0.0544073   0.0314121   0.0000000), wk =   0.1111111
        k(   12) = (   0.0544073   0.0628241   0.0000000), wk =   0.1111111
        k(   13) = (   0.0544073   0.0942362   0.0000000), wk =   0.1111111
        k(   14) = (   0.0544073  -0.0628241   0.0000000), wk =   0.1111111
        k(   15) = (   0.0544073  -0.0314121   0.0000000), wk =   0.1111111
        k(   16) = (   0.0544073   0.0000000   0.0000000), wk =   0.1111111
        k(   17) = (  -0.0816109  -0.0471181   0.0000000), wk =   0.0555556
        k(   18) = (  -0.0816109  -0.0157060   0.0000000), wk =   0.1111111
        k(   19) = (  -0.0816109   0.0157060   0.0000000), wk =   0.1111111
        k(   20) = (  -0.0816109  -0.1413543   0.0000000), wk =   0.0555556

     Largest allocated arrays     est. size (Mb)     dimensions
     Largest temporary arrays     est. size (Mb)     dimensions

     Check: negative/imaginary core charge=   -0.000003    0.000000

     Initial potential from superposition of free atoms
     Check: negative starting charge=   -0.961897

     starting charge  128.99630, renormalised to  147.00000

     negative rho (up, down):  1.096E+00 0.000E+00

     *
     * You are using vdW-DF for exchange-correlation in this calculation.
     * Please cite the following three references that made this development
     * possible:
     *
     *   M. Dion, H. Rydberg, E. Schroder, D. C. Langreth, and
     *   B. I. Lundqvist, Phys. Rev. Lett. 92, 246401 (2004).
     *
     *   T. Thonhauser, V. R. Cooper, S. Li, A. Puzder, P. Hyldgaard, and
     *   D. C. Langreth, Phys. Rev. B 76, 125112 (2007).
     *
     *   G. Roman-Perez and J. M. Soler, Phys. Rev. Lett. 103, 096102 (2009).
     *
     *
     * If you are using vdW-DF2, please also cite:
     *
     *   K. Lee, E. D. Murray, L. Kong, B. I. Lundqvist, and
     *   D. C. Langreth, Phys. Rev. B 82, 081101(R) (2010).
     *
     *
     * If you are calculating the stress with vdW-DF, please also cite:
     *
     *   R. Sabatini, E. Kucukbenli, B. Kolb, T. Thonhauser, and
     *   S. de Gironcoli, J. Phys.: Condens. Matter 24, 424209 (2012).
     *

     Carrying out vdW-DF run using the following parameters:

     Nqs =      20    Nr_points =    1024   r_max =   100.000
     q_mesh =
               0.00001000     0.04494208     0.09755937     0.15916263
               0.23128650     0.31572767     0.41458969     0.53033537
               0.66584808     0.82450364     1.01025438     1.22772762
               1.48234092     1.78043706     2.12944203     2.53805004
               3.01644009     3.57652955     4.23227104     5.00000000

     Gradients computed in reciprocal space

     Adding external electric field

     Computed dipole along edir(3) :
        Dipole               -0.0000 Ry au,         -0.0000 Debye
        Dipole field         -0.0000 Ry au

        Potential amp.        0.0000 Ry
        Total length         46.0664 bohr

     Starting wfc are  147 randomized atomic wfcs

     Self-consistent Calculation

     iteration #  1     ecut=    36.75 Ry     beta=0.10
     Davidson diagonalization with overlap
     ethr =  1.00E-02,  avg # of iterations =  7.5

[...]

     total energy              =   -1880.58683550 Ry
     Harris-Foulkes estimate   =   -1898.91555541 Ry
     estimated scf accuracy    <     105.99942656 Ry

[...]

     iteration # 17     ecut=    36.75 Ry     beta=0.10
     Davidson diagonalization with overlap
     c_bands:  1 eigenvalues not converged
     ethr =  1.06E-05,  avg # of iterations = 11.3

[...]

     End of self-consistent calculation

          k = 0.0000 0.0000 0.0000 ( 20647 PWs)   bands (ev):

   -63.0480 -62.9702 -62.9698 -61.1369 -61.1359 -61.0914 -61.0914 -61.0909
   -61.0908 -60.6960 -60.6513 -60.6513 -36.8315 -36.8315 -36.8307 -36.8117
   -36.8103 -36.7529 -36.7529 -36.7525 -36.7525 -30.0867 -30.0542 -29.8704
   -29.8328 -29.8328 -29.7855 -29.7855 -29.7469 -29.7401 -29.7401 -29.6572
   -29.6571 -29.6295 -29.4418 -29.4265 -29.3626 -29.3626 -29.3243 -29.3243
   -29.2840 -29.2840 -29.1767 -29.1363 -29.1363 -29.0019 -28.9289 -28.9289
    -5.1847  -3.8200  -2.5192  -1.8253  -1.6732  -1.6367  -1.6367  -1.3574
    -1.3574  -1.1287  -0.9319  -0.9319  -0.5791  -0.5032  -0.5032   0.0981
     0.3343   0.3343   1.1482   1.1913   1.3578   1.3578   1.4335   1.6300
     1.7413   1.7417   1.7417   1.8346   2.0443   2.0443   2.2316   2.2316
     2.3481   2.3545   2.3545   2.3584   2.3584   2.5382   2.5382   2.9147
     2.9147   2.9395   3.0881   3.0881   3.1363   3.5115   3.5115   3.7624
     4.6619   4.7730   4.7730   4.8519   4.8918   5.1506   5.3352

[...]

          k =-0.0816-0.0471 0.0000 ( 20668 PWs)   bands (ev):

[...]

     the Fermi energy is     1.3074 ev

!    total energy              =   -1882.03447936 Ry
     Harris-Foulkes estimate   =   -1882.03385910 Ry
     estimated scf accuracy    <       0.00000087 Ry

     The total energy is the sum of the following terms:

     one-electron contribution =   -9656.90873302 Ry
     hartree contribution      =    4812.91430594 Ry
     xc contribution           =    -756.97477029 Ry
     ewald contribution        =    3719.06873397 Ry
     electric field correction =       0.00000001 Ry
     smearing contrib. (-TS)   =      -0.13401597 Ry

     convergence has been achieved in  24 iterations

 BEEF-vdW xc energy contributions
           1 :   -681.114661010486
           2 :    631.475198871419
           3 :   -544.048626203065
           4 :    437.771646005410
           5 :   -331.900421680972
           6 :    240.325967070220
[...]
     MD5 check sum: 8ee9378dfe14276e333edf04c5e4aa26
     Pseudo is Ultrasoft + core correction, Zval = 12.0
     Generated by new atomic code, or converted to UPF format
     Using radial grid of  921 points,  8 beta functions with:
                l(1) =   0
                l(2) =   0
                l(3) =   0
                l(4) =   1
                l(5) =   1
                l(6) =   2
                l(7) =   2
                l(8) =   3
     Q(r) pseudized with  6 coefficients,  rinner =    1.200   1.200   1.200
                                                       1.200   1.200   1.200
                                                       1.200

     PseudoPot. # 2 for V  read from file:
     /afs/slac.stanford.edu/u/if/mamunm/psp/gbrv1.5pbe/V.UPF
     MD5 check sum: 22b79981416ebb76fdaf5b1b8640f6fb
     Pseudo is Ultrasoft + core correction, Zval = 13.0
     Generated by new atomic code, or converted to UPF format
     Using radial grid of  853 points,  6 beta functions with:
                l(1) =   0
                l(2) =   0
                l(3) =   1
                l(4) =   1
                l(5) =   2
                l(6) =   2
     Q(r) pseudized with  8 coefficients,  rinner =    1.100   1.100   1.100
                                                       1.100   1.100

     vdW kernel table read from file vdW_kernel_table
     MD5 check sum: 095c7af220d748ca6e76c0b4c6cfb241

     atomic species   valence    mass     pseudopotential
        Hf1           12.00   178.49000     Hf( 1.00)
        V1            13.00    50.94150     V ( 1.00)

     No symmetry found

   Cartesian axes

     site n.     atom                  positions (alat units)
         1           Hf1 tau(   1) = (   0.0000000   0.0000000  10.0000000  )
         2           Hf1 tau(   2) = (   4.5949731   2.6529089  10.0000000  )
         3           Hf1 tau(   3) = (   1.5316577   2.6529089  10.0000000  )
         4           V1  tau(   4) = (   3.0633154   0.0000000  10.0000000  )
         5           Hf1 tau(   5) = (   3.0633154   1.7686060  12.5011865  )
         6           Hf1 tau(   6) = (   1.5316577   4.4215149  12.5011865  )
         7           Hf1 tau(   7) = (  -1.5316577   4.4215149  12.5011865  )
         8           V1  tau(   8) = (   0.0000000   1.7686060  12.5011865  )
         9           Hf1 tau(   9) = (  -0.0000076   3.4900698  14.9203404  )
        10           Hf1 tau(  10) = (   1.4908325   0.9078713  14.9203331  )
        11           Hf1 tau(  11) = (   4.6357922   0.9078783  14.9203428  )
        12           V1  tau(  12) = (   3.0633195   3.5372113  14.7030604  )

     number of k points=    20  Fermi-Dirac smearing, width (Ry)=  0.0110
                       cart. coord. in units 2pi/alat
        k(    1) = (   0.0000000   0.0000000   0.0000000), wk =   0.0555556
        k(    2) = (   0.0000000   0.0314121   0.0000000), wk =   0.1111111
        k(    3) = (   0.0000000   0.0628241   0.0000000), wk =   0.1111111
        k(    4) = (   0.0000000  -0.0942362   0.0000000), wk =   0.0555556
        k(    5) = (   0.0272036   0.0157060   0.0000000), wk =   0.1111111
        k(    6) = (   0.0272036   0.0471181   0.0000000), wk =   0.1111111
        k(    7) = (   0.0272036   0.0785301   0.0000000), wk =   0.1111111
        k(    8) = (   0.0272036  -0.0785301   0.0000000), wk =   0.1111111
        k(    9) = (   0.0272036  -0.0471181   0.0000000), wk =   0.1111111
        k(   10) = (   0.0272036  -0.0157060   0.0000000), wk =   0.1111111
        k(   11) = (   0.0544073   0.0314121   0.0000000), wk =   0.1111111
        k(   12) = (   0.0544073   0.0628241   0.0000000), wk =   0.1111111
        k(   13) = (   0.0544073   0.0942362   0.0000000), wk =   0.1111111
        k(   14) = (   0.0544073  -0.0628241   0.0000000), wk =   0.1111111
        k(   15) = (   0.0544073  -0.0314121   0.0000000), wk =   0.1111111
        k(   16) = (   0.0544073   0.0000000   0.0000000), wk =   0.1111111
        k(   17) = (  -0.0816109  -0.0471181   0.0000000), wk =   0.0555556
        k(   18) = (  -0.0816109  -0.0157060   0.0000000), wk =   0.1111111
        k(   19) = (  -0.0816109   0.0157060   0.0000000), wk =   0.1111111
        k(   20) = (  -0.0816109  -0.1413543   0.0000000), wk =   0.0555556

     Largest allocated arrays     est. size (Mb)     dimensions
     Largest temporary arrays     est. size (Mb)     dimensions

     Check: negative/imaginary core charge=   -0.000003    0.000000

     Initial potential from superposition of free atoms
     Check: negative starting charge=   -0.968734

     starting charge  128.99630, renormalised to  147.00000

[...]

     *
     * You are using vdW-DF for exchange-correlation in this calculation.
     * Please cite the following three references that made this development
     * possible:
     *
     *   M. Dion, H. Rydberg, E. Schroder, D. C. Langreth, and
     *   B. I. Lundqvist, Phys. Rev. Lett. 92, 246401 (2004).
     *
     *   T. Thonhauser, V. R. Cooper, S. Li, A. Puzder, P. Hyldgaard, and
     *   D. C. Langreth, Phys. Rev. B 76, 125112 (2007).
     *
     *   G. Roman-Perez and J. M. Soler, Phys. Rev. Lett. 103, 096102 (2009).
     *
     *
     * If you are using vdW-DF2, please also cite:
     *
     *   K. Lee, E. D. Murray, L. Kong, B. I. Lundqvist, and
     *   D. C. Langreth, Phys. Rev. B 82, 081101(R) (2010).
     *
     *
     * If you are calculating the stress with vdW-DF, please also cite:
     *
     *   R. Sabatini, E. Kucukbenli, B. Kolb, T. Thonhauser, and
     *   S. de Gironcoli, J. Phys.: Condens. Matter 24, 424209 (2012).
     *

     Carrying out vdW-DF run using the following parameters:

     Nqs =      20    Nr_points =    1024   r_max =   100.000
     q_mesh =
               0.00001000     0.04494208     0.09755937     0.15916263
               0.23128650     0.31572767     0.41458969     0.53033537
               0.66584808     0.82450364     1.01025438     1.22772762
               1.48234092     1.78043706     2.12944203     2.53805004
               3.01644009     3.57652955     4.23227104     5.00000000

     Gradients computed in reciprocal space

[...]

     Starting wfc are  147 randomized atomic wfcs

     Self-consistent Calculation

[...]

     total energy              =   -1882.08549168 Ry
     Harris-Foulkes estimate   =   -1882.08549153 Ry
     estimated scf accuracy    <       0.00000208 Ry

     iteration # 27     ecut=    36.75 Ry     beta=0.10
     Davidson diagonalization with overlap
     ethr =  1.42E-09,  avg # of iterations =  1.0

[...]

     negative rho (up, down):  1.026E+00 0.000E+00

     Adding external electric field

     Computed dipole along edir(3) :
        Dipole                0.0335 Ry au,          0.0852 Debye
        Dipole field          0.0001 Ry au

        Potential amp.       -0.0071 Ry
        Total length         46.0664 bohr

     End of self-consistent calculation

[...]

          k = 0.0544 0.0000 0.0000 ( 20583 PWs)   bands (ev):

[...]

          k =-0.0816-0.1414 0.0000 ( 20668 PWs)   bands (ev):

   -63.0240 -62.9272 -62.8492 -61.0905 -61.0901 -61.0750 -61.0689 -61.0599
   -61.0555 -60.5617 -60.5467 -60.5317 -36.8108 -36.8102 -36.8089 -36.7635
   -36.7136 -36.7122 -36.6720 -36.6597 -36.6584 -29.9180 -29.8797 -29.8045
   -29.7570 -29.7346 -29.7008 -29.6824 -29.6640 -29.6631 -29.6333 -29.6275
   -29.6053 -29.5950 -29.5632 -29.5597 -29.5444 -29.3670 -29.3246 -29.3153
   -29.1386 -29.1021 -29.0619 -29.0541 -29.0516 -29.0466 -29.0207 -28.8440
    -3.6009  -3.4524  -2.3676  -2.0570  -1.3520  -1.1488  -0.9843  -0.9004
    -0.8791  -0.6940  -0.0701   0.1037   0.1251   0.2312   0.2692   0.3147
     0.5377   0.5571   0.6101   0.6592   0.7176   0.7964   0.9465   0.9983
     1.0661   1.0734   1.2072   1.2645   1.2656   1.3919   1.5761   1.6282
     1.6633   1.9046   1.9186   2.1074   2.2403   2.3652   2.6518   2.6976
     2.7248   3.0520   3.1482   3.2653   3.3807   3.4371   3.4402   3.6022
     3.7816   4.1580   4.3623   4.3748   4.4532   4.5805   4.9285

     the Fermi energy is     1.3282 ev

!    total energy              =   -1882.08549254 Ry
     Harris-Foulkes estimate   =   -1882.08549240 Ry
     estimated scf accuracy    <       0.00000053 Ry

     The total energy is the sum of the following terms:

     one-electron contribution =   -9848.15620202 Ry
     hartree contribution      =    4908.83543566 Ry
     xc contribution           =    -757.22251180 Ry
     ewald contribution        =    3814.58476686 Ry
     electric field correction =       0.00000258 Ry
     smearing contrib. (-TS)   =      -0.12698382 Ry

     convergence has been achieved in  27 iterations

 BEEF-vdW xc energy contributions
           1 :   -682.321949566553
           2 :    632.752795233814
           3 :   -545.391169969458
           4 :    439.085225136106
           5 :   -333.067175915655
           6 :    241.292933137339
           7 :   -170.099547873194
           8 :    119.311442679640
           9 :   -85.2875822481998
          10 :    63.7901124213954
          11 :   -51.3759468545716
          12 :    45.2628691985532
          13 :   -42.6195134738325
          14 :    40.2816474768347
          15 :   -35.3273977799048
          16 :    26.1359487608198
          17 :   -13.1737666982943
          18 :   -1.11355799918226
          19 :    13.3445398293466
          20 :   -20.6751315492774
          21 :    21.9458843952333
          22 :   -17.9784423186197
          23 :    10.9869790787722
          24 :   -3.54686470904926
          25 :   -2.30229168581491
          26 :    5.44531698843309
          27 :   -5.59453510603601
          28 :    2.99829180853294
          29 :    1.74225393042445
          30 :   -7.67248450102500
          31 :   -50.5786982777373
          32 :   -36.4079824164426

     Forces acting on atoms (Ry/au):

     negative rho (up, down):  1.026E+00 0.000E+00
     atom    1 type  1   force =     0.00000130    0.01660836    0.00577192
     atom    2 type  1   force =     0.01438285   -0.00830383    0.00577377
     atom    3 type  1   force =    -0.01438259   -0.00830579    0.00577138
     atom    4 type  2   force =    -0.00000005   -0.00000018    0.03232828
     atom    5 type  1   force =     0.00000116   -0.00533352   -0.01597837
     atom    6 type  1   force =    -0.00462025    0.00266655   -0.01597677
     atom    7 type  1   force =     0.00462074    0.00266528   -0.01597971
     atom    8 type  2   force =    -0.00000065    0.00000039   -0.00117335
     atom    9 type  1   force =    -0.00000167   -0.00047125   -0.00017441
     atom   10 type  1   force =    -0.00040853    0.00023666   -0.00017357
     atom   11 type  1   force =     0.00040735    0.00023724   -0.00017470
     atom   12 type  2   force =     0.00000035    0.00000008   -0.00001448

     Total force =     0.053160     Total SCF correction =     0.002536

     entering subroutine stress ...

     negative rho (up, down):  1.026E+00 0.000E+00
          total   stress  (Ry/bohr**3)                   (kbar)     P=  -11.45
  -0.00008486   0.00000000   0.00000000        -12.48      0.00      0.00
   0.00000000  -0.00008486   0.00000000          0.00    -12.48      0.00
   0.00000000   0.00000000  -0.00006373          0.00      0.00     -9.37

 !ASE

     Writing output data file calc.save

     General routines

     Parallel routines

   This run was terminated on:  10:30:27  26Dec2018

   JOB DONE.
Job  /afs/slac/g/suncat/bin/suncat-tsmpirun -x LD_LIBRARY_PATH -wdir /scratch/qe109777_gv391 pw.x -in pw.inp

TID   HOST_NAME   COMMAND_LINE            STATUS            TERMINATION_TIME
00000 suncat0075 pw.x -in pw.inp   Done                     12/26/2018 10:30:27
00001 suncat0075 pw.x -in pw.inp   Done                     12/26/2018 10:30:27
00002 suncat0075 pw.x -in pw.inp   Done                     12/26/2018 10:30:27
00003 suncat0075 pw.x -in pw.inp   Done                     12/26/2018 10:30:27
00004 suncat0075 pw.x -in pw.inp   Done                     12/26/2018 10:30:27
00005 suncat0075 pw.x -in pw.inp   Done                     12/26/2018 10:30:27
00006 suncat0075 pw.x -in pw.inp   Done                     12/26/2018 10:30:27
00007 suncat0075 pw.x -in pw.inp   Done                     12/26/2018 10:30:27
00008 suncat0074 pw.x -in pw.inp   Done                     12/26/2018 10:30:27
00009 suncat0074 pw.x -in pw.inp   Done                     12/26/2018 10:30:27
00010 suncat0074 pw.x -in pw.inp   Done                     12/26/2018 10:30:27
00011 suncat0074 pw.x -in pw.inp   Done                     12/26/2018 10:30:27
00012 suncat0074 pw.x -in pw.inp   Done                     12/26/2018 10:30:27
00013 suncat0074 pw.x -in pw.inp   Done                     12/26/2018 10:30:27
00014 suncat0074 pw.x -in pw.inp   Done                     12/26/2018 10:30:27
00015 suncat0074 pw.x -in pw.inp   Done                     12/26/2018 10:30:27
00016 suncat0172 pw.x -in pw.inp   Done                     12/26/2018 10:30:27
00017 suncat0172 pw.x -in pw.inp   Done                     12/26/2018 10:30:27
00018 suncat0172 pw.x -in pw.inp   Done                     12/26/2018 10:30:27
00019 suncat0172 pw.x -in pw.inp   Done                     12/26/2018 10:30:27
00020 suncat0172 pw.x -in pw.inp   Done                     12/26/2018 10:30:27
00021 suncat0172 pw.x -in pw.inp   Done                     12/26/2018 10:30:27
00022 suncat0172 pw.x -in pw.inp   Done                     12/26/2018 10:30:27
00023 suncat0172 pw.x -in pw.inp   Done                     12/26/2018 10:30:27
00024 suncat0171 pw.x -in pw.inp   Done                     12/26/2018 10:30:27
00025 suncat0171 pw.x -in pw.inp   Done                     12/26/2018 10:30:27
00026 suncat0171 pw.x -in pw.inp   Done                     12/26/2018 10:30:27
00027 suncat0171 pw.x -in pw.inp   Done                     12/26/2018 10:30:27
00028 suncat0171 pw.x -in pw.inp   Done                     12/26/2018 10:30:27
00029 suncat0171 pw.x -in pw.inp   Done                     12/26/2018 10:30:27
00030 suncat0171 pw.x -in pw.inp   Done                     12/26/2018 10:30:27
00031 suncat0171 pw.x -in pw.inp   Done                     12/26/2018 10:30:27
00032 suncat0270 pw.x -in pw.inp   Done                     12/26/2018 10:30:27
00033 suncat0270 pw.x -in pw.inp   Done                     12/26/2018 10:30:27
00034 suncat0270 pw.x -in pw.inp   Done                     12/26/2018 10:30:27
00035 suncat0270 pw.x -in pw.inp   Done                     12/26/2018 10:30:27
00036 suncat0270 pw.x -in pw.inp   Done                     12/26/2018 10:30:27
00037 suncat0270 pw.x -in pw.inp   Done                     12/26/2018 10:30:27
00038 suncat0270 pw.x -in pw.inp   Done                     12/26/2018 10:30:27
00039 suncat0270 pw.x -in pw.inp   Done                     12/26/2018 10:30:27
00040 suncat0268 pw.x -in pw.inp   Done                     12/26/2018 10:30:27
00041 suncat0268 pw.x -in pw.inp   Done                     12/26/2018 10:30:27
00042 suncat0268 pw.x -in pw.inp   Done                     12/26/2018 10:30:27
00043 suncat0268 pw.x -in pw.inp   Done                     12/26/2018 10:30:27
00044 suncat0268 pw.x -in pw.inp   Done                     12/26/2018 10:30:27
00045 suncat0268 pw.x -in pw.inp   Done                     12/26/2018 10:30:27
00046 suncat0268 pw.x -in pw.inp   Done                     12/26/2018 10:30:27
00047 suncat0268 pw.x -in pw.inp   Done                     12/26/2018 10:30:27
00048 suncat0207 pw.x -in pw.inp   Done                     12/26/2018 10:30:27
00049 suncat0207 pw.x -in pw.inp   Done                     12/26/2018 10:30:27
00050 suncat0207 pw.x -in pw.inp   Done                     12/26/2018 10:30:27
00051 suncat0207 pw.x -in pw.inp   Done                     12/26/2018 10:30:27
00052 suncat0207 pw.x -in pw.inp   Done                     12/26/2018 10:30:27
00053 suncat0207 pw.x -in pw.inp   Done                     12/26/2018 10:30:27
00054 suncat0207 pw.x -in pw.inp   Done                     12/26/2018 10:30:27
00055 suncat0207 pw.x -in pw.inp   Done                     12/26/2018 10:30:27
00056 suncat0206 pw.x -in pw.inp   Done                     12/26/2018 10:30:27
00057 suncat0206 pw.x -in pw.inp   Done                     12/26/2018 10:30:27
00058 suncat0206 pw.x -in pw.inp   Done                     12/26/2018 10:30:27
00059 suncat0206 pw.x -in pw.inp   Done                     12/26/2018 10:30:27
00060 suncat0206 pw.x -in pw.inp   Done                     12/26/2018 10:30:27
00061 suncat0206 pw.x -in pw.inp   Done                     12/26/2018 10:30:27
00062 suncat0206 pw.x -in pw.inp   Done                     12/26/2018 10:30:27
00063 suncat0206 pw.x -in pw.inp   Done                     12/26/2018 10:30:27