     Program PWSCF v.5.1rc2 (svn rev. 11289) starts on  2Jan2019 at  7:59:58

     Current dimensions of program PWSCF are:
     Max number of different atomic species (ntypx) = 10
     Max number of k-points (npk) =  40000
     Max angular momentum in pseudopotentials (lmaxx) =  3
     Presently stress not available with electric field

     IMPORTANT: XC functional enforced from input :
     Exchange-correlation      = BEEF-VDW ( 1  4 27 13 2)
     Any further DFT definition will be discarded
     Please, verify this is what you really want

     Subspace diagonalization in iterative solution of the eigenvalue problem:
     a serial algorithm will be used

     bravais-lattice index     =            0
     lattice parameter (alat)  =       1.8897  a.u.
     unit-cell volume          =    4968.1255 (a.u.)^3
     number of atoms/cell      =           12
     number of atomic types    =            2
     number of electrons       =       162.00
     number of Kohn-Sham states=          111
     kinetic-energy cutoff     =      36.7493  Ry
     charge density cutoff     =     367.4932  Ry
     convergence threshold     =      1.0E-06
     mixing beta               =       0.1000
     number of iterations used =           10  plain     mixing
     Exchange-correlation      = BEEF-VDW ( 1  4 27 13 2)
     nstep                     =           50

     celldm(1)=   1.889726  celldm(2)=   0.000000  celldm(3)=   0.000000
     celldm(4)=   0.000000  celldm(5)=   0.000000  celldm(6)=   0.000000

     crystal axes: (cart. coord. in units of alat)
               a(1) = (   5.856844   0.000000   0.000000 )
               a(2) = (  -2.928422   5.072176   0.000000 )
               a(3) = (   0.000000   0.000000  24.782093 )

     reciprocal axes: (cart. coord. in units 2 pi/alat)
               b(1) = (  0.170740  0.098577  0.000000 )
               b(2) = (  0.000000  0.197154  0.000000 )
               b(3) = (  0.000000  0.000000  0.040352 )

     PseudoPot. # 1 for W  read from file:
     /afs/slac.stanford.edu/u/if/mamunm/psp/gbrv1.5pbe/W.UPF
     MD5 check sum: 9c083fa34c2a2ea0f02f1f893e16e1c8
     Pseudo is Ultrasoft + core correction, Zval = 14.0
     Generated by new atomic code, or converted to UPF format
     Using radial grid of  923 points,  8 beta functions with:
                l(1) =   0
                l(2) =   0
                l(3) =   0
                l(4) =   1
                l(5) =   1
                l(6) =   2
                l(7) =   2
                l(8) =   3
     Q(r) pseudized with  6 coefficients,  rinner =    1.350   1.350   1.350
                                                       1.350   1.350   1.350
                                                       1.350

     PseudoPot. # 2 for Hf read from file:
     /afs/slac.stanford.edu/u/if/mamunm/psp/gbrv1.5pbe/Hf.UPF
     MD5 check sum: 8ee9378dfe14276e333edf04c5e4aa26
     Pseudo is Ultrasoft + core correction, Zval = 12.0
     Generated by new atomic code, or converted to UPF format
     Using radial grid of  921 points,  8 beta functions with:
                l(1) =   0
                l(2) =   0
                l(3) =   0
                l(4) =   1
                l(5) =   1
                l(6) =   2
                l(7) =   2
                l(8) =   3
     Q(r) pseudized with  6 coefficients,  rinner =    1.200   1.200   1.200
                                                       1.200   1.200   1.200
                                                       1.200

     vdW kernel table read from file vdW_kernel_table
     MD5 check sum: 095c7af220d748ca6e76c0b4c6cfb241

     atomic species   valence    mass     pseudopotential
        W1            14.00   183.84000     W ( 1.00)
        Hf1           12.00   178.49000     Hf( 1.00)

     No symmetry found

   Cartesian axes

     site n.     atom                  positions (alat units)
         1           W1  tau(   1) = (   0.0000000   0.0000000  10.0000000  )
         2           W1  tau(   2) = (  -1.4642110   2.5360879  10.0000000  )
         3           W1  tau(   3) = (   1.4642110   2.5360879  10.0000000  )
         4           Hf1 tau(   4) = (   2.9284221   0.0000000  10.0000000  )
         5           W1  tau(   5) = (   2.9284221   1.6907253  12.3910466  )
         6           W1  tau(   6) = (   1.4642110   4.2268132  12.3910466  )
         7           W1  tau(   7) = (  -1.4642110   4.2268132  12.3910466  )
         8           Hf1 tau(   8) = (   0.0000000   1.6907253  12.3910466  )
         9           W1  tau(   9) = (  -0.0000000   3.3814506  14.7820932  )
        10           W1  tau(  10) = (   1.4642110   0.8453626  14.7820932  )
        11           W1  tau(  11) = (   4.3926331   0.8453626  14.7820932  )
        12           Hf1 tau(  12) = (   2.9284221   3.3814506  14.7820932  )

     number of k points=    20  Fermi-Dirac smearing, width (Ry)=  0.0110
                       cart. coord. in units 2pi/alat
        k(    1) = (   0.0000000   0.0000000   0.0000000), wk =   0.0555556
        k(    2) = (   0.0000000   0.0328590   0.0000000), wk =   0.1111111
        k(    3) = (   0.0000000   0.0657180   0.0000000), wk =   0.1111111
        k(    4) = (   0.0000000  -0.0985770   0.0000000), wk =   0.0555556
        k(    5) = (   0.0284567   0.0164295   0.0000000), wk =   0.1111111
        k(    6) = (   0.0284567   0.0492885   0.0000000), wk =   0.1111111
        k(    7) = (   0.0284567   0.0821475   0.0000000), wk =   0.1111111
        k(    8) = (   0.0284567  -0.0821475   0.0000000), wk =   0.1111111
        k(    9) = (   0.0284567  -0.0492885   0.0000000), wk =   0.1111111
        k(   10) = (   0.0284567  -0.0164295   0.0000000), wk =   0.1111111
        k(   11) = (   0.0569135   0.0328590   0.0000000), wk =   0.1111111
        k(   12) = (   0.0569135   0.0657180   0.0000000), wk =   0.1111111
        k(   13) = (   0.0569135   0.0985770   0.0000000), wk =   0.1111111
        k(   14) = (   0.0569135  -0.0657180   0.0000000), wk =   0.1111111
        k(   15) = (   0.0569135  -0.0328590   0.0000000), wk =   0.1111111
        k(   16) = (   0.0569135   0.0000000   0.0000000), wk =   0.1111111
        k(   17) = (  -0.0853702  -0.0492885   0.0000000), wk =   0.0555556
        k(   18) = (  -0.0853702  -0.0164295   0.0000000), wk =   0.1111111
        k(   19) = (  -0.0853702   0.0164295   0.0000000), wk =   0.1111111
        k(   20) = (  -0.0853702  -0.1478655   0.0000000), wk =   0.0555556

     Largest allocated arrays     est. size (Mb)     dimensions
     Largest temporary arrays     est. size (Mb)     dimensions

     Check: negative/imaginary core charge=   -0.000002    0.000000

     Initial potential from superposition of free atoms
     Check: negative starting charge=   -0.896661

     starting charge  155.09693, renormalised to  162.00000

     negative rho (up, down):  9.366E-01 0.000E+00

     *
     * You are using vdW-DF for exchange-correlation in this calculation.
     * Please cite the following three references that made this development
     * possible:
     *
     *   M. Dion, H. Rydberg, E. Schroder, D. C. Langreth, and
     *   B. I. Lundqvist, Phys. Rev. Lett. 92, 246401 (2004).
     *
     *   T. Thonhauser, V. R. Cooper, S. Li, A. Puzder, P. Hyldgaard, and
     *   D. C. Langreth, Phys. Rev. B 76, 125112 (2007).
     *
     *   G. Roman-Perez and J. M. Soler, Phys. Rev. Lett. 103, 096102 (2009).
     *
     *
     * If you are using vdW-DF2, please also cite:
     *
     *   K. Lee, E. D. Murray, L. Kong, B. I. Lundqvist, and
     *   D. C. Langreth, Phys. Rev. B 82, 081101(R) (2010).
     *
     *
     * If you are calculating the stress with vdW-DF, please also cite:
     *
     *   R. Sabatini, E. Kucukbenli, B. Kolb, T. Thonhauser, and
     *   S. de Gironcoli, J. Phys.: Condens. Matter 24, 424209 (2012).
     *

     Carrying out vdW-DF run using the following parameters:

     Nqs =      20    Nr_points =    1024   r_max =   100.000
     q_mesh =
               0.00001000     0.04494208     0.09755937     0.15916263
               0.23128650     0.31572767     0.41458969     0.53033537
               0.66584808     0.82450364     1.01025438     1.22772762
               1.48234092     1.78043706     2.12944203     2.53805004
               3.01644009     3.57652955     4.23227104     5.00000000

     Gradients computed in reciprocal space

     Adding external electric field

     Computed dipole along edir(3) :
        Dipole               -0.0000 Ry au,         -0.0000 Debye
        Dipole field         -0.0000 Ry au

        Potential amp.        0.0000 Ry
        Total length         45.6606 bohr

     Starting wfc are  156 randomized atomic wfcs

     Self-consistent Calculation

     iteration #  1     ecut=    36.75 Ry     beta=0.10
     Davidson diagonalization with overlap
     ethr =  1.00E-02,  avg # of iterations =  2.5

[...]

     total energy              =   -1925.86567211 Ry
     Harris-Foulkes estimate   =   -1926.72961173 Ry
     estimated scf accuracy    <       5.91242097 Ry

[...]

     End of self-consistent calculation

          k = 0.0000 0.0000 0.0000 ( 18847 PWs)   bands (ev):

   -72.1489 -72.1113 -72.1113 -72.0131 -72.0110 -71.9775 -71.9775 -71.9770
   -71.9770 -59.9211 -59.9209 -59.4901 -36.5924 -36.4181 -36.4181 -36.4152
   -36.3573 -36.3327 -36.3100 -36.3100 -36.1710 -36.1710 -36.1700 -36.1015
   -36.1015 -36.0961 -36.0961 -36.0702 -35.9749 -35.9639 -35.9639 -35.9560
   -35.9560 -35.8676 -35.8439 -35.7737 -35.7737 -35.7707 -35.7707 -28.5861
   -28.5640 -28.4261 -28.4261 -28.4206 -28.4206 -28.1130 -28.0943 -28.0943
    -5.5595  -3.8804  -2.9701  -2.3449  -2.3449  -2.2743  -2.1129  -2.1129
    -2.0659  -1.3694  -1.3694  -1.3613  -1.2989  -1.2572  -1.2572  -0.0625
     0.1240   0.1240   1.0455   1.0929   1.0929   1.2116   1.5902   1.7833
     1.7833   1.8278   1.9696   2.0757   2.0757   2.3170   2.3170   2.3921
     2.5784   2.5784   2.6532   2.6532   2.6910   3.0860   3.0860   3.2643
     3.6506   3.9719   3.9925   3.9925   4.1521   4.1521   4.5660   4.5660
     4.8285   4.8285   5.6266   5.7840   5.7887   5.7887   6.2045   6.2895
     6.3754   6.3754   6.5689   6.7041   6.7041   6.7205   6.8514

[...]

          k =-0.0854-0.0493 0.0000 ( 18672 PWs)   bands (ev):

[...]

     the Fermi energy is     2.1545 ev

!    total energy              =   -1925.07247041 Ry
     Harris-Foulkes estimate   =   -1925.07910871 Ry
     estimated scf accuracy    <       0.00000051 Ry

     The total energy is the sum of the following terms:

     one-electron contribution =  -12829.12918622 Ry
     hartree contribution      =    6397.80310896 Ry
     xc contribution           =    -614.61964225 Ry
     ewald contribution        =    5120.97496866 Ry
     electric field correction =       0.00000000 Ry
     smearing contrib. (-TS)   =      -0.10171956 Ry

     convergence has been achieved in  16 iterations

 BEEF-vdW xc energy contributions
           1 :   -546.072886970704
           2 :    506.164862871203
           3 :   -435.602079610062
           4 :    349.423299830763
           5 :   -263.394462301518
           6 :    189.447262694508
           7 :   -133.278600792960
[...]
     Using radial grid of  923 points,  8 beta functions with:
                l(1) =   0
                l(2) =   0
                l(3) =   0
                l(4) =   1
                l(5) =   1
                l(6) =   2
                l(7) =   2
                l(8) =   3
     Q(r) pseudized with  6 coefficients,  rinner =    1.350   1.350   1.350
                                                       1.350   1.350   1.350
                                                       1.350

     PseudoPot. # 2 for Hf read from file:
     /afs/slac.stanford.edu/u/if/mamunm/psp/gbrv1.5pbe/Hf.UPF
     MD5 check sum: 8ee9378dfe14276e333edf04c5e4aa26
     Pseudo is Ultrasoft + core correction, Zval = 12.0
     Generated by new atomic code, or converted to UPF format
     Using radial grid of  921 points,  8 beta functions with:
                l(1) =   0
                l(2) =   0
                l(3) =   0
                l(4) =   1
                l(5) =   1
                l(6) =   2
                l(7) =   2
                l(8) =   3
     Q(r) pseudized with  6 coefficients,  rinner =    1.200   1.200   1.200
                                                       1.200   1.200   1.200
                                                       1.200

     vdW kernel table read from file vdW_kernel_table
     MD5 check sum: 095c7af220d748ca6e76c0b4c6cfb241

     atomic species   valence    mass     pseudopotential
        W1            14.00   183.84000     W ( 1.00)
        Hf1           12.00   178.49000     Hf( 1.00)

     No symmetry found

   Cartesian axes

     site n.     atom                  positions (alat units)
         1           W1  tau(   1) = (   0.0000000   0.0000000  10.0000000  )
         2           W1  tau(   2) = (  -1.4642110   2.5360879  10.0000000  )
         3           W1  tau(   3) = (   1.4642110   2.5360879  10.0000000  )
         4           Hf1 tau(   4) = (   2.9284221   0.0000000  10.0000000  )
         5           W1  tau(   5) = (   2.9284221   1.6907253  12.3910466  )
         6           W1  tau(   6) = (   1.4642110   4.2268132  12.3910466  )
         7           W1  tau(   7) = (  -1.4642110   4.2268132  12.3910466  )
         8           Hf1 tau(   8) = (   0.0000000   1.6907253  12.3910466  )
         9           W1  tau(   9) = (   0.0000003   3.4843067  14.6482367  )
        10           W1  tau(  10) = (   1.5532806   0.7939372  14.6482403  )
        11           W1  tau(  11) = (   4.3035492   0.7939274  14.6482310  )
        12           Hf1 tau(  12) = (   2.9284200   3.3814479  15.0890462  )

     number of k points=    20  Fermi-Dirac smearing, width (Ry)=  0.0110
                       cart. coord. in units 2pi/alat
        k(    1) = (   0.0000000   0.0000000   0.0000000), wk =   0.0555556
        k(    2) = (   0.0000000   0.0328590   0.0000000), wk =   0.1111111
        k(    3) = (   0.0000000   0.0657180   0.0000000), wk =   0.1111111
        k(    4) = (   0.0000000  -0.0985770   0.0000000), wk =   0.0555556
        k(    5) = (   0.0284567   0.0164295   0.0000000), wk =   0.1111111
        k(    6) = (   0.0284567   0.0492885   0.0000000), wk =   0.1111111
        k(    7) = (   0.0284567   0.0821475   0.0000000), wk =   0.1111111
        k(    8) = (   0.0284567  -0.0821475   0.0000000), wk =   0.1111111
        k(    9) = (   0.0284567  -0.0492885   0.0000000), wk =   0.1111111
        k(   10) = (   0.0284567  -0.0164295   0.0000000), wk =   0.1111111
        k(   11) = (   0.0569135   0.0328590   0.0000000), wk =   0.1111111
        k(   12) = (   0.0569135   0.0657180   0.0000000), wk =   0.1111111
        k(   13) = (   0.0569135   0.0985770   0.0000000), wk =   0.1111111
        k(   14) = (   0.0569135  -0.0657180   0.0000000), wk =   0.1111111
        k(   15) = (   0.0569135  -0.0328590   0.0000000), wk =   0.1111111
        k(   16) = (   0.0569135   0.0000000   0.0000000), wk =   0.1111111
        k(   17) = (  -0.0853702  -0.0492885   0.0000000), wk =   0.0555556
        k(   18) = (  -0.0853702  -0.0164295   0.0000000), wk =   0.1111111
        k(   19) = (  -0.0853702   0.0164295   0.0000000), wk =   0.1111111
        k(   20) = (  -0.0853702  -0.1478655   0.0000000), wk =   0.0555556

     Largest allocated arrays     est. size (Mb)     dimensions
     Largest temporary arrays     est. size (Mb)     dimensions

     Check: negative/imaginary core charge=   -0.000002    0.000000

     Initial potential from superposition of free atoms
     Check: negative starting charge=   -0.893794

     starting charge  155.09693, renormalised to  162.00000

[...]

     *
     * You are using vdW-DF for exchange-correlation in this calculation.
     * Please cite the following three references that made this development
     * possible:
     *
     *   M. Dion, H. Rydberg, E. Schroder, D. C. Langreth, and
     *   B. I. Lundqvist, Phys. Rev. Lett. 92, 246401 (2004).
     *
     *   T. Thonhauser, V. R. Cooper, S. Li, A. Puzder, P. Hyldgaard, and
     *   D. C. Langreth, Phys. Rev. B 76, 125112 (2007).
     *
     *   G. Roman-Perez and J. M. Soler, Phys. Rev. Lett. 103, 096102 (2009).
     *
     *
     * If you are using vdW-DF2, please also cite:
     *
     *   K. Lee, E. D. Murray, L. Kong, B. I. Lundqvist, and
     *   D. C. Langreth, Phys. Rev. B 82, 081101(R) (2010).
     *
     *
     * If you are calculating the stress with vdW-DF, please also cite:
     *
     *   R. Sabatini, E. Kucukbenli, B. Kolb, T. Thonhauser, and
     *   S. de Gironcoli, J. Phys.: Condens. Matter 24, 424209 (2012).
     *

     Carrying out vdW-DF run using the following parameters:

     Nqs =      20    Nr_points =    1024   r_max =   100.000
     q_mesh =
               0.00001000     0.04494208     0.09755937     0.15916263
               0.23128650     0.31572767     0.41458969     0.53033537
               0.66584808     0.82450364     1.01025438     1.22772762
               1.48234092     1.78043706     2.12944203     2.53805004
               3.01644009     3.57652955     4.23227104     5.00000000

     Gradients computed in reciprocal space

[...]

     Starting wfc are  156 randomized atomic wfcs

     Self-consistent Calculation

[...]

     total energy              =   -1925.12006640 Ry
     Harris-Foulkes estimate   =   -1925.12006751 Ry
     estimated scf accuracy    <       0.00000112 Ry

     iteration # 18     ecut=    36.75 Ry     beta=0.10
     Davidson diagonalization with overlap
     ethr =  6.92E-10,  avg # of iterations =  2.0

[...]

     negative rho (up, down):  9.379E-01 0.000E+00

     Adding external electric field

     Computed dipole along edir(3) :
        Dipole                0.1327 Ry au,          0.3372 Debye
        Dipole field          0.0003 Ry au

        Potential amp.       -0.0306 Ry
        Total length         45.6606 bohr

     End of self-consistent calculation

[...]

          k = 0.0569 0.0000 0.0000 ( 18681 PWs)   bands (ev):

[...]

          k =-0.0854-0.1479 0.0000 ( 18672 PWs)   bands (ev):

   -71.9457 -71.9327 -71.9195 -71.8277 -71.8163 -71.8046 -71.7746 -71.7424
   -71.7354 -60.2987 -59.7117 -59.3138 -36.3411 -36.2588 -36.2007 -36.1679
   -36.1133 -36.1111 -36.1015 -36.0527 -36.0461 -36.0192 -35.9564 -35.9373
   -35.8921 -35.8717 -35.8510 -35.8491 -35.8298 -35.8169 -35.8116 -35.7663
   -35.7206 -35.6854 -35.6809 -35.6735 -35.6667 -35.6171 -35.5536 -28.9964
   -28.7205 -28.7042 -28.3653 -28.2494 -28.2274 -27.9613 -27.9563 -27.9339
    -3.6537  -3.4880  -2.1291  -2.0327  -1.4032  -1.3749  -1.2140  -1.1233
    -1.0653  -0.9532  -0.4568  -0.1994  -0.1845  -0.0984   0.1961   0.2475
     0.3178   0.3837   0.4531   0.6310   0.7070   0.8716   1.0267   1.1728
     1.3184   1.3959   1.4030   1.4789   1.5419   1.6137   1.6788   1.8851
     1.9747   2.0571   2.3061   2.4510   2.6518   2.7409   2.8684   3.0650
     3.4318   3.4388   3.5820   3.7609   3.8625   3.8639   4.0168   4.0525
     4.1982   4.4099   4.5146   4.7827   5.0750   5.0814   5.4053   5.6899
     5.6974   5.8546   5.9727   6.3302   6.4060   6.5318   6.5331

     the Fermi energy is     2.3275 ev

!    total energy              =   -1925.12006898 Ry
     Harris-Foulkes estimate   =   -1925.12006848 Ry
     estimated scf accuracy    <       0.00000027 Ry

     The total energy is the sum of the following terms:

     one-electron contribution =  -12892.11086396 Ry
     hartree contribution      =    6430.14781694 Ry
     xc contribution           =    -614.74275841 Ry
     ewald contribution        =    5151.68220527 Ry
     electric field correction =       0.00004452 Ry
     smearing contrib. (-TS)   =      -0.09651335 Ry

     convergence has been achieved in  18 iterations

 BEEF-vdW xc energy contributions
           1 :   -546.688483272846
           2 :    506.809659425675
           3 :   -436.297570827053
           4 :    350.162711736912
           5 :   -264.126482153980
           6 :    190.090477417630
           7 :   -133.772196314183
           8 :    94.9148801552979
           9 :   -69.4246365917337
          10 :    52.1352167663413
          11 :   -38.9790248792644
          12 :    27.8662127676045
          13 :   -18.3413000034541
          14 :    10.6102519998358
          15 :   -4.67737223495158
          16 :   3.782887301781557E-002
          17 :    4.05896862231805
          18 :   -8.10972236244106
          19 :    12.0114597361194
          20 :   -15.1028128170066
          21 :    16.5513792924586
          22 :   -15.8583663292028
          23 :    13.1983848927346
          24 :   -9.42917077711593
          25 :    5.77814497286693
          26 :   -3.37339878530452
          27 :    2.83398853926394
          28 :   -4.08851502693983
          29 :    6.46773945698055
          30 :   -9.00457808302053
          31 :   -45.4723010255052
          32 :   -33.6061073222204

     Forces acting on atoms (Ry/au):

     negative rho (up, down):  9.379E-01 0.000E+00
     atom    1 type  1   force =    -0.00000008   -0.02533360    0.01797436
     atom    2 type  1   force =    -0.02194039    0.01266622    0.01797474
     atom    3 type  1   force =     0.02194083    0.01266675    0.01797523
     atom    4 type  2   force =     0.00000061    0.00000135   -0.04795842
     atom    5 type  1   force =    -0.00000000    0.02853383    0.00538351
     atom    6 type  1   force =     0.02471141   -0.01426617    0.00538204
     atom    7 type  1   force =    -0.02471192   -0.01426618    0.00538364
     atom    8 type  2   force =     0.00000054   -0.00000094   -0.01948625
     atom    9 type  1   force =    -0.00000029   -0.00007648   -0.00055149
     atom   10 type  1   force =    -0.00006606    0.00003828   -0.00055353
     atom   11 type  1   force =     0.00006492    0.00003852   -0.00055300
     atom   12 type  2   force =     0.00000043   -0.00000156   -0.00097084

     Total force =     0.090032     Total SCF correction =     0.001412

     entering subroutine stress ...

     negative rho (up, down):  9.379E-01 0.000E+00
          total   stress  (Ry/bohr**3)                   (kbar)     P=  -37.11
  -0.00034031  -0.00000000  -0.00000000        -50.06     -0.00     -0.00
  -0.00000000  -0.00034031  -0.00000000         -0.00    -50.06     -0.00
  -0.00000000  -0.00000000  -0.00007623         -0.00     -0.00    -11.21

 !ASE

     Writing output data file calc.save

     General routines

     Parallel routines

   This run was terminated on:   9:23:18   2Jan2019

   JOB DONE.
Job  /afs/slac/g/suncat/bin/suncat-tsmpirun -x LD_LIBRARY_PATH -wdir /scratch/qe649352_aaydy pw.x -in pw.inp

TID   HOST_NAME   COMMAND_LINE            STATUS            TERMINATION_TIME
00000 suncat0068 pw.x -in pw.inp   Done                     01/02/2019 09:23:18
00001 suncat0068 pw.x -in pw.inp   Done                     01/02/2019 09:23:18
00002 suncat0068 pw.x -in pw.inp   Done                     01/02/2019 09:23:18
00003 suncat0068 pw.x -in pw.inp   Done                     01/02/2019 09:23:18
00004 suncat0068 pw.x -in pw.inp   Done                     01/02/2019 09:23:18
00005 suncat0068 pw.x -in pw.inp   Done                     01/02/2019 09:23:18
00006 suncat0068 pw.x -in pw.inp   Done                     01/02/2019 09:23:18
00007 suncat0068 pw.x -in pw.inp   Done                     01/02/2019 09:23:18
00008 suncat0065 pw.x -in pw.inp   Done                     01/02/2019 09:23:18
00009 suncat0065 pw.x -in pw.inp   Done                     01/02/2019 09:23:18
00010 suncat0065 pw.x -in pw.inp   Done                     01/02/2019 09:23:18
00011 suncat0065 pw.x -in pw.inp   Done                     01/02/2019 09:23:18
00012 suncat0065 pw.x -in pw.inp   Done                     01/02/2019 09:23:18
00013 suncat0065 pw.x -in pw.inp   Done                     01/02/2019 09:23:18
00014 suncat0065 pw.x -in pw.inp   Done                     01/02/2019 09:23:18
00015 suncat0065 pw.x -in pw.inp   Done                     01/02/2019 09:23:18
00016 suncat0064 pw.x -in pw.inp   Done                     01/02/2019 09:23:18
00017 suncat0064 pw.x -in pw.inp   Done                     01/02/2019 09:23:18
00018 suncat0064 pw.x -in pw.inp   Done                     01/02/2019 09:23:18
00019 suncat0064 pw.x -in pw.inp   Done                     01/02/2019 09:23:18
00020 suncat0064 pw.x -in pw.inp   Done                     01/02/2019 09:23:18
00021 suncat0064 pw.x -in pw.inp   Done                     01/02/2019 09:23:18
00022 suncat0064 pw.x -in pw.inp   Done                     01/02/2019 09:23:18
00023 suncat0064 pw.x -in pw.inp   Done                     01/02/2019 09:23:18
00024 suncat0059 pw.x -in pw.inp   Done                     01/02/2019 09:23:18
00025 suncat0059 pw.x -in pw.inp   Done                     01/02/2019 09:23:18
00026 suncat0059 pw.x -in pw.inp   Done                     01/02/2019 09:23:18
00027 suncat0059 pw.x -in pw.inp   Done                     01/02/2019 09:23:18
00028 suncat0059 pw.x -in pw.inp   Done                     01/02/2019 09:23:18
00029 suncat0059 pw.x -in pw.inp   Done                     01/02/2019 09:23:18
00030 suncat0059 pw.x -in pw.inp   Done                     01/02/2019 09:23:18
00031 suncat0059 pw.x -in pw.inp   Done                     01/02/2019 09:23:18
00032 suncat0169 pw.x -in pw.inp   Done                     01/02/2019 09:23:18
00033 suncat0169 pw.x -in pw.inp   Done                     01/02/2019 09:23:18
00034 suncat0169 pw.x -in pw.inp   Done                     01/02/2019 09:23:18
00035 suncat0169 pw.x -in pw.inp   Done                     01/02/2019 09:23:18
00036 suncat0169 pw.x -in pw.inp   Done                     01/02/2019 09:23:18
00037 suncat0169 pw.x -in pw.inp   Done                     01/02/2019 09:23:18
00038 suncat0169 pw.x -in pw.inp   Done                     01/02/2019 09:23:18
00039 suncat0169 pw.x -in pw.inp   Done                     01/02/2019 09:23:18
00040 suncat0168 pw.x -in pw.inp   Done                     01/02/2019 09:23:18
00041 suncat0168 pw.x -in pw.inp   Done                     01/02/2019 09:23:18
00042 suncat0168 pw.x -in pw.inp   Done                     01/02/2019 09:23:18
00043 suncat0168 pw.x -in pw.inp   Done                     01/02/2019 09:23:18
00044 suncat0168 pw.x -in pw.inp   Done                     01/02/2019 09:23:18
00045 suncat0168 pw.x -in pw.inp   Done                     01/02/2019 09:23:18
00046 suncat0168 pw.x -in pw.inp   Done                     01/02/2019 09:23:18
00047 suncat0168 pw.x -in pw.inp   Done                     01/02/2019 09:23:18
00048 suncat0156 pw.x -in pw.inp   Done                     01/02/2019 09:23:18
00049 suncat0156 pw.x -in pw.inp   Done                     01/02/2019 09:23:18
00050 suncat0156 pw.x -in pw.inp   Done                     01/02/2019 09:23:18
00051 suncat0156 pw.x -in pw.inp   Done                     01/02/2019 09:23:18
00052 suncat0156 pw.x -in pw.inp   Done                     01/02/2019 09:23:18
00053 suncat0156 pw.x -in pw.inp   Done                     01/02/2019 09:23:18
00054 suncat0156 pw.x -in pw.inp   Done                     01/02/2019 09:23:18
00055 suncat0156 pw.x -in pw.inp   Done                     01/02/2019 09:23:18
00056 suncat0153 pw.x -in pw.inp   Done                     01/02/2019 09:23:18
00057 suncat0153 pw.x -in pw.inp   Done                     01/02/2019 09:23:18
00058 suncat0153 pw.x -in pw.inp   Done                     01/02/2019 09:23:18
00059 suncat0153 pw.x -in pw.inp   Done                     01/02/2019 09:23:18
00060 suncat0153 pw.x -in pw.inp   Done                     01/02/2019 09:23:18
00061 suncat0153 pw.x -in pw.inp   Done                     01/02/2019 09:23:18
00062 suncat0153 pw.x -in pw.inp   Done                     01/02/2019 09:23:18
00063 suncat0153 pw.x -in pw.inp   Done                     01/02/2019 09:23:18