     Program PWSCF v.5.1rc2 (svn rev. 11289) starts on  2Jan2019 at  6: 6:52

     Current dimensions of program PWSCF are:
     Max number of different atomic species (ntypx) = 10
     Max number of k-points (npk) =  40000
     Max angular momentum in pseudopotentials (lmaxx) =  3
     Presently stress not available with electric field

     IMPORTANT: XC functional enforced from input :
     Exchange-correlation      = BEEF-VDW ( 1  4 27 13 2)
     Any further DFT definition will be discarded
     Please, verify this is what you really want

     Subspace diagonalization in iterative solution of the eigenvalue problem:
     a serial algorithm will be used

     bravais-lattice index     =            0
     lattice parameter (alat)  =       1.8897  a.u.
     unit-cell volume          =    4460.5203 (a.u.)^3
     number of atoms/cell      =           12
     number of atomic types    =            2
     number of electrons       =       156.00
     number of Kohn-Sham states=          108
     kinetic-energy cutoff     =      36.7493  Ry
     charge density cutoff     =     367.4932  Ry
     convergence threshold     =      1.0E-06
     mixing beta               =       0.1000
     number of iterations used =           10  plain     mixing
     Exchange-correlation      = BEEF-VDW ( 1  4 27 13 2)
     nstep                     =           50

     celldm(1)=   1.889726  celldm(2)=   0.000000  celldm(3)=   0.000000
     celldm(4)=   0.000000  celldm(5)=   0.000000  celldm(6)=   0.000000

     crystal axes: (cart. coord. in units of alat)
               a(1) = (   5.575483   0.000000   0.000000 )
               a(2) = (  -2.787741   4.828510   0.000000 )
               a(3) = (   0.000000   0.000000  24.552363 )

     reciprocal axes: (cart. coord. in units 2 pi/alat)
               b(1) = (  0.179357  0.103552  0.000000 )
               b(2) = (  0.000000  0.207103  0.000000 )
               b(3) = (  0.000000  0.000000  0.040729 )

     PseudoPot. # 1 for V  read from file:
     /afs/slac.stanford.edu/u/if/mamunm/psp/gbrv1.5pbe/V.UPF
     MD5 check sum: 22b79981416ebb76fdaf5b1b8640f6fb
     Pseudo is Ultrasoft + core correction, Zval = 13.0
     Generated by new atomic code, or converted to UPF format
     Using radial grid of  853 points,  6 beta functions with:
                l(1) =   0
                l(2) =   0
                l(3) =   1
                l(4) =   1
                l(5) =   2
                l(6) =   2
     Q(r) pseudized with  8 coefficients,  rinner =    1.100   1.100   1.100
                                                       1.100   1.100

     PseudoPot. # 2 for Ta read from file:
     /afs/slac.stanford.edu/u/if/mamunm/psp/gbrv1.5pbe/Ta.UPF
     MD5 check sum: f8bbe9446314a3b8ea5d9f3e3836c939
     Pseudo is Ultrasoft + core correction, Zval = 13.0
     Generated by new atomic code, or converted to UPF format
     Using radial grid of  921 points,  7 beta functions with:
                l(1) =   0
                l(2) =   0
                l(3) =   1
                l(4) =   1
                l(5) =   2
                l(6) =   2
                l(7) =   3
     Q(r) pseudized with  6 coefficients,  rinner =    1.300   1.300   1.300
                                                       1.300   1.300   1.300
                                                       1.300

     vdW kernel table read from file vdW_kernel_table
     MD5 check sum: 095c7af220d748ca6e76c0b4c6cfb241

     atomic species   valence    mass     pseudopotential
        V1            13.00    50.94150     V ( 1.00)
        Ta1           13.00   180.94788     Ta( 1.00)

     No symmetry found

   Cartesian axes

     site n.     atom                  positions (alat units)
         1           V1  tau(   1) = (   0.0000000   0.0000000  10.0000000  )
         2           V1  tau(   2) = (  -1.3938707   2.4142550  10.0000000  )
         3           V1  tau(   3) = (   1.3938707   2.4142550  10.0000000  )
         4           Ta1 tau(   4) = (   2.7877415   0.0000000  10.0000000  )
         5           V1  tau(   5) = (   2.7877415   1.6095033  12.2761814  )
         6           V1  tau(   6) = (   1.3938707   4.0237583  12.2761814  )
         7           V1  tau(   7) = (  -1.3938707   4.0237583  12.2761814  )
         8           Ta1 tau(   8) = (   0.0000000   1.6095033  12.2761814  )
         9           V1  tau(   9) = (  -0.0000000   3.2190066  14.5523628  )
        10           V1  tau(  10) = (   1.3938707   0.8047517  14.5523628  )
        11           V1  tau(  11) = (   4.1816122   0.8047517  14.5523628  )
        12           Ta1 tau(  12) = (   2.7877415   3.2190066  14.5523628  )

     number of k points=    20  Fermi-Dirac smearing, width (Ry)=  0.0110
                       cart. coord. in units 2pi/alat
        k(    1) = (   0.0000000   0.0000000   0.0000000), wk =   0.0555556
        k(    2) = (   0.0000000   0.0345172   0.0000000), wk =   0.1111111
        k(    3) = (   0.0000000   0.0690344   0.0000000), wk =   0.1111111
        k(    4) = (   0.0000000  -0.1035516   0.0000000), wk =   0.0555556
        k(    5) = (   0.0298928   0.0172586   0.0000000), wk =   0.1111111
        k(    6) = (   0.0298928   0.0517758   0.0000000), wk =   0.1111111
        k(    7) = (   0.0298928   0.0862930   0.0000000), wk =   0.1111111
        k(    8) = (   0.0298928  -0.0862930   0.0000000), wk =   0.1111111
        k(    9) = (   0.0298928  -0.0517758   0.0000000), wk =   0.1111111
        k(   10) = (   0.0298928  -0.0172586   0.0000000), wk =   0.1111111
        k(   11) = (   0.0597856   0.0345172   0.0000000), wk =   0.1111111
        k(   12) = (   0.0597856   0.0690344   0.0000000), wk =   0.1111111
        k(   13) = (   0.0597856   0.1035516   0.0000000), wk =   0.1111111
        k(   14) = (   0.0597856  -0.0690344   0.0000000), wk =   0.1111111
        k(   15) = (   0.0597856  -0.0345172   0.0000000), wk =   0.1111111
        k(   16) = (   0.0597856   0.0000000   0.0000000), wk =   0.1111111
        k(   17) = (  -0.0896783  -0.0517758   0.0000000), wk =   0.0555556
        k(   18) = (  -0.0896783  -0.0172586   0.0000000), wk =   0.1111111
        k(   19) = (  -0.0896783   0.0172586   0.0000000), wk =   0.1111111
        k(   20) = (  -0.0896783  -0.1553274   0.0000000), wk =   0.0555556

     Largest allocated arrays     est. size (Mb)     dimensions
     Largest temporary arrays     est. size (Mb)     dimensions

     Initial potential from superposition of free atoms
     Check: negative starting charge=   -0.286873

     starting charge  155.98562, renormalised to  156.00000

     negative rho (up, down):  2.869E-01 0.000E+00

     *
     * You are using vdW-DF for exchange-correlation in this calculation.
     * Please cite the following three references that made this development
     * possible:
     *
     *   M. Dion, H. Rydberg, E. Schroder, D. C. Langreth, and
     *   B. I. Lundqvist, Phys. Rev. Lett. 92, 246401 (2004).
     *
     *   T. Thonhauser, V. R. Cooper, S. Li, A. Puzder, P. Hyldgaard, and
     *   D. C. Langreth, Phys. Rev. B 76, 125112 (2007).
     *
     *   G. Roman-Perez and J. M. Soler, Phys. Rev. Lett. 103, 096102 (2009).
     *
     *
     * If you are using vdW-DF2, please also cite:
     *
     *   K. Lee, E. D. Murray, L. Kong, B. I. Lundqvist, and
     *   D. C. Langreth, Phys. Rev. B 82, 081101(R) (2010).
     *
     *
     * If you are calculating the stress with vdW-DF, please also cite:
     *
     *   R. Sabatini, E. Kucukbenli, B. Kolb, T. Thonhauser, and
     *   S. de Gironcoli, J. Phys.: Condens. Matter 24, 424209 (2012).
     *

     Carrying out vdW-DF run using the following parameters:

     Nqs =      20    Nr_points =    1024   r_max =   100.000
     q_mesh =
               0.00001000     0.04494208     0.09755937     0.15916263
               0.23128650     0.31572767     0.41458969     0.53033537
               0.66584808     0.82450364     1.01025438     1.22772762
               1.48234092     1.78043706     2.12944203     2.53805004
               3.01644009     3.57652955     4.23227104     5.00000000

     Gradients computed in reciprocal space

     Adding external electric field

     Computed dipole along edir(3) :
        Dipole               -0.0000 Ry au,         -0.0000 Debye
        Dipole field         -0.0000 Ry au

        Potential amp.        0.0000 Ry
        Total length         45.2373 bohr

     Starting wfc are  129 randomized atomic wfcs

     Self-consistent Calculation

     iteration #  1     ecut=    36.75 Ry     beta=0.10
     Davidson diagonalization with overlap
     ethr =  1.00E-02,  avg # of iterations =  2.3

[...]

     total energy              =   -1739.81630798 Ry
     Harris-Foulkes estimate   =   -1741.86561241 Ry
     estimated scf accuracy    <      11.34962486 Ry

[...]

     End of self-consistent calculation

          k = 0.0000 0.0000 0.0000 ( 16763 PWs)   bands (ev):

   -66.8956 -66.8954 -66.7629 -63.1174 -63.0590 -63.0588 -63.0371 -63.0291
   -62.9839 -62.9838 -62.9818 -62.9818 -37.1554 -37.0565 -37.0564 -37.0522
   -37.0245 -37.0143 -36.9841 -36.9840 -36.9082 -36.8972 -36.8971 -36.8584
   -36.8584 -36.8307 -36.8307 -36.7922 -36.7545 -36.7394 -36.7393 -36.7131
   -36.7130 -36.6670 -36.6495 -36.6192 -36.6192 -36.6173 -36.6173 -33.3176
   -33.2929 -33.1850 -33.1850 -33.1790 -33.1790 -33.1253 -33.1019 -33.1019
    -5.3074  -3.7480  -2.5976  -2.2193  -2.2193  -1.9296  -1.9296  -1.8403
    -1.5746  -1.3823  -1.3823  -1.2263  -1.2263  -1.1385  -1.0316  -0.3811
    -0.3811  -0.0660   0.6052   0.7783   0.7783   0.8594   0.9957   1.0540
     1.3000   1.3622   1.3622   1.3948   1.3948   1.5105   1.5415   1.5415
     1.6750   1.6751   1.6828   1.6828   1.7491   2.0834   2.0835   2.1093
     2.4391   2.6449   2.6449   2.8918   2.8919   3.0230   3.1209   3.1209
     3.2573   3.2574   3.4219   3.8177   3.8177   3.8229   3.9422   3.9869
     4.1566   4.2183   4.2183   4.7038

[...]

          k =-0.0897-0.0518 0.0000 ( 16808 PWs)   bands (ev):

[...]

     the Fermi energy is     1.1946 ev

!    total energy              =   -1741.13489820 Ry
     Harris-Foulkes estimate   =   -1741.13489795 Ry
     estimated scf accuracy    <       0.00000074 Ry

     The total energy is the sum of the following terms:

     one-electron contribution =  -13700.65825079 Ry
     hartree contribution      =    6835.78529814 Ry
     xc contribution           =    -313.69796641 Ry
     ewald contribution        =    5437.58344580 Ry
     electric field correction =       0.00000000 Ry
     smearing contrib. (-TS)   =      -0.14742494 Ry

     convergence has been achieved in  24 iterations

 BEEF-vdW xc energy contributions
           1 :   -272.714337861930
           2 :    247.702339359827
           3 :   -205.562157117648
           4 :    158.303499478333
           5 :   -116.859085007982
           6 :    87.1494264345173
           7 :   -69.1353919953244
           8 :    58.7367535420096
           9 :   -51.0668641156316
          10 :    43.0621311046384
          11 :   -34.3437360899125
          12 :    26.3413884317362
          13 :   -20.6412377228274
          14 :    17.7050501695608
[...]
     /afs/slac.stanford.edu/u/if/mamunm/psp/gbrv1.5pbe/V.UPF
     MD5 check sum: 22b79981416ebb76fdaf5b1b8640f6fb
     Pseudo is Ultrasoft + core correction, Zval = 13.0
     Generated by new atomic code, or converted to UPF format
     Using radial grid of  853 points,  6 beta functions with:
                l(1) =   0
                l(2) =   0
                l(3) =   1
                l(4) =   1
                l(5) =   2
                l(6) =   2
     Q(r) pseudized with  8 coefficients,  rinner =    1.100   1.100   1.100
                                                       1.100   1.100

     PseudoPot. # 2 for Ta read from file:
     /afs/slac.stanford.edu/u/if/mamunm/psp/gbrv1.5pbe/Ta.UPF
     MD5 check sum: f8bbe9446314a3b8ea5d9f3e3836c939
     Pseudo is Ultrasoft + core correction, Zval = 13.0
     Generated by new atomic code, or converted to UPF format
     Using radial grid of  921 points,  7 beta functions with:
                l(1) =   0
                l(2) =   0
                l(3) =   1
                l(4) =   1
                l(5) =   2
                l(6) =   2
                l(7) =   3
     Q(r) pseudized with  6 coefficients,  rinner =    1.300   1.300   1.300
                                                       1.300   1.300   1.300
                                                       1.300

     vdW kernel table read from file vdW_kernel_table
     MD5 check sum: 095c7af220d748ca6e76c0b4c6cfb241

     atomic species   valence    mass     pseudopotential
        V1            13.00    50.94150     V ( 1.00)
        Ta1           13.00   180.94788     Ta( 1.00)

     No symmetry found

   Cartesian axes

     site n.     atom                  positions (alat units)
         1           V1  tau(   1) = (   0.0000000   0.0000000  10.0000000  )
         2           V1  tau(   2) = (  -1.3938707   2.4142550  10.0000000  )
         3           V1  tau(   3) = (   1.3938707   2.4142550  10.0000000  )
         4           Ta1 tau(   4) = (   2.7877415   0.0000000  10.0000000  )
         5           V1  tau(   5) = (   2.7877415   1.6095033  12.2761814  )
         6           V1  tau(   6) = (   1.3938707   4.0237583  12.2761814  )
         7           V1  tau(   7) = (  -1.3938707   4.0237583  12.2761814  )
         8           Ta1 tau(   8) = (   0.0000000   1.6095033  12.2761814  )
         9           V1  tau(   9) = (   0.0000498   3.3465884  14.5049394  )
        10           V1  tau(  10) = (   1.5044656   0.7407433  14.5048828  )
        11           V1  tau(  11) = (   4.0712340   0.7408092  14.5049874  )
        12           Ta1 tau(  12) = (   2.7876942   3.2189735  14.5652822  )

     number of k points=    20  Fermi-Dirac smearing, width (Ry)=  0.0110
                       cart. coord. in units 2pi/alat
        k(    1) = (   0.0000000   0.0000000   0.0000000), wk =   0.0555556
        k(    2) = (   0.0000000   0.0345172   0.0000000), wk =   0.1111111
        k(    3) = (   0.0000000   0.0690344   0.0000000), wk =   0.1111111
        k(    4) = (   0.0000000  -0.1035516   0.0000000), wk =   0.0555556
        k(    5) = (   0.0298928   0.0172586   0.0000000), wk =   0.1111111
        k(    6) = (   0.0298928   0.0517758   0.0000000), wk =   0.1111111
        k(    7) = (   0.0298928   0.0862930   0.0000000), wk =   0.1111111
        k(    8) = (   0.0298928  -0.0862930   0.0000000), wk =   0.1111111
        k(    9) = (   0.0298928  -0.0517758   0.0000000), wk =   0.1111111
        k(   10) = (   0.0298928  -0.0172586   0.0000000), wk =   0.1111111
        k(   11) = (   0.0597856   0.0345172   0.0000000), wk =   0.1111111
        k(   12) = (   0.0597856   0.0690344   0.0000000), wk =   0.1111111
        k(   13) = (   0.0597856   0.1035516   0.0000000), wk =   0.1111111
        k(   14) = (   0.0597856  -0.0690344   0.0000000), wk =   0.1111111
        k(   15) = (   0.0597856  -0.0345172   0.0000000), wk =   0.1111111
        k(   16) = (   0.0597856   0.0000000   0.0000000), wk =   0.1111111
        k(   17) = (  -0.0896783  -0.0517758   0.0000000), wk =   0.0555556
        k(   18) = (  -0.0896783  -0.0172586   0.0000000), wk =   0.1111111
        k(   19) = (  -0.0896783   0.0172586   0.0000000), wk =   0.1111111
        k(   20) = (  -0.0896783  -0.1553274   0.0000000), wk =   0.0555556

     Largest allocated arrays     est. size (Mb)     dimensions
     Largest temporary arrays     est. size (Mb)     dimensions

     Initial potential from superposition of free atoms
     Check: negative starting charge=   -0.285877

     starting charge  155.98562, renormalised to  156.00000

[...]

     *
     * You are using vdW-DF for exchange-correlation in this calculation.
     * Please cite the following three references that made this development
     * possible:
     *
     *   M. Dion, H. Rydberg, E. Schroder, D. C. Langreth, and
     *   B. I. Lundqvist, Phys. Rev. Lett. 92, 246401 (2004).
     *
     *   T. Thonhauser, V. R. Cooper, S. Li, A. Puzder, P. Hyldgaard, and
     *   D. C. Langreth, Phys. Rev. B 76, 125112 (2007).
     *
     *   G. Roman-Perez and J. M. Soler, Phys. Rev. Lett. 103, 096102 (2009).
     *
     *
     * If you are using vdW-DF2, please also cite:
     *
     *   K. Lee, E. D. Murray, L. Kong, B. I. Lundqvist, and
     *   D. C. Langreth, Phys. Rev. B 82, 081101(R) (2010).
     *
     *
     * If you are calculating the stress with vdW-DF, please also cite:
     *
     *   R. Sabatini, E. Kucukbenli, B. Kolb, T. Thonhauser, and
     *   S. de Gironcoli, J. Phys.: Condens. Matter 24, 424209 (2012).
     *

     Carrying out vdW-DF run using the following parameters:

     Nqs =      20    Nr_points =    1024   r_max =   100.000
     q_mesh =
               0.00001000     0.04494208     0.09755937     0.15916263
               0.23128650     0.31572767     0.41458969     0.53033537
               0.66584808     0.82450364     1.01025438     1.22772762
               1.48234092     1.78043706     2.12944203     2.53805004
               3.01644009     3.57652955     4.23227104     5.00000000

     Gradients computed in reciprocal space

[...]

     Starting wfc are  129 randomized atomic wfcs

     Self-consistent Calculation

[...]

     total energy              =   -1741.14486555 Ry
     Harris-Foulkes estimate   =   -1741.14486501 Ry
     estimated scf accuracy    <       0.00000132 Ry

     iteration # 24     ecut=    36.75 Ry     beta=0.10
     Davidson diagonalization with overlap
     ethr =  8.43E-10,  avg # of iterations =  2.2

[...]

     negative rho (up, down):  3.005E-01 0.000E+00

     Adding external electric field

     Computed dipole along edir(3) :
        Dipole                0.0164 Ry au,          0.0416 Debye
        Dipole field          0.0000 Ry au

        Potential amp.       -0.0042 Ry
        Total length         45.2373 bohr

     End of self-consistent calculation

[...]

          k = 0.0598 0.0000 0.0000 ( 16760 PWs)   bands (ev):

[...]

          k =-0.0897-0.1553 0.0000 ( 16808 PWs)   bands (ev):

   -66.9795 -66.8639 -66.7808 -63.0702 -63.0506 -63.0283 -62.9914 -62.9867
   -62.9744 -62.9580 -62.9317 -62.9226 -37.0847 -37.0328 -36.9880 -36.9611
   -36.9527 -36.9306 -36.9205 -36.9080 -36.8785 -36.8665 -36.8468 -36.8345
   -36.8026 -36.7794 -36.7688 -36.7670 -36.7464 -36.7459 -36.7289 -36.7026
   -36.6959 -36.6785 -36.6699 -36.6344 -36.6204 -36.6031 -36.5474 -33.3729
   -33.3053 -33.2789 -33.2756 -33.1883 -33.1628 -33.1493 -33.1421 -33.1249
    -3.7005  -3.4207  -2.3933  -1.9930  -1.5426  -1.3983  -1.3219  -1.1643
    -1.0774  -1.0362  -0.6423  -0.4089  -0.4012  -0.3293  -0.2710  -0.1799
     0.0522   0.1080   0.1132   0.2402   0.2666   0.3090   0.4699   0.5720
     0.6887   0.7111   0.7178   0.7697   0.8960   0.9656   1.0141   1.2339
     1.2630   1.3820   1.3885   1.4434   1.4771   1.5854   1.8387   2.0065
     2.1012   2.2708   2.3285   2.4251   2.5337   2.5676   2.5939   2.6172
     2.6992   2.8879   2.9812   3.0718   3.0924   3.4268   3.4793   3.5599
     3.6953   3.8674   3.8726   3.8824

     the Fermi energy is     1.2212 ev

!    total energy              =   -1741.14486553 Ry
     Harris-Foulkes estimate   =   -1741.14486576 Ry
     estimated scf accuracy    <       0.00000045 Ry

     The total energy is the sum of the following terms:

     one-electron contribution =  -13767.41761088 Ry
     hartree contribution      =    6869.26480544 Ry
     xc contribution           =    -313.77259264 Ry
     ewald contribution        =    5470.92319783 Ry
     electric field correction =       0.00000076 Ry
     smearing contrib. (-TS)   =      -0.14266604 Ry

     convergence has been achieved in  24 iterations

 BEEF-vdW xc energy contributions
           1 :   -272.898828174680
           2 :    247.910257818102
           3 :   -205.791074348723
           4 :    158.520104514316
           5 :   -117.019436029356
           6 :    87.2320540726850
           7 :   -69.1619993739560
           8 :    58.7637418766311
           9 :   -51.1507028383579
          10 :    43.2212610283538
          11 :   -34.5446190534391
          12 :    26.5204393627902
          13 :   -20.7493359686529
          14 :    17.7438117973132
          15 :   -16.6608876315584
          16 :    15.9911748399211
          17 :   -14.5835097601056
          18 :    12.2806373642690
          19 :   -9.81233785709793
          20 :    8.12293993962987
          21 :   -7.66293468227798
          22 :    8.11950120138698
          23 :   -8.70242850487756
          24 :    8.71001596849743
          25 :   -7.95765731954788
          26 :    6.80541478383634
          27 :   -5.83056726281592
          28 :    5.41323159468499
          29 :   -5.52002294352229
          30 :    5.79558309768078
          31 :   -26.5603733213249
          32 :   -19.3701134905362

     Forces acting on atoms (Ry/au):

     negative rho (up, down):  3.005E-01 0.000E+00
     atom    1 type  1   force =    -0.00000003   -0.01086046    0.00699038
     atom    2 type  1   force =    -0.00940559    0.00543120    0.00698954
     atom    3 type  1   force =     0.00940412    0.00543031    0.00699015
     atom    4 type  2   force =    -0.00000190   -0.00000015   -0.00040096
     atom    5 type  1   force =     0.00000771    0.01092251   -0.01050428
     atom    6 type  1   force =     0.00944513   -0.00545156   -0.01051305
     atom    7 type  1   force =    -0.00945430   -0.00546604   -0.01051652
     atom    8 type  2   force =    -0.00001648    0.00001659    0.01114658
     atom    9 type  1   force =    -0.00000471    0.00005544    0.00014218
     atom   10 type  1   force =     0.00006368   -0.00002925    0.00012852
     atom   11 type  1   force =    -0.00005444   -0.00001841    0.00013529
     atom   12 type  2   force =     0.00001683   -0.00003018   -0.00058784

     Total force =     0.036252     Total SCF correction =     0.002045

     entering subroutine stress ...

     negative rho (up, down):  3.005E-01 0.000E+00
          total   stress  (Ry/bohr**3)                   (kbar)     P=  -22.71
  -0.00021203   0.00000001   0.00000002        -31.19      0.00      0.00
   0.00000001  -0.00021204  -0.00000002          0.00    -31.19     -0.00
   0.00000002  -0.00000002  -0.00003907          0.00     -0.00     -5.75

 !ASE

     Writing output data file calc.save

     General routines

     Parallel routines

   This run was terminated on:   9: 5:33   2Jan2019

   JOB DONE.
Job  /afs/slac/g/suncat/bin/suncat-tsmpirun -x LD_LIBRARY_PATH -wdir /scratch/qe649330_5AipX pw.x -in pw.inp

TID   HOST_NAME   COMMAND_LINE            STATUS            TERMINATION_TIME
00000 suncat0031 pw.x -in pw.inp   Done                     01/02/2019 09:05:33
00001 suncat0031 pw.x -in pw.inp   Done                     01/02/2019 09:05:33
00002 suncat0031 pw.x -in pw.inp   Done                     01/02/2019 09:05:33
00003 suncat0031 pw.x -in pw.inp   Done                     01/02/2019 09:05:33
00004 suncat0031 pw.x -in pw.inp   Done                     01/02/2019 09:05:33
00005 suncat0031 pw.x -in pw.inp   Done                     01/02/2019 09:05:33
00006 suncat0031 pw.x -in pw.inp   Done                     01/02/2019 09:05:33
00007 suncat0031 pw.x -in pw.inp   Done                     01/02/2019 09:05:33
00008 suncat0030 pw.x -in pw.inp   Done                     01/02/2019 09:05:33
00009 suncat0030 pw.x -in pw.inp   Done                     01/02/2019 09:05:33
00010 suncat0030 pw.x -in pw.inp   Done                     01/02/2019 09:05:33
00011 suncat0030 pw.x -in pw.inp   Done                     01/02/2019 09:05:33
00012 suncat0030 pw.x -in pw.inp   Done                     01/02/2019 09:05:33
00013 suncat0030 pw.x -in pw.inp   Done                     01/02/2019 09:05:33
00014 suncat0030 pw.x -in pw.inp   Done                     01/02/2019 09:05:33
00015 suncat0030 pw.x -in pw.inp   Done                     01/02/2019 09:05:33
00016 suncat0192 pw.x -in pw.inp   Done                     01/02/2019 09:05:33
00017 suncat0192 pw.x -in pw.inp   Done                     01/02/2019 09:05:33
00018 suncat0192 pw.x -in pw.inp   Done                     01/02/2019 09:05:33
00019 suncat0192 pw.x -in pw.inp   Done                     01/02/2019 09:05:33
00020 suncat0192 pw.x -in pw.inp   Done                     01/02/2019 09:05:33
00021 suncat0192 pw.x -in pw.inp   Done                     01/02/2019 09:05:33
00022 suncat0192 pw.x -in pw.inp   Done                     01/02/2019 09:05:33
00023 suncat0192 pw.x -in pw.inp   Done                     01/02/2019 09:05:33
00024 suncat0185 pw.x -in pw.inp   Done                     01/02/2019 09:05:33
00025 suncat0185 pw.x -in pw.inp   Done                     01/02/2019 09:05:33
00026 suncat0185 pw.x -in pw.inp   Done                     01/02/2019 09:05:33
00027 suncat0185 pw.x -in pw.inp   Done                     01/02/2019 09:05:33
00028 suncat0185 pw.x -in pw.inp   Done                     01/02/2019 09:05:33
00029 suncat0185 pw.x -in pw.inp   Done                     01/02/2019 09:05:33
00030 suncat0185 pw.x -in pw.inp   Done                     01/02/2019 09:05:33
00031 suncat0185 pw.x -in pw.inp   Done                     01/02/2019 09:05:33
00032 suncat0184 pw.x -in pw.inp   Done                     01/02/2019 09:05:33
00033 suncat0184 pw.x -in pw.inp   Done                     01/02/2019 09:05:33
00034 suncat0184 pw.x -in pw.inp   Done                     01/02/2019 09:05:33
00035 suncat0184 pw.x -in pw.inp   Done                     01/02/2019 09:05:33
00036 suncat0184 pw.x -in pw.inp   Done                     01/02/2019 09:05:33
00037 suncat0184 pw.x -in pw.inp   Done                     01/02/2019 09:05:33
00038 suncat0184 pw.x -in pw.inp   Done                     01/02/2019 09:05:33
00039 suncat0184 pw.x -in pw.inp   Done                     01/02/2019 09:05:33
00040 suncat0183 pw.x -in pw.inp   Done                     01/02/2019 09:05:33
00041 suncat0183 pw.x -in pw.inp   Done                     01/02/2019 09:05:33
00042 suncat0183 pw.x -in pw.inp   Done                     01/02/2019 09:05:33
00043 suncat0183 pw.x -in pw.inp   Done                     01/02/2019 09:05:33
00044 suncat0183 pw.x -in pw.inp   Done                     01/02/2019 09:05:33
00045 suncat0183 pw.x -in pw.inp   Done                     01/02/2019 09:05:33
00046 suncat0183 pw.x -in pw.inp   Done                     01/02/2019 09:05:33
00047 suncat0183 pw.x -in pw.inp   Done                     01/02/2019 09:05:33
00048 suncat0172 pw.x -in pw.inp   Done                     01/02/2019 09:05:33
00049 suncat0172 pw.x -in pw.inp   Done                     01/02/2019 09:05:33
00050 suncat0172 pw.x -in pw.inp   Done                     01/02/2019 09:05:33
00051 suncat0172 pw.x -in pw.inp   Done                     01/02/2019 09:05:33
00052 suncat0172 pw.x -in pw.inp   Done                     01/02/2019 09:05:33
00053 suncat0172 pw.x -in pw.inp   Done                     01/02/2019 09:05:33
00054 suncat0172 pw.x -in pw.inp   Done                     01/02/2019 09:05:33
00055 suncat0172 pw.x -in pw.inp   Done                     01/02/2019 09:05:33
00056 suncat0171 pw.x -in pw.inp   Done                     01/02/2019 09:05:33
00057 suncat0171 pw.x -in pw.inp   Done                     01/02/2019 09:05:33
00058 suncat0171 pw.x -in pw.inp   Done                     01/02/2019 09:05:33
00059 suncat0171 pw.x -in pw.inp   Done                     01/02/2019 09:05:33
00060 suncat0171 pw.x -in pw.inp   Done                     01/02/2019 09:05:33
00061 suncat0171 pw.x -in pw.inp   Done                     01/02/2019 09:05:33
00062 suncat0171 pw.x -in pw.inp   Done                     01/02/2019 09:05:33
00063 suncat0171 pw.x -in pw.inp   Done                     01/02/2019 09:05:33