     Program PWSCF v.5.1rc2 (svn rev. 11289) starts on 27Dec2018 at 12:23:30

     Current dimensions of program PWSCF are:
     Max number of different atomic species (ntypx) = 10
     Max number of k-points (npk) =  40000
     Max angular momentum in pseudopotentials (lmaxx) =  3
     Presently stress not available with electric field

     IMPORTANT: XC functional enforced from input :
     Exchange-correlation      = BEEF-VDW ( 1  4 27 13 2)
     Any further DFT definition will be discarded
     Please, verify this is what you really want

     Subspace diagonalization in iterative solution of the eigenvalue problem:
     a serial algorithm will be used

     Generating pointlists ...
     new r_m :   0.4125 (alat units)  0.7795 (a.u.) for type    1
     new r_m :   0.4125 (alat units)  0.7795 (a.u.) for type    2

     bravais-lattice index     =            0
     lattice parameter (alat)  =       1.8897  a.u.
     unit-cell volume          =    4317.2353 (a.u.)^3
     number of atoms/cell      =           12
     number of atomic types    =            2
     number of electrons       =       195.00
     number of Kohn-Sham states=          127
     kinetic-energy cutoff     =      36.7493  Ry
     charge density cutoff     =     367.4932  Ry
     convergence threshold     =      1.0E-06
     mixing beta               =       0.1000
     number of iterations used =           10  plain     mixing
     Exchange-correlation      = BEEF-VDW ( 1  4 27 13 2)
     nstep                     =           50

     celldm(1)=   1.889726  celldm(2)=   0.000000  celldm(3)=   0.000000
     celldm(4)=   0.000000  celldm(5)=   0.000000  celldm(6)=   0.000000

     crystal axes: (cart. coord. in units of alat)
               a(1) = (   5.492762   0.000000   0.000000 )
               a(2) = (  -2.746381   4.756871   0.000000 )
               a(3) = (   0.000000   0.000000  24.484821 )

     reciprocal axes: (cart. coord. in units 2 pi/alat)
               b(1) = (  0.182058  0.105111  0.000000 )
               b(2) = (  0.000000  0.210222  0.000000 )
               b(3) = (  0.000000  0.000000  0.040842 )

     PseudoPot. # 1 for Ni read from file:
     /afs/slac.stanford.edu/u/if/mamunm/psp/gbrv1.5pbe/Ni.UPF
     MD5 check sum: 1ee80287db30b12d2bc1f57a5b5d6409
     Pseudo is Ultrasoft + core correction, Zval = 18.0
     Generated by new atomic code, or converted to UPF format
     Using radial grid of  865 points,  6 beta functions with:
                l(1) =   0
                l(2) =   0
                l(3) =   1
                l(4) =   1
                l(5) =   2
                l(6) =   2
     Q(r) pseudized with 10 coefficients,  rinner =    0.980   0.980   0.980
                                                       0.980   0.980

     PseudoPot. # 2 for Y  read from file:
     /afs/slac.stanford.edu/u/if/mamunm/psp/gbrv1.5pbe/Y.UPF
     MD5 check sum: d034151ed7554c50b6e82763ed42c788
     Pseudo is Ultrasoft + core correction, Zval = 11.0
     Generated by new atomic code, or converted to UPF format
     Using radial grid of  885 points,  6 beta functions with:
                l(1) =   0
                l(2) =   0
                l(3) =   1
                l(4) =   1
                l(5) =   2
                l(6) =   2
     Q(r) pseudized with  8 coefficients,  rinner =    1.200   1.200   1.200
                                                       1.200   1.200

     vdW kernel table read from file vdW_kernel_table
     MD5 check sum: 095c7af220d748ca6e76c0b4c6cfb241

     atomic species   valence    mass     pseudopotential
        Ni1           18.00    58.69340     Ni( 1.00)
        Y1            11.00    88.90584     Y ( 1.00)

     Starting magnetic structure
     atomic species   magnetization
        Ni1          0.111
        Y1           0.182

     No symmetry found

   Cartesian axes

     site n.     atom                  positions (alat units)
         1           Ni1 tau(   1) = (   0.0000000   0.0000000  10.0000000  )
         2           Ni1 tau(   2) = (  -1.3731905   2.3784357  10.0000000  )
         3           Ni1 tau(   3) = (   1.3731905   2.3784357  10.0000000  )
         4           Y1  tau(   4) = (   2.7463810   0.0000000  10.0000000  )
         5           Ni1 tau(   5) = (   2.7463810   1.5856238  12.2424107  )
         6           Ni1 tau(   6) = (   1.3731905   3.9640595  12.2424107  )
         7           Ni1 tau(   7) = (  -1.3731905   3.9640595  12.2424107  )
         8           Y1  tau(   8) = (   0.0000000   1.5856238  12.2424107  )
         9           Ni1 tau(   9) = (  -0.0000000   3.1712476  14.4848213  )
        10           Ni1 tau(  10) = (   1.3731905   0.7928119  14.4848213  )
        11           Ni1 tau(  11) = (   4.1195714   0.7928119  14.4848213  )
        12           Y1  tau(  12) = (   2.7463810   3.1712476  14.4848213  )

     number of k points=    40  Fermi-Dirac smearing, width (Ry)=  0.0110
                       cart. coord. in units 2pi/alat
        k(    1) = (   0.0000000   0.0000000   0.0000000), wk =   0.0277778
        k(    2) = (   0.0000000   0.0350370   0.0000000), wk =   0.0555556
        k(    3) = (   0.0000000   0.0700741   0.0000000), wk =   0.0555556
        k(    4) = (   0.0000000  -0.1051111   0.0000000), wk =   0.0277778
        k(    5) = (   0.0303430   0.0175185   0.0000000), wk =   0.0555556
        k(    6) = (   0.0303430   0.0525556   0.0000000), wk =   0.0555556
        k(    7) = (   0.0303430   0.0875926   0.0000000), wk =   0.0555556
        k(    8) = (   0.0303430  -0.0875926   0.0000000), wk =   0.0555556
        k(    9) = (   0.0303430  -0.0525556   0.0000000), wk =   0.0555556
        k(   10) = (   0.0303430  -0.0175185   0.0000000), wk =   0.0555556
        k(   11) = (   0.0606859   0.0350370   0.0000000), wk =   0.0555556
        k(   12) = (   0.0606859   0.0700741   0.0000000), wk =   0.0555556
        k(   13) = (   0.0606859   0.1051111   0.0000000), wk =   0.0555556
        k(   14) = (   0.0606859  -0.0700741   0.0000000), wk =   0.0555556
        k(   15) = (   0.0606859  -0.0350370   0.0000000), wk =   0.0555556
        k(   16) = (   0.0606859  -0.0000000   0.0000000), wk =   0.0555556
        k(   17) = (  -0.0910289  -0.0525556   0.0000000), wk =   0.0277778
        k(   18) = (  -0.0910289  -0.0175185   0.0000000), wk =   0.0555556
        k(   19) = (  -0.0910289   0.0175185   0.0000000), wk =   0.0555556
        k(   20) = (  -0.0910289  -0.1576667   0.0000000), wk =   0.0277778
        k(   21) = (   0.0000000   0.0000000   0.0000000), wk =   0.0277778
        k(   22) = (   0.0000000   0.0350370   0.0000000), wk =   0.0555556
        k(   23) = (   0.0000000   0.0700741   0.0000000), wk =   0.0555556
        k(   24) = (   0.0000000  -0.1051111   0.0000000), wk =   0.0277778
        k(   25) = (   0.0303430   0.0175185   0.0000000), wk =   0.0555556
        k(   26) = (   0.0303430   0.0525556   0.0000000), wk =   0.0555556
        k(   27) = (   0.0303430   0.0875926   0.0000000), wk =   0.0555556
        k(   28) = (   0.0303430  -0.0875926   0.0000000), wk =   0.0555556
        k(   29) = (   0.0303430  -0.0525556   0.0000000), wk =   0.0555556
        k(   30) = (   0.0303430  -0.0175185   0.0000000), wk =   0.0555556
        k(   31) = (   0.0606859   0.0350370   0.0000000), wk =   0.0555556
        k(   32) = (   0.0606859   0.0700741   0.0000000), wk =   0.0555556
        k(   33) = (   0.0606859   0.1051111   0.0000000), wk =   0.0555556
        k(   34) = (   0.0606859  -0.0700741   0.0000000), wk =   0.0555556
        k(   35) = (   0.0606859  -0.0350370   0.0000000), wk =   0.0555556
        k(   36) = (   0.0606859  -0.0000000   0.0000000), wk =   0.0555556
        k(   37) = (  -0.0910289  -0.0525556   0.0000000), wk =   0.0277778
        k(   38) = (  -0.0910289  -0.0175185   0.0000000), wk =   0.0555556
        k(   39) = (  -0.0910289   0.0175185   0.0000000), wk =   0.0555556
        k(   40) = (  -0.0910289  -0.1576667   0.0000000), wk =   0.0277778

     Largest allocated arrays     est. size (Mb)     dimensions
     Largest temporary arrays     est. size (Mb)     dimensions

     Check: negative/imaginary core charge=   -0.000002    0.000000

     Initial potential from superposition of free atoms
     Check: negative starting charge=(component1):   -0.000362
     Check: negative starting charge=(component2):   -0.000282

     starting charge  176.98659, renormalised to  195.00000

     negative rho (up, down):  3.986E-04 3.112E-04

     *
     * You are using vdW-DF for exchange-correlation in this calculation.
     * Please cite the following three references that made this development
     * possible:
     *
     *   M. Dion, H. Rydberg, E. Schroder, D. C. Langreth, and
     *   B. I. Lundqvist, Phys. Rev. Lett. 92, 246401 (2004).
     *
     *   T. Thonhauser, V. R. Cooper, S. Li, A. Puzder, P. Hyldgaard, and
     *   D. C. Langreth, Phys. Rev. B 76, 125112 (2007).
     *
     *   G. Roman-Perez and J. M. Soler, Phys. Rev. Lett. 103, 096102 (2009).
     *
     *
     * If you are using vdW-DF2, please also cite:
     *
     *   K. Lee, E. D. Murray, L. Kong, B. I. Lundqvist, and
     *   D. C. Langreth, Phys. Rev. B 82, 081101(R) (2010).
     *
     *
     * If you are calculating the stress with vdW-DF, please also cite:
     *
     *   R. Sabatini, E. Kucukbenli, B. Kolb, T. Thonhauser, and
     *   S. de Gironcoli, J. Phys.: Condens. Matter 24, 424209 (2012).
     *

     Carrying out vdW-DF run using the following parameters:

     Nqs =      20    Nr_points =    1024   r_max =   100.000
     q_mesh =
               0.00001000     0.04494208     0.09755937     0.15916263
               0.23128650     0.31572767     0.41458969     0.53033537
               0.66584808     0.82450364     1.01025438     1.22772762
               1.48234092     1.78043706     2.12944203     2.53805004
               3.01644009     3.57652955     4.23227104     5.00000000

     Gradients computed in reciprocal space

     Adding external electric field

     Computed dipole along edir(3) :
        Dipole                0.0000 Ry au,          0.0000 Debye
        Dipole field          0.0000 Ry au

        Potential amp.       -0.0000 Ry
        Total length         45.1129 bohr

[...]

     Starting wfc are  156 randomized atomic wfcs

     Self-consistent Calculation

     iteration #  1     ecut=    36.75 Ry     beta=0.10
     Davidson diagonalization with overlap
     ethr =  1.00E-02,  avg # of iterations =  8.4

[...]

     Magnetic moment per site:
     atom:    1    charge:    9.7757    magn:    1.0358    constr:    0.0000
     atom:    2    charge:    9.7757    magn:    1.0358    constr:    0.0000
     atom:    3    charge:    9.7756    magn:    1.0358    constr:    0.0000
     atom:    4    charge:    0.9533    magn:    0.1574    constr:    0.0000
     atom:    5    charge:    9.7731    magn:    1.0358    constr:    0.0000
     atom:    6    charge:    9.7731    magn:    1.0358    constr:    0.0000
     atom:    7    charge:    9.7731    magn:    1.0358    constr:    0.0000
     atom:    8    charge:    0.9546    magn:    0.1573    constr:    0.0000
[...]
        k(    4) = (   0.0000000  -0.1051111   0.0000000), wk =   0.0277778
        k(    5) = (   0.0303430   0.0175185   0.0000000), wk =   0.0555556
        k(    6) = (   0.0303430   0.0525556   0.0000000), wk =   0.0555556
        k(    7) = (   0.0303430   0.0875926   0.0000000), wk =   0.0555556
        k(    8) = (   0.0303430  -0.0875926   0.0000000), wk =   0.0555556
        k(    9) = (   0.0303430  -0.0525556   0.0000000), wk =   0.0555556
        k(   10) = (   0.0303430  -0.0175185   0.0000000), wk =   0.0555556
        k(   11) = (   0.0606859   0.0350370   0.0000000), wk =   0.0555556
        k(   12) = (   0.0606859   0.0700741   0.0000000), wk =   0.0555556
        k(   13) = (   0.0606859   0.1051111   0.0000000), wk =   0.0555556
        k(   14) = (   0.0606859  -0.0700741   0.0000000), wk =   0.0555556
        k(   15) = (   0.0606859  -0.0350370   0.0000000), wk =   0.0555556
        k(   16) = (   0.0606859  -0.0000000   0.0000000), wk =   0.0555556
        k(   17) = (  -0.0910289  -0.0525556   0.0000000), wk =   0.0277778
        k(   18) = (  -0.0910289  -0.0175185   0.0000000), wk =   0.0555556
        k(   19) = (  -0.0910289   0.0175185   0.0000000), wk =   0.0555556
        k(   20) = (  -0.0910289  -0.1576667   0.0000000), wk =   0.0277778
        k(   21) = (   0.0000000   0.0000000   0.0000000), wk =   0.0277778
        k(   22) = (   0.0000000   0.0350370   0.0000000), wk =   0.0555556
        k(   23) = (   0.0000000   0.0700741   0.0000000), wk =   0.0555556
        k(   24) = (   0.0000000  -0.1051111   0.0000000), wk =   0.0277778
        k(   25) = (   0.0303430   0.0175185   0.0000000), wk =   0.0555556
        k(   26) = (   0.0303430   0.0525556   0.0000000), wk =   0.0555556
        k(   27) = (   0.0303430   0.0875926   0.0000000), wk =   0.0555556
        k(   28) = (   0.0303430  -0.0875926   0.0000000), wk =   0.0555556
        k(   29) = (   0.0303430  -0.0525556   0.0000000), wk =   0.0555556
        k(   30) = (   0.0303430  -0.0175185   0.0000000), wk =   0.0555556
        k(   31) = (   0.0606859   0.0350370   0.0000000), wk =   0.0555556
        k(   32) = (   0.0606859   0.0700741   0.0000000), wk =   0.0555556
        k(   33) = (   0.0606859   0.1051111   0.0000000), wk =   0.0555556
        k(   34) = (   0.0606859  -0.0700741   0.0000000), wk =   0.0555556
        k(   35) = (   0.0606859  -0.0350370   0.0000000), wk =   0.0555556
        k(   36) = (   0.0606859  -0.0000000   0.0000000), wk =   0.0555556
        k(   37) = (  -0.0910289  -0.0525556   0.0000000), wk =   0.0277778
        k(   38) = (  -0.0910289  -0.0175185   0.0000000), wk =   0.0555556
        k(   39) = (  -0.0910289   0.0175185   0.0000000), wk =   0.0555556
        k(   40) = (  -0.0910289  -0.1576667   0.0000000), wk =   0.0277778

     Largest allocated arrays     est. size (Mb)     dimensions
     Largest temporary arrays     est. size (Mb)     dimensions

     Check: negative/imaginary core charge=   -0.000002    0.000000

     Initial potential from superposition of free atoms
     Check: negative starting charge=(component1):   -0.000354
     Check: negative starting charge=(component2):   -0.000276

     starting charge  176.98659, renormalised to  195.00000

[...]

     *
     * You are using vdW-DF for exchange-correlation in this calculation.
     * Please cite the following three references that made this development
     * possible:
     *
     *   M. Dion, H. Rydberg, E. Schroder, D. C. Langreth, and
     *   B. I. Lundqvist, Phys. Rev. Lett. 92, 246401 (2004).
     *
     *   T. Thonhauser, V. R. Cooper, S. Li, A. Puzder, P. Hyldgaard, and
     *   D. C. Langreth, Phys. Rev. B 76, 125112 (2007).
     *
     *   G. Roman-Perez and J. M. Soler, Phys. Rev. Lett. 103, 096102 (2009).
     *
     *
     * If you are using vdW-DF2, please also cite:
     *
     *   K. Lee, E. D. Murray, L. Kong, B. I. Lundqvist, and
     *   D. C. Langreth, Phys. Rev. B 82, 081101(R) (2010).
     *
     *
     * If you are calculating the stress with vdW-DF, please also cite:
     *
     *   R. Sabatini, E. Kucukbenli, B. Kolb, T. Thonhauser, and
     *   S. de Gironcoli, J. Phys.: Condens. Matter 24, 424209 (2012).
     *

     Carrying out vdW-DF run using the following parameters:

     Nqs =      20    Nr_points =    1024   r_max =   100.000
     q_mesh =
               0.00001000     0.04494208     0.09755937     0.15916263
               0.23128650     0.31572767     0.41458969     0.53033537
               0.66584808     0.82450364     1.01025438     1.22772762
               1.48234092     1.78043706     2.12944203     2.53805004
               3.01644009     3.57652955     4.23227104     5.00000000

     Gradients computed in reciprocal space

[...]

     Starting wfc are  156 randomized atomic wfcs

     Self-consistent Calculation

[...]

     total energy              =   -3381.05431299 Ry
     Harris-Foulkes estimate   =   -3381.05431171 Ry
     estimated scf accuracy    <       0.00000107 Ry

[...]

     iteration # 48     ecut=    36.75 Ry     beta=0.10
     Davidson diagonalization with overlap
     ethr =  5.31E-10,  avg # of iterations =  1.2

[...]

     negative rho (up, down):  7.332E-04 7.327E-04

[...]

     Adding external electric field

     Computed dipole along edir(3) :
        Dipole                0.1432 Ry au,          0.3640 Debye
        Dipole field          0.0004 Ry au

        Potential amp.       -0.0376 Ry
        Total length         45.1129 bohr

     Magnetic moment per site:
     atom:    1    charge:    9.3501    magn:    0.0030    constr:    0.0000
     atom:    2    charge:    9.3500    magn:    0.0030    constr:    0.0000
     atom:    3    charge:    9.3501    magn:    0.0029    constr:    0.0000
     atom:    4    charge:    0.8656    magn:   -0.0000    constr:    0.0000
     atom:    5    charge:    9.3381    magn:    0.0011    constr:    0.0000
     atom:    6    charge:    9.3382    magn:    0.0011    constr:    0.0000
     atom:    7    charge:    9.3381    magn:    0.0011    constr:    0.0000
     atom:    8    charge:    0.8667    magn:   -0.0000    constr:    0.0000
     atom:    9    charge:    9.3545    magn:    0.0002    constr:    0.0000
     atom:   10    charge:    9.3545    magn:    0.0002    constr:    0.0000
     atom:   11    charge:    9.3546    magn:    0.0002    constr:    0.0000
     atom:   12    charge:    0.8642    magn:    0.0000    constr:    0.0000

     End of self-consistent calculation

 ------ SPIN UP ------------

[...]

 ------ SPIN DOWN ----------

[...]

          k = 0.0607-0.0000 0.0000 ( 16262 PWs)   bands (ev):

[...]

          k =-0.0910-0.1577 0.0000 ( 16188 PWs)   bands (ev):

  -101.6907-101.6895-101.6880-101.5655-101.5594-101.5590-101.4476-101.4462
  -101.4450 -62.1255 -62.1211 -62.1176 -62.0870 -62.0800 -62.0751 -62.0556
   -62.0474 -62.0389 -62.0269 -62.0192 -62.0088 -61.9963 -61.9480 -61.9406
   -61.9323 -61.9253 -61.9205 -61.8818 -61.8774 -61.8766 -61.8534 -61.8397
   -61.8244 -61.7634 -61.7618 -61.7605 -41.6232 -41.2286 -40.3972 -21.6940
   -21.5851 -21.5723 -21.3225 -21.2552 -21.2389 -20.5430 -20.5263 -20.4985
    -3.6150  -3.3653  -2.3091  -1.9461  -1.6442  -1.5877  -1.4379  -1.4356
    -1.2559  -1.0819  -1.0388  -0.9635  -0.8843  -0.8409  -0.8350  -0.7200
    -0.6527  -0.5950  -0.5717  -0.5270  -0.5192  -0.4103  -0.3094  -0.2716
    -0.2447  -0.1997  -0.1420  -0.1125  -0.0737  -0.0597  -0.0056   0.0177
     0.0550   0.0800   0.1382   0.1886   0.2244   0.2494   0.2617   0.3204
     0.3252   0.4041   0.4463   0.4919   0.6193   0.6871   0.7194   0.7429
     0.8979   1.0026   1.1761   1.5392   1.7078   2.3440   2.5009   2.6519
     3.2033   3.2473   3.3246   3.4860   3.6319   3.6353   3.7619   4.0002
     4.0414   4.8820   5.6957   5.8017   6.0702   6.1679   6.3959   6.4830
     6.6942   6.8495   6.9778   7.2179   7.2856   7.3121   7.4118

     the Fermi energy is     1.1576 ev

!    total energy              =   -3381.05431735 Ry
     Harris-Foulkes estimate   =   -3381.05431454 Ry
     estimated scf accuracy    <       0.00000047 Ry

     The total energy is the sum of the following terms:

     one-electron contribution =  -23888.42020419 Ry
     hartree contribution      =   11957.31269264 Ry
     xc contribution           =    -416.26515321 Ry
     ewald contribution        =    8966.39571366 Ry
     electric field correction =       0.00005969 Ry
     smearing contrib. (-TS)   =      -0.07742594 Ry

     total magnetization       =     0.02 Bohr mag/cell
     absolute magnetization    =     0.03 Bohr mag/cell

     convergence has been achieved in  48 iterations

 BEEF-vdW xc energy contributions
           1 :   -366.035139306138
           2 :    331.116872661636
           3 :   -271.967861477337
           4 :    205.036073657540
           5 :   -145.599867426716
           6 :    102.383897897370
           7 :   -76.0390732138309
           8 :    61.4687023107847
           9 :   -52.1118346460397
          10 :    43.6297625296805
          11 :   -35.2439373547865
          12 :    28.5608955243249
          13 :   -25.2124967935277
          14 :    25.0837767842020
          15 :   -26.2016729535193
          16 :    26.0547242460561
          17 :   -23.2158902354672
          18 :    18.1101787219667
          19 :   -12.5249382877507
          20 :    8.33635137092278
          21 :   -6.38640864133873
          22 :    6.20263507286387
          23 :   -6.60643716696370
          24 :    6.64718235625423
          25 :   -6.17761345568204
          26 :    5.72958150608952
          27 :   -5.89745993380166
          28 :    6.74869464540262
          29 :   -7.70802175250697
          30 :    7.96405967559690
          31 :   -31.2662321942264
          32 :   -21.6961390322528

     Forces acting on atoms (Ry/au):

     negative rho (up, down):  7.332E-04 7.327E-04
     atom    1 type  1   force =     0.00002138   -0.00862010    0.01405379
     atom    2 type  1   force =    -0.00746488    0.00431832    0.01405954
     atom    3 type  1   force =     0.00747449    0.00429899    0.01404947
     atom    4 type  2   force =     0.00001271   -0.00000192   -0.03057154
     atom    5 type  1   force =    -0.00000808    0.01285705    0.00163415
     atom    6 type  1   force =     0.01112830   -0.00644299    0.00163466
     atom    7 type  1   force =    -0.01112406   -0.00643058    0.00164717
     atom    8 type  2   force =    -0.00000567   -0.00001279   -0.01392563
     atom    9 type  1   force =    -0.00002625   -0.00030641   -0.00072697
     atom   10 type  1   force =    -0.00026013    0.00015709   -0.00074837
     atom   11 type  1   force =     0.00025643    0.00018524   -0.00073149
     atom   12 type  2   force =    -0.00000423   -0.00000191   -0.00037478

     Total force =     0.049497     Total SCF correction =     0.000911

     entering subroutine stress ...

     negative rho (up, down):  7.332E-04 7.327E-04
          total   stress  (Ry/bohr**3)                   (kbar)     P=  -48.85
  -0.00035358   0.00000000   0.00000001        -52.01      0.00      0.00
   0.00000000  -0.00035356   0.00000001          0.00    -52.01      0.00
   0.00000001   0.00000001  -0.00028912          0.00      0.00    -42.53

 !ASE

     Writing output data file calc.save

     General routines

     Parallel routines

   This run was terminated on:  18:34: 4  27Dec2018

   JOB DONE.
Job  /afs/slac/g/suncat/bin/suncat-tsmpirun -x LD_LIBRARY_PATH -wdir /scratch/qe110298_pNHnk pw.x -in pw.inp

TID   HOST_NAME   COMMAND_LINE            STATUS            TERMINATION_TIME
00000 suncat0163 pw.x -in pw.inp   Done                     12/27/2018 18:34:04
00001 suncat0163 pw.x -in pw.inp   Done                     12/27/2018 18:34:04
00002 suncat0163 pw.x -in pw.inp   Done                     12/27/2018 18:34:04
00003 suncat0163 pw.x -in pw.inp   Done                     12/27/2018 18:34:04
00004 suncat0163 pw.x -in pw.inp   Done                     12/27/2018 18:34:04
00005 suncat0163 pw.x -in pw.inp   Done                     12/27/2018 18:34:04
00006 suncat0163 pw.x -in pw.inp   Done                     12/27/2018 18:34:04
00007 suncat0163 pw.x -in pw.inp   Done                     12/27/2018 18:34:04
00008 suncat0162 pw.x -in pw.inp   Done                     12/27/2018 18:34:04
00009 suncat0162 pw.x -in pw.inp   Done                     12/27/2018 18:34:04
00010 suncat0162 pw.x -in pw.inp   Done                     12/27/2018 18:34:04
00011 suncat0162 pw.x -in pw.inp   Done                     12/27/2018 18:34:04
00012 suncat0162 pw.x -in pw.inp   Done                     12/27/2018 18:34:04
00013 suncat0162 pw.x -in pw.inp   Done                     12/27/2018 18:34:04
00014 suncat0162 pw.x -in pw.inp   Done                     12/27/2018 18:34:04
00015 suncat0162 pw.x -in pw.inp   Done                     12/27/2018 18:34:04
00016 suncat0145 pw.x -in pw.inp   Done                     12/27/2018 18:34:04
00017 suncat0145 pw.x -in pw.inp   Done                     12/27/2018 18:34:04
00018 suncat0145 pw.x -in pw.inp   Done                     12/27/2018 18:34:04
00019 suncat0145 pw.x -in pw.inp   Done                     12/27/2018 18:34:04
00020 suncat0145 pw.x -in pw.inp   Done                     12/27/2018 18:34:04
00021 suncat0145 pw.x -in pw.inp   Done                     12/27/2018 18:34:04
00022 suncat0145 pw.x -in pw.inp   Done                     12/27/2018 18:34:04
00023 suncat0145 pw.x -in pw.inp   Done                     12/27/2018 18:34:04
00024 suncat0144 pw.x -in pw.inp   Done                     12/27/2018 18:34:04
00025 suncat0144 pw.x -in pw.inp   Done                     12/27/2018 18:34:04
00026 suncat0144 pw.x -in pw.inp   Done                     12/27/2018 18:34:04
00027 suncat0144 pw.x -in pw.inp   Done                     12/27/2018 18:34:04
00028 suncat0144 pw.x -in pw.inp   Done                     12/27/2018 18:34:04
00029 suncat0144 pw.x -in pw.inp   Done                     12/27/2018 18:34:04
00030 suncat0144 pw.x -in pw.inp   Done                     12/27/2018 18:34:04
00031 suncat0144 pw.x -in pw.inp   Done                     12/27/2018 18:34:04
00032 suncat0133 pw.x -in pw.inp   Done                     12/27/2018 18:34:04
00033 suncat0133 pw.x -in pw.inp   Done                     12/27/2018 18:34:04
00034 suncat0133 pw.x -in pw.inp   Done                     12/27/2018 18:34:04
00035 suncat0133 pw.x -in pw.inp   Done                     12/27/2018 18:34:04
00036 suncat0133 pw.x -in pw.inp   Done                     12/27/2018 18:34:04
00037 suncat0133 pw.x -in pw.inp   Done                     12/27/2018 18:34:04
00038 suncat0133 pw.x -in pw.inp   Done                     12/27/2018 18:34:04
00039 suncat0133 pw.x -in pw.inp   Done                     12/27/2018 18:34:04
00040 suncat0132 pw.x -in pw.inp   Done                     12/27/2018 18:34:04
00041 suncat0132 pw.x -in pw.inp   Done                     12/27/2018 18:34:04
00042 suncat0132 pw.x -in pw.inp   Done                     12/27/2018 18:34:04
00043 suncat0132 pw.x -in pw.inp   Done                     12/27/2018 18:34:04
00044 suncat0132 pw.x -in pw.inp   Done                     12/27/2018 18:34:04
00045 suncat0132 pw.x -in pw.inp   Done                     12/27/2018 18:34:04
00046 suncat0132 pw.x -in pw.inp   Done                     12/27/2018 18:34:04
00047 suncat0132 pw.x -in pw.inp   Done                     12/27/2018 18:34:04
00048 suncat0131 pw.x -in pw.inp   Done                     12/27/2018 18:34:04
00049 suncat0131 pw.x -in pw.inp   Done                     12/27/2018 18:34:04
00050 suncat0131 pw.x -in pw.inp   Done                     12/27/2018 18:34:04
00051 suncat0131 pw.x -in pw.inp   Done                     12/27/2018 18:34:04
00052 suncat0131 pw.x -in pw.inp   Done                     12/27/2018 18:34:04
00053 suncat0131 pw.x -in pw.inp   Done                     12/27/2018 18:34:04
00054 suncat0131 pw.x -in pw.inp   Done                     12/27/2018 18:34:04
00055 suncat0131 pw.x -in pw.inp   Done                     12/27/2018 18:34:04
00056 suncat0130 pw.x -in pw.inp   Done                     12/27/2018 18:34:04
00057 suncat0130 pw.x -in pw.inp   Done                     12/27/2018 18:34:04
00058 suncat0130 pw.x -in pw.inp   Done                     12/27/2018 18:34:04
00059 suncat0130 pw.x -in pw.inp   Done                     12/27/2018 18:34:04
00060 suncat0130 pw.x -in pw.inp   Done                     12/27/2018 18:34:04
00061 suncat0130 pw.x -in pw.inp   Done                     12/27/2018 18:34:04
00062 suncat0130 pw.x -in pw.inp   Done                     12/27/2018 18:34:04
00063 suncat0130 pw.x -in pw.inp   Done                     12/27/2018 18:34:04