     Program PWSCF v.5.1rc2 (svn rev. 11289) starts on  2Jan2019 at  9: 4:15

     Current dimensions of program PWSCF are:
     Max number of different atomic species (ntypx) = 10
     Max number of k-points (npk) =  40000
     Max angular momentum in pseudopotentials (lmaxx) =  3
     Presently stress not available with electric field

     IMPORTANT: XC functional enforced from input :
     Exchange-correlation      = BEEF-VDW ( 1  4 27 13 2)
     Any further DFT definition will be discarded
     Please, verify this is what you really want

     Subspace diagonalization in iterative solution of the eigenvalue problem:
     a serial algorithm will be used

     bravais-lattice index     =            0
     lattice parameter (alat)  =       1.8897  a.u.
     unit-cell volume          =    4695.2184 (a.u.)^3
     number of atoms/cell      =           12
     number of atomic types    =            2
     number of electrons       =       168.00
     number of Kohn-Sham states=          114
     kinetic-energy cutoff     =      36.7493  Ry
     charge density cutoff     =     367.4932  Ry
     convergence threshold     =      1.0E-06
     mixing beta               =       0.1000
     number of iterations used =           10  plain     mixing
     Exchange-correlation      = BEEF-VDW ( 1  4 27 13 2)
     nstep                     =           50

     celldm(1)=   1.889726  celldm(2)=   0.000000  celldm(3)=   0.000000
     celldm(4)=   0.000000  celldm(5)=   0.000000  celldm(6)=   0.000000

     crystal axes: (cart. coord. in units of alat)
               a(1) = (   5.707746   0.000000   0.000000 )
               a(2) = (  -2.853873   4.943053   0.000000 )
               a(3) = (   0.000000   0.000000  24.660355 )

     reciprocal axes: (cart. coord. in units 2 pi/alat)
               b(1) = (  0.175201  0.101152  0.000000 )
               b(2) = (  0.000000  0.202304  0.000000 )
               b(3) = (  0.000000  0.000000  0.040551 )

     PseudoPot. # 1 for W  read from file:
     /afs/slac.stanford.edu/u/if/mamunm/psp/gbrv1.5pbe/W.UPF
     MD5 check sum: 9c083fa34c2a2ea0f02f1f893e16e1c8
     Pseudo is Ultrasoft + core correction, Zval = 14.0
     Generated by new atomic code, or converted to UPF format
     Using radial grid of  923 points,  8 beta functions with:
                l(1) =   0
                l(2) =   0
                l(3) =   0
                l(4) =   1
                l(5) =   1
                l(6) =   2
                l(7) =   2
                l(8) =   3
     Q(r) pseudized with  6 coefficients,  rinner =    1.350   1.350   1.350
                                                       1.350   1.350   1.350
                                                       1.350

     PseudoPot. # 2 for Mo read from file:
     /afs/slac.stanford.edu/u/if/mamunm/psp/gbrv1.5pbe/Mo.UPF
     MD5 check sum: 30c4dcd161f5d35cd49bb5239c51a633
     Pseudo is Ultrasoft + core correction, Zval = 14.0
     Generated by new atomic code, or converted to UPF format
     Using radial grid of  889 points,  6 beta functions with:
                l(1) =   0
                l(2) =   0
                l(3) =   1
                l(4) =   1
                l(5) =   2
                l(6) =   2
     Q(r) pseudized with  6 coefficients,  rinner =    1.000   1.000   1.000
                                                       1.000   1.000

     vdW kernel table read from file vdW_kernel_table
     MD5 check sum: 095c7af220d748ca6e76c0b4c6cfb241

     atomic species   valence    mass     pseudopotential
        W1            14.00   183.84000     W ( 1.00)
        Mo1           14.00    95.95000     Mo( 1.00)

     No symmetry found

   Cartesian axes

     site n.     atom                  positions (alat units)
         1           W1  tau(   1) = (   0.0000000   0.0000000  10.0000000  )
         2           W1  tau(   2) = (  -1.4269364   2.4715264  10.0000000  )
         3           W1  tau(   3) = (   1.4269364   2.4715264  10.0000000  )
         4           Mo1 tau(   4) = (   2.8538729   0.0000000  10.0000000  )
         5           W1  tau(   5) = (   2.8538729   1.6476843  12.3301774  )
         6           W1  tau(   6) = (   1.4269364   4.1192107  12.3301774  )
         7           W1  tau(   7) = (  -1.4269364   4.1192107  12.3301774  )
         8           Mo1 tau(   8) = (   0.0000000   1.6476843  12.3301774  )
         9           W1  tau(   9) = (  -0.0000000   3.2953685  14.6603549  )
        10           W1  tau(  10) = (   1.4269364   0.8238421  14.6603549  )
        11           W1  tau(  11) = (   4.2808093   0.8238421  14.6603549  )
        12           Mo1 tau(  12) = (   2.8538729   3.2953685  14.6603549  )

     number of k points=    20  Fermi-Dirac smearing, width (Ry)=  0.0110
                       cart. coord. in units 2pi/alat
        k(    1) = (   0.0000000   0.0000000   0.0000000), wk =   0.0555556
        k(    2) = (   0.0000000   0.0337174   0.0000000), wk =   0.1111111
        k(    3) = (   0.0000000   0.0674347   0.0000000), wk =   0.1111111
        k(    4) = (   0.0000000  -0.1011521   0.0000000), wk =   0.0555556
        k(    5) = (   0.0292001   0.0168587   0.0000000), wk =   0.1111111
        k(    6) = (   0.0292001   0.0505760   0.0000000), wk =   0.1111111
        k(    7) = (   0.0292001   0.0842934   0.0000000), wk =   0.1111111
        k(    8) = (   0.0292001  -0.0842934   0.0000000), wk =   0.1111111
        k(    9) = (   0.0292001  -0.0505760   0.0000000), wk =   0.1111111
        k(   10) = (   0.0292001  -0.0168587   0.0000000), wk =   0.1111111
        k(   11) = (   0.0584002   0.0337174   0.0000000), wk =   0.1111111
        k(   12) = (   0.0584002   0.0674347   0.0000000), wk =   0.1111111
        k(   13) = (   0.0584002   0.1011521   0.0000000), wk =   0.1111111
        k(   14) = (   0.0584002  -0.0674347   0.0000000), wk =   0.1111111
        k(   15) = (   0.0584002  -0.0337174   0.0000000), wk =   0.1111111
        k(   16) = (   0.0584002   0.0000000   0.0000000), wk =   0.1111111
        k(   17) = (  -0.0876003  -0.0505760   0.0000000), wk =   0.0555556
        k(   18) = (  -0.0876003  -0.0168587   0.0000000), wk =   0.1111111
        k(   19) = (  -0.0876003   0.0168587   0.0000000), wk =   0.1111111
        k(   20) = (  -0.0876003  -0.1517281   0.0000000), wk =   0.0555556

     Largest allocated arrays     est. size (Mb)     dimensions
     Largest temporary arrays     est. size (Mb)     dimensions

     Initial potential from superposition of free atoms
     Check: negative starting charge=   -0.571818

     starting charge  167.09375, renormalised to  168.00000

     negative rho (up, down):  5.749E-01 0.000E+00

     *
     * You are using vdW-DF for exchange-correlation in this calculation.
     * Please cite the following three references that made this development
     * possible:
     *
     *   M. Dion, H. Rydberg, E. Schroder, D. C. Langreth, and
     *   B. I. Lundqvist, Phys. Rev. Lett. 92, 246401 (2004).
     *
     *   T. Thonhauser, V. R. Cooper, S. Li, A. Puzder, P. Hyldgaard, and
     *   D. C. Langreth, Phys. Rev. B 76, 125112 (2007).
     *
     *   G. Roman-Perez and J. M. Soler, Phys. Rev. Lett. 103, 096102 (2009).
     *
     *
     * If you are using vdW-DF2, please also cite:
     *
     *   K. Lee, E. D. Murray, L. Kong, B. I. Lundqvist, and
     *   D. C. Langreth, Phys. Rev. B 82, 081101(R) (2010).
     *
     *
     * If you are calculating the stress with vdW-DF, please also cite:
     *
     *   R. Sabatini, E. Kucukbenli, B. Kolb, T. Thonhauser, and
     *   S. de Gironcoli, J. Phys.: Condens. Matter 24, 424209 (2012).
     *

     Carrying out vdW-DF run using the following parameters:

     Nqs =      20    Nr_points =    1024   r_max =   100.000
     q_mesh =
               0.00001000     0.04494208     0.09755937     0.15916263
               0.23128650     0.31572767     0.41458969     0.53033537
               0.66584808     0.82450364     1.01025438     1.22772762
               1.48234092     1.78043706     2.12944203     2.53805004
               3.01644009     3.57652955     4.23227104     5.00000000

     Gradients computed in reciprocal space

     Adding external electric field

     Computed dipole along edir(3) :
        Dipole               -0.0000 Ry au,         -0.0000 Debye
        Dipole field         -0.0000 Ry au

        Potential amp.        0.0000 Ry
        Total length         45.4363 bohr

     Starting wfc are  156 randomized atomic wfcs

     Self-consistent Calculation

     iteration #  1     ecut=    36.75 Ry     beta=0.10
     Davidson diagonalization with overlap
     ethr =  1.00E-02,  avg # of iterations =  2.0

[...]

     total energy              =   -1862.94937662 Ry
     Harris-Foulkes estimate   =   -1863.75099790 Ry
     estimated scf accuracy    <       4.63709919 Ry

[...]

     End of self-consistent calculation

          k = 0.0000 0.0000 0.0000 ( 17717 PWs)   bands (ev):

   -71.8969 -71.8552 -71.8414 -71.8366 -71.8366 -71.8052 -71.8052 -71.8008
   -71.8008 -58.6148 -58.5141 -58.5139 -36.4713 -36.2975 -36.2785 -36.2785
   -36.2769 -36.2324 -36.1928 -36.1928 -36.0651 -36.0651 -36.0441 -35.9540
   -35.9540 -35.9034 -35.9034 -35.8116 -35.7393 -35.7217 -35.7217 -35.6656
   -35.6259 -35.6258 -35.6109 -35.5293 -35.5293 -35.5262 -35.5262 -32.6197
   -32.6194 -32.6150 -32.6150 -32.5874 -32.4709 -32.4709 -32.4637 -32.4636
    -5.3771  -3.7010  -3.0438  -2.5647  -2.5647  -2.3751  -2.3572  -2.3572
    -1.9021  -1.5840  -1.5811  -1.5811  -1.5759  -1.5759  -1.3401  -0.1462
    -0.1127  -0.1127   0.9466   0.9883   0.9899   0.9899   1.3059   1.7110
     1.7110   1.9306   1.9306   1.9541   1.9986   2.0446   2.0446   2.0833
     2.0833   2.1703   2.2866   2.2866   2.9600   3.0805   3.2232   3.2232
     3.7948   3.7948   3.9980   4.2335   4.4094   4.4094   4.4372   4.4372
     4.9654   4.9654   5.0254   5.0692   5.0692   5.9003   5.9003   6.2120
     6.2223   6.2223   6.5205   6.6889   6.7181   6.7769   6.7770   6.8014
     6.8014   7.0491

[...]

          k =-0.0876-0.0506 0.0000 ( 17612 PWs)   bands (ev):

[...]

     the Fermi energy is     2.3153 ev

!    total energy              =   -1863.31305977 Ry
     Harris-Foulkes estimate   =   -1863.31306005 Ry
     estimated scf accuracy    <       0.00000030 Ry

     The total energy is the sum of the following terms:

     one-electron contribution =  -14643.13438378 Ry
     hartree contribution      =    7306.86572238 Ry
     xc contribution           =    -442.54286800 Ry
     ewald contribution        =    5915.59780703 Ry
     electric field correction =       0.00000000 Ry
     smearing contrib. (-TS)   =      -0.09933739 Ry

     convergence has been achieved in  16 iterations

 BEEF-vdW xc energy contributions
           1 :   -388.006762578596
           2 :    358.425372956910
           3 :   -306.493163228131
           4 :    243.919391322270
           5 :   -182.875216078806
           6 :    132.350234224623
           7 :   -96.1815034471745
           8 :    73.2013973480030
           9 :   -59.0941275499681
          10 :    48.9182673496037
          11 :   -39.1776082534416
[...]
     MD5 check sum: 9c083fa34c2a2ea0f02f1f893e16e1c8
     Pseudo is Ultrasoft + core correction, Zval = 14.0
     Generated by new atomic code, or converted to UPF format
     Using radial grid of  923 points,  8 beta functions with:
                l(1) =   0
                l(2) =   0
                l(3) =   0
                l(4) =   1
                l(5) =   1
                l(6) =   2
                l(7) =   2
                l(8) =   3
     Q(r) pseudized with  6 coefficients,  rinner =    1.350   1.350   1.350
                                                       1.350   1.350   1.350
                                                       1.350

     PseudoPot. # 2 for Mo read from file:
     /afs/slac.stanford.edu/u/if/mamunm/psp/gbrv1.5pbe/Mo.UPF
     MD5 check sum: 30c4dcd161f5d35cd49bb5239c51a633
     Pseudo is Ultrasoft + core correction, Zval = 14.0
     Generated by new atomic code, or converted to UPF format
     Using radial grid of  889 points,  6 beta functions with:
                l(1) =   0
                l(2) =   0
                l(3) =   1
                l(4) =   1
                l(5) =   2
                l(6) =   2
     Q(r) pseudized with  6 coefficients,  rinner =    1.000   1.000   1.000
                                                       1.000   1.000

     vdW kernel table read from file vdW_kernel_table
     MD5 check sum: 095c7af220d748ca6e76c0b4c6cfb241

     atomic species   valence    mass     pseudopotential
        W1            14.00   183.84000     W ( 1.00)
        Mo1           14.00    95.95000     Mo( 1.00)

     No symmetry found

   Cartesian axes

     site n.     atom                  positions (alat units)
         1           W1  tau(   1) = (   0.0000000   0.0000000  10.0000000  )
         2           W1  tau(   2) = (  -1.4269364   2.4715264  10.0000000  )
         3           W1  tau(   3) = (   1.4269364   2.4715264  10.0000000  )
         4           Mo1 tau(   4) = (   2.8538729   0.0000000  10.0000000  )
         5           W1  tau(   5) = (   2.8538729   1.6476843  12.3301774  )
         6           W1  tau(   6) = (   1.4269364   4.1192107  12.3301774  )
         7           W1  tau(   7) = (  -1.4269364   4.1192107  12.3301774  )
         8           Mo1 tau(   8) = (   0.0000000   1.6476843  12.3301774  )
         9           W1  tau(   9) = (   0.0000110   3.3030190  14.6455150  )
        10           W1  tau(  10) = (   1.4335667   0.8200251  14.6455168  )
        11           W1  tau(  11) = (   4.2741770   0.8200126  14.6455118  )
        12           Mo1 tau(  12) = (   2.8538730   3.2953680  14.6967862  )

     number of k points=    20  Fermi-Dirac smearing, width (Ry)=  0.0110
                       cart. coord. in units 2pi/alat
        k(    1) = (   0.0000000   0.0000000   0.0000000), wk =   0.0555556
        k(    2) = (   0.0000000   0.0337174   0.0000000), wk =   0.1111111
        k(    3) = (   0.0000000   0.0674347   0.0000000), wk =   0.1111111
        k(    4) = (   0.0000000  -0.1011521   0.0000000), wk =   0.0555556
        k(    5) = (   0.0292001   0.0168587   0.0000000), wk =   0.1111111
        k(    6) = (   0.0292001   0.0505760   0.0000000), wk =   0.1111111
        k(    7) = (   0.0292001   0.0842934   0.0000000), wk =   0.1111111
        k(    8) = (   0.0292001  -0.0842934   0.0000000), wk =   0.1111111
        k(    9) = (   0.0292001  -0.0505760   0.0000000), wk =   0.1111111
        k(   10) = (   0.0292001  -0.0168587   0.0000000), wk =   0.1111111
        k(   11) = (   0.0584002   0.0337174   0.0000000), wk =   0.1111111
        k(   12) = (   0.0584002   0.0674347   0.0000000), wk =   0.1111111
        k(   13) = (   0.0584002   0.1011521   0.0000000), wk =   0.1111111
        k(   14) = (   0.0584002  -0.0674347   0.0000000), wk =   0.1111111
        k(   15) = (   0.0584002  -0.0337174   0.0000000), wk =   0.1111111
        k(   16) = (   0.0584002   0.0000000   0.0000000), wk =   0.1111111
        k(   17) = (  -0.0876003  -0.0505760   0.0000000), wk =   0.0555556
        k(   18) = (  -0.0876003  -0.0168587   0.0000000), wk =   0.1111111
        k(   19) = (  -0.0876003   0.0168587   0.0000000), wk =   0.1111111
        k(   20) = (  -0.0876003  -0.1517281   0.0000000), wk =   0.0555556

     Largest allocated arrays     est. size (Mb)     dimensions
     Largest temporary arrays     est. size (Mb)     dimensions

     Initial potential from superposition of free atoms
     Check: negative starting charge=   -0.573243

     starting charge  167.09375, renormalised to  168.00000

[...]

     *
     * You are using vdW-DF for exchange-correlation in this calculation.
     * Please cite the following three references that made this development
     * possible:
     *
     *   M. Dion, H. Rydberg, E. Schroder, D. C. Langreth, and
     *   B. I. Lundqvist, Phys. Rev. Lett. 92, 246401 (2004).
     *
     *   T. Thonhauser, V. R. Cooper, S. Li, A. Puzder, P. Hyldgaard, and
     *   D. C. Langreth, Phys. Rev. B 76, 125112 (2007).
     *
     *   G. Roman-Perez and J. M. Soler, Phys. Rev. Lett. 103, 096102 (2009).
     *
     *
     * If you are using vdW-DF2, please also cite:
     *
     *   K. Lee, E. D. Murray, L. Kong, B. I. Lundqvist, and
     *   D. C. Langreth, Phys. Rev. B 82, 081101(R) (2010).
     *
     *
     * If you are calculating the stress with vdW-DF, please also cite:
     *
     *   R. Sabatini, E. Kucukbenli, B. Kolb, T. Thonhauser, and
     *   S. de Gironcoli, J. Phys.: Condens. Matter 24, 424209 (2012).
     *

     Carrying out vdW-DF run using the following parameters:

     Nqs =      20    Nr_points =    1024   r_max =   100.000
     q_mesh =
               0.00001000     0.04494208     0.09755937     0.15916263
               0.23128650     0.31572767     0.41458969     0.53033537
               0.66584808     0.82450364     1.01025438     1.22772762
               1.48234092     1.78043706     2.12944203     2.53805004
               3.01644009     3.57652955     4.23227104     5.00000000

     Gradients computed in reciprocal space

[...]

     Starting wfc are  156 randomized atomic wfcs

     Self-consistent Calculation

[...]

     total energy              =   -1863.32002490 Ry
     Harris-Foulkes estimate   =   -1863.32002546 Ry
     estimated scf accuracy    <       0.00000261 Ry

     iteration # 15     ecut=    36.75 Ry     beta=0.10
     Davidson diagonalization with overlap
     ethr =  1.55E-09,  avg # of iterations =  2.0

[...]

     negative rho (up, down):  5.968E-01 0.000E+00

     Adding external electric field

     Computed dipole along edir(3) :
        Dipole                0.0020 Ry au,          0.0051 Debye
        Dipole field          0.0000 Ry au

        Potential amp.       -0.0005 Ry
        Total length         45.4363 bohr

     End of self-consistent calculation

[...]

          k = 0.0584 0.0000 0.0000 ( 17679 PWs)   bands (ev):

[...]

          k =-0.0876-0.1517 0.0000 ( 17612 PWs)   bands (ev):

   -71.8714 -71.8569 -71.8326 -71.8291 -71.8178 -71.8152 -71.8051 -71.7999
   -71.7896 -58.6013 -58.5274 -58.5126 -36.3274 -36.2576 -36.1998 -36.1351
   -36.1244 -36.1099 -36.0941 -36.0888 -36.0164 -35.9864 -35.9628 -35.9195
   -35.8798 -35.8738 -35.8573 -35.8488 -35.8482 -35.8399 -35.8103 -35.7879
   -35.7780 -35.7143 -35.6741 -35.6717 -35.6332 -35.5468 -35.5410 -32.6516
   -32.6251 -32.6181 -32.6058 -32.6002 -32.5209 -32.5124 -32.4902 -32.4795
    -3.6494  -3.4112  -2.1513  -2.0341  -1.5629  -1.4922  -1.4240  -1.3885
    -1.2904  -1.0472  -0.5967  -0.5332  -0.3385  -0.2819  -0.2215  -0.1775
     0.1478   0.2622   0.2774   0.3236   0.5005   0.5632   0.9515   1.0061
     1.1946   1.2160   1.2849   1.3645   1.3722   1.3904   1.4281   1.4628
     1.7721   1.8160   1.8932   1.9120   1.9382   2.0059   2.5867   2.6409
     3.0270   3.1322   3.2714   3.3810   3.5022   3.5399   3.7196   3.8909
     3.9597   4.0478   4.0871   4.2359   4.4228   4.4446   4.4633   4.6630
     4.9810   5.2746   5.3582   5.3686   6.1878   6.2055   6.3252   6.3749
     6.4860   6.8623

     the Fermi energy is     2.3181 ev

!    total energy              =   -1863.32002546 Ry
     Harris-Foulkes estimate   =   -1863.32002517 Ry
     estimated scf accuracy    <       0.00000090 Ry

     The total energy is the sum of the following terms:

     one-electron contribution =  -14647.30473270 Ry
     hartree contribution      =    7308.97733412 Ry
     xc contribution           =    -442.55824897 Ry
     ewald contribution        =    5917.66521817 Ry
     electric field correction =       0.00000001 Ry
     smearing contrib. (-TS)   =      -0.09959609 Ry

     convergence has been achieved in  15 iterations

 BEEF-vdW xc energy contributions
           1 :   -388.211277140533
           2 :    358.631691502295
           3 :   -306.701788138226
           4 :    244.128819130150
           5 :   -183.082397189627
           6 :    132.552017656830
           7 :   -96.3766079989069
           8 :    73.3916135164782
           9 :   -59.2836326506624
          10 :    49.1111010441461
          11 :   -39.3752041820179
          12 :    28.9107686846600
          13 :   -18.5291842008992
          14 :    9.87833398054710
          15 :   -4.22352475795009
          16 :    1.71766313140159
          17 :   -1.39554486249671
          18 :    1.74703345360575
          19 :   -1.49175770382243
          20 :   0.137031627327133
          21 :    1.93222586150290
          22 :   -3.82396235434356
          23 :    4.72369080843163
          24 :   -4.36816376230269
          25 :    3.16928363735195
          26 :   -1.95814912586201
          27 :    1.51619858686530
          28 :   -2.16278909393139
          29 :    3.61430002669977
          30 :   -5.17352262470303
          31 :   -36.2874964230912
          32 :   -27.2851554675260

     Forces acting on atoms (Ry/au):

     negative rho (up, down):  5.968E-01 0.000E+00
     atom    1 type  1   force =     0.00000001   -0.00145057    0.00387324
     atom    2 type  1   force =    -0.00125605    0.00072698    0.00387312
     atom    3 type  1   force =     0.00125567    0.00072499    0.00387275
     atom    4 type  2   force =    -0.00000017   -0.00000036   -0.00814215
     atom    5 type  1   force =     0.00000175    0.00361929    0.00047333
     atom    6 type  1   force =     0.00313294   -0.00180973    0.00047143
     atom    7 type  1   force =    -0.00313295   -0.00181048    0.00047675
     atom    8 type  2   force =    -0.00000046    0.00000029   -0.00465820
     atom    9 type  1   force =    -0.00000286   -0.00170630   -0.00004917
     atom   10 type  1   force =    -0.00147891    0.00085055   -0.00004836
     atom   11 type  1   force =     0.00147841    0.00085414   -0.00004778
     atom   12 type  2   force =     0.00000264    0.00000120   -0.00009496

     Total force =     0.013712     Total SCF correction =     0.001352

     entering subroutine stress ...

     negative rho (up, down):  5.968E-01 0.000E+00
          total   stress  (Ry/bohr**3)                   (kbar)     P=  -46.14
  -0.00043878  -0.00000000   0.00000000        -64.55     -0.00      0.00
  -0.00000000  -0.00043878   0.00000000         -0.00    -64.55      0.00
   0.00000000   0.00000000  -0.00006342          0.00      0.00     -9.33

 !ASE

     Writing output data file calc.save

     General routines

     Parallel routines

   This run was terminated on:   9:43:47   2Jan2019

   JOB DONE.
Job  /afs/slac/g/suncat/bin/suncat-tsmpirun -x LD_LIBRARY_PATH -wdir /scratch/qe649364_C1OJX pw.x -in pw.inp

TID   HOST_NAME   COMMAND_LINE            STATUS            TERMINATION_TIME
00000 suncat0078 pw.x -in pw.inp   Done                     01/02/2019 09:43:48
00001 suncat0078 pw.x -in pw.inp   Done                     01/02/2019 09:43:48
00002 suncat0078 pw.x -in pw.inp   Done                     01/02/2019 09:43:48
00003 suncat0078 pw.x -in pw.inp   Done                     01/02/2019 09:43:48
00004 suncat0078 pw.x -in pw.inp   Done                     01/02/2019 09:43:48
00005 suncat0078 pw.x -in pw.inp   Done                     01/02/2019 09:43:48
00006 suncat0078 pw.x -in pw.inp   Done                     01/02/2019 09:43:48
00007 suncat0078 pw.x -in pw.inp   Done                     01/02/2019 09:43:48
00008 suncat0077 pw.x -in pw.inp   Done                     01/02/2019 09:43:48
00009 suncat0077 pw.x -in pw.inp   Done                     01/02/2019 09:43:48
00010 suncat0077 pw.x -in pw.inp   Done                     01/02/2019 09:43:48
00011 suncat0077 pw.x -in pw.inp   Done                     01/02/2019 09:43:48
00012 suncat0077 pw.x -in pw.inp   Done                     01/02/2019 09:43:48
00013 suncat0077 pw.x -in pw.inp   Done                     01/02/2019 09:43:48
00014 suncat0077 pw.x -in pw.inp   Done                     01/02/2019 09:43:48
00015 suncat0077 pw.x -in pw.inp   Done                     01/02/2019 09:43:48
00016 suncat0076 pw.x -in pw.inp   Done                     01/02/2019 09:43:48
00017 suncat0076 pw.x -in pw.inp   Done                     01/02/2019 09:43:48
00018 suncat0076 pw.x -in pw.inp   Done                     01/02/2019 09:43:48
00019 suncat0076 pw.x -in pw.inp   Done                     01/02/2019 09:43:48
00020 suncat0076 pw.x -in pw.inp   Done                     01/02/2019 09:43:48
00021 suncat0076 pw.x -in pw.inp   Done                     01/02/2019 09:43:48
00022 suncat0076 pw.x -in pw.inp   Done                     01/02/2019 09:43:48
00023 suncat0076 pw.x -in pw.inp   Done                     01/02/2019 09:43:48
00024 suncat0074 pw.x -in pw.inp   Done                     01/02/2019 09:43:48
00025 suncat0074 pw.x -in pw.inp   Done                     01/02/2019 09:43:48
00026 suncat0074 pw.x -in pw.inp   Done                     01/02/2019 09:43:48
00027 suncat0074 pw.x -in pw.inp   Done                     01/02/2019 09:43:48
00028 suncat0074 pw.x -in pw.inp   Done                     01/02/2019 09:43:48
00029 suncat0074 pw.x -in pw.inp   Done                     01/02/2019 09:43:48
00030 suncat0074 pw.x -in pw.inp   Done                     01/02/2019 09:43:48
00031 suncat0074 pw.x -in pw.inp   Done                     01/02/2019 09:43:48
00032 suncat0073 pw.x -in pw.inp   Done                     01/02/2019 09:43:48
00033 suncat0073 pw.x -in pw.inp   Done                     01/02/2019 09:43:48
00034 suncat0073 pw.x -in pw.inp   Done                     01/02/2019 09:43:48
00035 suncat0073 pw.x -in pw.inp   Done                     01/02/2019 09:43:48
00036 suncat0073 pw.x -in pw.inp   Done                     01/02/2019 09:43:48
00037 suncat0073 pw.x -in pw.inp   Done                     01/02/2019 09:43:48
00038 suncat0073 pw.x -in pw.inp   Done                     01/02/2019 09:43:48
00039 suncat0073 pw.x -in pw.inp   Done                     01/02/2019 09:43:48
00040 suncat0069 pw.x -in pw.inp   Done                     01/02/2019 09:43:48
00041 suncat0069 pw.x -in pw.inp   Done                     01/02/2019 09:43:48
00042 suncat0069 pw.x -in pw.inp   Done                     01/02/2019 09:43:48
00043 suncat0069 pw.x -in pw.inp   Done                     01/02/2019 09:43:48
00044 suncat0069 pw.x -in pw.inp   Done                     01/02/2019 09:43:48
00045 suncat0069 pw.x -in pw.inp   Done                     01/02/2019 09:43:48
00046 suncat0069 pw.x -in pw.inp   Done                     01/02/2019 09:43:48
00047 suncat0069 pw.x -in pw.inp   Done                     01/02/2019 09:43:48
00048 suncat0217 pw.x -in pw.inp   Done                     01/02/2019 09:43:48
00049 suncat0217 pw.x -in pw.inp   Done                     01/02/2019 09:43:48
00050 suncat0217 pw.x -in pw.inp   Done                     01/02/2019 09:43:48
00051 suncat0217 pw.x -in pw.inp   Done                     01/02/2019 09:43:48
00052 suncat0217 pw.x -in pw.inp   Done                     01/02/2019 09:43:48
00053 suncat0217 pw.x -in pw.inp   Done                     01/02/2019 09:43:48
00054 suncat0217 pw.x -in pw.inp   Done                     01/02/2019 09:43:48
00055 suncat0217 pw.x -in pw.inp   Done                     01/02/2019 09:43:48
00056 suncat0216 pw.x -in pw.inp   Done                     01/02/2019 09:43:48
00057 suncat0216 pw.x -in pw.inp   Done                     01/02/2019 09:43:48
00058 suncat0216 pw.x -in pw.inp   Done                     01/02/2019 09:43:48
00059 suncat0216 pw.x -in pw.inp   Done                     01/02/2019 09:43:48
00060 suncat0216 pw.x -in pw.inp   Done                     01/02/2019 09:43:48
00061 suncat0216 pw.x -in pw.inp   Done                     01/02/2019 09:43:48
00062 suncat0216 pw.x -in pw.inp   Done                     01/02/2019 09:43:48
00063 suncat0216 pw.x -in pw.inp   Done                     01/02/2019 09:43:48