     Program PWSCF v.5.1rc2 (svn rev. 11289) starts on 26Dec2018 at 14:30:41

     Current dimensions of program PWSCF are:
     Max number of different atomic species (ntypx) = 10
     Max number of k-points (npk) =  40000
     Max angular momentum in pseudopotentials (lmaxx) =  3
     Presently stress not available with electric field

     IMPORTANT: XC functional enforced from input :
     Exchange-correlation      = BEEF-VDW ( 1  4 27 13 2)
     Any further DFT definition will be discarded
     Please, verify this is what you really want

     Subspace diagonalization in iterative solution of the eigenvalue problem:
     a serial algorithm will be used

     bravais-lattice index     =            0
     lattice parameter (alat)  =       1.8897  a.u.
     unit-cell volume          =    5686.0155 (a.u.)^3
     number of atoms/cell      =           12
     number of atomic types    =            2
     number of electrons       =       156.00
     number of Kohn-Sham states=          108
     kinetic-energy cutoff     =      36.7493  Ry
     charge density cutoff     =     367.4932  Ry
     convergence threshold     =      1.0E-06
     mixing beta               =       0.1000
     number of iterations used =           10  plain     mixing
     Exchange-correlation      = BEEF-VDW ( 1  4 27 13 2)
     nstep                     =           50

     celldm(1)=   1.889726  celldm(2)=   0.000000  celldm(3)=   0.000000
     celldm(4)=   0.000000  celldm(5)=   0.000000  celldm(6)=   0.000000

     crystal axes: (cart. coord. in units of alat)
               a(1) = (   6.227786   0.000000   0.000000 )
               a(2) = (  -3.113893   5.393420   0.000000 )
               a(3) = (   0.000000   0.000000  25.084966 )

     reciprocal axes: (cart. coord. in units 2 pi/alat)
               b(1) = (  0.160571  0.092706  0.000000 )
               b(2) = (  0.000000  0.185411  0.000000 )
               b(3) = (  0.000000  0.000000  0.039865 )

     PseudoPot. # 1 for In read from file:
     /afs/slac.stanford.edu/u/if/mamunm/psp/gbrv1.5pbe/In.UPF
     MD5 check sum: 90777abd96fbb83f2e67db2a40c566b9
     Pseudo is Ultrasoft + core correction, Zval = 13.0
     Generated by new atomic code, or converted to UPF format
     Using radial grid of  889 points,  6 beta functions with:
                l(1) =   0
                l(2) =   0
                l(3) =   1
                l(4) =   1
                l(5) =   2
                l(6) =   2
     Q(r) pseudized with  6 coefficients,  rinner =    1.400   1.400   1.400
                                                       1.400   1.400

     PseudoPot. # 2 for V  read from file:
     /afs/slac.stanford.edu/u/if/mamunm/psp/gbrv1.5pbe/V.UPF
     MD5 check sum: 22b79981416ebb76fdaf5b1b8640f6fb
     Pseudo is Ultrasoft + core correction, Zval = 13.0
     Generated by new atomic code, or converted to UPF format
     Using radial grid of  853 points,  6 beta functions with:
                l(1) =   0
                l(2) =   0
                l(3) =   1
                l(4) =   1
                l(5) =   2
                l(6) =   2
     Q(r) pseudized with  8 coefficients,  rinner =    1.100   1.100   1.100
                                                       1.100   1.100

     vdW kernel table read from file vdW_kernel_table
     MD5 check sum: 095c7af220d748ca6e76c0b4c6cfb241

     atomic species   valence    mass     pseudopotential
        In1           13.00   114.81800     In( 1.00)
        V1            13.00    50.94150     V ( 1.00)

     No symmetry found

   Cartesian axes

     site n.     atom                  positions (alat units)
         1           In1 tau(   1) = (   0.0000000   0.0000000  10.0000000  )
         2           In1 tau(   2) = (  -1.5569464   2.6967102  10.0000000  )
         3           In1 tau(   3) = (   1.5569464   2.6967102  10.0000000  )
         4           V1  tau(   4) = (   3.1138928   0.0000000  10.0000000  )
         5           In1 tau(   5) = (   3.1138928   1.7978068  12.5424828  )
         6           In1 tau(   6) = (   1.5569464   4.4945171  12.5424828  )
         7           In1 tau(   7) = (  -1.5569464   4.4945171  12.5424828  )
         8           V1  tau(   8) = (   0.0000000   1.7978068  12.5424828  )
         9           In1 tau(   9) = (  -0.0000000   3.5956136  15.0849656  )
        10           In1 tau(  10) = (   1.5569464   0.8989034  15.0849656  )
        11           In1 tau(  11) = (   4.6708391   0.8989034  15.0849656  )
        12           V1  tau(  12) = (   3.1138928   3.5956136  15.0849656  )

     number of k points=    20  Fermi-Dirac smearing, width (Ry)=  0.0110
                       cart. coord. in units 2pi/alat
        k(    1) = (   0.0000000   0.0000000   0.0000000), wk =   0.0555556
        k(    2) = (   0.0000000   0.0309018   0.0000000), wk =   0.1111111
        k(    3) = (   0.0000000   0.0618037   0.0000000), wk =   0.1111111
        k(    4) = (   0.0000000  -0.0927055   0.0000000), wk =   0.0555556
        k(    5) = (   0.0267618   0.0154509   0.0000000), wk =   0.1111111
        k(    6) = (   0.0267618   0.0463528   0.0000000), wk =   0.1111111
        k(    7) = (   0.0267618   0.0772546   0.0000000), wk =   0.1111111
        k(    8) = (   0.0267618  -0.0772546   0.0000000), wk =   0.1111111
        k(    9) = (   0.0267618  -0.0463528   0.0000000), wk =   0.1111111
        k(   10) = (   0.0267618  -0.0154509   0.0000000), wk =   0.1111111
        k(   11) = (   0.0535236   0.0309018   0.0000000), wk =   0.1111111
        k(   12) = (   0.0535236   0.0618037   0.0000000), wk =   0.1111111
        k(   13) = (   0.0535236   0.0927055   0.0000000), wk =   0.1111111
        k(   14) = (   0.0535236  -0.0618037   0.0000000), wk =   0.1111111
        k(   15) = (   0.0535236  -0.0309018   0.0000000), wk =   0.1111111
        k(   16) = (   0.0535236   0.0000000   0.0000000), wk =   0.1111111
        k(   17) = (  -0.0802854  -0.0463528   0.0000000), wk =   0.0555556
        k(   18) = (  -0.0802854  -0.0154509   0.0000000), wk =   0.1111111
        k(   19) = (  -0.0802854   0.0154509   0.0000000), wk =   0.1111111
        k(   20) = (  -0.0802854  -0.1390583   0.0000000), wk =   0.0555556

     Largest allocated arrays     est. size (Mb)     dimensions
     Largest temporary arrays     est. size (Mb)     dimensions

     Initial potential from superposition of free atoms
     Check: negative starting charge=   -0.003643

     starting charge  142.49631, renormalised to  156.00000

     negative rho (up, down):  3.988E-03 0.000E+00

     *
     * You are using vdW-DF for exchange-correlation in this calculation.
     * Please cite the following three references that made this development
     * possible:
     *
     *   M. Dion, H. Rydberg, E. Schroder, D. C. Langreth, and
     *   B. I. Lundqvist, Phys. Rev. Lett. 92, 246401 (2004).
     *
     *   T. Thonhauser, V. R. Cooper, S. Li, A. Puzder, P. Hyldgaard, and
     *   D. C. Langreth, Phys. Rev. B 76, 125112 (2007).
     *
     *   G. Roman-Perez and J. M. Soler, Phys. Rev. Lett. 103, 096102 (2009).
     *
     *
     * If you are using vdW-DF2, please also cite:
     *
     *   K. Lee, E. D. Murray, L. Kong, B. I. Lundqvist, and
     *   D. C. Langreth, Phys. Rev. B 82, 081101(R) (2010).
     *
     *
     * If you are calculating the stress with vdW-DF, please also cite:
     *
     *   R. Sabatini, E. Kucukbenli, B. Kolb, T. Thonhauser, and
     *   S. de Gironcoli, J. Phys.: Condens. Matter 24, 424209 (2012).
     *

     Carrying out vdW-DF run using the following parameters:

     Nqs =      20    Nr_points =    1024   r_max =   100.000
     q_mesh =
               0.00001000     0.04494208     0.09755937     0.15916263
               0.23128650     0.31572767     0.41458969     0.53033537
               0.66584808     0.82450364     1.01025438     1.22772762
               1.48234092     1.78043706     2.12944203     2.53805004
               3.01644009     3.57652955     4.23227104     5.00000000

     Gradients computed in reciprocal space

     Adding external electric field

     Computed dipole along edir(3) :
        Dipole               -0.0000 Ry au,         -0.0000 Debye
        Dipole field         -0.0000 Ry au

        Potential amp.        0.0000 Ry
        Total length         46.2186 bohr

     Starting wfc are  111 randomized atomic wfcs

     Self-consistent Calculation

     iteration #  1     ecut=    36.75 Ry     beta=0.10
     Davidson diagonalization with overlap
     ethr =  1.00E-02,  avg # of iterations =  8.8

[...]

     total energy              =   -1652.04474710 Ry
     Harris-Foulkes estimate   =   -1661.62155747 Ry
     estimated scf accuracy    <      55.33270332 Ry

[...]

     End of self-consistent calculation

          k = 0.0000 0.0000 0.0000 ( 21415 PWs)   bands (ev):

   -63.8661 -63.8660 -63.7431 -37.7666 -37.7664 -37.6469 -37.6469 -37.6468
   -37.6468 -37.5884 -37.5884 -37.5331 -14.6330 -14.5621 -14.5621 -14.5585
   -14.4179 -14.4123 -14.3769 -14.3769 -14.3654 -14.3425 -14.3425 -14.2938
   -14.2938 -14.2564 -14.2401 -14.2237 -14.2237 -14.1358 -14.1358 -14.1284
   -14.1264 -14.1264 -14.1053 -14.0928 -14.0928 -14.0578 -13.9649 -13.9649
   -13.9601 -13.9601 -13.9362 -13.9299 -13.9299 -13.9237 -13.9237 -13.8887
   -13.8728 -13.8728 -13.8701 -13.8701 -13.8214 -13.7993 -13.7993 -13.6810
   -13.6798  -8.7580  -7.1844  -5.0217  -3.8038  -3.8038  -3.2587  -3.2587
    -2.8412  -2.0634  -2.0634  -2.0156  -1.6066  -1.4671  -1.4671  -1.1089
     0.1960   0.1960   0.2210   0.2210   0.2719   0.7131   0.7131   0.7364
     0.7364   0.9910   1.1168   1.1987   1.1987   1.8091   1.8091   1.8103
     1.8107   1.8107   2.1741   2.1741   2.7742   2.9795   3.4389   4.1257
     4.5594   4.6522   4.6522   4.8364   4.8364   5.1104   5.3002   5.6127
     5.7422   6.3994   6.9716   6.9716

[...]

          k =-0.0803-0.0464 0.0000 ( 21376 PWs)   bands (ev):

[...]

     the Fermi energy is     0.7403 ev

!    total energy              =   -1649.93935832 Ry
     Harris-Foulkes estimate   =   -1649.93935541 Ry
     estimated scf accuracy    <       0.00000085 Ry

     The total energy is the sum of the following terms:

     one-electron contribution =  -10583.95992200 Ry
     hartree contribution      =    5348.27036947 Ry
     xc contribution           =    -413.37538095 Ry
     ewald contribution        =    3999.20846215 Ry
     electric field correction =       0.00000000 Ry
     smearing contrib. (-TS)   =      -0.08288699 Ry

     convergence has been achieved in  21 iterations

 BEEF-vdW xc energy contributions
           1 :   -361.171624844561
           2 :    329.465731418579
           3 :   -276.128907213573
           4 :    216.460401664077
           5 :   -164.255138150536
           6 :    126.713399543810
           7 :   -103.235161124541
           8 :    88.0334159582096
           9 :   -74.5690850010128
          10 :    59.1799197643545
          11 :   -42.1935897270076
          12 :    26.5031877225800
          13 :   -15.0055095887266
          14 :    8.64221739609394
          15 :   -6.07175992288609
          16 :    4.81158704818245
[...]
               b(3) = (  0.000000  0.000000  0.039865 )

     PseudoPot. # 1 for In read from file:
     /afs/slac.stanford.edu/u/if/mamunm/psp/gbrv1.5pbe/In.UPF
     MD5 check sum: 90777abd96fbb83f2e67db2a40c566b9
     Pseudo is Ultrasoft + core correction, Zval = 13.0
     Generated by new atomic code, or converted to UPF format
     Using radial grid of  889 points,  6 beta functions with:
                l(1) =   0
                l(2) =   0
                l(3) =   1
                l(4) =   1
                l(5) =   2
                l(6) =   2
     Q(r) pseudized with  6 coefficients,  rinner =    1.400   1.400   1.400
                                                       1.400   1.400

     PseudoPot. # 2 for V  read from file:
     /afs/slac.stanford.edu/u/if/mamunm/psp/gbrv1.5pbe/V.UPF
     MD5 check sum: 22b79981416ebb76fdaf5b1b8640f6fb
     Pseudo is Ultrasoft + core correction, Zval = 13.0
     Generated by new atomic code, or converted to UPF format
     Using radial grid of  853 points,  6 beta functions with:
                l(1) =   0
                l(2) =   0
                l(3) =   1
                l(4) =   1
                l(5) =   2
                l(6) =   2
     Q(r) pseudized with  8 coefficients,  rinner =    1.100   1.100   1.100
                                                       1.100   1.100

     vdW kernel table read from file vdW_kernel_table
     MD5 check sum: 095c7af220d748ca6e76c0b4c6cfb241

     atomic species   valence    mass     pseudopotential
        In1           13.00   114.81800     In( 1.00)
        V1            13.00    50.94150     V ( 1.00)

     No symmetry found

   Cartesian axes

     site n.     atom                  positions (alat units)
         1           In1 tau(   1) = (   0.0000000   0.0000000  10.0000000  )
         2           In1 tau(   2) = (  -1.5569464   2.6967102  10.0000000  )
         3           In1 tau(   3) = (   1.5569464   2.6967102  10.0000000  )
         4           V1  tau(   4) = (   3.1138928   0.0000000  10.0000000  )
         5           In1 tau(   5) = (   3.1138928   1.7978068  12.5424828  )
         6           In1 tau(   6) = (   1.5569464   4.4945171  12.5424828  )
         7           In1 tau(   7) = (  -1.5569464   4.4945171  12.5424828  )
         8           V1  tau(   8) = (   0.0000000   1.7978068  12.5424828  )
         9           In1 tau(   9) = (  -0.0000011   3.5742332  15.3028571  )
        10           In1 tau(  10) = (   1.5384271   0.9095965  15.3028612  )
        11           In1 tau(  11) = (   4.6893552   0.9095973  15.3028659  )
        12           V1  tau(  12) = (   3.1138926   3.5956152  14.7666064  )

     number of k points=    20  Fermi-Dirac smearing, width (Ry)=  0.0110
                       cart. coord. in units 2pi/alat
        k(    1) = (   0.0000000   0.0000000   0.0000000), wk =   0.0555556
        k(    2) = (   0.0000000   0.0309018   0.0000000), wk =   0.1111111
        k(    3) = (   0.0000000   0.0618037   0.0000000), wk =   0.1111111
        k(    4) = (   0.0000000  -0.0927055   0.0000000), wk =   0.0555556
        k(    5) = (   0.0267618   0.0154509   0.0000000), wk =   0.1111111
        k(    6) = (   0.0267618   0.0463528   0.0000000), wk =   0.1111111
        k(    7) = (   0.0267618   0.0772546   0.0000000), wk =   0.1111111
        k(    8) = (   0.0267618  -0.0772546   0.0000000), wk =   0.1111111
        k(    9) = (   0.0267618  -0.0463528   0.0000000), wk =   0.1111111
        k(   10) = (   0.0267618  -0.0154509   0.0000000), wk =   0.1111111
        k(   11) = (   0.0535236   0.0309018   0.0000000), wk =   0.1111111
        k(   12) = (   0.0535236   0.0618037   0.0000000), wk =   0.1111111
        k(   13) = (   0.0535236   0.0927055   0.0000000), wk =   0.1111111
        k(   14) = (   0.0535236  -0.0618037   0.0000000), wk =   0.1111111
        k(   15) = (   0.0535236  -0.0309018   0.0000000), wk =   0.1111111
        k(   16) = (   0.0535236   0.0000000   0.0000000), wk =   0.1111111
        k(   17) = (  -0.0802854  -0.0463528   0.0000000), wk =   0.0555556
        k(   18) = (  -0.0802854  -0.0154509   0.0000000), wk =   0.1111111
        k(   19) = (  -0.0802854   0.0154509   0.0000000), wk =   0.1111111
        k(   20) = (  -0.0802854  -0.1390583   0.0000000), wk =   0.0555556

     Largest allocated arrays     est. size (Mb)     dimensions
     Largest temporary arrays     est. size (Mb)     dimensions

     Initial potential from superposition of free atoms
     Check: negative starting charge=   -0.003663

     starting charge  142.49631, renormalised to  156.00000

[...]

     *
     * You are using vdW-DF for exchange-correlation in this calculation.
     * Please cite the following three references that made this development
     * possible:
     *
     *   M. Dion, H. Rydberg, E. Schroder, D. C. Langreth, and
     *   B. I. Lundqvist, Phys. Rev. Lett. 92, 246401 (2004).
     *
     *   T. Thonhauser, V. R. Cooper, S. Li, A. Puzder, P. Hyldgaard, and
     *   D. C. Langreth, Phys. Rev. B 76, 125112 (2007).
     *
     *   G. Roman-Perez and J. M. Soler, Phys. Rev. Lett. 103, 096102 (2009).
     *
     *
     * If you are using vdW-DF2, please also cite:
     *
     *   K. Lee, E. D. Murray, L. Kong, B. I. Lundqvist, and
     *   D. C. Langreth, Phys. Rev. B 82, 081101(R) (2010).
     *
     *
     * If you are calculating the stress with vdW-DF, please also cite:
     *
     *   R. Sabatini, E. Kucukbenli, B. Kolb, T. Thonhauser, and
     *   S. de Gironcoli, J. Phys.: Condens. Matter 24, 424209 (2012).
     *

     Carrying out vdW-DF run using the following parameters:

     Nqs =      20    Nr_points =    1024   r_max =   100.000
     q_mesh =
               0.00001000     0.04494208     0.09755937     0.15916263
               0.23128650     0.31572767     0.41458969     0.53033537
               0.66584808     0.82450364     1.01025438     1.22772762
               1.48234092     1.78043706     2.12944203     2.53805004
               3.01644009     3.57652955     4.23227104     5.00000000

     Gradients computed in reciprocal space

[...]

     Starting wfc are  111 randomized atomic wfcs

     Self-consistent Calculation

[...]

     total energy              =   -1649.98251652 Ry
     Harris-Foulkes estimate   =   -1649.98251666 Ry
     estimated scf accuracy    <       0.00000180 Ry

     iteration # 24     ecut=    36.75 Ry     beta=0.10
     Davidson diagonalization with overlap
     ethr =  1.16E-09,  avg # of iterations =  2.0

[...]

     negative rho (up, down):  3.872E-03 0.000E+00

     Adding external electric field

     Computed dipole along edir(3) :
        Dipole                0.0429 Ry au,          0.1090 Debye
        Dipole field          0.0001 Ry au

        Potential amp.       -0.0088 Ry
        Total length         46.2186 bohr

     End of self-consistent calculation

[...]

          k = 0.0535 0.0000 0.0000 ( 21391 PWs)   bands (ev):

[...]

          k =-0.0803-0.1391 0.0000 ( 21376 PWs)   bands (ev):

   -63.8506 -63.8044 -63.7241 -37.7633 -37.6310 -37.6309 -37.6267 -37.6229
   -37.6228 -37.5649 -37.5648 -37.5203 -14.4580 -14.3676 -14.3512 -14.3248
   -14.3218 -14.2808 -14.2679 -14.2420 -14.2365 -14.2272 -14.1966 -14.1847
   -14.1691 -14.1610 -14.1373 -14.1320 -14.1098 -14.1061 -14.0883 -14.0860
   -14.0786 -14.0557 -14.0553 -14.0483 -14.0355 -14.0314 -14.0288 -14.0242
   -14.0152 -13.9967 -13.9877 -13.9869 -13.9769 -13.9632 -13.9574 -13.9521
   -13.9413 -13.9371 -13.9188 -13.9071 -13.8707 -13.8581 -13.8308 -13.7977
   -13.7382  -7.4149  -7.0185  -5.7754  -5.5895  -4.5700  -4.4650  -3.8608
    -3.0989  -2.5294  -1.8977  -1.3616  -1.0015  -0.4073  -0.3717  -0.3199
    -0.0304   0.0245   0.3069   0.4648   0.7096   0.8710   1.0050   1.1397
     1.1635   1.2477   1.3740   1.4301   1.4778   1.7600   2.1253   2.6741
     2.7535   2.8317   3.1880   3.2895   3.5148   3.7249   3.7466   3.9714
     4.1853   4.6665   4.7849   5.0650   5.0891   5.1335   5.2216   5.6866
     5.7717   5.7948   6.0970   6.1597

     the Fermi energy is     0.7689 ev

!    total energy              =   -1649.98251789 Ry
     Harris-Foulkes estimate   =   -1649.98251752 Ry
     estimated scf accuracy    <       0.00000084 Ry

     The total energy is the sum of the following terms:

     one-electron contribution =  -10451.06477753 Ry
     hartree contribution      =    5281.98197728 Ry
     xc contribution           =    -413.31431507 Ry
     ewald contribution        =    3932.49019876 Ry
     electric field correction =       0.00000407 Ry
     smearing contrib. (-TS)   =      -0.07560539 Ry

     convergence has been achieved in  24 iterations

 BEEF-vdW xc energy contributions
           1 :   -361.291588819788
           2 :    329.536836859773
           3 :   -276.139224997830
           4 :    216.445262096968
           5 :   -164.272637695881
           6 :    126.802945198358
           7 :   -103.388929151740
           8 :    88.2033631025658
           9 :   -74.7058018542331
          10 :    59.2717264214218
          11 :   -42.2728744365193
          12 :    26.6150028307636
          13 :   -15.1662048390382
          14 :    8.82610681899075
          15 :   -6.23721551733138
          16 :    4.94030546114504
          17 :   -2.95876421055067
          18 :  -0.243677101478283
          19 :    3.86717869015092
          20 :   -6.64330518171698
          21 :    7.77225423861535
          22 :   -7.35650014768117
          23 :    6.18754467787528
          24 :   -5.16612633059441
          25 :    4.78786704854673
          26 :   -4.98684479083249
          27 :    5.33927618186243
          28 :   -5.41343751298245
          29 :    5.01977514331031
          30 :   -4.24837274972822
          31 :   -33.3984601755785
          32 :   -24.2814437659576

     Forces acting on atoms (Ry/au):

     negative rho (up, down):  3.872E-03 0.000E+00
     atom    1 type  1   force =    -0.00000018    0.01282339   -0.02814249
     atom    2 type  1   force =     0.01110500   -0.00641218   -0.02814237
     atom    3 type  1   force =    -0.01110473   -0.00641188   -0.02814207
     atom    4 type  2   force =    -0.00000005    0.00000005    0.06540928
     atom    5 type  1   force =     0.00000023   -0.01336632    0.00394126
     atom    6 type  1   force =    -0.01157541    0.00668380    0.00394145
     atom    7 type  1   force =     0.01157552    0.00668338    0.00394087
     atom    8 type  2   force =    -0.00000004   -0.00000010    0.00755219
     atom    9 type  1   force =    -0.00000013   -0.00000917    0.00010904
     atom   10 type  1   force =    -0.00000782    0.00000465    0.00010798
     atom   11 type  1   force =     0.00000770    0.00000441    0.00010780
     atom   12 type  2   force =    -0.00000008   -0.00000001   -0.00068294

     Total force =     0.088248     Total SCF correction =     0.002322

     entering subroutine stress ...

     negative rho (up, down):  3.872E-03 0.000E+00
          total   stress  (Ry/bohr**3)                   (kbar)     P=  -11.71
  -0.00012567  -0.00000000  -0.00000000        -18.49     -0.00     -0.00
  -0.00000000  -0.00012567  -0.00000000         -0.00    -18.49     -0.00
  -0.00000000  -0.00000000   0.00001261         -0.00     -0.00      1.86

 !ASE

     Writing output data file calc.save

     General routines

     Parallel routines

   This run was terminated on:  17:27:28  26Dec2018

   JOB DONE.
Job  /afs/slac/g/suncat/bin/suncat-tsmpirun -x LD_LIBRARY_PATH -wdir /scratch/qe109908_H6psa pw.x -in pw.inp

TID   HOST_NAME   COMMAND_LINE            STATUS            TERMINATION_TIME
00000 suncat0068 pw.x -in pw.inp   Done                     12/26/2018 17:27:28
00001 suncat0068 pw.x -in pw.inp   Done                     12/26/2018 17:27:28
00002 suncat0068 pw.x -in pw.inp   Done                     12/26/2018 17:27:28
00003 suncat0068 pw.x -in pw.inp   Done                     12/26/2018 17:27:28
00004 suncat0068 pw.x -in pw.inp   Done                     12/26/2018 17:27:28
00005 suncat0068 pw.x -in pw.inp   Done                     12/26/2018 17:27:28
00006 suncat0068 pw.x -in pw.inp   Done                     12/26/2018 17:27:28
00007 suncat0068 pw.x -in pw.inp   Done                     12/26/2018 17:27:28
00008 suncat0025 pw.x -in pw.inp   Done                     12/26/2018 17:27:28
00009 suncat0025 pw.x -in pw.inp   Done                     12/26/2018 17:27:28
00010 suncat0025 pw.x -in pw.inp   Done                     12/26/2018 17:27:28
00011 suncat0025 pw.x -in pw.inp   Done                     12/26/2018 17:27:28
00012 suncat0025 pw.x -in pw.inp   Done                     12/26/2018 17:27:28
00013 suncat0025 pw.x -in pw.inp   Done                     12/26/2018 17:27:28
00014 suncat0025 pw.x -in pw.inp   Done                     12/26/2018 17:27:28
00015 suncat0025 pw.x -in pw.inp   Done                     12/26/2018 17:27:28
00016 suncat0013 pw.x -in pw.inp   Done                     12/26/2018 17:27:28
00017 suncat0013 pw.x -in pw.inp   Done                     12/26/2018 17:27:28
00018 suncat0013 pw.x -in pw.inp   Done                     12/26/2018 17:27:28
00019 suncat0013 pw.x -in pw.inp   Done                     12/26/2018 17:27:28
00020 suncat0013 pw.x -in pw.inp   Done                     12/26/2018 17:27:28
00021 suncat0013 pw.x -in pw.inp   Done                     12/26/2018 17:27:28
00022 suncat0013 pw.x -in pw.inp   Done                     12/26/2018 17:27:28
00023 suncat0013 pw.x -in pw.inp   Done                     12/26/2018 17:27:28
00024 suncat0008 pw.x -in pw.inp   Done                     12/26/2018 17:27:28
00025 suncat0008 pw.x -in pw.inp   Done                     12/26/2018 17:27:28
00026 suncat0008 pw.x -in pw.inp   Done                     12/26/2018 17:27:28
00027 suncat0008 pw.x -in pw.inp   Done                     12/26/2018 17:27:28
00028 suncat0008 pw.x -in pw.inp   Done                     12/26/2018 17:27:28
00029 suncat0008 pw.x -in pw.inp   Done                     12/26/2018 17:27:28
00030 suncat0008 pw.x -in pw.inp   Done                     12/26/2018 17:27:28
00031 suncat0008 pw.x -in pw.inp   Done                     12/26/2018 17:27:28
00032 suncat0001 pw.x -in pw.inp   Done                     12/26/2018 17:27:28
00033 suncat0001 pw.x -in pw.inp   Done                     12/26/2018 17:27:28
00034 suncat0001 pw.x -in pw.inp   Done                     12/26/2018 17:27:28
00035 suncat0001 pw.x -in pw.inp   Done                     12/26/2018 17:27:28
00036 suncat0001 pw.x -in pw.inp   Done                     12/26/2018 17:27:28
00037 suncat0001 pw.x -in pw.inp   Done                     12/26/2018 17:27:28
00038 suncat0001 pw.x -in pw.inp   Done                     12/26/2018 17:27:28
00039 suncat0001 pw.x -in pw.inp   Done                     12/26/2018 17:27:28
00040 suncat0184 pw.x -in pw.inp   Done                     12/26/2018 17:27:28
00041 suncat0184 pw.x -in pw.inp   Done                     12/26/2018 17:27:28
00042 suncat0184 pw.x -in pw.inp   Done                     12/26/2018 17:27:28
00043 suncat0184 pw.x -in pw.inp   Done                     12/26/2018 17:27:28
00044 suncat0184 pw.x -in pw.inp   Done                     12/26/2018 17:27:28
00045 suncat0184 pw.x -in pw.inp   Done                     12/26/2018 17:27:28
00046 suncat0184 pw.x -in pw.inp   Done                     12/26/2018 17:27:28
00047 suncat0184 pw.x -in pw.inp   Done                     12/26/2018 17:27:28
00048 suncat0178 pw.x -in pw.inp   Done                     12/26/2018 17:27:28
00049 suncat0178 pw.x -in pw.inp   Done                     12/26/2018 17:27:28
00050 suncat0178 pw.x -in pw.inp   Done                     12/26/2018 17:27:28
00051 suncat0178 pw.x -in pw.inp   Done                     12/26/2018 17:27:28
00052 suncat0178 pw.x -in pw.inp   Done                     12/26/2018 17:27:28
00053 suncat0178 pw.x -in pw.inp   Done                     12/26/2018 17:27:28
00054 suncat0178 pw.x -in pw.inp   Done                     12/26/2018 17:27:28
00055 suncat0178 pw.x -in pw.inp   Done                     12/26/2018 17:27:28
00056 suncat0177 pw.x -in pw.inp   Done                     12/26/2018 17:27:28
00057 suncat0177 pw.x -in pw.inp   Done                     12/26/2018 17:27:28
00058 suncat0177 pw.x -in pw.inp   Done                     12/26/2018 17:27:28
00059 suncat0177 pw.x -in pw.inp   Done                     12/26/2018 17:27:28
00060 suncat0177 pw.x -in pw.inp   Done                     12/26/2018 17:27:28
00061 suncat0177 pw.x -in pw.inp   Done                     12/26/2018 17:27:28
00062 suncat0177 pw.x -in pw.inp   Done                     12/26/2018 17:27:28
00063 suncat0177 pw.x -in pw.inp   Done                     12/26/2018 17:27:28