     Program PWSCF v.5.1rc2 (svn rev. 11289) starts on 25Dec2018 at 14:21:17

     Current dimensions of program PWSCF are:
     Max number of different atomic species (ntypx) = 10
     Max number of k-points (npk) =  40000
     Max angular momentum in pseudopotentials (lmaxx) =  3
     Presently stress not available with electric field

     IMPORTANT: XC functional enforced from input :
     Exchange-correlation      = BEEF-VDW ( 1  4 27 13 2)
     Any further DFT definition will be discarded
     Please, verify this is what you really want

     Subspace diagonalization in iterative solution of the eigenvalue problem:
     a serial algorithm will be used

     bravais-lattice index     =            0
     lattice parameter (alat)  =       1.8897  a.u.
     unit-cell volume          =    4005.7539 (a.u.)^3
     number of atoms/cell      =           12
     number of atomic types    =            2
     number of electrons       =       168.00
     number of Kohn-Sham states=          114
     kinetic-energy cutoff     =      36.7493  Ry
     charge density cutoff     =     367.4932  Ry
     convergence threshold     =      1.0E-06
     mixing beta               =       0.1000
     number of iterations used =           10  plain     mixing
     Exchange-correlation      = BEEF-VDW ( 1  4 27 13 2)
     nstep                     =           50

     celldm(1)=   1.889726  celldm(2)=   0.000000  celldm(3)=   0.000000
     celldm(4)=   0.000000  celldm(5)=   0.000000  celldm(6)=   0.000000

     crystal axes: (cart. coord. in units of alat)
               a(1) = (   5.307340   0.000000   0.000000 )
               a(2) = (  -2.653670   4.596291   0.000000 )
               a(3) = (   0.000000   0.000000  24.333425 )

     reciprocal axes: (cart. coord. in units 2 pi/alat)
               b(1) = (  0.188418  0.108783  0.000000 )
               b(2) = (  0.000000  0.217567  0.000000 )
               b(3) = (  0.000000  0.000000  0.041096 )

     PseudoPot. # 1 for Cr read from file:
     /afs/slac.stanford.edu/u/if/mamunm/psp/gbrv1.5pbe/Cr.UPF
     MD5 check sum: 0d52af634a40206e4dee301ad30da4bf
     Pseudo is Ultrasoft + core correction, Zval = 14.0
     Generated by new atomic code, or converted to UPF format
     Using radial grid of  857 points,  6 beta functions with:
                l(1) =   0
                l(2) =   0
                l(3) =   1
                l(4) =   1
                l(5) =   2
                l(6) =   2
     Q(r) pseudized with  8 coefficients,  rinner =    0.950   0.950   0.950
                                                       0.950   0.950

     PseudoPot. # 2 for W  read from file:
     /afs/slac.stanford.edu/u/if/mamunm/psp/gbrv1.5pbe/W.UPF
     MD5 check sum: 9c083fa34c2a2ea0f02f1f893e16e1c8
     Pseudo is Ultrasoft + core correction, Zval = 14.0
     Generated by new atomic code, or converted to UPF format
     Using radial grid of  923 points,  8 beta functions with:
                l(1) =   0
                l(2) =   0
                l(3) =   0
                l(4) =   1
                l(5) =   1
                l(6) =   2
                l(7) =   2
                l(8) =   3
     Q(r) pseudized with  6 coefficients,  rinner =    1.350   1.350   1.350
                                                       1.350   1.350   1.350
                                                       1.350

     vdW kernel table read from file vdW_kernel_table
     MD5 check sum: 095c7af220d748ca6e76c0b4c6cfb241

     atomic species   valence    mass     pseudopotential
        Cr1           14.00    51.99610     Cr( 1.00)
        W1            14.00   183.84000     W ( 1.00)

     No symmetry found

   Cartesian axes

     site n.     atom                  positions (alat units)
         1           Cr1 tau(   1) = (   0.0000000   0.0000000  10.0000000  )
         2           Cr1 tau(   2) = (  -1.3268350   2.2981455  10.0000000  )
         3           Cr1 tau(   3) = (   1.3268350   2.2981455  10.0000000  )
         4           W1  tau(   4) = (   2.6536699   0.0000000  10.0000000  )
         5           Cr1 tau(   5) = (   2.6536699   1.5320970  12.1667124  )
         6           Cr1 tau(   6) = (   1.3268350   3.8302426  12.1667124  )
         7           Cr1 tau(   7) = (  -1.3268350   3.8302426  12.1667124  )
         8           W1  tau(   8) = (   0.0000000   1.5320970  12.1667124  )
         9           Cr1 tau(   9) = (  -0.0000000   3.0641941  14.3334248  )
        10           Cr1 tau(  10) = (   1.3268350   0.7660485  14.3334248  )
        11           Cr1 tau(  11) = (   3.9805049   0.7660485  14.3334248  )
        12           W1  tau(  12) = (   2.6536699   3.0641941  14.3334248  )

     number of k points=    20  Fermi-Dirac smearing, width (Ry)=  0.0110
                       cart. coord. in units 2pi/alat
        k(    1) = (   0.0000000   0.0000000   0.0000000), wk =   0.0555556
        k(    2) = (   0.0000000   0.0362611   0.0000000), wk =   0.1111111
        k(    3) = (   0.0000000   0.0725222   0.0000000), wk =   0.1111111
        k(    4) = (   0.0000000  -0.1087834   0.0000000), wk =   0.0555556
        k(    5) = (   0.0314031   0.0181306   0.0000000), wk =   0.1111111
        k(    6) = (   0.0314031   0.0543917   0.0000000), wk =   0.1111111
        k(    7) = (   0.0314031   0.0906528   0.0000000), wk =   0.1111111
        k(    8) = (   0.0314031  -0.0906528   0.0000000), wk =   0.1111111
        k(    9) = (   0.0314031  -0.0543917   0.0000000), wk =   0.1111111
        k(   10) = (   0.0314031  -0.0181306   0.0000000), wk =   0.1111111
        k(   11) = (   0.0628061   0.0362611   0.0000000), wk =   0.1111111
        k(   12) = (   0.0628061   0.0725222   0.0000000), wk =   0.1111111
        k(   13) = (   0.0628061   0.1087834   0.0000000), wk =   0.1111111
        k(   14) = (   0.0628061  -0.0725222   0.0000000), wk =   0.1111111
        k(   15) = (   0.0628061  -0.0362611   0.0000000), wk =   0.1111111
        k(   16) = (   0.0628061   0.0000000   0.0000000), wk =   0.1111111
        k(   17) = (  -0.0942092  -0.0543917   0.0000000), wk =   0.0555556
        k(   18) = (  -0.0942092  -0.0181306   0.0000000), wk =   0.1111111
        k(   19) = (  -0.0942092   0.0181306   0.0000000), wk =   0.1111111
        k(   20) = (  -0.0942092  -0.1631750   0.0000000), wk =   0.0555556

     Largest allocated arrays     est. size (Mb)     dimensions
     Largest temporary arrays     est. size (Mb)     dimensions

     Check: negative/imaginary core charge=   -0.000003    0.000000

     Initial potential from superposition of free atoms
     Check: negative starting charge=   -0.199760

     starting charge  158.69884, renormalised to  168.00000

     negative rho (up, down):  2.115E-01 0.000E+00

     *
     * You are using vdW-DF for exchange-correlation in this calculation.
     * Please cite the following three references that made this development
     * possible:
     *
     *   M. Dion, H. Rydberg, E. Schroder, D. C. Langreth, and
     *   B. I. Lundqvist, Phys. Rev. Lett. 92, 246401 (2004).
     *
     *   T. Thonhauser, V. R. Cooper, S. Li, A. Puzder, P. Hyldgaard, and
     *   D. C. Langreth, Phys. Rev. B 76, 125112 (2007).
     *
     *   G. Roman-Perez and J. M. Soler, Phys. Rev. Lett. 103, 096102 (2009).
     *
     *
     * If you are using vdW-DF2, please also cite:
     *
     *   K. Lee, E. D. Murray, L. Kong, B. I. Lundqvist, and
     *   D. C. Langreth, Phys. Rev. B 82, 081101(R) (2010).
     *
     *
     * If you are calculating the stress with vdW-DF, please also cite:
     *
     *   R. Sabatini, E. Kucukbenli, B. Kolb, T. Thonhauser, and
     *   S. de Gironcoli, J. Phys.: Condens. Matter 24, 424209 (2012).
     *

     Carrying out vdW-DF run using the following parameters:

     Nqs =      20    Nr_points =    1024   r_max =   100.000
     q_mesh =
               0.00001000     0.04494208     0.09755937     0.15916263
               0.23128650     0.31572767     0.41458969     0.53033537
               0.66584808     0.82450364     1.01025438     1.22772762
               1.48234092     1.78043706     2.12944203     2.53805004
               3.01644009     3.57652955     4.23227104     5.00000000

     Gradients computed in reciprocal space

     Adding external electric field

     Computed dipole along edir(3) :
        Dipole                0.0000 Ry au,          0.0000 Debye
        Dipole field          0.0000 Ry au

        Potential amp.       -0.0000 Ry
        Total length         44.8339 bohr

     Starting wfc are  129 randomized atomic wfcs

     Self-consistent Calculation

     iteration #  1     ecut=    36.75 Ry     beta=0.10
     Davidson diagonalization with overlap
     ethr =  1.00E-02,  avg # of iterations =  4.0

[...]

     total energy              =   -2068.66788907 Ry
     Harris-Foulkes estimate   =   -2070.79768891 Ry
     estimated scf accuracy    <      13.25554020 Ry

[...]

     End of self-consistent calculation

          k = 0.0000 0.0000 0.0000 ( 15161 PWs)   bands (ev):

   -72.6166 -72.6008 -72.6006 -70.2577 -70.1996 -70.1995 -70.1370 -70.1311
   -70.0822 -70.0822 -70.0808 -70.0807 -41.7809 -41.6968 -41.6968 -41.6809
   -41.6121 -41.6121 -41.6039 -41.6038 -41.5155 -41.4845 -41.4845 -41.4660
   -41.4659 -41.4432 -41.4432 -41.4369 -41.3773 -41.3611 -41.3611 -41.3391
   -41.3390 -41.2551 -41.2425 -41.2020 -41.2020 -41.2005 -41.2005 -36.7716
   -36.7490 -36.7176 -36.7150 -36.7150 -36.6408 -36.6408 -36.6350 -36.6350
    -5.7337  -3.9899  -2.9493  -2.7930  -2.7930  -2.4165  -2.4165  -2.1624
    -1.8603  -1.8065  -1.8065  -1.7324  -1.7324  -1.6078  -1.2261  -0.7649
    -0.7649  -0.2806   0.2933   0.3999   0.3999   0.5446   0.6988   0.9919
     0.9919   1.0867   1.1054   1.2190   1.2223   1.2223   1.2570   1.2571
     1.2966   1.2966   1.3938   1.3938   2.0211   2.0517   2.0517   2.1042
     2.2090   2.3964   2.3964   2.6060   2.6060   3.0745   3.0745   3.1709
     3.3576   3.3577   3.3682   3.5667   3.6086   3.6086   3.7399   3.7769
     3.9528   3.9528   3.9973   4.3564   4.3565   4.5773   4.5774   4.7164
     4.7164   5.0489

[...]

          k =-0.0942-0.0544 0.0000 ( 15094 PWs)   bands (ev):

[...]

     the Fermi energy is     1.4191 ev

!    total energy              =   -2067.28632492 Ry
     Harris-Foulkes estimate   =   -2067.28632702 Ry
     estimated scf accuracy    <       0.00000055 Ry

     The total energy is the sum of the following terms:

     one-electron contribution =  -17839.85803856 Ry
     hartree contribution      =    8908.58432622 Ry
     xc contribution           =    -336.78029167 Ry
     ewald contribution        =    7200.90328193 Ry
     electric field correction =       0.00000000 Ry
     smearing contrib. (-TS)   =      -0.13560286 Ry

     convergence has been achieved in  26 iterations

 BEEF-vdW xc energy contributions
           1 :   -293.435340898516
           2 :    266.994194767550
           3 :   -222.071874348367
           4 :    171.007271865804
           5 :   -125.445252857296
           6 :    92.2862871365833
           7 :   -72.3374498571686
           8 :    61.7936215574932
           9 :   -55.3059946731630
[...]
     Generated by new atomic code, or converted to UPF format
     Using radial grid of  857 points,  6 beta functions with:
                l(1) =   0
                l(2) =   0
                l(3) =   1
                l(4) =   1
                l(5) =   2
                l(6) =   2
     Q(r) pseudized with  8 coefficients,  rinner =    0.950   0.950   0.950
                                                       0.950   0.950

     PseudoPot. # 2 for W  read from file:
     /afs/slac.stanford.edu/u/if/mamunm/psp/gbrv1.5pbe/W.UPF
     MD5 check sum: 9c083fa34c2a2ea0f02f1f893e16e1c8
     Pseudo is Ultrasoft + core correction, Zval = 14.0
     Generated by new atomic code, or converted to UPF format
     Using radial grid of  923 points,  8 beta functions with:
                l(1) =   0
                l(2) =   0
                l(3) =   0
                l(4) =   1
                l(5) =   1
                l(6) =   2
                l(7) =   2
                l(8) =   3
     Q(r) pseudized with  6 coefficients,  rinner =    1.350   1.350   1.350
                                                       1.350   1.350   1.350
                                                       1.350

     vdW kernel table read from file vdW_kernel_table
     MD5 check sum: 095c7af220d748ca6e76c0b4c6cfb241

     atomic species   valence    mass     pseudopotential
        Cr1           14.00    51.99610     Cr( 1.00)
        W1            14.00   183.84000     W ( 1.00)

     No symmetry found

   Cartesian axes

     site n.     atom                  positions (alat units)
         1           Cr1 tau(   1) = (   0.0000000   0.0000000  10.0000000  )
         2           Cr1 tau(   2) = (  -1.3268350   2.2981455  10.0000000  )
         3           Cr1 tau(   3) = (   1.3268350   2.2981455  10.0000000  )
         4           W1  tau(   4) = (   2.6536699   0.0000000  10.0000000  )
         5           Cr1 tau(   5) = (   2.6536699   1.5320970  12.1667124  )
         6           Cr1 tau(   6) = (   1.3268350   3.8302426  12.1667124  )
         7           Cr1 tau(   7) = (  -1.3268350   3.8302426  12.1667124  )
         8           W1  tau(   8) = (   0.0000000   1.5320970  12.1667124  )
         9           Cr1 tau(   9) = (   0.0000043   3.1151094  14.3276132  )
        10           Cr1 tau(  10) = (   1.3709106   0.7405682  14.3275975  )
        11           Cr1 tau(  11) = (   3.9364477   0.7405747  14.3275928  )
        12           W1  tau(  12) = (   2.6536667   3.0640833  14.2864600  )

     number of k points=    20  Fermi-Dirac smearing, width (Ry)=  0.0110
                       cart. coord. in units 2pi/alat
        k(    1) = (   0.0000000   0.0000000   0.0000000), wk =   0.0555556
        k(    2) = (   0.0000000   0.0362611   0.0000000), wk =   0.1111111
        k(    3) = (   0.0000000   0.0725222   0.0000000), wk =   0.1111111
        k(    4) = (   0.0000000  -0.1087834   0.0000000), wk =   0.0555556
        k(    5) = (   0.0314031   0.0181306   0.0000000), wk =   0.1111111
        k(    6) = (   0.0314031   0.0543917   0.0000000), wk =   0.1111111
        k(    7) = (   0.0314031   0.0906528   0.0000000), wk =   0.1111111
        k(    8) = (   0.0314031  -0.0906528   0.0000000), wk =   0.1111111
        k(    9) = (   0.0314031  -0.0543917   0.0000000), wk =   0.1111111
        k(   10) = (   0.0314031  -0.0181306   0.0000000), wk =   0.1111111
        k(   11) = (   0.0628061   0.0362611   0.0000000), wk =   0.1111111
        k(   12) = (   0.0628061   0.0725222   0.0000000), wk =   0.1111111
        k(   13) = (   0.0628061   0.1087834   0.0000000), wk =   0.1111111
        k(   14) = (   0.0628061  -0.0725222   0.0000000), wk =   0.1111111
        k(   15) = (   0.0628061  -0.0362611   0.0000000), wk =   0.1111111
        k(   16) = (   0.0628061   0.0000000   0.0000000), wk =   0.1111111
        k(   17) = (  -0.0942092  -0.0543917   0.0000000), wk =   0.0555556
        k(   18) = (  -0.0942092  -0.0181306   0.0000000), wk =   0.1111111
        k(   19) = (  -0.0942092   0.0181306   0.0000000), wk =   0.1111111
        k(   20) = (  -0.0942092  -0.1631750   0.0000000), wk =   0.0555556

     Largest allocated arrays     est. size (Mb)     dimensions
     Largest temporary arrays     est. size (Mb)     dimensions

     Check: negative/imaginary core charge=   -0.000003    0.000000

     Initial potential from superposition of free atoms
     Check: negative starting charge=   -0.197903

     starting charge  158.69884, renormalised to  168.00000

[...]

     *
     * You are using vdW-DF for exchange-correlation in this calculation.
     * Please cite the following three references that made this development
     * possible:
     *
     *   M. Dion, H. Rydberg, E. Schroder, D. C. Langreth, and
     *   B. I. Lundqvist, Phys. Rev. Lett. 92, 246401 (2004).
     *
     *   T. Thonhauser, V. R. Cooper, S. Li, A. Puzder, P. Hyldgaard, and
     *   D. C. Langreth, Phys. Rev. B 76, 125112 (2007).
     *
     *   G. Roman-Perez and J. M. Soler, Phys. Rev. Lett. 103, 096102 (2009).
     *
     *
     * If you are using vdW-DF2, please also cite:
     *
     *   K. Lee, E. D. Murray, L. Kong, B. I. Lundqvist, and
     *   D. C. Langreth, Phys. Rev. B 82, 081101(R) (2010).
     *
     *
     * If you are calculating the stress with vdW-DF, please also cite:
     *
     *   R. Sabatini, E. Kucukbenli, B. Kolb, T. Thonhauser, and
     *   S. de Gironcoli, J. Phys.: Condens. Matter 24, 424209 (2012).
     *

     Carrying out vdW-DF run using the following parameters:

     Nqs =      20    Nr_points =    1024   r_max =   100.000
     q_mesh =
               0.00001000     0.04494208     0.09755937     0.15916263
               0.23128650     0.31572767     0.41458969     0.53033537
               0.66584808     0.82450364     1.01025438     1.22772762
               1.48234092     1.78043706     2.12944203     2.53805004
               3.01644009     3.57652955     4.23227104     5.00000000

     Gradients computed in reciprocal space

[...]

     Starting wfc are  129 randomized atomic wfcs

     Self-consistent Calculation

[...]

     total energy              =   -2067.28843427 Ry
     Harris-Foulkes estimate   =   -2067.28843505 Ry
     estimated scf accuracy    <       0.00000253 Ry

     iteration # 23     ecut=    36.75 Ry     beta=0.10
     Davidson diagonalization with overlap
     ethr =  1.50E-09,  avg # of iterations =  1.4

[...]

     negative rho (up, down):  2.031E-01 0.000E+00

     Adding external electric field

     Computed dipole along edir(3) :
        Dipole                0.0092 Ry au,          0.0233 Debye
        Dipole field          0.0000 Ry au

        Potential amp.       -0.0026 Ry
        Total length         44.8339 bohr

     End of self-consistent calculation

[...]

          k = 0.0628 0.0000 0.0000 ( 15076 PWs)   bands (ev):

[...]

          k =-0.0942-0.1632 0.0000 ( 15094 PWs)   bands (ev):

   -72.6245 -72.5895 -72.5678 -70.2177 -70.1981 -70.1774 -70.1093 -70.1072
   -70.0912 -70.0808 -70.0736 -70.0657 -41.6956 -41.6365 -41.6258 -41.5854
   -41.5807 -41.5689 -41.5225 -41.5224 -41.5187 -41.4969 -41.4752 -41.4405
   -41.4134 -41.4095 -41.4009 -41.3934 -41.3743 -41.3702 -41.3525 -41.3436
   -41.3323 -41.3176 -41.3080 -41.3017 -41.2915 -41.2034 -41.1919 -36.7601
   -36.7442 -36.7310 -36.7236 -36.7202 -36.6614 -36.6514 -36.6396 -36.6283
    -4.0540  -3.6865  -2.6373  -2.1929  -1.9683  -1.9206  -1.6643  -1.4502
    -1.4334  -1.2318  -1.1411  -0.8178  -0.8062  -0.6834  -0.6493  -0.4374
    -0.3283  -0.2628  -0.2148  -0.0375   0.0314   0.1492   0.2466   0.4083
     0.5227   0.5367   0.5483   0.7009   0.7315   0.7807   0.8031   0.9145
     1.0486   1.0902   1.1649   1.1720   1.1872   1.2037   1.5400   1.6527
     1.8382   1.9841   2.0230   2.1508   2.2450   2.2628   2.3438   2.4016
     2.5641   2.6578   2.7357   2.7781   2.8097   3.0878   3.1312   3.2489
     3.3085   3.5362   3.5467   3.7097   3.7122   4.2159   4.2246   4.5179
     4.7506   4.9320

     the Fermi energy is     1.4287 ev

!    total energy              =   -2067.28842960 Ry
     Harris-Foulkes estimate   =   -2067.28843428 Ry
     estimated scf accuracy    <       0.00000100 Ry

     The total energy is the sum of the following terms:

     one-electron contribution =  -17881.02005531 Ry
     hartree contribution      =    8929.25113231 Ry
     xc contribution           =    -336.82263121 Ry
     ewald contribution        =    7221.43885971 Ry
     electric field correction =       0.00000026 Ry
     smearing contrib. (-TS)   =      -0.13573537 Ry

     convergence has been achieved in  23 iterations

 BEEF-vdW xc energy contributions
           1 :   -293.478357389134
           2 :    267.050343561407
           3 :   -222.142713827830
           4 :    171.079137075596
           5 :   -125.496411411884
           6 :    92.3013575445396
           7 :   -72.3196889604174
           8 :    61.7657179859548
           9 :   -55.2969552284331
          10 :    48.8806475643136
          11 :   -41.1735688814395
          12 :    33.1404018198374
          13 :   -26.5865753550647
          14 :    22.6654527766217
          15 :   -21.1812967621580
          16 :    20.8873867760645
          17 :   -20.3856267949926
          18 :    18.9642922521246
          19 :   -16.8694956329764
          20 :    14.9316210917888
          21 :   -13.8842333867531
          22 :    13.8577437745366
          23 :   -14.3532692085400
          24 :    14.6428221220843
          25 :   -14.2690635262088
          26 :    13.2973644456078
          27 :   -12.1895741319715
          28 :    11.4365207502601
          29 :   -11.2259283966858
          30 :    11.3587256391601
          31 :   -28.0090116602207
          32 :   -20.4345336799214

     Forces acting on atoms (Ry/au):

     negative rho (up, down):  2.031E-01 0.000E+00
     atom    1 type  1   force =    -0.00000029   -0.01128467    0.00102868
     atom    2 type  1   force =    -0.00977503    0.00563964    0.00102546
     atom    3 type  1   force =     0.00978380    0.00564412    0.00103324
     atom    4 type  2   force =     0.00000170   -0.00000166    0.01226323
     atom    5 type  1   force =    -0.00000065   -0.00154139   -0.00838618
     atom    6 type  1   force =    -0.00133389    0.00076729   -0.00837518
     atom    7 type  1   force =     0.00132924    0.00076649   -0.00837516
     atom    8 type  2   force =    -0.00000142    0.00004653    0.01123629
     atom    9 type  1   force =    -0.00000227    0.00019637   -0.00045912
     atom   10 type  1   force =     0.00016138   -0.00011597   -0.00046363
     atom   11 type  1   force =    -0.00016581   -0.00011607   -0.00046219
     atom   12 type  2   force =     0.00000322   -0.00000067   -0.00006545

     Total force =     0.029674     Total SCF correction =     0.002513

     entering subroutine stress ...

     negative rho (up, down):  2.031E-01 0.000E+00
          total   stress  (Ry/bohr**3)                   (kbar)     P=  -32.27
  -0.00030658  -0.00000001  -0.00000000        -45.10     -0.00     -0.00
  -0.00000001  -0.00030655  -0.00000002         -0.00    -45.10     -0.00
  -0.00000000  -0.00000002  -0.00004487         -0.00     -0.00     -6.60

 !ASE

     Writing output data file calc.save

     General routines

     Parallel routines

   This run was terminated on:  15:19:46  25Dec2018

   JOB DONE.
Job  /afs/slac/g/suncat/bin/suncat-tsmpirun -x LD_LIBRARY_PATH -wdir /scratch/qe109544_W2ilT pw.x -in pw.inp

TID   HOST_NAME   COMMAND_LINE            STATUS            TERMINATION_TIME
00000 suncat0081 pw.x -in pw.inp   Done                     12/25/2018 15:19:46
00001 suncat0081 pw.x -in pw.inp   Done                     12/25/2018 15:19:46
00002 suncat0081 pw.x -in pw.inp   Done                     12/25/2018 15:19:46
00003 suncat0081 pw.x -in pw.inp   Done                     12/25/2018 15:19:46
00004 suncat0081 pw.x -in pw.inp   Done                     12/25/2018 15:19:46
00005 suncat0081 pw.x -in pw.inp   Done                     12/25/2018 15:19:46
00006 suncat0081 pw.x -in pw.inp   Done                     12/25/2018 15:19:46
00007 suncat0081 pw.x -in pw.inp   Done                     12/25/2018 15:19:46
00008 suncat0080 pw.x -in pw.inp   Done                     12/25/2018 15:19:46
00009 suncat0080 pw.x -in pw.inp   Done                     12/25/2018 15:19:46
00010 suncat0080 pw.x -in pw.inp   Done                     12/25/2018 15:19:46
00011 suncat0080 pw.x -in pw.inp   Done                     12/25/2018 15:19:46
00012 suncat0080 pw.x -in pw.inp   Done                     12/25/2018 15:19:46
00013 suncat0080 pw.x -in pw.inp   Done                     12/25/2018 15:19:46
00014 suncat0080 pw.x -in pw.inp   Done                     12/25/2018 15:19:46
00015 suncat0080 pw.x -in pw.inp   Done                     12/25/2018 15:19:46
00016 suncat0172 pw.x -in pw.inp   Done                     12/25/2018 15:19:46
00017 suncat0172 pw.x -in pw.inp   Done                     12/25/2018 15:19:46
00018 suncat0172 pw.x -in pw.inp   Done                     12/25/2018 15:19:46
00019 suncat0172 pw.x -in pw.inp   Done                     12/25/2018 15:19:46
00020 suncat0172 pw.x -in pw.inp   Done                     12/25/2018 15:19:46
00021 suncat0172 pw.x -in pw.inp   Done                     12/25/2018 15:19:46
00022 suncat0172 pw.x -in pw.inp   Done                     12/25/2018 15:19:46
00023 suncat0172 pw.x -in pw.inp   Done                     12/25/2018 15:19:46
00024 suncat0171 pw.x -in pw.inp   Done                     12/25/2018 15:19:46
00025 suncat0171 pw.x -in pw.inp   Done                     12/25/2018 15:19:46
00026 suncat0171 pw.x -in pw.inp   Done                     12/25/2018 15:19:46
00027 suncat0171 pw.x -in pw.inp   Done                     12/25/2018 15:19:46
00028 suncat0171 pw.x -in pw.inp   Done                     12/25/2018 15:19:46
00029 suncat0171 pw.x -in pw.inp   Done                     12/25/2018 15:19:46
00030 suncat0171 pw.x -in pw.inp   Done                     12/25/2018 15:19:46
00031 suncat0171 pw.x -in pw.inp   Done                     12/25/2018 15:19:46
00032 suncat0270 pw.x -in pw.inp   Done                     12/25/2018 15:19:46
00033 suncat0270 pw.x -in pw.inp   Done                     12/25/2018 15:19:46
00034 suncat0270 pw.x -in pw.inp   Done                     12/25/2018 15:19:46
00035 suncat0270 pw.x -in pw.inp   Done                     12/25/2018 15:19:46
00036 suncat0270 pw.x -in pw.inp   Done                     12/25/2018 15:19:46
00037 suncat0270 pw.x -in pw.inp   Done                     12/25/2018 15:19:46
00038 suncat0270 pw.x -in pw.inp   Done                     12/25/2018 15:19:46
00039 suncat0270 pw.x -in pw.inp   Done                     12/25/2018 15:19:46
00040 suncat0268 pw.x -in pw.inp   Done                     12/25/2018 15:19:46
00041 suncat0268 pw.x -in pw.inp   Done                     12/25/2018 15:19:46
00042 suncat0268 pw.x -in pw.inp   Done                     12/25/2018 15:19:46
00043 suncat0268 pw.x -in pw.inp   Done                     12/25/2018 15:19:46
00044 suncat0268 pw.x -in pw.inp   Done                     12/25/2018 15:19:46
00045 suncat0268 pw.x -in pw.inp   Done                     12/25/2018 15:19:46
00046 suncat0268 pw.x -in pw.inp   Done                     12/25/2018 15:19:46
00047 suncat0268 pw.x -in pw.inp   Done                     12/25/2018 15:19:46
00048 suncat0207 pw.x -in pw.inp   Done                     12/25/2018 15:19:46
00049 suncat0207 pw.x -in pw.inp   Done                     12/25/2018 15:19:46
00050 suncat0207 pw.x -in pw.inp   Done                     12/25/2018 15:19:46
00051 suncat0207 pw.x -in pw.inp   Done                     12/25/2018 15:19:46
00052 suncat0207 pw.x -in pw.inp   Done                     12/25/2018 15:19:46
00053 suncat0207 pw.x -in pw.inp   Done                     12/25/2018 15:19:46
00054 suncat0207 pw.x -in pw.inp   Done                     12/25/2018 15:19:46
00055 suncat0207 pw.x -in pw.inp   Done                     12/25/2018 15:19:46
00056 suncat0206 pw.x -in pw.inp   Done                     12/25/2018 15:19:46
00057 suncat0206 pw.x -in pw.inp   Done                     12/25/2018 15:19:46
00058 suncat0206 pw.x -in pw.inp   Done                     12/25/2018 15:19:46
00059 suncat0206 pw.x -in pw.inp   Done                     12/25/2018 15:19:46
00060 suncat0206 pw.x -in pw.inp   Done                     12/25/2018 15:19:46
00061 suncat0206 pw.x -in pw.inp   Done                     12/25/2018 15:19:46
00062 suncat0206 pw.x -in pw.inp   Done                     12/25/2018 15:19:46
00063 suncat0206 pw.x -in pw.inp   Done                     12/25/2018 15:19:46