     Program PWSCF v.5.1rc2 (svn rev. 11289) starts on  2Jan2019 at 10:17:27

     Current dimensions of program PWSCF are:
     Max number of different atomic species (ntypx) = 10
     Max number of k-points (npk) =  40000
     Max angular momentum in pseudopotentials (lmaxx) =  3
     Presently stress not available with electric field

     IMPORTANT: XC functional enforced from input :
     Exchange-correlation      = BEEF-VDW ( 1  4 27 13 2)
     Any further DFT definition will be discarded
     Please, verify this is what you really want

     Subspace diagonalization in iterative solution of the eigenvalue problem:
     a serial algorithm will be used

     bravais-lattice index     =            0
     lattice parameter (alat)  =       1.8897  a.u.
     unit-cell volume          =    4831.6345 (a.u.)^3
     number of atoms/cell      =           12
     number of atomic types    =            2
     number of electrons       =       165.00
     number of Kohn-Sham states=          112
     kinetic-energy cutoff     =      36.7493  Ry
     charge density cutoff     =     367.4932  Ry
     convergence threshold     =      1.0E-06
     mixing beta               =       0.1000
     number of iterations used =           10  plain     mixing
     Exchange-correlation      = BEEF-VDW ( 1  4 27 13 2)
     nstep                     =           50

     celldm(1)=   1.889726  celldm(2)=   0.000000  celldm(3)=   0.000000
     celldm(4)=   0.000000  celldm(5)=   0.000000  celldm(6)=   0.000000

     crystal axes: (cart. coord. in units of alat)
               a(1) = (   5.782881   0.000000   0.000000 )
               a(2) = (  -2.891440   5.008122   0.000000 )
               a(3) = (   0.000000   0.000000  24.721702 )

     reciprocal axes: (cart. coord. in units 2 pi/alat)
               b(1) = (  0.172924  0.099838  0.000000 )
               b(2) = (  0.000000  0.199676  0.000000 )
               b(3) = (  0.000000  0.000000  0.040450 )

     PseudoPot. # 1 for W  read from file:
     /afs/slac.stanford.edu/u/if/mamunm/psp/gbrv1.5pbe/W.UPF
     MD5 check sum: 9c083fa34c2a2ea0f02f1f893e16e1c8
     Pseudo is Ultrasoft + core correction, Zval = 14.0
     Generated by new atomic code, or converted to UPF format
     Using radial grid of  923 points,  8 beta functions with:
                l(1) =   0
                l(2) =   0
                l(3) =   0
                l(4) =   1
                l(5) =   1
                l(6) =   2
                l(7) =   2
                l(8) =   3
     Q(r) pseudized with  6 coefficients,  rinner =    1.350   1.350   1.350
                                                       1.350   1.350   1.350
                                                       1.350

     PseudoPot. # 2 for Ta read from file:
     /afs/slac.stanford.edu/u/if/mamunm/psp/gbrv1.5pbe/Ta.UPF
     MD5 check sum: f8bbe9446314a3b8ea5d9f3e3836c939
     Pseudo is Ultrasoft + core correction, Zval = 13.0
     Generated by new atomic code, or converted to UPF format
     Using radial grid of  921 points,  7 beta functions with:
                l(1) =   0
                l(2) =   0
                l(3) =   1
                l(4) =   1
                l(5) =   2
                l(6) =   2
                l(7) =   3
     Q(r) pseudized with  6 coefficients,  rinner =    1.300   1.300   1.300
                                                       1.300   1.300   1.300
                                                       1.300

     vdW kernel table read from file vdW_kernel_table
     MD5 check sum: 095c7af220d748ca6e76c0b4c6cfb241

     atomic species   valence    mass     pseudopotential
        W1            14.00   183.84000     W ( 1.00)
        Ta1           13.00   180.94788     Ta( 1.00)

     No symmetry found

   Cartesian axes

     site n.     atom                  positions (alat units)
         1           W1  tau(   1) = (   0.0000000   0.0000000  10.0000000  )
         2           W1  tau(   2) = (  -1.4457202   2.5040608  10.0000000  )
         3           W1  tau(   3) = (   1.4457202   2.5040608  10.0000000  )
         4           Ta1 tau(   4) = (   2.8914404   0.0000000  10.0000000  )
         5           W1  tau(   5) = (   2.8914404   1.6693739  12.3608512  )
         6           W1  tau(   6) = (   1.4457202   4.1734347  12.3608512  )
         7           W1  tau(   7) = (  -1.4457202   4.1734347  12.3608512  )
         8           Ta1 tau(   8) = (   0.0000000   1.6693739  12.3608512  )
         9           W1  tau(   9) = (  -0.0000000   3.3387477  14.7217023  )
        10           W1  tau(  10) = (   1.4457202   0.8346869  14.7217023  )
        11           W1  tau(  11) = (   4.3371605   0.8346869  14.7217023  )
        12           Ta1 tau(  12) = (   2.8914404   3.3387477  14.7217023  )

     number of k points=    20  Fermi-Dirac smearing, width (Ry)=  0.0110
                       cart. coord. in units 2pi/alat
        k(    1) = (   0.0000000   0.0000000   0.0000000), wk =   0.0555556
        k(    2) = (   0.0000000   0.0332793   0.0000000), wk =   0.1111111
        k(    3) = (   0.0000000   0.0665586   0.0000000), wk =   0.1111111
        k(    4) = (   0.0000000  -0.0998378   0.0000000), wk =   0.0555556
        k(    5) = (   0.0288207   0.0166396   0.0000000), wk =   0.1111111
        k(    6) = (   0.0288207   0.0499189   0.0000000), wk =   0.1111111
        k(    7) = (   0.0288207   0.0831982   0.0000000), wk =   0.1111111
        k(    8) = (   0.0288207  -0.0831982   0.0000000), wk =   0.1111111
        k(    9) = (   0.0288207  -0.0499189   0.0000000), wk =   0.1111111
        k(   10) = (   0.0288207  -0.0166396   0.0000000), wk =   0.1111111
        k(   11) = (   0.0576414   0.0332793   0.0000000), wk =   0.1111111
        k(   12) = (   0.0576414   0.0665586   0.0000000), wk =   0.1111111
        k(   13) = (   0.0576414   0.0998378   0.0000000), wk =   0.1111111
        k(   14) = (   0.0576414  -0.0665586   0.0000000), wk =   0.1111111
        k(   15) = (   0.0576414  -0.0332793   0.0000000), wk =   0.1111111
        k(   16) = (   0.0576414   0.0000000   0.0000000), wk =   0.1111111
        k(   17) = (  -0.0864621  -0.0499189   0.0000000), wk =   0.0555556
        k(   18) = (  -0.0864621  -0.0166396   0.0000000), wk =   0.1111111
        k(   19) = (  -0.0864621   0.0166396   0.0000000), wk =   0.1111111
        k(   20) = (  -0.0864621  -0.1497567   0.0000000), wk =   0.0555556

     Largest allocated arrays     est. size (Mb)     dimensions
     Largest temporary arrays     est. size (Mb)     dimensions

     Initial potential from superposition of free atoms
     Check: negative starting charge=   -0.852599

     starting charge  164.09360, renormalised to  165.00000

     negative rho (up, down):  8.573E-01 0.000E+00

     *
     * You are using vdW-DF for exchange-correlation in this calculation.
     * Please cite the following three references that made this development
     * possible:
     *
     *   M. Dion, H. Rydberg, E. Schroder, D. C. Langreth, and
     *   B. I. Lundqvist, Phys. Rev. Lett. 92, 246401 (2004).
     *
     *   T. Thonhauser, V. R. Cooper, S. Li, A. Puzder, P. Hyldgaard, and
     *   D. C. Langreth, Phys. Rev. B 76, 125112 (2007).
     *
     *   G. Roman-Perez and J. M. Soler, Phys. Rev. Lett. 103, 096102 (2009).
     *
     *
     * If you are using vdW-DF2, please also cite:
     *
     *   K. Lee, E. D. Murray, L. Kong, B. I. Lundqvist, and
     *   D. C. Langreth, Phys. Rev. B 82, 081101(R) (2010).
     *
     *
     * If you are calculating the stress with vdW-DF, please also cite:
     *
     *   R. Sabatini, E. Kucukbenli, B. Kolb, T. Thonhauser, and
     *   S. de Gironcoli, J. Phys.: Condens. Matter 24, 424209 (2012).
     *

     Carrying out vdW-DF run using the following parameters:

     Nqs =      20    Nr_points =    1024   r_max =   100.000
     q_mesh =
               0.00001000     0.04494208     0.09755937     0.15916263
               0.23128650     0.31572767     0.41458969     0.53033537
               0.66584808     0.82450364     1.01025438     1.22772762
               1.48234092     1.78043706     2.12944203     2.53805004
               3.01644009     3.57652955     4.23227104     5.00000000

     Gradients computed in reciprocal space

     Adding external electric field

     Computed dipole along edir(3) :
        Dipole                0.0000 Ry au,          0.0000 Debye
        Dipole field          0.0000 Ry au

        Potential amp.       -0.0000 Ry
        Total length         45.5493 bohr

     Starting wfc are  156 randomized atomic wfcs

     Self-consistent Calculation

     iteration #  1     ecut=    36.75 Ry     beta=0.10
     Davidson diagonalization with overlap
     ethr =  1.00E-02,  avg # of iterations =  2.0

[...]

     total energy              =   -1872.81525181 Ry
     Harris-Foulkes estimate   =   -1873.40768345 Ry
     estimated scf accuracy    <       3.50323937 Ry

[...]

     End of self-consistent calculation

          k = 0.0000 0.0000 0.0000 ( 18151 PWs)   bands (ev):

   -71.9898 -71.9438 -71.9438 -71.8945 -71.8902 -71.8523 -71.8523 -71.8513
   -71.8513 -65.9540 -65.9539 -65.8191 -36.4994 -36.3269 -36.3192 -36.3192
   -36.2821 -36.2547 -36.2143 -36.2143 -36.0733 -36.0733 -36.0726 -35.9933
   -35.9933 -35.9653 -35.9653 -35.9043 -35.8313 -35.8146 -35.8146 -35.7665
   -35.7665 -35.7151 -35.6820 -35.6190 -35.6190 -35.6155 -35.6155 -32.4001
   -32.3708 -32.1969 -32.1969 -32.1901 -32.1901 -32.1670 -32.1499 -32.1499
    -5.7194  -3.9754  -3.0958  -2.5081  -2.5081  -2.4890  -2.2813  -2.2813
    -2.2705  -1.5021  -1.4926  -1.4926  -1.4655  -1.4465  -1.4465  -0.1064
    -0.0101  -0.0101   1.0115   1.1034   1.1034   1.1374   1.4753   1.8245
     1.8245   1.8717   1.9257   1.9257   2.0903   2.1117   2.2473   2.2473
     2.4333   2.4333   2.5032   2.5032   2.7624   3.0880   3.0880   3.1883
     3.8578   4.0720   4.0835   4.0835   4.1751   4.1751   4.6841   4.6841
     5.0139   5.0139   5.3401   5.3401   5.4446   5.9499   6.4863   6.5095
     6.5095   6.5614   6.5614   6.5626   6.5978   6.5978   6.6775   6.9425

[...]

          k =-0.0865-0.0499 0.0000 ( 18156 PWs)   bands (ev):

[...]

     the Fermi energy is     2.2601 ev

!    total energy              =   -1873.06186990 Ry
     Harris-Foulkes estimate   =   -1873.06186925 Ry
     estimated scf accuracy    <       0.00000025 Ry

     The total energy is the sum of the following terms:

     one-electron contribution =  -13692.69231493 Ry
     hartree contribution      =    6828.79132567 Ry
     xc contribution           =    -513.25807529 Ry
     ewald contribution        =    5504.19822914 Ry
     electric field correction =       0.00000000 Ry
     smearing contrib. (-TS)   =      -0.10103449 Ry

     convergence has been achieved in  15 iterations

 BEEF-vdW xc energy contributions
           1 :   -451.516221688155
           2 :    417.561075626195
           3 :   -357.828799206209
           4 :    285.561748965043
           5 :   -214.487666836324
           6 :    154.726311677380
           7 :   -110.622057328692
           8 :    81.0150519839198
           9 :   -61.3973537795415
[...]
     Generated by new atomic code, or converted to UPF format
     Using radial grid of  923 points,  8 beta functions with:
                l(1) =   0
                l(2) =   0
                l(3) =   0
                l(4) =   1
                l(5) =   1
                l(6) =   2
                l(7) =   2
                l(8) =   3
     Q(r) pseudized with  6 coefficients,  rinner =    1.350   1.350   1.350
                                                       1.350   1.350   1.350
                                                       1.350

     PseudoPot. # 2 for Ta read from file:
     /afs/slac.stanford.edu/u/if/mamunm/psp/gbrv1.5pbe/Ta.UPF
     MD5 check sum: f8bbe9446314a3b8ea5d9f3e3836c939
     Pseudo is Ultrasoft + core correction, Zval = 13.0
     Generated by new atomic code, or converted to UPF format
     Using radial grid of  921 points,  7 beta functions with:
                l(1) =   0
                l(2) =   0
                l(3) =   1
                l(4) =   1
                l(5) =   2
                l(6) =   2
                l(7) =   3
     Q(r) pseudized with  6 coefficients,  rinner =    1.300   1.300   1.300
                                                       1.300   1.300   1.300
                                                       1.300

     vdW kernel table read from file vdW_kernel_table
     MD5 check sum: 095c7af220d748ca6e76c0b4c6cfb241

     atomic species   valence    mass     pseudopotential
        W1            14.00   183.84000     W ( 1.00)
        Ta1           13.00   180.94788     Ta( 1.00)

     No symmetry found

   Cartesian axes

     site n.     atom                  positions (alat units)
         1           W1  tau(   1) = (   0.0000000   0.0000000  10.0000000  )
         2           W1  tau(   2) = (  -1.4457202   2.5040608  10.0000000  )
         3           W1  tau(   3) = (   1.4457202   2.5040608  10.0000000  )
         4           Ta1 tau(   4) = (   2.8914404   0.0000000  10.0000000  )
         5           W1  tau(   5) = (   2.8914404   1.6693739  12.3608512  )
         6           W1  tau(   6) = (   1.4457202   4.1734347  12.3608512  )
         7           W1  tau(   7) = (  -1.4457202   4.1734347  12.3608512  )
         8           Ta1 tau(   8) = (   0.0000000   1.6693739  12.3608512  )
         9           W1  tau(   9) = (   0.0000004   3.3790118  14.6988475  )
        10           W1  tau(  10) = (   1.4805856   0.8145563  14.6988485  )
        11           W1  tau(  11) = (   4.3022928   0.8145485  14.6988463  )
        12           Ta1 tau(  12) = (   2.8914408   3.3387465  14.8602575  )

     number of k points=    20  Fermi-Dirac smearing, width (Ry)=  0.0110
                       cart. coord. in units 2pi/alat
        k(    1) = (   0.0000000   0.0000000   0.0000000), wk =   0.0555556
        k(    2) = (   0.0000000   0.0332793   0.0000000), wk =   0.1111111
        k(    3) = (   0.0000000   0.0665586   0.0000000), wk =   0.1111111
        k(    4) = (   0.0000000  -0.0998378   0.0000000), wk =   0.0555556
        k(    5) = (   0.0288207   0.0166396   0.0000000), wk =   0.1111111
        k(    6) = (   0.0288207   0.0499189   0.0000000), wk =   0.1111111
        k(    7) = (   0.0288207   0.0831982   0.0000000), wk =   0.1111111
        k(    8) = (   0.0288207  -0.0831982   0.0000000), wk =   0.1111111
        k(    9) = (   0.0288207  -0.0499189   0.0000000), wk =   0.1111111
        k(   10) = (   0.0288207  -0.0166396   0.0000000), wk =   0.1111111
        k(   11) = (   0.0576414   0.0332793   0.0000000), wk =   0.1111111
        k(   12) = (   0.0576414   0.0665586   0.0000000), wk =   0.1111111
        k(   13) = (   0.0576414   0.0998378   0.0000000), wk =   0.1111111
        k(   14) = (   0.0576414  -0.0665586   0.0000000), wk =   0.1111111
        k(   15) = (   0.0576414  -0.0332793   0.0000000), wk =   0.1111111
        k(   16) = (   0.0576414   0.0000000   0.0000000), wk =   0.1111111
        k(   17) = (  -0.0864621  -0.0499189   0.0000000), wk =   0.0555556
        k(   18) = (  -0.0864621  -0.0166396   0.0000000), wk =   0.1111111
        k(   19) = (  -0.0864621   0.0166396   0.0000000), wk =   0.1111111
        k(   20) = (  -0.0864621  -0.1497567   0.0000000), wk =   0.0555556

     Largest allocated arrays     est. size (Mb)     dimensions
     Largest temporary arrays     est. size (Mb)     dimensions

     Initial potential from superposition of free atoms
     Check: negative starting charge=   -0.850693

     starting charge  164.09360, renormalised to  165.00000

[...]

     *
     * You are using vdW-DF for exchange-correlation in this calculation.
     * Please cite the following three references that made this development
     * possible:
     *
     *   M. Dion, H. Rydberg, E. Schroder, D. C. Langreth, and
     *   B. I. Lundqvist, Phys. Rev. Lett. 92, 246401 (2004).
     *
     *   T. Thonhauser, V. R. Cooper, S. Li, A. Puzder, P. Hyldgaard, and
     *   D. C. Langreth, Phys. Rev. B 76, 125112 (2007).
     *
     *   G. Roman-Perez and J. M. Soler, Phys. Rev. Lett. 103, 096102 (2009).
     *
     *
     * If you are using vdW-DF2, please also cite:
     *
     *   K. Lee, E. D. Murray, L. Kong, B. I. Lundqvist, and
     *   D. C. Langreth, Phys. Rev. B 82, 081101(R) (2010).
     *
     *
     * If you are calculating the stress with vdW-DF, please also cite:
     *
     *   R. Sabatini, E. Kucukbenli, B. Kolb, T. Thonhauser, and
     *   S. de Gironcoli, J. Phys.: Condens. Matter 24, 424209 (2012).
     *

     Carrying out vdW-DF run using the following parameters:

     Nqs =      20    Nr_points =    1024   r_max =   100.000
     q_mesh =
               0.00001000     0.04494208     0.09755937     0.15916263
               0.23128650     0.31572767     0.41458969     0.53033537
               0.66584808     0.82450364     1.01025438     1.22772762
               1.48234092     1.78043706     2.12944203     2.53805004
               3.01644009     3.57652955     4.23227104     5.00000000

     Gradients computed in reciprocal space

[...]

     Starting wfc are  156 randomized atomic wfcs

     Self-consistent Calculation

[...]

     total energy              =   -1873.07561218 Ry
     Harris-Foulkes estimate   =   -1873.07561207 Ry
     estimated scf accuracy    <       0.00000118 Ry

     iteration # 16     ecut=    36.75 Ry     beta=0.10
     Davidson diagonalization with overlap
     ethr =  7.13E-10,  avg # of iterations =  2.0

[...]

     negative rho (up, down):  8.889E-01 0.000E+00

     Adding external electric field

     Computed dipole along edir(3) :
        Dipole                0.0151 Ry au,          0.0384 Debye
        Dipole field          0.0000 Ry au

        Potential amp.       -0.0036 Ry
        Total length         45.5493 bohr

     End of self-consistent calculation

[...]

          k = 0.0576 0.0000 0.0000 ( 18181 PWs)   bands (ev):

[...]

          k =-0.0865-0.1498 0.0000 ( 18156 PWs)   bands (ev):

   -71.9690 -71.9542 -71.9386 -71.8547 -71.8517 -71.8412 -71.8337 -71.8275
   -71.8213 -66.1031 -65.9309 -65.8003 -36.3664 -36.2774 -36.2373 -36.1762
   -36.1526 -36.1484 -36.1289 -36.1025 -36.0671 -36.0568 -35.9952 -35.9649
   -35.9159 -35.9077 -35.8861 -35.8795 -35.8764 -35.8760 -35.8408 -35.8293
   -35.8080 -35.7833 -35.7639 -35.7542 -35.7285 -35.6137 -35.6108 -32.5627
   -32.3634 -32.3417 -32.3137 -32.2146 -32.1845 -32.1733 -32.1484 -32.1442
    -3.8264  -3.7627  -2.3142  -2.2768  -1.5744  -1.5205  -1.4223  -1.3577
    -1.3313  -1.2629  -0.5439  -0.4333  -0.2743  -0.2168  -0.0568  -0.0522
     0.1954   0.2859   0.3175   0.4562   0.5490   0.6723   0.8975   1.1083
     1.1669   1.2339   1.2971   1.3627   1.3632   1.4030   1.5900   1.5992
     1.7095   1.9518   2.0286   2.0484   2.1732   2.3194   2.8064   2.9044
     3.0872   3.3914   3.4461   3.4883   3.6565   3.7950   3.8876   3.9222
     4.1040   4.2668   4.4337   4.4382   4.5430   4.7773   4.8716   5.0589
     5.2908   5.5027   5.5211   5.7018   6.2339   6.3386   6.5164   6.7565

     the Fermi energy is     2.2817 ev

!    total energy              =   -1873.07561287 Ry
     Harris-Foulkes estimate   =   -1873.07561230 Ry
     estimated scf accuracy    <       0.00000053 Ry

     The total energy is the sum of the following terms:

     one-electron contribution =  -13661.97531691 Ry
     hartree contribution      =    6813.47619510 Ry
     xc contribution           =    -513.22946261 Ry
     ewald contribution        =    5488.75101861 Ry
     electric field correction =       0.00000059 Ry
     smearing contrib. (-TS)   =      -0.09804766 Ry

     convergence has been achieved in  16 iterations

 BEEF-vdW xc energy contributions
           1 :   -451.741026948432
           2 :    417.775289348106
           3 :   -358.031120022669
           4 :    285.762510859698
           5 :   -214.701285860860
           6 :    154.959421149186
           7 :   -110.867305831099
           8 :    81.2555934691748
           9 :   -61.6182864585082
          10 :    46.9097584398789
          11 :   -33.6996439089492
          12 :    20.9543774359041
          13 :   -9.48500904839000
          14 :   0.686622745224838
          15 :    4.64067198090174
          16 :   -6.83412809634251
          17 :    7.15283441626582
          18 :   -7.07788677885344
          19 :    7.58636165936196
          20 :   -8.78913787290429
          21 :    10.0781892661075
          22 :   -10.6430614996792
          23 :    10.0304970957829
          24 :   -8.43160354558267
          25 :    6.56515125042290
          26 :   -5.26155979705686
          27 :    5.00572678295657
          28 :   -5.69589047712179
          29 :    6.73611859210592
          30 :   -7.38852551944228
          31 :   -40.6705100120253
          32 :   -30.3898395379251

     Forces acting on atoms (Ry/au):

     negative rho (up, down):  8.889E-01 0.000E+00
     atom    1 type  1   force =    -0.00000023   -0.01183618    0.00063249
     atom    2 type  1   force =    -0.01024970    0.00591812    0.00063281
     atom    3 type  1   force =     0.01024960    0.00591855    0.00063192
     atom    4 type  2   force =     0.00000043   -0.00000050   -0.02986474
     atom    5 type  1   force =     0.00000005    0.01289505    0.01023248
     atom    6 type  1   force =     0.01116724   -0.00644741    0.01023175
     atom    7 type  1   force =    -0.01116717   -0.00644681    0.01023176
     atom    8 type  2   force =    -0.00000014   -0.00000021    0.00101632
     atom    9 type  1   force =     0.00000002   -0.00036316   -0.00107810
     atom   10 type  1   force =    -0.00031427    0.00018190   -0.00107918
     atom   11 type  1   force =     0.00031389    0.00018175   -0.00107802
     atom   12 type  2   force =     0.00000029   -0.00000112   -0.00050950

     Total force =     0.046168     Total SCF correction =     0.002298

     entering subroutine stress ...

     negative rho (up, down):  8.889E-01 0.000E+00
          total   stress  (Ry/bohr**3)                   (kbar)     P=  -48.74
  -0.00047156  -0.00000000   0.00000000        -69.37     -0.00      0.00
  -0.00000000  -0.00047156  -0.00000000         -0.00    -69.37     -0.00
   0.00000000  -0.00000000  -0.00005088          0.00     -0.00     -7.48

 !ASE

     Writing output data file calc.save

     General routines

     Parallel routines

   This run was terminated on:  11: 7:40   2Jan2019

   JOB DONE.
Job  /afs/slac/g/suncat/bin/suncat-tsmpirun -x LD_LIBRARY_PATH -wdir /scratch/qe649387_qnnm9 pw.x -in pw.inp

TID   HOST_NAME   COMMAND_LINE            STATUS            TERMINATION_TIME
00000 suncat0020 pw.x -in pw.inp   Done                     01/02/2019 11:07:40
00001 suncat0020 pw.x -in pw.inp   Done                     01/02/2019 11:07:40
00002 suncat0020 pw.x -in pw.inp   Done                     01/02/2019 11:07:40
00003 suncat0020 pw.x -in pw.inp   Done                     01/02/2019 11:07:40
00004 suncat0020 pw.x -in pw.inp   Done                     01/02/2019 11:07:40
00005 suncat0020 pw.x -in pw.inp   Done                     01/02/2019 11:07:40
00006 suncat0020 pw.x -in pw.inp   Done                     01/02/2019 11:07:40
00007 suncat0020 pw.x -in pw.inp   Done                     01/02/2019 11:07:40
00008 suncat0014 pw.x -in pw.inp   Done                     01/02/2019 11:07:40
00009 suncat0014 pw.x -in pw.inp   Done                     01/02/2019 11:07:40
00010 suncat0014 pw.x -in pw.inp   Done                     01/02/2019 11:07:40
00011 suncat0014 pw.x -in pw.inp   Done                     01/02/2019 11:07:40
00012 suncat0014 pw.x -in pw.inp   Done                     01/02/2019 11:07:40
00013 suncat0014 pw.x -in pw.inp   Done                     01/02/2019 11:07:40
00014 suncat0014 pw.x -in pw.inp   Done                     01/02/2019 11:07:40
00015 suncat0014 pw.x -in pw.inp   Done                     01/02/2019 11:07:40
00016 suncat0199 pw.x -in pw.inp   Done                     01/02/2019 11:07:40
00017 suncat0199 pw.x -in pw.inp   Done                     01/02/2019 11:07:40
00018 suncat0199 pw.x -in pw.inp   Done                     01/02/2019 11:07:40
00019 suncat0199 pw.x -in pw.inp   Done                     01/02/2019 11:07:40
00020 suncat0199 pw.x -in pw.inp   Done                     01/02/2019 11:07:40
00021 suncat0199 pw.x -in pw.inp   Done                     01/02/2019 11:07:40
00022 suncat0199 pw.x -in pw.inp   Done                     01/02/2019 11:07:40
00023 suncat0199 pw.x -in pw.inp   Done                     01/02/2019 11:07:40
00024 suncat0006 pw.x -in pw.inp   Done                     01/02/2019 11:07:40
00025 suncat0006 pw.x -in pw.inp   Done                     01/02/2019 11:07:40
00026 suncat0006 pw.x -in pw.inp   Done                     01/02/2019 11:07:40
00027 suncat0006 pw.x -in pw.inp   Done                     01/02/2019 11:07:40
00028 suncat0006 pw.x -in pw.inp   Done                     01/02/2019 11:07:40
00029 suncat0006 pw.x -in pw.inp   Done                     01/02/2019 11:07:40
00030 suncat0006 pw.x -in pw.inp   Done                     01/02/2019 11:07:40
00031 suncat0006 pw.x -in pw.inp   Done                     01/02/2019 11:07:40
00032 suncat0005 pw.x -in pw.inp   Done                     01/02/2019 11:07:40
00033 suncat0005 pw.x -in pw.inp   Done                     01/02/2019 11:07:40
00034 suncat0005 pw.x -in pw.inp   Done                     01/02/2019 11:07:40
00035 suncat0005 pw.x -in pw.inp   Done                     01/02/2019 11:07:40
00036 suncat0005 pw.x -in pw.inp   Done                     01/02/2019 11:07:40
00037 suncat0005 pw.x -in pw.inp   Done                     01/02/2019 11:07:40
00038 suncat0005 pw.x -in pw.inp   Done                     01/02/2019 11:07:40
00039 suncat0005 pw.x -in pw.inp   Done                     01/02/2019 11:07:40
00040 suncat0004 pw.x -in pw.inp   Done                     01/02/2019 11:07:40
00041 suncat0004 pw.x -in pw.inp   Done                     01/02/2019 11:07:40
00042 suncat0004 pw.x -in pw.inp   Done                     01/02/2019 11:07:40
00043 suncat0004 pw.x -in pw.inp   Done                     01/02/2019 11:07:40
00044 suncat0004 pw.x -in pw.inp   Done                     01/02/2019 11:07:40
00045 suncat0004 pw.x -in pw.inp   Done                     01/02/2019 11:07:40
00046 suncat0004 pw.x -in pw.inp   Done                     01/02/2019 11:07:40
00047 suncat0004 pw.x -in pw.inp   Done                     01/02/2019 11:07:40
00048 suncat0187 pw.x -in pw.inp   Done                     01/02/2019 11:07:40
00049 suncat0187 pw.x -in pw.inp   Done                     01/02/2019 11:07:40
00050 suncat0187 pw.x -in pw.inp   Done                     01/02/2019 11:07:40
00051 suncat0187 pw.x -in pw.inp   Done                     01/02/2019 11:07:40
00052 suncat0187 pw.x -in pw.inp   Done                     01/02/2019 11:07:40
00053 suncat0187 pw.x -in pw.inp   Done                     01/02/2019 11:07:40
00054 suncat0187 pw.x -in pw.inp   Done                     01/02/2019 11:07:40
00055 suncat0187 pw.x -in pw.inp   Done                     01/02/2019 11:07:40
00056 suncat0186 pw.x -in pw.inp   Done                     01/02/2019 11:07:40
00057 suncat0186 pw.x -in pw.inp   Done                     01/02/2019 11:07:40
00058 suncat0186 pw.x -in pw.inp   Done                     01/02/2019 11:07:40
00059 suncat0186 pw.x -in pw.inp   Done                     01/02/2019 11:07:40
00060 suncat0186 pw.x -in pw.inp   Done                     01/02/2019 11:07:40
00061 suncat0186 pw.x -in pw.inp   Done                     01/02/2019 11:07:40
00062 suncat0186 pw.x -in pw.inp   Done                     01/02/2019 11:07:40
00063 suncat0186 pw.x -in pw.inp   Done                     01/02/2019 11:07:40