     Program PWSCF v.5.1rc2 (svn rev. 11289) starts on 27Dec2018 at 14:36:41

     Current dimensions of program PWSCF are:
     Max number of different atomic species (ntypx) = 10
     Max number of k-points (npk) =  40000
     Max angular momentum in pseudopotentials (lmaxx) =  3
     Presently stress not available with electric field

     IMPORTANT: XC functional enforced from input :
     Exchange-correlation      = BEEF-VDW ( 1  4 27 13 2)
     Any further DFT definition will be discarded
     Please, verify this is what you really want

     Subspace diagonalization in iterative solution of the eigenvalue problem:
     a serial algorithm will be used

     bravais-lattice index     =            0
     lattice parameter (alat)  =       1.8897  a.u.
     unit-cell volume          =    4351.4004 (a.u.)^3
     number of atoms/cell      =           12
     number of atomic types    =            2
     number of electrons       =       186.00
     number of Kohn-Sham states=          123
     kinetic-energy cutoff     =      36.7493  Ry
     charge density cutoff     =     367.4932  Ry
     convergence threshold     =      1.0E-06
     mixing beta               =       0.1000
     number of iterations used =           10  plain     mixing
     Exchange-correlation      = BEEF-VDW ( 1  4 27 13 2)
     nstep                     =           50

     celldm(1)=   1.889726  celldm(2)=   0.000000  celldm(3)=   0.000000
     celldm(4)=   0.000000  celldm(5)=   0.000000  celldm(6)=   0.000000

     crystal axes: (cart. coord. in units of alat)
               a(1) = (   5.512627   0.000000   0.000000 )
               a(2) = (  -2.756314   4.774075   0.000000 )
               a(3) = (   0.000000   0.000000  24.501041 )

     reciprocal axes: (cart. coord. in units 2 pi/alat)
               b(1) = (  0.181402  0.104732  0.000000 )
               b(2) = (  0.000000  0.209465  0.000000 )
               b(3) = (  0.000000  0.000000  0.040815 )

     PseudoPot. # 1 for Os read from file:
     /afs/slac.stanford.edu/u/if/mamunm/psp/gbrv1.5pbe/Os.UPF
     MD5 check sum: a3fb40a04f0c37c25c34bbc47164c9a8
     Pseudo is Ultrasoft + core correction, Zval = 16.0
     Generated by new atomic code, or converted to UPF format
     Using radial grid of  983 points,  8 beta functions with:
                l(1) =   0
                l(2) =   0
                l(3) =   1
                l(4) =   1
                l(5) =   2
                l(6) =   2
                l(7) =   3
                l(8) =   3
     Q(r) pseudized with  8 coefficients,  rinner =    1.150   1.150   1.150
                                                       1.150   1.150   1.150
                                                       1.150

     PseudoPot. # 2 for W  read from file:
     /afs/slac.stanford.edu/u/if/mamunm/psp/gbrv1.5pbe/W.UPF
     MD5 check sum: 9c083fa34c2a2ea0f02f1f893e16e1c8
     Pseudo is Ultrasoft + core correction, Zval = 14.0
     Generated by new atomic code, or converted to UPF format
     Using radial grid of  923 points,  8 beta functions with:
                l(1) =   0
                l(2) =   0
                l(3) =   0
                l(4) =   1
                l(5) =   1
                l(6) =   2
                l(7) =   2
                l(8) =   3
     Q(r) pseudized with  6 coefficients,  rinner =    1.350   1.350   1.350
                                                       1.350   1.350   1.350
                                                       1.350

     vdW kernel table read from file vdW_kernel_table
     MD5 check sum: 095c7af220d748ca6e76c0b4c6cfb241

     atomic species   valence    mass     pseudopotential
        Os1           16.00   190.23000     Os( 1.00)
        W1            14.00   183.84000     W ( 1.00)

     No symmetry found

   Cartesian axes

     site n.     atom                  positions (alat units)
         1           Os1 tau(   1) = (   0.0000000   0.0000000  10.0000000  )
         2           Os1 tau(   2) = (  -1.3781568   2.3870377  10.0000000  )
         3           Os1 tau(   3) = (   1.3781568   2.3870377  10.0000000  )
         4           W1  tau(   4) = (   2.7563137   0.0000000  10.0000000  )
         5           Os1 tau(   5) = (   2.7563137   1.5913584  12.2505207  )
         6           Os1 tau(   6) = (   1.3781568   3.9783961  12.2505207  )
         7           Os1 tau(   7) = (  -1.3781568   3.9783961  12.2505207  )
         8           W1  tau(   8) = (   0.0000000   1.5913584  12.2505207  )
         9           Os1 tau(   9) = (  -0.0000000   3.1827169  14.5010414  )
        10           Os1 tau(  10) = (   1.3781568   0.7956792  14.5010414  )
        11           Os1 tau(  11) = (   4.1344705   0.7956792  14.5010414  )
        12           W1  tau(  12) = (   2.7563137   3.1827169  14.5010414  )

     number of k points=    20  Fermi-Dirac smearing, width (Ry)=  0.0110
                       cart. coord. in units 2pi/alat
        k(    1) = (   0.0000000   0.0000000   0.0000000), wk =   0.0555556
        k(    2) = (   0.0000000   0.0349108   0.0000000), wk =   0.1111111
        k(    3) = (   0.0000000   0.0698215   0.0000000), wk =   0.1111111
        k(    4) = (   0.0000000  -0.1047323   0.0000000), wk =   0.0555556
        k(    5) = (   0.0302336   0.0174554   0.0000000), wk =   0.1111111
        k(    6) = (   0.0302336   0.0523662   0.0000000), wk =   0.1111111
        k(    7) = (   0.0302336   0.0872769   0.0000000), wk =   0.1111111
        k(    8) = (   0.0302336  -0.0872769   0.0000000), wk =   0.1111111
        k(    9) = (   0.0302336  -0.0523662   0.0000000), wk =   0.1111111
        k(   10) = (   0.0302336  -0.0174554   0.0000000), wk =   0.1111111
        k(   11) = (   0.0604672   0.0349108   0.0000000), wk =   0.1111111
        k(   12) = (   0.0604672   0.0698215   0.0000000), wk =   0.1111111
        k(   13) = (   0.0604672   0.1047323   0.0000000), wk =   0.1111111
        k(   14) = (   0.0604672  -0.0698215   0.0000000), wk =   0.1111111
        k(   15) = (   0.0604672  -0.0349108   0.0000000), wk =   0.1111111
        k(   16) = (   0.0604672   0.0000000   0.0000000), wk =   0.1111111
        k(   17) = (  -0.0907009  -0.0523662   0.0000000), wk =   0.0555556
        k(   18) = (  -0.0907009  -0.0174554   0.0000000), wk =   0.1111111
        k(   19) = (  -0.0907009   0.0174554   0.0000000), wk =   0.1111111
        k(   20) = (  -0.0907009  -0.1570985   0.0000000), wk =   0.0555556

     Largest allocated arrays     est. size (Mb)     dimensions
     Largest temporary arrays     est. size (Mb)     dimensions

     Initial potential from superposition of free atoms
     Check: negative starting charge=   -1.310825

     starting charge  181.19865, renormalised to  186.00000

     negative rho (up, down):  1.346E+00 0.000E+00

     *
     * You are using vdW-DF for exchange-correlation in this calculation.
     * Please cite the following three references that made this development
     * possible:
     *
     *   M. Dion, H. Rydberg, E. Schroder, D. C. Langreth, and
     *   B. I. Lundqvist, Phys. Rev. Lett. 92, 246401 (2004).
     *
     *   T. Thonhauser, V. R. Cooper, S. Li, A. Puzder, P. Hyldgaard, and
     *   D. C. Langreth, Phys. Rev. B 76, 125112 (2007).
     *
     *   G. Roman-Perez and J. M. Soler, Phys. Rev. Lett. 103, 096102 (2009).
     *
     *
     * If you are using vdW-DF2, please also cite:
     *
     *   K. Lee, E. D. Murray, L. Kong, B. I. Lundqvist, and
     *   D. C. Langreth, Phys. Rev. B 82, 081101(R) (2010).
     *
     *
     * If you are calculating the stress with vdW-DF, please also cite:
     *
     *   R. Sabatini, E. Kucukbenli, B. Kolb, T. Thonhauser, and
     *   S. de Gironcoli, J. Phys.: Condens. Matter 24, 424209 (2012).
     *

     Carrying out vdW-DF run using the following parameters:

     Nqs =      20    Nr_points =    1024   r_max =   100.000
     q_mesh =
               0.00001000     0.04494208     0.09755937     0.15916263
               0.23128650     0.31572767     0.41458969     0.53033537
               0.66584808     0.82450364     1.01025438     1.22772762
               1.48234092     1.78043706     2.12944203     2.53805004
               3.01644009     3.57652955     4.23227104     5.00000000

     Gradients computed in reciprocal space

     Adding external electric field

     Computed dipole along edir(3) :
        Dipole                0.0000 Ry au,          0.0000 Debye
        Dipole field          0.0000 Ry au

        Potential amp.       -0.0000 Ry
        Total length         45.1428 bohr

     Starting wfc are  156 randomized atomic wfcs

     Self-consistent Calculation

     iteration #  1     ecut=    36.75 Ry     beta=0.10
     Davidson diagonalization with overlap
     ethr =  1.00E-02,  avg # of iterations =  5.6

[...]

     total energy              =   -2279.59842519 Ry
     Harris-Foulkes estimate   =   -2279.87187158 Ry
     estimated scf accuracy    <       1.87801965 Ry

[...]

     End of self-consistent calculation

          k = 0.0000 0.0000 0.0000 ( 16283 PWs)   bands (ev):

   -84.0110 -83.9727 -83.9727 -83.5796 -83.5788 -83.5422 -83.5421 -83.5420
   -83.5420 -72.0333 -71.9225 -71.9224 -43.6360 -43.4467 -43.4467 -43.4262
   -43.3210 -43.3210 -43.1814 -43.1502 -43.1082 -43.0164 -43.0164 -42.9491
   -42.9491 -42.8895 -42.8895 -42.8820 -42.8195 -42.8195 -42.7986 -42.7695
   -42.7695 -42.6281 -42.6173 -42.5706 -42.5706 -42.5683 -42.5683 -36.1241
   -36.1241 -36.1126 -36.0925 -36.0284 -35.8828 -35.8828 -35.8781 -35.8781
    -6.4490  -4.4825  -3.9865  -3.6199  -3.6199  -3.5921  -3.2873  -3.2823
    -3.2823  -2.6686  -2.6686  -2.6434  -2.4349  -2.4030  -2.4030  -1.0047
    -0.8826  -0.8826  -0.1539  -0.1539  -0.0605   0.1649   0.2178   0.5033
     0.5033   0.6658   0.9189   0.9189   1.0326   1.0326   1.2149   1.2149
     1.2936   1.2936   1.5648   1.9468   2.6108   2.6199   2.6199   2.9646
     2.9646   2.9743   3.1793   3.1912   3.1912   4.1493   4.1493   4.2592
     4.2592   4.3579   4.4321   4.4782   4.4782   4.9721   5.1498   5.3132
     5.3132   5.5377   5.5377   5.6581   5.7304   6.1284   6.1284   6.4592
     6.4592   6.7514   6.7514   6.8640   6.8640   6.8789   7.2868   7.4700
     7.6435   7.6435   7.9730

[...]

          k =-0.0907-0.0524 0.0000 ( 16392 PWs)   bands (ev):

[...]

     the Fermi energy is     2.8007 ev

!    total energy              =   -2279.27363706 Ry
     Harris-Foulkes estimate   =   -2279.27363190 Ry
     estimated scf accuracy    <       0.00000059 Ry

     The total energy is the sum of the following terms:

     one-electron contribution =  -19508.02564255 Ry
     hartree contribution      =    9735.89538056 Ry
     xc contribution           =    -475.68145095 Ry
     ewald contribution        =    7968.61267747 Ry
     electric field correction =       0.00000000 Ry
     smearing contrib. (-TS)   =      -0.07460158 Ry

     convergence has been achieved in  15 iterations

 BEEF-vdW xc energy contributions
           1 :   -417.313103779706
           2 :    386.632608373735
           3 :   -332.433821358557
           4 :    266.495213094260
           5 :   -201.457945674077
[...]
                l(7) =   3
                l(8) =   3
     Q(r) pseudized with  8 coefficients,  rinner =    1.150   1.150   1.150
                                                       1.150   1.150   1.150
                                                       1.150

     PseudoPot. # 2 for W  read from file:
     /afs/slac.stanford.edu/u/if/mamunm/psp/gbrv1.5pbe/W.UPF
     MD5 check sum: 9c083fa34c2a2ea0f02f1f893e16e1c8
     Pseudo is Ultrasoft + core correction, Zval = 14.0
     Generated by new atomic code, or converted to UPF format
     Using radial grid of  923 points,  8 beta functions with:
                l(1) =   0
                l(2) =   0
                l(3) =   0
                l(4) =   1
                l(5) =   1
                l(6) =   2
                l(7) =   2
                l(8) =   3
     Q(r) pseudized with  6 coefficients,  rinner =    1.350   1.350   1.350
                                                       1.350   1.350   1.350
                                                       1.350

     vdW kernel table read from file vdW_kernel_table
     MD5 check sum: 095c7af220d748ca6e76c0b4c6cfb241

     atomic species   valence    mass     pseudopotential
        Os1           16.00   190.23000     Os( 1.00)
        W1            14.00   183.84000     W ( 1.00)

     No symmetry found

   Cartesian axes

     site n.     atom                  positions (alat units)
         1           Os1 tau(   1) = (   0.0000000   0.0000000  10.0000000  )
         2           Os1 tau(   2) = (  -1.3781568   2.3870377  10.0000000  )
         3           Os1 tau(   3) = (   1.3781568   2.3870377  10.0000000  )
         4           W1  tau(   4) = (   2.7563137   0.0000000  10.0000000  )
         5           Os1 tau(   5) = (   2.7563137   1.5913584  12.2505207  )
         6           Os1 tau(   6) = (   1.3781568   3.9783961  12.2505207  )
         7           Os1 tau(   7) = (  -1.3781568   3.9783961  12.2505207  )
         8           W1  tau(   8) = (   0.0000000   1.5913584  12.2505207  )
         9           Os1 tau(   9) = (   0.0000004   3.1790824  14.4118172  )
        10           Os1 tau(  10) = (   1.3750094   0.7974975  14.4118161  )
        11           Os1 tau(  11) = (   4.1376212   0.7974974  14.4118169  )
        12           W1  tau(  12) = (   2.7563156   3.1827165  14.3815776  )

     number of k points=    20  Fermi-Dirac smearing, width (Ry)=  0.0110
                       cart. coord. in units 2pi/alat
        k(    1) = (   0.0000000   0.0000000   0.0000000), wk =   0.0555556
        k(    2) = (   0.0000000   0.0349108   0.0000000), wk =   0.1111111
        k(    3) = (   0.0000000   0.0698215   0.0000000), wk =   0.1111111
        k(    4) = (   0.0000000  -0.1047323   0.0000000), wk =   0.0555556
        k(    5) = (   0.0302336   0.0174554   0.0000000), wk =   0.1111111
        k(    6) = (   0.0302336   0.0523662   0.0000000), wk =   0.1111111
        k(    7) = (   0.0302336   0.0872769   0.0000000), wk =   0.1111111
        k(    8) = (   0.0302336  -0.0872769   0.0000000), wk =   0.1111111
        k(    9) = (   0.0302336  -0.0523662   0.0000000), wk =   0.1111111
        k(   10) = (   0.0302336  -0.0174554   0.0000000), wk =   0.1111111
        k(   11) = (   0.0604672   0.0349108   0.0000000), wk =   0.1111111
        k(   12) = (   0.0604672   0.0698215   0.0000000), wk =   0.1111111
        k(   13) = (   0.0604672   0.1047323   0.0000000), wk =   0.1111111
        k(   14) = (   0.0604672  -0.0698215   0.0000000), wk =   0.1111111
        k(   15) = (   0.0604672  -0.0349108   0.0000000), wk =   0.1111111
        k(   16) = (   0.0604672   0.0000000   0.0000000), wk =   0.1111111
        k(   17) = (  -0.0907009  -0.0523662   0.0000000), wk =   0.0555556
        k(   18) = (  -0.0907009  -0.0174554   0.0000000), wk =   0.1111111
        k(   19) = (  -0.0907009   0.0174554   0.0000000), wk =   0.1111111
        k(   20) = (  -0.0907009  -0.1570985   0.0000000), wk =   0.0555556

     Largest allocated arrays     est. size (Mb)     dimensions
     Largest temporary arrays     est. size (Mb)     dimensions

     Initial potential from superposition of free atoms
     Check: negative starting charge=   -1.307819

     starting charge  181.19865, renormalised to  186.00000

[...]

     *
     * You are using vdW-DF for exchange-correlation in this calculation.
     * Please cite the following three references that made this development
     * possible:
     *
     *   M. Dion, H. Rydberg, E. Schroder, D. C. Langreth, and
     *   B. I. Lundqvist, Phys. Rev. Lett. 92, 246401 (2004).
     *
     *   T. Thonhauser, V. R. Cooper, S. Li, A. Puzder, P. Hyldgaard, and
     *   D. C. Langreth, Phys. Rev. B 76, 125112 (2007).
     *
     *   G. Roman-Perez and J. M. Soler, Phys. Rev. Lett. 103, 096102 (2009).
     *
     *
     * If you are using vdW-DF2, please also cite:
     *
     *   K. Lee, E. D. Murray, L. Kong, B. I. Lundqvist, and
     *   D. C. Langreth, Phys. Rev. B 82, 081101(R) (2010).
     *
     *
     * If you are calculating the stress with vdW-DF, please also cite:
     *
     *   R. Sabatini, E. Kucukbenli, B. Kolb, T. Thonhauser, and
     *   S. de Gironcoli, J. Phys.: Condens. Matter 24, 424209 (2012).
     *

     Carrying out vdW-DF run using the following parameters:

     Nqs =      20    Nr_points =    1024   r_max =   100.000
     q_mesh =
               0.00001000     0.04494208     0.09755937     0.15916263
               0.23128650     0.31572767     0.41458969     0.53033537
               0.66584808     0.82450364     1.01025438     1.22772762
               1.48234092     1.78043706     2.12944203     2.53805004
               3.01644009     3.57652955     4.23227104     5.00000000

     Gradients computed in reciprocal space

[...]

     Starting wfc are  156 randomized atomic wfcs

     Self-consistent Calculation

[...]

     Threshold (ethr) on eigenvalues was too large:
     Diagonalizing with lowered threshold

     Davidson diagonalization with overlap
     ethr =  9.88E-04,  avg # of iterations =  2.8

[...]

     total energy              =   -2279.28814949 Ry
     Harris-Foulkes estimate   =   -2279.28814844 Ry
     estimated scf accuracy    <       0.00000348 Ry

     iteration # 16     ecut=    36.75 Ry     beta=0.10
     Davidson diagonalization with overlap
     ethr =  1.36E-09,  avg # of iterations =  1.0

[...]

     negative rho (up, down):  1.328E+00 0.000E+00

     Adding external electric field

     Computed dipole along edir(3) :
        Dipole                0.0247 Ry au,          0.0628 Debye
        Dipole field          0.0001 Ry au

        Potential amp.       -0.0064 Ry
        Total length         45.1428 bohr

     End of self-consistent calculation

[...]

          k = 0.0605 0.0000 0.0000 ( 16378 PWs)   bands (ev):

[...]

          k =-0.0907-0.1571 0.0000 ( 16392 PWs)   bands (ev):

   -84.0058 -83.9929 -83.9800 -83.5514 -83.5389 -83.5266 -83.5202 -83.5079
   -83.4954 -71.9869 -71.9243 -71.8101 -43.5477 -43.4177 -43.4041 -43.3520
   -43.3301 -43.3109 -43.2923 -43.2697 -43.0579 -43.0312 -42.9877 -42.8511
   -42.8249 -42.8097 -42.8030 -42.7900 -42.7855 -42.7726 -42.7630 -42.7611
   -42.7419 -42.7391 -42.7220 -42.7168 -42.7025 -42.5794 -42.5413 -36.1301
   -36.1113 -36.1082 -35.9993 -35.9888 -35.9086 -35.8886 -35.8327 -35.8121
    -4.6200  -4.5177  -2.9812  -2.9653  -2.6134  -2.5814  -2.4964  -2.4550
    -2.4454  -2.3141  -1.8972  -1.7214  -1.5415  -1.2931  -1.2854  -1.2281
    -1.0533  -0.9499  -0.8653  -0.6423  -0.4404  -0.2176   0.1630   0.2982
     0.3590   0.4099   0.4554   0.5706   0.5737   0.6003   0.7171   0.7873
     0.9088   0.9531   1.1240   1.1787   1.2017   1.2432   1.4097   1.4371
     1.8721   2.0627   2.1045   2.4951   2.6262   2.7439   2.7711   2.9117
     3.2176   3.3601   3.4691   3.5626   3.5742   3.7647   3.8706   4.1496
     4.4187   4.4435   4.8037   4.9071   5.1344   5.7526   5.7788   5.9702
     6.1426   6.4431   7.1460   7.6511   8.0160   8.2252   8.3915   8.4629
     8.8920   8.9318   9.2508

     the Fermi energy is     2.8232 ev

!    total energy              =   -2279.28815399 Ry
     Harris-Foulkes estimate   =   -2279.28815021 Ry
     estimated scf accuracy    <       0.00000055 Ry

     The total energy is the sum of the following terms:

     one-electron contribution =  -19777.75623936 Ry
     hartree contribution      =    9870.85038306 Ry
     xc contribution           =    -475.96475083 Ry
     ewald contribution        =    8103.65629988 Ry
     electric field correction =       0.00000176 Ry
     smearing contrib. (-TS)   =      -0.07384851 Ry

     convergence has been achieved in  16 iterations

 BEEF-vdW xc energy contributions
           1 :   -417.597926561493
           2 :    387.008934182710
           3 :   -332.938475144117
           4 :    267.083519035236
           5 :   -202.019287394865
           6 :    147.682047310507
           7 :   -109.158156323856
           8 :    86.2957470113865
           9 :   -75.0102545974869
          10 :    69.5628597006006
          11 :   -64.8594757991508
          12 :    57.9591678183755
          13 :   -48.4412861897078
          14 :    37.7638743699538
          15 :   -28.0912051924263
          16 :    21.1457007327643
          17 :   -17.5153981233891
          18 :    16.5816491426795
          19 :   -16.9700383912233
          20 :    17.2342312225265
          21 :   -16.4437304476795
          22 :    14.4415557241115
          23 :   -11.7274871403402
          24 :    9.08684188520789
          25 :   -7.17424852523965
          26 :    6.23846922157310
          27 :   -6.08264368800661
          28 :    6.23206647365345
          29 :   -6.19845648268461
          30 :    5.70416489192723
          31 :   -39.0323825583660
          32 :   -29.6800901763503

     Forces acting on atoms (Ry/au):

     negative rho (up, down):  1.328E+00 0.000E+00
     atom    1 type  1   force =     0.00000126    0.00415550    0.02165835
     atom    2 type  1   force =     0.00359914   -0.00207735    0.02165726
     atom    3 type  1   force =    -0.00359900   -0.00207920    0.02165791
     atom    4 type  2   force =    -0.00000099    0.00000044    0.03179284
     atom    5 type  1   force =    -0.00000059    0.00185191   -0.02467632
     atom    6 type  1   force =     0.00160397   -0.00092549   -0.02467654
     atom    7 type  1   force =    -0.00160411   -0.00092573   -0.02467627
     atom    8 type  2   force =     0.00000071   -0.00000045   -0.02017914
     atom    9 type  1   force =     0.00000020   -0.00054368   -0.00071254
     atom   10 type  1   force =    -0.00047097    0.00027178   -0.00071178
     atom   11 type  1   force =     0.00047025    0.00027228   -0.00071152
     atom   12 type  2   force =     0.00000011    0.00000000   -0.00042225

     Total force =     0.068678     Total SCF correction =     0.004747

     entering subroutine stress ...

     negative rho (up, down):  1.328E+00 0.000E+00
          total   stress  (Ry/bohr**3)                   (kbar)     P=  -32.05
  -0.00026279   0.00000000  -0.00000000        -38.66      0.00     -0.00
   0.00000000  -0.00026279  -0.00000000          0.00    -38.66     -0.00
  -0.00000000  -0.00000000  -0.00012802         -0.00     -0.00    -18.83

 !ASE

     Writing output data file calc.save

     General routines

     Parallel routines

   This run was terminated on:  15:35: 6  27Dec2018

   JOB DONE.
Job  /afs/slac/g/suncat/bin/suncat-tsmpirun -x LD_LIBRARY_PATH -wdir /scratch/qe110363_fJ7Py pw.x -in pw.inp

TID   HOST_NAME   COMMAND_LINE            STATUS            TERMINATION_TIME
00000 suncat0136 pw.x -in pw.inp   Done                     12/27/2018 15:35:06
00001 suncat0136 pw.x -in pw.inp   Done                     12/27/2018 15:35:06
00002 suncat0136 pw.x -in pw.inp   Done                     12/27/2018 15:35:06
00003 suncat0136 pw.x -in pw.inp   Done                     12/27/2018 15:35:06
00004 suncat0136 pw.x -in pw.inp   Done                     12/27/2018 15:35:06
00005 suncat0136 pw.x -in pw.inp   Done                     12/27/2018 15:35:06
00006 suncat0136 pw.x -in pw.inp   Done                     12/27/2018 15:35:06
00007 suncat0136 pw.x -in pw.inp   Done                     12/27/2018 15:35:06
00008 suncat0135 pw.x -in pw.inp   Done                     12/27/2018 15:35:06
00009 suncat0135 pw.x -in pw.inp   Done                     12/27/2018 15:35:06
00010 suncat0135 pw.x -in pw.inp   Done                     12/27/2018 15:35:06
00011 suncat0135 pw.x -in pw.inp   Done                     12/27/2018 15:35:06
00012 suncat0135 pw.x -in pw.inp   Done                     12/27/2018 15:35:06
00013 suncat0135 pw.x -in pw.inp   Done                     12/27/2018 15:35:06
00014 suncat0135 pw.x -in pw.inp   Done                     12/27/2018 15:35:06
00015 suncat0135 pw.x -in pw.inp   Done                     12/27/2018 15:35:06
00016 suncat0134 pw.x -in pw.inp   Done                     12/27/2018 15:35:06
00017 suncat0134 pw.x -in pw.inp   Done                     12/27/2018 15:35:06
00018 suncat0134 pw.x -in pw.inp   Done                     12/27/2018 15:35:06
00019 suncat0134 pw.x -in pw.inp   Done                     12/27/2018 15:35:06
00020 suncat0134 pw.x -in pw.inp   Done                     12/27/2018 15:35:06
00021 suncat0134 pw.x -in pw.inp   Done                     12/27/2018 15:35:06
00022 suncat0134 pw.x -in pw.inp   Done                     12/27/2018 15:35:06
00023 suncat0134 pw.x -in pw.inp   Done                     12/27/2018 15:35:06
00024 suncat0232 pw.x -in pw.inp   Done                     12/27/2018 15:35:06
00025 suncat0232 pw.x -in pw.inp   Done                     12/27/2018 15:35:06
00026 suncat0232 pw.x -in pw.inp   Done                     12/27/2018 15:35:06
00027 suncat0232 pw.x -in pw.inp   Done                     12/27/2018 15:35:06
00028 suncat0232 pw.x -in pw.inp   Done                     12/27/2018 15:35:06
00029 suncat0232 pw.x -in pw.inp   Done                     12/27/2018 15:35:06
00030 suncat0232 pw.x -in pw.inp   Done                     12/27/2018 15:35:06
00031 suncat0232 pw.x -in pw.inp   Done                     12/27/2018 15:35:06
00032 suncat0220 pw.x -in pw.inp   Done                     12/27/2018 15:35:06
00033 suncat0220 pw.x -in pw.inp   Done                     12/27/2018 15:35:06
00034 suncat0220 pw.x -in pw.inp   Done                     12/27/2018 15:35:06
00035 suncat0220 pw.x -in pw.inp   Done                     12/27/2018 15:35:06
00036 suncat0220 pw.x -in pw.inp   Done                     12/27/2018 15:35:06
00037 suncat0220 pw.x -in pw.inp   Done                     12/27/2018 15:35:06
00038 suncat0220 pw.x -in pw.inp   Done                     12/27/2018 15:35:06
00039 suncat0220 pw.x -in pw.inp   Done                     12/27/2018 15:35:06
00040 suncat0219 pw.x -in pw.inp   Done                     12/27/2018 15:35:06
00041 suncat0219 pw.x -in pw.inp   Done                     12/27/2018 15:35:06
00042 suncat0219 pw.x -in pw.inp   Done                     12/27/2018 15:35:06
00043 suncat0219 pw.x -in pw.inp   Done                     12/27/2018 15:35:06
00044 suncat0219 pw.x -in pw.inp   Done                     12/27/2018 15:35:06
00045 suncat0219 pw.x -in pw.inp   Done                     12/27/2018 15:35:06
00046 suncat0219 pw.x -in pw.inp   Done                     12/27/2018 15:35:06
00047 suncat0219 pw.x -in pw.inp   Done                     12/27/2018 15:35:06
00048 suncat0201 pw.x -in pw.inp   Done                     12/27/2018 15:35:06
00049 suncat0201 pw.x -in pw.inp   Done                     12/27/2018 15:35:06
00050 suncat0201 pw.x -in pw.inp   Done                     12/27/2018 15:35:06
00051 suncat0201 pw.x -in pw.inp   Done                     12/27/2018 15:35:06
00052 suncat0201 pw.x -in pw.inp   Done                     12/27/2018 15:35:06
00053 suncat0201 pw.x -in pw.inp   Done                     12/27/2018 15:35:06
00054 suncat0201 pw.x -in pw.inp   Done                     12/27/2018 15:35:06
00055 suncat0201 pw.x -in pw.inp   Done                     12/27/2018 15:35:06
00056 suncat0200 pw.x -in pw.inp   Done                     12/27/2018 15:35:06
00057 suncat0200 pw.x -in pw.inp   Done                     12/27/2018 15:35:06
00058 suncat0200 pw.x -in pw.inp   Done                     12/27/2018 15:35:06
00059 suncat0200 pw.x -in pw.inp   Done                     12/27/2018 15:35:06
00060 suncat0200 pw.x -in pw.inp   Done                     12/27/2018 15:35:06
00061 suncat0200 pw.x -in pw.inp   Done                     12/27/2018 15:35:06
00062 suncat0200 pw.x -in pw.inp   Done                     12/27/2018 15:35:06
00063 suncat0200 pw.x -in pw.inp   Done                     12/27/2018 15:35:06