     Program PWSCF v.5.1rc2 (svn rev. 11289) starts on  2Jan2019 at 10:59: 7

     Current dimensions of program PWSCF are:
     Max number of different atomic species (ntypx) = 10
     Max number of k-points (npk) =  40000
     Max angular momentum in pseudopotentials (lmaxx) =  3
     Presently stress not available with electric field

     IMPORTANT: XC functional enforced from input :
     Exchange-correlation      = BEEF-VDW ( 1  4 27 13 2)
     Any further DFT definition will be discarded
     Please, verify this is what you really want

     Subspace diagonalization in iterative solution of the eigenvalue problem:
     a serial algorithm will be used

     bravais-lattice index     =            0
     lattice parameter (alat)  =       1.8897  a.u.
     unit-cell volume          =    6659.0068 (a.u.)^3
     number of atoms/cell      =           12
     number of atomic types    =            2
     number of electrons       =       156.00
     number of Kohn-Sham states=          108
     kinetic-energy cutoff     =      36.7493  Ry
     charge density cutoff     =     367.4932  Ry
     convergence threshold     =      1.0E-06
     mixing beta               =       0.1000
     number of iterations used =           10  plain     mixing
     Exchange-correlation      = BEEF-VDW ( 1  4 27 13 2)
     nstep                     =           50

     celldm(1)=   1.889726  celldm(2)=   0.000000  celldm(3)=   0.000000
     celldm(4)=   0.000000  celldm(5)=   0.000000  celldm(6)=   0.000000

     crystal axes: (cart. coord. in units of alat)
               a(1) = (   6.689522   0.000000   0.000000 )
               a(2) = (  -3.344761   5.793296   0.000000 )
               a(3) = (   0.000000   0.000000  25.461972 )

     reciprocal axes: (cart. coord. in units 2 pi/alat)
               b(1) = (  0.149488  0.086307  0.000000 )
               b(2) = (  0.000000  0.172613  0.000000 )
               b(3) = (  0.000000  0.000000  0.039274 )

     PseudoPot. # 1 for Y  read from file:
     /afs/slac.stanford.edu/u/if/mamunm/psp/gbrv1.5pbe/Y.UPF
     MD5 check sum: d034151ed7554c50b6e82763ed42c788
     Pseudo is Ultrasoft + core correction, Zval = 11.0
     Generated by new atomic code, or converted to UPF format
     Using radial grid of  885 points,  6 beta functions with:
                l(1) =   0
                l(2) =   0
                l(3) =   1
                l(4) =   1
                l(5) =   2
                l(6) =   2
     Q(r) pseudized with  8 coefficients,  rinner =    1.200   1.200   1.200
                                                       1.200   1.200

     PseudoPot. # 2 for Cu read from file:
     /afs/slac.stanford.edu/u/if/mamunm/psp/gbrv1.5pbe/Cu.UPF
     MD5 check sum: 6e991ff952a84172a2a52a1c1e996048
     Pseudo is Ultrasoft + core correction, Zval = 19.0
     Generated by new atomic code, or converted to UPF format
     Using radial grid of  867 points,  6 beta functions with:
                l(1) =   0
                l(2) =   0
                l(3) =   1
                l(4) =   1
                l(5) =   2
                l(6) =   2
     Q(r) pseudized with  8 coefficients,  rinner =    1.150   1.150   1.150
                                                       1.150   1.150

     vdW kernel table read from file vdW_kernel_table
     MD5 check sum: 095c7af220d748ca6e76c0b4c6cfb241

     atomic species   valence    mass     pseudopotential
        Y1            11.00    88.90584     Y ( 1.00)
        Cu1           19.00    63.54600     Cu( 1.00)

     No symmetry found

   Cartesian axes

     site n.     atom                  positions (alat units)
         1           Y1  tau(   1) = (   0.0000000   0.0000000  10.0000000  )
         2           Y1  tau(   2) = (  -1.6723805   2.8966481  10.0000000  )
         3           Y1  tau(   3) = (   1.6723805   2.8966481  10.0000000  )
         4           Cu1 tau(   4) = (   3.3447611   0.0000000  10.0000000  )
         5           Y1  tau(   5) = (   3.3447611   1.9310987  12.7309860  )
         6           Y1  tau(   6) = (   1.6723805   4.8277468  12.7309860  )
         7           Y1  tau(   7) = (  -1.6723805   4.8277468  12.7309860  )
         8           Cu1 tau(   8) = (   0.0000000   1.9310987  12.7309860  )
         9           Y1  tau(   9) = (   0.0000000   3.8621974  15.4619720  )
        10           Y1  tau(  10) = (   1.6723805   0.9655494  15.4619720  )
        11           Y1  tau(  11) = (   5.0171416   0.9655494  15.4619720  )
        12           Cu1 tau(  12) = (   3.3447611   3.8621974  15.4619720  )

     number of k points=    20  Fermi-Dirac smearing, width (Ry)=  0.0110
                       cart. coord. in units 2pi/alat
        k(    1) = (   0.0000000   0.0000000   0.0000000), wk =   0.0555556
        k(    2) = (   0.0000000   0.0287689   0.0000000), wk =   0.1111111
        k(    3) = (   0.0000000   0.0575378   0.0000000), wk =   0.1111111
        k(    4) = (   0.0000000  -0.0863067   0.0000000), wk =   0.0555556
        k(    5) = (   0.0249146   0.0143844   0.0000000), wk =   0.1111111
        k(    6) = (   0.0249146   0.0431533   0.0000000), wk =   0.1111111
        k(    7) = (   0.0249146   0.0719222   0.0000000), wk =   0.1111111
        k(    8) = (   0.0249146  -0.0719222   0.0000000), wk =   0.1111111
        k(    9) = (   0.0249146  -0.0431533   0.0000000), wk =   0.1111111
        k(   10) = (   0.0249146  -0.0143844   0.0000000), wk =   0.1111111
        k(   11) = (   0.0498292   0.0287689   0.0000000), wk =   0.1111111
        k(   12) = (   0.0498292   0.0575378   0.0000000), wk =   0.1111111
        k(   13) = (   0.0498292   0.0863067   0.0000000), wk =   0.1111111
        k(   14) = (   0.0498292  -0.0575378   0.0000000), wk =   0.1111111
        k(   15) = (   0.0498292  -0.0287689   0.0000000), wk =   0.1111111
        k(   16) = (   0.0498292   0.0000000   0.0000000), wk =   0.1111111
        k(   17) = (  -0.0747438  -0.0431533   0.0000000), wk =   0.0555556
        k(   18) = (  -0.0747438  -0.0143844   0.0000000), wk =   0.1111111
        k(   19) = (  -0.0747438   0.0143844   0.0000000), wk =   0.1111111
        k(   20) = (  -0.0747438  -0.1294600   0.0000000), wk =   0.0555556

     Largest allocated arrays     est. size (Mb)     dimensions
     Largest temporary arrays     est. size (Mb)     dimensions

     Initial potential from superposition of free atoms
     Check: negative starting charge=   -0.000528

     starting charge  152.95977, renormalised to  156.00000

     negative rho (up, down):  5.389E-04 0.000E+00

     *
     * You are using vdW-DF for exchange-correlation in this calculation.
     * Please cite the following three references that made this development
     * possible:
     *
     *   M. Dion, H. Rydberg, E. Schroder, D. C. Langreth, and
     *   B. I. Lundqvist, Phys. Rev. Lett. 92, 246401 (2004).
     *
     *   T. Thonhauser, V. R. Cooper, S. Li, A. Puzder, P. Hyldgaard, and
     *   D. C. Langreth, Phys. Rev. B 76, 125112 (2007).
     *
     *   G. Roman-Perez and J. M. Soler, Phys. Rev. Lett. 103, 096102 (2009).
     *
     *
     * If you are using vdW-DF2, please also cite:
     *
     *   K. Lee, E. D. Murray, L. Kong, B. I. Lundqvist, and
     *   D. C. Langreth, Phys. Rev. B 82, 081101(R) (2010).
     *
     *
     * If you are calculating the stress with vdW-DF, please also cite:
     *
     *   R. Sabatini, E. Kucukbenli, B. Kolb, T. Thonhauser, and
     *   S. de Gironcoli, J. Phys.: Condens. Matter 24, 424209 (2012).
     *

     Carrying out vdW-DF run using the following parameters:

     Nqs =      20    Nr_points =    1024   r_max =   100.000
     q_mesh =
               0.00001000     0.04494208     0.09755937     0.15916263
               0.23128650     0.31572767     0.41458969     0.53033537
               0.66584808     0.82450364     1.01025438     1.22772762
               1.48234092     1.78043706     2.12944203     2.53805004
               3.01644009     3.57652955     4.23227104     5.00000000

     Gradients computed in reciprocal space

     Adding external electric field

     Computed dipole along edir(3) :
        Dipole                0.0000 Ry au,          0.0000 Debye
        Dipole field          0.0000 Ry au

        Potential amp.       -0.0000 Ry
        Total length         46.9132 bohr

     Starting wfc are  156 randomized atomic wfcs

     Self-consistent Calculation

     iteration #  1     ecut=    36.75 Ry     beta=0.10
     Davidson diagonalization with overlap
     ethr =  1.00E-02,  avg # of iterations =  2.0

[...]

     total energy              =   -2058.05151836 Ry
     Harris-Foulkes estimate   =   -2059.18982536 Ry
     estimated scf accuracy    <       6.43713114 Ry

[...]

     End of self-consistent calculation

          k = 0.0000 0.0000 0.0000 ( 24981 PWs)   bands (ev):

  -111.3141-111.1921-111.1920 -68.6989 -68.6989 -68.6888 -68.5903 -68.5903
   -68.5903 -68.5903 -68.5711 -68.5711 -42.2296 -42.2272 -42.1560 -42.1560
   -42.1555 -42.1555 -41.7558 -41.6841 -41.6841 -22.5274 -22.4906 -22.3684
   -22.3229 -22.3229 -22.2791 -22.2791 -22.2725 -22.2515 -22.2515 -22.1815
   -22.1815 -22.0990 -21.9519 -21.9392 -21.8334 -21.8334 -21.7958 -21.7958
   -21.7596 -21.7596 -21.6539 -21.6068 -21.6068 -21.4757 -21.4034 -21.4034
    -3.8146  -2.8007  -2.1565  -1.6279  -1.6279  -1.6134  -1.5914  -1.5914
    -1.4816  -1.4816  -1.4635  -1.4635  -1.4454  -1.3064  -1.3064  -1.2778
    -1.2778  -1.2734  -1.2546  -0.8968  -0.5433   0.3057   0.3057   0.4002
     0.5845   0.7086   0.7086   0.8114   0.8114   0.9979   0.9979   1.2983
     1.3143   1.3839   1.3839   1.7260   1.9185   2.1031   2.1031   2.1942
     2.1942   2.5349   2.5349   2.6016   2.6029   2.6029   2.6873   3.1149
     3.6869   4.0299   4.1241   4.1241   4.2152   4.2885   4.3931   4.3931
     4.5408   4.5408   4.5807   4.5807

[...]

          k =-0.0747-0.0432 0.0000 ( 25118 PWs)   bands (ev):

[...]

     the Fermi energy is     1.0549 ev

!    total energy              =   -2057.90885437 Ry
     Harris-Foulkes estimate   =   -2057.90885571 Ry
     estimated scf accuracy    <       0.00000029 Ry

     The total energy is the sum of the following terms:

     one-electron contribution =   -9800.74023492 Ry
     hartree contribution      =    4899.95520615 Ry
     xc contribution           =    -374.23613161 Ry
     ewald contribution        =    3217.22667055 Ry
     electric field correction =       0.00000000 Ry
     smearing contrib. (-TS)   =      -0.11436454 Ry

     convergence has been achieved in  20 iterations

 BEEF-vdW xc energy contributions
           1 :   -328.205019702139
           2 :    295.652264672855
           3 :   -239.781805584811
           4 :    174.747499929744
           5 :   -113.745242047589
           6 :    64.7857182094014
           7 :   -29.8509502126818
           8 :    6.93030695499442
           9 :    6.99423477003336
          10 :   -13.9393674967180
          11 :    14.7036532573272
          12 :   -9.96827829714221
          13 :    1.49786376119363
          14 :    7.62254620445412
          15 :   -13.9608460691337
          16 :    15.2479359942492
[...]
               b(3) = (  0.000000  0.000000  0.039274 )

     PseudoPot. # 1 for Y  read from file:
     /afs/slac.stanford.edu/u/if/mamunm/psp/gbrv1.5pbe/Y.UPF
     MD5 check sum: d034151ed7554c50b6e82763ed42c788
     Pseudo is Ultrasoft + core correction, Zval = 11.0
     Generated by new atomic code, or converted to UPF format
     Using radial grid of  885 points,  6 beta functions with:
                l(1) =   0
                l(2) =   0
                l(3) =   1
                l(4) =   1
                l(5) =   2
                l(6) =   2
     Q(r) pseudized with  8 coefficients,  rinner =    1.200   1.200   1.200
                                                       1.200   1.200

     PseudoPot. # 2 for Cu read from file:
     /afs/slac.stanford.edu/u/if/mamunm/psp/gbrv1.5pbe/Cu.UPF
     MD5 check sum: 6e991ff952a84172a2a52a1c1e996048
     Pseudo is Ultrasoft + core correction, Zval = 19.0
     Generated by new atomic code, or converted to UPF format
     Using radial grid of  867 points,  6 beta functions with:
                l(1) =   0
                l(2) =   0
                l(3) =   1
                l(4) =   1
                l(5) =   2
                l(6) =   2
     Q(r) pseudized with  8 coefficients,  rinner =    1.150   1.150   1.150
                                                       1.150   1.150

     vdW kernel table read from file vdW_kernel_table
     MD5 check sum: 095c7af220d748ca6e76c0b4c6cfb241

     atomic species   valence    mass     pseudopotential
        Y1            11.00    88.90584     Y ( 1.00)
        Cu1           19.00    63.54600     Cu( 1.00)

     No symmetry found

   Cartesian axes

     site n.     atom                  positions (alat units)
         1           Y1  tau(   1) = (   0.0000000   0.0000000  10.0000000  )
         2           Y1  tau(   2) = (  -1.6723805   2.8966481  10.0000000  )
         3           Y1  tau(   3) = (   1.6723805   2.8966481  10.0000000  )
         4           Cu1 tau(   4) = (   3.3447611   0.0000000  10.0000000  )
         5           Y1  tau(   5) = (   3.3447611   1.9310987  12.7309860  )
         6           Y1  tau(   6) = (   1.6723805   4.8277468  12.7309860  )
         7           Y1  tau(   7) = (  -1.6723805   4.8277468  12.7309860  )
         8           Cu1 tau(   8) = (   0.0000000   1.9310987  12.7309860  )
         9           Y1  tau(   9) = (  -0.0000385   3.8322347  15.4709596  )
        10           Y1  tau(  10) = (   1.6464569   0.9805014  15.4710006  )
        11           Y1  tau(  11) = (   5.0430289   0.9804939  15.4709870  )
        12           Cu1 tau(  12) = (   3.3447569   3.8621486  15.0127044  )

     number of k points=    20  Fermi-Dirac smearing, width (Ry)=  0.0110
                       cart. coord. in units 2pi/alat
        k(    1) = (   0.0000000   0.0000000   0.0000000), wk =   0.0555556
        k(    2) = (   0.0000000   0.0287689   0.0000000), wk =   0.1111111
        k(    3) = (   0.0000000   0.0575378   0.0000000), wk =   0.1111111
        k(    4) = (   0.0000000  -0.0863067   0.0000000), wk =   0.0555556
        k(    5) = (   0.0249146   0.0143844   0.0000000), wk =   0.1111111
        k(    6) = (   0.0249146   0.0431533   0.0000000), wk =   0.1111111
        k(    7) = (   0.0249146   0.0719222   0.0000000), wk =   0.1111111
        k(    8) = (   0.0249146  -0.0719222   0.0000000), wk =   0.1111111
        k(    9) = (   0.0249146  -0.0431533   0.0000000), wk =   0.1111111
        k(   10) = (   0.0249146  -0.0143844   0.0000000), wk =   0.1111111
        k(   11) = (   0.0498292   0.0287689   0.0000000), wk =   0.1111111
        k(   12) = (   0.0498292   0.0575378   0.0000000), wk =   0.1111111
        k(   13) = (   0.0498292   0.0863067   0.0000000), wk =   0.1111111
        k(   14) = (   0.0498292  -0.0575378   0.0000000), wk =   0.1111111
        k(   15) = (   0.0498292  -0.0287689   0.0000000), wk =   0.1111111
        k(   16) = (   0.0498292   0.0000000   0.0000000), wk =   0.1111111
        k(   17) = (  -0.0747438  -0.0431533   0.0000000), wk =   0.0555556
        k(   18) = (  -0.0747438  -0.0143844   0.0000000), wk =   0.1111111
        k(   19) = (  -0.0747438   0.0143844   0.0000000), wk =   0.1111111
        k(   20) = (  -0.0747438  -0.1294600   0.0000000), wk =   0.0555556

     Largest allocated arrays     est. size (Mb)     dimensions
     Largest temporary arrays     est. size (Mb)     dimensions

     Initial potential from superposition of free atoms
     Check: negative starting charge=   -0.000528

     starting charge  152.95977, renormalised to  156.00000

[...]

     *
     * You are using vdW-DF for exchange-correlation in this calculation.
     * Please cite the following three references that made this development
     * possible:
     *
     *   M. Dion, H. Rydberg, E. Schroder, D. C. Langreth, and
     *   B. I. Lundqvist, Phys. Rev. Lett. 92, 246401 (2004).
     *
     *   T. Thonhauser, V. R. Cooper, S. Li, A. Puzder, P. Hyldgaard, and
     *   D. C. Langreth, Phys. Rev. B 76, 125112 (2007).
     *
     *   G. Roman-Perez and J. M. Soler, Phys. Rev. Lett. 103, 096102 (2009).
     *
     *
     * If you are using vdW-DF2, please also cite:
     *
     *   K. Lee, E. D. Murray, L. Kong, B. I. Lundqvist, and
     *   D. C. Langreth, Phys. Rev. B 82, 081101(R) (2010).
     *
     *
     * If you are calculating the stress with vdW-DF, please also cite:
     *
     *   R. Sabatini, E. Kucukbenli, B. Kolb, T. Thonhauser, and
     *   S. de Gironcoli, J. Phys.: Condens. Matter 24, 424209 (2012).
     *

     Carrying out vdW-DF run using the following parameters:

     Nqs =      20    Nr_points =    1024   r_max =   100.000
     q_mesh =
               0.00001000     0.04494208     0.09755937     0.15916263
               0.23128650     0.31572767     0.41458969     0.53033537
               0.66584808     0.82450364     1.01025438     1.22772762
               1.48234092     1.78043706     2.12944203     2.53805004
               3.01644009     3.57652955     4.23227104     5.00000000

     Gradients computed in reciprocal space

[...]

     Starting wfc are  156 randomized atomic wfcs

     Self-consistent Calculation

[...]

     total energy              =   -2057.92585503 Ry
     Harris-Foulkes estimate   =   -2057.92585456 Ry
     estimated scf accuracy    <       0.00000277 Ry

     iteration # 19     ecut=    36.75 Ry     beta=0.10
     Davidson diagonalization with overlap
     ethr =  1.78E-09,  avg # of iterations =  2.5

[...]

     negative rho (up, down):  4.279E-04 0.000E+00

     Adding external electric field

     Computed dipole along edir(3) :
        Dipole                0.0440 Ry au,          0.1120 Debye
        Dipole field          0.0001 Ry au

        Potential amp.       -0.0078 Ry
        Total length         46.9132 bohr

     End of self-consistent calculation

[...]

          k = 0.0498 0.0000 0.0000 ( 25042 PWs)   bands (ev):

[...]

          k =-0.0747-0.1295 0.0000 ( 25118 PWs)   bands (ev):

  -111.4303-111.2610-111.1642 -68.8486 -68.7986 -68.7986 -68.6471 -68.6471
   -68.6343 -68.5607 -68.5607 -68.5468 -42.1926 -42.1669 -42.1655 -42.1426
   -42.1422 -42.1183 -41.6484 -41.6244 -41.6001 -22.3654 -22.3289 -22.2904
   -22.2569 -22.2389 -22.2023 -22.1865 -22.1774 -22.1523 -22.1335 -22.1146
   -22.0975 -22.0693 -22.0557 -22.0500 -22.0459 -21.8655 -21.8030 -21.7861
   -21.6378 -21.6052 -21.5605 -21.5585 -21.5530 -21.5477 -21.5170 -21.3452
    -2.6564  -2.5626  -1.8543  -1.6628  -1.6090  -1.5763  -1.5660  -1.5591
    -1.4606  -1.4107  -1.4100  -1.3636  -1.3430  -1.3117  -1.3060  -1.2909
    -1.2591  -1.2518  -1.2209  -0.8144  -0.5259  -0.2458   0.1116   0.3846
     0.5574   0.6991   0.6995   0.9122   0.9490   0.9823   1.1527   1.1937
     1.3182   1.4038   1.5299   1.6548   1.7671   1.8083   1.8238   1.9666
     1.9852   2.2319   2.4646   2.5021   2.6443   2.7080   2.8075   2.9296
     2.9896   3.6525   3.7438   3.8484   3.9636   3.9824   4.0829   4.2238
     4.2860   4.3313   4.3579   4.4032

     the Fermi energy is     1.0920 ev

!    total energy              =   -2057.92585785 Ry
     Harris-Foulkes estimate   =   -2057.92585522 Ry
     estimated scf accuracy    <       0.00000079 Ry

     The total energy is the sum of the following terms:

     one-electron contribution =   -9990.41668293 Ry
     hartree contribution      =    4994.85132311 Ry
     xc contribution           =    -374.26369996 Ry
     ewald contribution        =    3312.01580875 Ry
     electric field correction =       0.00000366 Ry
     smearing contrib. (-TS)   =      -0.11261049 Ry

     convergence has been achieved in  19 iterations

 BEEF-vdW xc energy contributions
           1 :   -328.238900696999
           2 :    295.719304921774
           3 :   -239.878321987909
           4 :    174.828103387148
           5 :   -113.753957589202
           6 :    64.6991581697777
           7 :   -29.7004844239320
           8 :    6.78390558682338
           9 :    7.07996427563091
          10 :   -13.9612132014807
          11 :    14.7127886123507
          12 :   -10.0262540937964
          13 :    1.62278986812373
          14 :    7.47379447963004
          15 :   -13.8584967630651
          16 :    15.2317532357912
          17 :   -11.4224613043733
          18 :    4.27157763293417
          19 :    3.48473797866444
          20 :   -9.56539040591946
          21 :    12.9334512272166
          22 :   -13.7353610174172
          23 :    12.6826164979217
          24 :   -10.4329339492266
          25 :    7.36726658344281
          26 :   -3.77788998941844
          27 :   0.165847567919002
          28 :    2.69341320526343
          29 :   -4.03176668438630
          30 :    3.52534455933835
          31 :   -29.6225211099048
          32 :   -20.2192792873851

     Forces acting on atoms (Ry/au):

     negative rho (up, down):  4.279E-04 0.000E+00
     atom    1 type  1   force =    -0.00000105    0.01326308   -0.00830198
     atom    2 type  1   force =     0.01149107   -0.00663177   -0.00829696
     atom    3 type  1   force =    -0.01149081   -0.00663260   -0.00829968
     atom    4 type  2   force =     0.00000512    0.00000599    0.03068564
     atom    5 type  1   force =     0.00000221    0.00006244   -0.00148288
     atom    6 type  1   force =     0.00005646   -0.00003101   -0.00148419
     atom    7 type  1   force =    -0.00005802   -0.00003272   -0.00148437
     atom    8 type  2   force =     0.00001154    0.00000167   -0.00135026
     atom    9 type  1   force =    -0.00000404   -0.00093427   -0.00021950
     atom   10 type  1   force =    -0.00081443    0.00046678   -0.00021865
     atom   11 type  1   force =     0.00081489    0.00046660   -0.00022175
     atom   12 type  2   force =    -0.00001294   -0.00000418    0.00067459

     Total force =     0.041084     Total SCF correction =     0.001285

     entering subroutine stress ...

     negative rho (up, down):  4.279E-04 0.000E+00
          total   stress  (Ry/bohr**3)                   (kbar)     P=   -3.76
  -0.00002879  -0.00000000   0.00000000         -4.24     -0.00      0.00
  -0.00000000  -0.00002879  -0.00000000         -0.00     -4.24     -0.00
   0.00000000  -0.00000000  -0.00001909          0.00     -0.00     -2.81

 !ASE

     Writing output data file calc.save

     General routines

     Parallel routines

   This run was terminated on:  14:11: 1   2Jan2019

   JOB DONE.
Job  /afs/slac/g/suncat/bin/suncat-tsmpirun -x LD_LIBRARY_PATH -wdir /scratch/qe649412_aDbNb pw.x -in pw.inp

TID   HOST_NAME   COMMAND_LINE            STATUS            TERMINATION_TIME
00000 suncat0031 pw.x -in pw.inp   Done                     01/02/2019 14:11:01
00001 suncat0031 pw.x -in pw.inp   Done                     01/02/2019 14:11:01
00002 suncat0031 pw.x -in pw.inp   Done                     01/02/2019 14:11:01
00003 suncat0031 pw.x -in pw.inp   Done                     01/02/2019 14:11:01
00004 suncat0031 pw.x -in pw.inp   Done                     01/02/2019 14:11:01
00005 suncat0031 pw.x -in pw.inp   Done                     01/02/2019 14:11:01
00006 suncat0031 pw.x -in pw.inp   Done                     01/02/2019 14:11:01
00007 suncat0031 pw.x -in pw.inp   Done                     01/02/2019 14:11:01
00008 suncat0030 pw.x -in pw.inp   Done                     01/02/2019 14:11:01
00009 suncat0030 pw.x -in pw.inp   Done                     01/02/2019 14:11:01
00010 suncat0030 pw.x -in pw.inp   Done                     01/02/2019 14:11:01
00011 suncat0030 pw.x -in pw.inp   Done                     01/02/2019 14:11:01
00012 suncat0030 pw.x -in pw.inp   Done                     01/02/2019 14:11:01
00013 suncat0030 pw.x -in pw.inp   Done                     01/02/2019 14:11:01
00014 suncat0030 pw.x -in pw.inp   Done                     01/02/2019 14:11:01
00015 suncat0030 pw.x -in pw.inp   Done                     01/02/2019 14:11:01
00016 suncat0192 pw.x -in pw.inp   Done                     01/02/2019 14:11:01
00017 suncat0192 pw.x -in pw.inp   Done                     01/02/2019 14:11:01
00018 suncat0192 pw.x -in pw.inp   Done                     01/02/2019 14:11:01
00019 suncat0192 pw.x -in pw.inp   Done                     01/02/2019 14:11:01
00020 suncat0192 pw.x -in pw.inp   Done                     01/02/2019 14:11:01
00021 suncat0192 pw.x -in pw.inp   Done                     01/02/2019 14:11:01
00022 suncat0192 pw.x -in pw.inp   Done                     01/02/2019 14:11:01
00023 suncat0192 pw.x -in pw.inp   Done                     01/02/2019 14:11:01
00024 suncat0185 pw.x -in pw.inp   Done                     01/02/2019 14:11:01
00025 suncat0185 pw.x -in pw.inp   Done                     01/02/2019 14:11:01
00026 suncat0185 pw.x -in pw.inp   Done                     01/02/2019 14:11:01
00027 suncat0185 pw.x -in pw.inp   Done                     01/02/2019 14:11:01
00028 suncat0185 pw.x -in pw.inp   Done                     01/02/2019 14:11:01
00029 suncat0185 pw.x -in pw.inp   Done                     01/02/2019 14:11:01
00030 suncat0185 pw.x -in pw.inp   Done                     01/02/2019 14:11:01
00031 suncat0185 pw.x -in pw.inp   Done                     01/02/2019 14:11:01
00032 suncat0184 pw.x -in pw.inp   Done                     01/02/2019 14:11:01
00033 suncat0184 pw.x -in pw.inp   Done                     01/02/2019 14:11:01
00034 suncat0184 pw.x -in pw.inp   Done                     01/02/2019 14:11:01
00035 suncat0184 pw.x -in pw.inp   Done                     01/02/2019 14:11:01
00036 suncat0184 pw.x -in pw.inp   Done                     01/02/2019 14:11:01
00037 suncat0184 pw.x -in pw.inp   Done                     01/02/2019 14:11:01
00038 suncat0184 pw.x -in pw.inp   Done                     01/02/2019 14:11:01
00039 suncat0184 pw.x -in pw.inp   Done                     01/02/2019 14:11:01
00040 suncat0183 pw.x -in pw.inp   Done                     01/02/2019 14:11:01
00041 suncat0183 pw.x -in pw.inp   Done                     01/02/2019 14:11:01
00042 suncat0183 pw.x -in pw.inp   Done                     01/02/2019 14:11:01
00043 suncat0183 pw.x -in pw.inp   Done                     01/02/2019 14:11:01
00044 suncat0183 pw.x -in pw.inp   Done                     01/02/2019 14:11:01
00045 suncat0183 pw.x -in pw.inp   Done                     01/02/2019 14:11:01
00046 suncat0183 pw.x -in pw.inp   Done                     01/02/2019 14:11:01
00047 suncat0183 pw.x -in pw.inp   Done                     01/02/2019 14:11:01
00048 suncat0172 pw.x -in pw.inp   Done                     01/02/2019 14:11:01
00049 suncat0172 pw.x -in pw.inp   Done                     01/02/2019 14:11:01
00050 suncat0172 pw.x -in pw.inp   Done                     01/02/2019 14:11:01
00051 suncat0172 pw.x -in pw.inp   Done                     01/02/2019 14:11:01
00052 suncat0172 pw.x -in pw.inp   Done                     01/02/2019 14:11:01
00053 suncat0172 pw.x -in pw.inp   Done                     01/02/2019 14:11:01
00054 suncat0172 pw.x -in pw.inp   Done                     01/02/2019 14:11:01
00055 suncat0172 pw.x -in pw.inp   Done                     01/02/2019 14:11:01
00056 suncat0171 pw.x -in pw.inp   Done                     01/02/2019 14:11:01
00057 suncat0171 pw.x -in pw.inp   Done                     01/02/2019 14:11:01
00058 suncat0171 pw.x -in pw.inp   Done                     01/02/2019 14:11:01
00059 suncat0171 pw.x -in pw.inp   Done                     01/02/2019 14:11:01
00060 suncat0171 pw.x -in pw.inp   Done                     01/02/2019 14:11:01
00061 suncat0171 pw.x -in pw.inp   Done                     01/02/2019 14:11:01
00062 suncat0171 pw.x -in pw.inp   Done                     01/02/2019 14:11:01
00063 suncat0171 pw.x -in pw.inp   Done                     01/02/2019 14:11:01