     Program PWSCF v.5.1rc2 (svn rev. 11289) starts on  2Jan2019 at 22:20:51

     Current dimensions of program PWSCF are:
     Max number of different atomic species (ntypx) = 10
     Max number of k-points (npk) =  40000
     Max angular momentum in pseudopotentials (lmaxx) =  3
     Presently stress not available with electric field

     IMPORTANT: XC functional enforced from input :
     Exchange-correlation      = BEEF-VDW ( 1  4 27 13 2)
     Any further DFT definition will be discarded
     Please, verify this is what you really want

     Subspace diagonalization in iterative solution of the eigenvalue problem:
     a serial algorithm will be used

     bravais-lattice index     =            0
     lattice parameter (alat)  =       1.8897  a.u.
     unit-cell volume          =    6390.5101 (a.u.)^3
     number of atoms/cell      =           12
     number of atomic types    =            2
     number of electrons       =       141.00
     number of Kohn-Sham states=          100
     kinetic-energy cutoff     =      36.7493  Ry
     charge density cutoff     =     367.4932  Ry
     convergence threshold     =      1.0E-06
     mixing beta               =       0.1000
     number of iterations used =           10  plain     mixing
     Exchange-correlation      = BEEF-VDW ( 1  4 27 13 2)
     nstep                     =           50

     celldm(1)=   1.889726  celldm(2)=   0.000000  celldm(3)=   0.000000
     celldm(4)=   0.000000  celldm(5)=   0.000000  celldm(6)=   0.000000

     crystal axes: (cart. coord. in units of alat)
               a(1) = (   6.566261   0.000000   0.000000 )
               a(2) = (  -3.283130   5.686549   0.000000 )
               a(3) = (   0.000000   0.000000  25.361330 )

     reciprocal axes: (cart. coord. in units 2 pi/alat)
               b(1) = (  0.152294  0.087927  0.000000 )
               b(2) = (  0.000000  0.175854  0.000000 )
               b(3) = (  0.000000  0.000000  0.039430 )

     PseudoPot. # 1 for Zr read from file:
     /afs/slac.stanford.edu/u/if/mamunm/psp/gbrv1.5pbe/Zr.UPF
     MD5 check sum: 5db81b1e868ab7776c4564c113de050b
     Pseudo is Ultrasoft + core correction, Zval = 12.0
     Generated by new atomic code, or converted to UPF format
     Using radial grid of  887 points,  6 beta functions with:
                l(1) =   0
                l(2) =   0
                l(3) =   1
                l(4) =   1
                l(5) =   2
                l(6) =   2
     Q(r) pseudized with  6 coefficients,  rinner =    1.200   1.200   1.200
                                                       1.200   1.200

     PseudoPot. # 2 for Y  read from file:
     /afs/slac.stanford.edu/u/if/mamunm/psp/gbrv1.5pbe/Y.UPF
     MD5 check sum: d034151ed7554c50b6e82763ed42c788
     Pseudo is Ultrasoft + core correction, Zval = 11.0
     Generated by new atomic code, or converted to UPF format
     Using radial grid of  885 points,  6 beta functions with:
                l(1) =   0
                l(2) =   0
                l(3) =   1
                l(4) =   1
                l(5) =   2
                l(6) =   2
     Q(r) pseudized with  8 coefficients,  rinner =    1.200   1.200   1.200
                                                       1.200   1.200

     vdW kernel table read from file vdW_kernel_table
     MD5 check sum: 095c7af220d748ca6e76c0b4c6cfb241

     atomic species   valence    mass     pseudopotential
        Zr1           12.00    91.22400     Zr( 1.00)
        Y1            11.00    88.90584     Y ( 1.00)

     No symmetry found

   Cartesian axes

     site n.     atom                  positions (alat units)
         1           Zr1 tau(   1) = (   0.0000000   0.0000000  10.0000000  )
         2           Zr1 tau(   2) = (  -1.6415652   2.8432744  10.0000000  )
         3           Zr1 tau(   3) = (   1.6415652   2.8432744  10.0000000  )
         4           Y1  tau(   4) = (   3.2831305   0.0000000  10.0000000  )
         5           Zr1 tau(   5) = (   3.2831305   1.8955163  12.6806648  )
         6           Zr1 tau(   6) = (   1.6415652   4.7387907  12.6806648  )
         7           Zr1 tau(   7) = (  -1.6415652   4.7387907  12.6806648  )
         8           Y1  tau(   8) = (   0.0000000   1.8955163  12.6806648  )
         9           Zr1 tau(   9) = (  -0.0000000   3.7910325  15.3613296  )
        10           Zr1 tau(  10) = (   1.6415652   0.9477581  15.3613296  )
        11           Zr1 tau(  11) = (   4.9246957   0.9477581  15.3613296  )
        12           Y1  tau(  12) = (   3.2831305   3.7910325  15.3613296  )

     number of k points=    20  Fermi-Dirac smearing, width (Ry)=  0.0110
                       cart. coord. in units 2pi/alat
        k(    1) = (   0.0000000   0.0000000   0.0000000), wk =   0.0555556
        k(    2) = (   0.0000000   0.0293089   0.0000000), wk =   0.1111111
        k(    3) = (   0.0000000   0.0586179   0.0000000), wk =   0.1111111
        k(    4) = (   0.0000000  -0.0879268   0.0000000), wk =   0.0555556
        k(    5) = (   0.0253823   0.0146545   0.0000000), wk =   0.1111111
        k(    6) = (   0.0253823   0.0439634   0.0000000), wk =   0.1111111
        k(    7) = (   0.0253823   0.0732723   0.0000000), wk =   0.1111111
        k(    8) = (   0.0253823  -0.0732723   0.0000000), wk =   0.1111111
        k(    9) = (   0.0253823  -0.0439634   0.0000000), wk =   0.1111111
        k(   10) = (   0.0253823  -0.0146545   0.0000000), wk =   0.1111111
        k(   11) = (   0.0507646   0.0293089   0.0000000), wk =   0.1111111
        k(   12) = (   0.0507646   0.0586179   0.0000000), wk =   0.1111111
        k(   13) = (   0.0507646   0.0879268   0.0000000), wk =   0.1111111
        k(   14) = (   0.0507646  -0.0586179   0.0000000), wk =   0.1111111
        k(   15) = (   0.0507646  -0.0293089   0.0000000), wk =   0.1111111
        k(   16) = (   0.0507646   0.0000000   0.0000000), wk =   0.1111111
        k(   17) = (  -0.0761468  -0.0439634   0.0000000), wk =   0.0555556
        k(   18) = (  -0.0761468  -0.0146545   0.0000000), wk =   0.1111111
        k(   19) = (  -0.0761468   0.0146545   0.0000000), wk =   0.1111111
        k(   20) = (  -0.0761468  -0.1318902   0.0000000), wk =   0.0555556

     Largest allocated arrays     est. size (Mb)     dimensions
     Largest temporary arrays     est. size (Mb)     dimensions

     Initial potential from superposition of free atoms
     Check: negative starting charge=   -0.548913

     starting charge  140.96725, renormalised to  141.00000

     negative rho (up, down):  5.490E-01 0.000E+00

     *
     * You are using vdW-DF for exchange-correlation in this calculation.
     * Please cite the following three references that made this development
     * possible:
     *
     *   M. Dion, H. Rydberg, E. Schroder, D. C. Langreth, and
     *   B. I. Lundqvist, Phys. Rev. Lett. 92, 246401 (2004).
     *
     *   T. Thonhauser, V. R. Cooper, S. Li, A. Puzder, P. Hyldgaard, and
     *   D. C. Langreth, Phys. Rev. B 76, 125112 (2007).
     *
     *   G. Roman-Perez and J. M. Soler, Phys. Rev. Lett. 103, 096102 (2009).
     *
     *
     * If you are using vdW-DF2, please also cite:
     *
     *   K. Lee, E. D. Murray, L. Kong, B. I. Lundqvist, and
     *   D. C. Langreth, Phys. Rev. B 82, 081101(R) (2010).
     *
     *
     * If you are calculating the stress with vdW-DF, please also cite:
     *
     *   R. Sabatini, E. Kucukbenli, B. Kolb, T. Thonhauser, and
     *   S. de Gironcoli, J. Phys.: Condens. Matter 24, 424209 (2012).
     *

     Carrying out vdW-DF run using the following parameters:

     Nqs =      20    Nr_points =    1024   r_max =   100.000
     q_mesh =
               0.00001000     0.04494208     0.09755937     0.15916263
               0.23128650     0.31572767     0.41458969     0.53033537
               0.66584808     0.82450364     1.01025438     1.22772762
               1.48234092     1.78043706     2.12944203     2.53805004
               3.01644009     3.57652955     4.23227104     5.00000000

     Gradients computed in reciprocal space

     Adding external electric field

     Computed dipole along edir(3) :
        Dipole                0.0000 Ry au,          0.0000 Debye
        Dipole field          0.0000 Ry au

        Potential amp.       -0.0000 Ry
        Total length         46.7278 bohr

     Starting wfc are  156 randomized atomic wfcs

     Self-consistent Calculation

     iteration #  1     ecut=    36.75 Ry     beta=0.10
     Davidson diagonalization with overlap
     ethr =  1.00E-02,  avg # of iterations =  2.0

[...]

     total energy              =   -1177.85543950 Ry
     Harris-Foulkes estimate   =   -1179.20878908 Ry
     estimated scf accuracy    <       7.57882230 Ry

[...]

     End of self-consistent calculation

          k = 0.0000 0.0000 0.0000 ( 23967 PWs)   bands (ev):

   -48.0189 -48.0170 -47.9679 -47.9679 -47.9675 -47.9674 -47.7293 -47.6808
   -47.6805 -41.3926 -41.3922 -40.7497 -26.2157 -26.1965 -26.1151 -26.1128
   -26.1128 -26.0817 -26.0817 -26.0363 -26.0363 -26.0256 -25.9648 -25.9648
   -25.9423 -25.8341 -25.8230 -25.7683 -25.7682 -25.7012 -25.7012 -25.6890
   -25.6890 -25.6212 -25.6033 -25.6032 -25.5307 -25.4338 -25.4337 -21.4062
   -21.3856 -21.3493 -21.3492 -21.3442 -21.3441 -20.7657 -20.7474 -20.7473
    -3.4351  -2.3892  -1.4979  -0.9572  -0.9572  -0.9202  -0.9192  -0.9192
    -0.7996  -0.4784  -0.4784  -0.4389  -0.2168  -0.1899  -0.1899   0.5033
     0.5716   0.5716   1.3074   1.3814   1.6181   1.6181   1.6483   2.0117
     2.0117   2.0118   2.0772   2.2693   2.4049   2.4049   2.4351   2.6103
     2.6103   2.6446   2.6446   2.6940   2.6940   2.7734   2.9153   2.9153
     3.1046   3.1046   3.1609   3.5072   3.8796   3.8796   4.2078   4.2078
     4.4510   4.4510   4.6541   4.9078

[...]

          k =-0.0761-0.0440 0.0000 ( 24056 PWs)   bands (ev):

[...]

     the Fermi energy is     1.3199 ev

!    total energy              =   -1178.61924746 Ry
     Harris-Foulkes estimate   =   -1178.61924480 Ry
     estimated scf accuracy    <       0.00000066 Ry

     The total energy is the sum of the following terms:

     one-electron contribution =   -7448.93290663 Ry
     hartree contribution      =    3715.62230035 Ry
     xc contribution           =    -250.09118845 Ry
     ewald contribution        =    2804.90718794 Ry
     electric field correction =       0.00000003 Ry
     smearing contrib. (-TS)   =      -0.12464070 Ry

     convergence has been achieved in  17 iterations

 BEEF-vdW xc energy contributions
           1 :   -215.609425487572
           2 :    194.731291911438
           3 :   -159.165019291674
           4 :    118.388782893356
           5 :   -81.1835455286934
           6 :    52.6586844772577
           7 :   -33.5049592146933
           8 :    21.3474794706116
           9 :   -13.0338987759656
          10 :    6.47879975235833
          11 :   -1.25317584562328
          12 :   -2.03150449986637
          13 :    2.85256919670348
          14 :   -1.59472574389298
          15 :  -0.419804539510608
          16 :    1.60518658021337
          17 :  -0.979707513267272
          18 :   -1.34546201915990
[...]
               b(2) = (  0.000000  0.175854  0.000000 )
               b(3) = (  0.000000  0.000000  0.039430 )

     PseudoPot. # 1 for Zr read from file:
     /afs/slac.stanford.edu/u/if/mamunm/psp/gbrv1.5pbe/Zr.UPF
     MD5 check sum: 5db81b1e868ab7776c4564c113de050b
     Pseudo is Ultrasoft + core correction, Zval = 12.0
     Generated by new atomic code, or converted to UPF format
     Using radial grid of  887 points,  6 beta functions with:
                l(1) =   0
                l(2) =   0
                l(3) =   1
                l(4) =   1
                l(5) =   2
                l(6) =   2
     Q(r) pseudized with  6 coefficients,  rinner =    1.200   1.200   1.200
                                                       1.200   1.200

     PseudoPot. # 2 for Y  read from file:
     /afs/slac.stanford.edu/u/if/mamunm/psp/gbrv1.5pbe/Y.UPF
     MD5 check sum: d034151ed7554c50b6e82763ed42c788
     Pseudo is Ultrasoft + core correction, Zval = 11.0
     Generated by new atomic code, or converted to UPF format
     Using radial grid of  885 points,  6 beta functions with:
                l(1) =   0
                l(2) =   0
                l(3) =   1
                l(4) =   1
                l(5) =   2
                l(6) =   2
     Q(r) pseudized with  8 coefficients,  rinner =    1.200   1.200   1.200
                                                       1.200   1.200

     vdW kernel table read from file vdW_kernel_table
     MD5 check sum: 095c7af220d748ca6e76c0b4c6cfb241

     atomic species   valence    mass     pseudopotential
        Zr1           12.00    91.22400     Zr( 1.00)
        Y1            11.00    88.90584     Y ( 1.00)

     No symmetry found

   Cartesian axes

     site n.     atom                  positions (alat units)
         1           Zr1 tau(   1) = (   0.0000000   0.0000000  10.0000000  )
         2           Zr1 tau(   2) = (  -1.6415652   2.8432744  10.0000000  )
         3           Zr1 tau(   3) = (   1.6415652   2.8432744  10.0000000  )
         4           Y1  tau(   4) = (   3.2831305   0.0000000  10.0000000  )
         5           Zr1 tau(   5) = (   3.2831305   1.8955163  12.6806648  )
         6           Zr1 tau(   6) = (   1.6415652   4.7387907  12.6806648  )
         7           Zr1 tau(   7) = (  -1.6415652   4.7387907  12.6806648  )
         8           Y1  tau(   8) = (   0.0000000   1.8955163  12.6806648  )
         9           Zr1 tau(   9) = (  -0.0000103   3.8834720  15.1630779  )
        10           Zr1 tau(  10) = (   1.7216278   0.9015510  15.1630568  )
        11           Zr1 tau(  11) = (   4.8446302   0.9015621  15.1630742  )
        12           Y1  tau(  12) = (   3.2831386   3.7910865  15.4931769  )

     number of k points=    20  Fermi-Dirac smearing, width (Ry)=  0.0110
                       cart. coord. in units 2pi/alat
        k(    1) = (   0.0000000   0.0000000   0.0000000), wk =   0.0555556
        k(    2) = (   0.0000000   0.0293089   0.0000000), wk =   0.1111111
        k(    3) = (   0.0000000   0.0586179   0.0000000), wk =   0.1111111
        k(    4) = (   0.0000000  -0.0879268   0.0000000), wk =   0.0555556
        k(    5) = (   0.0253823   0.0146545   0.0000000), wk =   0.1111111
        k(    6) = (   0.0253823   0.0439634   0.0000000), wk =   0.1111111
        k(    7) = (   0.0253823   0.0732723   0.0000000), wk =   0.1111111
        k(    8) = (   0.0253823  -0.0732723   0.0000000), wk =   0.1111111
        k(    9) = (   0.0253823  -0.0439634   0.0000000), wk =   0.1111111
        k(   10) = (   0.0253823  -0.0146545   0.0000000), wk =   0.1111111
        k(   11) = (   0.0507646   0.0293089   0.0000000), wk =   0.1111111
        k(   12) = (   0.0507646   0.0586179   0.0000000), wk =   0.1111111
        k(   13) = (   0.0507646   0.0879268   0.0000000), wk =   0.1111111
        k(   14) = (   0.0507646  -0.0586179   0.0000000), wk =   0.1111111
        k(   15) = (   0.0507646  -0.0293089   0.0000000), wk =   0.1111111
        k(   16) = (   0.0507646   0.0000000   0.0000000), wk =   0.1111111
        k(   17) = (  -0.0761468  -0.0439634   0.0000000), wk =   0.0555556
        k(   18) = (  -0.0761468  -0.0146545   0.0000000), wk =   0.1111111
        k(   19) = (  -0.0761468   0.0146545   0.0000000), wk =   0.1111111
        k(   20) = (  -0.0761468  -0.1318902   0.0000000), wk =   0.0555556

     Largest allocated arrays     est. size (Mb)     dimensions
     Largest temporary arrays     est. size (Mb)     dimensions

     Initial potential from superposition of free atoms
     Check: negative starting charge=   -0.547533

     starting charge  140.96725, renormalised to  141.00000

[...]

     *
     * You are using vdW-DF for exchange-correlation in this calculation.
     * Please cite the following three references that made this development
     * possible:
     *
     *   M. Dion, H. Rydberg, E. Schroder, D. C. Langreth, and
     *   B. I. Lundqvist, Phys. Rev. Lett. 92, 246401 (2004).
     *
     *   T. Thonhauser, V. R. Cooper, S. Li, A. Puzder, P. Hyldgaard, and
     *   D. C. Langreth, Phys. Rev. B 76, 125112 (2007).
     *
     *   G. Roman-Perez and J. M. Soler, Phys. Rev. Lett. 103, 096102 (2009).
     *
     *
     * If you are using vdW-DF2, please also cite:
     *
     *   K. Lee, E. D. Murray, L. Kong, B. I. Lundqvist, and
     *   D. C. Langreth, Phys. Rev. B 82, 081101(R) (2010).
     *
     *
     * If you are calculating the stress with vdW-DF, please also cite:
     *
     *   R. Sabatini, E. Kucukbenli, B. Kolb, T. Thonhauser, and
     *   S. de Gironcoli, J. Phys.: Condens. Matter 24, 424209 (2012).
     *

     Carrying out vdW-DF run using the following parameters:

     Nqs =      20    Nr_points =    1024   r_max =   100.000
     q_mesh =
               0.00001000     0.04494208     0.09755937     0.15916263
               0.23128650     0.31572767     0.41458969     0.53033537
               0.66584808     0.82450364     1.01025438     1.22772762
               1.48234092     1.78043706     2.12944203     2.53805004
               3.01644009     3.57652955     4.23227104     5.00000000

     Gradients computed in reciprocal space

[...]

     Starting wfc are  156 randomized atomic wfcs

     Self-consistent Calculation

[...]

     total energy              =   -1178.63933957 Ry
     Harris-Foulkes estimate   =   -1178.63933924 Ry
     estimated scf accuracy    <       0.00000213 Ry

     iteration # 18     ecut=    36.75 Ry     beta=0.10
     Davidson diagonalization with overlap
     ethr =  1.51E-09,  avg # of iterations =  2.0

[...]

     negative rho (up, down):  5.590E-01 0.000E+00

     Adding external electric field

     Computed dipole along edir(3) :
        Dipole                0.0389 Ry au,          0.0988 Debye
        Dipole field          0.0001 Ry au

        Potential amp.       -0.0071 Ry
        Total length         46.7278 bohr

     End of self-consistent calculation

[...]

          k = 0.0508 0.0000 0.0000 ( 24022 PWs)   bands (ev):

[...]

          k =-0.0761-0.1319 0.0000 ( 24056 PWs)   bands (ev):

   -47.9747 -47.9581 -47.9413 -47.8242 -47.7855 -47.7734 -47.5974 -47.5821
   -47.5666 -41.6021 -41.3758 -40.6714 -26.0968 -26.0451 -26.0365 -25.9899
   -25.9800 -25.9539 -25.9511 -25.9184 -25.9183 -25.9004 -25.8803 -25.8757
   -25.8660 -25.8505 -25.7329 -25.7241 -25.6940 -25.6704 -25.5732 -25.5592
   -25.5310 -25.5198 -25.4928 -25.4452 -25.4353 -25.4158 -25.3414 -21.5967
   -21.5605 -21.5420 -21.3820 -21.3587 -21.3385 -20.7196 -20.7001 -20.6796
    -2.0480  -1.9862  -1.0929  -1.0800  -0.3945  -0.3757  -0.3279  -0.2432
    -0.1885  -0.1277   0.3697   0.4476   0.5000   0.5658   0.6146   0.6902
     0.8367   0.8853   0.9136   0.9901   1.0327   1.0995   1.1923   1.2512
     1.3402   1.3447   1.4714   1.5330   1.6312   1.6885   1.8446   1.8524
     1.9579   2.1127   2.3427   2.4802   2.5443   2.6393   2.9452   3.0517
     3.1821   3.3935   3.4187   3.5180   3.5740   3.7117   3.7447   3.7925
     3.8972   3.9148   4.0183   4.2186

     the Fermi energy is     1.3424 ev

!    total energy              =   -1178.63934223 Ry
     Harris-Foulkes estimate   =   -1178.63933935 Ry
     estimated scf accuracy    <       0.00000054 Ry

     The total energy is the sum of the following terms:

     one-electron contribution =   -7578.32975049 Ry
     hartree contribution      =    3780.67292705 Ry
     xc contribution           =    -250.26586161 Ry
     ewald contribution        =    2869.40057122 Ry
     electric field correction =       0.00000297 Ry
     smearing contrib. (-TS)   =      -0.11723138 Ry

     convergence has been achieved in  18 iterations

 BEEF-vdW xc energy contributions
           1 :   -215.800206445487
           2 :    194.978176224556
           3 :   -159.469513974433
           4 :    118.682218005664
           5 :   -81.3652363681462
           6 :    52.6655583653033
           7 :   -33.3621339737689
           8 :    21.1574970533669
           9 :   -12.9104978674278
          10 :    6.47548869073881
          11 :   -1.33613365553367
          12 :   -1.95557000824761
          13 :    2.87827372407543
          14 :   -1.76322544144165
          15 :  -0.145953947199246
          16 :    1.32319370996336
          17 :  -0.789298828939650
          18 :   -1.40573459335991
          19 :    4.31037373530791
          20 :   -6.67497281560773
          21 :    7.63270261341373
          22 :   -7.06744313844143
          23 :    5.51302787936260
          24 :   -3.72624959020337
          25 :    2.24709566938219
          26 :   -1.21118190489932
          27 :   0.467258627288174
          28 :   0.155482856121864
          29 :  -0.653491365297015
          30 :   0.855961556155222
          31 :   -23.4480700200139
          32 :   -17.0655209308362

     Forces acting on atoms (Ry/au):

     negative rho (up, down):  5.590E-01 0.000E+00
     atom    1 type  1   force =     0.00000242   -0.00789667    0.01763983
     atom    2 type  1   force =    -0.00684197    0.00394699    0.01764133
     atom    3 type  1   force =     0.00684217    0.00394472    0.01763994
     atom    4 type  2   force =    -0.00000309    0.00000063   -0.01561834
     atom    5 type  1   force =     0.00000069    0.00629567   -0.00758317
     atom    6 type  1   force =     0.00544902   -0.00314605   -0.00758031
     atom    7 type  1   force =    -0.00545032   -0.00314763   -0.00758360
     atom    8 type  2   force =    -0.00000030   -0.00000062   -0.01654329
     atom    9 type  1   force =     0.00000058    0.00084642    0.00049319
     atom   10 type  1   force =     0.00073280   -0.00042183    0.00049260
     atom   11 type  1   force =    -0.00073251   -0.00042074    0.00049305
     atom   12 type  2   force =     0.00000051   -0.00000091    0.00050879

     Total force =     0.043963     Total SCF correction =     0.002342

     entering subroutine stress ...

     negative rho (up, down):  5.590E-01 0.000E+00
          total   stress  (Ry/bohr**3)                   (kbar)     P=   -5.60
  -0.00004179  -0.00000000   0.00000000         -6.15     -0.00      0.00
  -0.00000000  -0.00004180  -0.00000000         -0.00     -6.15     -0.00
   0.00000000  -0.00000000  -0.00003057          0.00     -0.00     -4.50

 !ASE

     Writing output data file calc.save

     General routines

     Parallel routines

   This run was terminated on:   0: 8:20   3Jan2019

   JOB DONE.
Job  /afs/slac/g/suncat/bin/suncat-tsmpirun -x LD_LIBRARY_PATH -wdir /scratch/qe649579_P1BWk pw.x -in pw.inp

TID   HOST_NAME   COMMAND_LINE            STATUS            TERMINATION_TIME
00000 suncat0062 pw.x -in pw.inp   Done                     01/03/2019 00:08:20
00001 suncat0062 pw.x -in pw.inp   Done                     01/03/2019 00:08:20
00002 suncat0062 pw.x -in pw.inp   Done                     01/03/2019 00:08:20
00003 suncat0062 pw.x -in pw.inp   Done                     01/03/2019 00:08:20
00004 suncat0062 pw.x -in pw.inp   Done                     01/03/2019 00:08:20
00005 suncat0062 pw.x -in pw.inp   Done                     01/03/2019 00:08:20
00006 suncat0062 pw.x -in pw.inp   Done                     01/03/2019 00:08:20
00007 suncat0062 pw.x -in pw.inp   Done                     01/03/2019 00:08:20
00008 suncat0061 pw.x -in pw.inp   Done                     01/03/2019 00:08:20
00009 suncat0061 pw.x -in pw.inp   Done                     01/03/2019 00:08:20
00010 suncat0061 pw.x -in pw.inp   Done                     01/03/2019 00:08:20
00011 suncat0061 pw.x -in pw.inp   Done                     01/03/2019 00:08:20
00012 suncat0061 pw.x -in pw.inp   Done                     01/03/2019 00:08:20
00013 suncat0061 pw.x -in pw.inp   Done                     01/03/2019 00:08:20
00014 suncat0061 pw.x -in pw.inp   Done                     01/03/2019 00:08:20
00015 suncat0061 pw.x -in pw.inp   Done                     01/03/2019 00:08:20
00016 suncat0021 pw.x -in pw.inp   Done                     01/03/2019 00:08:20
00017 suncat0021 pw.x -in pw.inp   Done                     01/03/2019 00:08:20
00018 suncat0021 pw.x -in pw.inp   Done                     01/03/2019 00:08:20
00019 suncat0021 pw.x -in pw.inp   Done                     01/03/2019 00:08:20
00020 suncat0021 pw.x -in pw.inp   Done                     01/03/2019 00:08:20
00021 suncat0021 pw.x -in pw.inp   Done                     01/03/2019 00:08:20
00022 suncat0021 pw.x -in pw.inp   Done                     01/03/2019 00:08:20
00023 suncat0021 pw.x -in pw.inp   Done                     01/03/2019 00:08:20
00024 suncat0198 pw.x -in pw.inp   Done                     01/03/2019 00:08:20
00025 suncat0198 pw.x -in pw.inp   Done                     01/03/2019 00:08:20
00026 suncat0198 pw.x -in pw.inp   Done                     01/03/2019 00:08:20
00027 suncat0198 pw.x -in pw.inp   Done                     01/03/2019 00:08:20
00028 suncat0198 pw.x -in pw.inp   Done                     01/03/2019 00:08:20
00029 suncat0198 pw.x -in pw.inp   Done                     01/03/2019 00:08:20
00030 suncat0198 pw.x -in pw.inp   Done                     01/03/2019 00:08:20
00031 suncat0198 pw.x -in pw.inp   Done                     01/03/2019 00:08:20
00032 suncat0194 pw.x -in pw.inp   Done                     01/03/2019 00:08:20
00033 suncat0194 pw.x -in pw.inp   Done                     01/03/2019 00:08:20
00034 suncat0194 pw.x -in pw.inp   Done                     01/03/2019 00:08:20
00035 suncat0194 pw.x -in pw.inp   Done                     01/03/2019 00:08:20
00036 suncat0194 pw.x -in pw.inp   Done                     01/03/2019 00:08:20
00037 suncat0194 pw.x -in pw.inp   Done                     01/03/2019 00:08:20
00038 suncat0194 pw.x -in pw.inp   Done                     01/03/2019 00:08:20
00039 suncat0194 pw.x -in pw.inp   Done                     01/03/2019 00:08:20
00040 suncat0193 pw.x -in pw.inp   Done                     01/03/2019 00:08:20
00041 suncat0193 pw.x -in pw.inp   Done                     01/03/2019 00:08:20
00042 suncat0193 pw.x -in pw.inp   Done                     01/03/2019 00:08:20
00043 suncat0193 pw.x -in pw.inp   Done                     01/03/2019 00:08:20
00044 suncat0193 pw.x -in pw.inp   Done                     01/03/2019 00:08:20
00045 suncat0193 pw.x -in pw.inp   Done                     01/03/2019 00:08:20
00046 suncat0193 pw.x -in pw.inp   Done                     01/03/2019 00:08:20
00047 suncat0193 pw.x -in pw.inp   Done                     01/03/2019 00:08:20
00048 suncat0215 pw.x -in pw.inp   Done                     01/03/2019 00:08:20
00049 suncat0215 pw.x -in pw.inp   Done                     01/03/2019 00:08:20
00050 suncat0215 pw.x -in pw.inp   Done                     01/03/2019 00:08:20
00051 suncat0215 pw.x -in pw.inp   Done                     01/03/2019 00:08:20
00052 suncat0215 pw.x -in pw.inp   Done                     01/03/2019 00:08:20
00053 suncat0215 pw.x -in pw.inp   Done                     01/03/2019 00:08:20
00054 suncat0215 pw.x -in pw.inp   Done                     01/03/2019 00:08:20
00055 suncat0215 pw.x -in pw.inp   Done                     01/03/2019 00:08:20
00056 suncat0210 pw.x -in pw.inp   Done                     01/03/2019 00:08:20
00057 suncat0210 pw.x -in pw.inp   Done                     01/03/2019 00:08:20
00058 suncat0210 pw.x -in pw.inp   Done                     01/03/2019 00:08:20
00059 suncat0210 pw.x -in pw.inp   Done                     01/03/2019 00:08:20
00060 suncat0210 pw.x -in pw.inp   Done                     01/03/2019 00:08:20
00061 suncat0210 pw.x -in pw.inp   Done                     01/03/2019 00:08:20
00062 suncat0210 pw.x -in pw.inp   Done                     01/03/2019 00:08:20
00063 suncat0210 pw.x -in pw.inp   Done                     01/03/2019 00:08:20