     Program PWSCF v.5.1rc2 (svn rev. 11289) starts on 28Dec2018 at  3:12:19

     Current dimensions of program PWSCF are:
     Max number of different atomic species (ntypx) = 10
     Max number of k-points (npk) =  40000
     Max angular momentum in pseudopotentials (lmaxx) =  3
     Presently stress not available with electric field

     IMPORTANT: XC functional enforced from input :
     Exchange-correlation      = BEEF-VDW ( 1  4 27 13 2)
     Any further DFT definition will be discarded
     Please, verify this is what you really want

     Subspace diagonalization in iterative solution of the eigenvalue problem:
     a serial algorithm will be used

     bravais-lattice index     =            0
     lattice parameter (alat)  =       1.8897  a.u.
     unit-cell volume          =    4666.8184 (a.u.)^3
     number of atoms/cell      =           12
     number of atomic types    =            2
     number of electrons       =       153.00
     number of Kohn-Sham states=          106
     kinetic-energy cutoff     =      36.7493  Ry
     charge density cutoff     =     367.4932  Ry
     convergence threshold     =      1.0E-06
     mixing beta               =       0.1000
     number of iterations used =           10  plain     mixing
     Exchange-correlation      = BEEF-VDW ( 1  4 27 13 2)
     nstep                     =           50

     celldm(1)=   1.889726  celldm(2)=   0.000000  celldm(3)=   0.000000
     celldm(4)=   0.000000  celldm(5)=   0.000000  celldm(6)=   0.000000

     crystal axes: (cart. coord. in units of alat)
               a(1) = (   5.691946   0.000000   0.000000 )
               a(2) = (  -2.845973   4.929370   0.000000 )
               a(3) = (   0.000000   0.000000  24.647455 )

     reciprocal axes: (cart. coord. in units 2 pi/alat)
               b(1) = (  0.175687  0.101433  0.000000 )
               b(2) = (  0.000000  0.202866  0.000000 )
               b(3) = (  0.000000  0.000000  0.040572 )

     PseudoPot. # 1 for V  read from file:
     /afs/slac.stanford.edu/u/if/mamunm/psp/gbrv1.5pbe/V.UPF
     MD5 check sum: 22b79981416ebb76fdaf5b1b8640f6fb
     Pseudo is Ultrasoft + core correction, Zval = 13.0
     Generated by new atomic code, or converted to UPF format
     Using radial grid of  853 points,  6 beta functions with:
                l(1) =   0
                l(2) =   0
                l(3) =   1
                l(4) =   1
                l(5) =   2
                l(6) =   2
     Q(r) pseudized with  8 coefficients,  rinner =    1.100   1.100   1.100
                                                       1.100   1.100

     PseudoPot. # 2 for Zr read from file:
     /afs/slac.stanford.edu/u/if/mamunm/psp/gbrv1.5pbe/Zr.UPF
     MD5 check sum: 5db81b1e868ab7776c4564c113de050b
     Pseudo is Ultrasoft + core correction, Zval = 12.0
     Generated by new atomic code, or converted to UPF format
     Using radial grid of  887 points,  6 beta functions with:
                l(1) =   0
                l(2) =   0
                l(3) =   1
                l(4) =   1
                l(5) =   2
                l(6) =   2
     Q(r) pseudized with  6 coefficients,  rinner =    1.200   1.200   1.200
                                                       1.200   1.200

     vdW kernel table read from file vdW_kernel_table
     MD5 check sum: 095c7af220d748ca6e76c0b4c6cfb241

     atomic species   valence    mass     pseudopotential
        V1            13.00    50.94150     V ( 1.00)
        Zr1           12.00    91.22400     Zr( 1.00)

     No symmetry found

   Cartesian axes

     site n.     atom                  positions (alat units)
         1           V1  tau(   1) = (   0.0000000   0.0000000  10.0000000  )
         2           V1  tau(   2) = (  -1.4229866   2.4646850  10.0000000  )
         3           V1  tau(   3) = (   1.4229866   2.4646850  10.0000000  )
         4           Zr1 tau(   4) = (   2.8459732   0.0000000  10.0000000  )
         5           V1  tau(   5) = (   2.8459732   1.6431234  12.3237273  )
         6           V1  tau(   6) = (   1.4229866   4.1078084  12.3237273  )
         7           V1  tau(   7) = (  -1.4229866   4.1078084  12.3237273  )
         8           Zr1 tau(   8) = (   0.0000000   1.6431234  12.3237273  )
         9           V1  tau(   9) = (  -0.0000000   3.2862467  14.6474547  )
        10           V1  tau(  10) = (   1.4229866   0.8215617  14.6474547  )
        11           V1  tau(  11) = (   4.2689597   0.8215617  14.6474547  )
        12           Zr1 tau(  12) = (   2.8459732   3.2862467  14.6474547  )

     number of k points=    20  Fermi-Dirac smearing, width (Ry)=  0.0110
                       cart. coord. in units 2pi/alat
        k(    1) = (   0.0000000   0.0000000   0.0000000), wk =   0.0555556
        k(    2) = (   0.0000000   0.0338109   0.0000000), wk =   0.1111111
        k(    3) = (   0.0000000   0.0676219   0.0000000), wk =   0.1111111
        k(    4) = (   0.0000000  -0.1014328   0.0000000), wk =   0.0555556
        k(    5) = (   0.0292811   0.0169055   0.0000000), wk =   0.1111111
        k(    6) = (   0.0292811   0.0507164   0.0000000), wk =   0.1111111
        k(    7) = (   0.0292811   0.0845274   0.0000000), wk =   0.1111111
        k(    8) = (   0.0292811  -0.0845274   0.0000000), wk =   0.1111111
        k(    9) = (   0.0292811  -0.0507164   0.0000000), wk =   0.1111111
        k(   10) = (   0.0292811  -0.0169055   0.0000000), wk =   0.1111111
        k(   11) = (   0.0585623   0.0338109   0.0000000), wk =   0.1111111
        k(   12) = (   0.0585623   0.0676219   0.0000000), wk =   0.1111111
        k(   13) = (   0.0585623   0.1014328   0.0000000), wk =   0.1111111
        k(   14) = (   0.0585623  -0.0676219   0.0000000), wk =   0.1111111
        k(   15) = (   0.0585623  -0.0338109   0.0000000), wk =   0.1111111
        k(   16) = (   0.0585623  -0.0000000   0.0000000), wk =   0.1111111
        k(   17) = (  -0.0878434  -0.0507164   0.0000000), wk =   0.0555556
        k(   18) = (  -0.0878434  -0.0169055   0.0000000), wk =   0.1111111
        k(   19) = (  -0.0878434   0.0169055   0.0000000), wk =   0.1111111
        k(   20) = (  -0.0878434  -0.1521493   0.0000000), wk =   0.0555556

     Largest allocated arrays     est. size (Mb)     dimensions
     Largest temporary arrays     est. size (Mb)     dimensions

     Initial potential from superposition of free atoms
     Check: negative starting charge=   -0.187187

     starting charge  152.98251, renormalised to  153.00000

     negative rho (up, down):  1.872E-01 0.000E+00

     *
     * You are using vdW-DF for exchange-correlation in this calculation.
     * Please cite the following three references that made this development
     * possible:
     *
     *   M. Dion, H. Rydberg, E. Schroder, D. C. Langreth, and
     *   B. I. Lundqvist, Phys. Rev. Lett. 92, 246401 (2004).
     *
     *   T. Thonhauser, V. R. Cooper, S. Li, A. Puzder, P. Hyldgaard, and
     *   D. C. Langreth, Phys. Rev. B 76, 125112 (2007).
     *
     *   G. Roman-Perez and J. M. Soler, Phys. Rev. Lett. 103, 096102 (2009).
     *
     *
     * If you are using vdW-DF2, please also cite:
     *
     *   K. Lee, E. D. Murray, L. Kong, B. I. Lundqvist, and
     *   D. C. Langreth, Phys. Rev. B 82, 081101(R) (2010).
     *
     *
     * If you are calculating the stress with vdW-DF, please also cite:
     *
     *   R. Sabatini, E. Kucukbenli, B. Kolb, T. Thonhauser, and
     *   S. de Gironcoli, J. Phys.: Condens. Matter 24, 424209 (2012).
     *

     Carrying out vdW-DF run using the following parameters:

     Nqs =      20    Nr_points =    1024   r_max =   100.000
     q_mesh =
               0.00001000     0.04494208     0.09755937     0.15916263
               0.23128650     0.31572767     0.41458969     0.53033537
               0.66584808     0.82450364     1.01025438     1.22772762
               1.48234092     1.78043706     2.12944203     2.53805004
               3.01644009     3.57652955     4.23227104     5.00000000

     Gradients computed in reciprocal space

     Adding external electric field

     Computed dipole along edir(3) :
        Dipole               -0.0000 Ry au,         -0.0000 Debye
        Dipole field         -0.0000 Ry au

        Potential amp.        0.0000 Ry
        Total length         45.4125 bohr

     Starting wfc are  129 randomized atomic wfcs

     Self-consistent Calculation

     iteration #  1     ecut=    36.75 Ry     beta=0.10
     Davidson diagonalization with overlap
     ethr =  1.00E-02,  avg # of iterations =  2.4

[...]

     total energy              =   -1609.15971667 Ry
     Harris-Foulkes estimate   =   -1611.43616951 Ry
     estimated scf accuracy    <      12.53764048 Ry

[...]

     End of self-consistent calculation

          k = 0.0000 0.0000 0.0000 ( 17615 PWs)   bands (ev):

   -63.2202 -63.1735 -63.1732 -63.1598 -63.1532 -63.1180 -63.1178 -63.1163
   -63.1161 -47.6319 -47.6310 -47.2906 -37.2102 -37.1287 -37.1286 -37.1166
   -37.1038 -37.0908 -37.0686 -37.0685 -37.0221 -37.0052 -37.0051 -36.9840
   -36.9838 -36.9567 -36.9566 -36.9283 -36.8877 -36.8788 -36.8787 -36.8445
   -36.8443 -36.8335 -36.8177 -36.7743 -36.7742 -36.7727 -36.7726 -25.7014
   -25.6846 -25.6305 -25.6305 -25.6265 -25.6265 -25.3604 -25.3283 -25.3283
    -4.5615  -3.1718  -2.2142  -1.9310  -1.9310  -1.7437  -1.7437  -1.3085
    -1.2075  -1.2075  -1.0630  -0.9949  -0.9949  -0.9144  -0.7170  -0.2188
    -0.2187  -0.0118   0.6707   0.7919   0.7919   0.8925   0.9668   1.0840
     1.3732   1.3733   1.3770   1.3771   1.3778   1.4273   1.5003   1.5003
     1.6189   1.6189   1.7054   1.7056   1.8374   2.0711   2.0711   2.0928
     2.2215   2.4780   2.4781   2.7080   2.7081   2.9264   3.0063   3.0064
     3.1437   3.1921   3.1921   3.5372   3.6274   3.6749   3.9019   3.9020
     4.1447   4.1447

[...]

          k =-0.0878-0.0507 0.0000 ( 17540 PWs)   bands (ev):

[...]

     the Fermi energy is     1.0956 ev

!    total energy              =   -1610.68515636 Ry
     Harris-Foulkes estimate   =   -1610.68515878 Ry
     estimated scf accuracy    <       0.00000083 Ry

     The total energy is the sum of the following terms:

     one-electron contribution =  -12607.22441164 Ry
     hartree contribution      =    6291.76420017 Ry
     xc contribution           =    -238.21915600 Ry
     ewald contribution        =    4943.15102769 Ry
     electric field correction =       0.00000000 Ry
     smearing contrib. (-TS)   =      -0.15681657 Ry

     convergence has been achieved in  25 iterations

 BEEF-vdW xc energy contributions
           1 :   -204.968604744983
           2 :    184.272631810997
           3 :   -149.976426242165
           4 :    112.700377943695
           5 :   -81.7242857277595
           6 :    61.4660054092097
           7 :   -50.9081281258807
           8 :    45.7065748479392
           9 :   -41.3456547000875
          10 :    35.4605595280380
          11 :   -28.3281542681598
          12 :    21.7437271586729
          13 :   -17.3432506029127
          14 :    15.4773603548387
          15 :   -15.1785198822440
          16 :    14.9932217035827
          17 :   -13.9797649675575
[...]
               b(3) = (  0.000000  0.000000  0.040572 )

     PseudoPot. # 1 for V  read from file:
     /afs/slac.stanford.edu/u/if/mamunm/psp/gbrv1.5pbe/V.UPF
     MD5 check sum: 22b79981416ebb76fdaf5b1b8640f6fb
     Pseudo is Ultrasoft + core correction, Zval = 13.0
     Generated by new atomic code, or converted to UPF format
     Using radial grid of  853 points,  6 beta functions with:
                l(1) =   0
                l(2) =   0
                l(3) =   1
                l(4) =   1
                l(5) =   2
                l(6) =   2
     Q(r) pseudized with  8 coefficients,  rinner =    1.100   1.100   1.100
                                                       1.100   1.100

     PseudoPot. # 2 for Zr read from file:
     /afs/slac.stanford.edu/u/if/mamunm/psp/gbrv1.5pbe/Zr.UPF
     MD5 check sum: 5db81b1e868ab7776c4564c113de050b
     Pseudo is Ultrasoft + core correction, Zval = 12.0
     Generated by new atomic code, or converted to UPF format
     Using radial grid of  887 points,  6 beta functions with:
                l(1) =   0
                l(2) =   0
                l(3) =   1
                l(4) =   1
                l(5) =   2
                l(6) =   2
     Q(r) pseudized with  6 coefficients,  rinner =    1.200   1.200   1.200
                                                       1.200   1.200

     vdW kernel table read from file vdW_kernel_table
     MD5 check sum: 095c7af220d748ca6e76c0b4c6cfb241

     atomic species   valence    mass     pseudopotential
        V1            13.00    50.94150     V ( 1.00)
        Zr1           12.00    91.22400     Zr( 1.00)

     No symmetry found

   Cartesian axes

     site n.     atom                  positions (alat units)
         1           V1  tau(   1) = (   0.0000000   0.0000000  10.0000000  )
         2           V1  tau(   2) = (  -1.4229866   2.4646850  10.0000000  )
         3           V1  tau(   3) = (   1.4229866   2.4646850  10.0000000  )
         4           Zr1 tau(   4) = (   2.8459732   0.0000000  10.0000000  )
         5           V1  tau(   5) = (   2.8459732   1.6431234  12.3237273  )
         6           V1  tau(   6) = (   1.4229866   4.1078084  12.3237273  )
         7           V1  tau(   7) = (  -1.4229866   4.1078084  12.3237273  )
         8           Zr1 tau(   8) = (   0.0000000   1.6431234  12.3237273  )
         9           V1  tau(   9) = (   0.0003036   3.5035853  14.4551591  )
        10           V1  tau(  10) = (   1.6112353   0.7129913  14.4550841  )
        11           V1  tau(  11) = (   4.0808856   0.7127434  14.4551295  )
        12           Zr1 tau(  12) = (   2.8459599   3.2862161  14.8301548  )

     number of k points=    20  Fermi-Dirac smearing, width (Ry)=  0.0110
                       cart. coord. in units 2pi/alat
        k(    1) = (   0.0000000   0.0000000   0.0000000), wk =   0.0555556
        k(    2) = (   0.0000000   0.0338109   0.0000000), wk =   0.1111111
        k(    3) = (   0.0000000   0.0676219   0.0000000), wk =   0.1111111
        k(    4) = (   0.0000000  -0.1014328   0.0000000), wk =   0.0555556
        k(    5) = (   0.0292811   0.0169055   0.0000000), wk =   0.1111111
        k(    6) = (   0.0292811   0.0507164   0.0000000), wk =   0.1111111
        k(    7) = (   0.0292811   0.0845274   0.0000000), wk =   0.1111111
        k(    8) = (   0.0292811  -0.0845274   0.0000000), wk =   0.1111111
        k(    9) = (   0.0292811  -0.0507164   0.0000000), wk =   0.1111111
        k(   10) = (   0.0292811  -0.0169055   0.0000000), wk =   0.1111111
        k(   11) = (   0.0585623   0.0338109   0.0000000), wk =   0.1111111
        k(   12) = (   0.0585623   0.0676219   0.0000000), wk =   0.1111111
        k(   13) = (   0.0585623   0.1014328   0.0000000), wk =   0.1111111
        k(   14) = (   0.0585623  -0.0676219   0.0000000), wk =   0.1111111
        k(   15) = (   0.0585623  -0.0338109   0.0000000), wk =   0.1111111
        k(   16) = (   0.0585623  -0.0000000   0.0000000), wk =   0.1111111
        k(   17) = (  -0.0878434  -0.0507164   0.0000000), wk =   0.0555556
        k(   18) = (  -0.0878434  -0.0169055   0.0000000), wk =   0.1111111
        k(   19) = (  -0.0878434   0.0169055   0.0000000), wk =   0.1111111
        k(   20) = (  -0.0878434  -0.1521493   0.0000000), wk =   0.0555556

     Largest allocated arrays     est. size (Mb)     dimensions
     Largest temporary arrays     est. size (Mb)     dimensions

     Initial potential from superposition of free atoms
     Check: negative starting charge=   -0.187388

     starting charge  152.98251, renormalised to  153.00000

[...]

     *
     * You are using vdW-DF for exchange-correlation in this calculation.
     * Please cite the following three references that made this development
     * possible:
     *
     *   M. Dion, H. Rydberg, E. Schroder, D. C. Langreth, and
     *   B. I. Lundqvist, Phys. Rev. Lett. 92, 246401 (2004).
     *
     *   T. Thonhauser, V. R. Cooper, S. Li, A. Puzder, P. Hyldgaard, and
     *   D. C. Langreth, Phys. Rev. B 76, 125112 (2007).
     *
     *   G. Roman-Perez and J. M. Soler, Phys. Rev. Lett. 103, 096102 (2009).
     *
     *
     * If you are using vdW-DF2, please also cite:
     *
     *   K. Lee, E. D. Murray, L. Kong, B. I. Lundqvist, and
     *   D. C. Langreth, Phys. Rev. B 82, 081101(R) (2010).
     *
     *
     * If you are calculating the stress with vdW-DF, please also cite:
     *
     *   R. Sabatini, E. Kucukbenli, B. Kolb, T. Thonhauser, and
     *   S. de Gironcoli, J. Phys.: Condens. Matter 24, 424209 (2012).
     *

     Carrying out vdW-DF run using the following parameters:

     Nqs =      20    Nr_points =    1024   r_max =   100.000
     q_mesh =
               0.00001000     0.04494208     0.09755937     0.15916263
               0.23128650     0.31572767     0.41458969     0.53033537
               0.66584808     0.82450364     1.01025438     1.22772762
               1.48234092     1.78043706     2.12944203     2.53805004
               3.01644009     3.57652955     4.23227104     5.00000000

     Gradients computed in reciprocal space

[...]

     Starting wfc are  129 randomized atomic wfcs

     Self-consistent Calculation

[...]

     total energy              =   -1610.73396881 Ry
     Harris-Foulkes estimate   =   -1610.73396846 Ry
     estimated scf accuracy    <       0.00000190 Ry

     iteration # 25     ecut=    36.75 Ry     beta=0.10
     Davidson diagonalization with overlap
     ethr =  9.52E-10,  avg # of iterations =  1.2

[...]

     negative rho (up, down):  1.941E-01 0.000E+00

     Adding external electric field

     Computed dipole along edir(3) :
        Dipole                0.1217 Ry au,          0.3094 Debye
        Dipole field          0.0003 Ry au

        Potential amp.       -0.0298 Ry
        Total length         45.4125 bohr

     End of self-consistent calculation

[...]

          k = 0.0586-0.0000 0.0000 ( 17573 PWs)   bands (ev):

[...]

          k =-0.0878-0.1521 0.0000 ( 17540 PWs)   bands (ev):

   -63.0400 -63.0216 -63.0021 -62.9865 -62.9753 -62.9616 -62.9335 -62.8427
   -62.8386 -47.8852 -47.4651 -47.2344 -37.1234 -37.0100 -36.9712 -36.9556
   -36.9456 -36.9045 -36.8802 -36.8657 -36.8621 -36.8454 -36.8128 -36.7953
   -36.7946 -36.7665 -36.7657 -36.7603 -36.7488 -36.7058 -36.6955 -36.6726
   -36.6316 -36.6096 -36.6013 -36.5959 -36.5112 -36.4981 -36.4637 -25.9432
   -25.8543 -25.8410 -25.5289 -25.4886 -25.4710 -25.3188 -25.2923 -25.2751
    -2.8498  -2.8137  -1.7481  -1.5454  -1.1915  -1.0224  -0.9986  -0.9118
    -0.7479  -0.6211  -0.4083  -0.2899  -0.1717  -0.0903  -0.0255   0.0462
     0.2020   0.3295   0.3296   0.3868   0.3978   0.4404   0.6222   0.7448
     0.8033   0.8075   0.8707   0.9824   1.0505   1.1199   1.2456   1.2946
     1.4241   1.5131   1.5748   1.6153   1.7362   1.7879   1.8721   2.0115
     2.2510   2.3391   2.3493   2.4756   2.5443   2.5492   2.5999   2.6135
     2.8890   2.9489   3.0351   3.0945   3.1659   3.5566   3.6773   3.6837
     3.8997   3.9240

     the Fermi energy is     1.2450 ev

!    total energy              =   -1610.73396881 Ry
     Harris-Foulkes estimate   =   -1610.73397071 Ry
     estimated scf accuracy    <       0.00000056 Ry

     The total energy is the sum of the following terms:

     one-electron contribution =  -12800.03451515 Ry
     hartree contribution      =    6388.92133338 Ry
     xc contribution           =    -238.42013131 Ry
     ewald contribution        =    5038.93507948 Ry
     electric field correction =       0.00003991 Ry
     smearing contrib. (-TS)   =      -0.13577513 Ry

     convergence has been achieved in  25 iterations

 BEEF-vdW xc energy contributions
           1 :   -205.237078396157
           2 :    184.609448215614
           3 :   -150.378594487106
           4 :    113.072910875994
           5 :   -81.9312788451691
           6 :    61.4263017637314
           7 :   -50.6678487179082
           8 :    45.4241353806091
           9 :   -41.1898142776832
          10 :    35.4950529947160
          11 :   -28.4701726949163
          12 :    21.8244148529437
          13 :   -17.2243732422012
          14 :    15.1439674754345
          15 :   -14.7484644380763
          16 :    14.6391288554236
          17 :   -13.8134617417404
          18 :    12.1855948580326
          19 :   -10.4159839240042
          20 :    9.28113894469578
          21 :   -9.08300764149567
          22 :    9.48825816057541
          23 :   -9.84079751181724
          24 :    9.65398619964216
          25 :   -8.91126941093319
          26 :    7.99254932654924
          27 :   -7.34014729245305
          28 :    7.13975830004250
          29 :   -7.23678098612376
          30 :    7.30359845069762
          31 :   -21.7768246114276
          32 :   -15.8419166531657

     Forces acting on atoms (Ry/au):

     negative rho (up, down):  1.941E-01 0.000E+00
     atom    1 type  1   force =     0.00000161   -0.02152268    0.01984636
     atom    2 type  1   force =    -0.01864086    0.01076047    0.01984073
     atom    3 type  1   force =     0.01864175    0.01075889    0.01984131
     atom    4 type  2   force =    -0.00001435    0.00000633   -0.02598514
     atom    5 type  1   force =     0.00000403    0.02531931   -0.00990927
     atom    6 type  1   force =     0.02192866   -0.01265990   -0.00991901
     atom    7 type  1   force =    -0.02193214   -0.01266634   -0.00989786
     atom    8 type  2   force =    -0.00002083    0.00000712   -0.00300919
     atom    9 type  1   force =    -0.00004236   -0.00040325   -0.00058246
     atom   10 type  1   force =    -0.00034245    0.00017947   -0.00059286
     atom   11 type  1   force =     0.00034873    0.00023246   -0.00057017
     atom   12 type  2   force =     0.00006822   -0.00001190    0.00093756

     Total force =     0.073999     Total SCF correction =     0.003055

     entering subroutine stress ...

     negative rho (up, down):  1.941E-01 0.000E+00
          total   stress  (Ry/bohr**3)                   (kbar)     P=  -12.24
  -0.00010606   0.00000000   0.00000002        -15.60      0.00      0.00
   0.00000000  -0.00010607  -0.00000000          0.00    -15.60     -0.00
   0.00000002  -0.00000000  -0.00003741          0.00     -0.00     -5.50

 !ASE

     Writing output data file calc.save

     General routines

     Parallel routines

   This run was terminated on:   4:45:35  28Dec2018

   JOB DONE.
Job  /afs/slac/g/suncat/bin/suncat-tsmpirun -x LD_LIBRARY_PATH -wdir /scratch/qe111303_En8FE pw.x -in pw.inp

TID   HOST_NAME   COMMAND_LINE            STATUS            TERMINATION_TIME
00000 suncat0089 pw.x -in pw.inp   Done                     12/28/2018 04:45:35
00001 suncat0089 pw.x -in pw.inp   Done                     12/28/2018 04:45:35
00002 suncat0089 pw.x -in pw.inp   Done                     12/28/2018 04:45:35
00003 suncat0089 pw.x -in pw.inp   Done                     12/28/2018 04:45:35
00004 suncat0089 pw.x -in pw.inp   Done                     12/28/2018 04:45:35
00005 suncat0089 pw.x -in pw.inp   Done                     12/28/2018 04:45:35
00006 suncat0089 pw.x -in pw.inp   Done                     12/28/2018 04:45:35
00007 suncat0089 pw.x -in pw.inp   Done                     12/28/2018 04:45:35
00008 suncat0088 pw.x -in pw.inp   Done                     12/28/2018 04:45:35
00009 suncat0088 pw.x -in pw.inp   Done                     12/28/2018 04:45:35
00010 suncat0088 pw.x -in pw.inp   Done                     12/28/2018 04:45:35
00011 suncat0088 pw.x -in pw.inp   Done                     12/28/2018 04:45:35
00012 suncat0088 pw.x -in pw.inp   Done                     12/28/2018 04:45:35
00013 suncat0088 pw.x -in pw.inp   Done                     12/28/2018 04:45:35
00014 suncat0088 pw.x -in pw.inp   Done                     12/28/2018 04:45:35
00015 suncat0088 pw.x -in pw.inp   Done                     12/28/2018 04:45:35
00016 suncat0087 pw.x -in pw.inp   Done                     12/28/2018 04:45:35
00017 suncat0087 pw.x -in pw.inp   Done                     12/28/2018 04:45:35
00018 suncat0087 pw.x -in pw.inp   Done                     12/28/2018 04:45:35
00019 suncat0087 pw.x -in pw.inp   Done                     12/28/2018 04:45:35
00020 suncat0087 pw.x -in pw.inp   Done                     12/28/2018 04:45:35
00021 suncat0087 pw.x -in pw.inp   Done                     12/28/2018 04:45:35
00022 suncat0087 pw.x -in pw.inp   Done                     12/28/2018 04:45:35
00023 suncat0087 pw.x -in pw.inp   Done                     12/28/2018 04:45:35
00024 suncat0086 pw.x -in pw.inp   Done                     12/28/2018 04:45:35
00025 suncat0086 pw.x -in pw.inp   Done                     12/28/2018 04:45:35
00026 suncat0086 pw.x -in pw.inp   Done                     12/28/2018 04:45:35
00027 suncat0086 pw.x -in pw.inp   Done                     12/28/2018 04:45:35
00028 suncat0086 pw.x -in pw.inp   Done                     12/28/2018 04:45:35
00029 suncat0086 pw.x -in pw.inp   Done                     12/28/2018 04:45:35
00030 suncat0086 pw.x -in pw.inp   Done                     12/28/2018 04:45:35
00031 suncat0086 pw.x -in pw.inp   Done                     12/28/2018 04:45:35
00032 suncat0085 pw.x -in pw.inp   Done                     12/28/2018 04:45:35
00033 suncat0085 pw.x -in pw.inp   Done                     12/28/2018 04:45:35
00034 suncat0085 pw.x -in pw.inp   Done                     12/28/2018 04:45:35
00035 suncat0085 pw.x -in pw.inp   Done                     12/28/2018 04:45:35
00036 suncat0085 pw.x -in pw.inp   Done                     12/28/2018 04:45:35
00037 suncat0085 pw.x -in pw.inp   Done                     12/28/2018 04:45:35
00038 suncat0085 pw.x -in pw.inp   Done                     12/28/2018 04:45:35
00039 suncat0085 pw.x -in pw.inp   Done                     12/28/2018 04:45:35
00040 suncat0084 pw.x -in pw.inp   Done                     12/28/2018 04:45:35
00041 suncat0084 pw.x -in pw.inp   Done                     12/28/2018 04:45:35
00042 suncat0084 pw.x -in pw.inp   Done                     12/28/2018 04:45:35
00043 suncat0084 pw.x -in pw.inp   Done                     12/28/2018 04:45:35
00044 suncat0084 pw.x -in pw.inp   Done                     12/28/2018 04:45:35
00045 suncat0084 pw.x -in pw.inp   Done                     12/28/2018 04:45:35
00046 suncat0084 pw.x -in pw.inp   Done                     12/28/2018 04:45:35
00047 suncat0084 pw.x -in pw.inp   Done                     12/28/2018 04:45:35
00048 suncat0083 pw.x -in pw.inp   Done                     12/28/2018 04:45:35
00049 suncat0083 pw.x -in pw.inp   Done                     12/28/2018 04:45:35
00050 suncat0083 pw.x -in pw.inp   Done                     12/28/2018 04:45:35
00051 suncat0083 pw.x -in pw.inp   Done                     12/28/2018 04:45:35
00052 suncat0083 pw.x -in pw.inp   Done                     12/28/2018 04:45:35
00053 suncat0083 pw.x -in pw.inp   Done                     12/28/2018 04:45:35
00054 suncat0083 pw.x -in pw.inp   Done                     12/28/2018 04:45:35
00055 suncat0083 pw.x -in pw.inp   Done                     12/28/2018 04:45:35
00056 suncat0062 pw.x -in pw.inp   Done                     12/28/2018 04:45:35
00057 suncat0062 pw.x -in pw.inp   Done                     12/28/2018 04:45:35
00058 suncat0062 pw.x -in pw.inp   Done                     12/28/2018 04:45:35
00059 suncat0062 pw.x -in pw.inp   Done                     12/28/2018 04:45:35
00060 suncat0062 pw.x -in pw.inp   Done                     12/28/2018 04:45:35
00061 suncat0062 pw.x -in pw.inp   Done                     12/28/2018 04:45:35
00062 suncat0062 pw.x -in pw.inp   Done                     12/28/2018 04:45:35
00063 suncat0062 pw.x -in pw.inp   Done                     12/28/2018 04:45:35