     Program PWSCF v.5.1rc2 (svn rev. 11289) starts on 27Dec2018 at  0:55:11

     Current dimensions of program PWSCF are:
     Max number of different atomic species (ntypx) = 10
     Max number of k-points (npk) =  40000
     Max angular momentum in pseudopotentials (lmaxx) =  3
     Presently stress not available with electric field

     IMPORTANT: XC functional enforced from input :
     Exchange-correlation      = BEEF-VDW ( 1  4 27 13 2)
     Any further DFT definition will be discarded
     Please, verify this is what you really want

     Subspace diagonalization in iterative solution of the eigenvalue problem:
     a serial algorithm will be used

     Generating pointlists ...
     new r_m :   0.4125 (alat units)  0.7795 (a.u.) for type    1
     new r_m :   0.4125 (alat units)  0.7795 (a.u.) for type    2

     bravais-lattice index     =            0
     lattice parameter (alat)  =       1.8897  a.u.
     unit-cell volume          =    3905.6210 (a.u.)^3
     number of atoms/cell      =           12
     number of atomic types    =            2
     number of electrons       =       177.00
     number of Kohn-Sham states=          118
     kinetic-energy cutoff     =      36.7493  Ry
     charge density cutoff     =     367.4932  Ry
     convergence threshold     =      1.0E-06
     mixing beta               =       0.1000
     number of iterations used =           10  plain     mixing
     Exchange-correlation      = BEEF-VDW ( 1  4 27 13 2)
     nstep                     =           50

     celldm(1)=   1.889726  celldm(2)=   0.000000  celldm(3)=   0.000000
     celldm(4)=   0.000000  celldm(5)=   0.000000  celldm(6)=   0.000000

     crystal axes: (cart. coord. in units of alat)
               a(1) = (   5.245988   0.000000   0.000000 )
               a(2) = (  -2.622994   4.543159   0.000000 )
               a(3) = (   0.000000   0.000000  24.283331 )

     reciprocal axes: (cart. coord. in units 2 pi/alat)
               b(1) = (  0.190622  0.110056  0.000000 )
               b(2) = (  0.000000  0.220111  0.000000 )
               b(3) = (  0.000000  0.000000  0.041181 )

     PseudoPot. # 1 for Mn read from file:
     /afs/slac.stanford.edu/u/if/mamunm/psp/gbrv1.5pbe/Mn.UPF
     MD5 check sum: 82ef2b46521d7a7d9e736dc3972e4928
     Pseudo is Ultrasoft + core correction, Zval = 15.0
     Generated by new atomic code, or converted to UPF format
     Using radial grid of  859 points,  6 beta functions with:
                l(1) =   0
                l(2) =   0
                l(3) =   1
                l(4) =   1
                l(5) =   2
                l(6) =   2
     Q(r) pseudized with  8 coefficients,  rinner =    0.950   0.950   0.950
                                                       0.950   0.950

     PseudoPot. # 2 for W  read from file:
     /afs/slac.stanford.edu/u/if/mamunm/psp/gbrv1.5pbe/W.UPF
     MD5 check sum: 9c083fa34c2a2ea0f02f1f893e16e1c8
     Pseudo is Ultrasoft + core correction, Zval = 14.0
     Generated by new atomic code, or converted to UPF format
     Using radial grid of  923 points,  8 beta functions with:
                l(1) =   0
                l(2) =   0
                l(3) =   0
                l(4) =   1
                l(5) =   1
                l(6) =   2
                l(7) =   2
                l(8) =   3
     Q(r) pseudized with  6 coefficients,  rinner =    1.350   1.350   1.350
                                                       1.350   1.350   1.350
                                                       1.350

     vdW kernel table read from file vdW_kernel_table
     MD5 check sum: 095c7af220d748ca6e76c0b4c6cfb241

     atomic species   valence    mass     pseudopotential
        Mn1           15.00    54.93804     Mn( 1.00)
        W1            14.00   183.84000     W ( 1.00)

     Starting magnetic structure
     atomic species   magnetization
        Mn1          0.133
        W1           0.143

     No symmetry found

   Cartesian axes

     site n.     atom                  positions (alat units)
         1           Mn1 tau(   1) = (   0.0000000   0.0000000  10.0000000  )
         2           Mn1 tau(   2) = (  -1.3114970   2.2715795  10.0000000  )
         3           Mn1 tau(   3) = (   1.3114970   2.2715795  10.0000000  )
         4           W1  tau(   4) = (   2.6229940   0.0000000  10.0000000  )
         5           Mn1 tau(   5) = (   2.6229940   1.5143863  12.1416657  )
         6           Mn1 tau(   6) = (   1.3114970   3.7859658  12.1416657  )
         7           Mn1 tau(   7) = (  -1.3114970   3.7859658  12.1416657  )
         8           W1  tau(   8) = (   0.0000000   1.5143863  12.1416657  )
         9           Mn1 tau(   9) = (  -0.0000000   3.0287726  14.2833313  )
        10           Mn1 tau(  10) = (   1.3114970   0.7571932  14.2833313  )
        11           Mn1 tau(  11) = (   3.9344911   0.7571932  14.2833313  )
        12           W1  tau(  12) = (   2.6229940   3.0287726  14.2833313  )

     number of k points=    40  Fermi-Dirac smearing, width (Ry)=  0.0110
                       cart. coord. in units 2pi/alat
        k(    1) = (   0.0000000   0.0000000   0.0000000), wk =   0.0277778
        k(    2) = (   0.0000000   0.0366852   0.0000000), wk =   0.0555556
        k(    3) = (   0.0000000   0.0733704   0.0000000), wk =   0.0555556
        k(    4) = (   0.0000000  -0.1100556   0.0000000), wk =   0.0277778
        k(    5) = (   0.0317703   0.0183426   0.0000000), wk =   0.0555556
        k(    6) = (   0.0317703   0.0550278   0.0000000), wk =   0.0555556
        k(    7) = (   0.0317703   0.0917130   0.0000000), wk =   0.0555556
        k(    8) = (   0.0317703  -0.0917130   0.0000000), wk =   0.0555556
        k(    9) = (   0.0317703  -0.0550278   0.0000000), wk =   0.0555556
        k(   10) = (   0.0317703  -0.0183426   0.0000000), wk =   0.0555556
        k(   11) = (   0.0635406   0.0366852   0.0000000), wk =   0.0555556
        k(   12) = (   0.0635406   0.0733704   0.0000000), wk =   0.0555556
        k(   13) = (   0.0635406   0.1100556   0.0000000), wk =   0.0555556
        k(   14) = (   0.0635406  -0.0733704   0.0000000), wk =   0.0555556
        k(   15) = (   0.0635406  -0.0366852   0.0000000), wk =   0.0555556
        k(   16) = (   0.0635406   0.0000000   0.0000000), wk =   0.0555556
        k(   17) = (  -0.0953109  -0.0550278   0.0000000), wk =   0.0277778
        k(   18) = (  -0.0953109  -0.0183426   0.0000000), wk =   0.0555556
        k(   19) = (  -0.0953109   0.0183426   0.0000000), wk =   0.0555556
        k(   20) = (  -0.0953109  -0.1650834   0.0000000), wk =   0.0277778
        k(   21) = (   0.0000000   0.0000000   0.0000000), wk =   0.0277778
        k(   22) = (   0.0000000   0.0366852   0.0000000), wk =   0.0555556
        k(   23) = (   0.0000000   0.0733704   0.0000000), wk =   0.0555556
        k(   24) = (   0.0000000  -0.1100556   0.0000000), wk =   0.0277778
        k(   25) = (   0.0317703   0.0183426   0.0000000), wk =   0.0555556
        k(   26) = (   0.0317703   0.0550278   0.0000000), wk =   0.0555556
        k(   27) = (   0.0317703   0.0917130   0.0000000), wk =   0.0555556
        k(   28) = (   0.0317703  -0.0917130   0.0000000), wk =   0.0555556
        k(   29) = (   0.0317703  -0.0550278   0.0000000), wk =   0.0555556
        k(   30) = (   0.0317703  -0.0183426   0.0000000), wk =   0.0555556
        k(   31) = (   0.0635406   0.0366852   0.0000000), wk =   0.0555556
        k(   32) = (   0.0635406   0.0733704   0.0000000), wk =   0.0555556
        k(   33) = (   0.0635406   0.1100556   0.0000000), wk =   0.0555556
        k(   34) = (   0.0635406  -0.0733704   0.0000000), wk =   0.0555556
        k(   35) = (   0.0635406  -0.0366852   0.0000000), wk =   0.0555556
        k(   36) = (   0.0635406   0.0000000   0.0000000), wk =   0.0555556
        k(   37) = (  -0.0953109  -0.0550278   0.0000000), wk =   0.0277778
        k(   38) = (  -0.0953109  -0.0183426   0.0000000), wk =   0.0555556
        k(   39) = (  -0.0953109   0.0183426   0.0000000), wk =   0.0555556
        k(   40) = (  -0.0953109  -0.1650834   0.0000000), wk =   0.0277778

     Largest allocated arrays     est. size (Mb)     dimensions
     Largest temporary arrays     est. size (Mb)     dimensions

     Check: negative/imaginary core charge=   -0.000007    0.000000

     Initial potential from superposition of free atoms
     Check: negative starting charge=(component1):   -0.109643
     Check: negative starting charge=(component2):   -0.082235

     starting charge  172.19821, renormalised to  177.00000

     negative rho (up, down):  1.127E-01 8.453E-02

     *
     * You are using vdW-DF for exchange-correlation in this calculation.
     * Please cite the following three references that made this development
     * possible:
     *
     *   M. Dion, H. Rydberg, E. Schroder, D. C. Langreth, and
     *   B. I. Lundqvist, Phys. Rev. Lett. 92, 246401 (2004).
     *
     *   T. Thonhauser, V. R. Cooper, S. Li, A. Puzder, P. Hyldgaard, and
     *   D. C. Langreth, Phys. Rev. B 76, 125112 (2007).
     *
     *   G. Roman-Perez and J. M. Soler, Phys. Rev. Lett. 103, 096102 (2009).
     *
     *
     * If you are using vdW-DF2, please also cite:
     *
     *   K. Lee, E. D. Murray, L. Kong, B. I. Lundqvist, and
     *   D. C. Langreth, Phys. Rev. B 82, 081101(R) (2010).
     *
     *
     * If you are calculating the stress with vdW-DF, please also cite:
     *
     *   R. Sabatini, E. Kucukbenli, B. Kolb, T. Thonhauser, and
     *   S. de Gironcoli, J. Phys.: Condens. Matter 24, 424209 (2012).
     *

     Carrying out vdW-DF run using the following parameters:

     Nqs =      20    Nr_points =    1024   r_max =   100.000
     q_mesh =
               0.00001000     0.04494208     0.09755937     0.15916263
               0.23128650     0.31572767     0.41458969     0.53033537
               0.66584808     0.82450364     1.01025438     1.22772762
               1.48234092     1.78043706     2.12944203     2.53805004
               3.01644009     3.57652955     4.23227104     5.00000000

     Gradients computed in reciprocal space

     Adding external electric field

     Computed dipole along edir(3) :
        Dipole                0.0000 Ry au,          0.0000 Debye
        Dipole field          0.0000 Ry au

        Potential amp.       -0.0000 Ry
        Total length         44.7416 bohr

[...]

     Starting wfc are  156 randomized atomic wfcs

     Self-consistent Calculation

     iteration #  1     ecut=    36.75 Ry     beta=0.10
     Davidson diagonalization with overlap
     ethr =  1.00E-02,  avg # of iterations =  2.6

[...]

     Magnetic moment per site:
     atom:    1    charge:    6.0658    magn:    0.7835    constr:    0.0000
     atom:    2    charge:    6.0658    magn:    0.7835    constr:    0.0000
     atom:    3    charge:    6.0658    magn:    0.7835    constr:    0.0000
     atom:    4    charge:    1.6750    magn:    0.2168    constr:    0.0000
     atom:    5    charge:    6.0835    magn:    0.7830    constr:    0.0000
     atom:    6    charge:    6.0835    magn:    0.7830    constr:    0.0000
[...]
        k(    3) = (   0.0000000   0.0733704   0.0000000), wk =   0.0555556
        k(    4) = (   0.0000000  -0.1100556   0.0000000), wk =   0.0277778
        k(    5) = (   0.0317703   0.0183426   0.0000000), wk =   0.0555556
        k(    6) = (   0.0317703   0.0550278   0.0000000), wk =   0.0555556
        k(    7) = (   0.0317703   0.0917130   0.0000000), wk =   0.0555556
        k(    8) = (   0.0317703  -0.0917130   0.0000000), wk =   0.0555556
        k(    9) = (   0.0317703  -0.0550278   0.0000000), wk =   0.0555556
        k(   10) = (   0.0317703  -0.0183426   0.0000000), wk =   0.0555556
        k(   11) = (   0.0635406   0.0366852   0.0000000), wk =   0.0555556
        k(   12) = (   0.0635406   0.0733704   0.0000000), wk =   0.0555556
        k(   13) = (   0.0635406   0.1100556   0.0000000), wk =   0.0555556
        k(   14) = (   0.0635406  -0.0733704   0.0000000), wk =   0.0555556
        k(   15) = (   0.0635406  -0.0366852   0.0000000), wk =   0.0555556
        k(   16) = (   0.0635406   0.0000000   0.0000000), wk =   0.0555556
        k(   17) = (  -0.0953109  -0.0550278   0.0000000), wk =   0.0277778
        k(   18) = (  -0.0953109  -0.0183426   0.0000000), wk =   0.0555556
        k(   19) = (  -0.0953109   0.0183426   0.0000000), wk =   0.0555556
        k(   20) = (  -0.0953109  -0.1650834   0.0000000), wk =   0.0277778
        k(   21) = (   0.0000000   0.0000000   0.0000000), wk =   0.0277778
        k(   22) = (   0.0000000   0.0366852   0.0000000), wk =   0.0555556
        k(   23) = (   0.0000000   0.0733704   0.0000000), wk =   0.0555556
        k(   24) = (   0.0000000  -0.1100556   0.0000000), wk =   0.0277778
        k(   25) = (   0.0317703   0.0183426   0.0000000), wk =   0.0555556
        k(   26) = (   0.0317703   0.0550278   0.0000000), wk =   0.0555556
        k(   27) = (   0.0317703   0.0917130   0.0000000), wk =   0.0555556
        k(   28) = (   0.0317703  -0.0917130   0.0000000), wk =   0.0555556
        k(   29) = (   0.0317703  -0.0550278   0.0000000), wk =   0.0555556
        k(   30) = (   0.0317703  -0.0183426   0.0000000), wk =   0.0555556
        k(   31) = (   0.0635406   0.0366852   0.0000000), wk =   0.0555556
        k(   32) = (   0.0635406   0.0733704   0.0000000), wk =   0.0555556
        k(   33) = (   0.0635406   0.1100556   0.0000000), wk =   0.0555556
        k(   34) = (   0.0635406  -0.0733704   0.0000000), wk =   0.0555556
        k(   35) = (   0.0635406  -0.0366852   0.0000000), wk =   0.0555556
        k(   36) = (   0.0635406   0.0000000   0.0000000), wk =   0.0555556
        k(   37) = (  -0.0953109  -0.0550278   0.0000000), wk =   0.0277778
        k(   38) = (  -0.0953109  -0.0183426   0.0000000), wk =   0.0555556
        k(   39) = (  -0.0953109   0.0183426   0.0000000), wk =   0.0555556
        k(   40) = (  -0.0953109  -0.1650834   0.0000000), wk =   0.0277778

     Largest allocated arrays     est. size (Mb)     dimensions
     Largest temporary arrays     est. size (Mb)     dimensions

     Check: negative/imaginary core charge=   -0.000007    0.000000

     Initial potential from superposition of free atoms
     Check: negative starting charge=(component1):   -0.109178
     Check: negative starting charge=(component2):   -0.081883

     starting charge  172.19821, renormalised to  177.00000

[...]

     *
     * You are using vdW-DF for exchange-correlation in this calculation.
     * Please cite the following three references that made this development
     * possible:
     *
     *   M. Dion, H. Rydberg, E. Schroder, D. C. Langreth, and
     *   B. I. Lundqvist, Phys. Rev. Lett. 92, 246401 (2004).
     *
     *   T. Thonhauser, V. R. Cooper, S. Li, A. Puzder, P. Hyldgaard, and
     *   D. C. Langreth, Phys. Rev. B 76, 125112 (2007).
     *
     *   G. Roman-Perez and J. M. Soler, Phys. Rev. Lett. 103, 096102 (2009).
     *
     *
     * If you are using vdW-DF2, please also cite:
     *
     *   K. Lee, E. D. Murray, L. Kong, B. I. Lundqvist, and
     *   D. C. Langreth, Phys. Rev. B 82, 081101(R) (2010).
     *
     *
     * If you are calculating the stress with vdW-DF, please also cite:
     *
     *   R. Sabatini, E. Kucukbenli, B. Kolb, T. Thonhauser, and
     *   S. de Gironcoli, J. Phys.: Condens. Matter 24, 424209 (2012).
     *

     Carrying out vdW-DF run using the following parameters:

     Nqs =      20    Nr_points =    1024   r_max =   100.000
     q_mesh =
               0.00001000     0.04494208     0.09755937     0.15916263
               0.23128650     0.31572767     0.41458969     0.53033537
               0.66584808     0.82450364     1.01025438     1.22772762
               1.48234092     1.78043706     2.12944203     2.53805004
               3.01644009     3.57652955     4.23227104     5.00000000

     Gradients computed in reciprocal space

[...]

     Starting wfc are  156 randomized atomic wfcs

     Self-consistent Calculation

[...]

     total energy              =   -2390.11784412 Ry
     Harris-Foulkes estimate   =   -2390.11784375 Ry
     estimated scf accuracy    <       0.00000118 Ry

[...]

     iteration # 47     ecut=    36.75 Ry     beta=0.10
     Davidson diagonalization with overlap
     ethr =  6.67E-10,  avg # of iterations =  2.4

[...]

     negative rho (up, down):  9.670E-02 1.012E-01

[...]

     Adding external electric field

     Computed dipole along edir(3) :
        Dipole                0.0321 Ry au,          0.0817 Debye
        Dipole field          0.0001 Ry au

        Potential amp.       -0.0093 Ry
        Total length         44.7416 bohr

     Magnetic moment per site:
     atom:    1    charge:    5.9975    magn:    1.0873    constr:    0.0000
     atom:    2    charge:    5.9975    magn:    1.0873    constr:    0.0000
     atom:    3    charge:    5.9975    magn:    1.0873    constr:    0.0000
     atom:    4    charge:    1.6405    magn:   -0.0316    constr:    0.0000
     atom:    5    charge:    5.9898    magn:    0.7703    constr:    0.0000
     atom:    6    charge:    5.9897    magn:    0.7703    constr:    0.0000
     atom:    7    charge:    5.9897    magn:    0.7703    constr:    0.0000
     atom:    8    charge:    1.6467    magn:   -0.0267    constr:    0.0000
     atom:    9    charge:    5.9995    magn:    1.1764    constr:    0.0000
     atom:   10    charge:    5.9995    magn:    1.1763    constr:    0.0000
     atom:   11    charge:    5.9995    magn:    1.1764    constr:    0.0000
     atom:   12    charge:    1.6420    magn:   -0.0293    constr:    0.0000

     End of self-consistent calculation

 ------ SPIN UP ------------

[...]

 ------ SPIN DOWN ----------

[...]

          k = 0.0635 0.0000 0.0000 ( 14701 PWs)   bands (ev):

[...]

          k =-0.0953-0.1651 0.0000 ( 14686 PWs)   bands (ev):

   -76.4285 -76.4149 -76.4011 -75.8690 -75.8556 -75.8419 -75.7296 -75.7158
   -75.7019 -72.9753 -72.8781 -72.8111 -45.3974 -45.3186 -45.2677 -45.1914
   -45.1517 -45.1375 -45.1195 -45.1131 -45.0364 -44.8107 -44.7581 -44.7241
   -44.6898 -44.6869 -44.6363 -44.6140 -44.5997 -44.5585 -44.5505 -44.5382
   -44.5320 -44.5028 -44.4800 -44.4042 -44.3925 -44.3806 -44.3740 -37.1517
   -37.1339 -37.1294 -37.1261 -37.0445 -37.0287 -37.0158 -36.9888 -36.9757
    -4.2985  -3.8999  -2.8156  -2.1908  -2.0828  -1.9600  -1.6031  -1.3960
    -1.2707  -1.0622  -0.9341  -0.7489  -0.6180  -0.4313  -0.4140  -0.2332
    -0.2011  -0.1808   0.1150   0.3747   0.3954   0.6149   0.6837   0.7739
     0.8951   1.1575   1.1707   1.2023   1.4367   1.4852   1.5350   1.5644
     1.6797   1.7690   1.8432   2.0089   2.0745   2.0837   2.1795   2.4050
     2.5484   2.6269   2.7101   2.7632   2.9639   3.0157   3.0914   3.2494
     3.2833   3.3588   3.4041   3.4129   3.4661   3.5741   3.7401   3.8051
     3.8542   3.9949   4.1182   4.1884   4.2259   4.6153   4.7189   4.8914
     5.0011   5.2767   5.5979   6.2847   6.4501   6.6494

     the Fermi energy is     1.6374 ev

!    total energy              =   -2390.11784531 Ry
     Harris-Foulkes estimate   =   -2390.11784436 Ry
     estimated scf accuracy    <       0.00000051 Ry

     The total energy is the sum of the following terms:

     one-electron contribution =  -20354.03120466 Ry
     hartree contribution      =   10170.95184647 Ry
     xc contribution           =    -376.02752816 Ry
     ewald contribution        =    8169.08425060 Ry
     electric field correction =       0.00000332 Ry
     smearing contrib. (-TS)   =      -0.09521288 Ry

     total magnetization       =    20.53 Bohr mag/cell
     absolute magnetization    =    26.26 Bohr mag/cell

     convergence has been achieved in  47 iterations

 BEEF-vdW xc energy contributions
           1 :   -329.135439828044
           2 :    300.002881078490
           3 :   -250.521189254951
           4 :    194.097937199585
           5 :   -143.109132227196
           6 :    104.730432751205
           7 :   -79.8553445417293
           8 :    64.8176582532091
           9 :   -54.4457342143290
          10 :    44.7770274440804
          11 :   -34.3397011537056
          12 :    23.8151468531416
          13 :   -14.7342906220666
          14 :    8.18704338314677
          15 :   -4.23713358389637
          16 :    2.11425213649170
          17 :  -0.802891832394778
          18 :  -0.429908885267537
          19 :    1.81682350110293
          20 :   -3.18728239834951
          21 :    4.22586302400117
          22 :   -4.71604362997914
          23 :    4.65845765563273
          24 :   -4.25721090444785
          25 :    3.82083579516899
          26 :   -3.62899015804743
          27 :    3.80501977845142
          28 :   -4.24970658404129
          29 :    4.68568235375557
          30 :   -4.81402443925697
          31 :   -29.9014550989411
          32 :   -21.6532420612574

     Forces acting on atoms (Ry/au):

     negative rho (up, down):  9.670E-02 1.012E-01
     atom    1 type  1   force =    -0.00000140   -0.00376543   -0.01593420
     atom    2 type  1   force =    -0.00326497    0.00188829   -0.01593567
     atom    3 type  1   force =     0.00326145    0.00188818   -0.01593269
     atom    4 type  2   force =    -0.00000237    0.00000720    0.01939295
     atom    5 type  1   force =     0.00000309   -0.01218684   -0.00081419
     atom    6 type  1   force =    -0.01056415    0.00609205   -0.00080631
     atom    7 type  1   force =     0.01056361    0.00608844   -0.00080494
     atom    8 type  2   force =    -0.00000162   -0.00000961    0.02871765
     atom    9 type  1   force =    -0.00000028    0.00054187    0.00054335
     atom   10 type  1   force =     0.00046437   -0.00026757    0.00056658
     atom   11 type  1   force =    -0.00046453   -0.00026723    0.00055636
     atom   12 type  2   force =     0.00000680   -0.00000934    0.00045113

     Total force =     0.049547     Total SCF correction =     0.002519

     entering subroutine stress ...

     negative rho (up, down):  9.670E-02 1.012E-01
          total   stress  (Ry/bohr**3)                   (kbar)     P=   -4.50
  -0.00004337  -0.00000001  -0.00000000         -6.38     -0.00     -0.00
  -0.00000001  -0.00004337  -0.00000000         -0.00     -6.38     -0.00
  -0.00000000  -0.00000000  -0.00000513         -0.00     -0.00     -0.75

 !ASE

     Writing output data file calc.save

     General routines

     Parallel routines

   This run was terminated on:   4:53:36  27Dec2018

   JOB DONE.
Job  /afs/slac/g/suncat/bin/suncat-tsmpirun -x LD_LIBRARY_PATH -wdir /scratch/qe110100_HWeOk pw.x -in pw.inp

TID   HOST_NAME   COMMAND_LINE            STATUS            TERMINATION_TIME
00000 suncat0163 pw.x -in pw.inp   Done                     12/27/2018 04:53:36
00001 suncat0163 pw.x -in pw.inp   Done                     12/27/2018 04:53:36
00002 suncat0163 pw.x -in pw.inp   Done                     12/27/2018 04:53:36
00003 suncat0163 pw.x -in pw.inp   Done                     12/27/2018 04:53:36
00004 suncat0163 pw.x -in pw.inp   Done                     12/27/2018 04:53:36
00005 suncat0163 pw.x -in pw.inp   Done                     12/27/2018 04:53:36
00006 suncat0163 pw.x -in pw.inp   Done                     12/27/2018 04:53:36
00007 suncat0163 pw.x -in pw.inp   Done                     12/27/2018 04:53:36
00008 suncat0162 pw.x -in pw.inp   Done                     12/27/2018 04:53:36
00009 suncat0162 pw.x -in pw.inp   Done                     12/27/2018 04:53:36
00010 suncat0162 pw.x -in pw.inp   Done                     12/27/2018 04:53:36
00011 suncat0162 pw.x -in pw.inp   Done                     12/27/2018 04:53:36
00012 suncat0162 pw.x -in pw.inp   Done                     12/27/2018 04:53:36
00013 suncat0162 pw.x -in pw.inp   Done                     12/27/2018 04:53:36
00014 suncat0162 pw.x -in pw.inp   Done                     12/27/2018 04:53:36
00015 suncat0162 pw.x -in pw.inp   Done                     12/27/2018 04:53:36
00016 suncat0145 pw.x -in pw.inp   Done                     12/27/2018 04:53:36
00017 suncat0145 pw.x -in pw.inp   Done                     12/27/2018 04:53:36
00018 suncat0145 pw.x -in pw.inp   Done                     12/27/2018 04:53:36
00019 suncat0145 pw.x -in pw.inp   Done                     12/27/2018 04:53:36
00020 suncat0145 pw.x -in pw.inp   Done                     12/27/2018 04:53:36
00021 suncat0145 pw.x -in pw.inp   Done                     12/27/2018 04:53:36
00022 suncat0145 pw.x -in pw.inp   Done                     12/27/2018 04:53:36
00023 suncat0145 pw.x -in pw.inp   Done                     12/27/2018 04:53:36
00024 suncat0144 pw.x -in pw.inp   Done                     12/27/2018 04:53:36
00025 suncat0144 pw.x -in pw.inp   Done                     12/27/2018 04:53:36
00026 suncat0144 pw.x -in pw.inp   Done                     12/27/2018 04:53:36
00027 suncat0144 pw.x -in pw.inp   Done                     12/27/2018 04:53:36
00028 suncat0144 pw.x -in pw.inp   Done                     12/27/2018 04:53:36
00029 suncat0144 pw.x -in pw.inp   Done                     12/27/2018 04:53:36
00030 suncat0144 pw.x -in pw.inp   Done                     12/27/2018 04:53:36
00031 suncat0144 pw.x -in pw.inp   Done                     12/27/2018 04:53:36
00032 suncat0133 pw.x -in pw.inp   Done                     12/27/2018 04:53:36
00033 suncat0133 pw.x -in pw.inp   Done                     12/27/2018 04:53:36
00034 suncat0133 pw.x -in pw.inp   Done                     12/27/2018 04:53:36
00035 suncat0133 pw.x -in pw.inp   Done                     12/27/2018 04:53:36
00036 suncat0133 pw.x -in pw.inp   Done                     12/27/2018 04:53:36
00037 suncat0133 pw.x -in pw.inp   Done                     12/27/2018 04:53:36
00038 suncat0133 pw.x -in pw.inp   Done                     12/27/2018 04:53:36
00039 suncat0133 pw.x -in pw.inp   Done                     12/27/2018 04:53:36
00040 suncat0132 pw.x -in pw.inp   Done                     12/27/2018 04:53:36
00041 suncat0132 pw.x -in pw.inp   Done                     12/27/2018 04:53:36
00042 suncat0132 pw.x -in pw.inp   Done                     12/27/2018 04:53:36
00043 suncat0132 pw.x -in pw.inp   Done                     12/27/2018 04:53:36
00044 suncat0132 pw.x -in pw.inp   Done                     12/27/2018 04:53:36
00045 suncat0132 pw.x -in pw.inp   Done                     12/27/2018 04:53:36
00046 suncat0132 pw.x -in pw.inp   Done                     12/27/2018 04:53:36
00047 suncat0132 pw.x -in pw.inp   Done                     12/27/2018 04:53:36
00048 suncat0131 pw.x -in pw.inp   Done                     12/27/2018 04:53:36
00049 suncat0131 pw.x -in pw.inp   Done                     12/27/2018 04:53:36
00050 suncat0131 pw.x -in pw.inp   Done                     12/27/2018 04:53:36
00051 suncat0131 pw.x -in pw.inp   Done                     12/27/2018 04:53:36
00052 suncat0131 pw.x -in pw.inp   Done                     12/27/2018 04:53:36
00053 suncat0131 pw.x -in pw.inp   Done                     12/27/2018 04:53:36
00054 suncat0131 pw.x -in pw.inp   Done                     12/27/2018 04:53:36
00055 suncat0131 pw.x -in pw.inp   Done                     12/27/2018 04:53:36
00056 suncat0130 pw.x -in pw.inp   Done                     12/27/2018 04:53:36
00057 suncat0130 pw.x -in pw.inp   Done                     12/27/2018 04:53:36
00058 suncat0130 pw.x -in pw.inp   Done                     12/27/2018 04:53:36
00059 suncat0130 pw.x -in pw.inp   Done                     12/27/2018 04:53:36
00060 suncat0130 pw.x -in pw.inp   Done                     12/27/2018 04:53:36
00061 suncat0130 pw.x -in pw.inp   Done                     12/27/2018 04:53:36
00062 suncat0130 pw.x -in pw.inp   Done                     12/27/2018 04:53:36
00063 suncat0130 pw.x -in pw.inp   Done                     12/27/2018 04:53:36