     Program PWSCF v.5.1rc2 (svn rev. 11289) starts on 25Dec2018 at  8:50:51

     Current dimensions of program PWSCF are:
     Max number of different atomic species (ntypx) = 10
     Max number of k-points (npk) =  40000
     Max angular momentum in pseudopotentials (lmaxx) =  3
     Presently stress not available with electric field

     IMPORTANT: XC functional enforced from input :
     Exchange-correlation      = BEEF-VDW ( 1  4 27 13 2)
     Any further DFT definition will be discarded
     Please, verify this is what you really want

     Subspace diagonalization in iterative solution of the eigenvalue problem:
     a serial algorithm will be used

     Generating pointlists ...
     new r_m :   0.4125 (alat units)  0.7795 (a.u.) for type    1
     new r_m :   0.4125 (alat units)  0.7795 (a.u.) for type    2

     bravais-lattice index     =            0
     lattice parameter (alat)  =       1.8897  a.u.
     unit-cell volume          =    3490.1405 (a.u.)^3
     number of atoms/cell      =           12
     number of atomic types    =            2
     number of electrons       =       192.00
     number of Kohn-Sham states=          126
     kinetic-energy cutoff     =      36.7493  Ry
     charge density cutoff     =     367.4932  Ry
     convergence threshold     =      1.0E-06
     mixing beta               =       0.1000
     number of iterations used =           10  plain     mixing
     Exchange-correlation      = BEEF-VDW ( 1  4 27 13 2)
     nstep                     =           50

     celldm(1)=   1.889726  celldm(2)=   0.000000  celldm(3)=   0.000000
     celldm(4)=   0.000000  celldm(5)=   0.000000  celldm(6)=   0.000000

     crystal axes: (cart. coord. in units of alat)
               a(1) = (   4.981324   0.000000   0.000000 )
               a(2) = (  -2.490662   4.313953   0.000000 )
               a(3) = (   0.000000   0.000000  24.067234 )

     reciprocal axes: (cart. coord. in units 2 pi/alat)
               b(1) = (  0.200750  0.115903  0.000000 )
               b(2) = (  0.000000  0.231806  0.000000 )
               b(3) = (  0.000000  0.000000  0.041550 )

     PseudoPot. # 1 for Co read from file:
     /afs/slac.stanford.edu/u/if/mamunm/psp/gbrv1.5pbe/Co.UPF
     MD5 check sum: 5f91765df6ddd3222702df6e7b74a16d
     Pseudo is Ultrasoft + core correction, Zval = 17.0
     Generated by new atomic code, or converted to UPF format
     Using radial grid of  863 points,  6 beta functions with:
                l(1) =   0
                l(2) =   0
                l(3) =   1
                l(4) =   1
                l(5) =   2
                l(6) =   2
     Q(r) pseudized with  8 coefficients,  rinner =    1.200   1.200   1.200
                                                       1.200   1.200

     PseudoPot. # 2 for V  read from file:
     /afs/slac.stanford.edu/u/if/mamunm/psp/gbrv1.5pbe/V.UPF
     MD5 check sum: 22b79981416ebb76fdaf5b1b8640f6fb
     Pseudo is Ultrasoft + core correction, Zval = 13.0
     Generated by new atomic code, or converted to UPF format
     Using radial grid of  853 points,  6 beta functions with:
                l(1) =   0
                l(2) =   0
                l(3) =   1
                l(4) =   1
                l(5) =   2
                l(6) =   2
     Q(r) pseudized with  8 coefficients,  rinner =    1.100   1.100   1.100
                                                       1.100   1.100

     vdW kernel table read from file vdW_kernel_table
     MD5 check sum: 095c7af220d748ca6e76c0b4c6cfb241

     atomic species   valence    mass     pseudopotential
        Co1           17.00    58.93319     Co( 1.00)
        V1            13.00    50.94150     V ( 1.00)

     Starting magnetic structure
     atomic species   magnetization
        Co1          0.118
        V1           0.154

     No symmetry found

   Cartesian axes

     site n.     atom                  positions (alat units)
         1           Co1 tau(   1) = (   0.0000000   0.0000000  10.0000000  )
         2           Co1 tau(   2) = (  -1.2453309   2.1569764  10.0000000  )
         3           Co1 tau(   3) = (   1.2453309   2.1569764  10.0000000  )
         4           V1  tau(   4) = (   2.4906618   0.0000000  10.0000000  )
         5           Co1 tau(   5) = (   2.4906618   1.4379842  12.0336168  )
         6           Co1 tau(   6) = (   1.2453309   3.5949606  12.0336168  )
         7           Co1 tau(   7) = (  -1.2453309   3.5949606  12.0336168  )
         8           V1  tau(   8) = (   0.0000000   1.4379842  12.0336168  )
         9           Co1 tau(   9) = (  -0.0000000   2.8759685  14.0672336  )
        10           Co1 tau(  10) = (   1.2453309   0.7189921  14.0672336  )
        11           Co1 tau(  11) = (   3.7359926   0.7189921  14.0672336  )
        12           V1  tau(  12) = (   2.4906618   2.8759685  14.0672336  )

     number of k points=    40  Fermi-Dirac smearing, width (Ry)=  0.0110
                       cart. coord. in units 2pi/alat
        k(    1) = (   0.0000000   0.0000000   0.0000000), wk =   0.0277778
        k(    2) = (   0.0000000   0.0386343   0.0000000), wk =   0.0555556
        k(    3) = (   0.0000000   0.0772687   0.0000000), wk =   0.0555556
        k(    4) = (   0.0000000  -0.1159030   0.0000000), wk =   0.0277778
        k(    5) = (   0.0334583   0.0193172   0.0000000), wk =   0.0555556
        k(    6) = (   0.0334583   0.0579515   0.0000000), wk =   0.0555556
        k(    7) = (   0.0334583   0.0965858   0.0000000), wk =   0.0555556
        k(    8) = (   0.0334583  -0.0965858   0.0000000), wk =   0.0555556
        k(    9) = (   0.0334583  -0.0579515   0.0000000), wk =   0.0555556
        k(   10) = (   0.0334583  -0.0193172   0.0000000), wk =   0.0555556
        k(   11) = (   0.0669166   0.0386343   0.0000000), wk =   0.0555556
        k(   12) = (   0.0669166   0.0772687   0.0000000), wk =   0.0555556
        k(   13) = (   0.0669166   0.1159030   0.0000000), wk =   0.0555556
        k(   14) = (   0.0669166  -0.0772687   0.0000000), wk =   0.0555556
        k(   15) = (   0.0669166  -0.0386343   0.0000000), wk =   0.0555556
        k(   16) = (   0.0669166   0.0000000   0.0000000), wk =   0.0555556
        k(   17) = (  -0.1003749  -0.0579515   0.0000000), wk =   0.0277778
        k(   18) = (  -0.1003749  -0.0193172   0.0000000), wk =   0.0555556
        k(   19) = (  -0.1003749   0.0193172   0.0000000), wk =   0.0555556
        k(   20) = (  -0.1003749  -0.1738545   0.0000000), wk =   0.0277778
        k(   21) = (   0.0000000   0.0000000   0.0000000), wk =   0.0277778
        k(   22) = (   0.0000000   0.0386343   0.0000000), wk =   0.0555556
        k(   23) = (   0.0000000   0.0772687   0.0000000), wk =   0.0555556
        k(   24) = (   0.0000000  -0.1159030   0.0000000), wk =   0.0277778
        k(   25) = (   0.0334583   0.0193172   0.0000000), wk =   0.0555556
        k(   26) = (   0.0334583   0.0579515   0.0000000), wk =   0.0555556
        k(   27) = (   0.0334583   0.0965858   0.0000000), wk =   0.0555556
        k(   28) = (   0.0334583  -0.0965858   0.0000000), wk =   0.0555556
        k(   29) = (   0.0334583  -0.0579515   0.0000000), wk =   0.0555556
        k(   30) = (   0.0334583  -0.0193172   0.0000000), wk =   0.0555556
        k(   31) = (   0.0669166   0.0386343   0.0000000), wk =   0.0555556
        k(   32) = (   0.0669166   0.0772687   0.0000000), wk =   0.0555556
        k(   33) = (   0.0669166   0.1159030   0.0000000), wk =   0.0555556
        k(   34) = (   0.0669166  -0.0772687   0.0000000), wk =   0.0555556
        k(   35) = (   0.0669166  -0.0386343   0.0000000), wk =   0.0555556
        k(   36) = (   0.0669166   0.0000000   0.0000000), wk =   0.0555556
        k(   37) = (  -0.1003749  -0.0579515   0.0000000), wk =   0.0277778
        k(   38) = (  -0.1003749  -0.0193172   0.0000000), wk =   0.0555556
        k(   39) = (  -0.1003749   0.0193172   0.0000000), wk =   0.0555556
        k(   40) = (  -0.1003749  -0.1738545   0.0000000), wk =   0.0277778

     Largest allocated arrays     est. size (Mb)     dimensions
     Largest temporary arrays     est. size (Mb)     dimensions

     Check: negative/imaginary core charge=   -0.000006    0.000000

     Initial potential from superposition of free atoms
     Check: negative starting charge=(component1):   -0.001808
     Check: negative starting charge=(component2):   -0.001328

     starting charge  182.99625, renormalised to  192.00000

     negative rho (up, down):  1.897E-03 1.394E-03

     *
     * You are using vdW-DF for exchange-correlation in this calculation.
     * Please cite the following three references that made this development
     * possible:
     *
     *   M. Dion, H. Rydberg, E. Schroder, D. C. Langreth, and
     *   B. I. Lundqvist, Phys. Rev. Lett. 92, 246401 (2004).
     *
     *   T. Thonhauser, V. R. Cooper, S. Li, A. Puzder, P. Hyldgaard, and
     *   D. C. Langreth, Phys. Rev. B 76, 125112 (2007).
     *
     *   G. Roman-Perez and J. M. Soler, Phys. Rev. Lett. 103, 096102 (2009).
     *
     *
     * If you are using vdW-DF2, please also cite:
     *
     *   K. Lee, E. D. Murray, L. Kong, B. I. Lundqvist, and
     *   D. C. Langreth, Phys. Rev. B 82, 081101(R) (2010).
     *
     *
     * If you are calculating the stress with vdW-DF, please also cite:
     *
     *   R. Sabatini, E. Kucukbenli, B. Kolb, T. Thonhauser, and
     *   S. de Gironcoli, J. Phys.: Condens. Matter 24, 424209 (2012).
     *

     Carrying out vdW-DF run using the following parameters:

     Nqs =      20    Nr_points =    1024   r_max =   100.000
     q_mesh =
               0.00001000     0.04494208     0.09755937     0.15916263
               0.23128650     0.31572767     0.41458969     0.53033537
               0.66584808     0.82450364     1.01025438     1.22772762
               1.48234092     1.78043706     2.12944203     2.53805004
               3.01644009     3.57652955     4.23227104     5.00000000

     Gradients computed in reciprocal space

     Adding external electric field

     Computed dipole along edir(3) :
        Dipole                0.0000 Ry au,          0.0000 Debye
        Dipole field          0.0000 Ry au

        Potential amp.       -0.0000 Ry
        Total length         44.3435 bohr

[...]

     Starting wfc are  147 randomized atomic wfcs

     Self-consistent Calculation

     iteration #  1     ecut=    36.75 Ry     beta=0.10
     Davidson diagonalization with overlap
     ethr =  1.00E-02,  avg # of iterations =  7.8

[...]

     Magnetic moment per site:
     atom:    1    charge:    8.4247    magn:    0.9613    constr:    0.0000
     atom:    2    charge:    8.4247    magn:    0.9613    constr:    0.0000
     atom:    3    charge:    8.4247    magn:    0.9613    constr:    0.0000
     atom:    4    charge:    4.2166    magn:    0.6078    constr:    0.0000
     atom:    5    charge:    8.4386    magn:    0.9583    constr:    0.0000
     atom:    6    charge:    8.4386    magn:    0.9583    constr:    0.0000
     atom:    7    charge:    8.4386    magn:    0.9583    constr:    0.0000
     atom:    8    charge:    4.2260    magn:    0.6039    constr:    0.0000
[...]
        k(    5) = (   0.0334583   0.0193172   0.0000000), wk =   0.0555556
        k(    6) = (   0.0334583   0.0579515   0.0000000), wk =   0.0555556
        k(    7) = (   0.0334583   0.0965858   0.0000000), wk =   0.0555556
        k(    8) = (   0.0334583  -0.0965858   0.0000000), wk =   0.0555556
        k(    9) = (   0.0334583  -0.0579515   0.0000000), wk =   0.0555556
        k(   10) = (   0.0334583  -0.0193172   0.0000000), wk =   0.0555556
        k(   11) = (   0.0669166   0.0386343   0.0000000), wk =   0.0555556
        k(   12) = (   0.0669166   0.0772687   0.0000000), wk =   0.0555556
        k(   13) = (   0.0669166   0.1159030   0.0000000), wk =   0.0555556
        k(   14) = (   0.0669166  -0.0772687   0.0000000), wk =   0.0555556
        k(   15) = (   0.0669166  -0.0386343   0.0000000), wk =   0.0555556
        k(   16) = (   0.0669166   0.0000000   0.0000000), wk =   0.0555556
        k(   17) = (  -0.1003749  -0.0579515   0.0000000), wk =   0.0277778
        k(   18) = (  -0.1003749  -0.0193172   0.0000000), wk =   0.0555556
        k(   19) = (  -0.1003749   0.0193172   0.0000000), wk =   0.0555556
        k(   20) = (  -0.1003749  -0.1738545   0.0000000), wk =   0.0277778
        k(   21) = (   0.0000000   0.0000000   0.0000000), wk =   0.0277778
        k(   22) = (   0.0000000   0.0386343   0.0000000), wk =   0.0555556
        k(   23) = (   0.0000000   0.0772687   0.0000000), wk =   0.0555556
        k(   24) = (   0.0000000  -0.1159030   0.0000000), wk =   0.0277778
        k(   25) = (   0.0334583   0.0193172   0.0000000), wk =   0.0555556
        k(   26) = (   0.0334583   0.0579515   0.0000000), wk =   0.0555556
        k(   27) = (   0.0334583   0.0965858   0.0000000), wk =   0.0555556
        k(   28) = (   0.0334583  -0.0965858   0.0000000), wk =   0.0555556
        k(   29) = (   0.0334583  -0.0579515   0.0000000), wk =   0.0555556
        k(   30) = (   0.0334583  -0.0193172   0.0000000), wk =   0.0555556
        k(   31) = (   0.0669166   0.0386343   0.0000000), wk =   0.0555556
        k(   32) = (   0.0669166   0.0772687   0.0000000), wk =   0.0555556
        k(   33) = (   0.0669166   0.1159030   0.0000000), wk =   0.0555556
        k(   34) = (   0.0669166  -0.0772687   0.0000000), wk =   0.0555556
        k(   35) = (   0.0669166  -0.0386343   0.0000000), wk =   0.0555556
        k(   36) = (   0.0669166   0.0000000   0.0000000), wk =   0.0555556
        k(   37) = (  -0.1003749  -0.0579515   0.0000000), wk =   0.0277778
        k(   38) = (  -0.1003749  -0.0193172   0.0000000), wk =   0.0555556
        k(   39) = (  -0.1003749   0.0193172   0.0000000), wk =   0.0555556
        k(   40) = (  -0.1003749  -0.1738545   0.0000000), wk =   0.0277778

     Largest allocated arrays     est. size (Mb)     dimensions
     Largest temporary arrays     est. size (Mb)     dimensions

     Check: negative/imaginary core charge=   -0.000006    0.000000

     Initial potential from superposition of free atoms
     Check: negative starting charge=(component1):   -0.001762
     Check: negative starting charge=(component2):   -0.001294

     starting charge  182.99625, renormalised to  192.00000

[...]

     *
     * You are using vdW-DF for exchange-correlation in this calculation.
     * Please cite the following three references that made this development
     * possible:
     *
     *   M. Dion, H. Rydberg, E. Schroder, D. C. Langreth, and
     *   B. I. Lundqvist, Phys. Rev. Lett. 92, 246401 (2004).
     *
     *   T. Thonhauser, V. R. Cooper, S. Li, A. Puzder, P. Hyldgaard, and
     *   D. C. Langreth, Phys. Rev. B 76, 125112 (2007).
     *
     *   G. Roman-Perez and J. M. Soler, Phys. Rev. Lett. 103, 096102 (2009).
     *
     *
     * If you are using vdW-DF2, please also cite:
     *
     *   K. Lee, E. D. Murray, L. Kong, B. I. Lundqvist, and
     *   D. C. Langreth, Phys. Rev. B 82, 081101(R) (2010).
     *
     *
     * If you are calculating the stress with vdW-DF, please also cite:
     *
     *   R. Sabatini, E. Kucukbenli, B. Kolb, T. Thonhauser, and
     *   S. de Gironcoli, J. Phys.: Condens. Matter 24, 424209 (2012).
     *

     Carrying out vdW-DF run using the following parameters:

     Nqs =      20    Nr_points =    1024   r_max =   100.000
     q_mesh =
               0.00001000     0.04494208     0.09755937     0.15916263
               0.23128650     0.31572767     0.41458969     0.53033537
               0.66584808     0.82450364     1.01025438     1.22772762
               1.48234092     1.78043706     2.12944203     2.53805004
               3.01644009     3.57652955     4.23227104     5.00000000

     Gradients computed in reciprocal space

[...]

     Starting wfc are  147 randomized atomic wfcs

     Self-consistent Calculation

[...]

     total energy              =   -3133.04955081 Ry
     Harris-Foulkes estimate   =   -3133.04955075 Ry
     estimated scf accuracy    <       0.00000139 Ry

[...]

     iteration # 47     ecut=    36.75 Ry     beta=0.10
     Davidson diagonalization with overlap
     ethr =  7.26E-10,  avg # of iterations =  1.0

[...]

     negative rho (up, down):  3.274E-03 1.067E-03

[...]

     Adding external electric field

     Computed dipole along edir(3) :
        Dipole               -0.0042 Ry au,         -0.0107 Debye
        Dipole field         -0.0000 Ry au

        Potential amp.        0.0013 Ry
        Total length         44.3435 bohr

     Magnetic moment per site:
     atom:    1    charge:    8.2800    magn:    0.7312    constr:    0.0000
     atom:    2    charge:    8.2799    magn:    0.7312    constr:    0.0000
     atom:    3    charge:    8.2799    magn:    0.7312    constr:    0.0000
     atom:    4    charge:    4.0002    magn:   -0.3922    constr:    0.0000
     atom:    5    charge:    8.2735    magn:    0.6095    constr:    0.0000
     atom:    6    charge:    8.2735    magn:    0.6095    constr:    0.0000
     atom:    7    charge:    8.2736    magn:    0.6095    constr:    0.0000
     atom:    8    charge:    3.9917    magn:   -0.2459    constr:    0.0000
     atom:    9    charge:    8.2810    magn:    0.7307    constr:    0.0000
     atom:   10    charge:    8.2809    magn:    0.7308    constr:    0.0000
     atom:   11    charge:    8.2812    magn:    0.7306    constr:    0.0000
     atom:   12    charge:    3.9962    magn:   -0.3898    constr:    0.0000

     End of self-consistent calculation

 ------ SPIN UP ------------

[...]

 ------ SPIN DOWN ----------

[...]

          k = 0.0669 0.0000 0.0000 ( 13107 PWs)   bands (ev):

[...]

          k =-0.1004-0.1739 0.0000 ( 13122 PWs)   bands (ev):

   -93.3955 -93.3861 -93.3767 -93.0470 -93.0459 -93.0377 -93.0363 -93.0285
   -93.0273 -64.1610 -64.1570 -64.0524 -56.8466 -56.7910 -56.7652 -56.7639
   -56.7435 -56.7126 -56.6775 -56.6515 -56.5966 -56.4950 -56.4877 -56.4578
   -56.4491 -56.4345 -56.4296 -56.4008 -56.3993 -56.3536 -56.3516 -56.3283
   -56.3235 -56.3233 -56.3201 -56.3195 -56.3037 -56.2621 -56.2610 -38.0574
   -38.0523 -37.9266 -37.9234 -37.9231 -37.9175 -37.9010 -37.8933 -37.7837
    -4.9479  -4.8542  -3.3404  -3.2303  -2.6302  -2.5740  -2.4878  -2.3358
    -2.0681  -2.0615  -1.7982  -1.6513  -1.5754  -1.4704  -1.4085  -1.3078
    -1.0967  -1.0191  -1.0164  -0.9777  -0.8786  -0.8346  -0.5688  -0.5385
    -0.3721  -0.3405  -0.2815  -0.2644  -0.2359  -0.2064  -0.1531  -0.0943
     0.0114   0.0682   0.0833   0.0963   0.1711   0.1751   0.3134   0.5067
     0.6677   0.6906   0.7882   0.9490   0.9616   1.0323   1.1106   1.1145
     1.3862   1.3952   1.4228   1.4388   1.5120   1.5891   1.6780   1.7034
     1.8658   2.0128   2.0182   2.0986   2.1410   2.3128   2.4740   2.7903
     3.2653   3.5648   3.6763   4.5868   4.5899   5.0504   5.3791   5.4851
     6.7351   6.7701   7.1725   7.2012   7.6677   7.6693

     the Fermi energy is     1.0675 ev

!    total energy              =   -3133.04955095 Ry
     Harris-Foulkes estimate   =   -3133.04955084 Ry
     estimated scf accuracy    <       0.00000077 Ry

     The total energy is the sum of the following terms:

     one-electron contribution =  -27754.73098777 Ry
     hartree contribution      =   13879.77418497 Ry
     xc contribution           =    -365.17553904 Ry
     ewald contribution        =   11107.16160393 Ry
     electric field correction =       0.00000006 Ry
     smearing contrib. (-TS)   =      -0.07881310 Ry

     total magnetization       =     6.70 Bohr mag/cell
     absolute magnetization    =    16.28 Bohr mag/cell

     convergence has been achieved in  47 iterations

 BEEF-vdW xc energy contributions
           1 :   -320.597656301692
           2 :    290.472087320600
           3 :   -239.275020490933
           4 :    180.917849595071
           5 :   -128.303688605013
           6 :    88.7560365304826
           7 :   -62.7268411742934
           8 :    45.7911355238422
           9 :   -32.3583107232458
          10 :    18.9190186817622
          11 :   -5.31062577152761
          12 :   -6.23459907188169
          13 :    13.2303199252832
          14 :   -14.8014658084030
          15 :    12.2261402965496
          16 :   -8.09230345945031
          17 :    4.80062665412146
          18 :   -3.40693124133958
          19 :    3.41147194994875
          20 :   -3.47387802442597
          21 :    2.48053815315109
          22 :  -0.283976059329916
          23 :   -2.28977868654653
          24 :    4.05825302015364
          25 :   -4.26735323444387
          26 :    3.03181483466699
          27 :   -1.20763177212712
          28 :  -0.169715942870255
          29 :   0.490733059168690
          30 :   0.138462771805280
          31 :   -28.1083155940962
          32 :   -19.6926409751092

     Forces acting on atoms (Ry/au):

     negative rho (up, down):  3.274E-03 1.067E-03
     atom    1 type  1   force =     0.00000667    0.00254712   -0.00049865
     atom    2 type  1   force =     0.00221131   -0.00127163   -0.00050275
     atom    3 type  1   force =    -0.00219506   -0.00127031   -0.00049033
     atom    4 type  2   force =     0.00000569    0.00000293    0.00328111
     atom    5 type  1   force =    -0.00006851   -0.00033837   -0.00032314
     atom    6 type  1   force =    -0.00032281    0.00011278   -0.00032705
     atom    7 type  1   force =     0.00033359    0.00019803   -0.00025495
     atom    8 type  2   force =    -0.00000201   -0.00000062    0.00027932
     atom    9 type  1   force =     0.00002165    0.00079634   -0.00003577
     atom   10 type  1   force =     0.00069586   -0.00038013   -0.00003936
     atom   11 type  1   force =    -0.00068377   -0.00039789   -0.00003724
     atom   12 type  2   force =    -0.00000261    0.00000176   -0.00105119

     Total force =     0.005888     Total SCF correction =     0.005432
     SCF correction compared to forces is large: reduce conv_thr to get better values

     entering subroutine stress ...

     negative rho (up, down):  3.274E-03 1.067E-03
          total   stress  (Ry/bohr**3)                   (kbar)     P=   -8.44
  -0.00006225   0.00000000   0.00000000         -9.16      0.00      0.00
   0.00000000  -0.00006225   0.00000000          0.00     -9.16      0.00
   0.00000000   0.00000000  -0.00004754          0.00      0.00     -6.99

 !ASE

     Writing output data file calc.save

     General routines

     Parallel routines

   This run was terminated on:  11:56: 3  25Dec2018

   JOB DONE.
Job  /afs/slac/g/suncat/bin/suncat-tsmpirun -x LD_LIBRARY_PATH -wdir /scratch/qe109484_2qMCi pw.x -in pw.inp

TID   HOST_NAME   COMMAND_LINE            STATUS            TERMINATION_TIME
00000 suncat0050 pw.x -in pw.inp   Done                     12/25/2018 11:56:03
00001 suncat0050 pw.x -in pw.inp   Done                     12/25/2018 11:56:03
00002 suncat0050 pw.x -in pw.inp   Done                     12/25/2018 11:56:03
00003 suncat0050 pw.x -in pw.inp   Done                     12/25/2018 11:56:03
00004 suncat0050 pw.x -in pw.inp   Done                     12/25/2018 11:56:03
00005 suncat0050 pw.x -in pw.inp   Done                     12/25/2018 11:56:03
00006 suncat0050 pw.x -in pw.inp   Done                     12/25/2018 11:56:03
00007 suncat0050 pw.x -in pw.inp   Done                     12/25/2018 11:56:03
00008 suncat0049 pw.x -in pw.inp   Done                     12/25/2018 11:56:03
00009 suncat0049 pw.x -in pw.inp   Done                     12/25/2018 11:56:03
00010 suncat0049 pw.x -in pw.inp   Done                     12/25/2018 11:56:03
00011 suncat0049 pw.x -in pw.inp   Done                     12/25/2018 11:56:03
00012 suncat0049 pw.x -in pw.inp   Done                     12/25/2018 11:56:03
00013 suncat0049 pw.x -in pw.inp   Done                     12/25/2018 11:56:03
00014 suncat0049 pw.x -in pw.inp   Done                     12/25/2018 11:56:03
00015 suncat0049 pw.x -in pw.inp   Done                     12/25/2018 11:56:03
00016 suncat0031 pw.x -in pw.inp   Done                     12/25/2018 11:56:03
00017 suncat0031 pw.x -in pw.inp   Done                     12/25/2018 11:56:03
00018 suncat0031 pw.x -in pw.inp   Done                     12/25/2018 11:56:03
00019 suncat0031 pw.x -in pw.inp   Done                     12/25/2018 11:56:03
00020 suncat0031 pw.x -in pw.inp   Done                     12/25/2018 11:56:03
00021 suncat0031 pw.x -in pw.inp   Done                     12/25/2018 11:56:03
00022 suncat0031 pw.x -in pw.inp   Done                     12/25/2018 11:56:03
00023 suncat0031 pw.x -in pw.inp   Done                     12/25/2018 11:56:03
00024 suncat0030 pw.x -in pw.inp   Done                     12/25/2018 11:56:03
00025 suncat0030 pw.x -in pw.inp   Done                     12/25/2018 11:56:03
00026 suncat0030 pw.x -in pw.inp   Done                     12/25/2018 11:56:03
00027 suncat0030 pw.x -in pw.inp   Done                     12/25/2018 11:56:03
00028 suncat0030 pw.x -in pw.inp   Done                     12/25/2018 11:56:03
00029 suncat0030 pw.x -in pw.inp   Done                     12/25/2018 11:56:03
00030 suncat0030 pw.x -in pw.inp   Done                     12/25/2018 11:56:03
00031 suncat0030 pw.x -in pw.inp   Done                     12/25/2018 11:56:03
00032 suncat0280 pw.x -in pw.inp   Done                     12/25/2018 11:56:03
00033 suncat0280 pw.x -in pw.inp   Done                     12/25/2018 11:56:03
00034 suncat0280 pw.x -in pw.inp   Done                     12/25/2018 11:56:03
00035 suncat0280 pw.x -in pw.inp   Done                     12/25/2018 11:56:03
00036 suncat0280 pw.x -in pw.inp   Done                     12/25/2018 11:56:03
00037 suncat0280 pw.x -in pw.inp   Done                     12/25/2018 11:56:03
00038 suncat0280 pw.x -in pw.inp   Done                     12/25/2018 11:56:03
00039 suncat0280 pw.x -in pw.inp   Done                     12/25/2018 11:56:03
00040 suncat0279 pw.x -in pw.inp   Done                     12/25/2018 11:56:03
00041 suncat0279 pw.x -in pw.inp   Done                     12/25/2018 11:56:03
00042 suncat0279 pw.x -in pw.inp   Done                     12/25/2018 11:56:03
00043 suncat0279 pw.x -in pw.inp   Done                     12/25/2018 11:56:03
00044 suncat0279 pw.x -in pw.inp   Done                     12/25/2018 11:56:03
00045 suncat0279 pw.x -in pw.inp   Done                     12/25/2018 11:56:03
00046 suncat0279 pw.x -in pw.inp   Done                     12/25/2018 11:56:03
00047 suncat0279 pw.x -in pw.inp   Done                     12/25/2018 11:56:03
00048 suncat0278 pw.x -in pw.inp   Done                     12/25/2018 11:56:03
00049 suncat0278 pw.x -in pw.inp   Done                     12/25/2018 11:56:03
00050 suncat0278 pw.x -in pw.inp   Done                     12/25/2018 11:56:03
00051 suncat0278 pw.x -in pw.inp   Done                     12/25/2018 11:56:03
00052 suncat0278 pw.x -in pw.inp   Done                     12/25/2018 11:56:03
00053 suncat0278 pw.x -in pw.inp   Done                     12/25/2018 11:56:03
00054 suncat0278 pw.x -in pw.inp   Done                     12/25/2018 11:56:03
00055 suncat0278 pw.x -in pw.inp   Done                     12/25/2018 11:56:03
00056 suncat0099 pw.x -in pw.inp   Done                     12/25/2018 11:56:03
00057 suncat0099 pw.x -in pw.inp   Done                     12/25/2018 11:56:03
00058 suncat0099 pw.x -in pw.inp   Done                     12/25/2018 11:56:03
00059 suncat0099 pw.x -in pw.inp   Done                     12/25/2018 11:56:03
00060 suncat0099 pw.x -in pw.inp   Done                     12/25/2018 11:56:03
00061 suncat0099 pw.x -in pw.inp   Done                     12/25/2018 11:56:03
00062 suncat0099 pw.x -in pw.inp   Done                     12/25/2018 11:56:03
00063 suncat0099 pw.x -in pw.inp   Done                     12/25/2018 11:56:03