     Program PWSCF v.5.1rc2 (svn rev. 11289) starts on 27Dec2018 at  4:54:42

     Current dimensions of program PWSCF are:
     Max number of different atomic species (ntypx) = 10
     Max number of k-points (npk) =  40000
     Max angular momentum in pseudopotentials (lmaxx) =  3
     Presently stress not available with electric field

     IMPORTANT: XC functional enforced from input :
     Exchange-correlation      = BEEF-VDW ( 1  4 27 13 2)
     Any further DFT definition will be discarded
     Please, verify this is what you really want

     Subspace diagonalization in iterative solution of the eigenvalue problem:
     a serial algorithm will be used

     bravais-lattice index     =            0
     lattice parameter (alat)  =       1.8897  a.u.
     unit-cell volume          =    4531.1291 (a.u.)^3
     number of atoms/cell      =           12
     number of atomic types    =            2
     number of electrons       =       165.00
     number of Kohn-Sham states=          112
     kinetic-energy cutoff     =      36.7493  Ry
     charge density cutoff     =     367.4932  Ry
     convergence threshold     =      1.0E-06
     mixing beta               =       0.1000
     number of iterations used =           10  plain     mixing
     Exchange-correlation      = BEEF-VDW ( 1  4 27 13 2)
     nstep                     =           50

     celldm(1)=   1.889726  celldm(2)=   0.000000  celldm(3)=   0.000000
     celldm(4)=   0.000000  celldm(5)=   0.000000  celldm(6)=   0.000000

     crystal axes: (cart. coord. in units of alat)
               a(1) = (   5.615686   0.000000   0.000000 )
               a(2) = (  -2.807843   4.863327   0.000000 )
               a(3) = (   0.000000   0.000000  24.585189 )

     reciprocal axes: (cart. coord. in units 2 pi/alat)
               b(1) = (  0.178073  0.102810  0.000000 )
               b(2) = (  0.000000  0.205621  0.000000 )
               b(3) = (  0.000000  0.000000  0.040675 )

     PseudoPot. # 1 for Mo read from file:
     /afs/slac.stanford.edu/u/if/mamunm/psp/gbrv1.5pbe/Mo.UPF
     MD5 check sum: 30c4dcd161f5d35cd49bb5239c51a633
     Pseudo is Ultrasoft + core correction, Zval = 14.0
     Generated by new atomic code, or converted to UPF format
     Using radial grid of  889 points,  6 beta functions with:
                l(1) =   0
                l(2) =   0
                l(3) =   1
                l(4) =   1
                l(5) =   2
                l(6) =   2
     Q(r) pseudized with  6 coefficients,  rinner =    1.000   1.000   1.000
                                                       1.000   1.000

     PseudoPot. # 2 for V  read from file:
     /afs/slac.stanford.edu/u/if/mamunm/psp/gbrv1.5pbe/V.UPF
     MD5 check sum: 22b79981416ebb76fdaf5b1b8640f6fb
     Pseudo is Ultrasoft + core correction, Zval = 13.0
     Generated by new atomic code, or converted to UPF format
     Using radial grid of  853 points,  6 beta functions with:
                l(1) =   0
                l(2) =   0
                l(3) =   1
                l(4) =   1
                l(5) =   2
                l(6) =   2
     Q(r) pseudized with  8 coefficients,  rinner =    1.100   1.100   1.100
                                                       1.100   1.100

     vdW kernel table read from file vdW_kernel_table
     MD5 check sum: 095c7af220d748ca6e76c0b4c6cfb241

     atomic species   valence    mass     pseudopotential
        Mo1           14.00    95.95000     Mo( 1.00)
        V1            13.00    50.94150     V ( 1.00)

     No symmetry found

   Cartesian axes

     site n.     atom                  positions (alat units)
         1           Mo1 tau(   1) = (   0.0000000   0.0000000  10.0000000  )
         2           Mo1 tau(   2) = (  -1.4039215   2.4316635  10.0000000  )
         3           Mo1 tau(   3) = (   1.4039215   2.4316635  10.0000000  )
         4           V1  tau(   4) = (   2.8078431   0.0000000  10.0000000  )
         5           Mo1 tau(   5) = (   2.8078431   1.6211090  12.2925943  )
         6           Mo1 tau(   6) = (   1.4039215   4.0527724  12.2925943  )
         7           Mo1 tau(   7) = (  -1.4039215   4.0527724  12.2925943  )
         8           V1  tau(   8) = (   0.0000000   1.6211090  12.2925943  )
         9           Mo1 tau(   9) = (  -0.0000000   3.2422179  14.5851886  )
        10           Mo1 tau(  10) = (   1.4039215   0.8105545  14.5851886  )
        11           Mo1 tau(  11) = (   4.2117646   0.8105545  14.5851886  )
        12           V1  tau(  12) = (   2.8078431   3.2422179  14.5851886  )

     number of k points=    20  Fermi-Dirac smearing, width (Ry)=  0.0110
                       cart. coord. in units 2pi/alat
        k(    1) = (   0.0000000   0.0000000   0.0000000), wk =   0.0555556
        k(    2) = (   0.0000000   0.0342701   0.0000000), wk =   0.1111111
        k(    3) = (   0.0000000   0.0685402   0.0000000), wk =   0.1111111
        k(    4) = (   0.0000000  -0.1028103   0.0000000), wk =   0.0555556
        k(    5) = (   0.0296788   0.0171350   0.0000000), wk =   0.1111111
        k(    6) = (   0.0296788   0.0514051   0.0000000), wk =   0.1111111
        k(    7) = (   0.0296788   0.0856752   0.0000000), wk =   0.1111111
        k(    8) = (   0.0296788  -0.0856752   0.0000000), wk =   0.1111111
        k(    9) = (   0.0296788  -0.0514051   0.0000000), wk =   0.1111111
        k(   10) = (   0.0296788  -0.0171350   0.0000000), wk =   0.1111111
        k(   11) = (   0.0593575   0.0342701   0.0000000), wk =   0.1111111
        k(   12) = (   0.0593575   0.0685402   0.0000000), wk =   0.1111111
        k(   13) = (   0.0593575   0.1028103   0.0000000), wk =   0.1111111
        k(   14) = (   0.0593575  -0.0685402   0.0000000), wk =   0.1111111
        k(   15) = (   0.0593575  -0.0342701   0.0000000), wk =   0.1111111
        k(   16) = (   0.0593575   0.0000000   0.0000000), wk =   0.1111111
        k(   17) = (  -0.0890363  -0.0514051   0.0000000), wk =   0.0555556
        k(   18) = (  -0.0890363  -0.0171350   0.0000000), wk =   0.1111111
        k(   19) = (  -0.0890363   0.0171350   0.0000000), wk =   0.1111111
        k(   20) = (  -0.0890363  -0.1542154   0.0000000), wk =   0.0555556

     Largest allocated arrays     est. size (Mb)     dimensions
     Largest temporary arrays     est. size (Mb)     dimensions

     Initial potential from superposition of free atoms
     Check: negative starting charge=   -0.006485

     starting charge  164.98675, renormalised to  165.00000

     negative rho (up, down):  6.485E-03 0.000E+00

     *
     * You are using vdW-DF for exchange-correlation in this calculation.
     * Please cite the following three references that made this development
     * possible:
     *
     *   M. Dion, H. Rydberg, E. Schroder, D. C. Langreth, and
     *   B. I. Lundqvist, Phys. Rev. Lett. 92, 246401 (2004).
     *
     *   T. Thonhauser, V. R. Cooper, S. Li, A. Puzder, P. Hyldgaard, and
     *   D. C. Langreth, Phys. Rev. B 76, 125112 (2007).
     *
     *   G. Roman-Perez and J. M. Soler, Phys. Rev. Lett. 103, 096102 (2009).
     *
     *
     * If you are using vdW-DF2, please also cite:
     *
     *   K. Lee, E. D. Murray, L. Kong, B. I. Lundqvist, and
     *   D. C. Langreth, Phys. Rev. B 82, 081101(R) (2010).
     *
     *
     * If you are calculating the stress with vdW-DF, please also cite:
     *
     *   R. Sabatini, E. Kucukbenli, B. Kolb, T. Thonhauser, and
     *   S. de Gironcoli, J. Phys.: Condens. Matter 24, 424209 (2012).
     *

     Carrying out vdW-DF run using the following parameters:

     Nqs =      20    Nr_points =    1024   r_max =   100.000
     q_mesh =
               0.00001000     0.04494208     0.09755937     0.15916263
               0.23128650     0.31572767     0.41458969     0.53033537
               0.66584808     0.82450364     1.01025438     1.22772762
               1.48234092     1.78043706     2.12944203     2.53805004
               3.01644009     3.57652955     4.23227104     5.00000000

     Gradients computed in reciprocal space

     Adding external electric field

     Computed dipole along edir(3) :
        Dipole               -0.0000 Ry au,         -0.0000 Debye
        Dipole field         -0.0000 Ry au

        Potential amp.        0.0000 Ry
        Total length         45.2978 bohr

     Starting wfc are  147 randomized atomic wfcs

     Self-consistent Calculation

     iteration #  1     ecut=    36.75 Ry     beta=0.10
     Davidson diagonalization with overlap
     ethr =  1.00E-02,  avg # of iterations =  2.0

[...]

     total energy              =   -1695.76547782 Ry
     Harris-Foulkes estimate   =   -1697.26354448 Ry
     estimated scf accuracy    <       8.31175175 Ry

[...]

     End of self-consistent calculation

          k = 0.0000 0.0000 0.0000 ( 17015 PWs)   bands (ev):

   -62.4329 -62.4326 -62.4197 -59.1222 -59.0043 -58.9860 -58.9860 -58.9778
   -58.8868 -58.8868 -58.8792 -58.8792 -36.3496 -36.3348 -36.2449 -36.2387
   -36.2387 -36.2096 -36.2096 -36.2068 -36.2068 -33.7180 -33.4984 -33.4874
   -33.3800 -33.3800 -33.3355 -33.2848 -33.2848 -33.1399 -33.1399 -33.0932
   -32.9764 -32.9764 -32.9674 -32.9674 -32.8727 -32.7640 -32.7539 -32.7539
   -32.6942 -32.6715 -32.6715 -32.6294 -32.5593 -32.5593 -32.5509 -32.5509
    -4.0783  -2.6800  -2.6279  -2.3578  -2.1160  -1.9620  -1.9620  -1.6450
    -1.6433  -1.6433  -1.6079  -1.4706  -1.4706  -1.1435  -1.1435  -0.5418
    -0.0598  -0.0598   0.7233   0.7356   0.7356   0.7464   1.0962   1.4829
     1.4829   1.6145   1.6992   1.6992   1.7780   1.7993   1.7993   1.8677
     1.8677   1.8890   1.8890   2.0974   2.8025   2.8025   2.8198   2.9493
     3.1017   3.1017   3.2540   3.5538   3.5538   3.9863   3.9863   4.0001
     4.2007   4.2007   4.3971   4.3972   4.5021   4.6565   4.6565   4.9037
     4.9037   5.1224   5.2238   5.2238   5.3298   5.3298   5.4758   5.4759

[...]

          k =-0.0890-0.0514 0.0000 ( 17080 PWs)   bands (ev):

[...]

     the Fermi energy is     1.8827 ev

!    total energy              =   -1696.60002891 Ry
     Harris-Foulkes estimate   =   -1696.60002828 Ry
     estimated scf accuracy    <       0.00000038 Ry

     The total energy is the sum of the following terms:

     one-electron contribution =  -14823.79679456 Ry
     hartree contribution      =    7403.41985012 Ry
     xc contribution           =    -240.84446053 Ry
     ewald contribution        =    5964.74224746 Ry
     electric field correction =       0.00000001 Ry
     smearing contrib. (-TS)   =      -0.12087141 Ry

     convergence has been achieved in  19 iterations

 BEEF-vdW xc energy contributions
           1 :   -206.995959925918
           2 :    188.185509613572
           3 :   -156.320417964786
           4 :    120.339227970047
           5 :   -88.8070269929609
           6 :    66.9871963107257
           7 :   -55.7387186991008
           8 :    52.3360273980815
           9 :   -52.4844440614926
          10 :    52.3994372731417
          11 :   -50.0926966094669
          12 :    45.5375302347349
          13 :   -39.9744674312260
          14 :    34.8942831242390
          15 :   -31.2372309833321
[...]
     /afs/slac.stanford.edu/u/if/mamunm/psp/gbrv1.5pbe/Mo.UPF
     MD5 check sum: 30c4dcd161f5d35cd49bb5239c51a633
     Pseudo is Ultrasoft + core correction, Zval = 14.0
     Generated by new atomic code, or converted to UPF format
     Using radial grid of  889 points,  6 beta functions with:
                l(1) =   0
                l(2) =   0
                l(3) =   1
                l(4) =   1
                l(5) =   2
                l(6) =   2
     Q(r) pseudized with  6 coefficients,  rinner =    1.000   1.000   1.000
                                                       1.000   1.000

     PseudoPot. # 2 for V  read from file:
     /afs/slac.stanford.edu/u/if/mamunm/psp/gbrv1.5pbe/V.UPF
     MD5 check sum: 22b79981416ebb76fdaf5b1b8640f6fb
     Pseudo is Ultrasoft + core correction, Zval = 13.0
     Generated by new atomic code, or converted to UPF format
     Using radial grid of  853 points,  6 beta functions with:
                l(1) =   0
                l(2) =   0
                l(3) =   1
                l(4) =   1
                l(5) =   2
                l(6) =   2
     Q(r) pseudized with  8 coefficients,  rinner =    1.100   1.100   1.100
                                                       1.100   1.100

     vdW kernel table read from file vdW_kernel_table
     MD5 check sum: 095c7af220d748ca6e76c0b4c6cfb241

     atomic species   valence    mass     pseudopotential
        Mo1           14.00    95.95000     Mo( 1.00)
        V1            13.00    50.94150     V ( 1.00)

     No symmetry found

   Cartesian axes

     site n.     atom                  positions (alat units)
         1           Mo1 tau(   1) = (   0.0000000   0.0000000  10.0000000  )
         2           Mo1 tau(   2) = (  -1.4039215   2.4316635  10.0000000  )
         3           Mo1 tau(   3) = (   1.4039215   2.4316635  10.0000000  )
         4           V1  tau(   4) = (   2.8078431   0.0000000  10.0000000  )
         5           Mo1 tau(   5) = (   2.8078431   1.6211090  12.2925943  )
         6           Mo1 tau(   6) = (   1.4039215   4.0527724  12.2925943  )
         7           Mo1 tau(   7) = (  -1.4039215   4.0527724  12.2925943  )
         8           V1  tau(   8) = (   0.0000000   1.6211090  12.2925943  )
         9           Mo1 tau(   9) = (   0.0000013   3.2394654  14.5624162  )
        10           Mo1 tau(  10) = (   1.4015380   0.8119310  14.5624180  )
        11           Mo1 tau(  11) = (   4.2141476   0.8119283  14.5624167  )
        12           V1  tau(  12) = (   2.8078446   3.2422212  14.6506574  )

     number of k points=    20  Fermi-Dirac smearing, width (Ry)=  0.0110
                       cart. coord. in units 2pi/alat
        k(    1) = (   0.0000000   0.0000000   0.0000000), wk =   0.0555556
        k(    2) = (   0.0000000   0.0342701   0.0000000), wk =   0.1111111
        k(    3) = (   0.0000000   0.0685402   0.0000000), wk =   0.1111111
        k(    4) = (   0.0000000  -0.1028103   0.0000000), wk =   0.0555556
        k(    5) = (   0.0296788   0.0171350   0.0000000), wk =   0.1111111
        k(    6) = (   0.0296788   0.0514051   0.0000000), wk =   0.1111111
        k(    7) = (   0.0296788   0.0856752   0.0000000), wk =   0.1111111
        k(    8) = (   0.0296788  -0.0856752   0.0000000), wk =   0.1111111
        k(    9) = (   0.0296788  -0.0514051   0.0000000), wk =   0.1111111
        k(   10) = (   0.0296788  -0.0171350   0.0000000), wk =   0.1111111
        k(   11) = (   0.0593575   0.0342701   0.0000000), wk =   0.1111111
        k(   12) = (   0.0593575   0.0685402   0.0000000), wk =   0.1111111
        k(   13) = (   0.0593575   0.1028103   0.0000000), wk =   0.1111111
        k(   14) = (   0.0593575  -0.0685402   0.0000000), wk =   0.1111111
        k(   15) = (   0.0593575  -0.0342701   0.0000000), wk =   0.1111111
        k(   16) = (   0.0593575   0.0000000   0.0000000), wk =   0.1111111
        k(   17) = (  -0.0890363  -0.0514051   0.0000000), wk =   0.0555556
        k(   18) = (  -0.0890363  -0.0171350   0.0000000), wk =   0.1111111
        k(   19) = (  -0.0890363   0.0171350   0.0000000), wk =   0.1111111
        k(   20) = (  -0.0890363  -0.1542154   0.0000000), wk =   0.0555556

     Largest allocated arrays     est. size (Mb)     dimensions
     Largest temporary arrays     est. size (Mb)     dimensions

     Initial potential from superposition of free atoms
     Check: negative starting charge=   -0.006442

     starting charge  164.98675, renormalised to  165.00000

[...]

     *
     * You are using vdW-DF for exchange-correlation in this calculation.
     * Please cite the following three references that made this development
     * possible:
     *
     *   M. Dion, H. Rydberg, E. Schroder, D. C. Langreth, and
     *   B. I. Lundqvist, Phys. Rev. Lett. 92, 246401 (2004).
     *
     *   T. Thonhauser, V. R. Cooper, S. Li, A. Puzder, P. Hyldgaard, and
     *   D. C. Langreth, Phys. Rev. B 76, 125112 (2007).
     *
     *   G. Roman-Perez and J. M. Soler, Phys. Rev. Lett. 103, 096102 (2009).
     *
     *
     * If you are using vdW-DF2, please also cite:
     *
     *   K. Lee, E. D. Murray, L. Kong, B. I. Lundqvist, and
     *   D. C. Langreth, Phys. Rev. B 82, 081101(R) (2010).
     *
     *
     * If you are calculating the stress with vdW-DF, please also cite:
     *
     *   R. Sabatini, E. Kucukbenli, B. Kolb, T. Thonhauser, and
     *   S. de Gironcoli, J. Phys.: Condens. Matter 24, 424209 (2012).
     *

     Carrying out vdW-DF run using the following parameters:

     Nqs =      20    Nr_points =    1024   r_max =   100.000
     q_mesh =
               0.00001000     0.04494208     0.09755937     0.15916263
               0.23128650     0.31572767     0.41458969     0.53033537
               0.66584808     0.82450364     1.01025438     1.22772762
               1.48234092     1.78043706     2.12944203     2.53805004
               3.01644009     3.57652955     4.23227104     5.00000000

     Gradients computed in reciprocal space

[...]

     Starting wfc are  147 randomized atomic wfcs

     Self-consistent Calculation

[...]

     total energy              =   -1696.60215350 Ry
     Harris-Foulkes estimate   =   -1696.60215314 Ry
     estimated scf accuracy    <       0.00000121 Ry

     iteration # 20     ecut=    36.75 Ry     beta=0.10
     Davidson diagonalization with overlap
     ethr =  7.34E-10,  avg # of iterations =  2.0

[...]

     negative rho (up, down):  6.739E-03 0.000E+00

     Adding external electric field

     Computed dipole along edir(3) :
        Dipole                0.0071 Ry au,          0.0182 Debye
        Dipole field          0.0000 Ry au

        Potential amp.       -0.0018 Ry
        Total length         45.2978 bohr

     End of self-consistent calculation

[...]

          k = 0.0594 0.0000 0.0000 ( 17028 PWs)   bands (ev):

[...]

          k =-0.0890-0.1542 0.0000 ( 17080 PWs)   bands (ev):

   -62.4494 -62.4276 -62.4004 -59.0723 -59.0351 -58.9829 -58.9499 -58.9316
   -58.9159 -58.8996 -58.8772 -58.8643 -36.3787 -36.3367 -36.2247 -36.2145
   -36.2028 -36.1997 -36.1949 -36.1897 -36.1827 -33.5221 -33.4369 -33.3378
   -33.2898 -33.2557 -33.2118 -33.1797 -33.1646 -33.1019 -33.0859 -32.9977
   -32.9902 -32.9668 -32.9550 -32.9474 -32.9137 -32.9061 -32.9038 -32.8510
   -32.8459 -32.8170 -32.7465 -32.7078 -32.6953 -32.6713 -32.5791 -32.5694
    -2.5033  -2.3911  -1.6228  -1.5236  -1.4725  -1.1882  -1.0968  -0.9953
    -0.9059  -0.8066  -0.7237  -0.5700  -0.4531  -0.2779  -0.1785  -0.0786
    -0.0141   0.1125   0.1487   0.3844   0.5707   0.6534   0.6750   0.9898
     1.0152   1.0842   1.1116   1.1500   1.1921   1.2440   1.3918   1.4038
     1.4197   1.6315   1.6461   1.6469   1.7240   1.9383   2.1901   2.2026
     2.5947   2.6420   2.8172   2.8276   2.8481   2.8630   3.1141   3.3135
     3.3340   3.4265   3.4375   3.4648   3.5643   3.5826   3.6455   3.8866
     3.9497   4.2831   4.3165   4.5080   4.9662   4.9847   5.1062   5.3133

     the Fermi energy is     1.8895 ev

!    total energy              =   -1696.60215390 Ry
     Harris-Foulkes estimate   =   -1696.60215353 Ry
     estimated scf accuracy    <       0.00000025 Ry

     The total energy is the sum of the following terms:

     one-electron contribution =  -14827.38332842 Ry
     hartree contribution      =    7405.24393872 Ry
     xc contribution           =    -240.85525124 Ry
     ewald contribution        =    5966.51271837 Ry
     electric field correction =       0.00000014 Ry
     smearing contrib. (-TS)   =      -0.12023147 Ry

     convergence has been achieved in  20 iterations

 BEEF-vdW xc energy contributions
           1 :   -207.047973504404
           2 :    188.240183473106
           3 :   -156.379928313148
           4 :    120.403130947601
           5 :   -88.8695591282449
           6 :    67.0387763912826
           7 :   -55.7722294708297
           8 :    52.3534121301936
           9 :   -52.4964789212746
          10 :    52.4186213385025
          11 :   -50.1249983983133
          12 :    45.5795005097819
          13 :   -40.0172335803974
          14 :    34.9298710028599
          15 :   -31.2621078521104
          16 :    29.0986268431431
          17 :   -27.8410786504849
          18 :    26.6459084003282
          19 :   -24.8577249314546
          20 :    22.2497152726209
          21 :   -19.0343912665121
          22 :    15.7009595861402
          23 :   -12.7827974417023
          24 :    10.6393244565560
          25 :   -9.32242292612233
          26 :    8.56263341027332
          27 :   -7.88610503711374
          28 :    6.82068363033375
          29 :   -5.11196008276772
          30 :    2.84773870023022
          31 :   -23.0370120142825
          32 :   -17.4017627096524

     Forces acting on atoms (Ry/au):

     negative rho (up, down):  6.739E-03 0.000E+00
     atom    1 type  1   force =     0.00000019    0.00114200    0.00318604
     atom    2 type  1   force =     0.00098900   -0.00057102    0.00318583
     atom    3 type  1   force =    -0.00098891   -0.00057123    0.00318597
     atom    4 type  2   force =     0.00000009    0.00000001   -0.00875899
     atom    5 type  1   force =    -0.00000017    0.00448284    0.00186851
     atom    6 type  1   force =     0.00388210   -0.00224146    0.00186804
     atom    7 type  1   force =    -0.00388221   -0.00224125    0.00186828
     atom    8 type  2   force =    -0.00000013    0.00000014   -0.00641662
     atom    9 type  1   force =     0.00000004    0.00043803   -0.00003428
     atom   10 type  1   force =     0.00037928   -0.00021879   -0.00003459
     atom   11 type  1   force =    -0.00037935   -0.00021893   -0.00003429
     atom   12 type  2   force =     0.00000007   -0.00000033    0.00011610

     Total force =     0.014953     Total SCF correction =     0.002927
     SCF correction compared to forces is large: reduce conv_thr to get better values

     entering subroutine stress ...

     negative rho (up, down):  6.739E-03 0.000E+00
          total   stress  (Ry/bohr**3)                   (kbar)     P=  -29.93
  -0.00030302  -0.00000000   0.00000000        -44.58     -0.00      0.00
  -0.00000000  -0.00030302  -0.00000000         -0.00    -44.58     -0.00
   0.00000000  -0.00000000  -0.00000430          0.00     -0.00     -0.63

 !ASE

     Writing output data file calc.save

     General routines

     Parallel routines

   This run was terminated on:   6: 8: 1  27Dec2018

   JOB DONE.
Job  /afs/slac/g/suncat/bin/suncat-tsmpirun -x LD_LIBRARY_PATH -wdir /scratch/qe110160_TPwOl pw.x -in pw.inp

TID   HOST_NAME   COMMAND_LINE            STATUS            TERMINATION_TIME
00000 suncat0108 pw.x -in pw.inp   Done                     12/27/2018 06:08:01
00001 suncat0108 pw.x -in pw.inp   Done                     12/27/2018 06:08:01
00002 suncat0108 pw.x -in pw.inp   Done                     12/27/2018 06:08:01
00003 suncat0108 pw.x -in pw.inp   Done                     12/27/2018 06:08:01
00004 suncat0108 pw.x -in pw.inp   Done                     12/27/2018 06:08:01
00005 suncat0108 pw.x -in pw.inp   Done                     12/27/2018 06:08:01
00006 suncat0108 pw.x -in pw.inp   Done                     12/27/2018 06:08:01
00007 suncat0108 pw.x -in pw.inp   Done                     12/27/2018 06:08:01
00008 suncat0107 pw.x -in pw.inp   Done                     12/27/2018 06:08:01
00009 suncat0107 pw.x -in pw.inp   Done                     12/27/2018 06:08:01
00010 suncat0107 pw.x -in pw.inp   Done                     12/27/2018 06:08:01
00011 suncat0107 pw.x -in pw.inp   Done                     12/27/2018 06:08:01
00012 suncat0107 pw.x -in pw.inp   Done                     12/27/2018 06:08:01
00013 suncat0107 pw.x -in pw.inp   Done                     12/27/2018 06:08:01
00014 suncat0107 pw.x -in pw.inp   Done                     12/27/2018 06:08:01
00015 suncat0107 pw.x -in pw.inp   Done                     12/27/2018 06:08:01
00016 suncat0106 pw.x -in pw.inp   Done                     12/27/2018 06:08:01
00017 suncat0106 pw.x -in pw.inp   Done                     12/27/2018 06:08:01
00018 suncat0106 pw.x -in pw.inp   Done                     12/27/2018 06:08:01
00019 suncat0106 pw.x -in pw.inp   Done                     12/27/2018 06:08:01
00020 suncat0106 pw.x -in pw.inp   Done                     12/27/2018 06:08:01
00021 suncat0106 pw.x -in pw.inp   Done                     12/27/2018 06:08:01
00022 suncat0106 pw.x -in pw.inp   Done                     12/27/2018 06:08:01
00023 suncat0106 pw.x -in pw.inp   Done                     12/27/2018 06:08:01
00024 suncat0105 pw.x -in pw.inp   Done                     12/27/2018 06:08:01
00025 suncat0105 pw.x -in pw.inp   Done                     12/27/2018 06:08:01
00026 suncat0105 pw.x -in pw.inp   Done                     12/27/2018 06:08:01
00027 suncat0105 pw.x -in pw.inp   Done                     12/27/2018 06:08:01
00028 suncat0105 pw.x -in pw.inp   Done                     12/27/2018 06:08:01
00029 suncat0105 pw.x -in pw.inp   Done                     12/27/2018 06:08:01
00030 suncat0105 pw.x -in pw.inp   Done                     12/27/2018 06:08:01
00031 suncat0105 pw.x -in pw.inp   Done                     12/27/2018 06:08:01
00032 suncat0238 pw.x -in pw.inp   Done                     12/27/2018 06:08:01
00033 suncat0238 pw.x -in pw.inp   Done                     12/27/2018 06:08:01
00034 suncat0238 pw.x -in pw.inp   Done                     12/27/2018 06:08:01
00035 suncat0238 pw.x -in pw.inp   Done                     12/27/2018 06:08:01
00036 suncat0238 pw.x -in pw.inp   Done                     12/27/2018 06:08:01
00037 suncat0238 pw.x -in pw.inp   Done                     12/27/2018 06:08:01
00038 suncat0238 pw.x -in pw.inp   Done                     12/27/2018 06:08:01
00039 suncat0238 pw.x -in pw.inp   Done                     12/27/2018 06:08:01
00040 suncat0237 pw.x -in pw.inp   Done                     12/27/2018 06:08:01
00041 suncat0237 pw.x -in pw.inp   Done                     12/27/2018 06:08:01
00042 suncat0237 pw.x -in pw.inp   Done                     12/27/2018 06:08:01
00043 suncat0237 pw.x -in pw.inp   Done                     12/27/2018 06:08:01
00044 suncat0237 pw.x -in pw.inp   Done                     12/27/2018 06:08:01
00045 suncat0237 pw.x -in pw.inp   Done                     12/27/2018 06:08:01
00046 suncat0237 pw.x -in pw.inp   Done                     12/27/2018 06:08:01
00047 suncat0237 pw.x -in pw.inp   Done                     12/27/2018 06:08:01
00048 suncat0236 pw.x -in pw.inp   Done                     12/27/2018 06:08:01
00049 suncat0236 pw.x -in pw.inp   Done                     12/27/2018 06:08:01
00050 suncat0236 pw.x -in pw.inp   Done                     12/27/2018 06:08:01
00051 suncat0236 pw.x -in pw.inp   Done                     12/27/2018 06:08:01
00052 suncat0236 pw.x -in pw.inp   Done                     12/27/2018 06:08:01
00053 suncat0236 pw.x -in pw.inp   Done                     12/27/2018 06:08:01
00054 suncat0236 pw.x -in pw.inp   Done                     12/27/2018 06:08:01
00055 suncat0236 pw.x -in pw.inp   Done                     12/27/2018 06:08:01
00056 suncat0235 pw.x -in pw.inp   Done                     12/27/2018 06:08:01
00057 suncat0235 pw.x -in pw.inp   Done                     12/27/2018 06:08:01
00058 suncat0235 pw.x -in pw.inp   Done                     12/27/2018 06:08:01
00059 suncat0235 pw.x -in pw.inp   Done                     12/27/2018 06:08:01
00060 suncat0235 pw.x -in pw.inp   Done                     12/27/2018 06:08:01
00061 suncat0235 pw.x -in pw.inp   Done                     12/27/2018 06:08:01
00062 suncat0235 pw.x -in pw.inp   Done                     12/27/2018 06:08:01
00063 suncat0235 pw.x -in pw.inp   Done                     12/27/2018 06:08:01