     Program PWSCF v.5.1rc2 (svn rev. 11289) starts on 28Dec2018 at  0:58:52

     Current dimensions of program PWSCF are:
     Max number of different atomic species (ntypx) = 10
     Max number of k-points (npk) =  40000
     Max angular momentum in pseudopotentials (lmaxx) =  3
     Presently stress not available with electric field

     IMPORTANT: XC functional enforced from input :
     Exchange-correlation      = BEEF-VDW ( 1  4 27 13 2)
     Any further DFT definition will be discarded
     Please, verify this is what you really want

     Subspace diagonalization in iterative solution of the eigenvalue problem:
     a serial algorithm will be used

     bravais-lattice index     =            0
     lattice parameter (alat)  =       1.8897  a.u.
     unit-cell volume          =    5606.7716 (a.u.)^3
     number of atoms/cell      =           12
     number of atomic types    =            2
     number of electrons       =       150.00
     number of Kohn-Sham states=          105
     kinetic-energy cutoff     =      36.7493  Ry
     charge density cutoff     =     367.4932  Ry
     convergence threshold     =      1.0E-06
     mixing beta               =       0.1000
     number of iterations used =           10  plain     mixing
     Exchange-correlation      = BEEF-VDW ( 1  4 27 13 2)
     nstep                     =           50

     celldm(1)=   1.889726  celldm(2)=   0.000000  celldm(3)=   0.000000
     celldm(4)=   0.000000  celldm(5)=   0.000000  celldm(6)=   0.000000

     crystal axes: (cart. coord. in units of alat)
               a(1) = (   6.188222   0.000000   0.000000 )
               a(2) = (  -3.094111   5.359157   0.000000 )
               a(3) = (   0.000000   0.000000  25.052662 )

     reciprocal axes: (cart. coord. in units 2 pi/alat)
               b(1) = (  0.161597  0.093298  0.000000 )
               b(2) = (  0.000000  0.186596  0.000000 )
               b(3) = (  0.000000  0.000000  0.039916 )

     PseudoPot. # 1 for Ta read from file:
     /afs/slac.stanford.edu/u/if/mamunm/psp/gbrv1.5pbe/Ta.UPF
     MD5 check sum: f8bbe9446314a3b8ea5d9f3e3836c939
     Pseudo is Ultrasoft + core correction, Zval = 13.0
     Generated by new atomic code, or converted to UPF format
     Using radial grid of  921 points,  7 beta functions with:
                l(1) =   0
                l(2) =   0
                l(3) =   1
                l(4) =   1
                l(5) =   2
                l(6) =   2
                l(7) =   3
     Q(r) pseudized with  6 coefficients,  rinner =    1.300   1.300   1.300
                                                       1.300   1.300   1.300
                                                       1.300

     PseudoPot. # 2 for Y  read from file:
     /afs/slac.stanford.edu/u/if/mamunm/psp/gbrv1.5pbe/Y.UPF
     MD5 check sum: d034151ed7554c50b6e82763ed42c788
     Pseudo is Ultrasoft + core correction, Zval = 11.0
     Generated by new atomic code, or converted to UPF format
     Using radial grid of  885 points,  6 beta functions with:
                l(1) =   0
                l(2) =   0
                l(3) =   1
                l(4) =   1
                l(5) =   2
                l(6) =   2
     Q(r) pseudized with  8 coefficients,  rinner =    1.200   1.200   1.200
                                                       1.200   1.200

     vdW kernel table read from file vdW_kernel_table
     MD5 check sum: 095c7af220d748ca6e76c0b4c6cfb241

     atomic species   valence    mass     pseudopotential
        Ta1           13.00   180.94788     Ta( 1.00)
        Y1            11.00    88.90584     Y ( 1.00)

     No symmetry found

   Cartesian axes

     site n.     atom                  positions (alat units)
         1           Ta1 tau(   1) = (   0.0000000   0.0000000  10.0000000  )
         2           Ta1 tau(   2) = (  -1.5470555   2.6795787  10.0000000  )
         3           Ta1 tau(   3) = (   1.5470555   2.6795787  10.0000000  )
         4           Y1  tau(   4) = (   3.0941109   0.0000000  10.0000000  )
         5           Ta1 tau(   5) = (   3.0941109   1.7863858  12.5263310  )
         6           Ta1 tau(   6) = (   1.5470555   4.4659644  12.5263310  )
         7           Ta1 tau(   7) = (  -1.5470555   4.4659644  12.5263310  )
         8           Y1  tau(   8) = (   0.0000000   1.7863858  12.5263310  )
         9           Ta1 tau(   9) = (  -0.0000000   3.5727716  15.0526620  )
        10           Ta1 tau(  10) = (   1.5470555   0.8931929  15.0526620  )
        11           Ta1 tau(  11) = (   4.6411664   0.8931929  15.0526620  )
        12           Y1  tau(  12) = (   3.0941109   3.5727716  15.0526620  )

     number of k points=    20  Fermi-Dirac smearing, width (Ry)=  0.0110
                       cart. coord. in units 2pi/alat
        k(    1) = (   0.0000000   0.0000000   0.0000000), wk =   0.0555556
        k(    2) = (   0.0000000   0.0310994   0.0000000), wk =   0.1111111
        k(    3) = (   0.0000000   0.0621988   0.0000000), wk =   0.1111111
        k(    4) = (   0.0000000  -0.0932982   0.0000000), wk =   0.0555556
        k(    5) = (   0.0269329   0.0155497   0.0000000), wk =   0.1111111
        k(    6) = (   0.0269329   0.0466491   0.0000000), wk =   0.1111111
        k(    7) = (   0.0269329   0.0777485   0.0000000), wk =   0.1111111
        k(    8) = (   0.0269329  -0.0777485   0.0000000), wk =   0.1111111
        k(    9) = (   0.0269329  -0.0466491   0.0000000), wk =   0.1111111
        k(   10) = (   0.0269329  -0.0155497   0.0000000), wk =   0.1111111
        k(   11) = (   0.0538658   0.0310994   0.0000000), wk =   0.1111111
        k(   12) = (   0.0538658   0.0621988   0.0000000), wk =   0.1111111
        k(   13) = (   0.0538658   0.0932982   0.0000000), wk =   0.1111111
        k(   14) = (   0.0538658  -0.0621988   0.0000000), wk =   0.1111111
        k(   15) = (   0.0538658  -0.0310994   0.0000000), wk =   0.1111111
        k(   16) = (   0.0538658   0.0000000   0.0000000), wk =   0.1111111
        k(   17) = (  -0.0807987  -0.0466491   0.0000000), wk =   0.0555556
        k(   18) = (  -0.0807987  -0.0155497   0.0000000), wk =   0.1111111
        k(   19) = (  -0.0807987   0.0155497   0.0000000), wk =   0.1111111
        k(   20) = (  -0.0807987  -0.1399474   0.0000000), wk =   0.0555556

     Largest allocated arrays     est. size (Mb)     dimensions
     Largest temporary arrays     est. size (Mb)     dimensions

     Initial potential from superposition of free atoms
     Check: negative starting charge=   -0.850909

     starting charge  149.97658, renormalised to  150.00000

     negative rho (up, down):  8.510E-01 0.000E+00

     *
     * You are using vdW-DF for exchange-correlation in this calculation.
     * Please cite the following three references that made this development
     * possible:
     *
     *   M. Dion, H. Rydberg, E. Schroder, D. C. Langreth, and
     *   B. I. Lundqvist, Phys. Rev. Lett. 92, 246401 (2004).
     *
     *   T. Thonhauser, V. R. Cooper, S. Li, A. Puzder, P. Hyldgaard, and
     *   D. C. Langreth, Phys. Rev. B 76, 125112 (2007).
     *
     *   G. Roman-Perez and J. M. Soler, Phys. Rev. Lett. 103, 096102 (2009).
     *
     *
     * If you are using vdW-DF2, please also cite:
     *
     *   K. Lee, E. D. Murray, L. Kong, B. I. Lundqvist, and
     *   D. C. Langreth, Phys. Rev. B 82, 081101(R) (2010).
     *
     *
     * If you are calculating the stress with vdW-DF, please also cite:
     *
     *   R. Sabatini, E. Kucukbenli, B. Kolb, T. Thonhauser, and
     *   S. de Gironcoli, J. Phys.: Condens. Matter 24, 424209 (2012).
     *

     Carrying out vdW-DF run using the following parameters:

     Nqs =      20    Nr_points =    1024   r_max =   100.000
     q_mesh =
               0.00001000     0.04494208     0.09755937     0.15916263
               0.23128650     0.31572767     0.41458969     0.53033537
               0.66584808     0.82450364     1.01025438     1.22772762
               1.48234092     1.78043706     2.12944203     2.53805004
               3.01644009     3.57652955     4.23227104     5.00000000

     Gradients computed in reciprocal space

     Adding external electric field

     Computed dipole along edir(3) :
        Dipole                0.0000 Ry au,          0.0000 Debye
        Dipole field          0.0000 Ry au

        Potential amp.       -0.0000 Ry
        Total length         46.1591 bohr

     Starting wfc are  156 randomized atomic wfcs

     Self-consistent Calculation

     iteration #  1     ecut=    36.75 Ry     beta=0.10
     Davidson diagonalization with overlap
     ethr =  1.00E-02,  avg # of iterations =  2.0

[...]

     total energy              =   -1568.84424825 Ry
     Harris-Foulkes estimate   =   -1569.96130141 Ry
     estimated scf accuracy    <       6.34883168 Ry

[...]

     iteration #  9     ecut=    36.75 Ry     beta=0.10
     Davidson diagonalization with overlap
     c_bands:  2 eigenvalues not converged
     ethr =  5.95E-06,  avg # of iterations =  4.3

[...]

     End of self-consistent calculation

          k = 0.0000 0.0000 0.0000 ( 21043 PWs)   bands (ev):

   -66.7934 -66.7912 -66.7663 -66.7663 -66.7658 -66.7658 -66.7239 -66.7000
   -66.6999 -40.5167 -40.5153 -39.8608 -33.3469 -33.2820 -33.2646 -33.2538
   -33.2538 -33.2446 -33.2446 -33.2294 -33.2025 -33.2025 -33.1658 -33.1141
   -33.1141 -33.0528 -33.0528 -33.0114 -32.9773 -32.9203 -32.9187 -32.9187
   -32.8913 -32.8291 -32.8291 -32.8263 -32.8263 -32.7960 -32.7959 -20.5763
   -20.5511 -20.5481 -20.5481 -20.5416 -20.5416 -19.9782 -19.9444 -19.9444
    -4.8555  -3.4954  -2.5535  -1.9039  -1.9039  -1.6369  -1.6369  -1.3913
    -1.0978  -1.0978  -0.9875  -0.6736  -0.6716  -0.6535  -0.6535   0.2683
     0.4074   0.4074   1.2651   1.4318   1.4318   1.5002   1.6288   1.8891
     1.8891   1.9742   2.1681   2.2641   2.4468   2.4468   2.4902   2.6749
     2.6749   2.7769   2.7769   2.8374   2.8374   2.9430   3.0892   3.0892
     3.4523   3.5724   3.5724   3.6749   4.2249   4.2249   4.4519   4.4519
     4.7685   4.7685   5.3346   5.5237   5.5237   5.5330   5.5584   5.9380
     5.9428

[...]

          k =-0.0808-0.0466 0.0000 ( 21104 PWs)   bands (ev):

[...]

     the Fermi energy is     1.6751 ev

!    total energy              =   -1569.46795647 Ry
     Harris-Foulkes estimate   =   -1569.46795481 Ry
     estimated scf accuracy    <       0.00000034 Ry

     The total energy is the sum of the following terms:

     one-electron contribution =   -9680.00234835 Ry
     hartree contribution      =    4824.72386306 Ry
     xc contribution           =    -476.72116399 Ry
     ewald contribution        =    3762.64290585 Ry
     electric field correction =       0.00000000 Ry
     smearing contrib. (-TS)   =      -0.11121304 Ry

     convergence has been achieved in  16 iterations

 BEEF-vdW xc energy contributions
           1 :   -418.806911580575
           2 :    384.795061018749
           3 :   -325.415547439025
           4 :    254.429655949772
           5 :   -185.643282719689
           6 :    128.655592396497
           7 :   -87.0253416671770
           8 :    59.1274754372790
           9 :   -40.7302799078458
[...]

     PseudoPot. # 1 for Ta read from file:
     /afs/slac.stanford.edu/u/if/mamunm/psp/gbrv1.5pbe/Ta.UPF
     MD5 check sum: f8bbe9446314a3b8ea5d9f3e3836c939
     Pseudo is Ultrasoft + core correction, Zval = 13.0
     Generated by new atomic code, or converted to UPF format
     Using radial grid of  921 points,  7 beta functions with:
                l(1) =   0
                l(2) =   0
                l(3) =   1
                l(4) =   1
                l(5) =   2
                l(6) =   2
                l(7) =   3
     Q(r) pseudized with  6 coefficients,  rinner =    1.300   1.300   1.300
                                                       1.300   1.300   1.300
                                                       1.300

     PseudoPot. # 2 for Y  read from file:
     /afs/slac.stanford.edu/u/if/mamunm/psp/gbrv1.5pbe/Y.UPF
     MD5 check sum: d034151ed7554c50b6e82763ed42c788
     Pseudo is Ultrasoft + core correction, Zval = 11.0
     Generated by new atomic code, or converted to UPF format
     Using radial grid of  885 points,  6 beta functions with:
                l(1) =   0
                l(2) =   0
                l(3) =   1
                l(4) =   1
                l(5) =   2
                l(6) =   2
     Q(r) pseudized with  8 coefficients,  rinner =    1.200   1.200   1.200
                                                       1.200   1.200

     vdW kernel table read from file vdW_kernel_table
     MD5 check sum: 095c7af220d748ca6e76c0b4c6cfb241

     atomic species   valence    mass     pseudopotential
        Ta1           13.00   180.94788     Ta( 1.00)
        Y1            11.00    88.90584     Y ( 1.00)

     No symmetry found

   Cartesian axes

     site n.     atom                  positions (alat units)
         1           Ta1 tau(   1) = (   0.0000000   0.0000000  10.0000000  )
         2           Ta1 tau(   2) = (  -1.5470555   2.6795787  10.0000000  )
         3           Ta1 tau(   3) = (   1.5470555   2.6795787  10.0000000  )
         4           Y1  tau(   4) = (   3.0941109   0.0000000  10.0000000  )
         5           Ta1 tau(   5) = (   3.0941109   1.7863858  12.5263310  )
         6           Ta1 tau(   6) = (   1.5470555   4.4659644  12.5263310  )
         7           Ta1 tau(   7) = (  -1.5470555   4.4659644  12.5263310  )
         8           Y1  tau(   8) = (   0.0000000   1.7863858  12.5263310  )
         9           Ta1 tau(   9) = (   0.0000350   3.7753521  14.8279793  )
        10           Ta1 tau(  10) = (   1.7224779   0.7919176  14.8280080  )
        11           Ta1 tau(  11) = (   4.4657331   0.7918838  14.8279729  )
        12           Y1  tau(  12) = (   3.0940617   3.5727859  15.4300351  )

     number of k points=    20  Fermi-Dirac smearing, width (Ry)=  0.0110
                       cart. coord. in units 2pi/alat
        k(    1) = (   0.0000000   0.0000000   0.0000000), wk =   0.0555556
        k(    2) = (   0.0000000   0.0310994   0.0000000), wk =   0.1111111
        k(    3) = (   0.0000000   0.0621988   0.0000000), wk =   0.1111111
        k(    4) = (   0.0000000  -0.0932982   0.0000000), wk =   0.0555556
        k(    5) = (   0.0269329   0.0155497   0.0000000), wk =   0.1111111
        k(    6) = (   0.0269329   0.0466491   0.0000000), wk =   0.1111111
        k(    7) = (   0.0269329   0.0777485   0.0000000), wk =   0.1111111
        k(    8) = (   0.0269329  -0.0777485   0.0000000), wk =   0.1111111
        k(    9) = (   0.0269329  -0.0466491   0.0000000), wk =   0.1111111
        k(   10) = (   0.0269329  -0.0155497   0.0000000), wk =   0.1111111
        k(   11) = (   0.0538658   0.0310994   0.0000000), wk =   0.1111111
        k(   12) = (   0.0538658   0.0621988   0.0000000), wk =   0.1111111
        k(   13) = (   0.0538658   0.0932982   0.0000000), wk =   0.1111111
        k(   14) = (   0.0538658  -0.0621988   0.0000000), wk =   0.1111111
        k(   15) = (   0.0538658  -0.0310994   0.0000000), wk =   0.1111111
        k(   16) = (   0.0538658   0.0000000   0.0000000), wk =   0.1111111
        k(   17) = (  -0.0807987  -0.0466491   0.0000000), wk =   0.0555556
        k(   18) = (  -0.0807987  -0.0155497   0.0000000), wk =   0.1111111
        k(   19) = (  -0.0807987   0.0155497   0.0000000), wk =   0.1111111
        k(   20) = (  -0.0807987  -0.1399474   0.0000000), wk =   0.0555556

     Largest allocated arrays     est. size (Mb)     dimensions
     Largest temporary arrays     est. size (Mb)     dimensions

     Initial potential from superposition of free atoms
     Check: negative starting charge=   -0.846044

     starting charge  149.97658, renormalised to  150.00000

[...]

     *
     * You are using vdW-DF for exchange-correlation in this calculation.
     * Please cite the following three references that made this development
     * possible:
     *
     *   M. Dion, H. Rydberg, E. Schroder, D. C. Langreth, and
     *   B. I. Lundqvist, Phys. Rev. Lett. 92, 246401 (2004).
     *
     *   T. Thonhauser, V. R. Cooper, S. Li, A. Puzder, P. Hyldgaard, and
     *   D. C. Langreth, Phys. Rev. B 76, 125112 (2007).
     *
     *   G. Roman-Perez and J. M. Soler, Phys. Rev. Lett. 103, 096102 (2009).
     *
     *
     * If you are using vdW-DF2, please also cite:
     *
     *   K. Lee, E. D. Murray, L. Kong, B. I. Lundqvist, and
     *   D. C. Langreth, Phys. Rev. B 82, 081101(R) (2010).
     *
     *
     * If you are calculating the stress with vdW-DF, please also cite:
     *
     *   R. Sabatini, E. Kucukbenli, B. Kolb, T. Thonhauser, and
     *   S. de Gironcoli, J. Phys.: Condens. Matter 24, 424209 (2012).
     *

     Carrying out vdW-DF run using the following parameters:

     Nqs =      20    Nr_points =    1024   r_max =   100.000
     q_mesh =
               0.00001000     0.04494208     0.09755937     0.15916263
               0.23128650     0.31572767     0.41458969     0.53033537
               0.66584808     0.82450364     1.01025438     1.22772762
               1.48234092     1.78043706     2.12944203     2.53805004
               3.01644009     3.57652955     4.23227104     5.00000000

     Gradients computed in reciprocal space

[...]

     Starting wfc are  156 randomized atomic wfcs

     Self-consistent Calculation

[...]

     total energy              =   -1569.56253367 Ry
     Harris-Foulkes estimate   =   -1569.56253426 Ry
     estimated scf accuracy    <       0.00000102 Ry

     iteration # 17     ecut=    36.75 Ry     beta=0.10
     Davidson diagonalization with overlap
     ethr =  6.81E-10,  avg # of iterations =  2.0

[...]

     negative rho (up, down):  8.816E-01 0.000E+00

     Adding external electric field

     Computed dipole along edir(3) :
        Dipole                0.2422 Ry au,          0.6157 Debye
        Dipole field          0.0005 Ry au

        Potential amp.       -0.0501 Ry
        Total length         46.1591 bohr

     End of self-consistent calculation

[...]

          k = 0.0539 0.0000 0.0000 ( 21063 PWs)   bands (ev):

[...]

          k =-0.0808-0.1399 0.0000 ( 21104 PWs)   bands (ev):

   -66.5504 -66.5418 -66.5332 -66.4068 -66.3961 -66.3867 -66.2830 -66.2294
   -66.2268 -40.9628 -40.2953 -39.7613 -33.1210 -33.0342 -32.9921 -32.9733
   -32.9623 -32.9070 -32.9065 -32.8791 -32.8651 -32.8616 -32.8398 -32.8273
   -32.8090 -32.7850 -32.7721 -32.7251 -32.6994 -32.6197 -32.5909 -32.5890
   -32.5213 -32.4585 -32.4309 -32.4284 -32.3880 -32.3543 -32.2974 -20.9888
   -20.9208 -20.9061 -20.3617 -20.3435 -20.3366 -19.9090 -19.8752 -19.8488
    -3.2412  -2.9427  -1.7626  -1.6260  -1.0838  -1.0007  -0.7749  -0.6538
    -0.5146  -0.2831   0.0466   0.1397   0.2213   0.3981   0.6082   0.6637
     0.6912   0.7044   0.8546   0.9958   1.0730   1.0819   1.2400   1.3576
     1.4139   1.5149   1.5844   1.5886   1.8009   1.8609   2.0084   2.1888
     2.2409   2.3876   2.5397   2.8132   2.8831   3.0384   3.0417   3.3911
     3.6072   3.7100   3.8566   3.9039   4.0333   4.1198   4.1375   4.1835
     4.2622   4.4788   4.6974   4.9217   5.1492   5.2321   5.5053   5.6163
     5.7931

     the Fermi energy is     1.8954 ev

!    total energy              =   -1569.56253554 Ry
     Harris-Foulkes estimate   =   -1569.56253338 Ry
     estimated scf accuracy    <       0.00000056 Ry

     The total energy is the sum of the following terms:

     one-electron contribution =   -9809.96903764 Ry
     hartree contribution      =    4890.99960951 Ry
     xc contribution           =    -477.04516258 Ry
     ewald contribution        =    3826.55041815 Ry
     electric field correction =       0.00013151 Ry
     smearing contrib. (-TS)   =      -0.09849449 Ry

     convergence has been achieved in  17 iterations

 BEEF-vdW xc energy contributions
           1 :   -419.461919603856
           2 :    385.528581008033
           3 :   -326.251091320270
           4 :    255.295362705903
           5 :   -186.381039197268
           6 :    129.103708597605
           7 :   -87.1293909882239
           8 :    58.9893241259218
           9 :   -40.5553127968550
          10 :    27.7231995253483
          11 :   -18.0453324314579
          12 :    10.8452164792826
          13 :   -6.25328911398117
          14 :    4.08765496552331
          15 :   -3.35531823288932
          16 :    2.57517890827182
          17 :  -0.558794361771902
          18 :   -2.94630107942459
          19 :    7.16896153083917
          20 :   -10.8011661412771
          21 :    12.7311465924324
          22 :   -12.5942149192613
          23 :    10.8677785346203
          24 :   -8.52497349850523
          25 :    6.50027811830034
          26 :   -5.28288041595124
          27 :    4.82706663402109
          28 :   -4.75899672112337
          29 :    4.69852352038941
          30 :   -4.48790938718838
          31 :   -37.8440990181266
          32 :   -27.6697835585611

     Forces acting on atoms (Ry/au):

     negative rho (up, down):  8.816E-01 0.000E+00
     atom    1 type  1   force =    -0.00000011   -0.02632245    0.03334044
     atom    2 type  1   force =    -0.02279626    0.01316083    0.03334080
     atom    3 type  1   force =     0.02279607    0.01315907    0.03334001
     atom    4 type  2   force =     0.00000051    0.00000290   -0.04712659
     atom    5 type  1   force =    -0.00000018    0.03530480   -0.01437557
     atom    6 type  1   force =     0.03057736   -0.01765184   -0.01438380
     atom    7 type  1   force =    -0.03057377   -0.01765269   -0.01437511
     atom    8 type  2   force =    -0.00000022   -0.00000025   -0.01048722
     atom    9 type  1   force =    -0.00001698   -0.00005200    0.00030210
     atom   10 type  1   force =    -0.00003965    0.00002077    0.00029575
     atom   11 type  1   force =     0.00003879    0.00003848    0.00030219
     atom   12 type  2   force =     0.00001445   -0.00000760   -0.00017298

     Total force =     0.110019     Total SCF correction =     0.001782

     entering subroutine stress ...

     negative rho (up, down):  8.816E-01 0.000E+00
          total   stress  (Ry/bohr**3)                   (kbar)     P=  -14.72
  -0.00011123   0.00000000   0.00000000        -16.36      0.00      0.00
   0.00000000  -0.00011123   0.00000000          0.00    -16.36      0.00
   0.00000000   0.00000000  -0.00007778          0.00      0.00    -11.44

 !ASE

     Writing output data file calc.save

     General routines

     Parallel routines

   This run was terminated on:   2:10:36  28Dec2018

   JOB DONE.
Job  /afs/slac/g/suncat/bin/suncat-tsmpirun -x LD_LIBRARY_PATH -wdir /scratch/qe111033_YtMge pw.x -in pw.inp

TID   HOST_NAME   COMMAND_LINE            STATUS            TERMINATION_TIME
00000 suncat0004 pw.x -in pw.inp   Done                     12/28/2018 02:10:36
00001 suncat0004 pw.x -in pw.inp   Done                     12/28/2018 02:10:36
00002 suncat0004 pw.x -in pw.inp   Done                     12/28/2018 02:10:36
00003 suncat0004 pw.x -in pw.inp   Done                     12/28/2018 02:10:36
00004 suncat0004 pw.x -in pw.inp   Done                     12/28/2018 02:10:36
00005 suncat0004 pw.x -in pw.inp   Done                     12/28/2018 02:10:36
00006 suncat0004 pw.x -in pw.inp   Done                     12/28/2018 02:10:36
00007 suncat0004 pw.x -in pw.inp   Done                     12/28/2018 02:10:36
00008 suncat0187 pw.x -in pw.inp   Done                     12/28/2018 02:10:36
00009 suncat0187 pw.x -in pw.inp   Done                     12/28/2018 02:10:36
00010 suncat0187 pw.x -in pw.inp   Done                     12/28/2018 02:10:36
00011 suncat0187 pw.x -in pw.inp   Done                     12/28/2018 02:10:36
00012 suncat0187 pw.x -in pw.inp   Done                     12/28/2018 02:10:36
00013 suncat0187 pw.x -in pw.inp   Done                     12/28/2018 02:10:36
00014 suncat0187 pw.x -in pw.inp   Done                     12/28/2018 02:10:36
00015 suncat0187 pw.x -in pw.inp   Done                     12/28/2018 02:10:36
00016 suncat0186 pw.x -in pw.inp   Done                     12/28/2018 02:10:36
00017 suncat0186 pw.x -in pw.inp   Done                     12/28/2018 02:10:36
00018 suncat0186 pw.x -in pw.inp   Done                     12/28/2018 02:10:36
00019 suncat0186 pw.x -in pw.inp   Done                     12/28/2018 02:10:36
00020 suncat0186 pw.x -in pw.inp   Done                     12/28/2018 02:10:36
00021 suncat0186 pw.x -in pw.inp   Done                     12/28/2018 02:10:36
00022 suncat0186 pw.x -in pw.inp   Done                     12/28/2018 02:10:36
00023 suncat0186 pw.x -in pw.inp   Done                     12/28/2018 02:10:36
00024 suncat0185 pw.x -in pw.inp   Done                     12/28/2018 02:10:36
00025 suncat0185 pw.x -in pw.inp   Done                     12/28/2018 02:10:36
00026 suncat0185 pw.x -in pw.inp   Done                     12/28/2018 02:10:36
00027 suncat0185 pw.x -in pw.inp   Done                     12/28/2018 02:10:36
00028 suncat0185 pw.x -in pw.inp   Done                     12/28/2018 02:10:36
00029 suncat0185 pw.x -in pw.inp   Done                     12/28/2018 02:10:36
00030 suncat0185 pw.x -in pw.inp   Done                     12/28/2018 02:10:36
00031 suncat0185 pw.x -in pw.inp   Done                     12/28/2018 02:10:36
00032 suncat0218 pw.x -in pw.inp   Done                     12/28/2018 02:10:36
00033 suncat0218 pw.x -in pw.inp   Done                     12/28/2018 02:10:36
00034 suncat0218 pw.x -in pw.inp   Done                     12/28/2018 02:10:36
00035 suncat0218 pw.x -in pw.inp   Done                     12/28/2018 02:10:36
00036 suncat0218 pw.x -in pw.inp   Done                     12/28/2018 02:10:36
00037 suncat0218 pw.x -in pw.inp   Done                     12/28/2018 02:10:36
00038 suncat0218 pw.x -in pw.inp   Done                     12/28/2018 02:10:36
00039 suncat0218 pw.x -in pw.inp   Done                     12/28/2018 02:10:36
00040 suncat0212 pw.x -in pw.inp   Done                     12/28/2018 02:10:36
00041 suncat0212 pw.x -in pw.inp   Done                     12/28/2018 02:10:36
00042 suncat0212 pw.x -in pw.inp   Done                     12/28/2018 02:10:36
00043 suncat0212 pw.x -in pw.inp   Done                     12/28/2018 02:10:36
00044 suncat0212 pw.x -in pw.inp   Done                     12/28/2018 02:10:36
00045 suncat0212 pw.x -in pw.inp   Done                     12/28/2018 02:10:36
00046 suncat0212 pw.x -in pw.inp   Done                     12/28/2018 02:10:36
00047 suncat0212 pw.x -in pw.inp   Done                     12/28/2018 02:10:36
00048 suncat0211 pw.x -in pw.inp   Done                     12/28/2018 02:10:36
00049 suncat0211 pw.x -in pw.inp   Done                     12/28/2018 02:10:36
00050 suncat0211 pw.x -in pw.inp   Done                     12/28/2018 02:10:36
00051 suncat0211 pw.x -in pw.inp   Done                     12/28/2018 02:10:36
00052 suncat0211 pw.x -in pw.inp   Done                     12/28/2018 02:10:36
00053 suncat0211 pw.x -in pw.inp   Done                     12/28/2018 02:10:36
00054 suncat0211 pw.x -in pw.inp   Done                     12/28/2018 02:10:36
00055 suncat0211 pw.x -in pw.inp   Done                     12/28/2018 02:10:36
00056 suncat0208 pw.x -in pw.inp   Done                     12/28/2018 02:10:36
00057 suncat0208 pw.x -in pw.inp   Done                     12/28/2018 02:10:36
00058 suncat0208 pw.x -in pw.inp   Done                     12/28/2018 02:10:36
00059 suncat0208 pw.x -in pw.inp   Done                     12/28/2018 02:10:36
00060 suncat0208 pw.x -in pw.inp   Done                     12/28/2018 02:10:36
00061 suncat0208 pw.x -in pw.inp   Done                     12/28/2018 02:10:36
00062 suncat0208 pw.x -in pw.inp   Done                     12/28/2018 02:10:36
00063 suncat0208 pw.x -in pw.inp   Done                     12/28/2018 02:10:36