     Program PWSCF v.5.1rc2 (svn rev. 11289) starts on 27Dec2018 at 11:28:20

     Current dimensions of program PWSCF are:
     Max number of different atomic species (ntypx) = 10
     Max number of k-points (npk) =  40000
     Max angular momentum in pseudopotentials (lmaxx) =  3
     Presently stress not available with electric field

     IMPORTANT: XC functional enforced from input :
     Exchange-correlation      = BEEF-VDW ( 1  4 27 13 2)
     Any further DFT definition will be discarded
     Please, verify this is what you really want

     Subspace diagonalization in iterative solution of the eigenvalue problem:
     a serial algorithm will be used

     Generating pointlists ...
     new r_m :   0.4125 (alat units)  0.7795 (a.u.) for type    1
     new r_m :   0.4125 (alat units)  0.7795 (a.u.) for type    2

     bravais-lattice index     =            0
     lattice parameter (alat)  =       1.8897  a.u.
     unit-cell volume          =    3616.6235 (a.u.)^3
     number of atoms/cell      =           12
     number of atomic types    =            2
     number of electrons       =       201.00
     number of Kohn-Sham states=          130
     kinetic-energy cutoff     =      36.7493  Ry
     charge density cutoff     =     367.4932  Ry
     convergence threshold     =      1.0E-06
     mixing beta               =       0.1000
     number of iterations used =           10  plain     mixing
     Exchange-correlation      = BEEF-VDW ( 1  4 27 13 2)
     nstep                     =           50

     celldm(1)=   1.889726  celldm(2)=   0.000000  celldm(3)=   0.000000
     celldm(4)=   0.000000  celldm(5)=   0.000000  celldm(6)=   0.000000

     crystal axes: (cart. coord. in units of alat)
               a(1) = (   5.063710   0.000000   0.000000 )
               a(2) = (  -2.531855   4.385302   0.000000 )
               a(3) = (   0.000000   0.000000  24.134502 )

     reciprocal axes: (cart. coord. in units 2 pi/alat)
               b(1) = (  0.197484  0.114017  0.000000 )
               b(2) = (  0.000000  0.228034  0.000000 )
               b(3) = (  0.000000  0.000000  0.041434 )

     PseudoPot. # 1 for Ni read from file:
     /afs/slac.stanford.edu/u/if/mamunm/psp/gbrv1.5pbe/Ni.UPF
     MD5 check sum: 1ee80287db30b12d2bc1f57a5b5d6409
     Pseudo is Ultrasoft + core correction, Zval = 18.0
     Generated by new atomic code, or converted to UPF format
     Using radial grid of  865 points,  6 beta functions with:
                l(1) =   0
                l(2) =   0
                l(3) =   1
                l(4) =   1
                l(5) =   2
                l(6) =   2
     Q(r) pseudized with 10 coefficients,  rinner =    0.980   0.980   0.980
                                                       0.980   0.980

     PseudoPot. # 2 for V  read from file:
     /afs/slac.stanford.edu/u/if/mamunm/psp/gbrv1.5pbe/V.UPF
     MD5 check sum: 22b79981416ebb76fdaf5b1b8640f6fb
     Pseudo is Ultrasoft + core correction, Zval = 13.0
     Generated by new atomic code, or converted to UPF format
     Using radial grid of  853 points,  6 beta functions with:
                l(1) =   0
                l(2) =   0
                l(3) =   1
                l(4) =   1
                l(5) =   2
                l(6) =   2
     Q(r) pseudized with  8 coefficients,  rinner =    1.100   1.100   1.100
                                                       1.100   1.100

     vdW kernel table read from file vdW_kernel_table
     MD5 check sum: 095c7af220d748ca6e76c0b4c6cfb241

     atomic species   valence    mass     pseudopotential
        Ni1           18.00    58.69340     Ni( 1.00)
        V1            13.00    50.94150     V ( 1.00)

     Starting magnetic structure
     atomic species   magnetization
        Ni1          0.111
        V1           0.154

     No symmetry found

   Cartesian axes

     site n.     atom                  positions (alat units)
         1           Ni1 tau(   1) = (   0.0000000   0.0000000  10.0000000  )
         2           Ni1 tau(   2) = (  -1.2659276   2.1926509  10.0000000  )
         3           Ni1 tau(   3) = (   1.2659276   2.1926509  10.0000000  )
         4           V1  tau(   4) = (   2.5318552   0.0000000  10.0000000  )
         5           Ni1 tau(   5) = (   2.5318552   1.4617673  12.0672511  )
         6           Ni1 tau(   6) = (   1.2659276   3.6544182  12.0672511  )
         7           Ni1 tau(   7) = (  -1.2659276   3.6544182  12.0672511  )
         8           V1  tau(   8) = (   0.0000000   1.4617673  12.0672511  )
         9           Ni1 tau(   9) = (  -0.0000000   2.9235346  14.1345022  )
        10           Ni1 tau(  10) = (   1.2659276   0.7308836  14.1345022  )
        11           Ni1 tau(  11) = (   3.7977828   0.7308836  14.1345022  )
        12           V1  tau(  12) = (   2.5318552   2.9235346  14.1345022  )

     number of k points=    40  Fermi-Dirac smearing, width (Ry)=  0.0110
                       cart. coord. in units 2pi/alat
        k(    1) = (   0.0000000   0.0000000   0.0000000), wk =   0.0277778
        k(    2) = (   0.0000000   0.0380057   0.0000000), wk =   0.0555556
        k(    3) = (   0.0000000   0.0760115   0.0000000), wk =   0.0555556
        k(    4) = (   0.0000000  -0.1140172   0.0000000), wk =   0.0277778
        k(    5) = (   0.0329139   0.0190029   0.0000000), wk =   0.0555556
        k(    6) = (   0.0329139   0.0570086   0.0000000), wk =   0.0555556
        k(    7) = (   0.0329139   0.0950144   0.0000000), wk =   0.0555556
        k(    8) = (   0.0329139  -0.0950144   0.0000000), wk =   0.0555556
        k(    9) = (   0.0329139  -0.0570086   0.0000000), wk =   0.0555556
        k(   10) = (   0.0329139  -0.0190029   0.0000000), wk =   0.0555556
        k(   11) = (   0.0658279   0.0380057   0.0000000), wk =   0.0555556
        k(   12) = (   0.0658279   0.0760115   0.0000000), wk =   0.0555556
        k(   13) = (   0.0658279   0.1140172   0.0000000), wk =   0.0555556
        k(   14) = (   0.0658279  -0.0760115   0.0000000), wk =   0.0555556
        k(   15) = (   0.0658279  -0.0380057   0.0000000), wk =   0.0555556
        k(   16) = (   0.0658279   0.0000000   0.0000000), wk =   0.0555556
        k(   17) = (  -0.0987418  -0.0570086   0.0000000), wk =   0.0277778
        k(   18) = (  -0.0987418  -0.0190029   0.0000000), wk =   0.0555556
        k(   19) = (  -0.0987418   0.0190029   0.0000000), wk =   0.0555556
        k(   20) = (  -0.0987418  -0.1710259   0.0000000), wk =   0.0277778
        k(   21) = (   0.0000000   0.0000000   0.0000000), wk =   0.0277778
        k(   22) = (   0.0000000   0.0380057   0.0000000), wk =   0.0555556
        k(   23) = (   0.0000000   0.0760115   0.0000000), wk =   0.0555556
        k(   24) = (   0.0000000  -0.1140172   0.0000000), wk =   0.0277778
        k(   25) = (   0.0329139   0.0190029   0.0000000), wk =   0.0555556
        k(   26) = (   0.0329139   0.0570086   0.0000000), wk =   0.0555556
        k(   27) = (   0.0329139   0.0950144   0.0000000), wk =   0.0555556
        k(   28) = (   0.0329139  -0.0950144   0.0000000), wk =   0.0555556
        k(   29) = (   0.0329139  -0.0570086   0.0000000), wk =   0.0555556
        k(   30) = (   0.0329139  -0.0190029   0.0000000), wk =   0.0555556
        k(   31) = (   0.0658279   0.0380057   0.0000000), wk =   0.0555556
        k(   32) = (   0.0658279   0.0760115   0.0000000), wk =   0.0555556
        k(   33) = (   0.0658279   0.1140172   0.0000000), wk =   0.0555556
        k(   34) = (   0.0658279  -0.0760115   0.0000000), wk =   0.0555556
        k(   35) = (   0.0658279  -0.0380057   0.0000000), wk =   0.0555556
        k(   36) = (   0.0658279   0.0000000   0.0000000), wk =   0.0555556
        k(   37) = (  -0.0987418  -0.0570086   0.0000000), wk =   0.0277778
        k(   38) = (  -0.0987418  -0.0190029   0.0000000), wk =   0.0555556
        k(   39) = (  -0.0987418   0.0190029   0.0000000), wk =   0.0555556
        k(   40) = (  -0.0987418  -0.1710259   0.0000000), wk =   0.0277778

     Largest allocated arrays     est. size (Mb)     dimensions
     Largest temporary arrays     est. size (Mb)     dimensions

     Check: negative/imaginary core charge=   -0.000002    0.000000

     Initial potential from superposition of free atoms
     Check: negative starting charge=(component1):   -0.001950
     Check: negative starting charge=(component2):   -0.001442

     starting charge  182.99632, renormalised to  201.00000

     negative rho (up, down):  2.141E-03 1.584E-03

     *
     * You are using vdW-DF for exchange-correlation in this calculation.
     * Please cite the following three references that made this development
     * possible:
     *
     *   M. Dion, H. Rydberg, E. Schroder, D. C. Langreth, and
     *   B. I. Lundqvist, Phys. Rev. Lett. 92, 246401 (2004).
     *
     *   T. Thonhauser, V. R. Cooper, S. Li, A. Puzder, P. Hyldgaard, and
     *   D. C. Langreth, Phys. Rev. B 76, 125112 (2007).
     *
     *   G. Roman-Perez and J. M. Soler, Phys. Rev. Lett. 103, 096102 (2009).
     *
     *
     * If you are using vdW-DF2, please also cite:
     *
     *   K. Lee, E. D. Murray, L. Kong, B. I. Lundqvist, and
     *   D. C. Langreth, Phys. Rev. B 82, 081101(R) (2010).
     *
     *
     * If you are calculating the stress with vdW-DF, please also cite:
     *
     *   R. Sabatini, E. Kucukbenli, B. Kolb, T. Thonhauser, and
     *   S. de Gironcoli, J. Phys.: Condens. Matter 24, 424209 (2012).
     *

     Carrying out vdW-DF run using the following parameters:

     Nqs =      20    Nr_points =    1024   r_max =   100.000
     q_mesh =
               0.00001000     0.04494208     0.09755937     0.15916263
               0.23128650     0.31572767     0.41458969     0.53033537
               0.66584808     0.82450364     1.01025438     1.22772762
               1.48234092     1.78043706     2.12944203     2.53805004
               3.01644009     3.57652955     4.23227104     5.00000000

     Gradients computed in reciprocal space

     Adding external electric field

     Computed dipole along edir(3) :
        Dipole                0.0000 Ry au,          0.0000 Debye
        Dipole field          0.0000 Ry au

        Potential amp.       -0.0000 Ry
        Total length         44.4674 bohr

[...]

     Starting wfc are  147 randomized atomic wfcs

     Self-consistent Calculation

     iteration #  1     ecut=    36.75 Ry     beta=0.10
     Davidson diagonalization with overlap
     ethr =  1.00E-02,  avg # of iterations =  7.3

[...]

     Magnetic moment per site:
     atom:    1    charge:    9.7618    magn:    1.0336    constr:    0.0000
     atom:    2    charge:    9.7618    magn:    1.0336    constr:    0.0000
     atom:    3    charge:    9.7618    magn:    1.0336    constr:    0.0000
     atom:    4    charge:    4.3321    magn:    0.6214    constr:    0.0000
     atom:    5    charge:    9.7667    magn:    1.0336    constr:    0.0000
     atom:    6    charge:    9.7667    magn:    1.0337    constr:    0.0000
     atom:    7    charge:    9.7667    magn:    1.0337    constr:    0.0000
     atom:    8    charge:    4.3459    magn:    0.6214    constr:    0.0000
[...]
        k(    4) = (   0.0000000  -0.1140172   0.0000000), wk =   0.0277778
        k(    5) = (   0.0329139   0.0190029   0.0000000), wk =   0.0555556
        k(    6) = (   0.0329139   0.0570086   0.0000000), wk =   0.0555556
        k(    7) = (   0.0329139   0.0950144   0.0000000), wk =   0.0555556
        k(    8) = (   0.0329139  -0.0950144   0.0000000), wk =   0.0555556
        k(    9) = (   0.0329139  -0.0570086   0.0000000), wk =   0.0555556
        k(   10) = (   0.0329139  -0.0190029   0.0000000), wk =   0.0555556
        k(   11) = (   0.0658279   0.0380057   0.0000000), wk =   0.0555556
        k(   12) = (   0.0658279   0.0760115   0.0000000), wk =   0.0555556
        k(   13) = (   0.0658279   0.1140172   0.0000000), wk =   0.0555556
        k(   14) = (   0.0658279  -0.0760115   0.0000000), wk =   0.0555556
        k(   15) = (   0.0658279  -0.0380057   0.0000000), wk =   0.0555556
        k(   16) = (   0.0658279   0.0000000   0.0000000), wk =   0.0555556
        k(   17) = (  -0.0987418  -0.0570086   0.0000000), wk =   0.0277778
        k(   18) = (  -0.0987418  -0.0190029   0.0000000), wk =   0.0555556
        k(   19) = (  -0.0987418   0.0190029   0.0000000), wk =   0.0555556
        k(   20) = (  -0.0987418  -0.1710259   0.0000000), wk =   0.0277778
        k(   21) = (   0.0000000   0.0000000   0.0000000), wk =   0.0277778
        k(   22) = (   0.0000000   0.0380057   0.0000000), wk =   0.0555556
        k(   23) = (   0.0000000   0.0760115   0.0000000), wk =   0.0555556
        k(   24) = (   0.0000000  -0.1140172   0.0000000), wk =   0.0277778
        k(   25) = (   0.0329139   0.0190029   0.0000000), wk =   0.0555556
        k(   26) = (   0.0329139   0.0570086   0.0000000), wk =   0.0555556
        k(   27) = (   0.0329139   0.0950144   0.0000000), wk =   0.0555556
        k(   28) = (   0.0329139  -0.0950144   0.0000000), wk =   0.0555556
        k(   29) = (   0.0329139  -0.0570086   0.0000000), wk =   0.0555556
        k(   30) = (   0.0329139  -0.0190029   0.0000000), wk =   0.0555556
        k(   31) = (   0.0658279   0.0380057   0.0000000), wk =   0.0555556
        k(   32) = (   0.0658279   0.0760115   0.0000000), wk =   0.0555556
        k(   33) = (   0.0658279   0.1140172   0.0000000), wk =   0.0555556
        k(   34) = (   0.0658279  -0.0760115   0.0000000), wk =   0.0555556
        k(   35) = (   0.0658279  -0.0380057   0.0000000), wk =   0.0555556
        k(   36) = (   0.0658279   0.0000000   0.0000000), wk =   0.0555556
        k(   37) = (  -0.0987418  -0.0570086   0.0000000), wk =   0.0277778
        k(   38) = (  -0.0987418  -0.0190029   0.0000000), wk =   0.0555556
        k(   39) = (  -0.0987418   0.0190029   0.0000000), wk =   0.0555556
        k(   40) = (  -0.0987418  -0.1710259   0.0000000), wk =   0.0277778

     Largest allocated arrays     est. size (Mb)     dimensions
     Largest temporary arrays     est. size (Mb)     dimensions

     Check: negative/imaginary core charge=   -0.000002    0.000000

     Initial potential from superposition of free atoms
     Check: negative starting charge=(component1):   -0.001915
     Check: negative starting charge=(component2):   -0.001417

     starting charge  182.99632, renormalised to  201.00000

[...]

     *
     * You are using vdW-DF for exchange-correlation in this calculation.
     * Please cite the following three references that made this development
     * possible:
     *
     *   M. Dion, H. Rydberg, E. Schroder, D. C. Langreth, and
     *   B. I. Lundqvist, Phys. Rev. Lett. 92, 246401 (2004).
     *
     *   T. Thonhauser, V. R. Cooper, S. Li, A. Puzder, P. Hyldgaard, and
     *   D. C. Langreth, Phys. Rev. B 76, 125112 (2007).
     *
     *   G. Roman-Perez and J. M. Soler, Phys. Rev. Lett. 103, 096102 (2009).
     *
     *
     * If you are using vdW-DF2, please also cite:
     *
     *   K. Lee, E. D. Murray, L. Kong, B. I. Lundqvist, and
     *   D. C. Langreth, Phys. Rev. B 82, 081101(R) (2010).
     *
     *
     * If you are calculating the stress with vdW-DF, please also cite:
     *
     *   R. Sabatini, E. Kucukbenli, B. Kolb, T. Thonhauser, and
     *   S. de Gironcoli, J. Phys.: Condens. Matter 24, 424209 (2012).
     *

     Carrying out vdW-DF run using the following parameters:

     Nqs =      20    Nr_points =    1024   r_max =   100.000
     q_mesh =
               0.00001000     0.04494208     0.09755937     0.15916263
               0.23128650     0.31572767     0.41458969     0.53033537
               0.66584808     0.82450364     1.01025438     1.22772762
               1.48234092     1.78043706     2.12944203     2.53805004
               3.01644009     3.57652955     4.23227104     5.00000000

     Gradients computed in reciprocal space

[...]

     Starting wfc are  147 randomized atomic wfcs

     Self-consistent Calculation

[...]

     total energy              =   -3537.14982746 Ry
     Harris-Foulkes estimate   =   -3537.14982669 Ry
     estimated scf accuracy    <       0.00000103 Ry

[...]

     iteration # 53     ecut=    36.75 Ry     beta=0.10
     Davidson diagonalization with overlap
     ethr =  5.10E-10,  avg # of iterations =  1.0

[...]

     negative rho (up, down):  1.642E-03 3.178E-03

[...]

     Adding external electric field

     Computed dipole along edir(3) :
        Dipole                0.0071 Ry au,          0.0179 Debye
        Dipole field          0.0000 Ry au

        Potential amp.       -0.0022 Ry
        Total length         44.4674 bohr

     Magnetic moment per site:
     atom:    1    charge:    9.3417    magn:   -0.0704    constr:    0.0000
     atom:    2    charge:    9.3417    magn:   -0.0703    constr:    0.0000
     atom:    3    charge:    9.3417    magn:   -0.0704    constr:    0.0000
     atom:    4    charge:    4.0007    magn:    0.3483    constr:    0.0000
     atom:    5    charge:    9.3392    magn:   -0.0238    constr:    0.0000
     atom:    6    charge:    9.3391    magn:   -0.0238    constr:    0.0000
     atom:    7    charge:    9.3392    magn:   -0.0238    constr:    0.0000
     atom:    8    charge:    3.9914    magn:   -0.0422    constr:    0.0000
     atom:    9    charge:    9.3433    magn:   -0.0596    constr:    0.0000
     atom:   10    charge:    9.3433    magn:   -0.0595    constr:    0.0000
     atom:   11    charge:    9.3433    magn:   -0.0596    constr:    0.0000
     atom:   12    charge:    4.0007    magn:    0.3232    constr:    0.0000

     End of self-consistent calculation

 ------ SPIN UP ------------

[...]

 ------ SPIN DOWN ----------

[...]

          k = 0.0658 0.0000 0.0000 ( 13617 PWs)   bands (ev):

[...]

          k =-0.0987-0.1710 0.0000 ( 13630 PWs)   bands (ev):

  -102.7592-102.7547-102.7503-102.5029-102.4977-102.4936-102.4707-102.4664
  -102.4619 -64.2257 -63.3480 -63.2909 -63.2220 -63.2159 -63.2060 -63.1591
   -63.1502 -63.1344 -63.0435 -63.0354 -63.0352 -63.0210 -63.0134 -63.0125
   -62.9987 -62.9980 -62.9794 -62.8853 -62.8511 -62.8464 -62.8217 -62.8154
   -62.7826 -62.7478 -62.7393 -62.7306 -62.7062 -62.7004 -62.6928 -38.0467
   -38.0437 -37.9452 -37.1362 -37.1332 -37.0923 -37.0680 -37.0650 -37.0040
    -5.1553  -5.0586  -3.5042  -3.4617  -2.9672  -2.8646  -2.8030  -2.7044
    -2.5875  -2.5308  -2.3208  -2.2833  -2.1004  -2.0741  -2.0242  -1.8596
    -1.8219  -1.7909  -1.7378  -1.6879  -1.5036  -1.4703  -1.3342  -1.2297
    -1.2071  -1.1734  -1.1263  -1.1009  -1.0540  -1.0379  -0.9903  -0.9824
    -0.9744  -0.8928  -0.8093  -0.7547  -0.7077  -0.6029  -0.5824  -0.5279
    -0.4745  -0.3857  -0.3116  -0.2894  -0.2522  -0.0428   0.0082   0.0462
     0.2927   0.3263   0.3945   0.4459   0.8986   1.0076   1.1862   1.4183
     1.4787   1.5572   1.5963   1.7620   1.7924   1.8119   1.9109   2.2916
     2.4792   2.8365   3.2329   3.6448   4.0092   4.6136   4.9426   5.0632
     6.0556   6.1971   6.8030   6.8052   7.3021   7.3333   7.5370   7.5373
     8.5647   8.5901

     the Fermi energy is     0.8160 ev

!    total energy              =   -3537.14983004 Ry
     Harris-Foulkes estimate   =   -3537.14982751 Ry
     estimated scf accuracy    <       0.00000092 Ry

     The total energy is the sum of the following terms:

     one-electron contribution =  -29776.78280531 Ry
     hartree contribution      =   14892.54836551 Ry
     xc contribution           =    -391.97319074 Ry
     ewald contribution        =   11739.13589860 Ry
     electric field correction =       0.00000017 Ry
     smearing contrib. (-TS)   =      -0.07809828 Ry

     total magnetization       =     1.69 Bohr mag/cell
     absolute magnetization    =     3.67 Bohr mag/cell

     convergence has been achieved in  53 iterations

 BEEF-vdW xc energy contributions
           1 :   -344.223887331351
           2 :    311.672754330770
           3 :   -257.002630323474
           4 :    196.176240715251
           5 :   -143.793183677881
           6 :    107.729518946429
           7 :   -87.6740733860084
           8 :    77.6026895610635
           9 :   -70.2845950392397
          10 :    61.1757577374486
          11 :   -49.8583130252093
          12 :    38.8133203462992
          13 :   -30.8497590639154
          14 :    26.9962827094843
          15 :   -26.0372366293256
          16 :    25.6176431065898
          17 :   -23.8989851077023
          18 :    20.5878546230213
          19 :   -16.7930483523394
          20 :    13.9953406476463
          21 :   -12.9483821885523
          22 :    13.2353709830319
          23 :   -13.6859763547695
          24 :    13.2506977366779
          25 :   -11.6900932805434
          26 :    9.63105412359590
          27 :   -8.03452780950852
          28 :    7.49786364515586
          29 :   -7.88445376845749
          30 :    8.48884067945284
          31 :   -29.6059024377077
          32 :   -20.8334386198915

     Forces acting on atoms (Ry/au):

     negative rho (up, down):  1.642E-03 3.178E-03
     atom    1 type  1   force =    -0.00000205    0.00851843    0.00792827
     atom    2 type  1   force =     0.00738548   -0.00426061    0.00791494
     atom    3 type  1   force =    -0.00738588   -0.00425885    0.00792224
     atom    4 type  2   force =     0.00000090   -0.00000072    0.00365536
     atom    5 type  1   force =    -0.00000200    0.00046691   -0.00512489
     atom    6 type  1   force =     0.00041265   -0.00023376   -0.00511812
     atom    7 type  1   force =    -0.00041063   -0.00023009   -0.00512374
     atom    8 type  2   force =    -0.00000349   -0.00000206   -0.00978740
     atom    9 type  1   force =     0.00000611    0.00128216   -0.00018029
     atom   10 type  1   force =     0.00109961   -0.00063628   -0.00018266
     atom   11 type  1   force =    -0.00109811   -0.00064317   -0.00019371
     atom   12 type  2   force =    -0.00000261   -0.00000196   -0.00170998

     Total force =     0.024549     Total SCF correction =     0.002048

     entering subroutine stress ...

     negative rho (up, down):  1.642E-03 3.178E-03
          total   stress  (Ry/bohr**3)                   (kbar)     P=  -62.69
  -0.00045759  -0.00000000  -0.00000000        -67.31     -0.00     -0.00
  -0.00000000  -0.00045759   0.00000001         -0.00    -67.31      0.00
  -0.00000000   0.00000001  -0.00036321         -0.00      0.00    -53.43

 !ASE

     Writing output data file calc.save

     General routines

     Parallel routines

   This run was terminated on:  15:51:51  27Dec2018

   JOB DONE.
Job  /afs/slac/g/suncat/bin/suncat-tsmpirun -x LD_LIBRARY_PATH -wdir /scratch/qe110295_PlfqV pw.x -in pw.inp

TID   HOST_NAME   COMMAND_LINE            STATUS            TERMINATION_TIME
00000 suncat0041 pw.x -in pw.inp   Done                     12/27/2018 15:51:51
00001 suncat0041 pw.x -in pw.inp   Done                     12/27/2018 15:51:51
00002 suncat0041 pw.x -in pw.inp   Done                     12/27/2018 15:51:51
00003 suncat0041 pw.x -in pw.inp   Done                     12/27/2018 15:51:51
00004 suncat0041 pw.x -in pw.inp   Done                     12/27/2018 15:51:51
00005 suncat0041 pw.x -in pw.inp   Done                     12/27/2018 15:51:51
00006 suncat0041 pw.x -in pw.inp   Done                     12/27/2018 15:51:51
00007 suncat0041 pw.x -in pw.inp   Done                     12/27/2018 15:51:51
00008 suncat0039 pw.x -in pw.inp   Done                     12/27/2018 15:51:51
00009 suncat0039 pw.x -in pw.inp   Done                     12/27/2018 15:51:51
00010 suncat0039 pw.x -in pw.inp   Done                     12/27/2018 15:51:51
00011 suncat0039 pw.x -in pw.inp   Done                     12/27/2018 15:51:51
00012 suncat0039 pw.x -in pw.inp   Done                     12/27/2018 15:51:51
00013 suncat0039 pw.x -in pw.inp   Done                     12/27/2018 15:51:51
00014 suncat0039 pw.x -in pw.inp   Done                     12/27/2018 15:51:51
00015 suncat0039 pw.x -in pw.inp   Done                     12/27/2018 15:51:51
00016 suncat0169 pw.x -in pw.inp   Done                     12/27/2018 15:51:51
00017 suncat0169 pw.x -in pw.inp   Done                     12/27/2018 15:51:51
00018 suncat0169 pw.x -in pw.inp   Done                     12/27/2018 15:51:51
00019 suncat0169 pw.x -in pw.inp   Done                     12/27/2018 15:51:51
00020 suncat0169 pw.x -in pw.inp   Done                     12/27/2018 15:51:51
00021 suncat0169 pw.x -in pw.inp   Done                     12/27/2018 15:51:51
00022 suncat0169 pw.x -in pw.inp   Done                     12/27/2018 15:51:51
00023 suncat0169 pw.x -in pw.inp   Done                     12/27/2018 15:51:51
00024 suncat0168 pw.x -in pw.inp   Done                     12/27/2018 15:51:51
00025 suncat0168 pw.x -in pw.inp   Done                     12/27/2018 15:51:51
00026 suncat0168 pw.x -in pw.inp   Done                     12/27/2018 15:51:51
00027 suncat0168 pw.x -in pw.inp   Done                     12/27/2018 15:51:51
00028 suncat0168 pw.x -in pw.inp   Done                     12/27/2018 15:51:51
00029 suncat0168 pw.x -in pw.inp   Done                     12/27/2018 15:51:51
00030 suncat0168 pw.x -in pw.inp   Done                     12/27/2018 15:51:51
00031 suncat0168 pw.x -in pw.inp   Done                     12/27/2018 15:51:51
00032 suncat0161 pw.x -in pw.inp   Done                     12/27/2018 15:51:51
00033 suncat0161 pw.x -in pw.inp   Done                     12/27/2018 15:51:51
00034 suncat0161 pw.x -in pw.inp   Done                     12/27/2018 15:51:51
00035 suncat0161 pw.x -in pw.inp   Done                     12/27/2018 15:51:51
00036 suncat0161 pw.x -in pw.inp   Done                     12/27/2018 15:51:51
00037 suncat0161 pw.x -in pw.inp   Done                     12/27/2018 15:51:51
00038 suncat0161 pw.x -in pw.inp   Done                     12/27/2018 15:51:51
00039 suncat0161 pw.x -in pw.inp   Done                     12/27/2018 15:51:51
00040 suncat0250 pw.x -in pw.inp   Done                     12/27/2018 15:51:51
00041 suncat0250 pw.x -in pw.inp   Done                     12/27/2018 15:51:51
00042 suncat0250 pw.x -in pw.inp   Done                     12/27/2018 15:51:51
00043 suncat0250 pw.x -in pw.inp   Done                     12/27/2018 15:51:51
00044 suncat0250 pw.x -in pw.inp   Done                     12/27/2018 15:51:51
00045 suncat0250 pw.x -in pw.inp   Done                     12/27/2018 15:51:51
00046 suncat0250 pw.x -in pw.inp   Done                     12/27/2018 15:51:51
00047 suncat0250 pw.x -in pw.inp   Done                     12/27/2018 15:51:51
00048 suncat0249 pw.x -in pw.inp   Done                     12/27/2018 15:51:51
00049 suncat0249 pw.x -in pw.inp   Done                     12/27/2018 15:51:51
00050 suncat0249 pw.x -in pw.inp   Done                     12/27/2018 15:51:51
00051 suncat0249 pw.x -in pw.inp   Done                     12/27/2018 15:51:51
00052 suncat0249 pw.x -in pw.inp   Done                     12/27/2018 15:51:51
00053 suncat0249 pw.x -in pw.inp   Done                     12/27/2018 15:51:51
00054 suncat0249 pw.x -in pw.inp   Done                     12/27/2018 15:51:51
00055 suncat0249 pw.x -in pw.inp   Done                     12/27/2018 15:51:51
00056 suncat0231 pw.x -in pw.inp   Done                     12/27/2018 15:51:51
00057 suncat0231 pw.x -in pw.inp   Done                     12/27/2018 15:51:51
00058 suncat0231 pw.x -in pw.inp   Done                     12/27/2018 15:51:51
00059 suncat0231 pw.x -in pw.inp   Done                     12/27/2018 15:51:51
00060 suncat0231 pw.x -in pw.inp   Done                     12/27/2018 15:51:51
00061 suncat0231 pw.x -in pw.inp   Done                     12/27/2018 15:51:51
00062 suncat0231 pw.x -in pw.inp   Done                     12/27/2018 15:51:51
00063 suncat0231 pw.x -in pw.inp   Done                     12/27/2018 15:51:51