     Program PWSCF v.5.1rc2 (svn rev. 11289) starts on 27Dec2018 at 16:50:38

     Current dimensions of program PWSCF are:
     Max number of different atomic species (ntypx) = 10
     Max number of k-points (npk) =  40000
     Max angular momentum in pseudopotentials (lmaxx) =  3
     Presently stress not available with electric field

     IMPORTANT: XC functional enforced from input :
     Exchange-correlation      = BEEF-VDW ( 1  4 27 13 2)
     Any further DFT definition will be discarded
     Please, verify this is what you really want

     Subspace diagonalization in iterative solution of the eigenvalue problem:
     a serial algorithm will be used

     bravais-lattice index     =            0
     lattice parameter (alat)  =       1.8897  a.u.
     unit-cell volume          =    7306.6787 (a.u.)^3
     number of atoms/cell      =           12
     number of atomic types    =            2
     number of electrons       =       159.00
     number of Kohn-Sham states=          109
     kinetic-energy cutoff     =      36.7493  Ry
     charge density cutoff     =     367.4932  Ry
     convergence threshold     =      1.0E-06
     mixing beta               =       0.1000
     number of iterations used =           10  plain     mixing
     Exchange-correlation      = BEEF-VDW ( 1  4 27 13 2)
     nstep                     =           50

     celldm(1)=   1.889726  celldm(2)=   0.000000  celldm(3)=   0.000000
     celldm(4)=   0.000000  celldm(5)=   0.000000  celldm(6)=   0.000000

     crystal axes: (cart. coord. in units of alat)
               a(1) = (   6.975395   0.000000   0.000000 )
               a(2) = (  -3.487698   6.040869   0.000000 )
               a(3) = (   0.000000   0.000000  25.695386 )

     reciprocal axes: (cart. coord. in units 2 pi/alat)
               b(1) = (  0.143361  0.082770  0.000000 )
               b(2) = (  0.000000  0.165539  0.000000 )
               b(3) = (  0.000000  0.000000  0.038917 )

     PseudoPot. # 1 for Pb read from file:
     /afs/slac.stanford.edu/u/if/mamunm/psp/gbrv1.5pbe/Pb.UPF
     MD5 check sum: 3d1c1779aa92214d1e8f3a7db79003e2
     Pseudo is Ultrasoft + core correction, Zval = 14.0
     Generated by new atomic code, or converted to UPF format
     Using radial grid of  899 points,  6 beta functions with:
                l(1) =   0
                l(2) =   0
                l(3) =   1
                l(4) =   1
                l(5) =   2
                l(6) =   2
     Q(r) pseudized with  6 coefficients,  rinner =    1.000   1.000   1.000
                                                       1.000   1.000

     PseudoPot. # 2 for Y  read from file:
     /afs/slac.stanford.edu/u/if/mamunm/psp/gbrv1.5pbe/Y.UPF
     MD5 check sum: d034151ed7554c50b6e82763ed42c788
     Pseudo is Ultrasoft + core correction, Zval = 11.0
     Generated by new atomic code, or converted to UPF format
     Using radial grid of  885 points,  6 beta functions with:
                l(1) =   0
                l(2) =   0
                l(3) =   1
                l(4) =   1
                l(5) =   2
                l(6) =   2
     Q(r) pseudized with  8 coefficients,  rinner =    1.200   1.200   1.200
                                                       1.200   1.200

     vdW kernel table read from file vdW_kernel_table
     MD5 check sum: 095c7af220d748ca6e76c0b4c6cfb241

     atomic species   valence    mass     pseudopotential
        Pb1           14.00   207.20000     Pb( 1.00)
        Y1            11.00    88.90584     Y ( 1.00)

     No symmetry found

   Cartesian axes

     site n.     atom                  positions (alat units)
         1           Pb1 tau(   1) = (   0.0000000   0.0000000  10.0000000  )
         2           Pb1 tau(   2) = (  -1.7438488   3.0204347  10.0000000  )
         3           Pb1 tau(   3) = (   1.7438488   3.0204347  10.0000000  )
         4           Y1  tau(   4) = (   3.4876976   0.0000000  10.0000000  )
         5           Pb1 tau(   5) = (   3.4876976   2.0136231  12.8476931  )
         6           Pb1 tau(   6) = (   1.7438488   5.0340578  12.8476931  )
         7           Pb1 tau(   7) = (  -1.7438488   5.0340578  12.8476931  )
         8           Y1  tau(   8) = (   0.0000000   2.0136231  12.8476931  )
         9           Pb1 tau(   9) = (  -0.0000000   4.0272463  15.6953863  )
        10           Pb1 tau(  10) = (   1.7438488   1.0068116  15.6953863  )
        11           Pb1 tau(  11) = (   5.2315463   1.0068116  15.6953863  )
        12           Y1  tau(  12) = (   3.4876976   4.0272463  15.6953863  )

     number of k points=    20  Fermi-Dirac smearing, width (Ry)=  0.0110
                       cart. coord. in units 2pi/alat
        k(    1) = (   0.0000000   0.0000000   0.0000000), wk =   0.0555556
        k(    2) = (   0.0000000   0.0275898   0.0000000), wk =   0.1111111
        k(    3) = (   0.0000000   0.0551797   0.0000000), wk =   0.1111111
        k(    4) = (   0.0000000  -0.0827695   0.0000000), wk =   0.0555556
        k(    5) = (   0.0238935   0.0137949   0.0000000), wk =   0.1111111
        k(    6) = (   0.0238935   0.0413848   0.0000000), wk =   0.1111111
        k(    7) = (   0.0238935   0.0689746   0.0000000), wk =   0.1111111
        k(    8) = (   0.0238935  -0.0689746   0.0000000), wk =   0.1111111
        k(    9) = (   0.0238935  -0.0413848   0.0000000), wk =   0.1111111
        k(   10) = (   0.0238935  -0.0137949   0.0000000), wk =   0.1111111
        k(   11) = (   0.0477870   0.0275898   0.0000000), wk =   0.1111111
        k(   12) = (   0.0477870   0.0551797   0.0000000), wk =   0.1111111
        k(   13) = (   0.0477870   0.0827695   0.0000000), wk =   0.1111111
        k(   14) = (   0.0477870  -0.0551797   0.0000000), wk =   0.1111111
        k(   15) = (   0.0477870  -0.0275898   0.0000000), wk =   0.1111111
        k(   16) = (   0.0477870   0.0000000   0.0000000), wk =   0.1111111
        k(   17) = (  -0.0716805  -0.0413848   0.0000000), wk =   0.0555556
        k(   18) = (  -0.0716805  -0.0137949   0.0000000), wk =   0.1111111
        k(   19) = (  -0.0716805   0.0137949   0.0000000), wk =   0.1111111
        k(   20) = (  -0.0716805  -0.1241543   0.0000000), wk =   0.0555556

     Largest allocated arrays     est. size (Mb)     dimensions
     Largest temporary arrays     est. size (Mb)     dimensions

     Check: negative/imaginary core charge=   -0.000001    0.000000

     Initial potential from superposition of free atoms
     Check: negative starting charge=   -0.148715

     starting charge  158.96543, renormalised to  159.00000

     negative rho (up, down):  1.487E-01 0.000E+00

     *
     * You are using vdW-DF for exchange-correlation in this calculation.
     * Please cite the following three references that made this development
     * possible:
     *
     *   M. Dion, H. Rydberg, E. Schroder, D. C. Langreth, and
     *   B. I. Lundqvist, Phys. Rev. Lett. 92, 246401 (2004).
     *
     *   T. Thonhauser, V. R. Cooper, S. Li, A. Puzder, P. Hyldgaard, and
     *   D. C. Langreth, Phys. Rev. B 76, 125112 (2007).
     *
     *   G. Roman-Perez and J. M. Soler, Phys. Rev. Lett. 103, 096102 (2009).
     *
     *
     * If you are using vdW-DF2, please also cite:
     *
     *   K. Lee, E. D. Murray, L. Kong, B. I. Lundqvist, and
     *   D. C. Langreth, Phys. Rev. B 82, 081101(R) (2010).
     *
     *
     * If you are calculating the stress with vdW-DF, please also cite:
     *
     *   R. Sabatini, E. Kucukbenli, B. Kolb, T. Thonhauser, and
     *   S. de Gironcoli, J. Phys.: Condens. Matter 24, 424209 (2012).
     *

     Carrying out vdW-DF run using the following parameters:

     Nqs =      20    Nr_points =    1024   r_max =   100.000
     q_mesh =
               0.00001000     0.04494208     0.09755937     0.15916263
               0.23128650     0.31572767     0.41458969     0.53033537
               0.66584808     0.82450364     1.01025438     1.22772762
               1.48234092     1.78043706     2.12944203     2.53805004
               3.01644009     3.57652955     4.23227104     5.00000000

     Gradients computed in reciprocal space

     Adding external electric field

     Computed dipole along edir(3) :
        Dipole               -0.0000 Ry au,         -0.0000 Debye
        Dipole field         -0.0000 Ry au

        Potential amp.        0.0000 Ry
        Total length         47.3433 bohr

     Starting wfc are  120 randomized atomic wfcs

     Self-consistent Calculation

     iteration #  1     ecut=    36.75 Ry     beta=0.10
     Davidson diagonalization with overlap
     ethr =  1.00E-02,  avg # of iterations =  3.3

     Threshold (ethr) on eigenvalues was too large:
     Diagonalizing with lowered threshold

     Davidson diagonalization with overlap
     ethr =  2.56E-04,  avg # of iterations =  8.7

[...]

     total energy              =   -1775.44094231 Ry
     Harris-Foulkes estimate   =   -1775.51051387 Ry
     estimated scf accuracy    <       0.44728452 Ry

[...]

     End of self-consistent calculation

          k = 0.0000 0.0000 0.0000 ( 27531 PWs)   bands (ev):

   -43.0089 -43.0089 -42.4408 -23.0083 -23.0062 -22.8523 -22.8523 -22.8517
   -22.8517 -22.3868 -22.3868 -22.3257 -16.1404 -16.1109 -16.1109 -16.1038
   -16.0815 -16.0682 -16.0268 -16.0268 -16.0254 -16.0254 -16.0074 -16.0074
   -16.0068 -15.9948 -15.9646 -15.9589 -15.9589 -15.9286 -15.9282 -15.9241
   -15.9241 -15.9071 -15.9071 -15.9046 -15.9044 -15.9043 -15.8723 -15.8722
   -15.8697 -15.8697 -15.8550 -15.8550 -15.8524 -15.8523 -15.8498 -15.8174
   -15.8174 -15.7872 -15.7872 -15.7712 -15.7712 -15.7692 -15.7673 -15.7195
   -15.7188  -9.4515  -8.4771  -7.4162  -6.7783  -6.7782  -6.2286  -6.2285
    -5.6986  -5.6986  -2.4539  -1.8369  -1.6520  -1.4195  -1.4195  -1.1148
    -0.5360  -0.5360  -0.3393  -0.3393   0.0910   1.3524   1.3524   1.4389
     1.4389   1.8293   2.4658   2.6562   2.6562   2.7012   2.7985   2.8542
     2.8542   2.9169   2.9287   2.9287   3.3925   3.3925   3.7108   3.7108
     3.7180   3.8378   4.2717   4.4764   4.4764   4.4984   4.5403   4.8574
     4.8972   5.3370   5.3372   5.6109   5.6393

[...]

          k =-0.0717-0.0414 0.0000 ( 27478 PWs)   bands (ev):

[...]

     the Fermi energy is     1.2432 ev

!    total energy              =   -1775.45257523 Ry
     Harris-Foulkes estimate   =   -1775.45240860 Ry
     estimated scf accuracy    <       0.00000015 Ry

     The total energy is the sum of the following terms:

     one-electron contribution =   -8262.86378987 Ry
     hartree contribution      =    4181.93295160 Ry
     xc contribution           =    -672.51808319 Ry
     ewald contribution        =    2978.03758735 Ry
     electric field correction =       0.00000000 Ry
     smearing contrib. (-TS)   =      -0.04124111 Ry

     convergence has been achieved in  14 iterations

 BEEF-vdW xc energy contributions
           1 :   -597.857858242107
           2 :    553.211801266440
           3 :   -474.807534500635
           4 :    380.046524940151
           5 :   -286.595980928607
           6 :    207.141440119584
           7 :   -146.978901183963
           8 :    104.720468630582
           9 :   -75.1203218508562
[...]
     Generated by new atomic code, or converted to UPF format
     Using radial grid of  899 points,  6 beta functions with:
                l(1) =   0
                l(2) =   0
                l(3) =   1
                l(4) =   1
                l(5) =   2
                l(6) =   2
     Q(r) pseudized with  6 coefficients,  rinner =    1.000   1.000   1.000
                                                       1.000   1.000

     PseudoPot. # 2 for Y  read from file:
     /afs/slac.stanford.edu/u/if/mamunm/psp/gbrv1.5pbe/Y.UPF
     MD5 check sum: d034151ed7554c50b6e82763ed42c788
     Pseudo is Ultrasoft + core correction, Zval = 11.0
     Generated by new atomic code, or converted to UPF format
     Using radial grid of  885 points,  6 beta functions with:
                l(1) =   0
                l(2) =   0
                l(3) =   1
                l(4) =   1
                l(5) =   2
                l(6) =   2
     Q(r) pseudized with  8 coefficients,  rinner =    1.200   1.200   1.200
                                                       1.200   1.200

     vdW kernel table read from file vdW_kernel_table
     MD5 check sum: 095c7af220d748ca6e76c0b4c6cfb241

     atomic species   valence    mass     pseudopotential
        Pb1           14.00   207.20000     Pb( 1.00)
        Y1            11.00    88.90584     Y ( 1.00)

     No symmetry found

   Cartesian axes

     site n.     atom                  positions (alat units)
         1           Pb1 tau(   1) = (   0.0000000   0.0000000  10.0000000  )
         2           Pb1 tau(   2) = (  -1.7438488   3.0204347  10.0000000  )
         3           Pb1 tau(   3) = (   1.7438488   3.0204347  10.0000000  )
         4           Y1  tau(   4) = (   3.4876976   0.0000000  10.0000000  )
         5           Pb1 tau(   5) = (   3.4876976   2.0136231  12.8476931  )
         6           Pb1 tau(   6) = (   1.7438488   5.0340578  12.8476931  )
         7           Pb1 tau(   7) = (  -1.7438488   5.0340578  12.8476931  )
         8           Y1  tau(   8) = (   0.0000000   2.0136231  12.8476931  )
         9           Pb1 tau(   9) = (  -0.0000051   3.9811418  15.7848942  )
        10           Pb1 tau(  10) = (   1.7038447   1.0295804  15.7844679  )
        11           Pb1 tau(  11) = (   5.2715783   1.0295912  15.7844924  )
        12           Y1  tau(  12) = (   3.4877035   4.0271931  15.3880362  )

     number of k points=    20  Fermi-Dirac smearing, width (Ry)=  0.0110
                       cart. coord. in units 2pi/alat
        k(    1) = (   0.0000000   0.0000000   0.0000000), wk =   0.0555556
        k(    2) = (   0.0000000   0.0275898   0.0000000), wk =   0.1111111
        k(    3) = (   0.0000000   0.0551797   0.0000000), wk =   0.1111111
        k(    4) = (   0.0000000  -0.0827695   0.0000000), wk =   0.0555556
        k(    5) = (   0.0238935   0.0137949   0.0000000), wk =   0.1111111
        k(    6) = (   0.0238935   0.0413848   0.0000000), wk =   0.1111111
        k(    7) = (   0.0238935   0.0689746   0.0000000), wk =   0.1111111
        k(    8) = (   0.0238935  -0.0689746   0.0000000), wk =   0.1111111
        k(    9) = (   0.0238935  -0.0413848   0.0000000), wk =   0.1111111
        k(   10) = (   0.0238935  -0.0137949   0.0000000), wk =   0.1111111
        k(   11) = (   0.0477870   0.0275898   0.0000000), wk =   0.1111111
        k(   12) = (   0.0477870   0.0551797   0.0000000), wk =   0.1111111
        k(   13) = (   0.0477870   0.0827695   0.0000000), wk =   0.1111111
        k(   14) = (   0.0477870  -0.0551797   0.0000000), wk =   0.1111111
        k(   15) = (   0.0477870  -0.0275898   0.0000000), wk =   0.1111111
        k(   16) = (   0.0477870   0.0000000   0.0000000), wk =   0.1111111
        k(   17) = (  -0.0716805  -0.0413848   0.0000000), wk =   0.0555556
        k(   18) = (  -0.0716805  -0.0137949   0.0000000), wk =   0.1111111
        k(   19) = (  -0.0716805   0.0137949   0.0000000), wk =   0.1111111
        k(   20) = (  -0.0716805  -0.1241543   0.0000000), wk =   0.0555556

     Largest allocated arrays     est. size (Mb)     dimensions
     Largest temporary arrays     est. size (Mb)     dimensions

     Check: negative/imaginary core charge=   -0.000001    0.000000

     Initial potential from superposition of free atoms
     Check: negative starting charge=   -0.149205

     starting charge  158.96543, renormalised to  159.00000

[...]

     *
     * You are using vdW-DF for exchange-correlation in this calculation.
     * Please cite the following three references that made this development
     * possible:
     *
     *   M. Dion, H. Rydberg, E. Schroder, D. C. Langreth, and
     *   B. I. Lundqvist, Phys. Rev. Lett. 92, 246401 (2004).
     *
     *   T. Thonhauser, V. R. Cooper, S. Li, A. Puzder, P. Hyldgaard, and
     *   D. C. Langreth, Phys. Rev. B 76, 125112 (2007).
     *
     *   G. Roman-Perez and J. M. Soler, Phys. Rev. Lett. 103, 096102 (2009).
     *
     *
     * If you are using vdW-DF2, please also cite:
     *
     *   K. Lee, E. D. Murray, L. Kong, B. I. Lundqvist, and
     *   D. C. Langreth, Phys. Rev. B 82, 081101(R) (2010).
     *
     *
     * If you are calculating the stress with vdW-DF, please also cite:
     *
     *   R. Sabatini, E. Kucukbenli, B. Kolb, T. Thonhauser, and
     *   S. de Gironcoli, J. Phys.: Condens. Matter 24, 424209 (2012).
     *

     Carrying out vdW-DF run using the following parameters:

     Nqs =      20    Nr_points =    1024   r_max =   100.000
     q_mesh =
               0.00001000     0.04494208     0.09755937     0.15916263
               0.23128650     0.31572767     0.41458969     0.53033537
               0.66584808     0.82450364     1.01025438     1.22772762
               1.48234092     1.78043706     2.12944203     2.53805004
               3.01644009     3.57652955     4.23227104     5.00000000

     Gradients computed in reciprocal space

[...]

     Starting wfc are  120 randomized atomic wfcs

     Self-consistent Calculation

[...]

     Threshold (ethr) on eigenvalues was too large:
     Diagonalizing with lowered threshold

     Davidson diagonalization with overlap
     ethr =  2.54E-04,  avg # of iterations =  7.5

[...]

     total energy              =   -1775.47309561 Ry
     Harris-Foulkes estimate   =   -1775.47300220 Ry
     estimated scf accuracy    <       0.00000191 Ry

     iteration # 14     ecut=    36.75 Ry     beta=0.10
     Davidson diagonalization with overlap
     ethr =  1.20E-09,  avg # of iterations =  3.0

[...]

     negative rho (up, down):  1.634E-01 0.000E+00

     Adding external electric field

     Computed dipole along edir(3) :
        Dipole               -0.0555 Ry au,         -0.1411 Debye
        Dipole field         -0.0001 Ry au

        Potential amp.        0.0090 Ry
        Total length         47.3433 bohr

     End of self-consistent calculation

[...]

          k = 0.0478 0.0000 0.0000 ( 27521 PWs)   bands (ev):

[...]

          k =-0.0717-0.1242 0.0000 ( 27478 PWs)   bands (ev):

   -43.0617 -42.7684 -42.5110 -23.0553 -22.9085 -22.9065 -22.7607 -22.6568
   -22.6551 -22.4582 -22.4559 -22.3903 -16.1509 -16.1080 -16.1024 -16.0924
   -16.0816 -16.0728 -16.0555 -16.0462 -16.0429 -16.0403 -16.0209 -16.0171
   -16.0071 -16.0006 -15.9968 -15.9932 -15.9894 -15.9840 -15.9826 -15.9785
   -15.9730 -15.9672 -15.9588 -15.9567 -15.9510 -15.9505 -15.9485 -15.9421
   -15.9381 -15.9359 -15.9322 -15.9306 -15.9227 -15.9211 -15.9187 -15.9101
   -15.9067 -15.9028 -15.8992 -15.8831 -15.8737 -15.8583 -15.8345 -15.8203
   -15.8104  -8.6546  -8.3984  -7.7457  -7.3887  -6.9659  -6.9493  -6.6234
    -6.2668  -5.6335  -2.3552  -1.9072  -1.2893  -0.5709  -0.3739  -0.3609
    -0.1955  -0.1163   0.1574   0.5409   0.5414   0.6628   0.9750   1.2575
     1.3809   1.5179   1.5668   1.7032   1.8810   2.1493   2.4916   2.7244
     2.7866   2.8781   2.9604   3.0522   3.1147   3.2221   3.4548   3.7299
     3.7967   3.8934   3.9251   4.2659   4.9039   4.9070   4.9456   5.1375
     5.3272   5.3794   5.5744   5.5925   5.8220

     the Fermi energy is     1.1722 ev

!    total energy              =   -1775.47325579 Ry
     Harris-Foulkes estimate   =   -1775.47309645 Ry
     estimated scf accuracy    <       0.00000042 Ry

     The total energy is the sum of the following terms:

     one-electron contribution =   -8251.67532430 Ry
     hartree contribution      =    4176.13696958 Ry
     xc contribution           =    -672.54650238 Ry
     ewald contribution        =    2972.65132507 Ry
     electric field correction =       0.00000530 Ry
     smearing contrib. (-TS)   =      -0.03972906 Ry

     convergence has been achieved in  14 iterations

 BEEF-vdW xc energy contributions
           1 :   -598.042067776765
           2 :    553.394897879557
           3 :   -474.990145696374
           4 :    380.228758358800
           5 :   -286.777335968136
           6 :    207.322402777319
           7 :   -147.157922018301
           8 :    104.890018457691
           9 :   -75.2708894590941
          10 :    52.5636052974202
          11 :   -32.9953041567651
          12 :    15.5430435885378
          13 :   -1.17992658703088
          14 :   -8.65105268574882
          15 :    13.4088687143911
          16 :   -14.0443497430676
          17 :    12.6645600596908
          18 :   -11.5677993355827
          19 :    12.1892088719999
          20 :   -14.5050120030817
          21 :    17.2005488301008
          22 :   -18.5093736606249
          23 :    17.2606070806150
          24 :   -13.5584224730771
          25 :    8.73201681408364
          26 :   -4.61617198779868
          27 :    2.59203332976995
          28 :   -2.93043349107415
          29 :    4.77495100172382
          30 :   -6.71917792511852
          31 :   -48.9018884904497
          32 :   -35.5197577049435

     Forces acting on atoms (Ry/au):

     negative rho (up, down):  1.634E-01 0.000E+00
     atom    1 type  1   force =    -0.00000024    0.00337897   -0.00970183
     atom    2 type  1   force =     0.00291094   -0.00166362   -0.00980219
     atom    3 type  1   force =    -0.00290767   -0.00165853   -0.00979511
     atom    4 type  2   force =    -0.00000074    0.00000772    0.04203086
     atom    5 type  1   force =    -0.00000005   -0.00823584   -0.00596200
     atom    6 type  1   force =    -0.00714683    0.00412494   -0.00590638
     atom    7 type  1   force =     0.00714205    0.00412402   -0.00590911
     atom    8 type  2   force =    -0.00000096    0.00001183    0.00169129
     atom    9 type  1   force =     0.00000073   -0.00037117    0.00099164
     atom   10 type  1   force =    -0.00031085    0.00014517    0.00095529
     atom   11 type  1   force =     0.00031441    0.00014720    0.00095768
     atom   12 type  2   force =    -0.00000077   -0.00001070    0.00044986

     Total force =     0.049012     Total SCF correction =     0.002950

     entering subroutine stress ...

     negative rho (up, down):  1.634E-01 0.000E+00
          total   stress  (Ry/bohr**3)                   (kbar)     P=   -6.94
  -0.00006792   0.00000000  -0.00000000         -9.99      0.00     -0.00
   0.00000000  -0.00006791   0.00000001          0.00     -9.99      0.00
  -0.00000000   0.00000001  -0.00000571         -0.00      0.00     -0.84

 !ASE

     Writing output data file calc.save

     General routines

     Parallel routines

   This run was terminated on:  17:51:32  27Dec2018

   JOB DONE.
Job  /afs/slac/g/suncat/bin/suncat-tsmpirun -x LD_LIBRARY_PATH -wdir /scratch/qe110426_C2QOD pw.x -in pw.inp

TID   HOST_NAME   COMMAND_LINE            STATUS            TERMINATION_TIME
00000 suncat0046 pw.x -in pw.inp   Done                     12/27/2018 17:51:32
00001 suncat0046 pw.x -in pw.inp   Done                     12/27/2018 17:51:32
00002 suncat0046 pw.x -in pw.inp   Done                     12/27/2018 17:51:32
00003 suncat0046 pw.x -in pw.inp   Done                     12/27/2018 17:51:32
00004 suncat0046 pw.x -in pw.inp   Done                     12/27/2018 17:51:32
00005 suncat0046 pw.x -in pw.inp   Done                     12/27/2018 17:51:32
00006 suncat0046 pw.x -in pw.inp   Done                     12/27/2018 17:51:32
00007 suncat0046 pw.x -in pw.inp   Done                     12/27/2018 17:51:32
00008 suncat0014 pw.x -in pw.inp   Done                     12/27/2018 17:51:32
00009 suncat0014 pw.x -in pw.inp   Done                     12/27/2018 17:51:32
00010 suncat0014 pw.x -in pw.inp   Done                     12/27/2018 17:51:32
00011 suncat0014 pw.x -in pw.inp   Done                     12/27/2018 17:51:32
00012 suncat0014 pw.x -in pw.inp   Done                     12/27/2018 17:51:32
00013 suncat0014 pw.x -in pw.inp   Done                     12/27/2018 17:51:32
00014 suncat0014 pw.x -in pw.inp   Done                     12/27/2018 17:51:32
00015 suncat0014 pw.x -in pw.inp   Done                     12/27/2018 17:51:32
00016 suncat0198 pw.x -in pw.inp   Done                     12/27/2018 17:51:32
00017 suncat0198 pw.x -in pw.inp   Done                     12/27/2018 17:51:32
00018 suncat0198 pw.x -in pw.inp   Done                     12/27/2018 17:51:32
00019 suncat0198 pw.x -in pw.inp   Done                     12/27/2018 17:51:32
00020 suncat0198 pw.x -in pw.inp   Done                     12/27/2018 17:51:32
00021 suncat0198 pw.x -in pw.inp   Done                     12/27/2018 17:51:32
00022 suncat0198 pw.x -in pw.inp   Done                     12/27/2018 17:51:32
00023 suncat0198 pw.x -in pw.inp   Done                     12/27/2018 17:51:32
00024 suncat0193 pw.x -in pw.inp   Done                     12/27/2018 17:51:32
00025 suncat0193 pw.x -in pw.inp   Done                     12/27/2018 17:51:32
00026 suncat0193 pw.x -in pw.inp   Done                     12/27/2018 17:51:32
00027 suncat0193 pw.x -in pw.inp   Done                     12/27/2018 17:51:32
00028 suncat0193 pw.x -in pw.inp   Done                     12/27/2018 17:51:32
00029 suncat0193 pw.x -in pw.inp   Done                     12/27/2018 17:51:32
00030 suncat0193 pw.x -in pw.inp   Done                     12/27/2018 17:51:32
00031 suncat0193 pw.x -in pw.inp   Done                     12/27/2018 17:51:32
00032 suncat0192 pw.x -in pw.inp   Done                     12/27/2018 17:51:32
00033 suncat0192 pw.x -in pw.inp   Done                     12/27/2018 17:51:32
00034 suncat0192 pw.x -in pw.inp   Done                     12/27/2018 17:51:32
00035 suncat0192 pw.x -in pw.inp   Done                     12/27/2018 17:51:32
00036 suncat0192 pw.x -in pw.inp   Done                     12/27/2018 17:51:32
00037 suncat0192 pw.x -in pw.inp   Done                     12/27/2018 17:51:32
00038 suncat0192 pw.x -in pw.inp   Done                     12/27/2018 17:51:32
00039 suncat0192 pw.x -in pw.inp   Done                     12/27/2018 17:51:32
00040 suncat0155 pw.x -in pw.inp   Done                     12/27/2018 17:51:32
00041 suncat0155 pw.x -in pw.inp   Done                     12/27/2018 17:51:32
00042 suncat0155 pw.x -in pw.inp   Done                     12/27/2018 17:51:32
00043 suncat0155 pw.x -in pw.inp   Done                     12/27/2018 17:51:32
00044 suncat0155 pw.x -in pw.inp   Done                     12/27/2018 17:51:32
00045 suncat0155 pw.x -in pw.inp   Done                     12/27/2018 17:51:32
00046 suncat0155 pw.x -in pw.inp   Done                     12/27/2018 17:51:32
00047 suncat0155 pw.x -in pw.inp   Done                     12/27/2018 17:51:32
00048 suncat0141 pw.x -in pw.inp   Done                     12/27/2018 17:51:32
00049 suncat0141 pw.x -in pw.inp   Done                     12/27/2018 17:51:32
00050 suncat0141 pw.x -in pw.inp   Done                     12/27/2018 17:51:32
00051 suncat0141 pw.x -in pw.inp   Done                     12/27/2018 17:51:32
00052 suncat0141 pw.x -in pw.inp   Done                     12/27/2018 17:51:32
00053 suncat0141 pw.x -in pw.inp   Done                     12/27/2018 17:51:32
00054 suncat0141 pw.x -in pw.inp   Done                     12/27/2018 17:51:32
00055 suncat0141 pw.x -in pw.inp   Done                     12/27/2018 17:51:32
00056 suncat0140 pw.x -in pw.inp   Done                     12/27/2018 17:51:32
00057 suncat0140 pw.x -in pw.inp   Done                     12/27/2018 17:51:32
00058 suncat0140 pw.x -in pw.inp   Done                     12/27/2018 17:51:32
00059 suncat0140 pw.x -in pw.inp   Done                     12/27/2018 17:51:32
00060 suncat0140 pw.x -in pw.inp   Done                     12/27/2018 17:51:32
00061 suncat0140 pw.x -in pw.inp   Done                     12/27/2018 17:51:32
00062 suncat0140 pw.x -in pw.inp   Done                     12/27/2018 17:51:32
00063 suncat0140 pw.x -in pw.inp   Done                     12/27/2018 17:51:32