     Program PWSCF v.5.1rc2 (svn rev. 11289) starts on  2Jan2019 at 10:39:22

     Current dimensions of program PWSCF are:
     Max number of different atomic species (ntypx) = 10
     Max number of k-points (npk) =  40000
     Max angular momentum in pseudopotentials (lmaxx) =  3
     Presently stress not available with electric field

     IMPORTANT: XC functional enforced from input :
     Exchange-correlation      = BEEF-VDW ( 1  4 27 13 2)
     Any further DFT definition will be discarded
     Please, verify this is what you really want

     Subspace diagonalization in iterative solution of the eigenvalue problem:
     a serial algorithm will be used

     bravais-lattice index     =            0
     lattice parameter (alat)  =       1.8897  a.u.
     unit-cell volume          =    6806.3125 (a.u.)^3
     number of atoms/cell      =           12
     number of atomic types    =            2
     number of electrons       =       108.00
     number of Kohn-Sham states=           84
     kinetic-energy cutoff     =      36.7493  Ry
     charge density cutoff     =     367.4932  Ry
     convergence threshold     =      1.0E-06
     mixing beta               =       0.1000
     number of iterations used =           10  plain     mixing
     Exchange-correlation      = BEEF-VDW ( 1  4 27 13 2)
     nstep                     =           50

     celldm(1)=   1.889726  celldm(2)=   0.000000  celldm(3)=   0.000000
     celldm(4)=   0.000000  celldm(5)=   0.000000  celldm(6)=   0.000000

     crystal axes: (cart. coord. in units of alat)
               a(1) = (   6.755919   0.000000   0.000000 )
               a(2) = (  -3.377960   5.850798   0.000000 )
               a(3) = (   0.000000   0.000000  25.516185 )

     reciprocal axes: (cart. coord. in units 2 pi/alat)
               b(1) = (  0.148018  0.085458  0.000000 )
               b(2) = (  0.000000  0.170917  0.000000 )
               b(3) = (  0.000000  0.000000  0.039191 )

     PseudoPot. # 1 for Y  read from file:
     /afs/slac.stanford.edu/u/if/mamunm/psp/gbrv1.5pbe/Y.UPF
     MD5 check sum: d034151ed7554c50b6e82763ed42c788
     Pseudo is Ultrasoft + core correction, Zval = 11.0
     Generated by new atomic code, or converted to UPF format
     Using radial grid of  885 points,  6 beta functions with:
                l(1) =   0
                l(2) =   0
                l(3) =   1
                l(4) =   1
                l(5) =   2
                l(6) =   2
     Q(r) pseudized with  8 coefficients,  rinner =    1.200   1.200   1.200
                                                       1.200   1.200

     PseudoPot. # 2 for Al read from file:
     /afs/slac.stanford.edu/u/if/mamunm/psp/gbrv1.5pbe/Al.UPF
     MD5 check sum: 0a6289f5291fc8f409219462bc851e1f
     Pseudo is Ultrasoft + core correction, Zval =  3.0
     Generated by new atomic code, or converted to UPF format
     Using radial grid of  893 points,  3 beta functions with:
                l(1) =   0
                l(2) =   1
                l(3) =   2
     Q(r) pseudized with  8 coefficients,  rinner =    0.900   0.900   0.900
                                                       0.900   0.900

     vdW kernel table read from file vdW_kernel_table
     MD5 check sum: 095c7af220d748ca6e76c0b4c6cfb241

     atomic species   valence    mass     pseudopotential
        Y1            11.00    88.90584     Y ( 1.00)
        Al1            3.00    26.98154     Al( 1.00)

     No symmetry found

   Cartesian axes

     site n.     atom                  positions (alat units)
         1           Y1  tau(   1) = (   0.0000000   0.0000000  10.0000000  )
         2           Y1  tau(   2) = (  -1.6889798   2.9253989  10.0000000  )
         3           Y1  tau(   3) = (   1.6889798   2.9253989  10.0000000  )
         4           Al1 tau(   4) = (   3.3779597   0.0000000  10.0000000  )
         5           Y1  tau(   5) = (   3.3779597   1.9502659  12.7580925  )
         6           Y1  tau(   6) = (   1.6889798   4.8756648  12.7580925  )
         7           Y1  tau(   7) = (  -1.6889798   4.8756648  12.7580925  )
         8           Al1 tau(   8) = (   0.0000000   1.9502659  12.7580925  )
         9           Y1  tau(   9) = (  -0.0000000   3.9005318  15.5161850  )
        10           Y1  tau(  10) = (   1.6889798   0.9751330  15.5161850  )
        11           Y1  tau(  11) = (   5.0669395   0.9751330  15.5161850  )
        12           Al1 tau(  12) = (   3.3779597   3.9005318  15.5161850  )

     number of k points=    20  Fermi-Dirac smearing, width (Ry)=  0.0110
                       cart. coord. in units 2pi/alat
        k(    1) = (   0.0000000   0.0000000   0.0000000), wk =   0.0555556
        k(    2) = (   0.0000000   0.0284861   0.0000000), wk =   0.1111111
        k(    3) = (   0.0000000   0.0569723   0.0000000), wk =   0.1111111
        k(    4) = (   0.0000000  -0.0854584   0.0000000), wk =   0.0555556
        k(    5) = (   0.0246697   0.0142431   0.0000000), wk =   0.1111111
        k(    6) = (   0.0246697   0.0427292   0.0000000), wk =   0.1111111
        k(    7) = (   0.0246697   0.0712154   0.0000000), wk =   0.1111111
        k(    8) = (   0.0246697  -0.0712154   0.0000000), wk =   0.1111111
        k(    9) = (   0.0246697  -0.0427292   0.0000000), wk =   0.1111111
        k(   10) = (   0.0246697  -0.0142431   0.0000000), wk =   0.1111111
        k(   11) = (   0.0493394   0.0284861   0.0000000), wk =   0.1111111
        k(   12) = (   0.0493394   0.0569723   0.0000000), wk =   0.1111111
        k(   13) = (   0.0493394   0.0854584   0.0000000), wk =   0.1111111
        k(   14) = (   0.0493394  -0.0569723   0.0000000), wk =   0.1111111
        k(   15) = (   0.0493394  -0.0284861   0.0000000), wk =   0.1111111
        k(   16) = (   0.0493394   0.0000000   0.0000000), wk =   0.1111111
        k(   17) = (  -0.0740092  -0.0427292   0.0000000), wk =   0.0555556
        k(   18) = (  -0.0740092  -0.0142431   0.0000000), wk =   0.1111111
        k(   19) = (  -0.0740092   0.0142431   0.0000000), wk =   0.1111111
        k(   20) = (  -0.0740092  -0.1281876   0.0000000), wk =   0.0555556

     Largest allocated arrays     est. size (Mb)     dimensions
     Largest temporary arrays     est. size (Mb)     dimensions

     Initial potential from superposition of free atoms
     Check: negative starting charge=   -0.000496

     starting charge  107.95238, renormalised to  108.00000

     negative rho (up, down):  4.958E-04 0.000E+00

     *
     * You are using vdW-DF for exchange-correlation in this calculation.
     * Please cite the following three references that made this development
     * possible:
     *
     *   M. Dion, H. Rydberg, E. Schroder, D. C. Langreth, and
     *   B. I. Lundqvist, Phys. Rev. Lett. 92, 246401 (2004).
     *
     *   T. Thonhauser, V. R. Cooper, S. Li, A. Puzder, P. Hyldgaard, and
     *   D. C. Langreth, Phys. Rev. B 76, 125112 (2007).
     *
     *   G. Roman-Perez and J. M. Soler, Phys. Rev. Lett. 103, 096102 (2009).
     *
     *
     * If you are using vdW-DF2, please also cite:
     *
     *   K. Lee, E. D. Murray, L. Kong, B. I. Lundqvist, and
     *   D. C. Langreth, Phys. Rev. B 82, 081101(R) (2010).
     *
     *
     * If you are calculating the stress with vdW-DF, please also cite:
     *
     *   R. Sabatini, E. Kucukbenli, B. Kolb, T. Thonhauser, and
     *   S. de Gironcoli, J. Phys.: Condens. Matter 24, 424209 (2012).
     *

     Carrying out vdW-DF run using the following parameters:

     Nqs =      20    Nr_points =    1024   r_max =   100.000
     q_mesh =
               0.00001000     0.04494208     0.09755937     0.15916263
               0.23128650     0.31572767     0.41458969     0.53033537
               0.66584808     0.82450364     1.01025438     1.22772762
               1.48234092     1.78043706     2.12944203     2.53805004
               3.01644009     3.57652955     4.23227104     5.00000000

     Gradients computed in reciprocal space

     Adding external electric field

     Computed dipole along edir(3) :
        Dipole                0.0000 Ry au,          0.0000 Debye
        Dipole field          0.0000 Ry au

        Potential amp.       -0.0000 Ry
        Total length         47.0131 bohr

     Starting wfc are  129 randomized atomic wfcs

     Self-consistent Calculation

     iteration #  1     ecut=    36.75 Ry     beta=0.10
     Davidson diagonalization with overlap
     ethr =  1.00E-02,  avg # of iterations =  2.0

[...]

     total energy              =    -863.64456027 Ry
     Harris-Foulkes estimate   =    -864.26338980 Ry
     estimated scf accuracy    <       3.53644658 Ry

[...]

     End of self-consistent calculation

          k = 0.0000 0.0000 0.0000 ( 25653 PWs)   bands (ev):

   -42.5520 -42.5503 -42.4869 -42.4868 -42.4865 -42.4864 -42.0284 -41.9642
   -41.9641 -22.8196 -22.7906 -22.6684 -22.6220 -22.6219 -22.5902 -22.5848
   -22.5848 -22.5606 -22.5605 -22.5071 -22.5070 -22.3421 -22.2785 -22.2686
   -22.1638 -22.1638 -22.1515 -22.1515 -22.0592 -22.0591 -21.9485 -21.8978
   -21.8977 -21.7693 -21.7023 -21.7022  -5.1171  -4.2728  -3.9050  -1.7848
    -1.6509  -1.3984  -0.6433  -0.6433  -0.3841  -0.3841  -0.2643  -0.2397
    -0.2397  -0.0806   0.3164   0.3165   0.4587   0.4588   0.5930   0.7854
     1.0136   1.0137   1.0708   1.1160   1.1160   1.5220   1.7080   1.7080
     1.8226   2.0965   2.1522   2.1522   2.3326   2.7882   3.5168   3.5168
     3.6091   3.6820   3.6821   3.7260   3.7260   3.7318   3.7792   3.7997
     3.7997   3.9085   3.9445   3.9874

[...]

          k =-0.0740-0.0427 0.0000 ( 25614 PWs)   bands (ev):

[...]

     the Fermi energy is     0.6975 ev

!    total energy              =    -863.91364911 Ry
     Harris-Foulkes estimate   =    -863.91364475 Ry
     estimated scf accuracy    <       0.00000099 Ry

     The total energy is the sum of the following terms:

     one-electron contribution =   -4142.45287361 Ry
     hartree contribution      =    2066.76841900 Ry
     xc contribution           =    -267.56400525 Ry
     ewald contribution        =    1479.42771000 Ry
     electric field correction =       0.00000000 Ry
     smearing contrib. (-TS)   =      -0.09289925 Ry

     convergence has been achieved in  15 iterations

 BEEF-vdW xc energy contributions
           1 :   -232.795527959539
           2 :    208.763328572853
           3 :   -167.557640004920
           4 :    119.522947522180
           5 :   -74.1082906423287
           6 :    37.0193205236579
           7 :   -9.96516644842913
           8 :   -7.76433421094785
           9 :    17.4837854250486
          10 :   -20.2341822511593
          11 :    16.9831514738574
          12 :   -9.27096086712280
          13 :  -0.477617537860027
          14 :    9.35106938327408
          15 :   -14.8566675245773
          16 :    15.7644982001356
          17 :   -12.3918945470344
          18 :    6.22925062623344
          19 :   0.786534560371848
          20 :   -6.93785961980538
          21 :    11.0936226155424
          22 :   -12.7819803332357
          23 :    12.0881894377102
          24 :   -9.49373113845016
          25 :    5.72428994665503
[...]
               a(2) = (  -3.377960   5.850798   0.000000 )
               a(3) = (   0.000000   0.000000  25.516185 )

     reciprocal axes: (cart. coord. in units 2 pi/alat)
               b(1) = (  0.148018  0.085458  0.000000 )
               b(2) = (  0.000000  0.170917  0.000000 )
               b(3) = (  0.000000  0.000000  0.039191 )

     PseudoPot. # 1 for Y  read from file:
     /afs/slac.stanford.edu/u/if/mamunm/psp/gbrv1.5pbe/Y.UPF
     MD5 check sum: d034151ed7554c50b6e82763ed42c788
     Pseudo is Ultrasoft + core correction, Zval = 11.0
     Generated by new atomic code, or converted to UPF format
     Using radial grid of  885 points,  6 beta functions with:
                l(1) =   0
                l(2) =   0
                l(3) =   1
                l(4) =   1
                l(5) =   2
                l(6) =   2
     Q(r) pseudized with  8 coefficients,  rinner =    1.200   1.200   1.200
                                                       1.200   1.200

     PseudoPot. # 2 for Al read from file:
     /afs/slac.stanford.edu/u/if/mamunm/psp/gbrv1.5pbe/Al.UPF
     MD5 check sum: 0a6289f5291fc8f409219462bc851e1f
     Pseudo is Ultrasoft + core correction, Zval =  3.0
     Generated by new atomic code, or converted to UPF format
     Using radial grid of  893 points,  3 beta functions with:
                l(1) =   0
                l(2) =   1
                l(3) =   2
     Q(r) pseudized with  8 coefficients,  rinner =    0.900   0.900   0.900
                                                       0.900   0.900

     vdW kernel table read from file vdW_kernel_table
     MD5 check sum: 095c7af220d748ca6e76c0b4c6cfb241

     atomic species   valence    mass     pseudopotential
        Y1            11.00    88.90584     Y ( 1.00)
        Al1            3.00    26.98154     Al( 1.00)

     No symmetry found

   Cartesian axes

     site n.     atom                  positions (alat units)
         1           Y1  tau(   1) = (   0.0000000   0.0000000  10.0000000  )
         2           Y1  tau(   2) = (  -1.6889798   2.9253989  10.0000000  )
         3           Y1  tau(   3) = (   1.6889798   2.9253989  10.0000000  )
         4           Al1 tau(   4) = (   3.3779597   0.0000000  10.0000000  )
         5           Y1  tau(   5) = (   3.3779597   1.9502659  12.7580925  )
         6           Y1  tau(   6) = (   1.6889798   4.8756648  12.7580925  )
         7           Y1  tau(   7) = (  -1.6889798   4.8756648  12.7580925  )
         8           Al1 tau(   8) = (   0.0000000   1.9502659  12.7580925  )
         9           Y1  tau(   9) = (   0.0000108   3.8598432  15.5594278  )
        10           Y1  tau(  10) = (   1.6537374   0.9955272  15.5593561  )
        11           Y1  tau(  11) = (   5.1021630   0.9955064  15.5593912  )
        12           Al1 tau(  12) = (   3.3779591   3.9005251  15.2717168  )

     number of k points=    20  Fermi-Dirac smearing, width (Ry)=  0.0110
                       cart. coord. in units 2pi/alat
        k(    1) = (   0.0000000   0.0000000   0.0000000), wk =   0.0555556
        k(    2) = (   0.0000000   0.0284861   0.0000000), wk =   0.1111111
        k(    3) = (   0.0000000   0.0569723   0.0000000), wk =   0.1111111
        k(    4) = (   0.0000000  -0.0854584   0.0000000), wk =   0.0555556
        k(    5) = (   0.0246697   0.0142431   0.0000000), wk =   0.1111111
        k(    6) = (   0.0246697   0.0427292   0.0000000), wk =   0.1111111
        k(    7) = (   0.0246697   0.0712154   0.0000000), wk =   0.1111111
        k(    8) = (   0.0246697  -0.0712154   0.0000000), wk =   0.1111111
        k(    9) = (   0.0246697  -0.0427292   0.0000000), wk =   0.1111111
        k(   10) = (   0.0246697  -0.0142431   0.0000000), wk =   0.1111111
        k(   11) = (   0.0493394   0.0284861   0.0000000), wk =   0.1111111
        k(   12) = (   0.0493394   0.0569723   0.0000000), wk =   0.1111111
        k(   13) = (   0.0493394   0.0854584   0.0000000), wk =   0.1111111
        k(   14) = (   0.0493394  -0.0569723   0.0000000), wk =   0.1111111
        k(   15) = (   0.0493394  -0.0284861   0.0000000), wk =   0.1111111
        k(   16) = (   0.0493394   0.0000000   0.0000000), wk =   0.1111111
        k(   17) = (  -0.0740092  -0.0427292   0.0000000), wk =   0.0555556
        k(   18) = (  -0.0740092  -0.0142431   0.0000000), wk =   0.1111111
        k(   19) = (  -0.0740092   0.0142431   0.0000000), wk =   0.1111111
        k(   20) = (  -0.0740092  -0.1281876   0.0000000), wk =   0.0555556

     Largest allocated arrays     est. size (Mb)     dimensions
     Largest temporary arrays     est. size (Mb)     dimensions

     Initial potential from superposition of free atoms
     Check: negative starting charge=   -0.000490

     starting charge  107.95238, renormalised to  108.00000

[...]

     *
     * You are using vdW-DF for exchange-correlation in this calculation.
     * Please cite the following three references that made this development
     * possible:
     *
     *   M. Dion, H. Rydberg, E. Schroder, D. C. Langreth, and
     *   B. I. Lundqvist, Phys. Rev. Lett. 92, 246401 (2004).
     *
     *   T. Thonhauser, V. R. Cooper, S. Li, A. Puzder, P. Hyldgaard, and
     *   D. C. Langreth, Phys. Rev. B 76, 125112 (2007).
     *
     *   G. Roman-Perez and J. M. Soler, Phys. Rev. Lett. 103, 096102 (2009).
     *
     *
     * If you are using vdW-DF2, please also cite:
     *
     *   K. Lee, E. D. Murray, L. Kong, B. I. Lundqvist, and
     *   D. C. Langreth, Phys. Rev. B 82, 081101(R) (2010).
     *
     *
     * If you are calculating the stress with vdW-DF, please also cite:
     *
     *   R. Sabatini, E. Kucukbenli, B. Kolb, T. Thonhauser, and
     *   S. de Gironcoli, J. Phys.: Condens. Matter 24, 424209 (2012).
     *

     Carrying out vdW-DF run using the following parameters:

     Nqs =      20    Nr_points =    1024   r_max =   100.000
     q_mesh =
               0.00001000     0.04494208     0.09755937     0.15916263
               0.23128650     0.31572767     0.41458969     0.53033537
               0.66584808     0.82450364     1.01025438     1.22772762
               1.48234092     1.78043706     2.12944203     2.53805004
               3.01644009     3.57652955     4.23227104     5.00000000

     Gradients computed in reciprocal space

[...]

     Starting wfc are  129 randomized atomic wfcs

     Self-consistent Calculation

[...]

     total energy              =    -863.92248628 Ry
     Harris-Foulkes estimate   =    -863.92248596 Ry
     estimated scf accuracy    <       0.00000199 Ry

     iteration # 16     ecut=    36.75 Ry     beta=0.10
     Davidson diagonalization with overlap
     ethr =  1.85E-09,  avg # of iterations =  2.6

[...]

     negative rho (up, down):  1.279E-04 0.000E+00

     Adding external electric field

     Computed dipole along edir(3) :
        Dipole                0.0513 Ry au,          0.1305 Debye
        Dipole field          0.0001 Ry au

        Potential amp.       -0.0089 Ry
        Total length         47.0131 bohr

     End of self-consistent calculation

[...]

          k = 0.0493 0.0000 0.0000 ( 25590 PWs)   bands (ev):

[...]

          k =-0.0740-0.1282 0.0000 ( 25614 PWs)   bands (ev):

   -42.5333 -42.5069 -42.4915 -42.4870 -42.4701 -42.4484 -41.9538 -41.9323
   -41.9106 -22.6763 -22.6386 -22.5953 -22.5811 -22.5531 -22.5268 -22.5130
   -22.4968 -22.4914 -22.4620 -22.4319 -22.4136 -22.3917 -22.3884 -22.3806
   -22.3697 -22.1657 -22.1470 -22.1386 -21.9308 -21.9139 -21.8788 -21.8733
   -21.8706 -21.8650 -21.8426 -21.6677  -4.2215  -4.0853  -3.6630  -2.2612
    -1.7076  -1.4611  -1.3242  -0.6281  -0.4861  -0.4023  -0.2593  -0.1277
    -0.0671   0.0498   0.3922   0.5013   0.5929   0.7575   0.8146   1.1207
     1.1522   1.2346   1.2387   1.3686   1.3971   1.4265   1.4462   1.8716
     1.9360   2.0755   2.1432   2.3614   2.5101   2.5416   2.8927   3.1037
     3.1642   3.1980   3.5176   3.5423   3.5485   3.5964   3.6520   3.7492
     3.7873   3.8166   3.8731   4.0946

     the Fermi energy is     0.7384 ev

!    total energy              =    -863.92248729 Ry
     Harris-Foulkes estimate   =    -863.92248668 Ry
     estimated scf accuracy    <       0.00000045 Ry

     The total energy is the sum of the following terms:

     one-electron contribution =   -4131.09537985 Ry
     hartree contribution      =    2061.21875336 Ry
     xc contribution           =    -267.57514773 Ry
     ewald contribution        =    1473.61954181 Ry
     electric field correction =       0.00000486 Ry
     smearing contrib. (-TS)   =      -0.09025974 Ry

     convergence has been achieved in  16 iterations

 BEEF-vdW xc energy contributions
           1 :   -232.805511794816
           2 :    208.775465331372
           3 :   -167.574064724523
           4 :    119.544702262862
           5 :   -74.1326967062907
           6 :    37.0392537515314
           7 :   -9.97294309923913
           8 :   -7.77247841201628
           9 :    17.5075875831371
          10 :   -20.2723148543007
          11 :    17.0347448705649
          12 :   -9.33409019442215
          13 :  -0.406769355414070
          14 :    9.27530310832711
          15 :   -14.7747848670802
          16 :    15.6732052010902
          17 :   -12.2916800182595
          18 :    6.12791937959199
          19 :   0.877777030670444
          20 :   -7.01322110472469
          21 :    11.1578270774188
          22 :   -12.8460881227195
          23 :    12.1595861667564
          24 :   -9.56946752455335
          25 :    5.79331681914644
          26 :   -1.67822370320081
          27 :   -1.91980635654286
          28 :    4.29234053963697
          29 :   -5.05797526166648
          30 :    4.28779494166230
          31 :   -22.8050491407648
          32 :   -15.6819391715810

     Forces acting on atoms (Ry/au):

     negative rho (up, down):  1.279E-04 0.000E+00
     atom    1 type  1   force =    -0.00000286    0.01664990   -0.00860042
     atom    2 type  1   force =     0.01441525   -0.00832772   -0.00859701
     atom    3 type  1   force =    -0.01441127   -0.00832452   -0.00859290
     atom    4 type  2   force =     0.00000072    0.00000052    0.02314240
     atom    5 type  1   force =    -0.00000128   -0.00162176    0.00195189
     atom    6 type  1   force =    -0.00140431    0.00080769    0.00195747
     atom    7 type  1   force =     0.00140539    0.00081170    0.00195889
     atom    8 type  2   force =     0.00000073    0.00000074    0.00080160
     atom    9 type  1   force =    -0.00000149    0.00071055   -0.00128754
     atom   10 type  1   force =     0.00061856   -0.00035268   -0.00128808
     atom   11 type  1   force =    -0.00061909   -0.00035495   -0.00129108
     atom   12 type  2   force =    -0.00000035    0.00000054   -0.00015523

     Total force =     0.040189     Total SCF correction =     0.000813

     entering subroutine stress ...

     negative rho (up, down):  1.279E-04 0.000E+00
          total   stress  (Ry/bohr**3)                   (kbar)     P=   -3.87
  -0.00003823   0.00000000  -0.00000000         -5.62      0.00     -0.00
   0.00000000  -0.00003823   0.00000000          0.00     -5.62      0.00
  -0.00000000   0.00000000  -0.00000253         -0.00      0.00     -0.37

 !ASE

     Writing output data file calc.save

     General routines

     Parallel routines

   This run was terminated on:  12:16: 3   2Jan2019

   JOB DONE.
Job  /afs/slac/g/suncat/bin/suncat-tsmpirun -x LD_LIBRARY_PATH -wdir /scratch/qe649403_Udh0l pw.x -in pw.inp

TID   HOST_NAME   COMMAND_LINE            STATUS            TERMINATION_TIME
00000 suncat0178 pw.x -in pw.inp   Done                     01/02/2019 12:16:03
00001 suncat0178 pw.x -in pw.inp   Done                     01/02/2019 12:16:03
00002 suncat0178 pw.x -in pw.inp   Done                     01/02/2019 12:16:03
00003 suncat0178 pw.x -in pw.inp   Done                     01/02/2019 12:16:03
00004 suncat0178 pw.x -in pw.inp   Done                     01/02/2019 12:16:03
00005 suncat0178 pw.x -in pw.inp   Done                     01/02/2019 12:16:03
00006 suncat0178 pw.x -in pw.inp   Done                     01/02/2019 12:16:03
00007 suncat0178 pw.x -in pw.inp   Done                     01/02/2019 12:16:03
00008 suncat0177 pw.x -in pw.inp   Done                     01/02/2019 12:16:03
00009 suncat0177 pw.x -in pw.inp   Done                     01/02/2019 12:16:03
00010 suncat0177 pw.x -in pw.inp   Done                     01/02/2019 12:16:03
00011 suncat0177 pw.x -in pw.inp   Done                     01/02/2019 12:16:03
00012 suncat0177 pw.x -in pw.inp   Done                     01/02/2019 12:16:03
00013 suncat0177 pw.x -in pw.inp   Done                     01/02/2019 12:16:03
00014 suncat0177 pw.x -in pw.inp   Done                     01/02/2019 12:16:03
00015 suncat0177 pw.x -in pw.inp   Done                     01/02/2019 12:16:03
00016 suncat0113 pw.x -in pw.inp   Done                     01/02/2019 12:16:03
00017 suncat0113 pw.x -in pw.inp   Done                     01/02/2019 12:16:03
00018 suncat0113 pw.x -in pw.inp   Done                     01/02/2019 12:16:03
00019 suncat0113 pw.x -in pw.inp   Done                     01/02/2019 12:16:03
00020 suncat0113 pw.x -in pw.inp   Done                     01/02/2019 12:16:03
00021 suncat0113 pw.x -in pw.inp   Done                     01/02/2019 12:16:03
00022 suncat0113 pw.x -in pw.inp   Done                     01/02/2019 12:16:03
00023 suncat0113 pw.x -in pw.inp   Done                     01/02/2019 12:16:03
00024 suncat0267 pw.x -in pw.inp   Done                     01/02/2019 12:16:03
00025 suncat0267 pw.x -in pw.inp   Done                     01/02/2019 12:16:03
00026 suncat0267 pw.x -in pw.inp   Done                     01/02/2019 12:16:03
00027 suncat0267 pw.x -in pw.inp   Done                     01/02/2019 12:16:03
00028 suncat0267 pw.x -in pw.inp   Done                     01/02/2019 12:16:03
00029 suncat0267 pw.x -in pw.inp   Done                     01/02/2019 12:16:03
00030 suncat0267 pw.x -in pw.inp   Done                     01/02/2019 12:16:03
00031 suncat0267 pw.x -in pw.inp   Done                     01/02/2019 12:16:03
00032 suncat0254 pw.x -in pw.inp   Done                     01/02/2019 12:16:03
00033 suncat0254 pw.x -in pw.inp   Done                     01/02/2019 12:16:03
00034 suncat0254 pw.x -in pw.inp   Done                     01/02/2019 12:16:03
00035 suncat0254 pw.x -in pw.inp   Done                     01/02/2019 12:16:03
00036 suncat0254 pw.x -in pw.inp   Done                     01/02/2019 12:16:03
00037 suncat0254 pw.x -in pw.inp   Done                     01/02/2019 12:16:03
00038 suncat0254 pw.x -in pw.inp   Done                     01/02/2019 12:16:03
00039 suncat0254 pw.x -in pw.inp   Done                     01/02/2019 12:16:03
00040 suncat0253 pw.x -in pw.inp   Done                     01/02/2019 12:16:03
00041 suncat0253 pw.x -in pw.inp   Done                     01/02/2019 12:16:03
00042 suncat0253 pw.x -in pw.inp   Done                     01/02/2019 12:16:03
00043 suncat0253 pw.x -in pw.inp   Done                     01/02/2019 12:16:03
00044 suncat0253 pw.x -in pw.inp   Done                     01/02/2019 12:16:03
00045 suncat0253 pw.x -in pw.inp   Done                     01/02/2019 12:16:03
00046 suncat0253 pw.x -in pw.inp   Done                     01/02/2019 12:16:03
00047 suncat0253 pw.x -in pw.inp   Done                     01/02/2019 12:16:03
00048 suncat0228 pw.x -in pw.inp   Done                     01/02/2019 12:16:03
00049 suncat0228 pw.x -in pw.inp   Done                     01/02/2019 12:16:03
00050 suncat0228 pw.x -in pw.inp   Done                     01/02/2019 12:16:03
00051 suncat0228 pw.x -in pw.inp   Done                     01/02/2019 12:16:03
00052 suncat0228 pw.x -in pw.inp   Done                     01/02/2019 12:16:03
00053 suncat0228 pw.x -in pw.inp   Done                     01/02/2019 12:16:03
00054 suncat0228 pw.x -in pw.inp   Done                     01/02/2019 12:16:03
00055 suncat0228 pw.x -in pw.inp   Done                     01/02/2019 12:16:03
00056 suncat0227 pw.x -in pw.inp   Done                     01/02/2019 12:16:03
00057 suncat0227 pw.x -in pw.inp   Done                     01/02/2019 12:16:03
00058 suncat0227 pw.x -in pw.inp   Done                     01/02/2019 12:16:03
00059 suncat0227 pw.x -in pw.inp   Done                     01/02/2019 12:16:03
00060 suncat0227 pw.x -in pw.inp   Done                     01/02/2019 12:16:03
00061 suncat0227 pw.x -in pw.inp   Done                     01/02/2019 12:16:03
00062 suncat0227 pw.x -in pw.inp   Done                     01/02/2019 12:16:03
00063 suncat0227 pw.x -in pw.inp   Done                     01/02/2019 12:16:03