     Program PWSCF v.5.1rc2 (svn rev. 11289) starts on  2Jan2019 at  7:32: 7

     Current dimensions of program PWSCF are:
     Max number of different atomic species (ntypx) = 10
     Max number of k-points (npk) =  40000
     Max angular momentum in pseudopotentials (lmaxx) =  3
     Presently stress not available with electric field

     IMPORTANT: XC functional enforced from input :
     Exchange-correlation      = BEEF-VDW ( 1  4 27 13 2)
     Any further DFT definition will be discarded
     Please, verify this is what you really want

     Subspace diagonalization in iterative solution of the eigenvalue problem:
     a serial algorithm will be used

     Generating pointlists ...
     new r_m :   0.4125 (alat units)  0.7795 (a.u.) for type    1
     new r_m :   0.4125 (alat units)  0.7795 (a.u.) for type    2

     bravais-lattice index     =            0
     lattice parameter (alat)  =       1.8897  a.u.
     unit-cell volume          =    4412.6082 (a.u.)^3
     number of atoms/cell      =           12
     number of atomic types    =            2
     number of electrons       =       174.00
     number of Kohn-Sham states=          117
     kinetic-energy cutoff     =      36.7493  Ry
     charge density cutoff     =     367.4932  Ry
     convergence threshold     =      1.0E-06
     mixing beta               =       0.1000
     number of iterations used =           10  plain     mixing
     Exchange-correlation      = BEEF-VDW ( 1  4 27 13 2)
     nstep                     =           50

     celldm(1)=   1.889726  celldm(2)=   0.000000  celldm(3)=   0.000000
     celldm(4)=   0.000000  celldm(5)=   0.000000  celldm(6)=   0.000000

     crystal axes: (cart. coord. in units of alat)
               a(1) = (   5.547994   0.000000   0.000000 )
               a(2) = (  -2.773997   4.804704   0.000000 )
               a(3) = (   0.000000   0.000000  24.529918 )

     reciprocal axes: (cart. coord. in units 2 pi/alat)
               b(1) = (  0.180245  0.104065  0.000000 )
               b(2) = (  0.000000  0.208129  0.000000 )
               b(3) = (  0.000000  0.000000  0.040767 )

     PseudoPot. # 1 for W  read from file:
     /afs/slac.stanford.edu/u/if/mamunm/psp/gbrv1.5pbe/W.UPF
     MD5 check sum: 9c083fa34c2a2ea0f02f1f893e16e1c8
     Pseudo is Ultrasoft + core correction, Zval = 14.0
     Generated by new atomic code, or converted to UPF format
     Using radial grid of  923 points,  8 beta functions with:
                l(1) =   0
                l(2) =   0
                l(3) =   0
                l(4) =   1
                l(5) =   1
                l(6) =   2
                l(7) =   2
                l(8) =   3
     Q(r) pseudized with  6 coefficients,  rinner =    1.350   1.350   1.350
                                                       1.350   1.350   1.350
                                                       1.350

     PseudoPot. # 2 for Fe read from file:
     /afs/slac.stanford.edu/u/if/mamunm/psp/gbrv1.5pbe/Fe.UPF
     MD5 check sum: a130daea23fe5165f5d574ae7f82ed95
     Pseudo is Ultrasoft + core correction, Zval = 16.0
     Generated by new atomic code, or converted to UPF format
     Using radial grid of  861 points,  6 beta functions with:
                l(1) =   0
                l(2) =   0
                l(3) =   1
                l(4) =   1
                l(5) =   2
                l(6) =   2
     Q(r) pseudized with  8 coefficients,  rinner =    1.000   1.000   1.000
                                                       1.000   1.000

     vdW kernel table read from file vdW_kernel_table
     MD5 check sum: 095c7af220d748ca6e76c0b4c6cfb241

     atomic species   valence    mass     pseudopotential
        W1            14.00   183.84000     W ( 1.00)
        Fe1           16.00    55.84500     Fe( 1.00)

     Starting magnetic structure
     atomic species   magnetization
        W1           0.143
        Fe1          0.125

     No symmetry found

   Cartesian axes

     site n.     atom                  positions (alat units)
         1           W1  tau(   1) = (   0.0000000   0.0000000  10.0000000  )
         2           W1  tau(   2) = (  -1.3869986   2.4023521  10.0000000  )
         3           W1  tau(   3) = (   1.3869986   2.4023521  10.0000000  )
         4           Fe1 tau(   4) = (   2.7739972   0.0000000  10.0000000  )
         5           W1  tau(   5) = (   2.7739972   1.6015680  12.2649592  )
         6           W1  tau(   6) = (   1.3869986   4.0039201  12.2649592  )
         7           W1  tau(   7) = (  -1.3869986   4.0039201  12.2649592  )
         8           Fe1 tau(   8) = (   0.0000000   1.6015680  12.2649592  )
         9           W1  tau(   9) = (  -0.0000000   3.2031361  14.5299185  )
        10           W1  tau(  10) = (   1.3869986   0.8007840  14.5299185  )
        11           W1  tau(  11) = (   4.1609958   0.8007840  14.5299185  )
        12           Fe1 tau(  12) = (   2.7739972   3.2031361  14.5299185  )

     number of k points=    40  Fermi-Dirac smearing, width (Ry)=  0.0110
                       cart. coord. in units 2pi/alat
        k(    1) = (   0.0000000   0.0000000   0.0000000), wk =   0.0277778
        k(    2) = (   0.0000000   0.0346882   0.0000000), wk =   0.0555556
        k(    3) = (   0.0000000   0.0693765   0.0000000), wk =   0.0555556
        k(    4) = (   0.0000000  -0.1040647   0.0000000), wk =   0.0277778
        k(    5) = (   0.0300409   0.0173441   0.0000000), wk =   0.0555556
        k(    6) = (   0.0300409   0.0520323   0.0000000), wk =   0.0555556
        k(    7) = (   0.0300409   0.0867206   0.0000000), wk =   0.0555556
        k(    8) = (   0.0300409  -0.0867206   0.0000000), wk =   0.0555556
        k(    9) = (   0.0300409  -0.0520323   0.0000000), wk =   0.0555556
        k(   10) = (   0.0300409  -0.0173441   0.0000000), wk =   0.0555556
        k(   11) = (   0.0600818   0.0346882   0.0000000), wk =   0.0555556
        k(   12) = (   0.0600818   0.0693765   0.0000000), wk =   0.0555556
        k(   13) = (   0.0600818   0.1040647   0.0000000), wk =   0.0555556
        k(   14) = (   0.0600818  -0.0693765   0.0000000), wk =   0.0555556
        k(   15) = (   0.0600818  -0.0346882   0.0000000), wk =   0.0555556
        k(   16) = (   0.0600818   0.0000000   0.0000000), wk =   0.0555556
        k(   17) = (  -0.0901227  -0.0520323   0.0000000), wk =   0.0277778
        k(   18) = (  -0.0901227  -0.0173441   0.0000000), wk =   0.0555556
        k(   19) = (  -0.0901227   0.0173441   0.0000000), wk =   0.0555556
        k(   20) = (  -0.0901227  -0.1560970   0.0000000), wk =   0.0277778
        k(   21) = (   0.0000000   0.0000000   0.0000000), wk =   0.0277778
        k(   22) = (   0.0000000   0.0346882   0.0000000), wk =   0.0555556
        k(   23) = (   0.0000000   0.0693765   0.0000000), wk =   0.0555556
        k(   24) = (   0.0000000  -0.1040647   0.0000000), wk =   0.0277778
        k(   25) = (   0.0300409   0.0173441   0.0000000), wk =   0.0555556
        k(   26) = (   0.0300409   0.0520323   0.0000000), wk =   0.0555556
        k(   27) = (   0.0300409   0.0867206   0.0000000), wk =   0.0555556
        k(   28) = (   0.0300409  -0.0867206   0.0000000), wk =   0.0555556
        k(   29) = (   0.0300409  -0.0520323   0.0000000), wk =   0.0555556
        k(   30) = (   0.0300409  -0.0173441   0.0000000), wk =   0.0555556
        k(   31) = (   0.0600818   0.0346882   0.0000000), wk =   0.0555556
        k(   32) = (   0.0600818   0.0693765   0.0000000), wk =   0.0555556
        k(   33) = (   0.0600818   0.1040647   0.0000000), wk =   0.0555556
        k(   34) = (   0.0600818  -0.0693765   0.0000000), wk =   0.0555556
        k(   35) = (   0.0600818  -0.0346882   0.0000000), wk =   0.0555556
        k(   36) = (   0.0600818   0.0000000   0.0000000), wk =   0.0555556
        k(   37) = (  -0.0901227  -0.0520323   0.0000000), wk =   0.0277778
        k(   38) = (  -0.0901227  -0.0173441   0.0000000), wk =   0.0555556
        k(   39) = (  -0.0901227   0.0173441   0.0000000), wk =   0.0555556
        k(   40) = (  -0.0901227  -0.1560970   0.0000000), wk =   0.0277778

     Largest allocated arrays     est. size (Mb)     dimensions
     Largest temporary arrays     est. size (Mb)     dimensions

     Check: negative/imaginary core charge=   -0.000002    0.000000

     Initial potential from superposition of free atoms
     Check: negative starting charge=(component1):   -0.324859
     Check: negative starting charge=(component2):   -0.243631

     starting charge  170.09692, renormalised to  174.00000

     negative rho (up, down):  3.323E-01 2.492E-01

     *
     * You are using vdW-DF for exchange-correlation in this calculation.
     * Please cite the following three references that made this development
     * possible:
     *
     *   M. Dion, H. Rydberg, E. Schroder, D. C. Langreth, and
     *   B. I. Lundqvist, Phys. Rev. Lett. 92, 246401 (2004).
     *
     *   T. Thonhauser, V. R. Cooper, S. Li, A. Puzder, P. Hyldgaard, and
     *   D. C. Langreth, Phys. Rev. B 76, 125112 (2007).
     *
     *   G. Roman-Perez and J. M. Soler, Phys. Rev. Lett. 103, 096102 (2009).
     *
     *
     * If you are using vdW-DF2, please also cite:
     *
     *   K. Lee, E. D. Murray, L. Kong, B. I. Lundqvist, and
     *   D. C. Langreth, Phys. Rev. B 82, 081101(R) (2010).
     *
     *
     * If you are calculating the stress with vdW-DF, please also cite:
     *
     *   R. Sabatini, E. Kucukbenli, B. Kolb, T. Thonhauser, and
     *   S. de Gironcoli, J. Phys.: Condens. Matter 24, 424209 (2012).
     *

     Carrying out vdW-DF run using the following parameters:

     Nqs =      20    Nr_points =    1024   r_max =   100.000
     q_mesh =
               0.00001000     0.04494208     0.09755937     0.15916263
               0.23128650     0.31572767     0.41458969     0.53033537
               0.66584808     0.82450364     1.01025438     1.22772762
               1.48234092     1.78043706     2.12944203     2.53805004
               3.01644009     3.57652955     4.23227104     5.00000000

     Gradients computed in reciprocal space

     Adding external electric field

     Computed dipole along edir(3) :
        Dipole                0.0000 Ry au,          0.0000 Debye
        Dipole field          0.0000 Ry au

        Potential amp.       -0.0000 Ry
        Total length         45.1960 bohr

[...]

     Starting wfc are  156 randomized atomic wfcs

     Self-consistent Calculation

     iteration #  1     ecut=    36.75 Ry     beta=0.10
     Davidson diagonalization with overlap
     ethr =  1.00E-02,  avg # of iterations =  2.0

[...]

     Magnetic moment per site:
     atom:    1    charge:    1.6527    magn:    0.2158    constr:    0.0000
     atom:    2    charge:    1.6527    magn:    0.2158    constr:    0.0000
     atom:    3    charge:    1.6527    magn:    0.2158    constr:    0.0000
     atom:    4    charge:    7.2616    magn:    0.8188    constr:    0.0000
     atom:    5    charge:    1.6599    magn:    0.2161    constr:    0.0000
     atom:    6    charge:    1.6599    magn:    0.2161    constr:    0.0000
[...]
        k(    2) = (   0.0000000   0.0346882   0.0000000), wk =   0.0555556
        k(    3) = (   0.0000000   0.0693765   0.0000000), wk =   0.0555556
        k(    4) = (   0.0000000  -0.1040647   0.0000000), wk =   0.0277778
        k(    5) = (   0.0300409   0.0173441   0.0000000), wk =   0.0555556
        k(    6) = (   0.0300409   0.0520323   0.0000000), wk =   0.0555556
        k(    7) = (   0.0300409   0.0867206   0.0000000), wk =   0.0555556
        k(    8) = (   0.0300409  -0.0867206   0.0000000), wk =   0.0555556
        k(    9) = (   0.0300409  -0.0520323   0.0000000), wk =   0.0555556
        k(   10) = (   0.0300409  -0.0173441   0.0000000), wk =   0.0555556
        k(   11) = (   0.0600818   0.0346882   0.0000000), wk =   0.0555556
        k(   12) = (   0.0600818   0.0693765   0.0000000), wk =   0.0555556
        k(   13) = (   0.0600818   0.1040647   0.0000000), wk =   0.0555556
        k(   14) = (   0.0600818  -0.0693765   0.0000000), wk =   0.0555556
        k(   15) = (   0.0600818  -0.0346882   0.0000000), wk =   0.0555556
        k(   16) = (   0.0600818   0.0000000   0.0000000), wk =   0.0555556
        k(   17) = (  -0.0901227  -0.0520323   0.0000000), wk =   0.0277778
        k(   18) = (  -0.0901227  -0.0173441   0.0000000), wk =   0.0555556
        k(   19) = (  -0.0901227   0.0173441   0.0000000), wk =   0.0555556
        k(   20) = (  -0.0901227  -0.1560970   0.0000000), wk =   0.0277778
        k(   21) = (   0.0000000   0.0000000   0.0000000), wk =   0.0277778
        k(   22) = (   0.0000000   0.0346882   0.0000000), wk =   0.0555556
        k(   23) = (   0.0000000   0.0693765   0.0000000), wk =   0.0555556
        k(   24) = (   0.0000000  -0.1040647   0.0000000), wk =   0.0277778
        k(   25) = (   0.0300409   0.0173441   0.0000000), wk =   0.0555556
        k(   26) = (   0.0300409   0.0520323   0.0000000), wk =   0.0555556
        k(   27) = (   0.0300409   0.0867206   0.0000000), wk =   0.0555556
        k(   28) = (   0.0300409  -0.0867206   0.0000000), wk =   0.0555556
        k(   29) = (   0.0300409  -0.0520323   0.0000000), wk =   0.0555556
        k(   30) = (   0.0300409  -0.0173441   0.0000000), wk =   0.0555556
        k(   31) = (   0.0600818   0.0346882   0.0000000), wk =   0.0555556
        k(   32) = (   0.0600818   0.0693765   0.0000000), wk =   0.0555556
        k(   33) = (   0.0600818   0.1040647   0.0000000), wk =   0.0555556
        k(   34) = (   0.0600818  -0.0693765   0.0000000), wk =   0.0555556
        k(   35) = (   0.0600818  -0.0346882   0.0000000), wk =   0.0555556
        k(   36) = (   0.0600818   0.0000000   0.0000000), wk =   0.0555556
        k(   37) = (  -0.0901227  -0.0520323   0.0000000), wk =   0.0277778
        k(   38) = (  -0.0901227  -0.0173441   0.0000000), wk =   0.0555556
        k(   39) = (  -0.0901227   0.0173441   0.0000000), wk =   0.0555556
        k(   40) = (  -0.0901227  -0.1560970   0.0000000), wk =   0.0277778

     Largest allocated arrays     est. size (Mb)     dimensions
     Largest temporary arrays     est. size (Mb)     dimensions

     Check: negative/imaginary core charge=   -0.000002    0.000000

     Initial potential from superposition of free atoms
     Check: negative starting charge=(component1):   -0.323007
     Check: negative starting charge=(component2):   -0.242242

     starting charge  170.09692, renormalised to  174.00000

[...]

     *
     * You are using vdW-DF for exchange-correlation in this calculation.
     * Please cite the following three references that made this development
     * possible:
     *
     *   M. Dion, H. Rydberg, E. Schroder, D. C. Langreth, and
     *   B. I. Lundqvist, Phys. Rev. Lett. 92, 246401 (2004).
     *
     *   T. Thonhauser, V. R. Cooper, S. Li, A. Puzder, P. Hyldgaard, and
     *   D. C. Langreth, Phys. Rev. B 76, 125112 (2007).
     *
     *   G. Roman-Perez and J. M. Soler, Phys. Rev. Lett. 103, 096102 (2009).
     *
     *
     * If you are using vdW-DF2, please also cite:
     *
     *   K. Lee, E. D. Murray, L. Kong, B. I. Lundqvist, and
     *   D. C. Langreth, Phys. Rev. B 82, 081101(R) (2010).
     *
     *
     * If you are calculating the stress with vdW-DF, please also cite:
     *
     *   R. Sabatini, E. Kucukbenli, B. Kolb, T. Thonhauser, and
     *   S. de Gironcoli, J. Phys.: Condens. Matter 24, 424209 (2012).
     *

     Carrying out vdW-DF run using the following parameters:

     Nqs =      20    Nr_points =    1024   r_max =   100.000
     q_mesh =
               0.00001000     0.04494208     0.09755937     0.15916263
               0.23128650     0.31572767     0.41458969     0.53033537
               0.66584808     0.82450364     1.01025438     1.22772762
               1.48234092     1.78043706     2.12944203     2.53805004
               3.01644009     3.57652955     4.23227104     5.00000000

     Gradients computed in reciprocal space

[...]

     Starting wfc are  156 randomized atomic wfcs

     Self-consistent Calculation

[...]

     total energy              =   -2197.51340313 Ry
     Harris-Foulkes estimate   =   -2197.51340266 Ry
     estimated scf accuracy    <       0.00000177 Ry

[...]

     iteration # 35     ecut=    36.75 Ry     beta=0.10
     Davidson diagonalization with overlap
     ethr =  1.02E-09,  avg # of iterations =  2.8

[...]

     negative rho (up, down):  2.929E-01 2.948E-01

[...]

     Adding external electric field

     Computed dipole along edir(3) :
        Dipole                0.0125 Ry au,          0.0318 Debye
        Dipole field          0.0000 Ry au

        Potential amp.       -0.0032 Ry
        Total length         45.1960 bohr

     Magnetic moment per site:
     atom:    1    charge:    1.6329    magn:   -0.0052    constr:    0.0000
     atom:    2    charge:    1.6329    magn:   -0.0052    constr:    0.0000
     atom:    3    charge:    1.6329    magn:   -0.0052    constr:    0.0000
     atom:    4    charge:    7.0715    magn:    1.0623    constr:    0.0000
     atom:    5    charge:    1.6382    magn:   -0.0013    constr:    0.0000
     atom:    6    charge:    1.6382    magn:   -0.0013    constr:    0.0000
     atom:    7    charge:    1.6382    magn:   -0.0013    constr:    0.0000
     atom:    8    charge:    7.0620    magn:    0.8801    constr:    0.0000
     atom:    9    charge:    1.6366    magn:   -0.0049    constr:    0.0000
     atom:   10    charge:    1.6366    magn:   -0.0049    constr:    0.0000
     atom:   11    charge:    1.6366    magn:   -0.0049    constr:    0.0000
     atom:   12    charge:    7.0831    magn:    1.1112    constr:    0.0000

     End of self-consistent calculation

 ------ SPIN UP ------------

[...]

 ------ SPIN DOWN ----------

[...]

          k = 0.0601 0.0000 0.0000 ( 16568 PWs)   bands (ev):

[...]

          k =-0.0901-0.1561 0.0000 ( 16580 PWs)   bands (ev):

   -83.7781 -83.5387 -83.5007 -72.1045 -72.0812 -72.0586 -72.0530 -72.0378
   -72.0049 -71.9982 -71.9885 -71.9667 -49.8540 -49.8534 -49.8435 -49.6286
   -49.6124 -49.6118 -49.5836 -49.5790 -49.5784 -36.6621 -36.6137 -36.5123
   -36.4610 -36.4215 -36.3855 -36.3627 -36.3497 -36.2701 -36.2406 -36.2183
   -36.1978 -36.1438 -36.1287 -36.1256 -36.1166 -36.0995 -36.0785 -35.9804
   -35.9796 -35.9490 -35.8444 -35.7965 -35.7858 -35.7521 -35.7141 -35.6765
    -4.2288  -3.9519  -2.7162  -2.4053  -2.0721  -1.8597  -1.8352  -1.6169
    -1.3355  -1.1635  -1.0976  -0.7391  -0.7090  -0.3844  -0.3445  -0.2201
    -0.1131  -0.0189  -0.0152   0.1779   0.3605   0.5803   0.6654   0.8646
     0.9120   0.9555   1.0118   1.0545   1.1235   1.1658   1.3784   1.3951
     1.5545   1.7184   1.7395   1.7818   1.8418   1.9998   2.2195   2.4204
     2.5931   2.6770   2.8003   2.9834   3.1072   3.1524   3.2723   3.3739
     3.4264   3.6160   3.7487   3.8384   3.9850   4.0697   4.2853   4.5265
     4.6013   4.6976   4.7804   4.9575   5.1991   5.4318   5.8509   6.0600
     6.1176   6.3008   6.8828   7.1971   7.1979

     the Fermi energy is     2.0949 ev

!    total energy              =   -2197.51340602 Ry
     Harris-Foulkes estimate   =   -2197.51340454 Ry
     estimated scf accuracy    <       0.00000091 Ry

     The total energy is the sum of the following terms:

     one-electron contribution =  -17173.56161169 Ry
     hartree contribution      =    8574.33087083 Ry
     xc contribution           =    -473.61902306 Ry
     ewald contribution        =    6875.43468891 Ry
     electric field correction =       0.00000044 Ry
     smearing contrib. (-TS)   =      -0.09833146 Ry

     total magnetization       =     5.45 Bohr mag/cell
     absolute magnetization    =     8.27 Bohr mag/cell

     convergence has been achieved in  35 iterations

 BEEF-vdW xc energy contributions
           1 :   -416.413070416251
           2 :    383.811625232325
           3 :   -326.936353564274
           4 :    259.084075557555
           5 :   -193.677615420710
           6 :    140.102856225950
           7 :   -101.779142241796
           8 :    76.7983028868516
           9 :   -60.3550360628326
          10 :    47.5693944574211
          11 :   -35.4498985078616
          12 :    23.3957380270505
          13 :   -12.4497678947299
          14 :    4.01400450697122
          15 :    1.19527372184950
          16 :   -3.52135083267649
          17 :    4.07643032633337
          18 :   -4.12166443313401
          19 :    4.50475660968010
          20 :   -5.41714064953652
          21 :    6.50989108362518
          22 :   -7.24156191290149
          23 :    7.24236314960706
          24 :   -6.52040154959241
          25 :    5.43409048651279
          26 :   -4.48625405114672
          27 :    4.06195275856186
          28 :   -4.24817116999543
          29 :    4.81350638041351
          30 :   -5.35041999737916
          31 :   -37.4622174151217
          32 :   -27.7855178106307

     Forces acting on atoms (Ry/au):

     negative rho (up, down):  2.929E-01 2.948E-01
     atom    1 type  1   force =     0.00000050    0.01040612    0.01217662
     atom    2 type  1   force =     0.00900962   -0.00520430    0.01217997
     atom    3 type  1   force =    -0.00900960   -0.00520489    0.01217955
     atom    4 type  2   force =     0.00000071   -0.00000402   -0.00963980
     atom    5 type  1   force =    -0.00000010    0.00597549   -0.00569510
     atom    6 type  1   force =     0.00517514   -0.00298798   -0.00569608
     atom    7 type  1   force =    -0.00517502   -0.00298768   -0.00569463
     atom    8 type  2   force =     0.00000029   -0.00000009   -0.01275119
     atom    9 type  1   force =    -0.00000253   -0.00022440    0.00084519
     atom   10 type  1   force =    -0.00019039    0.00011284    0.00084084
     atom   11 type  1   force =     0.00019130    0.00011617    0.00084248
     atom   12 type  2   force =     0.00000009    0.00000274    0.00041216

     Total force =     0.035102     Total SCF correction =     0.002010

     entering subroutine stress ...

     negative rho (up, down):  2.929E-01 2.948E-01
          total   stress  (Ry/bohr**3)                   (kbar)     P=  -33.23
  -0.00029500  -0.00000000  -0.00000000        -43.40     -0.00     -0.00
  -0.00000000  -0.00029501   0.00000000         -0.00    -43.40      0.00
  -0.00000000   0.00000000  -0.00008762         -0.00      0.00    -12.89

 !ASE

     Writing output data file calc.save

     General routines

     Parallel routines

   This run was terminated on:  13:36: 4   2Jan2019

   JOB DONE.
Job  /afs/slac/g/suncat/bin/suncat-tsmpirun -x LD_LIBRARY_PATH -wdir /scratch/qe649349_Ywk0R pw.x -in pw.inp

TID   HOST_NAME   COMMAND_LINE            STATUS            TERMINATION_TIME
00000 suncat0163 pw.x -in pw.inp   Done                     01/02/2019 13:36:04
00001 suncat0163 pw.x -in pw.inp   Done                     01/02/2019 13:36:04
00002 suncat0163 pw.x -in pw.inp   Done                     01/02/2019 13:36:04
00003 suncat0163 pw.x -in pw.inp   Done                     01/02/2019 13:36:04
00004 suncat0163 pw.x -in pw.inp   Done                     01/02/2019 13:36:04
00005 suncat0163 pw.x -in pw.inp   Done                     01/02/2019 13:36:04
00006 suncat0163 pw.x -in pw.inp   Done                     01/02/2019 13:36:04
00007 suncat0163 pw.x -in pw.inp   Done                     01/02/2019 13:36:04
00008 suncat0162 pw.x -in pw.inp   Done                     01/02/2019 13:36:04
00009 suncat0162 pw.x -in pw.inp   Done                     01/02/2019 13:36:04
00010 suncat0162 pw.x -in pw.inp   Done                     01/02/2019 13:36:04
00011 suncat0162 pw.x -in pw.inp   Done                     01/02/2019 13:36:04
00012 suncat0162 pw.x -in pw.inp   Done                     01/02/2019 13:36:04
00013 suncat0162 pw.x -in pw.inp   Done                     01/02/2019 13:36:04
00014 suncat0162 pw.x -in pw.inp   Done                     01/02/2019 13:36:04
00015 suncat0162 pw.x -in pw.inp   Done                     01/02/2019 13:36:04
00016 suncat0139 pw.x -in pw.inp   Done                     01/02/2019 13:36:04
00017 suncat0139 pw.x -in pw.inp   Done                     01/02/2019 13:36:04
00018 suncat0139 pw.x -in pw.inp   Done                     01/02/2019 13:36:04
00019 suncat0139 pw.x -in pw.inp   Done                     01/02/2019 13:36:04
00020 suncat0139 pw.x -in pw.inp   Done                     01/02/2019 13:36:04
00021 suncat0139 pw.x -in pw.inp   Done                     01/02/2019 13:36:04
00022 suncat0139 pw.x -in pw.inp   Done                     01/02/2019 13:36:04
00023 suncat0139 pw.x -in pw.inp   Done                     01/02/2019 13:36:04
00024 suncat0133 pw.x -in pw.inp   Done                     01/02/2019 13:36:04
00025 suncat0133 pw.x -in pw.inp   Done                     01/02/2019 13:36:04
00026 suncat0133 pw.x -in pw.inp   Done                     01/02/2019 13:36:04
00027 suncat0133 pw.x -in pw.inp   Done                     01/02/2019 13:36:04
00028 suncat0133 pw.x -in pw.inp   Done                     01/02/2019 13:36:04
00029 suncat0133 pw.x -in pw.inp   Done                     01/02/2019 13:36:04
00030 suncat0133 pw.x -in pw.inp   Done                     01/02/2019 13:36:04
00031 suncat0133 pw.x -in pw.inp   Done                     01/02/2019 13:36:04
00032 suncat0123 pw.x -in pw.inp   Done                     01/02/2019 13:36:04
00033 suncat0123 pw.x -in pw.inp   Done                     01/02/2019 13:36:04
00034 suncat0123 pw.x -in pw.inp   Done                     01/02/2019 13:36:04
00035 suncat0123 pw.x -in pw.inp   Done                     01/02/2019 13:36:04
00036 suncat0123 pw.x -in pw.inp   Done                     01/02/2019 13:36:04
00037 suncat0123 pw.x -in pw.inp   Done                     01/02/2019 13:36:04
00038 suncat0123 pw.x -in pw.inp   Done                     01/02/2019 13:36:04
00039 suncat0123 pw.x -in pw.inp   Done                     01/02/2019 13:36:04
00040 suncat0122 pw.x -in pw.inp   Done                     01/02/2019 13:36:04
00041 suncat0122 pw.x -in pw.inp   Done                     01/02/2019 13:36:04
00042 suncat0122 pw.x -in pw.inp   Done                     01/02/2019 13:36:04
00043 suncat0122 pw.x -in pw.inp   Done                     01/02/2019 13:36:04
00044 suncat0122 pw.x -in pw.inp   Done                     01/02/2019 13:36:04
00045 suncat0122 pw.x -in pw.inp   Done                     01/02/2019 13:36:04
00046 suncat0122 pw.x -in pw.inp   Done                     01/02/2019 13:36:04
00047 suncat0122 pw.x -in pw.inp   Done                     01/02/2019 13:36:04
00048 suncat0207 pw.x -in pw.inp   Done                     01/02/2019 13:36:04
00049 suncat0207 pw.x -in pw.inp   Done                     01/02/2019 13:36:04
00050 suncat0207 pw.x -in pw.inp   Done                     01/02/2019 13:36:04
00051 suncat0207 pw.x -in pw.inp   Done                     01/02/2019 13:36:04
00052 suncat0207 pw.x -in pw.inp   Done                     01/02/2019 13:36:04
00053 suncat0207 pw.x -in pw.inp   Done                     01/02/2019 13:36:04
00054 suncat0207 pw.x -in pw.inp   Done                     01/02/2019 13:36:04
00055 suncat0207 pw.x -in pw.inp   Done                     01/02/2019 13:36:04
00056 suncat0206 pw.x -in pw.inp   Done                     01/02/2019 13:36:04
00057 suncat0206 pw.x -in pw.inp   Done                     01/02/2019 13:36:04
00058 suncat0206 pw.x -in pw.inp   Done                     01/02/2019 13:36:04
00059 suncat0206 pw.x -in pw.inp   Done                     01/02/2019 13:36:04
00060 suncat0206 pw.x -in pw.inp   Done                     01/02/2019 13:36:04
00061 suncat0206 pw.x -in pw.inp   Done                     01/02/2019 13:36:04
00062 suncat0206 pw.x -in pw.inp   Done                     01/02/2019 13:36:04
00063 suncat0206 pw.x -in pw.inp   Done                     01/02/2019 13:36:04