     Program PWSCF v.5.1rc2 (svn rev. 11289) starts on  2Jan2019 at 10:45: 8

     Current dimensions of program PWSCF are:
     Max number of different atomic species (ntypx) = 10
     Max number of k-points (npk) =  40000
     Max angular momentum in pseudopotentials (lmaxx) =  3
     Presently stress not available with electric field

     IMPORTANT: XC functional enforced from input :
     Exchange-correlation      = BEEF-VDW ( 1  4 27 13 2)
     Any further DFT definition will be discarded
     Please, verify this is what you really want

     Subspace diagonalization in iterative solution of the eigenvalue problem:
     a serial algorithm will be used

     bravais-lattice index     =            0
     lattice parameter (alat)  =       1.8897  a.u.
     unit-cell volume          =    6747.7330 (a.u.)^3
     number of atoms/cell      =           12
     number of atomic types    =            2
     number of electrons       =       132.00
     number of Kohn-Sham states=           96
     kinetic-energy cutoff     =      36.7493  Ry
     charge density cutoff     =     367.4932  Ry
     convergence threshold     =      1.0E-06
     mixing beta               =       0.1000
     number of iterations used =           10  plain     mixing
     Exchange-correlation      = BEEF-VDW ( 1  4 27 13 2)
     nstep                     =           50

     celldm(1)=   1.889726  celldm(2)=   0.000000  celldm(3)=   0.000000
     celldm(4)=   0.000000  celldm(5)=   0.000000  celldm(6)=   0.000000

     crystal axes: (cart. coord. in units of alat)
               a(1) = (   6.729616   0.000000   0.000000 )
               a(2) = (  -3.364808   5.828019   0.000000 )
               a(3) = (   0.000000   0.000000  25.494709 )

     reciprocal axes: (cart. coord. in units 2 pi/alat)
               b(1) = (  0.148597  0.085792  0.000000 )
               b(2) = (  0.000000  0.171585  0.000000 )
               b(3) = (  0.000000  0.000000  0.039224 )

     PseudoPot. # 1 for Y  read from file:
     /afs/slac.stanford.edu/u/if/mamunm/psp/gbrv1.5pbe/Y.UPF
     MD5 check sum: d034151ed7554c50b6e82763ed42c788
     Pseudo is Ultrasoft + core correction, Zval = 11.0
     Generated by new atomic code, or converted to UPF format
     Using radial grid of  885 points,  6 beta functions with:
                l(1) =   0
                l(2) =   0
                l(3) =   1
                l(4) =   1
                l(5) =   2
                l(6) =   2
     Q(r) pseudized with  8 coefficients,  rinner =    1.200   1.200   1.200
                                                       1.200   1.200

     PseudoPot. # 2 for Au read from file:
     /afs/slac.stanford.edu/u/if/mamunm/psp/gbrv1.5pbe/Au.UPF
     MD5 check sum: 9d7f43293ad2c663164586bc4b293ffc
     Pseudo is Ultrasoft + core correction, Zval = 11.0
     Generated by new atomic code, or converted to UPF format
     Using radial grid of  985 points,  7 beta functions with:
                l(1) =   0
                l(2) =   0
                l(3) =   1
                l(4) =   1
                l(5) =   2
                l(6) =   2
                l(7) =   3
     Q(r) pseudized with  6 coefficients,  rinner =    1.900   1.900   1.900
                                                       1.900   1.900   1.900
                                                       1.900

     vdW kernel table read from file vdW_kernel_table
     MD5 check sum: 095c7af220d748ca6e76c0b4c6cfb241

     atomic species   valence    mass     pseudopotential
        Y1            11.00    88.90584     Y ( 1.00)
        Au1           11.00   196.96657     Au( 1.00)

     No symmetry found

   Cartesian axes

     site n.     atom                  positions (alat units)
         1           Y1  tau(   1) = (   0.0000000   0.0000000  10.0000000  )
         2           Y1  tau(   2) = (  -1.6824041   2.9140093  10.0000000  )
         3           Y1  tau(   3) = (   1.6824041   2.9140093  10.0000000  )
         4           Au1 tau(   4) = (   3.3648081   0.0000000  10.0000000  )
         5           Y1  tau(   5) = (   3.3648081   1.9426729  12.7473543  )
         6           Y1  tau(   6) = (   1.6824041   4.8566822  12.7473543  )
         7           Y1  tau(   7) = (  -1.6824041   4.8566822  12.7473543  )
         8           Au1 tau(   8) = (   0.0000000   1.9426729  12.7473543  )
         9           Y1  tau(   9) = (  -0.0000000   3.8853458  15.4947087  )
        10           Y1  tau(  10) = (   1.6824041   0.9713364  15.4947087  )
        11           Y1  tau(  11) = (   5.0472122   0.9713364  15.4947087  )
        12           Au1 tau(  12) = (   3.3648081   3.8853458  15.4947087  )

     number of k points=    20  Fermi-Dirac smearing, width (Ry)=  0.0110
                       cart. coord. in units 2pi/alat
        k(    1) = (   0.0000000   0.0000000   0.0000000), wk =   0.0555556
        k(    2) = (   0.0000000   0.0285975   0.0000000), wk =   0.1111111
        k(    3) = (   0.0000000   0.0571950   0.0000000), wk =   0.1111111
        k(    4) = (   0.0000000  -0.0857925   0.0000000), wk =   0.0555556
        k(    5) = (   0.0247661   0.0142987   0.0000000), wk =   0.1111111
        k(    6) = (   0.0247661   0.0428962   0.0000000), wk =   0.1111111
        k(    7) = (   0.0247661   0.0714937   0.0000000), wk =   0.1111111
        k(    8) = (   0.0247661  -0.0714937   0.0000000), wk =   0.1111111
        k(    9) = (   0.0247661  -0.0428962   0.0000000), wk =   0.1111111
        k(   10) = (   0.0247661  -0.0142987   0.0000000), wk =   0.1111111
        k(   11) = (   0.0495323   0.0285975   0.0000000), wk =   0.1111111
        k(   12) = (   0.0495323   0.0571950   0.0000000), wk =   0.1111111
        k(   13) = (   0.0495323   0.0857925   0.0000000), wk =   0.1111111
        k(   14) = (   0.0495323  -0.0571950   0.0000000), wk =   0.1111111
        k(   15) = (   0.0495323  -0.0285975   0.0000000), wk =   0.1111111
        k(   16) = (   0.0495323   0.0000000   0.0000000), wk =   0.1111111
        k(   17) = (  -0.0742984  -0.0428962   0.0000000), wk =   0.0555556
        k(   18) = (  -0.0742984  -0.0142987   0.0000000), wk =   0.1111111
        k(   19) = (  -0.0742984   0.0142987   0.0000000), wk =   0.1111111
        k(   20) = (  -0.0742984  -0.1286887   0.0000000), wk =   0.0555556

     Largest allocated arrays     est. size (Mb)     dimensions
     Largest temporary arrays     est. size (Mb)     dimensions

     Check: negative/imaginary core charge=   -0.000001    0.000000

     Initial potential from superposition of free atoms
     Check: negative starting charge=   -0.000517

     starting charge  131.95941, renormalised to  132.00000

     negative rho (up, down):  5.173E-04 0.000E+00

     *
     * You are using vdW-DF for exchange-correlation in this calculation.
     * Please cite the following three references that made this development
     * possible:
     *
     *   M. Dion, H. Rydberg, E. Schroder, D. C. Langreth, and
     *   B. I. Lundqvist, Phys. Rev. Lett. 92, 246401 (2004).
     *
     *   T. Thonhauser, V. R. Cooper, S. Li, A. Puzder, P. Hyldgaard, and
     *   D. C. Langreth, Phys. Rev. B 76, 125112 (2007).
     *
     *   G. Roman-Perez and J. M. Soler, Phys. Rev. Lett. 103, 096102 (2009).
     *
     *
     * If you are using vdW-DF2, please also cite:
     *
     *   K. Lee, E. D. Murray, L. Kong, B. I. Lundqvist, and
     *   D. C. Langreth, Phys. Rev. B 82, 081101(R) (2010).
     *
     *
     * If you are calculating the stress with vdW-DF, please also cite:
     *
     *   R. Sabatini, E. Kucukbenli, B. Kolb, T. Thonhauser, and
     *   S. de Gironcoli, J. Phys.: Condens. Matter 24, 424209 (2012).
     *

     Carrying out vdW-DF run using the following parameters:

     Nqs =      20    Nr_points =    1024   r_max =   100.000
     q_mesh =
               0.00001000     0.04494208     0.09755937     0.15916263
               0.23128650     0.31572767     0.41458969     0.53033537
               0.66584808     0.82450364     1.01025438     1.22772762
               1.48234092     1.78043706     2.12944203     2.53805004
               3.01644009     3.57652955     4.23227104     5.00000000

     Gradients computed in reciprocal space

     Adding external electric field

     Computed dipole along edir(3) :
        Dipole               -0.0000 Ry au,         -0.0000 Debye
        Dipole field         -0.0000 Ry au

        Potential amp.        0.0000 Ry
        Total length         46.9736 bohr

     Starting wfc are  144 randomized atomic wfcs

     Self-consistent Calculation

     iteration #  1     ecut=    36.75 Ry     beta=0.10
     Davidson diagonalization with overlap
     ethr =  1.00E-02,  avg # of iterations =  2.0

[...]

     total energy              =   -1193.19782603 Ry
     Harris-Foulkes estimate   =   -1193.93403501 Ry
     estimated scf accuracy    <       4.20136001 Ry

[...]

     iteration #  8     ecut=    36.75 Ry     beta=0.10
     Davidson diagonalization with overlap
     c_bands:  1 eigenvalues not converged
     ethr =  5.44E-06,  avg # of iterations = 10.1

[...]

     End of self-consistent calculation

          k = 0.0000 0.0000 0.0000 ( 25425 PWs)   bands (ev):

   -42.1083 -42.1060 -42.0398 -42.0398 -42.0393 -42.0393 -41.6796 -41.6129
   -41.6129 -22.3761 -22.3439 -22.2382 -22.1956 -22.1956 -22.1543 -22.1543
   -22.1444 -22.1288 -22.1288 -22.0582 -22.0582 -22.0040 -21.8468 -21.8341
   -21.7428 -21.7428 -21.6877 -21.6877 -21.6632 -21.6632 -21.5733 -21.5359
   -21.5359 -21.4137 -21.3348 -21.3348  -4.2526  -3.4216  -3.1917  -3.1842
    -3.1842  -3.1389  -3.1389  -3.0118  -3.0118  -2.9796  -2.9796  -2.9501
    -2.7227  -2.7227  -2.6898  -2.6898  -2.6368  -2.4956  -1.2263  -0.9260
    -0.3956   0.5673   0.6054   0.6054   0.8210   0.9511   0.9511   1.2542
     1.2542   1.3019   1.3019   1.4885   1.5135   1.6250   1.6250   1.8199
     2.0948   2.3177   2.3177   2.4321   2.4321   2.6637   2.6637   2.7158
     2.7271   2.7271   2.8269   3.1995   3.9336   4.2217   4.3312   4.3313
     4.3746   4.4452   4.7152   4.7152   4.7224   4.7225   4.8574   4.8575

[...]

          k =-0.0743-0.0429 0.0000 ( 25394 PWs)   bands (ev):

[...]

     the Fermi energy is     1.2515 ev

!    total energy              =   -1193.51265990 Ry
     Harris-Foulkes estimate   =   -1193.51265852 Ry
     estimated scf accuracy    <       0.00000051 Ry

     The total energy is the sum of the following terms:

     one-electron contribution =   -6108.50988648 Ry
     hartree contribution      =    3073.69775968 Ry
     xc contribution           =    -446.31675006 Ry
     ewald contribution        =    2287.73247746 Ry
     electric field correction =       0.00000000 Ry
     smearing contrib. (-TS)   =      -0.11626050 Ry

     convergence has been achieved in  17 iterations

 BEEF-vdW xc energy contributions
           1 :   -393.599990763144
           2 :    359.018158746086
           3 :   -298.444006209985
           4 :    225.394494778828
           5 :   -153.316475316937
           6 :    91.7768897355566
           7 :   -45.2174602126628
           8 :    13.9194290151787
           9 :    4.10919510673853
[...]

     PseudoPot. # 1 for Y  read from file:
     /afs/slac.stanford.edu/u/if/mamunm/psp/gbrv1.5pbe/Y.UPF
     MD5 check sum: d034151ed7554c50b6e82763ed42c788
     Pseudo is Ultrasoft + core correction, Zval = 11.0
     Generated by new atomic code, or converted to UPF format
     Using radial grid of  885 points,  6 beta functions with:
                l(1) =   0
                l(2) =   0
                l(3) =   1
                l(4) =   1
                l(5) =   2
                l(6) =   2
     Q(r) pseudized with  8 coefficients,  rinner =    1.200   1.200   1.200
                                                       1.200   1.200

     PseudoPot. # 2 for Au read from file:
     /afs/slac.stanford.edu/u/if/mamunm/psp/gbrv1.5pbe/Au.UPF
     MD5 check sum: 9d7f43293ad2c663164586bc4b293ffc
     Pseudo is Ultrasoft + core correction, Zval = 11.0
     Generated by new atomic code, or converted to UPF format
     Using radial grid of  985 points,  7 beta functions with:
                l(1) =   0
                l(2) =   0
                l(3) =   1
                l(4) =   1
                l(5) =   2
                l(6) =   2
                l(7) =   3
     Q(r) pseudized with  6 coefficients,  rinner =    1.900   1.900   1.900
                                                       1.900   1.900   1.900
                                                       1.900

     vdW kernel table read from file vdW_kernel_table
     MD5 check sum: 095c7af220d748ca6e76c0b4c6cfb241

     atomic species   valence    mass     pseudopotential
        Y1            11.00    88.90584     Y ( 1.00)
        Au1           11.00   196.96657     Au( 1.00)

     No symmetry found

   Cartesian axes

     site n.     atom                  positions (alat units)
         1           Y1  tau(   1) = (   0.0000000   0.0000000  10.0000000  )
         2           Y1  tau(   2) = (  -1.6824041   2.9140093  10.0000000  )
         3           Y1  tau(   3) = (   1.6824041   2.9140093  10.0000000  )
         4           Au1 tau(   4) = (   3.3648081   0.0000000  10.0000000  )
         5           Y1  tau(   5) = (   3.3648081   1.9426729  12.7473543  )
         6           Y1  tau(   6) = (   1.6824041   4.8566822  12.7473543  )
         7           Y1  tau(   7) = (  -1.6824041   4.8566822  12.7473543  )
         8           Au1 tau(   8) = (   0.0000000   1.9426729  12.7473543  )
         9           Y1  tau(   9) = (  -0.0000295   3.8522485  15.5192084  )
        10           Y1  tau(  10) = (   1.6537284   0.9878912  15.5191824  )
        11           Y1  tau(  11) = (   5.0758671   0.9878770  15.5191624  )
        12           Au1 tau(  12) = (   3.3647741   3.8853697  15.1358749  )

     number of k points=    20  Fermi-Dirac smearing, width (Ry)=  0.0110
                       cart. coord. in units 2pi/alat
        k(    1) = (   0.0000000   0.0000000   0.0000000), wk =   0.0555556
        k(    2) = (   0.0000000   0.0285975   0.0000000), wk =   0.1111111
        k(    3) = (   0.0000000   0.0571950   0.0000000), wk =   0.1111111
        k(    4) = (   0.0000000  -0.0857925   0.0000000), wk =   0.0555556
        k(    5) = (   0.0247661   0.0142987   0.0000000), wk =   0.1111111
        k(    6) = (   0.0247661   0.0428962   0.0000000), wk =   0.1111111
        k(    7) = (   0.0247661   0.0714937   0.0000000), wk =   0.1111111
        k(    8) = (   0.0247661  -0.0714937   0.0000000), wk =   0.1111111
        k(    9) = (   0.0247661  -0.0428962   0.0000000), wk =   0.1111111
        k(   10) = (   0.0247661  -0.0142987   0.0000000), wk =   0.1111111
        k(   11) = (   0.0495323   0.0285975   0.0000000), wk =   0.1111111
        k(   12) = (   0.0495323   0.0571950   0.0000000), wk =   0.1111111
        k(   13) = (   0.0495323   0.0857925   0.0000000), wk =   0.1111111
        k(   14) = (   0.0495323  -0.0571950   0.0000000), wk =   0.1111111
        k(   15) = (   0.0495323  -0.0285975   0.0000000), wk =   0.1111111
        k(   16) = (   0.0495323   0.0000000   0.0000000), wk =   0.1111111
        k(   17) = (  -0.0742984  -0.0428962   0.0000000), wk =   0.0555556
        k(   18) = (  -0.0742984  -0.0142987   0.0000000), wk =   0.1111111
        k(   19) = (  -0.0742984   0.0142987   0.0000000), wk =   0.1111111
        k(   20) = (  -0.0742984  -0.1286887   0.0000000), wk =   0.0555556

     Largest allocated arrays     est. size (Mb)     dimensions
     Largest temporary arrays     est. size (Mb)     dimensions

     Check: negative/imaginary core charge=   -0.000001    0.000000

     Initial potential from superposition of free atoms
     Check: negative starting charge=   -0.000510

     starting charge  131.95941, renormalised to  132.00000

[...]

     *
     * You are using vdW-DF for exchange-correlation in this calculation.
     * Please cite the following three references that made this development
     * possible:
     *
     *   M. Dion, H. Rydberg, E. Schroder, D. C. Langreth, and
     *   B. I. Lundqvist, Phys. Rev. Lett. 92, 246401 (2004).
     *
     *   T. Thonhauser, V. R. Cooper, S. Li, A. Puzder, P. Hyldgaard, and
     *   D. C. Langreth, Phys. Rev. B 76, 125112 (2007).
     *
     *   G. Roman-Perez and J. M. Soler, Phys. Rev. Lett. 103, 096102 (2009).
     *
     *
     * If you are using vdW-DF2, please also cite:
     *
     *   K. Lee, E. D. Murray, L. Kong, B. I. Lundqvist, and
     *   D. C. Langreth, Phys. Rev. B 82, 081101(R) (2010).
     *
     *
     * If you are calculating the stress with vdW-DF, please also cite:
     *
     *   R. Sabatini, E. Kucukbenli, B. Kolb, T. Thonhauser, and
     *   S. de Gironcoli, J. Phys.: Condens. Matter 24, 424209 (2012).
     *

     Carrying out vdW-DF run using the following parameters:

     Nqs =      20    Nr_points =    1024   r_max =   100.000
     q_mesh =
               0.00001000     0.04494208     0.09755937     0.15916263
               0.23128650     0.31572767     0.41458969     0.53033537
               0.66584808     0.82450364     1.01025438     1.22772762
               1.48234092     1.78043706     2.12944203     2.53805004
               3.01644009     3.57652955     4.23227104     5.00000000

     Gradients computed in reciprocal space

[...]

     Starting wfc are  144 randomized atomic wfcs

     Self-consistent Calculation

[...]

     total energy              =   -1193.52772718 Ry
     Harris-Foulkes estimate   =   -1193.52772445 Ry
     estimated scf accuracy    <       0.00000184 Ry

     iteration # 18     ecut=    36.75 Ry     beta=0.10
     Davidson diagonalization with overlap
     ethr =  1.40E-09,  avg # of iterations =  2.5

[...]

     negative rho (up, down):  5.311E-05 0.000E+00

     Adding external electric field

     Computed dipole along edir(3) :
        Dipole                0.0430 Ry au,          0.1094 Debye
        Dipole field          0.0001 Ry au

        Potential amp.       -0.0075 Ry
        Total length         46.9736 bohr

     End of self-consistent calculation

[...]

          k = 0.0495 0.0000 0.0000 ( 25394 PWs)   bands (ev):

[...]

          k =-0.0743-0.1287 0.0000 ( 25394 PWs)   bands (ev):

   -42.0737 -42.0478 -42.0409 -42.0263 -42.0185 -41.9958 -41.6046 -41.5824
   -41.5597 -22.2270 -22.1905 -22.1577 -22.1295 -22.1090 -22.0759 -22.0569
   -22.0493 -22.0334 -22.0171 -21.9904 -21.9781 -21.9520 -21.9306 -21.9305
   -21.9173 -21.8102 -21.6946 -21.6728 -21.6034 -21.5588 -21.5277 -21.5100
   -21.4978 -21.4888 -21.4649 -21.3083  -3.3978  -3.2638  -3.1161  -3.1058
    -3.0685  -3.0321  -3.0273  -2.9664  -2.9533  -2.9214  -2.8463  -2.8120
    -2.7753  -2.7219  -2.6850  -2.6402  -2.5772  -2.2969  -1.3578  -0.8090
    -0.4979  -0.1355   0.2529   0.5700   0.7395   0.8871   0.8924   1.0527
     1.1243   1.1569   1.2991   1.3656   1.4817   1.5328   1.6610   1.8511
     1.9512   1.9870   2.0705   2.1972   2.2266   2.6208   2.6501   2.7684
     2.8500   2.8984   2.9908   3.0853   3.1428   3.8287   3.9665   4.0728
     4.0828   4.1994   4.2680   4.2921   4.4763   4.4915   4.5811   4.7265

     the Fermi energy is     1.2921 ev

!    total energy              =   -1193.52772514 Ry
     Harris-Foulkes estimate   =   -1193.52772820 Ry
     estimated scf accuracy    <       0.00000041 Ry

     The total energy is the sum of the following terms:

     one-electron contribution =   -6169.20661753 Ry
     hartree contribution      =    3104.11010296 Ry
     xc contribution           =    -446.33917660 Ry
     ewald contribution        =    2318.02239714 Ry
     electric field correction =       0.00000345 Ry
     smearing contrib. (-TS)   =      -0.11443457 Ry

     convergence has been achieved in  18 iterations

 BEEF-vdW xc energy contributions
           1 :   -393.629721144405
           2 :    359.081035441659
           3 :   -298.541331135634
           4 :    225.488881352518
           5 :   -153.352409952007
           6 :    91.7130921559694
           7 :   -45.0528861469958
           8 :    13.6987202436201
           9 :    4.31494252904776
          10 :   -11.6900571817760
          11 :    11.1368068899916
          12 :   -5.33981713098859
          13 :   -2.88206935769745
          14 :    10.6684924898720
          15 :   -15.5995523620505
          16 :    16.3052998237503
          17 :   -12.7900634858120
          18 :    6.23481889836967
          19 :    1.58560818326151
          20 :   -8.92288066009729
          21 :    14.4370918078709
          22 :   -17.3179922074268
          23 :    17.2816731481019
          24 :   -14.5666928173029
          25 :    9.92617921424932
          26 :   -4.53134001338873
          27 :  -0.284748816539150
          28 :    3.40683609585238
          29 :   -4.29781343430773
          30 :    3.15804043954694
          31 :   -34.7311130667491
          32 :   -24.3476880192397

     Forces acting on atoms (Ry/au):

     negative rho (up, down):  5.311E-05 0.000E+00
     atom    1 type  1   force =    -0.00000038    0.01350836   -0.00933059
     atom    2 type  1   force =     0.01169818   -0.00675507   -0.00932796
     atom    3 type  1   force =    -0.01169797   -0.00675547   -0.00932770
     atom    4 type  2   force =     0.00000059   -0.00000059    0.03272040
     atom    5 type  1   force =    -0.00000054   -0.00198145   -0.00059827
     atom    6 type  1   force =    -0.00171744    0.00098995   -0.00059594
     atom    7 type  1   force =     0.00171644    0.00099353   -0.00059668
     atom    8 type  2   force =    -0.00000013   -0.00000051   -0.00234358
     atom    9 type  1   force =    -0.00000109   -0.00027785    0.00001877
     atom   10 type  1   force =    -0.00024031    0.00013930    0.00002101
     atom   11 type  1   force =     0.00024195    0.00014069    0.00002212
     atom   12 type  2   force =     0.00000070   -0.00000089   -0.00066157

     Total force =     0.043568     Total SCF correction =     0.002038

     entering subroutine stress ...

     negative rho (up, down):  5.311E-05 0.000E+00
          total   stress  (Ry/bohr**3)                   (kbar)     P=   -2.90
  -0.00002566  -0.00000000   0.00000000         -3.77     -0.00      0.00
  -0.00000000  -0.00002566   0.00000000         -0.00     -3.77      0.00
   0.00000000   0.00000000  -0.00000772          0.00      0.00     -1.14

 !ASE

     Writing output data file calc.save

     General routines

     Parallel routines

   This run was terminated on:  12:27:41   2Jan2019

   JOB DONE.
Job  /afs/slac/g/suncat/bin/suncat-tsmpirun -x LD_LIBRARY_PATH -wdir /scratch/qe649404_IvFu2 pw.x -in pw.inp

TID   HOST_NAME   COMMAND_LINE            STATUS            TERMINATION_TIME
00000 suncat0165 pw.x -in pw.inp   Done                     01/02/2019 12:27:41
00001 suncat0165 pw.x -in pw.inp   Done                     01/02/2019 12:27:41
00002 suncat0165 pw.x -in pw.inp   Done                     01/02/2019 12:27:41
00003 suncat0165 pw.x -in pw.inp   Done                     01/02/2019 12:27:41
00004 suncat0165 pw.x -in pw.inp   Done                     01/02/2019 12:27:41
00005 suncat0165 pw.x -in pw.inp   Done                     01/02/2019 12:27:41
00006 suncat0165 pw.x -in pw.inp   Done                     01/02/2019 12:27:41
00007 suncat0165 pw.x -in pw.inp   Done                     01/02/2019 12:27:41
00008 suncat0164 pw.x -in pw.inp   Done                     01/02/2019 12:27:41
00009 suncat0164 pw.x -in pw.inp   Done                     01/02/2019 12:27:41
00010 suncat0164 pw.x -in pw.inp   Done                     01/02/2019 12:27:41
00011 suncat0164 pw.x -in pw.inp   Done                     01/02/2019 12:27:41
00012 suncat0164 pw.x -in pw.inp   Done                     01/02/2019 12:27:41
00013 suncat0164 pw.x -in pw.inp   Done                     01/02/2019 12:27:41
00014 suncat0164 pw.x -in pw.inp   Done                     01/02/2019 12:27:41
00015 suncat0164 pw.x -in pw.inp   Done                     01/02/2019 12:27:41
00016 suncat0159 pw.x -in pw.inp   Done                     01/02/2019 12:27:41
00017 suncat0159 pw.x -in pw.inp   Done                     01/02/2019 12:27:41
00018 suncat0159 pw.x -in pw.inp   Done                     01/02/2019 12:27:41
00019 suncat0159 pw.x -in pw.inp   Done                     01/02/2019 12:27:41
00020 suncat0159 pw.x -in pw.inp   Done                     01/02/2019 12:27:41
00021 suncat0159 pw.x -in pw.inp   Done                     01/02/2019 12:27:41
00022 suncat0159 pw.x -in pw.inp   Done                     01/02/2019 12:27:41
00023 suncat0159 pw.x -in pw.inp   Done                     01/02/2019 12:27:41
00024 suncat0155 pw.x -in pw.inp   Done                     01/02/2019 12:27:41
00025 suncat0155 pw.x -in pw.inp   Done                     01/02/2019 12:27:41
00026 suncat0155 pw.x -in pw.inp   Done                     01/02/2019 12:27:41
00027 suncat0155 pw.x -in pw.inp   Done                     01/02/2019 12:27:41
00028 suncat0155 pw.x -in pw.inp   Done                     01/02/2019 12:27:41
00029 suncat0155 pw.x -in pw.inp   Done                     01/02/2019 12:27:41
00030 suncat0155 pw.x -in pw.inp   Done                     01/02/2019 12:27:41
00031 suncat0155 pw.x -in pw.inp   Done                     01/02/2019 12:27:41
00032 suncat0106 pw.x -in pw.inp   Done                     01/02/2019 12:27:41
00033 suncat0106 pw.x -in pw.inp   Done                     01/02/2019 12:27:41
00034 suncat0106 pw.x -in pw.inp   Done                     01/02/2019 12:27:41
00035 suncat0106 pw.x -in pw.inp   Done                     01/02/2019 12:27:41
00036 suncat0106 pw.x -in pw.inp   Done                     01/02/2019 12:27:41
00037 suncat0106 pw.x -in pw.inp   Done                     01/02/2019 12:27:41
00038 suncat0106 pw.x -in pw.inp   Done                     01/02/2019 12:27:41
00039 suncat0106 pw.x -in pw.inp   Done                     01/02/2019 12:27:41
00040 suncat0105 pw.x -in pw.inp   Done                     01/02/2019 12:27:41
00041 suncat0105 pw.x -in pw.inp   Done                     01/02/2019 12:27:41
00042 suncat0105 pw.x -in pw.inp   Done                     01/02/2019 12:27:41
00043 suncat0105 pw.x -in pw.inp   Done                     01/02/2019 12:27:41
00044 suncat0105 pw.x -in pw.inp   Done                     01/02/2019 12:27:41
00045 suncat0105 pw.x -in pw.inp   Done                     01/02/2019 12:27:41
00046 suncat0105 pw.x -in pw.inp   Done                     01/02/2019 12:27:41
00047 suncat0105 pw.x -in pw.inp   Done                     01/02/2019 12:27:41
00048 suncat0277 pw.x -in pw.inp   Done                     01/02/2019 12:27:41
00049 suncat0277 pw.x -in pw.inp   Done                     01/02/2019 12:27:41
00050 suncat0277 pw.x -in pw.inp   Done                     01/02/2019 12:27:41
00051 suncat0277 pw.x -in pw.inp   Done                     01/02/2019 12:27:41
00052 suncat0277 pw.x -in pw.inp   Done                     01/02/2019 12:27:41
00053 suncat0277 pw.x -in pw.inp   Done                     01/02/2019 12:27:41
00054 suncat0277 pw.x -in pw.inp   Done                     01/02/2019 12:27:41
00055 suncat0277 pw.x -in pw.inp   Done                     01/02/2019 12:27:41
00056 suncat0276 pw.x -in pw.inp   Done                     01/02/2019 12:27:41
00057 suncat0276 pw.x -in pw.inp   Done                     01/02/2019 12:27:41
00058 suncat0276 pw.x -in pw.inp   Done                     01/02/2019 12:27:41
00059 suncat0276 pw.x -in pw.inp   Done                     01/02/2019 12:27:41
00060 suncat0276 pw.x -in pw.inp   Done                     01/02/2019 12:27:41
00061 suncat0276 pw.x -in pw.inp   Done                     01/02/2019 12:27:41
00062 suncat0276 pw.x -in pw.inp   Done                     01/02/2019 12:27:41
00063 suncat0276 pw.x -in pw.inp   Done                     01/02/2019 12:27:41