     Program PWSCF v.5.1rc2 (svn rev. 11289) starts on  2Jan2019 at  8:49: 2

     Current dimensions of program PWSCF are:
     Max number of different atomic species (ntypx) = 10
     Max number of k-points (npk) =  40000
     Max angular momentum in pseudopotentials (lmaxx) =  3
     Presently stress not available with electric field

     IMPORTANT: XC functional enforced from input :
     Exchange-correlation      = BEEF-VDW ( 1  4 27 13 2)
     Any further DFT definition will be discarded
     Please, verify this is what you really want

     Subspace diagonalization in iterative solution of the eigenvalue problem:
     a serial algorithm will be used

     bravais-lattice index     =            0
     lattice parameter (alat)  =       1.8897  a.u.
     unit-cell volume          =    5391.4463 (a.u.)^3
     number of atoms/cell      =           12
     number of atomic types    =            2
     number of electrons       =       159.00
     number of Kohn-Sham states=          109
     kinetic-energy cutoff     =      36.7493  Ry
     charge density cutoff     =     367.4932  Ry
     convergence threshold     =      1.0E-06
     mixing beta               =       0.1000
     number of iterations used =           10  plain     mixing
     Exchange-correlation      = BEEF-VDW ( 1  4 27 13 2)
     nstep                     =           50

     celldm(1)=   1.889726  celldm(2)=   0.000000  celldm(3)=   0.000000
     celldm(4)=   0.000000  celldm(5)=   0.000000  celldm(6)=   0.000000

     crystal axes: (cart. coord. in units of alat)
               a(1) = (   6.079055   0.000000   0.000000 )
               a(2) = (  -3.039527   5.264616   0.000000 )
               a(3) = (   0.000000   0.000000  24.963527 )

     reciprocal axes: (cart. coord. in units 2 pi/alat)
               b(1) = (  0.164499  0.094974  0.000000 )
               b(2) = (  0.000000  0.189947  0.000000 )
               b(3) = (  0.000000  0.000000  0.040058 )

     PseudoPot. # 1 for W  read from file:
     /afs/slac.stanford.edu/u/if/mamunm/psp/gbrv1.5pbe/W.UPF
     MD5 check sum: 9c083fa34c2a2ea0f02f1f893e16e1c8
     Pseudo is Ultrasoft + core correction, Zval = 14.0
     Generated by new atomic code, or converted to UPF format
     Using radial grid of  923 points,  8 beta functions with:
                l(1) =   0
                l(2) =   0
                l(3) =   0
                l(4) =   1
                l(5) =   1
                l(6) =   2
                l(7) =   2
                l(8) =   3
     Q(r) pseudized with  6 coefficients,  rinner =    1.350   1.350   1.350
                                                       1.350   1.350   1.350
                                                       1.350

     PseudoPot. # 2 for La read from file:
     /afs/slac.stanford.edu/u/if/mamunm/psp/gbrv1.5pbe/La.UPF
     MD5 check sum: 5937b0c7494ba0601a847275249473aa
     Pseudo is Ultrasoft + core correction, Zval = 11.0
     Generated by new atomic code, or converted to UPF format
     Using radial grid of  995 points,  8 beta functions with:
                l(1) =   0
                l(2) =   0
                l(3) =   1
                l(4) =   1
                l(5) =   2
                l(6) =   2
                l(7) =   3
                l(8) =   3
     Q(r) pseudized with  8 coefficients,  rinner =    1.700   1.700   1.700
                                                       1.700   1.700   1.700
                                                       1.700

     vdW kernel table read from file vdW_kernel_table
     MD5 check sum: 095c7af220d748ca6e76c0b4c6cfb241

     atomic species   valence    mass     pseudopotential
        W1            14.00   183.84000     W ( 1.00)
        La1           11.00   138.90547     La( 1.00)

     No symmetry found

   Cartesian axes

     site n.     atom                  positions (alat units)
         1           W1  tau(   1) = (   0.0000000   0.0000000  10.0000000  )
         2           W1  tau(   2) = (  -1.5197637   2.6323079  10.0000000  )
         3           W1  tau(   3) = (   1.5197637   2.6323079  10.0000000  )
         4           La1 tau(   4) = (   3.0395273   0.0000000  10.0000000  )
         5           W1  tau(   5) = (   3.0395273   1.7548719  12.4817637  )
         6           W1  tau(   6) = (   1.5197637   4.3871798  12.4817637  )
         7           W1  tau(   7) = (  -1.5197637   4.3871798  12.4817637  )
         8           La1 tau(   8) = (   0.0000000   1.7548719  12.4817637  )
         9           W1  tau(   9) = (  -0.0000000   3.5097439  14.9635274  )
        10           W1  tau(  10) = (   1.5197637   0.8774360  14.9635274  )
        11           W1  tau(  11) = (   4.5592910   0.8774360  14.9635274  )
        12           La1 tau(  12) = (   3.0395273   3.5097439  14.9635274  )

     number of k points=    20  Fermi-Dirac smearing, width (Ry)=  0.0110
                       cart. coord. in units 2pi/alat
        k(    1) = (   0.0000000   0.0000000   0.0000000), wk =   0.0555556
        k(    2) = (   0.0000000   0.0316579   0.0000000), wk =   0.1111111
        k(    3) = (   0.0000000   0.0633158   0.0000000), wk =   0.1111111
        k(    4) = (   0.0000000  -0.0949737   0.0000000), wk =   0.0555556
        k(    5) = (   0.0274165   0.0158289   0.0000000), wk =   0.1111111
        k(    6) = (   0.0274165   0.0474868   0.0000000), wk =   0.1111111
        k(    7) = (   0.0274165   0.0791447   0.0000000), wk =   0.1111111
        k(    8) = (   0.0274165  -0.0791447   0.0000000), wk =   0.1111111
        k(    9) = (   0.0274165  -0.0474868   0.0000000), wk =   0.1111111
        k(   10) = (   0.0274165  -0.0158289   0.0000000), wk =   0.1111111
        k(   11) = (   0.0548331   0.0316579   0.0000000), wk =   0.1111111
        k(   12) = (   0.0548331   0.0633158   0.0000000), wk =   0.1111111
        k(   13) = (   0.0548331   0.0949737   0.0000000), wk =   0.1111111
        k(   14) = (   0.0548331  -0.0633158   0.0000000), wk =   0.1111111
        k(   15) = (   0.0548331  -0.0316579   0.0000000), wk =   0.1111111
        k(   16) = (   0.0548331   0.0000000   0.0000000), wk =   0.1111111
        k(   17) = (  -0.0822496  -0.0474868   0.0000000), wk =   0.0555556
        k(   18) = (  -0.0822496  -0.0158289   0.0000000), wk =   0.1111111
        k(   19) = (  -0.0822496   0.0158289   0.0000000), wk =   0.1111111
        k(   20) = (  -0.0822496  -0.1424605   0.0000000), wk =   0.0555556

     Largest allocated arrays     est. size (Mb)     dimensions
     Largest temporary arrays     est. size (Mb)     dimensions

     Initial potential from superposition of free atoms
     Check: negative starting charge=   -0.782177

     starting charge  158.00073, renormalised to  159.00000

     negative rho (up, down):  7.871E-01 0.000E+00

     *
     * You are using vdW-DF for exchange-correlation in this calculation.
     * Please cite the following three references that made this development
     * possible:
     *
     *   M. Dion, H. Rydberg, E. Schroder, D. C. Langreth, and
     *   B. I. Lundqvist, Phys. Rev. Lett. 92, 246401 (2004).
     *
     *   T. Thonhauser, V. R. Cooper, S. Li, A. Puzder, P. Hyldgaard, and
     *   D. C. Langreth, Phys. Rev. B 76, 125112 (2007).
     *
     *   G. Roman-Perez and J. M. Soler, Phys. Rev. Lett. 103, 096102 (2009).
     *
     *
     * If you are using vdW-DF2, please also cite:
     *
     *   K. Lee, E. D. Murray, L. Kong, B. I. Lundqvist, and
     *   D. C. Langreth, Phys. Rev. B 82, 081101(R) (2010).
     *
     *
     * If you are calculating the stress with vdW-DF, please also cite:
     *
     *   R. Sabatini, E. Kucukbenli, B. Kolb, T. Thonhauser, and
     *   S. de Gironcoli, J. Phys.: Condens. Matter 24, 424209 (2012).
     *

     Carrying out vdW-DF run using the following parameters:

     Nqs =      20    Nr_points =    1024   r_max =   100.000
     q_mesh =
               0.00001000     0.04494208     0.09755937     0.15916263
               0.23128650     0.31572767     0.41458969     0.53033537
               0.66584808     0.82450364     1.01025438     1.22772762
               1.48234092     1.78043706     2.12944203     2.53805004
               3.01644009     3.57652955     4.23227104     5.00000000

     Gradients computed in reciprocal space

     Adding external electric field

     Computed dipole along edir(3) :
        Dipole                0.0000 Ry au,          0.0000 Debye
        Dipole field          0.0000 Ry au

        Potential amp.       -0.0000 Ry
        Total length         45.9949 bohr

     Starting wfc are  177 randomized atomic wfcs

     Self-consistent Calculation

     iteration #  1     ecut=    36.75 Ry     beta=0.10
     Davidson diagonalization with overlap
     ethr =  1.00E-02,  avg # of iterations =  2.0

[...]

     total energy              =   -1753.71184542 Ry
     Harris-Foulkes estimate   =   -1755.67819185 Ry
     estimated scf accuracy    <      10.99651088 Ry

[...]

     End of self-consistent calculation

          k = 0.0000 0.0000 0.0000 ( 20287 PWs)   bands (ev):

   -72.1240 -72.1014 -72.1014 -72.0439 -72.0426 -72.0225 -72.0225 -72.0221
   -72.0221 -36.4120 -36.3407 -36.3405 -36.3012 -36.2935 -36.2822 -36.2561
   -36.2560 -36.1881 -36.1881 -36.1468 -36.1237 -36.1195 -36.1195 -36.1091
   -36.1090 -36.0105 -36.0104 -36.0042 -35.9901 -35.9899 -35.9892 -35.9718
   -35.8868 -35.8867 -35.8831 -35.8831 -29.3976 -29.3810 -28.9826 -13.3095
   -13.2819 -13.2819 -13.2607 -13.2607 -13.2176 -13.0612 -12.9404 -12.9404
    -4.0424  -2.7186  -2.3965  -1.9440  -1.9439  -1.7548  -1.7547  -1.0536
    -1.0536  -0.9428  -0.7768  -0.7768  -0.7046  -0.1272   0.0208   0.4331
     0.5087   0.5087   1.1742   1.1742   1.4826   1.5578   1.8238   1.9278
     2.2188   2.2188   2.2516   2.2584   2.2584   2.3952   2.3952   2.6125
     2.6220   2.6221   2.8114   2.8114   3.3261   3.3262   3.7758   3.7758
     3.8136   3.8136   3.8845   4.1781   4.1781   4.2949   4.4777   4.4777
     4.9771   5.3617   5.3617   5.5284   5.5284   5.5919   5.6062   5.6990
     5.7217   5.7217   5.8509   5.9016   5.9016

[...]

          k =-0.0822-0.0475 0.0000 ( 20300 PWs)   bands (ev):

[...]

     the Fermi energy is     2.3161 ev

!    total energy              =   -1754.84453506 Ry
     Harris-Foulkes estimate   =   -1754.84693954 Ry
     estimated scf accuracy    <       0.00000085 Ry

     The total energy is the sum of the following terms:

     one-electron contribution =  -11308.28269721 Ry
     hartree contribution      =    5645.57918312 Ry
     xc contribution           =    -535.00764500 Ry
     ewald contribution        =    4442.98856603 Ry
     electric field correction =       0.00000000 Ry
     smearing contrib. (-TS)   =      -0.12194200 Ry

     convergence has been achieved in  17 iterations

 BEEF-vdW xc energy contributions
           1 :   -471.469121537810
           2 :    435.530703842914
           3 :   -371.982789731016
           4 :    294.453122679293
           5 :   -217.397575747488
           6 :    152.015622467481
           7 :   -103.873439309249
           8 :    72.7520206545646
           9 :   -54.3868071691249
[...]
     Generated by new atomic code, or converted to UPF format
     Using radial grid of  923 points,  8 beta functions with:
                l(1) =   0
                l(2) =   0
                l(3) =   0
                l(4) =   1
                l(5) =   1
                l(6) =   2
                l(7) =   2
                l(8) =   3
     Q(r) pseudized with  6 coefficients,  rinner =    1.350   1.350   1.350
                                                       1.350   1.350   1.350
                                                       1.350

     PseudoPot. # 2 for La read from file:
     /afs/slac.stanford.edu/u/if/mamunm/psp/gbrv1.5pbe/La.UPF
     MD5 check sum: 5937b0c7494ba0601a847275249473aa
     Pseudo is Ultrasoft + core correction, Zval = 11.0
     Generated by new atomic code, or converted to UPF format
     Using radial grid of  995 points,  8 beta functions with:
                l(1) =   0
                l(2) =   0
                l(3) =   1
                l(4) =   1
                l(5) =   2
                l(6) =   2
                l(7) =   3
                l(8) =   3
     Q(r) pseudized with  8 coefficients,  rinner =    1.700   1.700   1.700
                                                       1.700   1.700   1.700
                                                       1.700

     vdW kernel table read from file vdW_kernel_table
     MD5 check sum: 095c7af220d748ca6e76c0b4c6cfb241

     atomic species   valence    mass     pseudopotential
        W1            14.00   183.84000     W ( 1.00)
        La1           11.00   138.90547     La( 1.00)

     No symmetry found

   Cartesian axes

     site n.     atom                  positions (alat units)
         1           W1  tau(   1) = (   0.0000000   0.0000000  10.0000000  )
         2           W1  tau(   2) = (  -1.5197637   2.6323079  10.0000000  )
         3           W1  tau(   3) = (   1.5197637   2.6323079  10.0000000  )
         4           La1 tau(   4) = (   3.0395273   0.0000000  10.0000000  )
         5           W1  tau(   5) = (   3.0395273   1.7548719  12.4817637  )
         6           W1  tau(   6) = (   1.5197637   4.3871798  12.4817637  )
         7           W1  tau(   7) = (  -1.5197637   4.3871798  12.4817637  )
         8           La1 tau(   8) = (   0.0000000   1.7548719  12.4817637  )
         9           W1  tau(   9) = (   0.0000006   3.7360718  14.5260222  )
        10           W1  tau(  10) = (   1.7158132   0.7642557  14.5260349  )
        11           W1  tau(  11) = (   4.3632580   0.7642744  14.5260344  )
        12           La1 tau(  12) = (   3.0395273   3.5097433  15.6918077  )

     number of k points=    20  Fermi-Dirac smearing, width (Ry)=  0.0110
                       cart. coord. in units 2pi/alat
        k(    1) = (   0.0000000   0.0000000   0.0000000), wk =   0.0555556
        k(    2) = (   0.0000000   0.0316579   0.0000000), wk =   0.1111111
        k(    3) = (   0.0000000   0.0633158   0.0000000), wk =   0.1111111
        k(    4) = (   0.0000000  -0.0949737   0.0000000), wk =   0.0555556
        k(    5) = (   0.0274165   0.0158289   0.0000000), wk =   0.1111111
        k(    6) = (   0.0274165   0.0474868   0.0000000), wk =   0.1111111
        k(    7) = (   0.0274165   0.0791447   0.0000000), wk =   0.1111111
        k(    8) = (   0.0274165  -0.0791447   0.0000000), wk =   0.1111111
        k(    9) = (   0.0274165  -0.0474868   0.0000000), wk =   0.1111111
        k(   10) = (   0.0274165  -0.0158289   0.0000000), wk =   0.1111111
        k(   11) = (   0.0548331   0.0316579   0.0000000), wk =   0.1111111
        k(   12) = (   0.0548331   0.0633158   0.0000000), wk =   0.1111111
        k(   13) = (   0.0548331   0.0949737   0.0000000), wk =   0.1111111
        k(   14) = (   0.0548331  -0.0633158   0.0000000), wk =   0.1111111
        k(   15) = (   0.0548331  -0.0316579   0.0000000), wk =   0.1111111
        k(   16) = (   0.0548331   0.0000000   0.0000000), wk =   0.1111111
        k(   17) = (  -0.0822496  -0.0474868   0.0000000), wk =   0.0555556
        k(   18) = (  -0.0822496  -0.0158289   0.0000000), wk =   0.1111111
        k(   19) = (  -0.0822496   0.0158289   0.0000000), wk =   0.1111111
        k(   20) = (  -0.0822496  -0.1424605   0.0000000), wk =   0.0555556

     Largest allocated arrays     est. size (Mb)     dimensions
     Largest temporary arrays     est. size (Mb)     dimensions

     Initial potential from superposition of free atoms
     Check: negative starting charge=   -0.779854

     starting charge  158.00073, renormalised to  159.00000

[...]

     *
     * You are using vdW-DF for exchange-correlation in this calculation.
     * Please cite the following three references that made this development
     * possible:
     *
     *   M. Dion, H. Rydberg, E. Schroder, D. C. Langreth, and
     *   B. I. Lundqvist, Phys. Rev. Lett. 92, 246401 (2004).
     *
     *   T. Thonhauser, V. R. Cooper, S. Li, A. Puzder, P. Hyldgaard, and
     *   D. C. Langreth, Phys. Rev. B 76, 125112 (2007).
     *
     *   G. Roman-Perez and J. M. Soler, Phys. Rev. Lett. 103, 096102 (2009).
     *
     *
     * If you are using vdW-DF2, please also cite:
     *
     *   K. Lee, E. D. Murray, L. Kong, B. I. Lundqvist, and
     *   D. C. Langreth, Phys. Rev. B 82, 081101(R) (2010).
     *
     *
     * If you are calculating the stress with vdW-DF, please also cite:
     *
     *   R. Sabatini, E. Kucukbenli, B. Kolb, T. Thonhauser, and
     *   S. de Gironcoli, J. Phys.: Condens. Matter 24, 424209 (2012).
     *

     Carrying out vdW-DF run using the following parameters:

     Nqs =      20    Nr_points =    1024   r_max =   100.000
     q_mesh =
               0.00001000     0.04494208     0.09755937     0.15916263
               0.23128650     0.31572767     0.41458969     0.53033537
               0.66584808     0.82450364     1.01025438     1.22772762
               1.48234092     1.78043706     2.12944203     2.53805004
               3.01644009     3.57652955     4.23227104     5.00000000

     Gradients computed in reciprocal space

[...]

     Starting wfc are  177 randomized atomic wfcs

     Self-consistent Calculation

[...]

     total energy              =   -1755.09044088 Ry
     Harris-Foulkes estimate   =   -1755.09044277 Ry
     estimated scf accuracy    <       0.00000153 Ry

     iteration # 18     ecut=    36.75 Ry     beta=0.10
     Davidson diagonalization with overlap
     ethr =  9.60E-10,  avg # of iterations =  3.1

[...]

     negative rho (up, down):  7.135E-01 0.000E+00

     Adding external electric field

     Computed dipole along edir(3) :
        Dipole                0.5591 Ry au,          1.4212 Debye
        Dipole field          0.0013 Ry au

        Potential amp.       -0.1199 Ry
        Total length         45.9949 bohr

     End of self-consistent calculation

[...]

          k = 0.0548 0.0000 0.0000 ( 20307 PWs)   bands (ev):

[...]

          k =-0.0822-0.1425 0.0000 ( 20300 PWs)   bands (ev):

   -71.4157 -71.4088 -71.4007 -71.3921 -71.3786 -71.3707 -71.1882 -71.1338
   -71.1320 -35.9364 -35.8173 -35.7710 -35.7488 -35.7397 -35.6810 -35.5955
   -35.5772 -35.5296 -35.5078 -35.4878 -35.4737 -35.4734 -35.4556 -35.4388
   -35.4220 -35.4149 -35.3047 -35.2821 -35.2755 -35.2337 -35.0347 -35.0143
   -35.0110 -34.9994 -34.9978 -34.9635 -30.1462 -28.7553 -28.5100 -13.8287
   -13.7820 -13.7571 -12.8948 -12.8018 -12.7568 -12.7011 -12.6027 -12.5915
    -2.3869  -1.9764  -0.8475  -0.6276  -0.5271  -0.4603  -0.2998  -0.2416
    -0.1647   0.0117   0.1798   0.2827   0.5800   0.7310   0.8803   1.1139
     1.1374   1.2390   1.3414   1.5098   1.5159   1.6841   1.8108   1.8122
     1.9155   2.0599   2.1968   2.3652   2.4284   2.4818   2.5401   2.9265
     3.0147   3.1509   3.1658   3.2389   3.2865   3.5348   3.5755   3.6321
     3.8960   3.9507   4.0252   4.1223   4.1763   4.2998   4.4163   4.5059
     4.6391   4.6701   4.7652   4.8016   4.8376   4.8808   4.9136   4.9761
     4.9889   5.2361   5.5267   5.5287   5.5523

     the Fermi energy is     2.9310 ev

!    total energy              =   -1755.09043568 Ry
     Harris-Foulkes estimate   =   -1755.09042998 Ry
     estimated scf accuracy    <       0.00000075 Ry

     The total energy is the sum of the following terms:

     one-electron contribution =  -11608.35566562 Ry
     hartree contribution      =    5798.59740285 Ry
     xc contribution           =    -535.49653412 Ry
     ewald contribution        =    4590.25614332 Ry
     electric field correction =       0.00072866 Ry
     smearing contrib. (-TS)   =      -0.09251076 Ry

     convergence has been achieved in  18 iterations

 BEEF-vdW xc energy contributions
           1 :   -472.306626613499
           2 :    436.503759658440
           3 :   -373.153651673167
           4 :    295.747433115061
           5 :   -218.594471663218
           6 :    152.838655750452
           7 :   -104.144352630304
           8 :    72.4999544007518
           9 :   -53.8448279869473
          10 :    42.6082510084861
          11 :   -34.0294155002272
          12 :    25.4326565455684
          13 :   -16.2694574439065
          14 :    7.30997378094128
          15 :   0.378220186052204
          16 :   -6.13744761656744
          17 :    9.90850366356256
          18 :   -12.0212722227251
          19 :    12.8691355002662
          20 :   -12.7156596614864
          21 :    11.7173402644531
          22 :   -10.0766639513096
          23 :    8.16210943272267
          24 :   -6.47906715309534
          25 :    5.49247697808380
          26 :   -5.41029614778620
          27 :    6.06615933375849
          28 :   -6.98277654969797
          29 :    7.59211162878950
          30 :   -7.50173985888478
          31 :   -41.8984734968832
          32 :   -31.0312552831774

     Forces acting on atoms (Ry/au):

     negative rho (up, down):  7.135E-01 0.000E+00
     atom    1 type  1   force =     0.00000134   -0.04518026    0.04659440
     atom    2 type  1   force =    -0.03912711    0.02258792    0.04660182
     atom    3 type  1   force =     0.03912757    0.02258899    0.04660021
     atom    4 type  2   force =     0.00000062   -0.00000031   -0.10904912
     atom    5 type  1   force =    -0.00000172    0.04834247   -0.00418904
     atom    6 type  1   force =     0.04186539   -0.02417097   -0.00418661
     atom    7 type  1   force =    -0.04186796   -0.02417053   -0.00418322
     atom    8 type  2   force =     0.00000104   -0.00000083   -0.01715805
     atom    9 type  1   force =    -0.00000079    0.00192942   -0.00017141
     atom   10 type  1   force =     0.00166312   -0.00095974   -0.00016437
     atom   11 type  1   force =    -0.00166199   -0.00096632   -0.00016902
     atom   12 type  2   force =     0.00000049    0.00000017   -0.00052561

     Total force =     0.178603     Total SCF correction =     0.003670

     entering subroutine stress ...

     negative rho (up, down):  7.135E-01 0.000E+00
          total   stress  (Ry/bohr**3)                   (kbar)     P=  -14.72
  -0.00011058  -0.00000000  -0.00000000        -16.27     -0.00     -0.00
  -0.00000000  -0.00011058   0.00000000         -0.00    -16.27      0.00
  -0.00000000   0.00000000  -0.00007904         -0.00      0.00    -11.63

 !ASE

     Writing output data file calc.save

     General routines

     Parallel routines

   This run was terminated on:  13: 3:55   2Jan2019

   JOB DONE.
Job  /afs/slac/g/suncat/bin/suncat-tsmpirun -x LD_LIBRARY_PATH -wdir /scratch/qe649361_wT9GP pw.x -in pw.inp

TID   HOST_NAME   COMMAND_LINE            STATUS            TERMINATION_TIME
00000 suncat0259 pw.x -in pw.inp   Done                     01/02/2019 13:03:55
00001 suncat0259 pw.x -in pw.inp   Done                     01/02/2019 13:03:55
00002 suncat0259 pw.x -in pw.inp   Done                     01/02/2019 13:03:55
00003 suncat0259 pw.x -in pw.inp   Done                     01/02/2019 13:03:55
00004 suncat0259 pw.x -in pw.inp   Done                     01/02/2019 13:03:55
00005 suncat0259 pw.x -in pw.inp   Done                     01/02/2019 13:03:55
00006 suncat0259 pw.x -in pw.inp   Done                     01/02/2019 13:03:55
00007 suncat0259 pw.x -in pw.inp   Done                     01/02/2019 13:03:55
00008 suncat0256 pw.x -in pw.inp   Done                     01/02/2019 13:03:55
00009 suncat0256 pw.x -in pw.inp   Done                     01/02/2019 13:03:55
00010 suncat0256 pw.x -in pw.inp   Done                     01/02/2019 13:03:55
00011 suncat0256 pw.x -in pw.inp   Done                     01/02/2019 13:03:55
00012 suncat0256 pw.x -in pw.inp   Done                     01/02/2019 13:03:55
00013 suncat0256 pw.x -in pw.inp   Done                     01/02/2019 13:03:55
00014 suncat0256 pw.x -in pw.inp   Done                     01/02/2019 13:03:55
00015 suncat0256 pw.x -in pw.inp   Done                     01/02/2019 13:03:55
00016 suncat0255 pw.x -in pw.inp   Done                     01/02/2019 13:03:55
00017 suncat0255 pw.x -in pw.inp   Done                     01/02/2019 13:03:55
00018 suncat0255 pw.x -in pw.inp   Done                     01/02/2019 13:03:55
00019 suncat0255 pw.x -in pw.inp   Done                     01/02/2019 13:03:55
00020 suncat0255 pw.x -in pw.inp   Done                     01/02/2019 13:03:55
00021 suncat0255 pw.x -in pw.inp   Done                     01/02/2019 13:03:55
00022 suncat0255 pw.x -in pw.inp   Done                     01/02/2019 13:03:55
00023 suncat0255 pw.x -in pw.inp   Done                     01/02/2019 13:03:55
00024 suncat0232 pw.x -in pw.inp   Done                     01/02/2019 13:03:55
00025 suncat0232 pw.x -in pw.inp   Done                     01/02/2019 13:03:55
00026 suncat0232 pw.x -in pw.inp   Done                     01/02/2019 13:03:55
00027 suncat0232 pw.x -in pw.inp   Done                     01/02/2019 13:03:55
00028 suncat0232 pw.x -in pw.inp   Done                     01/02/2019 13:03:55
00029 suncat0232 pw.x -in pw.inp   Done                     01/02/2019 13:03:55
00030 suncat0232 pw.x -in pw.inp   Done                     01/02/2019 13:03:55
00031 suncat0232 pw.x -in pw.inp   Done                     01/02/2019 13:03:55
00032 suncat0220 pw.x -in pw.inp   Done                     01/02/2019 13:03:55
00033 suncat0220 pw.x -in pw.inp   Done                     01/02/2019 13:03:55
00034 suncat0220 pw.x -in pw.inp   Done                     01/02/2019 13:03:55
00035 suncat0220 pw.x -in pw.inp   Done                     01/02/2019 13:03:55
00036 suncat0220 pw.x -in pw.inp   Done                     01/02/2019 13:03:55
00037 suncat0220 pw.x -in pw.inp   Done                     01/02/2019 13:03:55
00038 suncat0220 pw.x -in pw.inp   Done                     01/02/2019 13:03:55
00039 suncat0220 pw.x -in pw.inp   Done                     01/02/2019 13:03:55
00040 suncat0219 pw.x -in pw.inp   Done                     01/02/2019 13:03:55
00041 suncat0219 pw.x -in pw.inp   Done                     01/02/2019 13:03:55
00042 suncat0219 pw.x -in pw.inp   Done                     01/02/2019 13:03:55
00043 suncat0219 pw.x -in pw.inp   Done                     01/02/2019 13:03:55
00044 suncat0219 pw.x -in pw.inp   Done                     01/02/2019 13:03:55
00045 suncat0219 pw.x -in pw.inp   Done                     01/02/2019 13:03:55
00046 suncat0219 pw.x -in pw.inp   Done                     01/02/2019 13:03:55
00047 suncat0219 pw.x -in pw.inp   Done                     01/02/2019 13:03:55
00048 suncat0201 pw.x -in pw.inp   Done                     01/02/2019 13:03:55
00049 suncat0201 pw.x -in pw.inp   Done                     01/02/2019 13:03:55
00050 suncat0201 pw.x -in pw.inp   Done                     01/02/2019 13:03:55
00051 suncat0201 pw.x -in pw.inp   Done                     01/02/2019 13:03:55
00052 suncat0201 pw.x -in pw.inp   Done                     01/02/2019 13:03:55
00053 suncat0201 pw.x -in pw.inp   Done                     01/02/2019 13:03:55
00054 suncat0201 pw.x -in pw.inp   Done                     01/02/2019 13:03:55
00055 suncat0201 pw.x -in pw.inp   Done                     01/02/2019 13:03:55
00056 suncat0200 pw.x -in pw.inp   Done                     01/02/2019 13:03:55
00057 suncat0200 pw.x -in pw.inp   Done                     01/02/2019 13:03:55
00058 suncat0200 pw.x -in pw.inp   Done                     01/02/2019 13:03:55
00059 suncat0200 pw.x -in pw.inp   Done                     01/02/2019 13:03:55
00060 suncat0200 pw.x -in pw.inp   Done                     01/02/2019 13:03:55
00061 suncat0200 pw.x -in pw.inp   Done                     01/02/2019 13:03:55
00062 suncat0200 pw.x -in pw.inp   Done                     01/02/2019 13:03:55
00063 suncat0200 pw.x -in pw.inp   Done                     01/02/2019 13:03:55