     Program PWSCF v.5.1rc2 (svn rev. 11289) starts on 27Dec2018 at 21:18:34

     Current dimensions of program PWSCF are:
     Max number of different atomic species (ntypx) = 10
     Max number of k-points (npk) =  40000
     Max angular momentum in pseudopotentials (lmaxx) =  3
     Presently stress not available with electric field

     IMPORTANT: XC functional enforced from input :
     Exchange-correlation      = BEEF-VDW ( 1  4 27 13 2)
     Any further DFT definition will be discarded
     Please, verify this is what you really want

     Subspace diagonalization in iterative solution of the eigenvalue problem:
     a serial algorithm will be used

     bravais-lattice index     =            0
     lattice parameter (alat)  =       1.8897  a.u.
     unit-cell volume          =    4299.8787 (a.u.)^3
     number of atoms/cell      =           12
     number of atomic types    =            2
     number of electrons       =       177.00
     number of Kohn-Sham states=          118
     kinetic-energy cutoff     =      36.7493  Ry
     charge density cutoff     =     367.4932  Ry
     convergence threshold     =      1.0E-06
     mixing beta               =       0.1000
     number of iterations used =           10  plain     mixing
     Exchange-correlation      = BEEF-VDW ( 1  4 27 13 2)
     nstep                     =           50

     celldm(1)=   1.889726  celldm(2)=   0.000000  celldm(3)=   0.000000
     celldm(4)=   0.000000  celldm(5)=   0.000000  celldm(6)=   0.000000

     crystal axes: (cart. coord. in units of alat)
               a(1) = (   5.482635   0.000000   0.000000 )
               a(2) = (  -2.741318   4.748101   0.000000 )
               a(3) = (   0.000000   0.000000  24.476553 )

     reciprocal axes: (cart. coord. in units 2 pi/alat)
               b(1) = (  0.182394  0.105305  0.000000 )
               b(2) = (  0.000000  0.210610  0.000000 )
               b(3) = (  0.000000  0.000000  0.040855 )

     PseudoPot. # 1 for Rh read from file:
     /afs/slac.stanford.edu/u/if/mamunm/psp/gbrv1.5pbe/Rh.UPF
     MD5 check sum: 761627e959a2e3a1f56b0b5fe687810e
     Pseudo is Ultrasoft + core correction, Zval = 15.0
     Generated by new atomic code, or converted to UPF format
     Using radial grid of  969 points,  7 beta functions with:
                l(1) =   0
                l(2) =   0
                l(3) =   1
                l(4) =   1
                l(5) =   2
                l(6) =   2
                l(7) =   2
     Q(r) pseudized with  8 coefficients,  rinner =    1.200   1.200   1.200
                                                       1.200   1.200

     PseudoPot. # 2 for W  read from file:
     /afs/slac.stanford.edu/u/if/mamunm/psp/gbrv1.5pbe/W.UPF
     MD5 check sum: 9c083fa34c2a2ea0f02f1f893e16e1c8
     Pseudo is Ultrasoft + core correction, Zval = 14.0
     Generated by new atomic code, or converted to UPF format
     Using radial grid of  923 points,  8 beta functions with:
                l(1) =   0
                l(2) =   0
                l(3) =   0
                l(4) =   1
                l(5) =   1
                l(6) =   2
                l(7) =   2
                l(8) =   3
     Q(r) pseudized with  6 coefficients,  rinner =    1.350   1.350   1.350
                                                       1.350   1.350   1.350
                                                       1.350

     vdW kernel table read from file vdW_kernel_table
     MD5 check sum: 095c7af220d748ca6e76c0b4c6cfb241

     atomic species   valence    mass     pseudopotential
        Rh1           15.00   102.90550     Rh( 1.00)
        W1            14.00   183.84000     W ( 1.00)

     No symmetry found

   Cartesian axes

     site n.     atom                  positions (alat units)
         1           Rh1 tau(   1) = (   0.0000000   0.0000000  10.0000000  )
         2           Rh1 tau(   2) = (  -1.3706588   2.3740507  10.0000000  )
         3           Rh1 tau(   3) = (   1.3706588   2.3740507  10.0000000  )
         4           W1  tau(   4) = (   2.7413176   0.0000000  10.0000000  )
         5           Rh1 tau(   5) = (   2.7413176   1.5827005  12.2382765  )
         6           Rh1 tau(   6) = (   1.3706588   3.9567512  12.2382765  )
         7           Rh1 tau(   7) = (  -1.3706588   3.9567512  12.2382765  )
         8           W1  tau(   8) = (   0.0000000   1.5827005  12.2382765  )
         9           Rh1 tau(   9) = (  -0.0000000   3.1654010  14.4765530  )
        10           Rh1 tau(  10) = (   1.3706588   0.7913502  14.4765530  )
        11           Rh1 tau(  11) = (   4.1119765   0.7913502  14.4765530  )
        12           W1  tau(  12) = (   2.7413176   3.1654010  14.4765530  )

     number of k points=    20  Fermi-Dirac smearing, width (Ry)=  0.0110
                       cart. coord. in units 2pi/alat
        k(    1) = (   0.0000000   0.0000000   0.0000000), wk =   0.0555556
        k(    2) = (   0.0000000   0.0351017   0.0000000), wk =   0.1111111
        k(    3) = (   0.0000000   0.0702035   0.0000000), wk =   0.1111111
        k(    4) = (   0.0000000  -0.1053052   0.0000000), wk =   0.0555556
        k(    5) = (   0.0303990   0.0175509   0.0000000), wk =   0.1111111
        k(    6) = (   0.0303990   0.0526526   0.0000000), wk =   0.1111111
        k(    7) = (   0.0303990   0.0877544   0.0000000), wk =   0.1111111
        k(    8) = (   0.0303990  -0.0877544   0.0000000), wk =   0.1111111
        k(    9) = (   0.0303990  -0.0526526   0.0000000), wk =   0.1111111
        k(   10) = (   0.0303990  -0.0175509   0.0000000), wk =   0.1111111
        k(   11) = (   0.0607980   0.0351017   0.0000000), wk =   0.1111111
        k(   12) = (   0.0607980   0.0702035   0.0000000), wk =   0.1111111
        k(   13) = (   0.0607980   0.1053052   0.0000000), wk =   0.1111111
        k(   14) = (   0.0607980  -0.0702035   0.0000000), wk =   0.1111111
        k(   15) = (   0.0607980  -0.0351017   0.0000000), wk =   0.1111111
        k(   16) = (   0.0607980   0.0000000   0.0000000), wk =   0.1111111
        k(   17) = (  -0.0911970  -0.0526526   0.0000000), wk =   0.0555556
        k(   18) = (  -0.0911970  -0.0175509   0.0000000), wk =   0.1111111
        k(   19) = (  -0.0911970   0.0175509   0.0000000), wk =   0.1111111
        k(   20) = (  -0.0911970  -0.1579579   0.0000000), wk =   0.0555556

     Largest allocated arrays     est. size (Mb)     dimensions
     Largest temporary arrays     est. size (Mb)     dimensions

     Initial potential from superposition of free atoms
     Check: negative starting charge=   -0.681046

     starting charge  172.19809, renormalised to  177.00000

     negative rho (up, down):  7.000E-01 0.000E+00

     *
     * You are using vdW-DF for exchange-correlation in this calculation.
     * Please cite the following three references that made this development
     * possible:
     *
     *   M. Dion, H. Rydberg, E. Schroder, D. C. Langreth, and
     *   B. I. Lundqvist, Phys. Rev. Lett. 92, 246401 (2004).
     *
     *   T. Thonhauser, V. R. Cooper, S. Li, A. Puzder, P. Hyldgaard, and
     *   D. C. Langreth, Phys. Rev. B 76, 125112 (2007).
     *
     *   G. Roman-Perez and J. M. Soler, Phys. Rev. Lett. 103, 096102 (2009).
     *
     *
     * If you are using vdW-DF2, please also cite:
     *
     *   K. Lee, E. D. Murray, L. Kong, B. I. Lundqvist, and
     *   D. C. Langreth, Phys. Rev. B 82, 081101(R) (2010).
     *
     *
     * If you are calculating the stress with vdW-DF, please also cite:
     *
     *   R. Sabatini, E. Kucukbenli, B. Kolb, T. Thonhauser, and
     *   S. de Gironcoli, J. Phys.: Condens. Matter 24, 424209 (2012).
     *

     Carrying out vdW-DF run using the following parameters:

     Nqs =      20    Nr_points =    1024   r_max =   100.000
     q_mesh =
               0.00001000     0.04494208     0.09755937     0.15916263
               0.23128650     0.31572767     0.41458969     0.53033537
               0.66584808     0.82450364     1.01025438     1.22772762
               1.48234092     1.78043706     2.12944203     2.53805004
               3.01644009     3.57652955     4.23227104     5.00000000

     Gradients computed in reciprocal space

     Adding external electric field

     Computed dipole along edir(3) :
        Dipole                0.0000 Ry au,          0.0000 Debye
        Dipole field          0.0000 Ry au

        Potential amp.       -0.0000 Ry
        Total length         45.0976 bohr

     Starting wfc are  147 randomized atomic wfcs

     Self-consistent Calculation

     iteration #  1     ecut=    36.75 Ry     beta=0.10
     Davidson diagonalization with overlap
     ethr =  1.00E-02,  avg # of iterations =  7.7

[...]

     total energy              =   -2031.68390373 Ry
     Harris-Foulkes estimate   =   -2032.18450150 Ry
     estimated scf accuracy    <       3.39307383 Ry

[...]

     End of self-consistent calculation

          k = 0.0000 0.0000 0.0000 ( 16073 PWs)   bands (ev):

   -73.3944 -73.1634 -73.1633 -45.1551 -45.0202 -45.0202 -44.9532 -44.9135
   -44.9135 -44.7968 -44.7279 -44.7279 -44.6086 -44.6086 -44.6063 -44.6021
   -44.5705 -44.5705 -44.4152 -44.4088 -44.3469 -44.3072 -44.3029 -44.3029
   -44.2833 -44.2832 -44.2148 -44.2147 -44.2123 -44.2123 -37.4321 -37.4321
   -37.3176 -37.2706 -37.2568 -37.1197 -37.1197 -37.1163 -37.1162  -5.5304
    -3.9406  -3.9142  -3.7250  -3.7250  -3.5799  -3.2884  -3.2799  -3.2799
    -3.0504  -3.0504  -2.9394  -2.7011  -2.7011  -2.6086  -1.5808  -1.5808
    -1.4626  -1.1157  -1.1157  -0.9742  -0.7604  -0.6725  -0.6725  -0.5396
    -0.4985  -0.3438  -0.3438  -0.0614  -0.0614  -0.0582  -0.0582   0.2804
     0.2804   0.8851   0.9098   1.2182   1.2182   1.2752   1.2752   1.2854
     1.2854   1.4592   1.9643   2.1508   2.1593   2.1593   2.3472   2.7659
     2.7823   2.7823   2.8045   2.8084   3.3174   3.3174   3.5578   3.7019
     3.7019   3.8119   3.8119   3.9108   3.9108   4.1981   4.3043   4.3043
     4.5713   4.5713   6.0002   6.0002   6.1353   6.1353   6.2383   6.3818
     6.6452   6.7208   7.3253   8.2116   9.0889   9.4206

[...]

          k =-0.0912-0.0527 0.0000 ( 16164 PWs)   bands (ev):

[...]

     the Fermi energy is     1.9393 ev

!    total energy              =   -2031.18439216 Ry
     Harris-Foulkes estimate   =   -2031.18439103 Ry
     estimated scf accuracy    <       0.00000059 Ry

     The total energy is the sum of the following terms:

     one-electron contribution =  -17949.74069588 Ry
     hartree contribution      =    9000.13426732 Ry
     xc contribution           =    -406.52192988 Ry
     ewald contribution        =    7325.02056720 Ry
     electric field correction =       0.00000000 Ry
     smearing contrib. (-TS)   =      -0.07660092 Ry

     convergence has been achieved in  15 iterations

 BEEF-vdW xc energy contributions
           1 :   -355.305416062523
           2 :    327.252214844028
           3 :   -278.366784215060
           4 :    220.270507008114
           5 :   -164.881387218106
           6 :    120.766098259412
           7 :   -91.1938833574722
           8 :    74.3595506176234
           9 :   -65.3451071515011
[...]
     Generated by new atomic code, or converted to UPF format
     Using radial grid of  969 points,  7 beta functions with:
                l(1) =   0
                l(2) =   0
                l(3) =   1
                l(4) =   1
                l(5) =   2
                l(6) =   2
                l(7) =   2
     Q(r) pseudized with  8 coefficients,  rinner =    1.200   1.200   1.200
                                                       1.200   1.200

     PseudoPot. # 2 for W  read from file:
     /afs/slac.stanford.edu/u/if/mamunm/psp/gbrv1.5pbe/W.UPF
     MD5 check sum: 9c083fa34c2a2ea0f02f1f893e16e1c8
     Pseudo is Ultrasoft + core correction, Zval = 14.0
     Generated by new atomic code, or converted to UPF format
     Using radial grid of  923 points,  8 beta functions with:
                l(1) =   0
                l(2) =   0
                l(3) =   0
                l(4) =   1
                l(5) =   1
                l(6) =   2
                l(7) =   2
                l(8) =   3
     Q(r) pseudized with  6 coefficients,  rinner =    1.350   1.350   1.350
                                                       1.350   1.350   1.350
                                                       1.350

     vdW kernel table read from file vdW_kernel_table
     MD5 check sum: 095c7af220d748ca6e76c0b4c6cfb241

     atomic species   valence    mass     pseudopotential
        Rh1           15.00   102.90550     Rh( 1.00)
        W1            14.00   183.84000     W ( 1.00)

     No symmetry found

   Cartesian axes

     site n.     atom                  positions (alat units)
         1           Rh1 tau(   1) = (   0.0000000   0.0000000  10.0000000  )
         2           Rh1 tau(   2) = (  -1.3706588   2.3740507  10.0000000  )
         3           Rh1 tau(   3) = (   1.3706588   2.3740507  10.0000000  )
         4           W1  tau(   4) = (   2.7413176   0.0000000  10.0000000  )
         5           Rh1 tau(   5) = (   2.7413176   1.5827005  12.2382765  )
         6           Rh1 tau(   6) = (   1.3706588   3.9567512  12.2382765  )
         7           Rh1 tau(   7) = (  -1.3706588   3.9567512  12.2382765  )
         8           W1  tau(   8) = (   0.0000000   1.5827005  12.2382765  )
         9           Rh1 tau(   9) = (   0.0000011   3.1303293  14.4198405  )
        10           Rh1 tau(  10) = (   1.3402861   0.8088864  14.4198407  )
        11           Rh1 tau(  11) = (   4.1423498   0.8088867  14.4198400  )
        12           W1  tau(  12) = (   2.7413193   3.1654000  14.3379428  )

     number of k points=    20  Fermi-Dirac smearing, width (Ry)=  0.0110
                       cart. coord. in units 2pi/alat
        k(    1) = (   0.0000000   0.0000000   0.0000000), wk =   0.0555556
        k(    2) = (   0.0000000   0.0351017   0.0000000), wk =   0.1111111
        k(    3) = (   0.0000000   0.0702035   0.0000000), wk =   0.1111111
        k(    4) = (   0.0000000  -0.1053052   0.0000000), wk =   0.0555556
        k(    5) = (   0.0303990   0.0175509   0.0000000), wk =   0.1111111
        k(    6) = (   0.0303990   0.0526526   0.0000000), wk =   0.1111111
        k(    7) = (   0.0303990   0.0877544   0.0000000), wk =   0.1111111
        k(    8) = (   0.0303990  -0.0877544   0.0000000), wk =   0.1111111
        k(    9) = (   0.0303990  -0.0526526   0.0000000), wk =   0.1111111
        k(   10) = (   0.0303990  -0.0175509   0.0000000), wk =   0.1111111
        k(   11) = (   0.0607980   0.0351017   0.0000000), wk =   0.1111111
        k(   12) = (   0.0607980   0.0702035   0.0000000), wk =   0.1111111
        k(   13) = (   0.0607980   0.1053052   0.0000000), wk =   0.1111111
        k(   14) = (   0.0607980  -0.0702035   0.0000000), wk =   0.1111111
        k(   15) = (   0.0607980  -0.0351017   0.0000000), wk =   0.1111111
        k(   16) = (   0.0607980   0.0000000   0.0000000), wk =   0.1111111
        k(   17) = (  -0.0911970  -0.0526526   0.0000000), wk =   0.0555556
        k(   18) = (  -0.0911970  -0.0175509   0.0000000), wk =   0.1111111
        k(   19) = (  -0.0911970   0.0175509   0.0000000), wk =   0.1111111
        k(   20) = (  -0.0911970  -0.1579579   0.0000000), wk =   0.0555556

     Largest allocated arrays     est. size (Mb)     dimensions
     Largest temporary arrays     est. size (Mb)     dimensions

     Initial potential from superposition of free atoms
     Check: negative starting charge=   -0.679424

     starting charge  172.19809, renormalised to  177.00000

[...]

     *
     * You are using vdW-DF for exchange-correlation in this calculation.
     * Please cite the following three references that made this development
     * possible:
     *
     *   M. Dion, H. Rydberg, E. Schroder, D. C. Langreth, and
     *   B. I. Lundqvist, Phys. Rev. Lett. 92, 246401 (2004).
     *
     *   T. Thonhauser, V. R. Cooper, S. Li, A. Puzder, P. Hyldgaard, and
     *   D. C. Langreth, Phys. Rev. B 76, 125112 (2007).
     *
     *   G. Roman-Perez and J. M. Soler, Phys. Rev. Lett. 103, 096102 (2009).
     *
     *
     * If you are using vdW-DF2, please also cite:
     *
     *   K. Lee, E. D. Murray, L. Kong, B. I. Lundqvist, and
     *   D. C. Langreth, Phys. Rev. B 82, 081101(R) (2010).
     *
     *
     * If you are calculating the stress with vdW-DF, please also cite:
     *
     *   R. Sabatini, E. Kucukbenli, B. Kolb, T. Thonhauser, and
     *   S. de Gironcoli, J. Phys.: Condens. Matter 24, 424209 (2012).
     *

     Carrying out vdW-DF run using the following parameters:

     Nqs =      20    Nr_points =    1024   r_max =   100.000
     q_mesh =
               0.00001000     0.04494208     0.09755937     0.15916263
               0.23128650     0.31572767     0.41458969     0.53033537
               0.66584808     0.82450364     1.01025438     1.22772762
               1.48234092     1.78043706     2.12944203     2.53805004
               3.01644009     3.57652955     4.23227104     5.00000000

     Gradients computed in reciprocal space

[...]

     Starting wfc are  147 randomized atomic wfcs

     Self-consistent Calculation

[...]

     total energy              =   -2031.19525726 Ry
     Harris-Foulkes estimate   =   -2031.19525734 Ry
     estimated scf accuracy    <       0.00000110 Ry

     iteration # 16     ecut=    36.75 Ry     beta=0.10
     Davidson diagonalization with overlap
     ethr =  6.20E-10,  avg # of iterations =  2.0

[...]

     negative rho (up, down):  7.158E-01 0.000E+00

     Adding external electric field

     Computed dipole along edir(3) :
        Dipole                0.0062 Ry au,          0.0157 Debye
        Dipole field          0.0000 Ry au

        Potential amp.       -0.0016 Ry
        Total length         45.0976 bohr

     End of self-consistent calculation

[...]

          k = 0.0608 0.0000 0.0000 ( 16190 PWs)   bands (ev):

[...]

          k =-0.0912-0.1580 0.0000 ( 16164 PWs)   bands (ev):

   -73.3915 -73.1552 -73.1513 -45.1595 -45.0609 -45.0270 -45.0212 -44.9696
   -44.9681 -44.9404 -44.9388 -44.8017 -44.6280 -44.5831 -44.5526 -44.5277
   -44.5113 -44.4890 -44.4710 -44.4434 -44.4128 -44.3702 -44.3577 -44.3458
   -44.3447 -44.3032 -44.2827 -44.2808 -44.2763 -44.2152 -37.4633 -37.4492
   -37.3189 -37.2675 -37.2590 -37.1448 -37.1317 -37.1311 -37.1170  -4.1216
    -3.8647  -3.0632  -2.9131  -2.8982  -2.8023  -2.7425  -2.6311  -2.5514
    -2.4475  -2.3162  -2.2396  -1.9652  -1.9373  -1.9289  -1.7990  -1.6129
    -1.5419  -1.4826  -1.2858  -1.2166  -1.0341  -0.8461  -0.6553  -0.5454
    -0.4778  -0.4461  -0.3961  -0.2627  -0.2542  -0.2540  -0.1467  -0.1168
    -0.0660  -0.0527   0.0137   0.1625   0.1632   0.2825   0.3049   0.5050
     0.5448   0.6307   0.7811   1.0029   1.0315   1.4434   1.4618   1.4925
     1.5250   1.9418   2.0449   2.2804   2.3018   2.4019   2.4363   2.5208
     2.6327   3.0117   3.1436   3.1994   3.5709   3.6263   4.3734   4.5179
     4.9045   4.9577   6.0595   6.4725   6.7753   7.0303   7.1776   8.0555
     8.0836   8.2422   8.2443   8.7569   8.8335   8.9769

     the Fermi energy is     1.9450 ev

!    total energy              =   -2031.19525808 Ry
     Harris-Foulkes estimate   =   -2031.19525740 Ry
     estimated scf accuracy    <       0.00000041 Ry

     The total energy is the sum of the following terms:

     one-electron contribution =  -18145.23180970 Ry
     hartree contribution      =    9097.70162078 Ry
     xc contribution           =    -406.70015866 Ry
     ewald contribution        =    7423.10913014 Ry
     electric field correction =       0.00000011 Ry
     smearing contrib. (-TS)   =      -0.07404076 Ry

     convergence has been achieved in  16 iterations

 BEEF-vdW xc energy contributions
           1 :   -355.489331361977
           2 :    327.509002969320
           3 :   -278.722064177266
           4 :    220.680598109017
           5 :   -165.250034137517
           6 :    120.993088537331
           7 :   -91.2298735281901
           8 :    74.2363698047420
           9 :   -65.1636865217733
          10 :    58.6523017910466
          11 :   -51.0013682979701
          12 :    41.1284796430663
          13 :   -30.1998702150058
          14 :    20.3900202123389
          15 :   -13.5002646473885
          16 :    10.0714908073762
          17 :   -9.28243739544007
          18 :    9.52307287299033
          19 :   -9.25298019945518
          20 :    7.69309053393556
          21 :   -5.04192976177808
          22 :    2.17832382137635
          23 :  -7.715442816345330E-002
          24 :  -0.725759156727236
          25 :   0.363183184353716
          26 :   0.507340511770622
          27 :   -1.09813785602739
          28 :   0.907280150665429
          29 :   5.871956364143216E-002
          30 :   -1.35018545587479
          31 :   -34.1456093719777
          32 :   -25.6492764105670

     Forces acting on atoms (Ry/au):

     negative rho (up, down):  7.158E-01 0.000E+00
     atom    1 type  1   force =    -0.00000022    0.02005409    0.00921377
     atom    2 type  1   force =     0.01736759   -0.01002716    0.00921412
     atom    3 type  1   force =    -0.01736733   -0.01002705    0.00921380
     atom    4 type  2   force =     0.00000003   -0.00000004    0.03380155
     atom    5 type  1   force =     0.00000011   -0.00291339   -0.01505631
     atom    6 type  1   force =    -0.00252301    0.00145671   -0.01505638
     atom    7 type  1   force =     0.00252329    0.00145660   -0.01505645
     atom    8 type  2   force =    -0.00000019    0.00000027   -0.01513366
     atom    9 type  1   force =    -0.00000012   -0.00039561   -0.00018391
     atom   10 type  1   force =    -0.00034239    0.00019764   -0.00018393
     atom   11 type  1   force =     0.00034243    0.00019776   -0.00018369
     atom   12 type  2   force =    -0.00000019    0.00000018   -0.00058891

     Total force =     0.059491     Total SCF correction =     0.001426

     entering subroutine stress ...

     negative rho (up, down):  7.158E-01 0.000E+00
          total   stress  (Ry/bohr**3)                   (kbar)     P=  -38.09
  -0.00028710   0.00000000  -0.00000000        -42.23      0.00     -0.00
   0.00000000  -0.00028710  -0.00000000          0.00    -42.23     -0.00
  -0.00000000  -0.00000000  -0.00020261         -0.00     -0.00    -29.80

 !ASE

     Writing output data file calc.save

     General routines

     Parallel routines

   This run was terminated on:  21:56:29  27Dec2018

   JOB DONE.
Job  /afs/slac/g/suncat/bin/suncat-tsmpirun -x LD_LIBRARY_PATH -wdir /scratch/qe110739_MkYvy pw.x -in pw.inp

TID   HOST_NAME   COMMAND_LINE            STATUS            TERMINATION_TIME
00000 suncat0096 pw.x -in pw.inp   Done                     12/27/2018 21:56:29
00001 suncat0096 pw.x -in pw.inp   Done                     12/27/2018 21:56:29
00002 suncat0096 pw.x -in pw.inp   Done                     12/27/2018 21:56:29
00003 suncat0096 pw.x -in pw.inp   Done                     12/27/2018 21:56:29
00004 suncat0096 pw.x -in pw.inp   Done                     12/27/2018 21:56:29
00005 suncat0096 pw.x -in pw.inp   Done                     12/27/2018 21:56:29
00006 suncat0096 pw.x -in pw.inp   Done                     12/27/2018 21:56:29
00007 suncat0096 pw.x -in pw.inp   Done                     12/27/2018 21:56:29
00008 suncat0093 pw.x -in pw.inp   Done                     12/27/2018 21:56:29
00009 suncat0093 pw.x -in pw.inp   Done                     12/27/2018 21:56:29
00010 suncat0093 pw.x -in pw.inp   Done                     12/27/2018 21:56:29
00011 suncat0093 pw.x -in pw.inp   Done                     12/27/2018 21:56:29
00012 suncat0093 pw.x -in pw.inp   Done                     12/27/2018 21:56:29
00013 suncat0093 pw.x -in pw.inp   Done                     12/27/2018 21:56:29
00014 suncat0093 pw.x -in pw.inp   Done                     12/27/2018 21:56:29
00015 suncat0093 pw.x -in pw.inp   Done                     12/27/2018 21:56:29
00016 suncat0087 pw.x -in pw.inp   Done                     12/27/2018 21:56:29
00017 suncat0087 pw.x -in pw.inp   Done                     12/27/2018 21:56:29
00018 suncat0087 pw.x -in pw.inp   Done                     12/27/2018 21:56:29
00019 suncat0087 pw.x -in pw.inp   Done                     12/27/2018 21:56:29
00020 suncat0087 pw.x -in pw.inp   Done                     12/27/2018 21:56:29
00021 suncat0087 pw.x -in pw.inp   Done                     12/27/2018 21:56:29
00022 suncat0087 pw.x -in pw.inp   Done                     12/27/2018 21:56:29
00023 suncat0087 pw.x -in pw.inp   Done                     12/27/2018 21:56:29
00024 suncat0079 pw.x -in pw.inp   Done                     12/27/2018 21:56:29
00025 suncat0079 pw.x -in pw.inp   Done                     12/27/2018 21:56:29
00026 suncat0079 pw.x -in pw.inp   Done                     12/27/2018 21:56:29
00027 suncat0079 pw.x -in pw.inp   Done                     12/27/2018 21:56:29
00028 suncat0079 pw.x -in pw.inp   Done                     12/27/2018 21:56:29
00029 suncat0079 pw.x -in pw.inp   Done                     12/27/2018 21:56:29
00030 suncat0079 pw.x -in pw.inp   Done                     12/27/2018 21:56:29
00031 suncat0079 pw.x -in pw.inp   Done                     12/27/2018 21:56:29
00032 suncat0076 pw.x -in pw.inp   Done                     12/27/2018 21:56:29
00033 suncat0076 pw.x -in pw.inp   Done                     12/27/2018 21:56:29
00034 suncat0076 pw.x -in pw.inp   Done                     12/27/2018 21:56:29
00035 suncat0076 pw.x -in pw.inp   Done                     12/27/2018 21:56:29
00036 suncat0076 pw.x -in pw.inp   Done                     12/27/2018 21:56:29
00037 suncat0076 pw.x -in pw.inp   Done                     12/27/2018 21:56:29
00038 suncat0076 pw.x -in pw.inp   Done                     12/27/2018 21:56:29
00039 suncat0076 pw.x -in pw.inp   Done                     12/27/2018 21:56:29
00040 suncat0064 pw.x -in pw.inp   Done                     12/27/2018 21:56:29
00041 suncat0064 pw.x -in pw.inp   Done                     12/27/2018 21:56:29
00042 suncat0064 pw.x -in pw.inp   Done                     12/27/2018 21:56:29
00043 suncat0064 pw.x -in pw.inp   Done                     12/27/2018 21:56:29
00044 suncat0064 pw.x -in pw.inp   Done                     12/27/2018 21:56:29
00045 suncat0064 pw.x -in pw.inp   Done                     12/27/2018 21:56:29
00046 suncat0064 pw.x -in pw.inp   Done                     12/27/2018 21:56:29
00047 suncat0064 pw.x -in pw.inp   Done                     12/27/2018 21:56:29
00048 suncat0040 pw.x -in pw.inp   Done                     12/27/2018 21:56:29
00049 suncat0040 pw.x -in pw.inp   Done                     12/27/2018 21:56:29
00050 suncat0040 pw.x -in pw.inp   Done                     12/27/2018 21:56:29
00051 suncat0040 pw.x -in pw.inp   Done                     12/27/2018 21:56:29
00052 suncat0040 pw.x -in pw.inp   Done                     12/27/2018 21:56:29
00053 suncat0040 pw.x -in pw.inp   Done                     12/27/2018 21:56:29
00054 suncat0040 pw.x -in pw.inp   Done                     12/27/2018 21:56:29
00055 suncat0040 pw.x -in pw.inp   Done                     12/27/2018 21:56:29
00056 suncat0179 pw.x -in pw.inp   Done                     12/27/2018 21:56:29
00057 suncat0179 pw.x -in pw.inp   Done                     12/27/2018 21:56:29
00058 suncat0179 pw.x -in pw.inp   Done                     12/27/2018 21:56:29
00059 suncat0179 pw.x -in pw.inp   Done                     12/27/2018 21:56:29
00060 suncat0179 pw.x -in pw.inp   Done                     12/27/2018 21:56:29
00061 suncat0179 pw.x -in pw.inp   Done                     12/27/2018 21:56:29
00062 suncat0179 pw.x -in pw.inp   Done                     12/27/2018 21:56:29
00063 suncat0179 pw.x -in pw.inp   Done                     12/27/2018 21:56:29