     Program PWSCF v.5.1rc2 (svn rev. 11289) starts on  2Jan2019 at  5:52:11

     Current dimensions of program PWSCF are:
     Max number of different atomic species (ntypx) = 10
     Max number of k-points (npk) =  40000
     Max angular momentum in pseudopotentials (lmaxx) =  3
     Presently stress not available with electric field

     IMPORTANT: XC functional enforced from input :
     Exchange-correlation      = BEEF-VDW ( 1  4 27 13 2)
     Any further DFT definition will be discarded
     Please, verify this is what you really want

     Subspace diagonalization in iterative solution of the eigenvalue problem:
     a serial algorithm will be used

     bravais-lattice index     =            0
     lattice parameter (alat)  =       1.8897  a.u.
     unit-cell volume          =    4154.4366 (a.u.)^3
     number of atoms/cell      =           12
     number of atomic types    =            2
     number of electrons       =       162.00
     number of Kohn-Sham states=          111
     kinetic-energy cutoff     =      36.7493  Ry
     charge density cutoff     =     367.4932  Ry
     convergence threshold     =      1.0E-06
     mixing beta               =       0.1000
     number of iterations used =           10  plain     mixing
     Exchange-correlation      = BEEF-VDW ( 1  4 27 13 2)
     nstep                     =           50

     celldm(1)=   1.889726  celldm(2)=   0.000000  celldm(3)=   0.000000
     celldm(4)=   0.000000  celldm(5)=   0.000000  celldm(6)=   0.000000

     crystal axes: (cart. coord. in units of alat)
               a(1) = (   5.396842   0.000000   0.000000 )
               a(2) = (  -2.698421   4.673802   0.000000 )
               a(3) = (   0.000000   0.000000  24.406503 )

     reciprocal axes: (cart. coord. in units 2 pi/alat)
               b(1) = (  0.185294  0.106979  0.000000 )
               b(2) = (  0.000000  0.213959  0.000000 )
               b(3) = (  0.000000  0.000000  0.040973 )

     PseudoPot. # 1 for V  read from file:
     /afs/slac.stanford.edu/u/if/mamunm/psp/gbrv1.5pbe/V.UPF
     MD5 check sum: 22b79981416ebb76fdaf5b1b8640f6fb
     Pseudo is Ultrasoft + core correction, Zval = 13.0
     Generated by new atomic code, or converted to UPF format
     Using radial grid of  853 points,  6 beta functions with:
                l(1) =   0
                l(2) =   0
                l(3) =   1
                l(4) =   1
                l(5) =   2
                l(6) =   2
     Q(r) pseudized with  8 coefficients,  rinner =    1.100   1.100   1.100
                                                       1.100   1.100

     PseudoPot. # 2 for Rh read from file:
     /afs/slac.stanford.edu/u/if/mamunm/psp/gbrv1.5pbe/Rh.UPF
     MD5 check sum: 761627e959a2e3a1f56b0b5fe687810e
     Pseudo is Ultrasoft + core correction, Zval = 15.0
     Generated by new atomic code, or converted to UPF format
     Using radial grid of  969 points,  7 beta functions with:
                l(1) =   0
                l(2) =   0
                l(3) =   1
                l(4) =   1
                l(5) =   2
                l(6) =   2
                l(7) =   2
     Q(r) pseudized with  8 coefficients,  rinner =    1.200   1.200   1.200
                                                       1.200   1.200

     vdW kernel table read from file vdW_kernel_table
     MD5 check sum: 095c7af220d748ca6e76c0b4c6cfb241

     atomic species   valence    mass     pseudopotential
        V1            13.00    50.94150     V ( 1.00)
        Rh1           15.00   102.90550     Rh( 1.00)

     No symmetry found

   Cartesian axes

     site n.     atom                  positions (alat units)
         1           V1  tau(   1) = (   0.0000000   0.0000000  10.0000000  )
         2           V1  tau(   2) = (  -1.3492104   2.3369010  10.0000000  )
         3           V1  tau(   3) = (   1.3492104   2.3369010  10.0000000  )
         4           Rh1 tau(   4) = (   2.6984208   0.0000000  10.0000000  )
         5           V1  tau(   5) = (   2.6984208   1.5579340  12.2032514  )
         6           V1  tau(   6) = (   1.3492104   3.8948350  12.2032514  )
         7           V1  tau(   7) = (  -1.3492104   3.8948350  12.2032514  )
         8           Rh1 tau(   8) = (   0.0000000   1.5579340  12.2032514  )
         9           V1  tau(   9) = (  -0.0000000   3.1158680  14.4065027  )
        10           V1  tau(  10) = (   1.3492104   0.7789670  14.4065027  )
        11           V1  tau(  11) = (   4.0476312   0.7789670  14.4065027  )
        12           Rh1 tau(  12) = (   2.6984208   3.1158680  14.4065027  )

     number of k points=    20  Fermi-Dirac smearing, width (Ry)=  0.0110
                       cart. coord. in units 2pi/alat
        k(    1) = (   0.0000000   0.0000000   0.0000000), wk =   0.0555556
        k(    2) = (   0.0000000   0.0356598   0.0000000), wk =   0.1111111
        k(    3) = (   0.0000000   0.0713195   0.0000000), wk =   0.1111111
        k(    4) = (   0.0000000  -0.1069793   0.0000000), wk =   0.0555556
        k(    5) = (   0.0308823   0.0178299   0.0000000), wk =   0.1111111
        k(    6) = (   0.0308823   0.0534896   0.0000000), wk =   0.1111111
        k(    7) = (   0.0308823   0.0891494   0.0000000), wk =   0.1111111
        k(    8) = (   0.0308823  -0.0891494   0.0000000), wk =   0.1111111
        k(    9) = (   0.0308823  -0.0534896   0.0000000), wk =   0.1111111
        k(   10) = (   0.0308823  -0.0178299   0.0000000), wk =   0.1111111
        k(   11) = (   0.0617645   0.0356598   0.0000000), wk =   0.1111111
        k(   12) = (   0.0617645   0.0713195   0.0000000), wk =   0.1111111
        k(   13) = (   0.0617645   0.1069793   0.0000000), wk =   0.1111111
        k(   14) = (   0.0617645  -0.0713195   0.0000000), wk =   0.1111111
        k(   15) = (   0.0617645  -0.0356598   0.0000000), wk =   0.1111111
        k(   16) = (   0.0617645   0.0000000   0.0000000), wk =   0.1111111
        k(   17) = (  -0.0926468  -0.0534896   0.0000000), wk =   0.0555556
        k(   18) = (  -0.0926468  -0.0178299   0.0000000), wk =   0.1111111
        k(   19) = (  -0.0926468   0.0178299   0.0000000), wk =   0.1111111
        k(   20) = (  -0.0926468  -0.1604689   0.0000000), wk =   0.0555556

     Largest allocated arrays     est. size (Mb)     dimensions
     Largest temporary arrays     est. size (Mb)     dimensions

     Initial potential from superposition of free atoms
     Check: negative starting charge=   -0.170341

     starting charge  160.48866, renormalised to  162.00000

     negative rho (up, down):  1.719E-01 0.000E+00

     *
     * You are using vdW-DF for exchange-correlation in this calculation.
     * Please cite the following three references that made this development
     * possible:
     *
     *   M. Dion, H. Rydberg, E. Schroder, D. C. Langreth, and
     *   B. I. Lundqvist, Phys. Rev. Lett. 92, 246401 (2004).
     *
     *   T. Thonhauser, V. R. Cooper, S. Li, A. Puzder, P. Hyldgaard, and
     *   D. C. Langreth, Phys. Rev. B 76, 125112 (2007).
     *
     *   G. Roman-Perez and J. M. Soler, Phys. Rev. Lett. 103, 096102 (2009).
     *
     *
     * If you are using vdW-DF2, please also cite:
     *
     *   K. Lee, E. D. Murray, L. Kong, B. I. Lundqvist, and
     *   D. C. Langreth, Phys. Rev. B 82, 081101(R) (2010).
     *
     *
     * If you are calculating the stress with vdW-DF, please also cite:
     *
     *   R. Sabatini, E. Kucukbenli, B. Kolb, T. Thonhauser, and
     *   S. de Gironcoli, J. Phys.: Condens. Matter 24, 424209 (2012).
     *

     Carrying out vdW-DF run using the following parameters:

     Nqs =      20    Nr_points =    1024   r_max =   100.000
     q_mesh =
               0.00001000     0.04494208     0.09755937     0.15916263
               0.23128650     0.31572767     0.41458969     0.53033537
               0.66584808     0.82450364     1.01025438     1.22772762
               1.48234092     1.78043706     2.12944203     2.53805004
               3.01644009     3.57652955     4.23227104     5.00000000

     Gradients computed in reciprocal space

     Adding external electric field

     Computed dipole along edir(3) :
        Dipole                0.0000 Ry au,          0.0000 Debye
        Dipole field          0.0000 Ry au

        Potential amp.       -0.0000 Ry
        Total length         44.9686 bohr

     Starting wfc are  126 randomized atomic wfcs

     Self-consistent Calculation

     iteration #  1     ecut=    36.75 Ry     beta=0.10
     Davidson diagonalization with overlap
     ethr =  1.00E-02,  avg # of iterations =  2.2

[...]

     total energy              =   -1827.80460277 Ry
     Harris-Foulkes estimate   =   -1829.03861739 Ry
     estimated scf accuracy    <       6.97957106 Ry

[...]

     End of self-consistent calculation

          k = 0.0000 0.0000 0.0000 ( 15569 PWs)   bands (ev):

   -63.0469 -63.0175 -62.9699 -62.9502 -62.9502 -62.9392 -62.9392 -62.9095
   -62.9095 -45.4689 -45.4278 -45.4278 -45.0734 -45.0734 -45.0728 -45.0728
   -45.0285 -45.0252 -37.1095 -37.0487 -37.0057 -37.0056 -36.9883 -36.9783
   -36.9597 -36.9596 -36.9277 -36.8883 -36.8883 -36.8622 -36.8622 -36.7968
   -36.7968 -36.7046 -36.6472 -36.6472 -36.6409 -36.6162 -36.5803 -36.4800
   -36.4800 -36.4526 -36.4525 -36.4493 -36.4493  -5.0166  -3.5048  -2.9983
    -2.9983  -2.9407  -2.6985  -2.6985  -2.2245  -2.2245  -2.2053  -2.2053
    -2.1464  -1.9405  -1.7060  -1.4184  -1.4184  -1.2638  -0.8766  -0.8766
    -0.6822  -0.0962   0.0268   0.4356   0.8090   0.8090   0.9354   0.9354
     0.9606   1.0648   1.1075   1.1075   1.1429   1.1429   1.3457   1.3458
     1.5935   1.7576   1.8482   1.8482   1.9054   1.9942   1.9942   2.2618
     2.2618   2.5780   2.7670   3.0104   3.0105   3.1922   3.2089   3.2089
     3.3680   3.3680   3.4709   3.4709   3.5456   3.5456   3.6878   3.7230
     3.7231   3.8425   3.8425   3.9668   3.9668   4.1942   4.2936

[...]

          k =-0.0926-0.0535 0.0000 ( 15652 PWs)   bands (ev):

[...]

     the Fermi energy is     1.3106 ev

!    total energy              =   -1828.41851637 Ry
     Harris-Foulkes estimate   =   -1828.41851554 Ry
     estimated scf accuracy    <       0.00000073 Ry

     The total energy is the sum of the following terms:

     one-electron contribution =  -15905.56314439 Ry
     hartree contribution      =    7953.40852902 Ry
     xc contribution           =    -276.17402493 Ry
     ewald contribution        =    6400.04057362 Ry
     electric field correction =       0.00000000 Ry
     smearing contrib. (-TS)   =      -0.13044969 Ry

     convergence has been achieved in  20 iterations

 BEEF-vdW xc energy contributions
           1 :   -238.922007634330
           2 :    216.180220406349
           3 :   -178.072897546885
           4 :    135.810966474641
           5 :   -99.5585729398321
           6 :    74.7590714480898
           7 :   -61.2489587803512
           8 :    55.0144545351013
           9 :   -51.1681263691781
          10 :    46.4234585073750
          11 :   -40.0247573050654
          12 :    33.1137151889290
          13 :   -27.3144110577505
          14 :    23.5091708151957
          15 :   -21.4386981882161
[...]

     PseudoPot. # 1 for V  read from file:
     /afs/slac.stanford.edu/u/if/mamunm/psp/gbrv1.5pbe/V.UPF
     MD5 check sum: 22b79981416ebb76fdaf5b1b8640f6fb
     Pseudo is Ultrasoft + core correction, Zval = 13.0
     Generated by new atomic code, or converted to UPF format
     Using radial grid of  853 points,  6 beta functions with:
                l(1) =   0
                l(2) =   0
                l(3) =   1
                l(4) =   1
                l(5) =   2
                l(6) =   2
     Q(r) pseudized with  8 coefficients,  rinner =    1.100   1.100   1.100
                                                       1.100   1.100

     PseudoPot. # 2 for Rh read from file:
     /afs/slac.stanford.edu/u/if/mamunm/psp/gbrv1.5pbe/Rh.UPF
     MD5 check sum: 761627e959a2e3a1f56b0b5fe687810e
     Pseudo is Ultrasoft + core correction, Zval = 15.0
     Generated by new atomic code, or converted to UPF format
     Using radial grid of  969 points,  7 beta functions with:
                l(1) =   0
                l(2) =   0
                l(3) =   1
                l(4) =   1
                l(5) =   2
                l(6) =   2
                l(7) =   2
     Q(r) pseudized with  8 coefficients,  rinner =    1.200   1.200   1.200
                                                       1.200   1.200

     vdW kernel table read from file vdW_kernel_table
     MD5 check sum: 095c7af220d748ca6e76c0b4c6cfb241

     atomic species   valence    mass     pseudopotential
        V1            13.00    50.94150     V ( 1.00)
        Rh1           15.00   102.90550     Rh( 1.00)

     No symmetry found

   Cartesian axes

     site n.     atom                  positions (alat units)
         1           V1  tau(   1) = (   0.0000000   0.0000000  10.0000000  )
         2           V1  tau(   2) = (  -1.3492104   2.3369010  10.0000000  )
         3           V1  tau(   3) = (   1.3492104   2.3369010  10.0000000  )
         4           Rh1 tau(   4) = (   2.6984208   0.0000000  10.0000000  )
         5           V1  tau(   5) = (   2.6984208   1.5579340  12.2032514  )
         6           V1  tau(   6) = (   1.3492104   3.8948350  12.2032514  )
         7           V1  tau(   7) = (  -1.3492104   3.8948350  12.2032514  )
         8           Rh1 tau(   8) = (   0.0000000   1.5579340  12.2032514  )
         9           V1  tau(   9) = (   0.0000197   3.1088538  14.3548410  )
        10           V1  tau(  10) = (   1.3431739   0.7825049  14.3548122  )
        11           V1  tau(  11) = (   4.0536783   0.7824869  14.3548318  )
        12           Rh1 tau(  12) = (   2.6984214   3.1158374  14.4104109  )

     number of k points=    20  Fermi-Dirac smearing, width (Ry)=  0.0110
                       cart. coord. in units 2pi/alat
        k(    1) = (   0.0000000   0.0000000   0.0000000), wk =   0.0555556
        k(    2) = (   0.0000000   0.0356598   0.0000000), wk =   0.1111111
        k(    3) = (   0.0000000   0.0713195   0.0000000), wk =   0.1111111
        k(    4) = (   0.0000000  -0.1069793   0.0000000), wk =   0.0555556
        k(    5) = (   0.0308823   0.0178299   0.0000000), wk =   0.1111111
        k(    6) = (   0.0308823   0.0534896   0.0000000), wk =   0.1111111
        k(    7) = (   0.0308823   0.0891494   0.0000000), wk =   0.1111111
        k(    8) = (   0.0308823  -0.0891494   0.0000000), wk =   0.1111111
        k(    9) = (   0.0308823  -0.0534896   0.0000000), wk =   0.1111111
        k(   10) = (   0.0308823  -0.0178299   0.0000000), wk =   0.1111111
        k(   11) = (   0.0617645   0.0356598   0.0000000), wk =   0.1111111
        k(   12) = (   0.0617645   0.0713195   0.0000000), wk =   0.1111111
        k(   13) = (   0.0617645   0.1069793   0.0000000), wk =   0.1111111
        k(   14) = (   0.0617645  -0.0713195   0.0000000), wk =   0.1111111
        k(   15) = (   0.0617645  -0.0356598   0.0000000), wk =   0.1111111
        k(   16) = (   0.0617645   0.0000000   0.0000000), wk =   0.1111111
        k(   17) = (  -0.0926468  -0.0534896   0.0000000), wk =   0.0555556
        k(   18) = (  -0.0926468  -0.0178299   0.0000000), wk =   0.1111111
        k(   19) = (  -0.0926468   0.0178299   0.0000000), wk =   0.1111111
        k(   20) = (  -0.0926468  -0.1604689   0.0000000), wk =   0.0555556

     Largest allocated arrays     est. size (Mb)     dimensions
     Largest temporary arrays     est. size (Mb)     dimensions

     Initial potential from superposition of free atoms
     Check: negative starting charge=   -0.168345

     starting charge  160.48866, renormalised to  162.00000

[...]

     *
     * You are using vdW-DF for exchange-correlation in this calculation.
     * Please cite the following three references that made this development
     * possible:
     *
     *   M. Dion, H. Rydberg, E. Schroder, D. C. Langreth, and
     *   B. I. Lundqvist, Phys. Rev. Lett. 92, 246401 (2004).
     *
     *   T. Thonhauser, V. R. Cooper, S. Li, A. Puzder, P. Hyldgaard, and
     *   D. C. Langreth, Phys. Rev. B 76, 125112 (2007).
     *
     *   G. Roman-Perez and J. M. Soler, Phys. Rev. Lett. 103, 096102 (2009).
     *
     *
     * If you are using vdW-DF2, please also cite:
     *
     *   K. Lee, E. D. Murray, L. Kong, B. I. Lundqvist, and
     *   D. C. Langreth, Phys. Rev. B 82, 081101(R) (2010).
     *
     *
     * If you are calculating the stress with vdW-DF, please also cite:
     *
     *   R. Sabatini, E. Kucukbenli, B. Kolb, T. Thonhauser, and
     *   S. de Gironcoli, J. Phys.: Condens. Matter 24, 424209 (2012).
     *

     Carrying out vdW-DF run using the following parameters:

     Nqs =      20    Nr_points =    1024   r_max =   100.000
     q_mesh =
               0.00001000     0.04494208     0.09755937     0.15916263
               0.23128650     0.31572767     0.41458969     0.53033537
               0.66584808     0.82450364     1.01025438     1.22772762
               1.48234092     1.78043706     2.12944203     2.53805004
               3.01644009     3.57652955     4.23227104     5.00000000

     Gradients computed in reciprocal space

[...]

     Starting wfc are  126 randomized atomic wfcs

     Self-consistent Calculation

[...]

     total energy              =   -1828.41998434 Ry
     Harris-Foulkes estimate   =   -1828.41998415 Ry
     estimated scf accuracy    <       0.00000122 Ry

     iteration # 21     ecut=    36.75 Ry     beta=0.10
     Davidson diagonalization with overlap
     ethr =  7.52E-10,  avg # of iterations =  2.9

[...]

     negative rho (up, down):  1.822E-01 0.000E+00

     Adding external electric field

     Computed dipole along edir(3) :
        Dipole               -0.0004 Ry au,         -0.0011 Debye
        Dipole field         -0.0000 Ry au

        Potential amp.        0.0001 Ry
        Total length         44.9686 bohr

     End of self-consistent calculation

[...]

          k = 0.0618 0.0000 0.0000 ( 15608 PWs)   bands (ev):

[...]

          k =-0.0926-0.1605 0.0000 ( 15652 PWs)   bands (ev):

   -63.0071 -62.9951 -62.9765 -62.9593 -62.9494 -62.9288 -62.9232 -62.9160
   -62.8919 -45.5025 -45.4523 -45.4492 -45.0746 -45.0714 -45.0589 -45.0557
   -45.0290 -45.0087 -37.0389 -37.0111 -37.0041 -36.9349 -36.9240 -36.9186
   -36.9172 -36.9007 -36.8759 -36.8566 -36.8009 -36.7923 -36.7721 -36.7674
   -36.7531 -36.7450 -36.7183 -36.6950 -36.6797 -36.6794 -36.6640 -36.6016
   -36.5519 -36.5304 -36.4960 -36.4711 -36.4465  -3.4997  -3.2643  -2.5473
    -2.4881  -2.4008  -2.2459  -1.9733  -1.9579  -1.8495  -1.6847  -1.6053
    -1.4906  -1.3474  -1.2670  -1.2566  -1.0639  -1.0226  -0.9780  -0.8051
    -0.6453  -0.4341  -0.3542  -0.0865   0.0258   0.0698   0.3616   0.5706
     0.6437   0.6728   0.6733   0.8199   0.8615   0.9268   0.9470   0.9487
     1.0037   1.0998   1.2513   1.3358   1.4945   1.6535   1.7245   1.8582
     1.9791   2.0959   2.1717   2.2283   2.3455   2.3459   2.4964   2.5239
     2.7364   2.7823   2.8299   2.8942   2.9467   2.9903   3.1734   3.2545
     3.2813   3.5248   3.7011   3.7374   4.1383   4.1820   4.3343

     the Fermi energy is     1.3046 ev

!    total energy              =   -1828.41998494 Ry
     Harris-Foulkes estimate   =   -1828.41998447 Ry
     estimated scf accuracy    <       0.00000061 Ry

     The total energy is the sum of the following terms:

     one-electron contribution =  -15986.40583408 Ry
     hartree contribution      =    7993.86103058 Ry
     xc contribution           =    -276.24310136 Ry
     ewald contribution        =    6440.49861941 Ry
     electric field correction =       0.00000000 Ry
     smearing contrib. (-TS)   =      -0.13069949 Ry

     convergence has been achieved in  21 iterations

 BEEF-vdW xc energy contributions
           1 :   -238.992160149519
           2 :    216.272879617250
           3 :   -178.189353597552
           4 :    135.926902019299
           5 :   -99.6401666814514
           6 :    74.7879468793168
           7 :   -61.2362321230679
           8 :    54.9934387290738
           9 :   -51.1721786294996
          10 :    46.4648472723566
          11 :   -40.0887199168896
          12 :    33.1707938390883
          13 :   -27.3417825513858
          14 :    23.5060265410663
          15 :   -21.4251276702751
          16 :    20.1373414627196
          17 :   -18.7430028659270
          18 :    16.9541008134026
          19 :   -15.0884247387889
          20 :    13.6284349282167
          21 :   -12.7572314742410
          22 :    12.2240932814733
          23 :   -11.5900202501147
          24 :    10.6046792614444
          25 :   -9.40433178220258
          26 :    8.39056246866221
          27 :   -7.90566215106918
          28 :    7.95754640741006
          29 :   -8.19745054420326
          30 :    8.16055684937584
          31 :   -24.3146907867934
          32 :   -17.7727034338993

     Forces acting on atoms (Ry/au):

     negative rho (up, down):  1.822E-01 0.000E+00
     atom    1 type  1   force =    -0.00000024    0.00326789    0.00992033
     atom    2 type  1   force =     0.00283011   -0.00163439    0.00991996
     atom    3 type  1   force =    -0.00283137   -0.00163483    0.00992096
     atom    4 type  2   force =     0.00000038   -0.00000057   -0.00267356
     atom    5 type  1   force =     0.00000223    0.00223407   -0.00432288
     atom    6 type  1   force =     0.00193375   -0.00111599   -0.00431410
     atom    7 type  1   force =    -0.00193516   -0.00111921   -0.00431421
     atom    8 type  2   force =    -0.00000098    0.00000155   -0.01336363
     atom    9 type  1   force =    -0.00000517   -0.00013230   -0.00036746
     atom   10 type  1   force =    -0.00012523    0.00005586   -0.00036782
     atom   11 type  1   force =     0.00012772    0.00006317   -0.00036940
     atom   12 type  2   force =     0.00000397    0.00001474    0.00033181

     Total force =     0.024176     Total SCF correction =     0.001423

     entering subroutine stress ...

     negative rho (up, down):  1.822E-01 0.000E+00
          total   stress  (Ry/bohr**3)                   (kbar)     P=  -25.37
  -0.00022191  -0.00000000   0.00000000        -32.64     -0.00      0.00
  -0.00000000  -0.00022190  -0.00000000         -0.00    -32.64     -0.00
   0.00000000  -0.00000000  -0.00007358          0.00     -0.00    -10.82

 !ASE

     Writing output data file calc.save

     General routines

     Parallel routines

   This run was terminated on:   7:25: 0   2Jan2019

   JOB DONE.
Job  /afs/slac/g/suncat/bin/suncat-tsmpirun -x LD_LIBRARY_PATH -wdir /scratch/qe649324_qHeHf pw.x -in pw.inp

TID   HOST_NAME   COMMAND_LINE            STATUS            TERMINATION_TIME
00000 suncat0141 pw.x -in pw.inp   Done                     01/02/2019 07:25:00
00001 suncat0141 pw.x -in pw.inp   Done                     01/02/2019 07:25:00
00002 suncat0141 pw.x -in pw.inp   Done                     01/02/2019 07:25:00
00003 suncat0141 pw.x -in pw.inp   Done                     01/02/2019 07:25:00
00004 suncat0141 pw.x -in pw.inp   Done                     01/02/2019 07:25:00
00005 suncat0141 pw.x -in pw.inp   Done                     01/02/2019 07:25:00
00006 suncat0141 pw.x -in pw.inp   Done                     01/02/2019 07:25:00
00007 suncat0141 pw.x -in pw.inp   Done                     01/02/2019 07:25:00
00008 suncat0140 pw.x -in pw.inp   Done                     01/02/2019 07:25:00
00009 suncat0140 pw.x -in pw.inp   Done                     01/02/2019 07:25:00
00010 suncat0140 pw.x -in pw.inp   Done                     01/02/2019 07:25:00
00011 suncat0140 pw.x -in pw.inp   Done                     01/02/2019 07:25:00
00012 suncat0140 pw.x -in pw.inp   Done                     01/02/2019 07:25:00
00013 suncat0140 pw.x -in pw.inp   Done                     01/02/2019 07:25:00
00014 suncat0140 pw.x -in pw.inp   Done                     01/02/2019 07:25:00
00015 suncat0140 pw.x -in pw.inp   Done                     01/02/2019 07:25:00
00016 suncat0135 pw.x -in pw.inp   Done                     01/02/2019 07:25:00
00017 suncat0135 pw.x -in pw.inp   Done                     01/02/2019 07:25:00
00018 suncat0135 pw.x -in pw.inp   Done                     01/02/2019 07:25:00
00019 suncat0135 pw.x -in pw.inp   Done                     01/02/2019 07:25:00
00020 suncat0135 pw.x -in pw.inp   Done                     01/02/2019 07:25:00
00021 suncat0135 pw.x -in pw.inp   Done                     01/02/2019 07:25:00
00022 suncat0135 pw.x -in pw.inp   Done                     01/02/2019 07:25:00
00023 suncat0135 pw.x -in pw.inp   Done                     01/02/2019 07:25:00
00024 suncat0134 pw.x -in pw.inp   Done                     01/02/2019 07:25:00
00025 suncat0134 pw.x -in pw.inp   Done                     01/02/2019 07:25:00
00026 suncat0134 pw.x -in pw.inp   Done                     01/02/2019 07:25:00
00027 suncat0134 pw.x -in pw.inp   Done                     01/02/2019 07:25:00
00028 suncat0134 pw.x -in pw.inp   Done                     01/02/2019 07:25:00
00029 suncat0134 pw.x -in pw.inp   Done                     01/02/2019 07:25:00
00030 suncat0134 pw.x -in pw.inp   Done                     01/02/2019 07:25:00
00031 suncat0134 pw.x -in pw.inp   Done                     01/02/2019 07:25:00
00032 suncat0272 pw.x -in pw.inp   Done                     01/02/2019 07:25:00
00033 suncat0272 pw.x -in pw.inp   Done                     01/02/2019 07:25:00
00034 suncat0272 pw.x -in pw.inp   Done                     01/02/2019 07:25:00
00035 suncat0272 pw.x -in pw.inp   Done                     01/02/2019 07:25:00
00036 suncat0272 pw.x -in pw.inp   Done                     01/02/2019 07:25:00
00037 suncat0272 pw.x -in pw.inp   Done                     01/02/2019 07:25:00
00038 suncat0272 pw.x -in pw.inp   Done                     01/02/2019 07:25:00
00039 suncat0272 pw.x -in pw.inp   Done                     01/02/2019 07:25:00
00040 suncat0262 pw.x -in pw.inp   Done                     01/02/2019 07:25:00
00041 suncat0262 pw.x -in pw.inp   Done                     01/02/2019 07:25:00
00042 suncat0262 pw.x -in pw.inp   Done                     01/02/2019 07:25:00
00043 suncat0262 pw.x -in pw.inp   Done                     01/02/2019 07:25:00
00044 suncat0262 pw.x -in pw.inp   Done                     01/02/2019 07:25:00
00045 suncat0262 pw.x -in pw.inp   Done                     01/02/2019 07:25:00
00046 suncat0262 pw.x -in pw.inp   Done                     01/02/2019 07:25:00
00047 suncat0262 pw.x -in pw.inp   Done                     01/02/2019 07:25:00
00048 suncat0258 pw.x -in pw.inp   Done                     01/02/2019 07:25:00
00049 suncat0258 pw.x -in pw.inp   Done                     01/02/2019 07:25:00
00050 suncat0258 pw.x -in pw.inp   Done                     01/02/2019 07:25:00
00051 suncat0258 pw.x -in pw.inp   Done                     01/02/2019 07:25:00
00052 suncat0258 pw.x -in pw.inp   Done                     01/02/2019 07:25:00
00053 suncat0258 pw.x -in pw.inp   Done                     01/02/2019 07:25:00
00054 suncat0258 pw.x -in pw.inp   Done                     01/02/2019 07:25:00
00055 suncat0258 pw.x -in pw.inp   Done                     01/02/2019 07:25:00
00056 suncat0257 pw.x -in pw.inp   Done                     01/02/2019 07:25:00
00057 suncat0257 pw.x -in pw.inp   Done                     01/02/2019 07:25:00
00058 suncat0257 pw.x -in pw.inp   Done                     01/02/2019 07:25:00
00059 suncat0257 pw.x -in pw.inp   Done                     01/02/2019 07:25:00
00060 suncat0257 pw.x -in pw.inp   Done                     01/02/2019 07:25:00
00061 suncat0257 pw.x -in pw.inp   Done                     01/02/2019 07:25:00
00062 suncat0257 pw.x -in pw.inp   Done                     01/02/2019 07:25:00
00063 suncat0257 pw.x -in pw.inp   Done                     01/02/2019 07:25:00