     Program PWSCF v.5.1rc2 (svn rev. 11289) starts on 27Dec2018 at 22: 9:53

     Current dimensions of program PWSCF are:
     Max number of different atomic species (ntypx) = 10
     Max number of k-points (npk) =  40000
     Max angular momentum in pseudopotentials (lmaxx) =  3
     Presently stress not available with electric field

     IMPORTANT: XC functional enforced from input :
     Exchange-correlation      = BEEF-VDW ( 1  4 27 13 2)
     Any further DFT definition will be discarded
     Please, verify this is what you really want

     Subspace diagonalization in iterative solution of the eigenvalue problem:
     a serial algorithm will be used

     bravais-lattice index     =            0
     lattice parameter (alat)  =       1.8897  a.u.
     unit-cell volume          =    4757.8873 (a.u.)^3
     number of atoms/cell      =           12
     number of atomic types    =            2
     number of electrons       =       177.00
     number of Kohn-Sham states=          118
     kinetic-energy cutoff     =      36.7493  Ry
     charge density cutoff     =     367.4932  Ry
     convergence threshold     =      1.0E-06
     mixing beta               =       0.1000
     number of iterations used =           10  plain     mixing
     Exchange-correlation      = BEEF-VDW ( 1  4 27 13 2)
     nstep                     =           50

     celldm(1)=   1.889726  celldm(2)=   0.000000  celldm(3)=   0.000000
     celldm(4)=   0.000000  celldm(5)=   0.000000  celldm(6)=   0.000000

     crystal axes: (cart. coord. in units of alat)
               a(1) = (   5.742416   0.000000   0.000000 )
               a(2) = (  -2.871208   4.973078   0.000000 )
               a(3) = (   0.000000   0.000000  24.688663 )

     reciprocal axes: (cart. coord. in units 2 pi/alat)
               b(1) = (  0.174143  0.100541  0.000000 )
               b(2) = (  0.000000  0.201083  0.000000 )
               b(3) = (  0.000000  0.000000  0.040504 )

     PseudoPot. # 1 for Ru read from file:
     /afs/slac.stanford.edu/u/if/mamunm/psp/gbrv1.5pbe/Ru.UPF
     MD5 check sum: 7158a806dd851261a58e6920c40ebe78
     Pseudo is Ultrasoft + core correction, Zval = 16.0
     Generated by new atomic code, or converted to UPF format
     Using radial grid of  967 points,  6 beta functions with:
                l(1) =   0
                l(2) =   0
                l(3) =   1
                l(4) =   1
                l(5) =   2
                l(6) =   2
     Q(r) pseudized with  8 coefficients,  rinner =    1.300   1.300   1.300
                                                       1.300   1.300

     PseudoPot. # 2 for Y  read from file:
     /afs/slac.stanford.edu/u/if/mamunm/psp/gbrv1.5pbe/Y.UPF
     MD5 check sum: d034151ed7554c50b6e82763ed42c788
     Pseudo is Ultrasoft + core correction, Zval = 11.0
     Generated by new atomic code, or converted to UPF format
     Using radial grid of  885 points,  6 beta functions with:
                l(1) =   0
                l(2) =   0
                l(3) =   1
                l(4) =   1
                l(5) =   2
                l(6) =   2
     Q(r) pseudized with  8 coefficients,  rinner =    1.200   1.200   1.200
                                                       1.200   1.200

     vdW kernel table read from file vdW_kernel_table
     MD5 check sum: 095c7af220d748ca6e76c0b4c6cfb241

     atomic species   valence    mass     pseudopotential
        Ru1           16.00   101.07000     Ru( 1.00)
        Y1            11.00    88.90584     Y ( 1.00)

     No symmetry found

   Cartesian axes

     site n.     atom                  positions (alat units)
         1           Ru1 tau(   1) = (   0.0000000   0.0000000  10.0000000  )
         2           Ru1 tau(   2) = (  -1.4356041   2.4865392  10.0000000  )
         3           Ru1 tau(   3) = (   1.4356041   2.4865392  10.0000000  )
         4           Y1  tau(   4) = (   2.8712081   0.0000000  10.0000000  )
         5           Ru1 tau(   5) = (   2.8712081   1.6576928  12.3443316  )
         6           Ru1 tau(   6) = (   1.4356041   4.1442320  12.3443316  )
         7           Ru1 tau(   7) = (  -1.4356041   4.1442320  12.3443316  )
         8           Y1  tau(   8) = (   0.0000000   1.6576928  12.3443316  )
         9           Ru1 tau(   9) = (  -0.0000000   3.3153856  14.6886632  )
        10           Ru1 tau(  10) = (   1.4356041   0.8288464  14.6886632  )
        11           Ru1 tau(  11) = (   4.3068122   0.8288464  14.6886632  )
        12           Y1  tau(  12) = (   2.8712081   3.3153856  14.6886632  )

     number of k points=    20  Fermi-Dirac smearing, width (Ry)=  0.0110
                       cart. coord. in units 2pi/alat
        k(    1) = (   0.0000000   0.0000000   0.0000000), wk =   0.0555556
        k(    2) = (   0.0000000   0.0335138   0.0000000), wk =   0.1111111
        k(    3) = (   0.0000000   0.0670276   0.0000000), wk =   0.1111111
        k(    4) = (   0.0000000  -0.1005413   0.0000000), wk =   0.0555556
        k(    5) = (   0.0290238   0.0167569   0.0000000), wk =   0.1111111
        k(    6) = (   0.0290238   0.0502707   0.0000000), wk =   0.1111111
        k(    7) = (   0.0290238   0.0837845   0.0000000), wk =   0.1111111
        k(    8) = (   0.0290238  -0.0837845   0.0000000), wk =   0.1111111
        k(    9) = (   0.0290238  -0.0502707   0.0000000), wk =   0.1111111
        k(   10) = (   0.0290238  -0.0167569   0.0000000), wk =   0.1111111
        k(   11) = (   0.0580476   0.0335138   0.0000000), wk =   0.1111111
        k(   12) = (   0.0580476   0.0670276   0.0000000), wk =   0.1111111
        k(   13) = (   0.0580476   0.1005413   0.0000000), wk =   0.1111111
        k(   14) = (   0.0580476  -0.0670276   0.0000000), wk =   0.1111111
        k(   15) = (   0.0580476  -0.0335138   0.0000000), wk =   0.1111111
        k(   16) = (   0.0580476   0.0000000   0.0000000), wk =   0.1111111
        k(   17) = (  -0.0870714  -0.0502707   0.0000000), wk =   0.0555556
        k(   18) = (  -0.0870714  -0.0167569   0.0000000), wk =   0.1111111
        k(   19) = (  -0.0870714   0.0167569   0.0000000), wk =   0.1111111
        k(   20) = (  -0.0870714  -0.1508120   0.0000000), wk =   0.0555556

     Largest allocated arrays     est. size (Mb)     dimensions
     Largest temporary arrays     est. size (Mb)     dimensions

     Initial potential from superposition of free atoms
     Check: negative starting charge=   -0.664827

     starting charge  167.98645, renormalised to  177.00000

     negative rho (up, down):  7.005E-01 0.000E+00

     *
     * You are using vdW-DF for exchange-correlation in this calculation.
     * Please cite the following three references that made this development
     * possible:
     *
     *   M. Dion, H. Rydberg, E. Schroder, D. C. Langreth, and
     *   B. I. Lundqvist, Phys. Rev. Lett. 92, 246401 (2004).
     *
     *   T. Thonhauser, V. R. Cooper, S. Li, A. Puzder, P. Hyldgaard, and
     *   D. C. Langreth, Phys. Rev. B 76, 125112 (2007).
     *
     *   G. Roman-Perez and J. M. Soler, Phys. Rev. Lett. 103, 096102 (2009).
     *
     *
     * If you are using vdW-DF2, please also cite:
     *
     *   K. Lee, E. D. Murray, L. Kong, B. I. Lundqvist, and
     *   D. C. Langreth, Phys. Rev. B 82, 081101(R) (2010).
     *
     *
     * If you are calculating the stress with vdW-DF, please also cite:
     *
     *   R. Sabatini, E. Kucukbenli, B. Kolb, T. Thonhauser, and
     *   S. de Gironcoli, J. Phys.: Condens. Matter 24, 424209 (2012).
     *

     Carrying out vdW-DF run using the following parameters:

     Nqs =      20    Nr_points =    1024   r_max =   100.000
     q_mesh =
               0.00001000     0.04494208     0.09755937     0.15916263
               0.23128650     0.31572767     0.41458969     0.53033537
               0.66584808     0.82450364     1.01025438     1.22772762
               1.48234092     1.78043706     2.12944203     2.53805004
               3.01644009     3.57652955     4.23227104     5.00000000

     Gradients computed in reciprocal space

     Adding external electric field

     Computed dipole along edir(3) :
        Dipole                0.0000 Ry au,          0.0000 Debye
        Dipole field          0.0000 Ry au

        Potential amp.       -0.0000 Ry
        Total length         45.4884 bohr

     Starting wfc are  156 randomized atomic wfcs

     Self-consistent Calculation

     iteration #  1     ecut=    36.75 Ry     beta=0.10
     Davidson diagonalization with overlap
     ethr =  1.00E-02,  avg # of iterations =  4.7

[...]

     total energy              =   -2037.91393694 Ry
     Harris-Foulkes estimate   =   -2039.97638764 Ry
     estimated scf accuracy    <      12.90017280 Ry

[...]

     End of self-consistent calculation

          k = 0.0000 0.0000 0.0000 ( 17959 PWs)   bands (ev):

   -70.3084 -70.2710 -70.2709 -70.0195 -70.0184 -69.9827 -69.9827 -69.9825
   -69.9825 -40.5012 -40.3697 -40.3697 -40.3665 -40.2941 -40.2941 -40.2673
   -40.2378 -40.1501 -40.0659 -40.0659 -40.0458 -40.0458 -40.0180 -40.0178
   -40.0178 -39.9642 -39.9605 -39.9605 -39.9375 -39.9375 -39.8504 -39.8431
   -39.8431 -39.8374 -39.8374 -39.8060 -39.8004 -39.7932 -38.9526 -19.9908
   -19.9570 -19.8531 -19.8531 -19.8444 -19.8444 -19.1221 -19.0934 -19.0934
    -3.2522  -2.0449  -1.9537  -1.8181  -1.8181  -1.7621  -1.6010  -1.6010
    -1.3728  -1.3308  -1.3308  -1.2060  -1.1066  -1.1066  -1.0296  -0.2757
    -0.0580  -0.0580   0.2459   0.2459   0.5621   0.7066   0.7613   0.7879
     1.1346   1.1346   1.2212   1.2212   1.4641   1.4641   1.4679   1.4679
     1.6434   1.6434   1.9779   2.0110   2.3396   2.3396   2.4610   2.4610
     2.5955   2.5955   3.0041   3.1173   3.1174   3.1478   3.6381   3.7310
     3.8821   3.9004   3.9293   4.7989   5.0791   5.0791   5.5649   5.7764
     5.7764   5.9142   5.9142   6.0626   6.3122   6.3206   6.3206   6.3598
     6.3598   6.7606   6.7606   6.8766   7.2974   7.3785

[...]

          k =-0.0871-0.0503 0.0000 ( 17864 PWs)   bands (ev):

[...]

     the Fermi energy is     2.1107 ev

!    total energy              =   -2036.98407477 Ry
     Harris-Foulkes estimate   =   -2036.98407708 Ry
     estimated scf accuracy    <       0.00000019 Ry

     The total energy is the sum of the following terms:

     one-electron contribution =  -16310.49656941 Ry
     hartree contribution      =    8158.08479495 Ry
     xc contribution           =    -326.81614821 Ry
     ewald contribution        =    6442.34585694 Ry
     electric field correction =       0.00000000 Ry
     smearing contrib. (-TS)   =      -0.10200904 Ry

     convergence has been achieved in  20 iterations

 BEEF-vdW xc energy contributions
           1 :   -283.787666928437
           2 :    258.874821110442
           3 :   -215.692233553403
           4 :    164.822197803884
           5 :   -116.943890666110
           6 :    79.5882585428043
           7 :   -55.5757974435726
           8 :    43.3598049569960
           9 :   -38.7695636783742
          10 :    37.2352498650955
          11 :   -35.5512124770722
          12 :    32.5722285573610
          13 :   -28.8124149786805
          14 :    25.4226885386782
[...]
     /afs/slac.stanford.edu/u/if/mamunm/psp/gbrv1.5pbe/Ru.UPF
     MD5 check sum: 7158a806dd851261a58e6920c40ebe78
     Pseudo is Ultrasoft + core correction, Zval = 16.0
     Generated by new atomic code, or converted to UPF format
     Using radial grid of  967 points,  6 beta functions with:
                l(1) =   0
                l(2) =   0
                l(3) =   1
                l(4) =   1
                l(5) =   2
                l(6) =   2
     Q(r) pseudized with  8 coefficients,  rinner =    1.300   1.300   1.300
                                                       1.300   1.300

     PseudoPot. # 2 for Y  read from file:
     /afs/slac.stanford.edu/u/if/mamunm/psp/gbrv1.5pbe/Y.UPF
     MD5 check sum: d034151ed7554c50b6e82763ed42c788
     Pseudo is Ultrasoft + core correction, Zval = 11.0
     Generated by new atomic code, or converted to UPF format
     Using radial grid of  885 points,  6 beta functions with:
                l(1) =   0
                l(2) =   0
                l(3) =   1
                l(4) =   1
                l(5) =   2
                l(6) =   2
     Q(r) pseudized with  8 coefficients,  rinner =    1.200   1.200   1.200
                                                       1.200   1.200

     vdW kernel table read from file vdW_kernel_table
     MD5 check sum: 095c7af220d748ca6e76c0b4c6cfb241

     atomic species   valence    mass     pseudopotential
        Ru1           16.00   101.07000     Ru( 1.00)
        Y1            11.00    88.90584     Y ( 1.00)

     No symmetry found

   Cartesian axes

     site n.     atom                  positions (alat units)
         1           Ru1 tau(   1) = (   0.0000000   0.0000000  10.0000000  )
         2           Ru1 tau(   2) = (  -1.4356041   2.4865392  10.0000000  )
         3           Ru1 tau(   3) = (   1.4356041   2.4865392  10.0000000  )
         4           Y1  tau(   4) = (   2.8712081   0.0000000  10.0000000  )
         5           Ru1 tau(   5) = (   2.8712081   1.6576928  12.3443316  )
         6           Ru1 tau(   6) = (   1.4356041   4.1442320  12.3443316  )
         7           Ru1 tau(   7) = (  -1.4356041   4.1442320  12.3443316  )
         8           Y1  tau(   8) = (   0.0000000   1.6576928  12.3443316  )
         9           Ru1 tau(   9) = (  -0.0000019   3.4344696  14.4913536  )
        10           Ru1 tau(  10) = (   1.5387316   0.7693145  14.4913539  )
        11           Ru1 tau(  11) = (   4.2037275   0.7693412  14.4913756  )
        12           Y1  tau(  12) = (   2.8712188   3.3153863  14.9194421  )

     number of k points=    20  Fermi-Dirac smearing, width (Ry)=  0.0110
                       cart. coord. in units 2pi/alat
        k(    1) = (   0.0000000   0.0000000   0.0000000), wk =   0.0555556
        k(    2) = (   0.0000000   0.0335138   0.0000000), wk =   0.1111111
        k(    3) = (   0.0000000   0.0670276   0.0000000), wk =   0.1111111
        k(    4) = (   0.0000000  -0.1005413   0.0000000), wk =   0.0555556
        k(    5) = (   0.0290238   0.0167569   0.0000000), wk =   0.1111111
        k(    6) = (   0.0290238   0.0502707   0.0000000), wk =   0.1111111
        k(    7) = (   0.0290238   0.0837845   0.0000000), wk =   0.1111111
        k(    8) = (   0.0290238  -0.0837845   0.0000000), wk =   0.1111111
        k(    9) = (   0.0290238  -0.0502707   0.0000000), wk =   0.1111111
        k(   10) = (   0.0290238  -0.0167569   0.0000000), wk =   0.1111111
        k(   11) = (   0.0580476   0.0335138   0.0000000), wk =   0.1111111
        k(   12) = (   0.0580476   0.0670276   0.0000000), wk =   0.1111111
        k(   13) = (   0.0580476   0.1005413   0.0000000), wk =   0.1111111
        k(   14) = (   0.0580476  -0.0670276   0.0000000), wk =   0.1111111
        k(   15) = (   0.0580476  -0.0335138   0.0000000), wk =   0.1111111
        k(   16) = (   0.0580476   0.0000000   0.0000000), wk =   0.1111111
        k(   17) = (  -0.0870714  -0.0502707   0.0000000), wk =   0.0555556
        k(   18) = (  -0.0870714  -0.0167569   0.0000000), wk =   0.1111111
        k(   19) = (  -0.0870714   0.0167569   0.0000000), wk =   0.1111111
        k(   20) = (  -0.0870714  -0.1508120   0.0000000), wk =   0.0555556

     Largest allocated arrays     est. size (Mb)     dimensions
     Largest temporary arrays     est. size (Mb)     dimensions

     Initial potential from superposition of free atoms
     Check: negative starting charge=   -0.657773

     starting charge  167.98645, renormalised to  177.00000

[...]

     *
     * You are using vdW-DF for exchange-correlation in this calculation.
     * Please cite the following three references that made this development
     * possible:
     *
     *   M. Dion, H. Rydberg, E. Schroder, D. C. Langreth, and
     *   B. I. Lundqvist, Phys. Rev. Lett. 92, 246401 (2004).
     *
     *   T. Thonhauser, V. R. Cooper, S. Li, A. Puzder, P. Hyldgaard, and
     *   D. C. Langreth, Phys. Rev. B 76, 125112 (2007).
     *
     *   G. Roman-Perez and J. M. Soler, Phys. Rev. Lett. 103, 096102 (2009).
     *
     *
     * If you are using vdW-DF2, please also cite:
     *
     *   K. Lee, E. D. Murray, L. Kong, B. I. Lundqvist, and
     *   D. C. Langreth, Phys. Rev. B 82, 081101(R) (2010).
     *
     *
     * If you are calculating the stress with vdW-DF, please also cite:
     *
     *   R. Sabatini, E. Kucukbenli, B. Kolb, T. Thonhauser, and
     *   S. de Gironcoli, J. Phys.: Condens. Matter 24, 424209 (2012).
     *

     Carrying out vdW-DF run using the following parameters:

     Nqs =      20    Nr_points =    1024   r_max =   100.000
     q_mesh =
               0.00001000     0.04494208     0.09755937     0.15916263
               0.23128650     0.31572767     0.41458969     0.53033537
               0.66584808     0.82450364     1.01025438     1.22772762
               1.48234092     1.78043706     2.12944203     2.53805004
               3.01644009     3.57652955     4.23227104     5.00000000

     Gradients computed in reciprocal space

[...]

     Starting wfc are  156 randomized atomic wfcs

     Self-consistent Calculation

[...]

     total energy              =   -2037.02159254 Ry
     Harris-Foulkes estimate   =   -2037.02159397 Ry
     estimated scf accuracy    <       0.00000198 Ry

     iteration # 19     ecut=    36.75 Ry     beta=0.10
     Davidson diagonalization with overlap
     ethr =  1.12E-09,  avg # of iterations =  1.4

[...]

     negative rho (up, down):  6.764E-01 0.000E+00

     Adding external electric field

     Computed dipole along edir(3) :
        Dipole                0.1747 Ry au,          0.4440 Debye
        Dipole field          0.0005 Ry au

        Potential amp.       -0.0420 Ry
        Total length         45.4884 bohr

     End of self-consistent calculation

[...]

          k = 0.0580 0.0000 0.0000 ( 17907 PWs)   bands (ev):

[...]

          k =-0.0871-0.1508 0.0000 ( 17864 PWs)   bands (ev):

   -70.2157 -70.2025 -70.1893 -69.9519 -69.9130 -69.9066 -69.7735 -69.7613
   -69.7491 -40.4334 -40.3834 -40.3098 -40.3090 -40.2203 -40.1769 -40.1693
   -40.1358 -40.1325 -40.0892 -39.9934 -39.9581 -39.9331 -39.9201 -39.8749
   -39.8539 -39.8496 -39.8267 -39.7945 -39.7843 -39.7829 -39.7541 -39.7319
   -39.7292 -39.7154 -39.6979 -39.6609 -39.5901 -39.4560 -38.6794 -20.2957
   -20.1865 -20.1619 -19.7404 -19.6643 -19.6308 -18.9302 -18.9107 -18.8933
    -1.9819  -1.6558  -1.1886  -1.0924  -1.0081  -0.9440  -0.9199  -0.8030
    -0.7191  -0.6424  -0.4895  -0.3965  -0.3762  -0.2356  -0.2216  -0.0125
     0.1417   0.1425   0.2158   0.4188   0.5466   0.6181   0.7431   0.8516
     0.8565   0.9572   1.0510   1.0614   1.1284   1.2697   1.2978   1.3716
     1.3734   1.4403   1.5804   1.7143   1.7934   1.8498   1.9017   2.0232
     2.0443   2.2608   2.3660   2.4128   2.5669   2.7132   2.8072   3.0321
     3.0820   3.3384   3.5780   3.7944   3.9820   4.4571   5.1247   5.3082
     5.5554   5.6626   5.9071   5.9390   5.9859   6.0604   6.2394   6.3055
     6.4793   6.7718   6.9804   7.2004   7.4025   7.7026

     the Fermi energy is     2.3257 ev

!    total energy              =   -2037.02158875 Ry
     Harris-Foulkes estimate   =   -2037.02159170 Ry
     estimated scf accuracy    <       0.00000046 Ry

     The total energy is the sum of the following terms:

     one-electron contribution =  -16582.31054037 Ry
     hartree contribution      =    8294.65534675 Ry
     xc contribution           =    -326.93579842 Ry
     ewald contribution        =    6577.67059470 Ry
     electric field correction =       0.00008058 Ry
     smearing contrib. (-TS)   =      -0.10127201 Ry

     convergence has been achieved in  19 iterations

 BEEF-vdW xc energy contributions
           1 :   -284.064742301239
           2 :    259.258232680280
           3 :   -216.218962684896
           4 :    165.426133309118
           5 :   -117.478350360168
           6 :    79.9042998746366
           7 :   -55.6146652776293
           8 :    43.1938206615180
           9 :   -38.5629804946835
          10 :    37.1563414796894
          11 :   -35.6899072937692
          12 :    32.9019527839172
          13 :   -29.2093066216171
          14 :    25.7319564433792
          15 :   -23.3162157668944
          16 :    22.0133298799661
          17 :   -21.1423808629874
          18 :    19.7688120370439
          19 :   -17.2735117006862
          20 :    13.7019857998133
          21 :   -9.74118754212674
          22 :    6.37570647096317
          23 :   -4.42237892100115
          24 :    4.17129042809017
          25 :   -5.28456203078071
          26 :    6.97148841577172
          27 :   -8.33740985702570
          28 :    8.74073117541656
          29 :   -8.00823805292663
          30 :    6.43502610861225
          31 :   -28.8031063849243
          32 :   -21.2514378231774

     Forces acting on atoms (Ry/au):

     negative rho (up, down):  6.764E-01 0.000E+00
     atom    1 type  1   force =     0.00000000   -0.02170463    0.02231027
     atom    2 type  1   force =    -0.01879497    0.01085102    0.02230724
     atom    3 type  1   force =     0.01879462    0.01085114    0.02230796
     atom    4 type  2   force =     0.00000214    0.00000106   -0.03602762
     atom    5 type  1   force =     0.00000288    0.01490957   -0.00118388
     atom    6 type  1   force =     0.01291468   -0.00745244   -0.00118317
     atom    7 type  1   force =    -0.01291585   -0.00745501   -0.00118314
     atom    8 type  2   force =     0.00000173   -0.00000174   -0.02969330
     atom    9 type  1   force =     0.00000130    0.00059816    0.00037794
     atom   10 type  1   force =     0.00051368   -0.00029911    0.00038310
     atom   11 type  1   force =    -0.00051572   -0.00030217    0.00037667
     atom   12 type  2   force =    -0.00000449    0.00000414    0.00120791

     Total force =     0.075894     Total SCF correction =     0.003348

     entering subroutine stress ...

     negative rho (up, down):  6.764E-01 0.000E+00
          total   stress  (Ry/bohr**3)                   (kbar)     P=  -12.38
  -0.00011142  -0.00000000  -0.00000000        -16.39     -0.00     -0.00
  -0.00000000  -0.00011142  -0.00000000         -0.00    -16.39     -0.00
  -0.00000000  -0.00000000  -0.00002964         -0.00     -0.00     -4.36

 !ASE

     Writing output data file calc.save

     General routines

     Parallel routines

   This run was terminated on:   0:12:35  28Dec2018

   JOB DONE.
Job  /afs/slac/g/suncat/bin/suncat-tsmpirun -x LD_LIBRARY_PATH -wdir /scratch/qe110819_YvbVo pw.x -in pw.inp

TID   HOST_NAME   COMMAND_LINE            STATUS            TERMINATION_TIME
00000 suncat0041 pw.x -in pw.inp   Done                     12/28/2018 00:12:35
00001 suncat0041 pw.x -in pw.inp   Done                     12/28/2018 00:12:35
00002 suncat0041 pw.x -in pw.inp   Done                     12/28/2018 00:12:35
00003 suncat0041 pw.x -in pw.inp   Done                     12/28/2018 00:12:35
00004 suncat0041 pw.x -in pw.inp   Done                     12/28/2018 00:12:35
00005 suncat0041 pw.x -in pw.inp   Done                     12/28/2018 00:12:35
00006 suncat0041 pw.x -in pw.inp   Done                     12/28/2018 00:12:35
00007 suncat0041 pw.x -in pw.inp   Done                     12/28/2018 00:12:35
00008 suncat0039 pw.x -in pw.inp   Done                     12/28/2018 00:12:35
00009 suncat0039 pw.x -in pw.inp   Done                     12/28/2018 00:12:35
00010 suncat0039 pw.x -in pw.inp   Done                     12/28/2018 00:12:35
00011 suncat0039 pw.x -in pw.inp   Done                     12/28/2018 00:12:35
00012 suncat0039 pw.x -in pw.inp   Done                     12/28/2018 00:12:35
00013 suncat0039 pw.x -in pw.inp   Done                     12/28/2018 00:12:35
00014 suncat0039 pw.x -in pw.inp   Done                     12/28/2018 00:12:35
00015 suncat0039 pw.x -in pw.inp   Done                     12/28/2018 00:12:35
00016 suncat0169 pw.x -in pw.inp   Done                     12/28/2018 00:12:35
00017 suncat0169 pw.x -in pw.inp   Done                     12/28/2018 00:12:35
00018 suncat0169 pw.x -in pw.inp   Done                     12/28/2018 00:12:35
00019 suncat0169 pw.x -in pw.inp   Done                     12/28/2018 00:12:35
00020 suncat0169 pw.x -in pw.inp   Done                     12/28/2018 00:12:35
00021 suncat0169 pw.x -in pw.inp   Done                     12/28/2018 00:12:35
00022 suncat0169 pw.x -in pw.inp   Done                     12/28/2018 00:12:35
00023 suncat0169 pw.x -in pw.inp   Done                     12/28/2018 00:12:35
00024 suncat0168 pw.x -in pw.inp   Done                     12/28/2018 00:12:35
00025 suncat0168 pw.x -in pw.inp   Done                     12/28/2018 00:12:35
00026 suncat0168 pw.x -in pw.inp   Done                     12/28/2018 00:12:35
00027 suncat0168 pw.x -in pw.inp   Done                     12/28/2018 00:12:35
00028 suncat0168 pw.x -in pw.inp   Done                     12/28/2018 00:12:35
00029 suncat0168 pw.x -in pw.inp   Done                     12/28/2018 00:12:35
00030 suncat0168 pw.x -in pw.inp   Done                     12/28/2018 00:12:35
00031 suncat0168 pw.x -in pw.inp   Done                     12/28/2018 00:12:35
00032 suncat0161 pw.x -in pw.inp   Done                     12/28/2018 00:12:35
00033 suncat0161 pw.x -in pw.inp   Done                     12/28/2018 00:12:35
00034 suncat0161 pw.x -in pw.inp   Done                     12/28/2018 00:12:35
00035 suncat0161 pw.x -in pw.inp   Done                     12/28/2018 00:12:35
00036 suncat0161 pw.x -in pw.inp   Done                     12/28/2018 00:12:35
00037 suncat0161 pw.x -in pw.inp   Done                     12/28/2018 00:12:35
00038 suncat0161 pw.x -in pw.inp   Done                     12/28/2018 00:12:35
00039 suncat0161 pw.x -in pw.inp   Done                     12/28/2018 00:12:35
00040 suncat0250 pw.x -in pw.inp   Done                     12/28/2018 00:12:35
00041 suncat0250 pw.x -in pw.inp   Done                     12/28/2018 00:12:35
00042 suncat0250 pw.x -in pw.inp   Done                     12/28/2018 00:12:35
00043 suncat0250 pw.x -in pw.inp   Done                     12/28/2018 00:12:35
00044 suncat0250 pw.x -in pw.inp   Done                     12/28/2018 00:12:35
00045 suncat0250 pw.x -in pw.inp   Done                     12/28/2018 00:12:35
00046 suncat0250 pw.x -in pw.inp   Done                     12/28/2018 00:12:35
00047 suncat0250 pw.x -in pw.inp   Done                     12/28/2018 00:12:35
00048 suncat0249 pw.x -in pw.inp   Done                     12/28/2018 00:12:35
00049 suncat0249 pw.x -in pw.inp   Done                     12/28/2018 00:12:35
00050 suncat0249 pw.x -in pw.inp   Done                     12/28/2018 00:12:35
00051 suncat0249 pw.x -in pw.inp   Done                     12/28/2018 00:12:35
00052 suncat0249 pw.x -in pw.inp   Done                     12/28/2018 00:12:35
00053 suncat0249 pw.x -in pw.inp   Done                     12/28/2018 00:12:35
00054 suncat0249 pw.x -in pw.inp   Done                     12/28/2018 00:12:35
00055 suncat0249 pw.x -in pw.inp   Done                     12/28/2018 00:12:35
00056 suncat0231 pw.x -in pw.inp   Done                     12/28/2018 00:12:35
00057 suncat0231 pw.x -in pw.inp   Done                     12/28/2018 00:12:35
00058 suncat0231 pw.x -in pw.inp   Done                     12/28/2018 00:12:35
00059 suncat0231 pw.x -in pw.inp   Done                     12/28/2018 00:12:35
00060 suncat0231 pw.x -in pw.inp   Done                     12/28/2018 00:12:35
00061 suncat0231 pw.x -in pw.inp   Done                     12/28/2018 00:12:35
00062 suncat0231 pw.x -in pw.inp   Done                     12/28/2018 00:12:35
00063 suncat0231 pw.x -in pw.inp   Done                     12/28/2018 00:12:35