     Program PWSCF v.5.1rc2 (svn rev. 11289) starts on 26Dec2018 at  8:41: 7

     Current dimensions of program PWSCF are:
     Max number of different atomic species (ntypx) = 10
     Max number of k-points (npk) =  40000
     Max angular momentum in pseudopotentials (lmaxx) =  3
     Presently stress not available with electric field

     IMPORTANT: XC functional enforced from input :
     Exchange-correlation      = BEEF-VDW ( 1  4 27 13 2)
     Any further DFT definition will be discarded
     Please, verify this is what you really want

     Subspace diagonalization in iterative solution of the eigenvalue problem:
     a serial algorithm will be used

     bravais-lattice index     =            0
     lattice parameter (alat)  =       1.8897  a.u.
     unit-cell volume          =    6252.2204 (a.u.)^3
     number of atoms/cell      =           12
     number of atomic types    =            2
     number of electrons       =       141.00
     number of Kohn-Sham states=          100
     kinetic-energy cutoff     =      36.7493  Ry
     charge density cutoff     =     367.4932  Ry
     convergence threshold     =      1.0E-06
     mixing beta               =       0.1000
     number of iterations used =           10  plain     mixing
     Exchange-correlation      = BEEF-VDW ( 1  4 27 13 2)
     nstep                     =           50

     celldm(1)=   1.889726  celldm(2)=   0.000000  celldm(3)=   0.000000
     celldm(4)=   0.000000  celldm(5)=   0.000000  celldm(6)=   0.000000

     crystal axes: (cart. coord. in units of alat)
               a(1) = (   6.501597   0.000000   0.000000 )
               a(2) = (  -3.250799   5.630548   0.000000 )
               a(3) = (   0.000000   0.000000  25.308532 )

     reciprocal axes: (cart. coord. in units 2 pi/alat)
               b(1) = (  0.153808  0.088801  0.000000 )
               b(2) = (  0.000000  0.177603  0.000000 )
               b(3) = (  0.000000  0.000000  0.039512 )

     PseudoPot. # 1 for Hf read from file:
     /afs/slac.stanford.edu/u/if/mamunm/psp/gbrv1.5pbe/Hf.UPF
     MD5 check sum: 8ee9378dfe14276e333edf04c5e4aa26
     Pseudo is Ultrasoft + core correction, Zval = 12.0
     Generated by new atomic code, or converted to UPF format
     Using radial grid of  921 points,  8 beta functions with:
                l(1) =   0
                l(2) =   0
                l(3) =   0
                l(4) =   1
                l(5) =   1
                l(6) =   2
                l(7) =   2
                l(8) =   3
     Q(r) pseudized with  6 coefficients,  rinner =    1.200   1.200   1.200
                                                       1.200   1.200   1.200
                                                       1.200

     PseudoPot. # 2 for Y  read from file:
     /afs/slac.stanford.edu/u/if/mamunm/psp/gbrv1.5pbe/Y.UPF
     MD5 check sum: d034151ed7554c50b6e82763ed42c788
     Pseudo is Ultrasoft + core correction, Zval = 11.0
     Generated by new atomic code, or converted to UPF format
     Using radial grid of  885 points,  6 beta functions with:
                l(1) =   0
                l(2) =   0
                l(3) =   1
                l(4) =   1
                l(5) =   2
                l(6) =   2
     Q(r) pseudized with  8 coefficients,  rinner =    1.200   1.200   1.200
                                                       1.200   1.200

     vdW kernel table read from file vdW_kernel_table
     MD5 check sum: 095c7af220d748ca6e76c0b4c6cfb241

     atomic species   valence    mass     pseudopotential
        Hf1           12.00   178.49000     Hf( 1.00)
        Y1            11.00    88.90584     Y ( 1.00)

     No symmetry found

   Cartesian axes

     site n.     atom                  positions (alat units)
         1           Hf1 tau(   1) = (   0.0000000   0.0000000  10.0000000  )
         2           Hf1 tau(   2) = (  -1.6253993   2.8152741  10.0000000  )
         3           Hf1 tau(   3) = (   1.6253993   2.8152741  10.0000000  )
         4           Y1  tau(   4) = (   3.2507985   0.0000000  10.0000000  )
         5           Hf1 tau(   5) = (   3.2507985   1.8768494  12.6542659  )
         6           Hf1 tau(   6) = (   1.6253993   4.6921235  12.6542659  )
         7           Hf1 tau(   7) = (  -1.6253993   4.6921235  12.6542659  )
         8           Y1  tau(   8) = (   0.0000000   1.8768494  12.6542659  )
         9           Hf1 tau(   9) = (  -0.0000000   3.7536988  15.3085318  )
        10           Hf1 tau(  10) = (   1.6253993   0.9384247  15.3085318  )
        11           Hf1 tau(  11) = (   4.8761978   0.9384247  15.3085318  )
        12           Y1  tau(  12) = (   3.2507985   3.7536988  15.3085318  )

     number of k points=    20  Fermi-Dirac smearing, width (Ry)=  0.0110
                       cart. coord. in units 2pi/alat
        k(    1) = (   0.0000000   0.0000000   0.0000000), wk =   0.0555556
        k(    2) = (   0.0000000   0.0296004   0.0000000), wk =   0.1111111
        k(    3) = (   0.0000000   0.0592009   0.0000000), wk =   0.1111111
        k(    4) = (   0.0000000  -0.0888013   0.0000000), wk =   0.0555556
        k(    5) = (   0.0256347   0.0148002   0.0000000), wk =   0.1111111
        k(    6) = (   0.0256347   0.0444006   0.0000000), wk =   0.1111111
        k(    7) = (   0.0256347   0.0740011   0.0000000), wk =   0.1111111
        k(    8) = (   0.0256347  -0.0740011   0.0000000), wk =   0.1111111
        k(    9) = (   0.0256347  -0.0444006   0.0000000), wk =   0.1111111
        k(   10) = (   0.0256347  -0.0148002   0.0000000), wk =   0.1111111
        k(   11) = (   0.0512695   0.0296004   0.0000000), wk =   0.1111111
        k(   12) = (   0.0512695   0.0592009   0.0000000), wk =   0.1111111
        k(   13) = (   0.0512695   0.0888013   0.0000000), wk =   0.1111111
        k(   14) = (   0.0512695  -0.0592009   0.0000000), wk =   0.1111111
        k(   15) = (   0.0512695  -0.0296004   0.0000000), wk =   0.1111111
        k(   16) = (   0.0512695   0.0000000   0.0000000), wk =   0.1111111
        k(   17) = (  -0.0769042  -0.0444006   0.0000000), wk =   0.0555556
        k(   18) = (  -0.0769042  -0.0148002   0.0000000), wk =   0.1111111
        k(   19) = (  -0.0769042   0.0148002   0.0000000), wk =   0.1111111
        k(   20) = (  -0.0769042  -0.1332019   0.0000000), wk =   0.0555556

     Largest allocated arrays     est. size (Mb)     dimensions
     Largest temporary arrays     est. size (Mb)     dimensions

     Check: negative/imaginary core charge=   -0.000003    0.000000

     Initial potential from superposition of free atoms
     Check: negative starting charge=   -0.963030

     starting charge  122.98657, renormalised to  141.00000

     negative rho (up, down):  1.104E+00 0.000E+00

     *
     * You are using vdW-DF for exchange-correlation in this calculation.
     * Please cite the following three references that made this development
     * possible:
     *
     *   M. Dion, H. Rydberg, E. Schroder, D. C. Langreth, and
     *   B. I. Lundqvist, Phys. Rev. Lett. 92, 246401 (2004).
     *
     *   T. Thonhauser, V. R. Cooper, S. Li, A. Puzder, P. Hyldgaard, and
     *   D. C. Langreth, Phys. Rev. B 76, 125112 (2007).
     *
     *   G. Roman-Perez and J. M. Soler, Phys. Rev. Lett. 103, 096102 (2009).
     *
     *
     * If you are using vdW-DF2, please also cite:
     *
     *   K. Lee, E. D. Murray, L. Kong, B. I. Lundqvist, and
     *   D. C. Langreth, Phys. Rev. B 82, 081101(R) (2010).
     *
     *
     * If you are calculating the stress with vdW-DF, please also cite:
     *
     *   R. Sabatini, E. Kucukbenli, B. Kolb, T. Thonhauser, and
     *   S. de Gironcoli, J. Phys.: Condens. Matter 24, 424209 (2012).
     *

     Carrying out vdW-DF run using the following parameters:

     Nqs =      20    Nr_points =    1024   r_max =   100.000
     q_mesh =
               0.00001000     0.04494208     0.09755937     0.15916263
               0.23128650     0.31572767     0.41458969     0.53033537
               0.66584808     0.82450364     1.01025438     1.22772762
               1.48234092     1.78043706     2.12944203     2.53805004
               3.01644009     3.57652955     4.23227104     5.00000000

     Gradients computed in reciprocal space

     Adding external electric field

     Computed dipole along edir(3) :
        Dipole                0.0000 Ry au,          0.0000 Debye
        Dipole field          0.0000 Ry au

        Potential amp.       -0.0000 Ry
        Total length         46.6305 bohr

     Starting wfc are  156 randomized atomic wfcs

     Self-consistent Calculation

     iteration #  1     ecut=    36.75 Ry     beta=0.10
     Davidson diagonalization with overlap
     ethr =  1.00E-02,  avg # of iterations =  8.3

[...]

     total energy              =   -1728.31196336 Ry
     Harris-Foulkes estimate   =   -1734.74715203 Ry
     estimated scf accuracy    <      39.91167972 Ry

[...]

     iteration #  7     ecut=    36.75 Ry     beta=0.10
     Davidson diagonalization with overlap
     c_bands:  3 eigenvalues not converged
     ethr =  9.48E-04,  avg # of iterations =  6.5

[...]

     End of self-consistent calculation

          k = 0.0000 0.0000 0.0000 ( 23523 PWs)   bands (ev):

   -61.4263 -61.4260 -61.4061 -61.4061 -61.4058 -61.4058 -61.0192 -60.9995
   -60.9985 -41.2561 -41.2557 -40.5995 -30.0998 -30.0932 -30.0385 -30.0322
   -30.0322 -30.0163 -30.0163 -29.9884 -29.9767 -29.9767 -29.9450 -29.9450
   -29.8246 -29.8190 -29.7392 -29.7026 -29.7026 -29.6945 -29.6945 -29.6076
   -29.6073 -29.4990 -29.4838 -29.4833 -29.4262 -29.3237 -29.3232 -21.2732
   -21.2581 -21.2438 -21.2438 -21.2399 -21.2399 -20.6441 -20.6272 -20.6272
    -4.6670  -3.4876  -2.3340  -1.5904  -1.5904  -1.2633  -1.2633  -0.9698
    -0.9185  -0.9185  -0.8183  -0.4786  -0.1742  -0.1712  -0.1712   0.4970
     0.5469   0.5469   1.3212   1.3946   1.6995   1.7441   1.7726   1.7726
     1.9052   1.9053   2.0043   2.3123   2.4966   2.4966   2.6002   2.7539
     2.7539   2.7856   2.8286   2.8402   2.8402   2.9602   2.9602   3.0369
     3.0369   3.2053   3.2053   3.9711   4.2765   4.2767   4.3391   4.3391
     4.6211   4.8166   4.9143   4.9144

[...]

          k =-0.0769-0.0444 0.0000 ( 23492 PWs)   bands (ev):

[...]

     the Fermi energy is     1.3178 ev

!    total energy              =   -1725.88861627 Ry
     Harris-Foulkes estimate   =   -1725.88861547 Ry
     estimated scf accuracy    <       0.00000046 Ry

     The total energy is the sum of the following terms:

     one-electron contribution =   -7635.17458347 Ry
     hartree contribution      =    3803.18815041 Ry
     xc contribution           =    -780.60255356 Ry
     ewald contribution        =    2886.82266063 Ry
     electric field correction =       0.00000000 Ry
     smearing contrib. (-TS)   =      -0.12229027 Ry

     convergence has been achieved in  20 iterations

 BEEF-vdW xc energy contributions
           1 :   -703.010605623274
           2 :    651.267574837302
           3 :   -559.761954430371
           4 :    447.737626865473
           5 :   -335.014109711355
           6 :    236.328370448757
           7 :   -158.945734321673
[...]
     /afs/slac.stanford.edu/u/if/mamunm/psp/gbrv1.5pbe/Hf.UPF
     MD5 check sum: 8ee9378dfe14276e333edf04c5e4aa26
     Pseudo is Ultrasoft + core correction, Zval = 12.0
     Generated by new atomic code, or converted to UPF format
     Using radial grid of  921 points,  8 beta functions with:
                l(1) =   0
                l(2) =   0
                l(3) =   0
                l(4) =   1
                l(5) =   1
                l(6) =   2
                l(7) =   2
                l(8) =   3
     Q(r) pseudized with  6 coefficients,  rinner =    1.200   1.200   1.200
                                                       1.200   1.200   1.200
                                                       1.200

     PseudoPot. # 2 for Y  read from file:
     /afs/slac.stanford.edu/u/if/mamunm/psp/gbrv1.5pbe/Y.UPF
     MD5 check sum: d034151ed7554c50b6e82763ed42c788
     Pseudo is Ultrasoft + core correction, Zval = 11.0
     Generated by new atomic code, or converted to UPF format
     Using radial grid of  885 points,  6 beta functions with:
                l(1) =   0
                l(2) =   0
                l(3) =   1
                l(4) =   1
                l(5) =   2
                l(6) =   2
     Q(r) pseudized with  8 coefficients,  rinner =    1.200   1.200   1.200
                                                       1.200   1.200

     vdW kernel table read from file vdW_kernel_table
     MD5 check sum: 095c7af220d748ca6e76c0b4c6cfb241

     atomic species   valence    mass     pseudopotential
        Hf1           12.00   178.49000     Hf( 1.00)
        Y1            11.00    88.90584     Y ( 1.00)

     No symmetry found

   Cartesian axes

     site n.     atom                  positions (alat units)
         1           Hf1 tau(   1) = (   0.0000000   0.0000000  10.0000000  )
         2           Hf1 tau(   2) = (  -1.6253993   2.8152741  10.0000000  )
         3           Hf1 tau(   3) = (   1.6253993   2.8152741  10.0000000  )
         4           Y1  tau(   4) = (   3.2507985   0.0000000  10.0000000  )
         5           Hf1 tau(   5) = (   3.2507985   1.8768494  12.6542659  )
         6           Hf1 tau(   6) = (   1.6253993   4.6921235  12.6542659  )
         7           Hf1 tau(   7) = (  -1.6253993   4.6921235  12.6542659  )
         8           Y1  tau(   8) = (   0.0000000   1.8768494  12.6542659  )
         9           Hf1 tau(   9) = (   0.0000055   3.8433994  15.1045847  )
        10           Hf1 tau(  10) = (   1.7031959   0.8934948  15.1044783  )
        11           Hf1 tau(  11) = (   4.7983981   0.8934811  15.1044791  )
        12           Y1  tau(  12) = (   3.2507934   3.7537653  15.4447992  )

     number of k points=    20  Fermi-Dirac smearing, width (Ry)=  0.0110
                       cart. coord. in units 2pi/alat
        k(    1) = (   0.0000000   0.0000000   0.0000000), wk =   0.0555556
        k(    2) = (   0.0000000   0.0296004   0.0000000), wk =   0.1111111
        k(    3) = (   0.0000000   0.0592009   0.0000000), wk =   0.1111111
        k(    4) = (   0.0000000  -0.0888013   0.0000000), wk =   0.0555556
        k(    5) = (   0.0256347   0.0148002   0.0000000), wk =   0.1111111
        k(    6) = (   0.0256347   0.0444006   0.0000000), wk =   0.1111111
        k(    7) = (   0.0256347   0.0740011   0.0000000), wk =   0.1111111
        k(    8) = (   0.0256347  -0.0740011   0.0000000), wk =   0.1111111
        k(    9) = (   0.0256347  -0.0444006   0.0000000), wk =   0.1111111
        k(   10) = (   0.0256347  -0.0148002   0.0000000), wk =   0.1111111
        k(   11) = (   0.0512695   0.0296004   0.0000000), wk =   0.1111111
        k(   12) = (   0.0512695   0.0592009   0.0000000), wk =   0.1111111
        k(   13) = (   0.0512695   0.0888013   0.0000000), wk =   0.1111111
        k(   14) = (   0.0512695  -0.0592009   0.0000000), wk =   0.1111111
        k(   15) = (   0.0512695  -0.0296004   0.0000000), wk =   0.1111111
        k(   16) = (   0.0512695   0.0000000   0.0000000), wk =   0.1111111
        k(   17) = (  -0.0769042  -0.0444006   0.0000000), wk =   0.0555556
        k(   18) = (  -0.0769042  -0.0148002   0.0000000), wk =   0.1111111
        k(   19) = (  -0.0769042   0.0148002   0.0000000), wk =   0.1111111
        k(   20) = (  -0.0769042  -0.1332019   0.0000000), wk =   0.0555556

     Largest allocated arrays     est. size (Mb)     dimensions
     Largest temporary arrays     est. size (Mb)     dimensions

     Check: negative/imaginary core charge=   -0.000003    0.000000

     Initial potential from superposition of free atoms
     Check: negative starting charge=   -0.968573

     starting charge  122.98657, renormalised to  141.00000

[...]

     *
     * You are using vdW-DF for exchange-correlation in this calculation.
     * Please cite the following three references that made this development
     * possible:
     *
     *   M. Dion, H. Rydberg, E. Schroder, D. C. Langreth, and
     *   B. I. Lundqvist, Phys. Rev. Lett. 92, 246401 (2004).
     *
     *   T. Thonhauser, V. R. Cooper, S. Li, A. Puzder, P. Hyldgaard, and
     *   D. C. Langreth, Phys. Rev. B 76, 125112 (2007).
     *
     *   G. Roman-Perez and J. M. Soler, Phys. Rev. Lett. 103, 096102 (2009).
     *
     *
     * If you are using vdW-DF2, please also cite:
     *
     *   K. Lee, E. D. Murray, L. Kong, B. I. Lundqvist, and
     *   D. C. Langreth, Phys. Rev. B 82, 081101(R) (2010).
     *
     *
     * If you are calculating the stress with vdW-DF, please also cite:
     *
     *   R. Sabatini, E. Kucukbenli, B. Kolb, T. Thonhauser, and
     *   S. de Gironcoli, J. Phys.: Condens. Matter 24, 424209 (2012).
     *

     Carrying out vdW-DF run using the following parameters:

     Nqs =      20    Nr_points =    1024   r_max =   100.000
     q_mesh =
               0.00001000     0.04494208     0.09755937     0.15916263
               0.23128650     0.31572767     0.41458969     0.53033537
               0.66584808     0.82450364     1.01025438     1.22772762
               1.48234092     1.78043706     2.12944203     2.53805004
               3.01644009     3.57652955     4.23227104     5.00000000

     Gradients computed in reciprocal space

[...]

     Starting wfc are  156 randomized atomic wfcs

     Self-consistent Calculation

[...]

     total energy              =   -1725.92495181 Ry
     Harris-Foulkes estimate   =   -1725.92495162 Ry
     estimated scf accuracy    <       0.00000110 Ry

     iteration # 22     ecut=    36.75 Ry     beta=0.10
     Davidson diagonalization with overlap
     ethr =  7.83E-10,  avg # of iterations =  3.0

[...]

     negative rho (up, down):  1.026E+00 0.000E+00

     Adding external electric field

     Computed dipole along edir(3) :
        Dipole                0.0444 Ry au,          0.1129 Debye
        Dipole field          0.0001 Ry au

        Potential amp.       -0.0083 Ry
        Total length         46.6305 bohr

     End of self-consistent calculation

[...]

          k = 0.0513 0.0000 0.0000 ( 23506 PWs)   bands (ev):

[...]

          k =-0.0769-0.1332 0.0000 ( 23492 PWs)   bands (ev):

   -61.3913 -61.3846 -61.3778 -61.1564 -61.1401 -61.1355 -60.8593 -60.8527
   -60.8460 -41.4715 -41.2300 -40.5039 -30.0086 -29.9733 -29.9586 -29.9361
   -29.9027 -29.8892 -29.8699 -29.8550 -29.8305 -29.7962 -29.7682 -29.7599
   -29.7486 -29.7321 -29.6804 -29.6309 -29.5819 -29.5129 -29.4764 -29.3969
   -29.3766 -29.3643 -29.3552 -29.2980 -29.2974 -29.2705 -29.1988 -21.4697
   -21.4493 -21.4363 -21.2438 -21.2369 -21.2219 -20.5889 -20.5575 -20.5416
    -3.2429  -3.0695  -2.0135  -1.9066  -1.1321  -1.0305  -0.8253  -0.5153
    -0.3780  -0.3257   0.3390   0.3731   0.4628   0.5706   0.6038   0.7076
     0.7502   0.7737   0.9446   1.0059   1.0232   1.0495   1.1408   1.2979
     1.3111   1.4037   1.5054   1.5173   1.6195   1.6977   1.9278   2.0047
     2.0302   2.2848   2.4950   2.6431   2.7714   2.8959   3.2969   3.4145
     3.4157   3.6067   3.8449   3.8873   3.9495   4.0727   4.1104   4.1751
     4.2428   4.3659   4.4437   4.6280

     the Fermi energy is     1.3487 ev

!    total energy              =   -1725.92495248 Ry
     Harris-Foulkes estimate   =   -1725.92495223 Ry
     estimated scf accuracy    <       0.00000026 Ry

     The total energy is the sum of the following terms:

     one-electron contribution =   -7771.29081939 Ry
     hartree contribution      =    3871.73402160 Ry
     xc contribution           =    -780.83136853 Ry
     ewald contribution        =    2954.57856692 Ry
     electric field correction =       0.00000396 Ry
     smearing contrib. (-TS)   =      -0.11535704 Ry

     convergence has been achieved in  22 iterations

 BEEF-vdW xc energy contributions
           1 :   -703.575570340023
           2 :    651.898115663786
           3 :   -560.453707984007
           4 :    448.399291151600
           5 :   -335.523056656405
           6 :    236.621033383194
           7 :   -159.073302967302
           8 :    103.715988930722
           9 :   -67.5916344814732
          10 :    46.6074406085299
          11 :   -36.8946550193109
          12 :    34.8054244246911
          13 :   -36.4357523624392
          14 :    37.6187715012420
          15 :   -34.7576630400981
          16 :    26.0377415676733
          17 :   -12.1923956263693
          18 :   -3.78827965496794
          19 :    17.9398003164421
          20 :   -26.9658970653588
          21 :    29.4262634684058
          22 :   -25.9892652329736
          23 :    18.8002847462218
          24 :   -10.4611250946951
          25 :    3.17624690739763
          26 :    1.62302648057164
          27 :   -3.24913917224330
          28 :    1.60244306285983
          29 :    2.87409116774120
          30 :   -9.13193025958083
          31 :   -52.1975274464321
          32 :   -37.3101887660407

     Forces acting on atoms (Ry/au):

     negative rho (up, down):  1.026E+00 0.000E+00
     atom    1 type  1   force =    -0.00000497   -0.00961152    0.02140466
     atom    2 type  1   force =    -0.00831022    0.00480736    0.02138445
     atom    3 type  1   force =     0.00830902    0.00481292    0.02138603
     atom    4 type  2   force =     0.00000436   -0.00001557   -0.01892721
     atom    5 type  1   force =     0.00000390    0.00273276   -0.00871785
     atom    6 type  1   force =     0.00235195   -0.00136950   -0.00867714
     atom    7 type  1   force =    -0.00235216   -0.00137297   -0.00867878
     atom    8 type  2   force =    -0.00000408   -0.00001034   -0.01863323
     atom    9 type  1   force =     0.00000595    0.00147968   -0.00064959
     atom   10 type  1   force =     0.00118438   -0.00071603   -0.00059240
     atom   11 type  1   force =    -0.00118453   -0.00072196   -0.00059562
     atom   12 type  2   force =    -0.00000359   -0.00001485    0.00129668

     Total force =     0.051115     Total SCF correction =     0.001502

     entering subroutine stress ...

     negative rho (up, down):  1.026E+00 0.000E+00
          total   stress  (Ry/bohr**3)                   (kbar)     P=   -9.24
  -0.00006669   0.00000000   0.00000000         -9.81      0.00      0.00
   0.00000000  -0.00006667   0.00000001          0.00     -9.81      0.00
   0.00000000   0.00000001  -0.00005518          0.00      0.00     -8.12

 !ASE

     Writing output data file calc.save

     General routines

     Parallel routines

   This run was terminated on:  10:12:55  26Dec2018

   JOB DONE.
Job  /afs/slac/g/suncat/bin/suncat-tsmpirun -x LD_LIBRARY_PATH -wdir /scratch/qe109782_ho7Nu pw.x -in pw.inp

TID   HOST_NAME   COMMAND_LINE            STATUS            TERMINATION_TIME
00000 suncat0163 pw.x -in pw.inp   Done                     12/26/2018 10:12:55
00001 suncat0163 pw.x -in pw.inp   Done                     12/26/2018 10:12:55
00002 suncat0163 pw.x -in pw.inp   Done                     12/26/2018 10:12:55
00003 suncat0163 pw.x -in pw.inp   Done                     12/26/2018 10:12:55
00004 suncat0163 pw.x -in pw.inp   Done                     12/26/2018 10:12:55
00005 suncat0163 pw.x -in pw.inp   Done                     12/26/2018 10:12:55
00006 suncat0163 pw.x -in pw.inp   Done                     12/26/2018 10:12:55
00007 suncat0163 pw.x -in pw.inp   Done                     12/26/2018 10:12:55
00008 suncat0162 pw.x -in pw.inp   Done                     12/26/2018 10:12:55
00009 suncat0162 pw.x -in pw.inp   Done                     12/26/2018 10:12:55
00010 suncat0162 pw.x -in pw.inp   Done                     12/26/2018 10:12:55
00011 suncat0162 pw.x -in pw.inp   Done                     12/26/2018 10:12:55
00012 suncat0162 pw.x -in pw.inp   Done                     12/26/2018 10:12:55
00013 suncat0162 pw.x -in pw.inp   Done                     12/26/2018 10:12:55
00014 suncat0162 pw.x -in pw.inp   Done                     12/26/2018 10:12:55
00015 suncat0162 pw.x -in pw.inp   Done                     12/26/2018 10:12:55
00016 suncat0145 pw.x -in pw.inp   Done                     12/26/2018 10:12:55
00017 suncat0145 pw.x -in pw.inp   Done                     12/26/2018 10:12:55
00018 suncat0145 pw.x -in pw.inp   Done                     12/26/2018 10:12:55
00019 suncat0145 pw.x -in pw.inp   Done                     12/26/2018 10:12:55
00020 suncat0145 pw.x -in pw.inp   Done                     12/26/2018 10:12:55
00021 suncat0145 pw.x -in pw.inp   Done                     12/26/2018 10:12:55
00022 suncat0145 pw.x -in pw.inp   Done                     12/26/2018 10:12:55
00023 suncat0145 pw.x -in pw.inp   Done                     12/26/2018 10:12:55
00024 suncat0144 pw.x -in pw.inp   Done                     12/26/2018 10:12:55
00025 suncat0144 pw.x -in pw.inp   Done                     12/26/2018 10:12:55
00026 suncat0144 pw.x -in pw.inp   Done                     12/26/2018 10:12:55
00027 suncat0144 pw.x -in pw.inp   Done                     12/26/2018 10:12:55
00028 suncat0144 pw.x -in pw.inp   Done                     12/26/2018 10:12:55
00029 suncat0144 pw.x -in pw.inp   Done                     12/26/2018 10:12:55
00030 suncat0144 pw.x -in pw.inp   Done                     12/26/2018 10:12:55
00031 suncat0144 pw.x -in pw.inp   Done                     12/26/2018 10:12:55
00032 suncat0133 pw.x -in pw.inp   Done                     12/26/2018 10:12:55
00033 suncat0133 pw.x -in pw.inp   Done                     12/26/2018 10:12:55
00034 suncat0133 pw.x -in pw.inp   Done                     12/26/2018 10:12:55
00035 suncat0133 pw.x -in pw.inp   Done                     12/26/2018 10:12:55
00036 suncat0133 pw.x -in pw.inp   Done                     12/26/2018 10:12:55
00037 suncat0133 pw.x -in pw.inp   Done                     12/26/2018 10:12:55
00038 suncat0133 pw.x -in pw.inp   Done                     12/26/2018 10:12:55
00039 suncat0133 pw.x -in pw.inp   Done                     12/26/2018 10:12:55
00040 suncat0132 pw.x -in pw.inp   Done                     12/26/2018 10:12:55
00041 suncat0132 pw.x -in pw.inp   Done                     12/26/2018 10:12:55
00042 suncat0132 pw.x -in pw.inp   Done                     12/26/2018 10:12:55
00043 suncat0132 pw.x -in pw.inp   Done                     12/26/2018 10:12:55
00044 suncat0132 pw.x -in pw.inp   Done                     12/26/2018 10:12:55
00045 suncat0132 pw.x -in pw.inp   Done                     12/26/2018 10:12:55
00046 suncat0132 pw.x -in pw.inp   Done                     12/26/2018 10:12:55
00047 suncat0132 pw.x -in pw.inp   Done                     12/26/2018 10:12:55
00048 suncat0131 pw.x -in pw.inp   Done                     12/26/2018 10:12:55
00049 suncat0131 pw.x -in pw.inp   Done                     12/26/2018 10:12:55
00050 suncat0131 pw.x -in pw.inp   Done                     12/26/2018 10:12:55
00051 suncat0131 pw.x -in pw.inp   Done                     12/26/2018 10:12:55
00052 suncat0131 pw.x -in pw.inp   Done                     12/26/2018 10:12:55
00053 suncat0131 pw.x -in pw.inp   Done                     12/26/2018 10:12:55
00054 suncat0131 pw.x -in pw.inp   Done                     12/26/2018 10:12:55
00055 suncat0131 pw.x -in pw.inp   Done                     12/26/2018 10:12:55
00056 suncat0130 pw.x -in pw.inp   Done                     12/26/2018 10:12:55
00057 suncat0130 pw.x -in pw.inp   Done                     12/26/2018 10:12:55
00058 suncat0130 pw.x -in pw.inp   Done                     12/26/2018 10:12:55
00059 suncat0130 pw.x -in pw.inp   Done                     12/26/2018 10:12:55
00060 suncat0130 pw.x -in pw.inp   Done                     12/26/2018 10:12:55
00061 suncat0130 pw.x -in pw.inp   Done                     12/26/2018 10:12:55
00062 suncat0130 pw.x -in pw.inp   Done                     12/26/2018 10:12:55
00063 suncat0130 pw.x -in pw.inp   Done                     12/26/2018 10:12:55