     Program PWSCF v.5.1rc2 starts on 14Nov2017 at 13:13: 1

     Current dimensions of program PWSCF are:
     Max number of different atomic species (ntypx) = 10
     Max number of k-points (npk) =  40000
     Max angular momentum in pseudopotentials (lmaxx) =  3

     IMPORTANT: XC functional enforced from input :
     Exchange-correlation      = BEEF-VDW ( 1  4 27 13 2)
     Any further DFT definition will be discarded
     Please, verify this is what you really want

     Found symmetry operation: I + ( -0.5000 -0.5000  0.0000)
     This is a supercell, fractional translations are disabled

     bravais-lattice index     =            0
     lattice parameter (alat)  =       1.8897  a.u.
     unit-cell volume          =     482.4018 (a.u.)^3
     number of atoms/cell      =            4
     number of atomic types    =            2
     number of electrons       =        56.00
     number of Kohn-Sham states=           48
     kinetic-energy cutoff     =      58.7989  Ry
     charge density cutoff     =     587.9892  Ry
     convergence threshold     =      1.0E-06
     mixing beta               =       0.1000
     number of iterations used =           10  plain     mixing
     Exchange-correlation      = BEEF-VDW ( 1  4 27 13 2)

     celldm(1)=   1.889726  celldm(2)=   0.000000  celldm(3)=   0.000000
     celldm(4)=   0.000000  celldm(5)=   0.000000  celldm(6)=   0.000000

     crystal axes: (cart. coord. in units of alat)
               a(1) = (   4.068108   0.000000   0.000000 )
               a(2) = (   0.000000   4.068108   0.000000 )
               a(3) = (   0.000000   0.000000   4.319440 )

     reciprocal axes: (cart. coord. in units 2 pi/alat)
               b(1) = (  0.245815  0.000000  0.000000 )
               b(2) = (  0.000000  0.245815  0.000000 )
               b(3) = (  0.000000  0.000000  0.231511 )

     PseudoPot. # 1 for In read from file:
     /home/users/vossj/suncat/psp/gbrv1.5pbe/In.UPF
     MD5 check sum: 90777abd96fbb83f2e67db2a40c566b9
     Pseudo is Ultrasoft + core correction, Zval = 13.0
     Generated by new atomic code, or converted to UPF format
     Using radial grid of  889 points,  6 beta functions with:
                l(1) =   0
                l(2) =   0
                l(3) =   1
                l(4) =   1
                l(5) =   2
                l(6) =   2
     Q(r) pseudized with  6 coefficients,  rinner =    1.400   1.400   1.400
                                                       1.400   1.400

     PseudoPot. # 2 for Re read from file:
     /home/users/vossj/suncat/psp/gbrv1.5pbe/Re.UPF
     MD5 check sum: 85f993410f3e006da9d71c142b4ad953
     Pseudo is Ultrasoft + core correction, Zval = 15.0
     Generated by new atomic code, or converted to UPF format
     Using radial grid of  981 points,  8 beta functions with:
                l(1) =   0
                l(2) =   0
                l(3) =   1
                l(4) =   1
                l(5) =   2
                l(6) =   2
                l(7) =   3
                l(8) =   3
     Q(r) pseudized with  8 coefficients,  rinner =    1.150   1.150   1.150
                                                       1.150   1.150   1.150
                                                       1.150

     vdW kernel table read from file vdW_kernel_table
     MD5 check sum: 095c7af220d748ca6e76c0b4c6cfb241

     atomic species   valence    mass     pseudopotential
        In1           13.00   114.82000     In( 1.00)
        Re1           15.00   186.20700     Re( 1.00)

     16 Sym. Ops., with inversion, found

   Cartesian axes

     site n.     atom                  positions (alat units)
         1           In1 tau(   1) = (   0.0000000   0.0000000   0.0000000  )
         2           In1 tau(   2) = (   2.0340538   2.0340538   0.0000000  )
         3           Re1 tau(   3) = (   2.0340538   0.0000000   2.1597202  )
         4           Re1 tau(   4) = (   0.0000000   2.0340538   2.1597202  )

     number of k points=    75  Fermi-Dirac smearing, width (Ry)=  0.0073
                       cart. coord. in units 2pi/alat
        k(    1) = (   0.0000000   0.0000000   0.0000000), wk =   0.0027435
        k(    2) = (   0.0000000   0.0000000   0.0257235), wk =   0.0054870
        k(    3) = (   0.0000000   0.0000000   0.0514470), wk =   0.0054870
        k(    4) = (   0.0000000   0.0000000   0.0771705), wk =   0.0054870
        k(    5) = (   0.0000000   0.0000000   0.1028940), wk =   0.0054870
        k(    6) = (   0.0000000   0.0273127   0.0000000), wk =   0.0109739
        k(    7) = (   0.0000000   0.0273127   0.0257235), wk =   0.0219479
        k(    8) = (   0.0000000   0.0273127   0.0514470), wk =   0.0219479
        k(    9) = (   0.0000000   0.0273127   0.0771705), wk =   0.0219479
        k(   10) = (   0.0000000   0.0273127   0.1028940), wk =   0.0219479
        k(   11) = (   0.0000000   0.0546255   0.0000000), wk =   0.0109739
        k(   12) = (   0.0000000   0.0546255   0.0257235), wk =   0.0219479
        k(   13) = (   0.0000000   0.0546255   0.0514470), wk =   0.0219479
        k(   14) = (   0.0000000   0.0546255   0.0771705), wk =   0.0219479
        k(   15) = (   0.0000000   0.0546255   0.1028940), wk =   0.0219479
        k(   16) = (   0.0000000   0.0819382   0.0000000), wk =   0.0109739
        k(   17) = (   0.0000000   0.0819382   0.0257235), wk =   0.0219479
        k(   18) = (   0.0000000   0.0819382   0.0514470), wk =   0.0219479
        k(   19) = (   0.0000000   0.0819382   0.0771705), wk =   0.0219479
        k(   20) = (   0.0000000   0.0819382   0.1028940), wk =   0.0219479
        k(   21) = (   0.0000000   0.1092509   0.0000000), wk =   0.0109739
        k(   22) = (   0.0000000   0.1092509   0.0257235), wk =   0.0219479
        k(   23) = (   0.0000000   0.1092509   0.0514470), wk =   0.0219479
        k(   24) = (   0.0000000   0.1092509   0.0771705), wk =   0.0219479
        k(   25) = (   0.0000000   0.1092509   0.1028940), wk =   0.0219479
        k(   26) = (   0.0273127   0.0273127   0.0000000), wk =   0.0109739
        k(   27) = (   0.0273127   0.0273127   0.0257235), wk =   0.0219479
        k(   28) = (   0.0273127   0.0273127   0.0514470), wk =   0.0219479
        k(   29) = (   0.0273127   0.0273127   0.0771705), wk =   0.0219479
        k(   30) = (   0.0273127   0.0273127   0.1028940), wk =   0.0219479
        k(   31) = (   0.0273127   0.0546255   0.0000000), wk =   0.0219479
        k(   32) = (   0.0273127   0.0546255   0.0257235), wk =   0.0438957
        k(   33) = (   0.0273127   0.0546255   0.0514470), wk =   0.0438957
        k(   34) = (   0.0273127   0.0546255   0.0771705), wk =   0.0438957
        k(   35) = (   0.0273127   0.0546255   0.1028940), wk =   0.0438957
        k(   36) = (   0.0273127   0.0819382   0.0000000), wk =   0.0219479
        k(   37) = (   0.0273127   0.0819382   0.0257235), wk =   0.0438957
        k(   38) = (   0.0273127   0.0819382   0.0514470), wk =   0.0438957
        k(   39) = (   0.0273127   0.0819382   0.0771705), wk =   0.0438957
        k(   40) = (   0.0273127   0.0819382   0.1028940), wk =   0.0438957
        k(   41) = (   0.0273127   0.1092509   0.0000000), wk =   0.0219479
        k(   42) = (   0.0273127   0.1092509   0.0257235), wk =   0.0438957
        k(   43) = (   0.0273127   0.1092509   0.0514470), wk =   0.0438957
        k(   44) = (   0.0273127   0.1092509   0.0771705), wk =   0.0438957
        k(   45) = (   0.0273127   0.1092509   0.1028940), wk =   0.0438957
        k(   46) = (   0.0546255   0.0546255   0.0000000), wk =   0.0109739
        k(   47) = (   0.0546255   0.0546255   0.0257235), wk =   0.0219479
        k(   48) = (   0.0546255   0.0546255   0.0514470), wk =   0.0219479
        k(   49) = (   0.0546255   0.0546255   0.0771705), wk =   0.0219479
        k(   50) = (   0.0546255   0.0546255   0.1028940), wk =   0.0219479
        k(   51) = (   0.0546255   0.0819382   0.0000000), wk =   0.0219479
        k(   52) = (   0.0546255   0.0819382   0.0257235), wk =   0.0438957
        k(   53) = (   0.0546255   0.0819382   0.0514470), wk =   0.0438957
        k(   54) = (   0.0546255   0.0819382   0.0771705), wk =   0.0438957
        k(   55) = (   0.0546255   0.0819382   0.1028940), wk =   0.0438957
        k(   56) = (   0.0546255   0.1092509   0.0000000), wk =   0.0219479
        k(   57) = (   0.0546255   0.1092509   0.0257235), wk =   0.0438957
        k(   58) = (   0.0546255   0.1092509   0.0514470), wk =   0.0438957
        k(   59) = (   0.0546255   0.1092509   0.0771705), wk =   0.0438957
        k(   60) = (   0.0546255   0.1092509   0.1028940), wk =   0.0438957
        k(   61) = (   0.0819382   0.0819382   0.0000000), wk =   0.0109739
        k(   62) = (   0.0819382   0.0819382   0.0257235), wk =   0.0219479
        k(   63) = (   0.0819382   0.0819382   0.0514470), wk =   0.0219479
        k(   64) = (   0.0819382   0.0819382   0.0771705), wk =   0.0219479
        k(   65) = (   0.0819382   0.0819382   0.1028940), wk =   0.0219479
        k(   66) = (   0.0819382   0.1092509   0.0000000), wk =   0.0219479
        k(   67) = (   0.0819382   0.1092509   0.0257235), wk =   0.0438957
        k(   68) = (   0.0819382   0.1092509   0.0514470), wk =   0.0438957
        k(   69) = (   0.0819382   0.1092509   0.0771705), wk =   0.0438957
        k(   70) = (   0.0819382   0.1092509   0.1028940), wk =   0.0438957
        k(   71) = (   0.1092509   0.1092509   0.0000000), wk =   0.0109739
        k(   72) = (   0.1092509   0.1092509   0.0257235), wk =   0.0219479
        k(   73) = (   0.1092509   0.1092509   0.0514470), wk =   0.0219479
        k(   74) = (   0.1092509   0.1092509   0.0771705), wk =   0.0219479
        k(   75) = (   0.1092509   0.1092509   0.1028940), wk =   0.0219479

     Largest allocated arrays     est. size (Mb)     dimensions
     Largest temporary arrays     est. size (Mb)     dimensions

     Initial potential from superposition of free atoms
     Check: negative starting charge=   -0.257247

     starting charge   51.99991, renormalised to   56.00000

     negative rho (up, down):  2.770E-01 0.000E+00

     *
     * You are using vdW-DF for exchange-correlation in this calculation.
     * Please cite the following three references that made this development
     * possible:
     *
     *   M. Dion, H. Rydberg, E. Schroder, D. C. Langreth, and
     *   B. I. Lundqvist, Phys. Rev. Lett. 92, 246401 (2004).
     *
     *   T. Thonhauser, V. R. Cooper, S. Li, A. Puzder, P. Hyldgaard, and
     *   D. C. Langreth, Phys. Rev. B 76, 125112 (2007).
     *
     *   G. Roman-Perez and J. M. Soler, Phys. Rev. Lett. 103, 096102 (2009).
     *
     *
     * If you are using vdW-DF2, please also cite:
     *
     *   K. Lee, E. D. Murray, L. Kong, B. I. Lundqvist, and
     *   D. C. Langreth, Phys. Rev. B 82, 081101(R) (2010).
     *
     *
     * If you are calculating the stress with vdW-DF, please also cite:
     *
     *   R. Sabatini, E. Kucukbenli, B. Kolb, T. Thonhauser, and
     *   S. de Gironcoli, J. Phys.: Condens. Matter 24, 424209 (2012).
     *

     Carrying out vdW-DF run using the following parameters:

     Nqs =      20    Nr_points =    1024   r_max =   100.000
     q_mesh =
               0.00001000     0.04494208     0.09755937     0.15916263
               0.23128650     0.31572767     0.41458969     0.53033537
               0.66584808     0.82450364     1.01025438     1.22772762
               1.48234092     1.78043706     2.12944203     2.53805004
               3.01644009     3.57652955     4.23227104     5.00000000

     Gradients computed in reciprocal space

     Starting wfc are   44 randomized atomic wfcs +    4 random wfc

     Self-consistent Calculation

     iteration #  1     ecut=    58.80 Ry     beta=0.10
     Davidson diagonalization with overlap
     ethr =  1.00E-02,  avg # of iterations =  4.5

[...]

     total energy              =    -654.53909596 Ry
     Harris-Foulkes estimate   =    -655.09537340 Ry
     estimated scf accuracy    <       3.58876760 Ry

[...]

     total energy              =    -653.73811271 Ry
     Harris-Foulkes estimate   =    -653.73811342 Ry
     estimated scf accuracy    <       0.00000689 Ry

     iteration # 11     ecut=    58.80 Ry     beta=0.10
     Davidson diagonalization with overlap
     ethr =  1.23E-08,  avg # of iterations =  1.9

     negative rho (up, down):  2.642E-01 0.000E+00

     End of self-consistent calculation

          k = 0.0000 0.0000 0.0000 (  3663 PWs)   bands (ev):

   -62.5858 -62.5448 -24.4514 -24.4514 -24.2926 -24.2097 -24.0965 -24.0965
     2.0642   2.2615   2.5047   2.6024   2.6024   3.0119   3.0119   3.0510
     3.1299   3.4498   6.9660  12.9327  13.8667  14.3602  16.0495  16.0495
    16.2800  16.6399  16.7839  16.7839  18.5298  18.5298  19.8663  21.5303
    21.6460  22.4982  23.2960  24.8952  25.7452  25.7452  26.2141  26.2141
    27.4373  30.3793  31.6266  32.4542  32.7569  33.2604  33.6288  34.1523

[...]

          k = 0.1093 0.1093 0.1029 (  3673 PWs)   bands (ev):

   -62.5658 -62.5645 -24.4956 -24.4852 -24.2549 -24.2523 -24.0745 -24.0635
     2.3758   2.4087   2.5132   2.5227   2.7926   2.8179   3.0411   3.0529
     3.1176   3.1410  11.3002  11.5540  13.7945  13.8506  14.5244  14.5596
    15.6812  15.8224  17.4323  17.4520  17.7963  17.9279  18.7307  18.7470
    20.5386  20.6684  23.0485  23.1312  29.1725  29.1763  29.7595  29.8686
    30.0214  30.5692  32.0361  32.1831  32.2251  32.7231  33.0902  34.9174

     the Fermi energy is    17.8685 ev

!    total energy              =    -653.73812015 Ry
     Harris-Foulkes estimate   =    -653.73811359 Ry
     estimated scf accuracy    <       0.00000064 Ry

     The total energy is the sum of the following terms:

     one-electron contribution =    -102.42156040 Ry
     hartree contribution      =      94.88847990 Ry
     xc contribution           =    -186.81818301 Ry
     ewald contribution        =    -459.37543600 Ry
     smearing contrib. (-TS)   =      -0.01142063 Ry

     convergence has been achieved in  11 iterations

     Forces acting on atoms (Ry/au):

     negative rho (up, down):  2.642E-01 0.000E+00
     atom    1 type  1   force =     0.00000000    0.00000000    0.00000000
     atom    2 type  1   force =     0.00000000    0.00000000    0.00000000
     atom    3 type  2   force =     0.00000000    0.00000000    0.00000000
     atom    4 type  2   force =     0.00000000    0.00000000    0.00000000

     Total force =     0.000000     Total SCF correction =     0.000000

     General routines

     Parallel routines

   This run was terminated on:  13:13:46  14Nov2017

   JOB DONE.