     Program PWSCF v.5.1rc2 starts on 14Nov2017 at 15:37:15

     Current dimensions of program PWSCF are:
     Max number of different atomic species (ntypx) = 10
     Max number of k-points (npk) =  40000
     Max angular momentum in pseudopotentials (lmaxx) =  3

     IMPORTANT: XC functional enforced from input :
     Exchange-correlation      = BEEF-VDW ( 1  4 27 13 2)
     Any further DFT definition will be discarded
     Please, verify this is what you really want

     Found symmetry operation: I + ( -0.5000 -0.5000  0.0000)
     This is a supercell, fractional translations are disabled

     bravais-lattice index     =            0
     lattice parameter (alat)  =       1.8897  a.u.
     unit-cell volume          =     525.9035 (a.u.)^3
     number of atoms/cell      =            4
     number of atomic types    =            2
     number of electrons       =        50.00
     number of Kohn-Sham states=           45
     kinetic-energy cutoff     =      58.7989  Ry
     charge density cutoff     =     587.9892  Ry
     convergence threshold     =      1.0E-06
     mixing beta               =       0.1000
     number of iterations used =           10  plain     mixing
     Exchange-correlation      = BEEF-VDW ( 1  4 27 13 2)

     celldm(1)=   1.889726  celldm(2)=   0.000000  celldm(3)=   0.000000
     celldm(4)=   0.000000  celldm(5)=   0.000000  celldm(6)=   0.000000

     crystal axes: (cart. coord. in units of alat)
               a(1) = (   4.167261   0.000000   0.000000 )
               a(2) = (   0.000000   4.167261   0.000000 )
               a(3) = (   0.000000   0.000000   4.487538 )

     reciprocal axes: (cart. coord. in units 2 pi/alat)
               b(1) = (  0.239966  0.000000  0.000000 )
               b(2) = (  0.000000  0.239966  0.000000 )
               b(3) = (  0.000000  0.000000  0.222839 )

     PseudoPot. # 1 for Nb read from file:
     /home/users/vossj/suncat/psp/gbrv1.5pbe/Nb.UPF
     MD5 check sum: 573aab8a2fa660278ed4a62cd769473f
     Pseudo is Ultrasoft + core correction, Zval = 13.0
     Generated by new atomic code, or converted to UPF format
     Using radial grid of  887 points,  6 beta functions with:
                l(1) =   0
                l(2) =   0
                l(3) =   1
                l(4) =   1
                l(5) =   2
                l(6) =   2
     Q(r) pseudized with  6 coefficients,  rinner =    1.000   1.000   1.000
                                                       1.000   1.000

     PseudoPot. # 2 for Hg read from file:
     /home/users/vossj/suncat/psp/gbrv1.5pbe/Hg.UPF
     MD5 check sum: 8f42caffe07f7fd9c0a564347f8c5498
     Pseudo is Ultrasoft + core correction, Zval = 12.0
     Generated by new atomic code, or converted to UPF format
     Using radial grid of  985 points,  6 beta functions with:
                l(1) =   0
                l(2) =   0
                l(3) =   1
                l(4) =   1
                l(5) =   2
                l(6) =   2
     Q(r) pseudized with  8 coefficients,  rinner =    2.000   2.000   2.000
                                                       2.000   2.000

     vdW kernel table read from file vdW_kernel_table
     MD5 check sum: 095c7af220d748ca6e76c0b4c6cfb241

     atomic species   valence    mass     pseudopotential
        Nb1           13.00    92.90640     Nb( 1.00)
        Hg1           12.00   200.59000     Hg( 1.00)

     16 Sym. Ops., with inversion, found

   Cartesian axes

     site n.     atom                  positions (alat units)
         1           Nb1 tau(   1) = (   0.0000000   0.0000000   0.0000000  )
         2           Nb1 tau(   2) = (   2.0836303   2.0836303   0.0000000  )
         3           Hg1 tau(   3) = (   2.0836303   0.0000000   2.2437690  )
         4           Hg1 tau(   4) = (   0.0000000   2.0836303   2.2437690  )

     number of k points=    75  Fermi-Dirac smearing, width (Ry)=  0.0073
                       cart. coord. in units 2pi/alat
        k(    1) = (   0.0000000   0.0000000   0.0000000), wk =   0.0027435
        k(    2) = (   0.0000000   0.0000000   0.0247599), wk =   0.0054870
        k(    3) = (   0.0000000   0.0000000   0.0495199), wk =   0.0054870
        k(    4) = (   0.0000000   0.0000000   0.0742798), wk =   0.0054870
        k(    5) = (   0.0000000   0.0000000   0.0990397), wk =   0.0054870
        k(    6) = (   0.0000000   0.0266629   0.0000000), wk =   0.0109739
        k(    7) = (   0.0000000   0.0266629   0.0247599), wk =   0.0219479
        k(    8) = (   0.0000000   0.0266629   0.0495199), wk =   0.0219479
        k(    9) = (   0.0000000   0.0266629   0.0742798), wk =   0.0219479
        k(   10) = (   0.0000000   0.0266629   0.0990397), wk =   0.0219479
        k(   11) = (   0.0000000   0.0533257   0.0000000), wk =   0.0109739
        k(   12) = (   0.0000000   0.0533257   0.0247599), wk =   0.0219479
        k(   13) = (   0.0000000   0.0533257   0.0495199), wk =   0.0219479
        k(   14) = (   0.0000000   0.0533257   0.0742798), wk =   0.0219479
        k(   15) = (   0.0000000   0.0533257   0.0990397), wk =   0.0219479
        k(   16) = (   0.0000000   0.0799886   0.0000000), wk =   0.0109739
        k(   17) = (   0.0000000   0.0799886   0.0247599), wk =   0.0219479
        k(   18) = (   0.0000000   0.0799886   0.0495199), wk =   0.0219479
        k(   19) = (   0.0000000   0.0799886   0.0742798), wk =   0.0219479
        k(   20) = (   0.0000000   0.0799886   0.0990397), wk =   0.0219479
        k(   21) = (   0.0000000   0.1066515   0.0000000), wk =   0.0109739
        k(   22) = (   0.0000000   0.1066515   0.0247599), wk =   0.0219479
        k(   23) = (   0.0000000   0.1066515   0.0495199), wk =   0.0219479
        k(   24) = (   0.0000000   0.1066515   0.0742798), wk =   0.0219479
        k(   25) = (   0.0000000   0.1066515   0.0990397), wk =   0.0219479
        k(   26) = (   0.0266629   0.0266629   0.0000000), wk =   0.0109739
        k(   27) = (   0.0266629   0.0266629   0.0247599), wk =   0.0219479
        k(   28) = (   0.0266629   0.0266629   0.0495199), wk =   0.0219479
        k(   29) = (   0.0266629   0.0266629   0.0742798), wk =   0.0219479
        k(   30) = (   0.0266629   0.0266629   0.0990397), wk =   0.0219479
        k(   31) = (   0.0266629   0.0533257   0.0000000), wk =   0.0219479
        k(   32) = (   0.0266629   0.0533257   0.0247599), wk =   0.0438957
        k(   33) = (   0.0266629   0.0533257   0.0495199), wk =   0.0438957
        k(   34) = (   0.0266629   0.0533257   0.0742798), wk =   0.0438957
        k(   35) = (   0.0266629   0.0533257   0.0990397), wk =   0.0438957
        k(   36) = (   0.0266629   0.0799886   0.0000000), wk =   0.0219479
        k(   37) = (   0.0266629   0.0799886   0.0247599), wk =   0.0438957
        k(   38) = (   0.0266629   0.0799886   0.0495199), wk =   0.0438957
        k(   39) = (   0.0266629   0.0799886   0.0742798), wk =   0.0438957
        k(   40) = (   0.0266629   0.0799886   0.0990397), wk =   0.0438957
        k(   41) = (   0.0266629   0.1066515   0.0000000), wk =   0.0219479
        k(   42) = (   0.0266629   0.1066515   0.0247599), wk =   0.0438957
        k(   43) = (   0.0266629   0.1066515   0.0495199), wk =   0.0438957
        k(   44) = (   0.0266629   0.1066515   0.0742798), wk =   0.0438957
        k(   45) = (   0.0266629   0.1066515   0.0990397), wk =   0.0438957
        k(   46) = (   0.0533257   0.0533257   0.0000000), wk =   0.0109739
        k(   47) = (   0.0533257   0.0533257   0.0247599), wk =   0.0219479
        k(   48) = (   0.0533257   0.0533257   0.0495199), wk =   0.0219479
        k(   49) = (   0.0533257   0.0533257   0.0742798), wk =   0.0219479
        k(   50) = (   0.0533257   0.0533257   0.0990397), wk =   0.0219479
        k(   51) = (   0.0533257   0.0799886   0.0000000), wk =   0.0219479
        k(   52) = (   0.0533257   0.0799886   0.0247599), wk =   0.0438957
        k(   53) = (   0.0533257   0.0799886   0.0495199), wk =   0.0438957
        k(   54) = (   0.0533257   0.0799886   0.0742798), wk =   0.0438957
        k(   55) = (   0.0533257   0.0799886   0.0990397), wk =   0.0438957
        k(   56) = (   0.0533257   0.1066515   0.0000000), wk =   0.0219479
        k(   57) = (   0.0533257   0.1066515   0.0247599), wk =   0.0438957
        k(   58) = (   0.0533257   0.1066515   0.0495199), wk =   0.0438957
        k(   59) = (   0.0533257   0.1066515   0.0742798), wk =   0.0438957
        k(   60) = (   0.0533257   0.1066515   0.0990397), wk =   0.0438957
        k(   61) = (   0.0799886   0.0799886   0.0000000), wk =   0.0109739
        k(   62) = (   0.0799886   0.0799886   0.0247599), wk =   0.0219479
        k(   63) = (   0.0799886   0.0799886   0.0495199), wk =   0.0219479
        k(   64) = (   0.0799886   0.0799886   0.0742798), wk =   0.0219479
        k(   65) = (   0.0799886   0.0799886   0.0990397), wk =   0.0219479
        k(   66) = (   0.0799886   0.1066515   0.0000000), wk =   0.0219479
        k(   67) = (   0.0799886   0.1066515   0.0247599), wk =   0.0438957
        k(   68) = (   0.0799886   0.1066515   0.0495199), wk =   0.0438957
        k(   69) = (   0.0799886   0.1066515   0.0742798), wk =   0.0438957
        k(   70) = (   0.0799886   0.1066515   0.0990397), wk =   0.0438957
        k(   71) = (   0.1066515   0.1066515   0.0000000), wk =   0.0109739
        k(   72) = (   0.1066515   0.1066515   0.0247599), wk =   0.0219479
        k(   73) = (   0.1066515   0.1066515   0.0495199), wk =   0.0219479
        k(   74) = (   0.1066515   0.1066515   0.0742798), wk =   0.0219479
        k(   75) = (   0.1066515   0.1066515   0.0990397), wk =   0.0219479

     Largest allocated arrays     est. size (Mb)     dimensions
     Largest temporary arrays     est. size (Mb)     dimensions

     Initial potential from superposition of free atoms

     starting charge   49.99442, renormalised to   50.00000

     *
     * You are using vdW-DF for exchange-correlation in this calculation.
     * Please cite the following three references that made this development
     * possible:
     *
     *   M. Dion, H. Rydberg, E. Schroder, D. C. Langreth, and
     *   B. I. Lundqvist, Phys. Rev. Lett. 92, 246401 (2004).
     *
     *   T. Thonhauser, V. R. Cooper, S. Li, A. Puzder, P. Hyldgaard, and
     *   D. C. Langreth, Phys. Rev. B 76, 125112 (2007).
     *
     *   G. Roman-Perez and J. M. Soler, Phys. Rev. Lett. 103, 096102 (2009).
     *
     *
     * If you are using vdW-DF2, please also cite:
     *
     *   K. Lee, E. D. Murray, L. Kong, B. I. Lundqvist, and
     *   D. C. Langreth, Phys. Rev. B 82, 081101(R) (2010).
     *
     *
     * If you are calculating the stress with vdW-DF, please also cite:
     *
     *   R. Sabatini, E. Kucukbenli, B. Kolb, T. Thonhauser, and
     *   S. de Gironcoli, J. Phys.: Condens. Matter 24, 424209 (2012).
     *

     Carrying out vdW-DF run using the following parameters:

     Nqs =      20    Nr_points =    1024   r_max =   100.000
     q_mesh =
               0.00001000     0.04494208     0.09755937     0.15916263
               0.23128650     0.31572767     0.41458969     0.53033537
               0.66584808     0.82450364     1.01025438     1.22772762
               1.48234092     1.78043706     2.12944203     2.53805004
               3.01644009     3.57652955     4.23227104     5.00000000

     Gradients computed in reciprocal space

     Starting wfc are   44 randomized atomic wfcs +    1 random wfc

     Self-consistent Calculation

     iteration #  1     ecut=    58.80 Ry     beta=0.10
     Davidson diagonalization with overlap
     ethr =  1.00E-02,  avg # of iterations =  5.1

     Threshold (ethr) on eigenvalues was too large:
     Diagonalizing with lowered threshold

     Davidson diagonalization with overlap
     ethr =  4.15E-04,  avg # of iterations =  1.5

     total energy              =    -455.31486167 Ry
     Harris-Foulkes estimate   =    -455.33573385 Ry
     estimated scf accuracy    <       0.20689837 Ry

[...]

     total energy              =    -455.28268652 Ry
     Harris-Foulkes estimate   =    -455.28268607 Ry
     estimated scf accuracy    <       0.00001030 Ry

     iteration #  9     ecut=    58.80 Ry     beta=0.10
     Davidson diagonalization with overlap
     ethr =  2.06E-08,  avg # of iterations =  2.0

     End of self-consistent calculation

          k = 0.0000 0.0000 0.0000 (  4009 PWs)   bands (ev):

   -39.7295 -39.5883 -15.9069 -15.9069 -15.8517 -15.6982 -15.3187 -15.3187
     6.3413   6.8901   6.8952   7.4587   7.4587   7.5519   8.1169   8.5917
     8.5917   9.1329   9.8567  12.9793  13.7316  13.9413  15.9339  16.1420
    16.1420  16.8012  16.8012  17.1948  18.0074  18.0074  19.2020  19.8340
    20.6441  22.3268  22.4409  25.2455  25.2455  25.4028  25.4028  25.6990
    26.2885  28.1218  31.1732  31.9301  32.0794

[...]

          k = 0.1067 0.1067 0.0990 (  3996 PWs)   bands (ev):

   -39.6598 -39.6556 -15.9934 -15.9765 -15.7825 -15.7776 -15.2786 -15.2600
     7.1008   7.1753   7.2783   7.2936   8.2969   8.3531   8.3660   8.3661
     8.6797   8.7117  11.5220  11.9175  14.0154  14.0346  14.3958  14.4478
    15.2595  15.4332  17.2653  17.4588  17.5700  17.6181  18.1385  18.1845
    19.3681  19.5453  23.4261  23.5185  27.1360  27.1818  27.7482  27.8672
    29.6581  30.0574  30.4021  30.6599  31.4737

     the Fermi energy is    15.5818 ev

!    total energy              =    -455.28269409 Ry
     Harris-Foulkes estimate   =    -455.28268806 Ry
     estimated scf accuracy    <       0.00000066 Ry

     The total energy is the sum of the following terms:

     one-electron contribution =     -41.27515508 Ry
     hartree contribution      =      60.35927610 Ry
     xc contribution           =    -119.13659411 Ry
     ewald contribution        =    -355.22275630 Ry
     smearing contrib. (-TS)   =      -0.00746471 Ry

     convergence has been achieved in   9 iterations

     Forces acting on atoms (Ry/au):

     atom    1 type  1   force =     0.00000000    0.00000000    0.00000000
     atom    2 type  1   force =     0.00000000    0.00000000    0.00000000
     atom    3 type  2   force =     0.00000000    0.00000000    0.00000000
     atom    4 type  2   force =     0.00000000    0.00000000    0.00000000

     Total force =     0.000000     Total SCF correction =     0.000000

     General routines

     Parallel routines

   This run was terminated on:  15:37:48  14Nov2017

   JOB DONE.