     Program PWSCF v.5.1rc2 starts on 15Nov2017 at  7:12:13

     Current dimensions of program PWSCF are:
     Max number of different atomic species (ntypx) = 10
     Max number of k-points (npk) =  40000
     Max angular momentum in pseudopotentials (lmaxx) =  3

     IMPORTANT: XC functional enforced from input :
     Exchange-correlation      = BEEF-VDW ( 1  4 27 13 2)
     Any further DFT definition will be discarded
     Please, verify this is what you really want

     Found symmetry operation: I + ( -0.5000 -0.5000  0.0000)
     This is a supercell, fractional translations are disabled

     bravais-lattice index     =            0
     lattice parameter (alat)  =       1.8897  a.u.
     unit-cell volume          =     485.3767 (a.u.)^3
     number of atoms/cell      =            4
     number of atomic types    =            2
     number of electrons       =        54.00
     number of Kohn-Sham states=           47
     kinetic-energy cutoff     =      58.7989  Ry
     charge density cutoff     =     587.9892  Ry
     convergence threshold     =      1.0E-06
     mixing beta               =       0.1000
     number of iterations used =           10  plain     mixing
     Exchange-correlation      = BEEF-VDW ( 1  4 27 13 2)

     celldm(1)=   1.889726  celldm(2)=   0.000000  celldm(3)=   0.000000
     celldm(4)=   0.000000  celldm(5)=   0.000000  celldm(6)=   0.000000

     crystal axes: (cart. coord. in units of alat)
               a(1) = (   4.435409   0.000000   0.000000 )
               a(2) = (   0.000000   4.435409   0.000000 )
               a(3) = (   0.000000   0.000000   3.656074 )

     reciprocal axes: (cart. coord. in units 2 pi/alat)
               b(1) = (  0.225458  0.000000  0.000000 )
               b(2) = (  0.000000  0.225458  0.000000 )
               b(3) = (  0.000000  0.000000  0.273517 )

     PseudoPot. # 1 for Zr read from file:
     /home/users/vossj/suncat/psp/gbrv1.5pbe/Zr.UPF
     MD5 check sum: 5db81b1e868ab7776c4564c113de050b
     Pseudo is Ultrasoft + core correction, Zval = 12.0
     Generated by new atomic code, or converted to UPF format
     Using radial grid of  887 points,  6 beta functions with:
                l(1) =   0
                l(2) =   0
                l(3) =   1
                l(4) =   1
                l(5) =   2
                l(6) =   2
     Q(r) pseudized with  6 coefficients,  rinner =    1.200   1.200   1.200
                                                       1.200   1.200

     PseudoPot. # 2 for Ir read from file:
     /home/users/vossj/suncat/psp/gbrv1.5pbe/Ir.UPF
     MD5 check sum: 8836f839c3459d2b385c504ce6d91f2c
     Pseudo is Ultrasoft + core correction, Zval = 15.0
     Generated by new atomic code, or converted to UPF format
     Using radial grid of  983 points,  7 beta functions with:
                l(1) =   0
                l(2) =   0
                l(3) =   1
                l(4) =   1
                l(5) =   1
                l(6) =   2
                l(7) =   2
     Q(r) pseudized with  8 coefficients,  rinner =    1.400   1.400   1.400
                                                       1.400   1.400

     vdW kernel table read from file vdW_kernel_table
     MD5 check sum: 095c7af220d748ca6e76c0b4c6cfb241

     atomic species   valence    mass     pseudopotential
        Zr1           12.00    91.22400     Zr( 1.00)
        Ir1           15.00   192.22000     Ir( 1.00)

     16 Sym. Ops., with inversion, found

   Cartesian axes

     site n.     atom                  positions (alat units)
         1           Zr1 tau(   1) = (   0.0000000   0.0000000   0.0000000  )
         2           Zr1 tau(   2) = (   2.2177047   2.2177047   0.0000000  )
         3           Ir1 tau(   3) = (   2.2177047   0.0000000   1.8280368  )
         4           Ir1 tau(   4) = (   0.0000000   2.2177047   1.8280368  )

     number of k points=    75  Fermi-Dirac smearing, width (Ry)=  0.0073
                       cart. coord. in units 2pi/alat
        k(    1) = (   0.0000000   0.0000000   0.0000000), wk =   0.0027435
        k(    2) = (   0.0000000   0.0000000   0.0303908), wk =   0.0054870
        k(    3) = (   0.0000000   0.0000000   0.0607817), wk =   0.0054870
        k(    4) = (   0.0000000   0.0000000   0.0911725), wk =   0.0054870
        k(    5) = (   0.0000000   0.0000000   0.1215633), wk =   0.0054870
        k(    6) = (   0.0000000   0.0250509   0.0000000), wk =   0.0109739
        k(    7) = (   0.0000000   0.0250509   0.0303908), wk =   0.0219479
        k(    8) = (   0.0000000   0.0250509   0.0607817), wk =   0.0219479
        k(    9) = (   0.0000000   0.0250509   0.0911725), wk =   0.0219479
        k(   10) = (   0.0000000   0.0250509   0.1215633), wk =   0.0219479
        k(   11) = (   0.0000000   0.0501019   0.0000000), wk =   0.0109739
        k(   12) = (   0.0000000   0.0501019   0.0303908), wk =   0.0219479
        k(   13) = (   0.0000000   0.0501019   0.0607817), wk =   0.0219479
        k(   14) = (   0.0000000   0.0501019   0.0911725), wk =   0.0219479
        k(   15) = (   0.0000000   0.0501019   0.1215633), wk =   0.0219479
        k(   16) = (   0.0000000   0.0751528   0.0000000), wk =   0.0109739
        k(   17) = (   0.0000000   0.0751528   0.0303908), wk =   0.0219479
        k(   18) = (   0.0000000   0.0751528   0.0607817), wk =   0.0219479
        k(   19) = (   0.0000000   0.0751528   0.0911725), wk =   0.0219479
        k(   20) = (   0.0000000   0.0751528   0.1215633), wk =   0.0219479
        k(   21) = (   0.0000000   0.1002037   0.0000000), wk =   0.0109739
        k(   22) = (   0.0000000   0.1002037   0.0303908), wk =   0.0219479
        k(   23) = (   0.0000000   0.1002037   0.0607817), wk =   0.0219479
        k(   24) = (   0.0000000   0.1002037   0.0911725), wk =   0.0219479
        k(   25) = (   0.0000000   0.1002037   0.1215633), wk =   0.0219479
        k(   26) = (   0.0250509   0.0250509   0.0000000), wk =   0.0109739
        k(   27) = (   0.0250509   0.0250509   0.0303908), wk =   0.0219479
        k(   28) = (   0.0250509   0.0250509   0.0607817), wk =   0.0219479
        k(   29) = (   0.0250509   0.0250509   0.0911725), wk =   0.0219479
        k(   30) = (   0.0250509   0.0250509   0.1215633), wk =   0.0219479
        k(   31) = (   0.0250509   0.0501019   0.0000000), wk =   0.0219479
        k(   32) = (   0.0250509   0.0501019   0.0303908), wk =   0.0438957
        k(   33) = (   0.0250509   0.0501019   0.0607817), wk =   0.0438957
        k(   34) = (   0.0250509   0.0501019   0.0911725), wk =   0.0438957
        k(   35) = (   0.0250509   0.0501019   0.1215633), wk =   0.0438957
        k(   36) = (   0.0250509   0.0751528   0.0000000), wk =   0.0219479
        k(   37) = (   0.0250509   0.0751528   0.0303908), wk =   0.0438957
        k(   38) = (   0.0250509   0.0751528   0.0607817), wk =   0.0438957
        k(   39) = (   0.0250509   0.0751528   0.0911725), wk =   0.0438957
        k(   40) = (   0.0250509   0.0751528   0.1215633), wk =   0.0438957
        k(   41) = (   0.0250509   0.1002037   0.0000000), wk =   0.0219479
        k(   42) = (   0.0250509   0.1002037   0.0303908), wk =   0.0438957
        k(   43) = (   0.0250509   0.1002037   0.0607817), wk =   0.0438957
        k(   44) = (   0.0250509   0.1002037   0.0911725), wk =   0.0438957
        k(   45) = (   0.0250509   0.1002037   0.1215633), wk =   0.0438957
        k(   46) = (   0.0501019   0.0501019   0.0000000), wk =   0.0109739
        k(   47) = (   0.0501019   0.0501019   0.0303908), wk =   0.0219479
        k(   48) = (   0.0501019   0.0501019   0.0607817), wk =   0.0219479
        k(   49) = (   0.0501019   0.0501019   0.0911725), wk =   0.0219479
        k(   50) = (   0.0501019   0.0501019   0.1215633), wk =   0.0219479
        k(   51) = (   0.0501019   0.0751528   0.0000000), wk =   0.0219479
        k(   52) = (   0.0501019   0.0751528   0.0303908), wk =   0.0438957
        k(   53) = (   0.0501019   0.0751528   0.0607817), wk =   0.0438957
        k(   54) = (   0.0501019   0.0751528   0.0911725), wk =   0.0438957
        k(   55) = (   0.0501019   0.0751528   0.1215633), wk =   0.0438957
        k(   56) = (   0.0501019   0.1002037   0.0000000), wk =   0.0219479
        k(   57) = (   0.0501019   0.1002037   0.0303908), wk =   0.0438957
        k(   58) = (   0.0501019   0.1002037   0.0607817), wk =   0.0438957
        k(   59) = (   0.0501019   0.1002037   0.0911725), wk =   0.0438957
        k(   60) = (   0.0501019   0.1002037   0.1215633), wk =   0.0438957
        k(   61) = (   0.0751528   0.0751528   0.0000000), wk =   0.0109739
        k(   62) = (   0.0751528   0.0751528   0.0303908), wk =   0.0219479
        k(   63) = (   0.0751528   0.0751528   0.0607817), wk =   0.0219479
        k(   64) = (   0.0751528   0.0751528   0.0911725), wk =   0.0219479
        k(   65) = (   0.0751528   0.0751528   0.1215633), wk =   0.0219479
        k(   66) = (   0.0751528   0.1002037   0.0000000), wk =   0.0219479
        k(   67) = (   0.0751528   0.1002037   0.0303908), wk =   0.0438957
        k(   68) = (   0.0751528   0.1002037   0.0607817), wk =   0.0438957
        k(   69) = (   0.0751528   0.1002037   0.0911725), wk =   0.0438957
        k(   70) = (   0.0751528   0.1002037   0.1215633), wk =   0.0438957
        k(   71) = (   0.1002037   0.1002037   0.0000000), wk =   0.0109739
        k(   72) = (   0.1002037   0.1002037   0.0303908), wk =   0.0219479
        k(   73) = (   0.1002037   0.1002037   0.0607817), wk =   0.0219479
        k(   74) = (   0.1002037   0.1002037   0.0911725), wk =   0.0219479
        k(   75) = (   0.1002037   0.1002037   0.1215633), wk =   0.0219479

     Largest allocated arrays     est. size (Mb)     dimensions
     Largest temporary arrays     est. size (Mb)     dimensions

     Initial potential from superposition of free atoms
     Check: negative starting charge=   -0.846025

     starting charge   52.99564, renormalised to   54.00000

     negative rho (up, down):  8.621E-01 0.000E+00

     *
     * You are using vdW-DF for exchange-correlation in this calculation.
     * Please cite the following three references that made this development
     * possible:
     *
     *   M. Dion, H. Rydberg, E. Schroder, D. C. Langreth, and
     *   B. I. Lundqvist, Phys. Rev. Lett. 92, 246401 (2004).
     *
     *   T. Thonhauser, V. R. Cooper, S. Li, A. Puzder, P. Hyldgaard, and
     *   D. C. Langreth, Phys. Rev. B 76, 125112 (2007).
     *
     *   G. Roman-Perez and J. M. Soler, Phys. Rev. Lett. 103, 096102 (2009).
     *
     *
     * If you are using vdW-DF2, please also cite:
     *
     *   K. Lee, E. D. Murray, L. Kong, B. I. Lundqvist, and
     *   D. C. Langreth, Phys. Rev. B 82, 081101(R) (2010).
     *
     *
     * If you are calculating the stress with vdW-DF, please also cite:
     *
     *   R. Sabatini, E. Kucukbenli, B. Kolb, T. Thonhauser, and
     *   S. de Gironcoli, J. Phys.: Condens. Matter 24, 424209 (2012).
     *

     Carrying out vdW-DF run using the following parameters:

     Nqs =      20    Nr_points =    1024   r_max =   100.000
     q_mesh =
               0.00001000     0.04494208     0.09755937     0.15916263
               0.23128650     0.31572767     0.41458969     0.53033537
               0.66584808     0.82450364     1.01025438     1.22772762
               1.48234092     1.78043706     2.12944203     2.53805004
               3.01644009     3.57652955     4.23227104     5.00000000

     Gradients computed in reciprocal space

     Starting wfc are   50 randomized atomic wfcs

     Self-consistent Calculation

     iteration #  1     ecut=    58.80 Ry     beta=0.10
     Davidson diagonalization with overlap
     ethr =  1.00E-02,  avg # of iterations =  4.5

[...]

     total energy              =    -566.49484481 Ry
     Harris-Foulkes estimate   =    -567.14126827 Ry
     estimated scf accuracy    <       3.96242439 Ry

[...]

     total energy              =    -566.51921954 Ry
     Harris-Foulkes estimate   =    -566.51921643 Ry
     estimated scf accuracy    <       0.00000348 Ry

     iteration # 11     ecut=    58.80 Ry     beta=0.10
     Davidson diagonalization with overlap
     ethr =  4.29E-09,  avg # of iterations =  2.0

     negative rho (up, down):  7.747E-01 0.000E+00

     End of self-consistent calculation

          k = 0.0000 0.0000 0.0000 (  3709 PWs)   bands (ev):

   -30.7493 -30.6304 -30.5771 -30.5771 -30.4993 -30.4993 -30.4811 -30.4643
    -8.9533  -8.9533  -8.6378  -8.5174  -8.4235  -8.4235  10.8220  13.1223
    13.4130  13.4430  13.6056  14.2837  14.2837  16.2483  16.2483  17.1571
    18.5906  19.1344  19.5001  20.3241  20.3241  20.6929  22.1815  23.1811
    23.1905  23.1905  23.2154  23.2154  23.9606  24.1089  27.6823  27.6823
    27.9165  29.7263  29.7263  29.7591  29.9823  29.9949  30.4767

[...]

          k = 0.1002 0.1002 0.1216 (  3706 PWs)   bands (ev):

   -30.6996 -30.6897 -30.5733 -30.5730 -30.4935 -30.4912 -30.4861 -30.4781
    -9.0153  -8.9998  -8.7115  -8.7067  -8.3812  -8.3640  12.9645  13.0147
    13.7362  13.7566  15.5034  15.5646  15.6483  15.7045  16.9266  16.9502
    18.1497  18.8449  18.9527  19.3008  19.5013  19.6954  19.7961  19.9150
    22.6838  22.9513  23.2239  23.2543  23.2633  23.5393  27.2995  27.5131
    29.0770  29.0892  29.9913  29.9916  30.4124  30.4459  30.5395

     the Fermi energy is    18.7333 ev

!    total energy              =    -566.51923726 Ry
     Harris-Foulkes estimate   =    -566.51922014 Ry
     estimated scf accuracy    <       0.00000022 Ry

     The total energy is the sum of the following terms:

     one-electron contribution =     -67.24677589 Ry
     hartree contribution      =      69.97167929 Ry
     xc contribution           =    -141.10179522 Ry
     ewald contribution        =    -428.13267009 Ry
     smearing contrib. (-TS)   =      -0.00967535 Ry

     convergence has been achieved in  11 iterations

     Forces acting on atoms (Ry/au):

     negative rho (up, down):  7.747E-01 0.000E+00
     atom    1 type  1   force =     0.00000000    0.00000000    0.00000000
     atom    2 type  1   force =     0.00000000    0.00000000    0.00000000
     atom    3 type  2   force =     0.00000000    0.00000000    0.00000000
     atom    4 type  2   force =     0.00000000    0.00000000    0.00000000

     Total force =     0.000000     Total SCF correction =     0.000000

     General routines

     Parallel routines

   This run was terminated on:   7:12:57  15Nov2017

   JOB DONE.