     Program PWSCF v.5.1rc2 starts on 14Nov2017 at 15:52:24

     Current dimensions of program PWSCF are:
     Max number of different atomic species (ntypx) = 10
     Max number of k-points (npk) =  40000
     Max angular momentum in pseudopotentials (lmaxx) =  3

     IMPORTANT: XC functional enforced from input :
     Exchange-correlation      = BEEF-VDW ( 1  4 27 13 2)
     Any further DFT definition will be discarded
     Please, verify this is what you really want

     Found symmetry operation: I + ( -0.5000 -0.5000  0.0000)
     This is a supercell, fractional translations are disabled

     bravais-lattice index     =            0
     lattice parameter (alat)  =       1.8897  a.u.
     unit-cell volume          =     521.6045 (a.u.)^3
     number of atoms/cell      =            4
     number of atomic types    =            2
     number of electrons       =        50.00
     number of Kohn-Sham states=           45
     kinetic-energy cutoff     =      58.7989  Ry
     charge density cutoff     =     587.9892  Ry
     convergence threshold     =      1.0E-06
     mixing beta               =       0.1000
     number of iterations used =           10  plain     mixing
     Exchange-correlation      = BEEF-VDW ( 1  4 27 13 2)

     celldm(1)=   1.889726  celldm(2)=   0.000000  celldm(3)=   0.000000
     celldm(4)=   0.000000  celldm(5)=   0.000000  celldm(6)=   0.000000

     crystal axes: (cart. coord. in units of alat)
               a(1) = (   4.051863   0.000000   0.000000 )
               a(2) = (   0.000000   4.051863   0.000000 )
               a(3) = (   0.000000   0.000000   4.707985 )

     reciprocal axes: (cart. coord. in units 2 pi/alat)
               b(1) = (  0.246800  0.000000  0.000000 )
               b(2) = (  0.000000  0.246800  0.000000 )
               b(3) = (  0.000000  0.000000  0.212405 )

     PseudoPot. # 1 for Nb read from file:
     /home/users/vossj/suncat/psp/gbrv1.5pbe/Nb.UPF
     MD5 check sum: 573aab8a2fa660278ed4a62cd769473f
     Pseudo is Ultrasoft + core correction, Zval = 13.0
     Generated by new atomic code, or converted to UPF format
     Using radial grid of  887 points,  6 beta functions with:
                l(1) =   0
                l(2) =   0
                l(3) =   1
                l(4) =   1
                l(5) =   2
                l(6) =   2
     Q(r) pseudized with  6 coefficients,  rinner =    1.000   1.000   1.000
                                                       1.000   1.000

     PseudoPot. # 2 for Cd read from file:
     /home/users/vossj/suncat/psp/gbrv1.5pbe/Cd.UPF
     MD5 check sum: 17164a7926edb8e0dc231208abae86a6
     Pseudo is Ultrasoft + core correction, Zval = 12.0
     Generated by new atomic code, or converted to UPF format
     Using radial grid of  889 points,  6 beta functions with:
                l(1) =   0
                l(2) =   0
                l(3) =   1
                l(4) =   1
                l(5) =   2
                l(6) =   2
     Q(r) pseudized with  6 coefficients,  rinner =    1.000   1.000   1.000
                                                       1.000   1.000

     vdW kernel table read from file vdW_kernel_table
     MD5 check sum: 095c7af220d748ca6e76c0b4c6cfb241

     atomic species   valence    mass     pseudopotential
        Nb1           13.00    92.90640     Nb( 1.00)
        Cd1           12.00   112.41000     Cd( 1.00)

     16 Sym. Ops., with inversion, found

   Cartesian axes

     site n.     atom                  positions (alat units)
         1           Nb1 tau(   1) = (   0.0000000   0.0000000   0.0000000  )
         2           Nb1 tau(   2) = (   2.0259317   2.0259317   0.0000000  )
         3           Cd1 tau(   3) = (   2.0259317   0.0000000   2.3539927  )
         4           Cd1 tau(   4) = (   0.0000000   2.0259317   2.3539927  )

     number of k points=    75  Fermi-Dirac smearing, width (Ry)=  0.0073
                       cart. coord. in units 2pi/alat
        k(    1) = (   0.0000000   0.0000000   0.0000000), wk =   0.0027435
        k(    2) = (   0.0000000   0.0000000   0.0236006), wk =   0.0054870
        k(    3) = (   0.0000000   0.0000000   0.0472011), wk =   0.0054870
        k(    4) = (   0.0000000   0.0000000   0.0708017), wk =   0.0054870
        k(    5) = (   0.0000000   0.0000000   0.0944023), wk =   0.0054870
        k(    6) = (   0.0000000   0.0274222   0.0000000), wk =   0.0109739
        k(    7) = (   0.0000000   0.0274222   0.0236006), wk =   0.0219479
        k(    8) = (   0.0000000   0.0274222   0.0472011), wk =   0.0219479
        k(    9) = (   0.0000000   0.0274222   0.0708017), wk =   0.0219479
        k(   10) = (   0.0000000   0.0274222   0.0944023), wk =   0.0219479
        k(   11) = (   0.0000000   0.0548445   0.0000000), wk =   0.0109739
        k(   12) = (   0.0000000   0.0548445   0.0236006), wk =   0.0219479
        k(   13) = (   0.0000000   0.0548445   0.0472011), wk =   0.0219479
        k(   14) = (   0.0000000   0.0548445   0.0708017), wk =   0.0219479
        k(   15) = (   0.0000000   0.0548445   0.0944023), wk =   0.0219479
        k(   16) = (   0.0000000   0.0822667   0.0000000), wk =   0.0109739
        k(   17) = (   0.0000000   0.0822667   0.0236006), wk =   0.0219479
        k(   18) = (   0.0000000   0.0822667   0.0472011), wk =   0.0219479
        k(   19) = (   0.0000000   0.0822667   0.0708017), wk =   0.0219479
        k(   20) = (   0.0000000   0.0822667   0.0944023), wk =   0.0219479
        k(   21) = (   0.0000000   0.1096889   0.0000000), wk =   0.0109739
        k(   22) = (   0.0000000   0.1096889   0.0236006), wk =   0.0219479
        k(   23) = (   0.0000000   0.1096889   0.0472011), wk =   0.0219479
        k(   24) = (   0.0000000   0.1096889   0.0708017), wk =   0.0219479
        k(   25) = (   0.0000000   0.1096889   0.0944023), wk =   0.0219479
        k(   26) = (   0.0274222   0.0274222   0.0000000), wk =   0.0109739
        k(   27) = (   0.0274222   0.0274222   0.0236006), wk =   0.0219479
        k(   28) = (   0.0274222   0.0274222   0.0472011), wk =   0.0219479
        k(   29) = (   0.0274222   0.0274222   0.0708017), wk =   0.0219479
        k(   30) = (   0.0274222   0.0274222   0.0944023), wk =   0.0219479
        k(   31) = (   0.0274222   0.0548445   0.0000000), wk =   0.0219479
        k(   32) = (   0.0274222   0.0548445   0.0236006), wk =   0.0438957
        k(   33) = (   0.0274222   0.0548445   0.0472011), wk =   0.0438957
        k(   34) = (   0.0274222   0.0548445   0.0708017), wk =   0.0438957
        k(   35) = (   0.0274222   0.0548445   0.0944023), wk =   0.0438957
        k(   36) = (   0.0274222   0.0822667   0.0000000), wk =   0.0219479
        k(   37) = (   0.0274222   0.0822667   0.0236006), wk =   0.0438957
        k(   38) = (   0.0274222   0.0822667   0.0472011), wk =   0.0438957
        k(   39) = (   0.0274222   0.0822667   0.0708017), wk =   0.0438957
        k(   40) = (   0.0274222   0.0822667   0.0944023), wk =   0.0438957
        k(   41) = (   0.0274222   0.1096889   0.0000000), wk =   0.0219479
        k(   42) = (   0.0274222   0.1096889   0.0236006), wk =   0.0438957
        k(   43) = (   0.0274222   0.1096889   0.0472011), wk =   0.0438957
        k(   44) = (   0.0274222   0.1096889   0.0708017), wk =   0.0438957
        k(   45) = (   0.0274222   0.1096889   0.0944023), wk =   0.0438957
        k(   46) = (   0.0548445   0.0548445   0.0000000), wk =   0.0109739
        k(   47) = (   0.0548445   0.0548445   0.0236006), wk =   0.0219479
        k(   48) = (   0.0548445   0.0548445   0.0472011), wk =   0.0219479
        k(   49) = (   0.0548445   0.0548445   0.0708017), wk =   0.0219479
        k(   50) = (   0.0548445   0.0548445   0.0944023), wk =   0.0219479
        k(   51) = (   0.0548445   0.0822667   0.0000000), wk =   0.0219479
        k(   52) = (   0.0548445   0.0822667   0.0236006), wk =   0.0438957
        k(   53) = (   0.0548445   0.0822667   0.0472011), wk =   0.0438957
        k(   54) = (   0.0548445   0.0822667   0.0708017), wk =   0.0438957
        k(   55) = (   0.0548445   0.0822667   0.0944023), wk =   0.0438957
        k(   56) = (   0.0548445   0.1096889   0.0000000), wk =   0.0219479
        k(   57) = (   0.0548445   0.1096889   0.0236006), wk =   0.0438957
        k(   58) = (   0.0548445   0.1096889   0.0472011), wk =   0.0438957
        k(   59) = (   0.0548445   0.1096889   0.0708017), wk =   0.0438957
        k(   60) = (   0.0548445   0.1096889   0.0944023), wk =   0.0438957
        k(   61) = (   0.0822667   0.0822667   0.0000000), wk =   0.0109739
        k(   62) = (   0.0822667   0.0822667   0.0236006), wk =   0.0219479
        k(   63) = (   0.0822667   0.0822667   0.0472011), wk =   0.0219479
        k(   64) = (   0.0822667   0.0822667   0.0708017), wk =   0.0219479
        k(   65) = (   0.0822667   0.0822667   0.0944023), wk =   0.0219479
        k(   66) = (   0.0822667   0.1096889   0.0000000), wk =   0.0219479
        k(   67) = (   0.0822667   0.1096889   0.0236006), wk =   0.0438957
        k(   68) = (   0.0822667   0.1096889   0.0472011), wk =   0.0438957
        k(   69) = (   0.0822667   0.1096889   0.0708017), wk =   0.0438957
        k(   70) = (   0.0822667   0.1096889   0.0944023), wk =   0.0438957
        k(   71) = (   0.1096889   0.1096889   0.0000000), wk =   0.0109739
        k(   72) = (   0.1096889   0.1096889   0.0236006), wk =   0.0219479
        k(   73) = (   0.1096889   0.1096889   0.0472011), wk =   0.0219479
        k(   74) = (   0.1096889   0.1096889   0.0708017), wk =   0.0219479
        k(   75) = (   0.1096889   0.1096889   0.0944023), wk =   0.0219479

     Largest allocated arrays     est. size (Mb)     dimensions
     Largest temporary arrays     est. size (Mb)     dimensions

     Initial potential from superposition of free atoms
     Check: negative starting charge=   -0.040787

     starting charge   48.99445, renormalised to   50.00000

     negative rho (up, down):  4.162E-02 0.000E+00

     *
     * You are using vdW-DF for exchange-correlation in this calculation.
     * Please cite the following three references that made this development
     * possible:
     *
     *   M. Dion, H. Rydberg, E. Schroder, D. C. Langreth, and
     *   B. I. Lundqvist, Phys. Rev. Lett. 92, 246401 (2004).
     *
     *   T. Thonhauser, V. R. Cooper, S. Li, A. Puzder, P. Hyldgaard, and
     *   D. C. Langreth, Phys. Rev. B 76, 125112 (2007).
     *
     *   G. Roman-Perez and J. M. Soler, Phys. Rev. Lett. 103, 096102 (2009).
     *
     *
     * If you are using vdW-DF2, please also cite:
     *
     *   K. Lee, E. D. Murray, L. Kong, B. I. Lundqvist, and
     *   D. C. Langreth, Phys. Rev. B 82, 081101(R) (2010).
     *
     *
     * If you are calculating the stress with vdW-DF, please also cite:
     *
     *   R. Sabatini, E. Kucukbenli, B. Kolb, T. Thonhauser, and
     *   S. de Gironcoli, J. Phys.: Condens. Matter 24, 424209 (2012).
     *

     Carrying out vdW-DF run using the following parameters:

     Nqs =      20    Nr_points =    1024   r_max =   100.000
     q_mesh =
               0.00001000     0.04494208     0.09755937     0.15916263
               0.23128650     0.31572767     0.41458969     0.53033537
               0.66584808     0.82450364     1.01025438     1.22772762
               1.48234092     1.78043706     2.12944203     2.53805004
               3.01644009     3.57652955     4.23227104     5.00000000

     Gradients computed in reciprocal space

     Starting wfc are   44 randomized atomic wfcs +    1 random wfc

     Self-consistent Calculation

     iteration #  1     ecut=    58.80 Ry     beta=0.10
     Davidson diagonalization with overlap
     ethr =  1.00E-02,  avg # of iterations =  4.5

[...]

     total energy              =    -469.37468679 Ry
     Harris-Foulkes estimate   =    -469.47670896 Ry
     estimated scf accuracy    <       0.69440134 Ry

[...]

     total energy              =    -469.29494227 Ry
     Harris-Foulkes estimate   =    -469.29493570 Ry
     estimated scf accuracy    <       0.00000482 Ry

     iteration # 11     ecut=    58.80 Ry     beta=0.10
     Davidson diagonalization with overlap
     ethr =  3.10E-09,  avg # of iterations =  2.0

     negative rho (up, down):  4.292E-02 0.000E+00

     End of self-consistent calculation

          k = 0.0000 0.0000 0.0000 (  3977 PWs)   bands (ev):

   -40.4955 -40.3005 -16.7419 -16.7419 -16.6095 -16.4077 -15.9918 -15.9918
     4.9555   5.0543   5.3419   5.5542   5.5542   6.2046   6.2993   6.2993
     6.5836   6.8432   7.0671  11.7510  12.4599  12.6396  14.4674  14.6032
    14.6032  16.0243  16.3299  16.3299  17.2571  17.2571  18.7993  20.4232
    20.8800  21.0925  21.3770  24.3738  24.7573  24.7573  25.2202  25.3310
    25.3310  27.9495  29.8256  31.2508  31.4236

[...]

          k = 0.1097 0.1097 0.0944 (  3983 PWs)   bands (ev):

   -40.3994 -40.3935 -16.8566 -16.8352 -16.5121 -16.5058 -15.9399 -15.9160
     5.3182   5.3691   5.4023   5.4159   6.0278   6.0755   6.2720   6.2973
     6.3601   6.3811  10.9018  11.1996  12.9754  13.0634  13.3975  13.4526
    14.5954  14.7463  16.1954  16.2097  16.4816  16.6642  17.5282  17.5483
    18.8955  19.0598  22.8366  22.8516  25.7215  25.7528  27.0301  27.2668
    29.4751  30.0763  30.1373  30.3218  30.6237

     the Fermi energy is    14.6109 ev

!    total energy              =    -469.29498975 Ry
     Harris-Foulkes estimate   =    -469.29494266 Ry
     estimated scf accuracy    <       0.00000041 Ry

     The total energy is the sum of the following terms:

     one-electron contribution =     -64.92144661 Ry
     hartree contribution      =      71.46150913 Ry
     xc contribution           =    -119.86874783 Ry
     ewald contribution        =    -355.95876283 Ry
     smearing contrib. (-TS)   =      -0.00754163 Ry

     convergence has been achieved in  11 iterations

     Forces acting on atoms (Ry/au):

     negative rho (up, down):  4.292E-02 0.000E+00
     atom    1 type  1   force =     0.00000000    0.00000000    0.00000000
     atom    2 type  1   force =     0.00000000    0.00000000    0.00000000
     atom    3 type  2   force =     0.00000000    0.00000000    0.00000000
     atom    4 type  2   force =     0.00000000    0.00000000    0.00000000

     Total force =     0.000000     Total SCF correction =     0.000000

     General routines

     Parallel routines

   This run was terminated on:  15:53: 1  14Nov2017

   JOB DONE.