     Program PWSCF v.5.1rc2 starts on 15Nov2017 at 13:18:27

     Current dimensions of program PWSCF are:
     Max number of different atomic species (ntypx) = 10
     Max number of k-points (npk) =  40000
     Max angular momentum in pseudopotentials (lmaxx) =  3

     IMPORTANT: XC functional enforced from input :
     Exchange-correlation      = BEEF-VDW ( 1  4 27 13 2)
     Any further DFT definition will be discarded
     Please, verify this is what you really want

     Found symmetry operation: I + (  0.5000  0.5000  0.0000)
     This is a supercell, fractional translations are disabled

     Generating pointlists ...
     new r_m :   0.4125 (alat units)  0.7795 (a.u.) for type    1
     new r_m :   0.4125 (alat units)  0.7795 (a.u.) for type    2

     bravais-lattice index     =            0
     lattice parameter (alat)  =       1.8897  a.u.
     unit-cell volume          =     346.9111 (a.u.)^3
     number of atoms/cell      =            4
     number of atomic types    =            2
     number of electrons       =        64.00
     number of Kohn-Sham states=           42
     kinetic-energy cutoff     =      44.0992  Ry
     charge density cutoff     =     440.9919  Ry
     convergence threshold     =      1.0E-05
     mixing beta               =       0.2000
     number of iterations used =           10  plain     mixing
     Exchange-correlation      = BEEF-VDW ( 1  4 27 13 2)

     celldm(1)=   1.889726  celldm(2)=   0.000000  celldm(3)=   0.000000
     celldm(4)=   0.000000  celldm(5)=   0.000000  celldm(6)=   0.000000

     crystal axes: (cart. coord. in units of alat)
               a(1) = (   3.757265   0.000000   0.000000 )
               a(2) = (   0.000000   3.757265   0.000000 )
               a(3) = (   0.000000   0.000000   3.641481 )

     reciprocal axes: (cart. coord. in units 2 pi/alat)
               b(1) = (  0.266151  0.000000  0.000000 )
               b(2) = (  0.000000  0.266151  0.000000 )
               b(3) = (  0.000000  0.000000  0.274614 )

     PseudoPot. # 1 for Fe read from file:
     /home/users/vossj/suncat/psp/gbrv1.5pbe/Fe.UPF
     MD5 check sum: a130daea23fe5165f5d574ae7f82ed95
     Pseudo is Ultrasoft + core correction, Zval = 16.0
     Generated by new atomic code, or converted to UPF format
     Using radial grid of  861 points,  6 beta functions with:
                l(1) =   0
                l(2) =   0
                l(3) =   1
                l(4) =   1
                l(5) =   2
                l(6) =   2
     Q(r) pseudized with  8 coefficients,  rinner =    1.000   1.000   1.000
                                                       1.000   1.000

     PseudoPot. # 2 for Os read from file:
     /home/users/vossj/suncat/psp/gbrv1.5pbe/Os.UPF
     MD5 check sum: a3fb40a04f0c37c25c34bbc47164c9a8
     Pseudo is Ultrasoft + core correction, Zval = 16.0
     Generated by new atomic code, or converted to UPF format
     Using radial grid of  983 points,  8 beta functions with:
                l(1) =   0
                l(2) =   0
                l(3) =   1
                l(4) =   1
                l(5) =   2
                l(6) =   2
                l(7) =   3
                l(8) =   3
     Q(r) pseudized with  8 coefficients,  rinner =    1.150   1.150   1.150
                                                       1.150   1.150   1.150
                                                       1.150

     vdW kernel table read from file vdW_kernel_table
     MD5 check sum: 095c7af220d748ca6e76c0b4c6cfb241

     atomic species   valence    mass     pseudopotential
        Fe1           16.00    55.84700     Fe( 1.00)
        Os1           16.00   190.20000     Os( 1.00)

     Starting magnetic structure
     atomic species   magnetization
        Fe1          0.125
        Os1          0.125

     16 Sym. Ops., with inversion, found

   Cartesian axes

     site n.     atom                  positions (alat units)
         1           Fe1 tau(   1) = (   0.0000000   0.0000000   0.0000000  )
         2           Fe1 tau(   2) = (   1.8786323   1.8786323   0.0000000  )
         3           Os1 tau(   3) = (   1.8786323   0.0000000   1.8207405  )
         4           Os1 tau(   4) = (   0.0000000   1.8786323   1.8207405  )

     number of k points=   150  Fermi-Dirac smearing, width (Ry)=  0.0110

     Number of k-points >= 100: set verbosity='high' to print them.

     Largest allocated arrays     est. size (Mb)     dimensions
     Largest temporary arrays     est. size (Mb)     dimensions

     Check: negative/imaginary core charge=   -0.000018    0.000000

     Initial potential from superposition of free atoms
     Check: negative starting charge=(component1):   -0.139608
     Check: negative starting charge=(component2):   -0.108584

     starting charge   60.99992, renormalised to   64.00000

     negative rho (up, down):  1.465E-01 1.139E-01

     *
     * You are using vdW-DF for exchange-correlation in this calculation.
     * Please cite the following three references that made this development
     * possible:
     *
     *   M. Dion, H. Rydberg, E. Schroder, D. C. Langreth, and
     *   B. I. Lundqvist, Phys. Rev. Lett. 92, 246401 (2004).
     *
     *   T. Thonhauser, V. R. Cooper, S. Li, A. Puzder, P. Hyldgaard, and
     *   D. C. Langreth, Phys. Rev. B 76, 125112 (2007).
     *
     *   G. Roman-Perez and J. M. Soler, Phys. Rev. Lett. 103, 096102 (2009).
     *
     *
     * If you are using vdW-DF2, please also cite:
     *
     *   K. Lee, E. D. Murray, L. Kong, B. I. Lundqvist, and
     *   D. C. Langreth, Phys. Rev. B 82, 081101(R) (2010).
     *
     *
     * If you are calculating the stress with vdW-DF, please also cite:
     *
     *   R. Sabatini, E. Kucukbenli, B. Kolb, T. Thonhauser, and
     *   S. de Gironcoli, J. Phys.: Condens. Matter 24, 424209 (2012).
     *

     Carrying out vdW-DF run using the following parameters:

     Nqs =      20    Nr_points =    1024   r_max =   100.000
     q_mesh =
               0.00001000     0.04494208     0.09755937     0.15916263
               0.23128650     0.31572767     0.41458969     0.53033537
               0.66584808     0.82450364     1.01025438     1.22772762
               1.48234092     1.78043706     2.12944203     2.53805004
               3.01644009     3.57652955     4.23227104     5.00000000

     Gradients computed in reciprocal space

     Starting wfc are   52 randomized atomic wfcs

     Self-consistent Calculation

     iteration #  1     ecut=    44.10 Ry     beta=0.20
     Davidson diagonalization with overlap
     ethr =  1.00E-02,  avg # of iterations =  2.0

[...]

     Magnetic moment per site:
     atom:    1    charge:    7.2215    magn:    0.8440    constr:    0.0000
     atom:    2    charge:    7.2215    magn:    0.8440    constr:    0.0000
     atom:    3    charge:    2.2360    magn:    0.2347    constr:    0.0000
     atom:    4    charge:    2.2360    magn:    0.2347    constr:    0.0000

     total energy              =    -902.34079367 Ry
     Harris-Foulkes estimate   =    -902.97335562 Ry
     estimated scf accuracy    <       2.28585166 Ry

     total magnetization       =     3.21 Bohr mag/cell
     absolute magnetization    =     3.26 Bohr mag/cell

[...]

     total energy              =    -902.36192323 Ry
     Harris-Foulkes estimate   =    -902.36192437 Ry
     estimated scf accuracy    <       0.00001074 Ry

[...]

     iteration # 16     ecut=    44.10 Ry     beta=0.20
     Davidson diagonalization with overlap
     ethr =  1.68E-08,  avg # of iterations =  2.6

     negative rho (up, down):  1.264E-01 1.247E-01

     Magnetic moment per site:
     atom:    1    charge:    7.0820    magn:    0.8452    constr:    0.0000
     atom:    2    charge:    7.0821    magn:    0.8452    constr:    0.0000
     atom:    3    charge:    2.1812    magn:   -0.0088    constr:    0.0000
     atom:    4    charge:    2.1812    magn:   -0.0088    constr:    0.0000

     End of self-consistent calculation

     Number of k-points >= 100: set verbosity='high' to print the bands.

     the Fermi energy is    22.0252 ev

!    total energy              =    -902.36194490 Ry
     Harris-Foulkes estimate   =    -902.36194329 Ry
     estimated scf accuracy    <       0.00000244 Ry

     The total energy is the sum of the following terms:

     one-electron contribution =    -279.42399178 Ry
     hartree contribution      =     183.37434302 Ry
     xc contribution           =    -138.12260749 Ry
     ewald contribution        =    -668.16154310 Ry
     smearing contrib. (-TS)   =      -0.02814555 Ry

     total magnetization       =     3.13 Bohr mag/cell
     absolute magnetization    =     3.96 Bohr mag/cell

     convergence has been achieved in  16 iterations

     Forces acting on atoms (Ry/au):

     negative rho (up, down):  1.264E-01 1.247E-01
     atom    1 type  1   force =     0.00000000    0.00000000    0.00000000
     atom    2 type  1   force =     0.00000000    0.00000000    0.00000000
     atom    3 type  2   force =     0.00000000    0.00000000    0.00000000
     atom    4 type  2   force =     0.00000000    0.00000000    0.00000000

     Total force =     0.000000     Total SCF correction =     0.000000

     General routines

     Parallel routines

   This run was terminated on:  13:19:26  15Nov2017

   JOB DONE.