     Program PWSCF v.5.1rc2 starts on 14Nov2017 at 17: 4:57

     Current dimensions of program PWSCF are:
     Max number of different atomic species (ntypx) = 10
     Max number of k-points (npk) =  40000
     Max angular momentum in pseudopotentials (lmaxx) =  3

     IMPORTANT: XC functional enforced from input :
     Exchange-correlation      = BEEF-VDW ( 1  4 27 13 2)
     Any further DFT definition will be discarded
     Please, verify this is what you really want

     Found symmetry operation: I + ( -0.5000 -0.5000  0.0000)
     This is a supercell, fractional translations are disabled

     bravais-lattice index     =            0
     lattice parameter (alat)  =       1.8897  a.u.
     unit-cell volume          =     445.4491 (a.u.)^3
     number of atoms/cell      =            4
     number of atomic types    =            2
     number of electrons       =        58.00
     number of Kohn-Sham states=           49
     kinetic-energy cutoff     =      58.7989  Ry
     charge density cutoff     =     587.9892  Ry
     convergence threshold     =      1.0E-06
     mixing beta               =       0.1000
     number of iterations used =           10  plain     mixing
     Exchange-correlation      = BEEF-VDW ( 1  4 27 13 2)

     celldm(1)=   1.889726  celldm(2)=   0.000000  celldm(3)=   0.000000
     celldm(4)=   0.000000  celldm(5)=   0.000000  celldm(6)=   0.000000

     crystal axes: (cart. coord. in units of alat)
               a(1) = (   3.999827   0.000000   0.000000 )
               a(2) = (   0.000000   3.999827   0.000000 )
               a(3) = (   0.000000   0.000000   4.125904 )

     reciprocal axes: (cart. coord. in units 2 pi/alat)
               b(1) = (  0.250011  0.000000  0.000000 )
               b(2) = (  0.000000  0.250011  0.000000 )
               b(3) = (  0.000000  0.000000  0.242371 )

     PseudoPot. # 1 for Nb read from file:
     /home/users/vossj/suncat/psp/gbrv1.5pbe/Nb.UPF
     MD5 check sum: 573aab8a2fa660278ed4a62cd769473f
     Pseudo is Ultrasoft + core correction, Zval = 13.0
     Generated by new atomic code, or converted to UPF format
     Using radial grid of  887 points,  6 beta functions with:
                l(1) =   0
                l(2) =   0
                l(3) =   1
                l(4) =   1
                l(5) =   2
                l(6) =   2
     Q(r) pseudized with  6 coefficients,  rinner =    1.000   1.000   1.000
                                                       1.000   1.000

     PseudoPot. # 2 for Pt read from file:
     /home/users/vossj/suncat/psp/gbrv1.5pbe/Pt.UPF
     MD5 check sum: f09d6de1a584b5a045c4fc126da2d0c4
     Pseudo is Ultrasoft + core correction, Zval = 16.0
     Generated by new atomic code, or converted to UPF format
     Using radial grid of  985 points,  6 beta functions with:
                l(1) =   0
                l(2) =   0
                l(3) =   1
                l(4) =   1
                l(5) =   2
                l(6) =   2
     Q(r) pseudized with  8 coefficients,  rinner =    1.300   1.300   1.300
                                                       1.300   1.300

     vdW kernel table read from file vdW_kernel_table
     MD5 check sum: 095c7af220d748ca6e76c0b4c6cfb241

     atomic species   valence    mass     pseudopotential
        Nb1           13.00    92.90640     Nb( 1.00)
        Pt1           16.00   195.08000     Pt( 1.00)

     16 Sym. Ops., with inversion, found

   Cartesian axes

     site n.     atom                  positions (alat units)
         1           Nb1 tau(   1) = (   0.0000000   0.0000000   0.0000000  )
         2           Nb1 tau(   2) = (   1.9999135   1.9999135   0.0000000  )
         3           Pt1 tau(   3) = (   1.9999135   0.0000000   2.0629519  )
         4           Pt1 tau(   4) = (   0.0000000   1.9999135   2.0629519  )

     number of k points=    75  Fermi-Dirac smearing, width (Ry)=  0.0073
                       cart. coord. in units 2pi/alat
        k(    1) = (   0.0000000   0.0000000   0.0000000), wk =   0.0027435
        k(    2) = (   0.0000000   0.0000000   0.0269301), wk =   0.0054870
        k(    3) = (   0.0000000   0.0000000   0.0538603), wk =   0.0054870
        k(    4) = (   0.0000000   0.0000000   0.0807904), wk =   0.0054870
        k(    5) = (   0.0000000   0.0000000   0.1077205), wk =   0.0054870
        k(    6) = (   0.0000000   0.0277790   0.0000000), wk =   0.0109739
        k(    7) = (   0.0000000   0.0277790   0.0269301), wk =   0.0219479
        k(    8) = (   0.0000000   0.0277790   0.0538603), wk =   0.0219479
        k(    9) = (   0.0000000   0.0277790   0.0807904), wk =   0.0219479
        k(   10) = (   0.0000000   0.0277790   0.1077205), wk =   0.0219479
        k(   11) = (   0.0000000   0.0555580   0.0000000), wk =   0.0109739
        k(   12) = (   0.0000000   0.0555580   0.0269301), wk =   0.0219479
        k(   13) = (   0.0000000   0.0555580   0.0538603), wk =   0.0219479
        k(   14) = (   0.0000000   0.0555580   0.0807904), wk =   0.0219479
        k(   15) = (   0.0000000   0.0555580   0.1077205), wk =   0.0219479
        k(   16) = (   0.0000000   0.0833369   0.0000000), wk =   0.0109739
        k(   17) = (   0.0000000   0.0833369   0.0269301), wk =   0.0219479
        k(   18) = (   0.0000000   0.0833369   0.0538603), wk =   0.0219479
        k(   19) = (   0.0000000   0.0833369   0.0807904), wk =   0.0219479
        k(   20) = (   0.0000000   0.0833369   0.1077205), wk =   0.0219479
        k(   21) = (   0.0000000   0.1111159   0.0000000), wk =   0.0109739
        k(   22) = (   0.0000000   0.1111159   0.0269301), wk =   0.0219479
        k(   23) = (   0.0000000   0.1111159   0.0538603), wk =   0.0219479
        k(   24) = (   0.0000000   0.1111159   0.0807904), wk =   0.0219479
        k(   25) = (   0.0000000   0.1111159   0.1077205), wk =   0.0219479
        k(   26) = (   0.0277790   0.0277790   0.0000000), wk =   0.0109739
        k(   27) = (   0.0277790   0.0277790   0.0269301), wk =   0.0219479
        k(   28) = (   0.0277790   0.0277790   0.0538603), wk =   0.0219479
        k(   29) = (   0.0277790   0.0277790   0.0807904), wk =   0.0219479
        k(   30) = (   0.0277790   0.0277790   0.1077205), wk =   0.0219479
        k(   31) = (   0.0277790   0.0555580   0.0000000), wk =   0.0219479
        k(   32) = (   0.0277790   0.0555580   0.0269301), wk =   0.0438957
        k(   33) = (   0.0277790   0.0555580   0.0538603), wk =   0.0438957
        k(   34) = (   0.0277790   0.0555580   0.0807904), wk =   0.0438957
        k(   35) = (   0.0277790   0.0555580   0.1077205), wk =   0.0438957
        k(   36) = (   0.0277790   0.0833369   0.0000000), wk =   0.0219479
        k(   37) = (   0.0277790   0.0833369   0.0269301), wk =   0.0438957
        k(   38) = (   0.0277790   0.0833369   0.0538603), wk =   0.0438957
        k(   39) = (   0.0277790   0.0833369   0.0807904), wk =   0.0438957
        k(   40) = (   0.0277790   0.0833369   0.1077205), wk =   0.0438957
        k(   41) = (   0.0277790   0.1111159   0.0000000), wk =   0.0219479
        k(   42) = (   0.0277790   0.1111159   0.0269301), wk =   0.0438957
        k(   43) = (   0.0277790   0.1111159   0.0538603), wk =   0.0438957
        k(   44) = (   0.0277790   0.1111159   0.0807904), wk =   0.0438957
        k(   45) = (   0.0277790   0.1111159   0.1077205), wk =   0.0438957
        k(   46) = (   0.0555580   0.0555580   0.0000000), wk =   0.0109739
        k(   47) = (   0.0555580   0.0555580   0.0269301), wk =   0.0219479
        k(   48) = (   0.0555580   0.0555580   0.0538603), wk =   0.0219479
        k(   49) = (   0.0555580   0.0555580   0.0807904), wk =   0.0219479
        k(   50) = (   0.0555580   0.0555580   0.1077205), wk =   0.0219479
        k(   51) = (   0.0555580   0.0833369   0.0000000), wk =   0.0219479
        k(   52) = (   0.0555580   0.0833369   0.0269301), wk =   0.0438957
        k(   53) = (   0.0555580   0.0833369   0.0538603), wk =   0.0438957
        k(   54) = (   0.0555580   0.0833369   0.0807904), wk =   0.0438957
        k(   55) = (   0.0555580   0.0833369   0.1077205), wk =   0.0438957
        k(   56) = (   0.0555580   0.1111159   0.0000000), wk =   0.0219479
        k(   57) = (   0.0555580   0.1111159   0.0269301), wk =   0.0438957
        k(   58) = (   0.0555580   0.1111159   0.0538603), wk =   0.0438957
        k(   59) = (   0.0555580   0.1111159   0.0807904), wk =   0.0438957
        k(   60) = (   0.0555580   0.1111159   0.1077205), wk =   0.0438957
        k(   61) = (   0.0833369   0.0833369   0.0000000), wk =   0.0109739
        k(   62) = (   0.0833369   0.0833369   0.0269301), wk =   0.0219479
        k(   63) = (   0.0833369   0.0833369   0.0538603), wk =   0.0219479
        k(   64) = (   0.0833369   0.0833369   0.0807904), wk =   0.0219479
        k(   65) = (   0.0833369   0.0833369   0.1077205), wk =   0.0219479
        k(   66) = (   0.0833369   0.1111159   0.0000000), wk =   0.0219479
        k(   67) = (   0.0833369   0.1111159   0.0269301), wk =   0.0438957
        k(   68) = (   0.0833369   0.1111159   0.0538603), wk =   0.0438957
        k(   69) = (   0.0833369   0.1111159   0.0807904), wk =   0.0438957
        k(   70) = (   0.0833369   0.1111159   0.1077205), wk =   0.0438957
        k(   71) = (   0.1111159   0.1111159   0.0000000), wk =   0.0109739
        k(   72) = (   0.1111159   0.1111159   0.0269301), wk =   0.0219479
        k(   73) = (   0.1111159   0.1111159   0.0538603), wk =   0.0219479
        k(   74) = (   0.1111159   0.1111159   0.0807904), wk =   0.0219479
        k(   75) = (   0.1111159   0.1111159   0.1077205), wk =   0.0219479

     Largest allocated arrays     est. size (Mb)     dimensions
     Largest temporary arrays     est. size (Mb)     dimensions

     Initial potential from superposition of free atoms
     Check: negative starting charge=   -0.367037

     starting charge   56.99451, renormalised to   58.00000

     negative rho (up, down):  3.735E-01 0.000E+00

     *
     * You are using vdW-DF for exchange-correlation in this calculation.
     * Please cite the following three references that made this development
     * possible:
     *
     *   M. Dion, H. Rydberg, E. Schroder, D. C. Langreth, and
     *   B. I. Lundqvist, Phys. Rev. Lett. 92, 246401 (2004).
     *
     *   T. Thonhauser, V. R. Cooper, S. Li, A. Puzder, P. Hyldgaard, and
     *   D. C. Langreth, Phys. Rev. B 76, 125112 (2007).
     *
     *   G. Roman-Perez and J. M. Soler, Phys. Rev. Lett. 103, 096102 (2009).
     *
     *
     * If you are using vdW-DF2, please also cite:
     *
     *   K. Lee, E. D. Murray, L. Kong, B. I. Lundqvist, and
     *   D. C. Langreth, Phys. Rev. B 82, 081101(R) (2010).
     *
     *
     * If you are calculating the stress with vdW-DF, please also cite:
     *
     *   R. Sabatini, E. Kucukbenli, B. Kolb, T. Thonhauser, and
     *   S. de Gironcoli, J. Phys.: Condens. Matter 24, 424209 (2012).
     *

     Carrying out vdW-DF run using the following parameters:

     Nqs =      20    Nr_points =    1024   r_max =   100.000
     q_mesh =
               0.00001000     0.04494208     0.09755937     0.15916263
               0.23128650     0.31572767     0.41458969     0.53033537
               0.66584808     0.82450364     1.01025438     1.22772762
               1.48234092     1.78043706     2.12944203     2.53805004
               3.01644009     3.57652955     4.23227104     5.00000000

     Gradients computed in reciprocal space

     Starting wfc are   50 randomized atomic wfcs

     Self-consistent Calculation

     iteration #  1     ecut=    58.80 Ry     beta=0.10
     Davidson diagonalization with overlap
     ethr =  1.00E-02,  avg # of iterations =  4.5

[...]

     total energy              =    -662.25199714 Ry
     Harris-Foulkes estimate   =    -662.58328754 Ry
     estimated scf accuracy    <       2.20999311 Ry

[...]

     total energy              =    -662.08975126 Ry
     Harris-Foulkes estimate   =    -662.08974929 Ry
     estimated scf accuracy    <       0.00000593 Ry

     iteration # 10     ecut=    58.80 Ry     beta=0.10
     Davidson diagonalization with overlap
     ethr =  1.02E-08,  avg # of iterations =  1.9

     negative rho (up, down):  3.516E-01 0.000E+00

     End of self-consistent calculation

          k = 0.0000 0.0000 0.0000 (  3367 PWs)   bands (ev):

   -35.1378 -34.9096 -33.2462 -33.2462 -33.1883 -33.1502 -33.0718 -33.0718
   -11.4190 -11.4190 -11.2425 -11.0223 -10.5743 -10.5743  11.7063  13.9230
    14.2108  14.3246  14.3856  14.5528  14.5528  17.2120  17.2120  18.4844
    18.7146  20.0409  20.2659  20.7579  22.5372  22.8903  22.8903  22.9830
    22.9830  23.6052  23.7938  23.7938  24.4212  26.0747  29.2415  29.5577
    31.3808  31.8610  31.8610  32.0764  32.0764  33.1560  33.3287  33.6858
    37.7595

[...]

          k = 0.1111 0.1111 0.1077 (  3381 PWs)   bands (ev):

   -35.0253 -35.0180 -33.2653 -33.2601 -33.1706 -33.1701 -33.0617 -33.0564
   -11.5477 -11.5237 -11.1517 -11.1443 -10.5146 -10.4873  13.7796  13.8565
    14.4484  14.4513  16.3335  16.3687  16.8381  16.9835  17.3435  17.4131
    19.0541  19.2193  19.3426  20.0362  20.3414  20.7232  20.8999  21.4010
    22.7191  23.1870  23.6743  23.7644  23.9630  24.1120  27.3065  27.5566
    30.6851  30.7667  33.0328  33.0494  33.2265  33.3228  37.2404  37.4900
    37.5113

     the Fermi energy is    20.2423 ev

!    total energy              =    -662.08976502 Ry
     Harris-Foulkes estimate   =    -662.08975193 Ry
     estimated scf accuracy    <       0.00000039 Ry

     The total energy is the sum of the following terms:

     one-electron contribution =     -83.44582064 Ry
     hartree contribution      =      84.40389669 Ry
     xc contribution           =    -155.58375574 Ry
     ewald contribution        =    -507.45743259 Ry
     smearing contrib. (-TS)   =      -0.00665273 Ry

     convergence has been achieved in  10 iterations

     Forces acting on atoms (Ry/au):

     negative rho (up, down):  3.516E-01 0.000E+00
     atom    1 type  1   force =     0.00000000    0.00000000    0.00000000
     atom    2 type  1   force =     0.00000000    0.00000000    0.00000000
     atom    3 type  2   force =     0.00000000    0.00000000    0.00000000
     atom    4 type  2   force =     0.00000000    0.00000000    0.00000000

     Total force =     0.000000     Total SCF correction =     0.000000

     General routines

     Parallel routines

   This run was terminated on:  17: 5:28  14Nov2017

   JOB DONE.