     Program PWSCF v.5.1rc2 starts on 13Nov2017 at 16:20:38

     Current dimensions of program PWSCF are:
     Max number of different atomic species (ntypx) = 10
     Max number of k-points (npk) =  40000
     Max angular momentum in pseudopotentials (lmaxx) =  3

     IMPORTANT: XC functional enforced from input :
     Exchange-correlation      = BEEF-VDW ( 1  4 27 13 2)
     Any further DFT definition will be discarded
     Please, verify this is what you really want

     Found symmetry operation: I + ( -0.5000 -0.5000  0.0000)
     This is a supercell, fractional translations are disabled

     bravais-lattice index     =            0
     lattice parameter (alat)  =       1.8897  a.u.
     unit-cell volume          =     629.3292 (a.u.)^3
     number of atoms/cell      =            4
     number of atomic types    =            2
     number of electrons       =        66.00
     number of Kohn-Sham states=           53
     kinetic-energy cutoff     =      58.7989  Ry
     charge density cutoff     =     587.9892  Ry
     convergence threshold     =      1.0E-06
     mixing beta               =       0.1000
     number of iterations used =           10  plain     mixing
     Exchange-correlation      = BEEF-VDW ( 1  4 27 13 2)

     celldm(1)=   1.889726  celldm(2)=   0.000000  celldm(3)=   0.000000
     celldm(4)=   0.000000  celldm(5)=   0.000000  celldm(6)=   0.000000

     crystal axes: (cart. coord. in units of alat)
               a(1) = (   4.680896   0.000000   0.000000 )
               a(2) = (   0.000000   4.680896   0.000000 )
               a(3) = (   0.000000   0.000000   4.256211 )

     reciprocal axes: (cart. coord. in units 2 pi/alat)
               b(1) = (  0.213634  0.000000  0.000000 )
               b(2) = (  0.000000  0.213634  0.000000 )
               b(3) = (  0.000000  0.000000  0.234951 )

     PseudoPot. # 1 for Ag read from file:
     /home/users/vossj/suncat/psp/gbrv1.5pbe/Ag.UPF
     MD5 check sum: d66d668201baa78d5eb5b04ef7011058
     Pseudo is Ultrasoft + core correction, Zval = 19.0
     Generated by new atomic code, or converted to UPF format
     Using radial grid of  887 points,  6 beta functions with:
                l(1) =   0
                l(2) =   0
                l(3) =   1
                l(4) =   1
                l(5) =   2
                l(6) =   2
     Q(r) pseudized with  6 coefficients,  rinner =    1.300   1.300   1.300
                                                       1.300   1.300

     PseudoPot. # 2 for Sn read from file:
     /home/users/vossj/suncat/psp/gbrv1.5pbe/Sn.UPF
     MD5 check sum: 469debedee59599fedebd795477fea03
     Pseudo is Ultrasoft + core correction, Zval = 14.0
     Generated by new atomic code, or converted to UPF format
     Using radial grid of  891 points,  6 beta functions with:
                l(1) =   0
                l(2) =   0
                l(3) =   1
                l(4) =   1
                l(5) =   2
                l(6) =   2
     Q(r) pseudized with  8 coefficients,  rinner =    1.350   1.350   1.350
                                                       1.350   1.350

     vdW kernel table read from file vdW_kernel_table
     MD5 check sum: 095c7af220d748ca6e76c0b4c6cfb241

     atomic species   valence    mass     pseudopotential
        Ag1           19.00   107.86800     Ag( 1.00)
        Sn1           14.00   118.71000     Sn( 1.00)

     16 Sym. Ops., with inversion, found

   Cartesian axes

     site n.     atom                  positions (alat units)
         1           Ag1 tau(   1) = (   0.0000000   0.0000000   0.0000000  )
         2           Ag1 tau(   2) = (   2.3404482   2.3404482   0.0000000  )
         3           Sn1 tau(   3) = (   2.3404482   0.0000000   2.1281057  )
         4           Sn1 tau(   4) = (   0.0000000   2.3404482   2.1281057  )

     number of k points=    75  Fermi-Dirac smearing, width (Ry)=  0.0073
                       cart. coord. in units 2pi/alat
        k(    1) = (   0.0000000   0.0000000   0.0000000), wk =   0.0027435
        k(    2) = (   0.0000000   0.0000000   0.0261056), wk =   0.0054870
        k(    3) = (   0.0000000   0.0000000   0.0522113), wk =   0.0054870
        k(    4) = (   0.0000000   0.0000000   0.0783169), wk =   0.0054870
        k(    5) = (   0.0000000   0.0000000   0.1044225), wk =   0.0054870
        k(    6) = (   0.0000000   0.0237371   0.0000000), wk =   0.0109739
        k(    7) = (   0.0000000   0.0237371   0.0261056), wk =   0.0219479
        k(    8) = (   0.0000000   0.0237371   0.0522113), wk =   0.0219479
        k(    9) = (   0.0000000   0.0237371   0.0783169), wk =   0.0219479
        k(   10) = (   0.0000000   0.0237371   0.1044225), wk =   0.0219479
        k(   11) = (   0.0000000   0.0474743   0.0000000), wk =   0.0109739
        k(   12) = (   0.0000000   0.0474743   0.0261056), wk =   0.0219479
        k(   13) = (   0.0000000   0.0474743   0.0522113), wk =   0.0219479
        k(   14) = (   0.0000000   0.0474743   0.0783169), wk =   0.0219479
        k(   15) = (   0.0000000   0.0474743   0.1044225), wk =   0.0219479
        k(   16) = (   0.0000000   0.0712114   0.0000000), wk =   0.0109739
        k(   17) = (   0.0000000   0.0712114   0.0261056), wk =   0.0219479
        k(   18) = (   0.0000000   0.0712114   0.0522113), wk =   0.0219479
        k(   19) = (   0.0000000   0.0712114   0.0783169), wk =   0.0219479
        k(   20) = (   0.0000000   0.0712114   0.1044225), wk =   0.0219479
        k(   21) = (   0.0000000   0.0949486   0.0000000), wk =   0.0109739
        k(   22) = (   0.0000000   0.0949486   0.0261056), wk =   0.0219479
        k(   23) = (   0.0000000   0.0949486   0.0522113), wk =   0.0219479
        k(   24) = (   0.0000000   0.0949486   0.0783169), wk =   0.0219479
        k(   25) = (   0.0000000   0.0949486   0.1044225), wk =   0.0219479
        k(   26) = (   0.0237371   0.0237371   0.0000000), wk =   0.0109739
        k(   27) = (   0.0237371   0.0237371   0.0261056), wk =   0.0219479
        k(   28) = (   0.0237371   0.0237371   0.0522113), wk =   0.0219479
        k(   29) = (   0.0237371   0.0237371   0.0783169), wk =   0.0219479
        k(   30) = (   0.0237371   0.0237371   0.1044225), wk =   0.0219479
        k(   31) = (   0.0237371   0.0474743   0.0000000), wk =   0.0219479
        k(   32) = (   0.0237371   0.0474743   0.0261056), wk =   0.0438957
        k(   33) = (   0.0237371   0.0474743   0.0522113), wk =   0.0438957
        k(   34) = (   0.0237371   0.0474743   0.0783169), wk =   0.0438957
        k(   35) = (   0.0237371   0.0474743   0.1044225), wk =   0.0438957
        k(   36) = (   0.0237371   0.0712114   0.0000000), wk =   0.0219479
        k(   37) = (   0.0237371   0.0712114   0.0261056), wk =   0.0438957
        k(   38) = (   0.0237371   0.0712114   0.0522113), wk =   0.0438957
        k(   39) = (   0.0237371   0.0712114   0.0783169), wk =   0.0438957
        k(   40) = (   0.0237371   0.0712114   0.1044225), wk =   0.0438957
        k(   41) = (   0.0237371   0.0949486   0.0000000), wk =   0.0219479
        k(   42) = (   0.0237371   0.0949486   0.0261056), wk =   0.0438957
        k(   43) = (   0.0237371   0.0949486   0.0522113), wk =   0.0438957
        k(   44) = (   0.0237371   0.0949486   0.0783169), wk =   0.0438957
        k(   45) = (   0.0237371   0.0949486   0.1044225), wk =   0.0438957
        k(   46) = (   0.0474743   0.0474743   0.0000000), wk =   0.0109739
        k(   47) = (   0.0474743   0.0474743   0.0261056), wk =   0.0219479
        k(   48) = (   0.0474743   0.0474743   0.0522113), wk =   0.0219479
        k(   49) = (   0.0474743   0.0474743   0.0783169), wk =   0.0219479
        k(   50) = (   0.0474743   0.0474743   0.1044225), wk =   0.0219479
        k(   51) = (   0.0474743   0.0712114   0.0000000), wk =   0.0219479
        k(   52) = (   0.0474743   0.0712114   0.0261056), wk =   0.0438957
        k(   53) = (   0.0474743   0.0712114   0.0522113), wk =   0.0438957
        k(   54) = (   0.0474743   0.0712114   0.0783169), wk =   0.0438957
        k(   55) = (   0.0474743   0.0712114   0.1044225), wk =   0.0438957
        k(   56) = (   0.0474743   0.0949486   0.0000000), wk =   0.0219479
        k(   57) = (   0.0474743   0.0949486   0.0261056), wk =   0.0438957
        k(   58) = (   0.0474743   0.0949486   0.0522113), wk =   0.0438957
        k(   59) = (   0.0474743   0.0949486   0.0783169), wk =   0.0438957
        k(   60) = (   0.0474743   0.0949486   0.1044225), wk =   0.0438957
        k(   61) = (   0.0712114   0.0712114   0.0000000), wk =   0.0109739
        k(   62) = (   0.0712114   0.0712114   0.0261056), wk =   0.0219479
        k(   63) = (   0.0712114   0.0712114   0.0522113), wk =   0.0219479
        k(   64) = (   0.0712114   0.0712114   0.0783169), wk =   0.0219479
        k(   65) = (   0.0712114   0.0712114   0.1044225), wk =   0.0219479
        k(   66) = (   0.0712114   0.0949486   0.0000000), wk =   0.0219479
        k(   67) = (   0.0712114   0.0949486   0.0261056), wk =   0.0438957
        k(   68) = (   0.0712114   0.0949486   0.0522113), wk =   0.0438957
        k(   69) = (   0.0712114   0.0949486   0.0783169), wk =   0.0438957
        k(   70) = (   0.0712114   0.0949486   0.1044225), wk =   0.0438957
        k(   71) = (   0.0949486   0.0949486   0.0000000), wk =   0.0109739
        k(   72) = (   0.0949486   0.0949486   0.0261056), wk =   0.0219479
        k(   73) = (   0.0949486   0.0949486   0.0522113), wk =   0.0219479
        k(   74) = (   0.0949486   0.0949486   0.0783169), wk =   0.0219479
        k(   75) = (   0.0949486   0.0949486   0.1044225), wk =   0.0219479

     Largest allocated arrays     est. size (Mb)     dimensions
     Largest temporary arrays     est. size (Mb)     dimensions

     Initial potential from superposition of free atoms

     starting charge   62.99981, renormalised to   66.00000

     *
     * You are using vdW-DF for exchange-correlation in this calculation.
     * Please cite the following three references that made this development
     * possible:
     *
     *   M. Dion, H. Rydberg, E. Schroder, D. C. Langreth, and
     *   B. I. Lundqvist, Phys. Rev. Lett. 92, 246401 (2004).
     *
     *   T. Thonhauser, V. R. Cooper, S. Li, A. Puzder, P. Hyldgaard, and
     *   D. C. Langreth, Phys. Rev. B 76, 125112 (2007).
     *
     *   G. Roman-Perez and J. M. Soler, Phys. Rev. Lett. 103, 096102 (2009).
     *
     *
     * If you are using vdW-DF2, please also cite:
     *
     *   K. Lee, E. D. Murray, L. Kong, B. I. Lundqvist, and
     *   D. C. Langreth, Phys. Rev. B 82, 081101(R) (2010).
     *
     *
     * If you are calculating the stress with vdW-DF, please also cite:
     *
     *   R. Sabatini, E. Kucukbenli, B. Kolb, T. Thonhauser, and
     *   S. de Gironcoli, J. Phys.: Condens. Matter 24, 424209 (2012).
     *

     Carrying out vdW-DF run using the following parameters:

     Nqs =      20    Nr_points =    1024   r_max =   100.000
     q_mesh =
               0.00001000     0.04494208     0.09755937     0.15916263
               0.23128650     0.31572767     0.41458969     0.53033537
               0.66584808     0.82450364     1.01025438     1.22772762
               1.48234092     1.78043706     2.12944203     2.53805004
               3.01644009     3.57652955     4.23227104     5.00000000

     Gradients computed in reciprocal space

     Starting wfc are   44 randomized atomic wfcs +    9 random wfc

     Self-consistent Calculation

     iteration #  1     ecut=    58.80 Ry     beta=0.10
     Davidson diagonalization with overlap
     ethr =  1.00E-02,  avg # of iterations =  5.2

     total energy              =    -914.69007419 Ry
     Harris-Foulkes estimate   =    -917.31112262 Ry
     estimated scf accuracy    <      15.37721494 Ry

[...]

     total energy              =    -914.76266364 Ry
     Harris-Foulkes estimate   =    -914.76264533 Ry
     estimated scf accuracy    <       0.00000405 Ry

     iteration # 12     ecut=    58.80 Ry     beta=0.10
     Davidson diagonalization with overlap
     ethr =  6.14E-09,  avg # of iterations =  2.0

     End of self-consistent calculation

          k = 0.0000 0.0000 0.0000 (  4767 PWs)   bands (ev):

   -79.9214 -79.9201 -43.4273 -43.4250 -43.4121 -43.4121 -43.3981 -43.3981
    -9.5821  -9.5165  -9.4992  -9.4745  -9.4745  -9.4235  -9.4235  -9.4091
    -9.4038  -9.3337   2.4097   6.0775   7.2334   7.3215   7.6105   7.6105
     7.8120   8.0372   8.0372   8.2701   8.6171   9.6693  10.0550  10.0550
    11.4000  13.7190  13.8654  15.9014  16.1665  16.1665  19.1815  19.1815
    20.3996  20.5709  20.5935  22.0287  22.5846  22.5846  23.9883  25.2937
    25.4263  25.9746  25.9746  28.6968  28.6968

[...]

          k = 0.0949 0.0949 0.1044 (  4808 PWs)   bands (ev):

   -79.9208 -79.9208 -43.4266 -43.4265 -43.4133 -43.4129 -43.3976 -43.3972
    -9.5204  -9.5149  -9.4859  -9.4844  -9.4542  -9.4509  -9.4228  -9.4212
    -9.3848  -9.3801   4.9044   5.0084   7.3950   7.4381   7.8659   7.9163
     7.9337   8.0325   8.0482   8.1255   8.5026   8.9842   9.0009   9.4615
     9.9815  10.2586  12.2526  12.5833  18.6223  18.9757  22.2151  22.5723
    22.6219  22.9872  24.1446  24.2417  24.3240  24.3492  25.2697  25.2736
    25.8204  26.1585  26.1681  26.2693  27.3588

     the Fermi energy is    12.4403 ev

!    total energy              =    -914.76274948 Ry
     Harris-Foulkes estimate   =    -914.76266424 Ry
     estimated scf accuracy    <       0.00000010 Ry

     The total energy is the sum of the following terms:

     one-electron contribution =    -424.00999328 Ry
     hartree contribution      =     248.10321000 Ry
     xc contribution           =    -149.24071472 Ry
     ewald contribution        =    -589.61108103 Ry
     smearing contrib. (-TS)   =      -0.00417045 Ry

     convergence has been achieved in  12 iterations

     Forces acting on atoms (Ry/au):

     atom    1 type  1   force =     0.00000000    0.00000000    0.00000000
     atom    2 type  1   force =     0.00000000    0.00000000    0.00000000
     atom    3 type  2   force =     0.00000000    0.00000000    0.00000000
     atom    4 type  2   force =     0.00000000    0.00000000    0.00000000

     Total force =     0.000000     Total SCF correction =     0.000000

     General routines

     Parallel routines

   This run was terminated on:  16:21:36  13Nov2017

   JOB DONE.