     Program PWSCF v.5.1rc2 starts on 14Nov2017 at 14:27:54

     Current dimensions of program PWSCF are:
     Max number of different atomic species (ntypx) = 10
     Max number of k-points (npk) =  40000
     Max angular momentum in pseudopotentials (lmaxx) =  3

     IMPORTANT: XC functional enforced from input :
     Exchange-correlation      = BEEF-VDW ( 1  4 27 13 2)
     Any further DFT definition will be discarded
     Please, verify this is what you really want

     Found symmetry operation: I + ( -0.5000 -0.5000  0.0000)
     This is a supercell, fractional translations are disabled

     bravais-lattice index     =            0
     lattice parameter (alat)  =       1.8897  a.u.
     unit-cell volume          =     469.2603 (a.u.)^3
     number of atoms/cell      =            4
     number of atomic types    =            2
     number of electrons       =        56.00
     number of Kohn-Sham states=           48
     kinetic-energy cutoff     =      58.7989  Ry
     charge density cutoff     =     587.9892  Ry
     convergence threshold     =      1.0E-06
     mixing beta               =       0.1000
     number of iterations used =           10  plain     mixing
     Exchange-correlation      = BEEF-VDW ( 1  4 27 13 2)

     celldm(1)=   1.889726  celldm(2)=   0.000000  celldm(3)=   0.000000
     celldm(4)=   0.000000  celldm(5)=   0.000000  celldm(6)=   0.000000

     crystal axes: (cart. coord. in units of alat)
               a(1) = (   4.399627   0.000000   0.000000 )
               a(2) = (   0.000000   4.399627   0.000000 )
               a(3) = (   0.000000   0.000000   3.592406 )

     reciprocal axes: (cart. coord. in units 2 pi/alat)
               b(1) = (  0.227292  0.000000  0.000000 )
               b(2) = (  0.000000  0.227292  0.000000 )
               b(3) = (  0.000000  0.000000  0.278365 )

     PseudoPot. # 1 for In read from file:
     /home/users/vossj/suncat/psp/gbrv1.5pbe/In.UPF
     MD5 check sum: 90777abd96fbb83f2e67db2a40c566b9
     Pseudo is Ultrasoft + core correction, Zval = 13.0
     Generated by new atomic code, or converted to UPF format
     Using radial grid of  889 points,  6 beta functions with:
                l(1) =   0
                l(2) =   0
                l(3) =   1
                l(4) =   1
                l(5) =   2
                l(6) =   2
     Q(r) pseudized with  6 coefficients,  rinner =    1.400   1.400   1.400
                                                       1.400   1.400

     PseudoPot. # 2 for Ir read from file:
     /home/users/vossj/suncat/psp/gbrv1.5pbe/Ir.UPF
     MD5 check sum: 8836f839c3459d2b385c504ce6d91f2c
     Pseudo is Ultrasoft + core correction, Zval = 15.0
     Generated by new atomic code, or converted to UPF format
     Using radial grid of  983 points,  7 beta functions with:
                l(1) =   0
                l(2) =   0
                l(3) =   1
                l(4) =   1
                l(5) =   1
                l(6) =   2
                l(7) =   2
     Q(r) pseudized with  8 coefficients,  rinner =    1.400   1.400   1.400
                                                       1.400   1.400

     vdW kernel table read from file vdW_kernel_table
     MD5 check sum: 095c7af220d748ca6e76c0b4c6cfb241

     atomic species   valence    mass     pseudopotential
        In1           13.00   114.82000     In( 1.00)
        Ir1           15.00   192.22000     Ir( 1.00)

     16 Sym. Ops., with inversion, found

   Cartesian axes

     site n.     atom                  positions (alat units)
         1           In1 tau(   1) = (   0.0000000   0.0000000   0.0000000  )
         2           In1 tau(   2) = (   2.1998135   2.1998135   0.0000000  )
         3           Ir1 tau(   3) = (   2.1998135   0.0000000   1.7962032  )
         4           Ir1 tau(   4) = (   0.0000000   2.1998135   1.7962032  )

     number of k points=    75  Fermi-Dirac smearing, width (Ry)=  0.0073
                       cart. coord. in units 2pi/alat
        k(    1) = (   0.0000000   0.0000000   0.0000000), wk =   0.0027435
        k(    2) = (   0.0000000   0.0000000   0.0309294), wk =   0.0054870
        k(    3) = (   0.0000000   0.0000000   0.0618589), wk =   0.0054870
        k(    4) = (   0.0000000   0.0000000   0.0927883), wk =   0.0054870
        k(    5) = (   0.0000000   0.0000000   0.1237178), wk =   0.0054870
        k(    6) = (   0.0000000   0.0252547   0.0000000), wk =   0.0109739
        k(    7) = (   0.0000000   0.0252547   0.0309294), wk =   0.0219479
        k(    8) = (   0.0000000   0.0252547   0.0618589), wk =   0.0219479
        k(    9) = (   0.0000000   0.0252547   0.0927883), wk =   0.0219479
        k(   10) = (   0.0000000   0.0252547   0.1237178), wk =   0.0219479
        k(   11) = (   0.0000000   0.0505093   0.0000000), wk =   0.0109739
        k(   12) = (   0.0000000   0.0505093   0.0309294), wk =   0.0219479
        k(   13) = (   0.0000000   0.0505093   0.0618589), wk =   0.0219479
        k(   14) = (   0.0000000   0.0505093   0.0927883), wk =   0.0219479
        k(   15) = (   0.0000000   0.0505093   0.1237178), wk =   0.0219479
        k(   16) = (   0.0000000   0.0757640   0.0000000), wk =   0.0109739
        k(   17) = (   0.0000000   0.0757640   0.0309294), wk =   0.0219479
        k(   18) = (   0.0000000   0.0757640   0.0618589), wk =   0.0219479
        k(   19) = (   0.0000000   0.0757640   0.0927883), wk =   0.0219479
        k(   20) = (   0.0000000   0.0757640   0.1237178), wk =   0.0219479
        k(   21) = (   0.0000000   0.1010187   0.0000000), wk =   0.0109739
        k(   22) = (   0.0000000   0.1010187   0.0309294), wk =   0.0219479
        k(   23) = (   0.0000000   0.1010187   0.0618589), wk =   0.0219479
        k(   24) = (   0.0000000   0.1010187   0.0927883), wk =   0.0219479
        k(   25) = (   0.0000000   0.1010187   0.1237178), wk =   0.0219479
        k(   26) = (   0.0252547   0.0252547   0.0000000), wk =   0.0109739
        k(   27) = (   0.0252547   0.0252547   0.0309294), wk =   0.0219479
        k(   28) = (   0.0252547   0.0252547   0.0618589), wk =   0.0219479
        k(   29) = (   0.0252547   0.0252547   0.0927883), wk =   0.0219479
        k(   30) = (   0.0252547   0.0252547   0.1237178), wk =   0.0219479
        k(   31) = (   0.0252547   0.0505093   0.0000000), wk =   0.0219479
        k(   32) = (   0.0252547   0.0505093   0.0309294), wk =   0.0438957
        k(   33) = (   0.0252547   0.0505093   0.0618589), wk =   0.0438957
        k(   34) = (   0.0252547   0.0505093   0.0927883), wk =   0.0438957
        k(   35) = (   0.0252547   0.0505093   0.1237178), wk =   0.0438957
        k(   36) = (   0.0252547   0.0757640   0.0000000), wk =   0.0219479
        k(   37) = (   0.0252547   0.0757640   0.0309294), wk =   0.0438957
        k(   38) = (   0.0252547   0.0757640   0.0618589), wk =   0.0438957
        k(   39) = (   0.0252547   0.0757640   0.0927883), wk =   0.0438957
        k(   40) = (   0.0252547   0.0757640   0.1237178), wk =   0.0438957
        k(   41) = (   0.0252547   0.1010187   0.0000000), wk =   0.0219479
        k(   42) = (   0.0252547   0.1010187   0.0309294), wk =   0.0438957
        k(   43) = (   0.0252547   0.1010187   0.0618589), wk =   0.0438957
        k(   44) = (   0.0252547   0.1010187   0.0927883), wk =   0.0438957
        k(   45) = (   0.0252547   0.1010187   0.1237178), wk =   0.0438957
        k(   46) = (   0.0505093   0.0505093   0.0000000), wk =   0.0109739
        k(   47) = (   0.0505093   0.0505093   0.0309294), wk =   0.0219479
        k(   48) = (   0.0505093   0.0505093   0.0618589), wk =   0.0219479
        k(   49) = (   0.0505093   0.0505093   0.0927883), wk =   0.0219479
        k(   50) = (   0.0505093   0.0505093   0.1237178), wk =   0.0219479
        k(   51) = (   0.0505093   0.0757640   0.0000000), wk =   0.0219479
        k(   52) = (   0.0505093   0.0757640   0.0309294), wk =   0.0438957
        k(   53) = (   0.0505093   0.0757640   0.0618589), wk =   0.0438957
        k(   54) = (   0.0505093   0.0757640   0.0927883), wk =   0.0438957
        k(   55) = (   0.0505093   0.0757640   0.1237178), wk =   0.0438957
        k(   56) = (   0.0505093   0.1010187   0.0000000), wk =   0.0219479
        k(   57) = (   0.0505093   0.1010187   0.0309294), wk =   0.0438957
        k(   58) = (   0.0505093   0.1010187   0.0618589), wk =   0.0438957
        k(   59) = (   0.0505093   0.1010187   0.0927883), wk =   0.0438957
        k(   60) = (   0.0505093   0.1010187   0.1237178), wk =   0.0438957
        k(   61) = (   0.0757640   0.0757640   0.0000000), wk =   0.0109739
        k(   62) = (   0.0757640   0.0757640   0.0309294), wk =   0.0219479
        k(   63) = (   0.0757640   0.0757640   0.0618589), wk =   0.0219479
        k(   64) = (   0.0757640   0.0757640   0.0927883), wk =   0.0219479
        k(   65) = (   0.0757640   0.0757640   0.1237178), wk =   0.0219479
        k(   66) = (   0.0757640   0.1010187   0.0000000), wk =   0.0219479
        k(   67) = (   0.0757640   0.1010187   0.0309294), wk =   0.0438957
        k(   68) = (   0.0757640   0.1010187   0.0618589), wk =   0.0438957
        k(   69) = (   0.0757640   0.1010187   0.0927883), wk =   0.0438957
        k(   70) = (   0.0757640   0.1010187   0.1237178), wk =   0.0438957
        k(   71) = (   0.1010187   0.1010187   0.0000000), wk =   0.0109739
        k(   72) = (   0.1010187   0.1010187   0.0309294), wk =   0.0219479
        k(   73) = (   0.1010187   0.1010187   0.0618589), wk =   0.0219479
        k(   74) = (   0.1010187   0.1010187   0.0927883), wk =   0.0219479
        k(   75) = (   0.1010187   0.1010187   0.1237178), wk =   0.0219479

     Largest allocated arrays     est. size (Mb)     dimensions
     Largest temporary arrays     est. size (Mb)     dimensions

     Initial potential from superposition of free atoms
     Check: negative starting charge=   -0.727697

     starting charge   51.99994, renormalised to   56.00000

     negative rho (up, down):  7.837E-01 0.000E+00

     *
     * You are using vdW-DF for exchange-correlation in this calculation.
     * Please cite the following three references that made this development
     * possible:
     *
     *   M. Dion, H. Rydberg, E. Schroder, D. C. Langreth, and
     *   B. I. Lundqvist, Phys. Rev. Lett. 92, 246401 (2004).
     *
     *   T. Thonhauser, V. R. Cooper, S. Li, A. Puzder, P. Hyldgaard, and
     *   D. C. Langreth, Phys. Rev. B 76, 125112 (2007).
     *
     *   G. Roman-Perez and J. M. Soler, Phys. Rev. Lett. 103, 096102 (2009).
     *
     *
     * If you are using vdW-DF2, please also cite:
     *
     *   K. Lee, E. D. Murray, L. Kong, B. I. Lundqvist, and
     *   D. C. Langreth, Phys. Rev. B 82, 081101(R) (2010).
     *
     *
     * If you are calculating the stress with vdW-DF, please also cite:
     *
     *   R. Sabatini, E. Kucukbenli, B. Kolb, T. Thonhauser, and
     *   S. de Gironcoli, J. Phys.: Condens. Matter 24, 424209 (2012).
     *

     Carrying out vdW-DF run using the following parameters:

     Nqs =      20    Nr_points =    1024   r_max =   100.000
     q_mesh =
               0.00001000     0.04494208     0.09755937     0.15916263
               0.23128650     0.31572767     0.41458969     0.53033537
               0.66584808     0.82450364     1.01025438     1.22772762
               1.48234092     1.78043706     2.12944203     2.53805004
               3.01644009     3.57652955     4.23227104     5.00000000

     Gradients computed in reciprocal space

     Starting wfc are   42 randomized atomic wfcs +    6 random wfc

     Self-consistent Calculation

     iteration #  1     ecut=    58.80 Ry     beta=0.10
     Davidson diagonalization with overlap
     ethr =  1.00E-02,  avg # of iterations =  4.8

[...]

     total energy              =    -637.35911155 Ry
     Harris-Foulkes estimate   =    -638.40064707 Ry
     estimated scf accuracy    <       6.83934375 Ry

[...]

     total energy              =    -636.31466071 Ry
     Harris-Foulkes estimate   =    -636.31465741 Ry
     estimated scf accuracy    <       0.00000164 Ry

     iteration # 11     ecut=    58.80 Ry     beta=0.10
     Davidson diagonalization with overlap
     ethr =  2.93E-09,  avg # of iterations =  2.0

     negative rho (up, down):  6.687E-01 0.000E+00

     End of self-consistent calculation

          k = 0.0000 0.0000 0.0000 (  3565 PWs)   bands (ev):

   -31.1020 -31.1020 -31.0233 -31.0163 -31.0163 -31.0068   2.3132   2.3895
     2.5110   2.6205   2.6205   2.8083   2.8570   2.8570   2.9214   3.1512
     6.9496  11.9043  14.0138  14.1724  14.9290  15.5710  15.5710  15.7801
    15.7801  16.6146  16.6146  17.0572  18.0665  19.4726  21.1651  21.2196
    23.2397  23.2397  25.1668  25.3199  27.4879  27.4879  29.2597  29.2618
    30.0422  30.3007  30.3023  31.6514  32.7719  33.0680  33.3954  33.8236

[...]

          k = 0.1010 0.1010 0.1237 (  3561 PWs)   bands (ev):

   -31.1095 -31.1069 -31.0312 -31.0307 -31.0105 -31.0080   2.4997   2.5053
     2.5312   2.5512   2.7069   2.7202   2.8136   2.8204   3.0358   3.0498
    11.0894  11.1860  13.7253  13.8872  14.7159  14.8091  15.1076  15.3773
    16.0708  16.3658  16.4363  16.4863  17.2457  17.3098  19.9711  20.1225
    20.7204  20.9750  27.7801  28.1645  29.1835  29.2610  29.2613  29.2861
    29.6328  29.7904  32.7482  32.9433  32.9898  33.0007  34.4845  34.7051

     the Fermi energy is    17.4746 ev

!    total energy              =    -636.31467745 Ry
     Harris-Foulkes estimate   =    -636.31466103 Ry
     estimated scf accuracy    <       0.00000012 Ry

     The total energy is the sum of the following terms:

     one-electron contribution =     -83.53549345 Ry
     hartree contribution      =      93.80879813 Ry
     xc contribution           =    -182.76506290 Ry
     ewald contribution        =    -463.81973691 Ry
     smearing contrib. (-TS)   =      -0.00318231 Ry

     convergence has been achieved in  11 iterations

     Forces acting on atoms (Ry/au):

     negative rho (up, down):  6.687E-01 0.000E+00
     atom    1 type  1   force =     0.00000000    0.00000000    0.00000000
     atom    2 type  1   force =     0.00000000    0.00000000    0.00000000
     atom    3 type  2   force =     0.00000000    0.00000000    0.00000000
     atom    4 type  2   force =     0.00000000    0.00000000    0.00000000

     Total force =     0.000000     Total SCF correction =     0.000000

     General routines

     Parallel routines

   This run was terminated on:  14:28:42  14Nov2017

   JOB DONE.