     Program PWSCF v.5.1rc2 starts on 14Nov2017 at  9:37:38

     Current dimensions of program PWSCF are:
     Max number of different atomic species (ntypx) = 10
     Max number of k-points (npk) =  40000
     Max angular momentum in pseudopotentials (lmaxx) =  3

     IMPORTANT: XC functional enforced from input :
     Exchange-correlation      = BEEF-VDW ( 1  4 27 13 2)
     Any further DFT definition will be discarded
     Please, verify this is what you really want

     Found symmetry operation: I + ( -0.5000 -0.5000  0.0000)
     This is a supercell, fractional translations are disabled

     bravais-lattice index     =            0
     lattice parameter (alat)  =       1.8897  a.u.
     unit-cell volume          =     380.9313 (a.u.)^3
     number of atoms/cell      =            4
     number of atomic types    =            2
     number of electrons       =        70.00
     number of Kohn-Sham states=           55
     kinetic-energy cutoff     =      58.7989  Ry
     charge density cutoff     =     587.9892  Ry
     convergence threshold     =      1.0E-06
     mixing beta               =       0.1000
     number of iterations used =           10  plain     mixing
     Exchange-correlation      = BEEF-VDW ( 1  4 27 13 2)

     celldm(1)=   1.889726  celldm(2)=   0.000000  celldm(3)=   0.000000
     celldm(4)=   0.000000  celldm(5)=   0.000000  celldm(6)=   0.000000

     crystal axes: (cart. coord. in units of alat)
               a(1) = (   4.301740   0.000000   0.000000 )
               a(2) = (   0.000000   4.301740   0.000000 )
               a(3) = (   0.000000   0.000000   3.050435 )

     reciprocal axes: (cart. coord. in units 2 pi/alat)
               b(1) = (  0.232464  0.000000  0.000000 )
               b(2) = (  0.000000  0.232464  0.000000 )
               b(3) = (  0.000000  0.000000  0.327822 )

     PseudoPot. # 1 for Zn read from file:
     /home/users/vossj/suncat/psp/gbrv1.5pbe/Zn.UPF
     MD5 check sum: df62231357ef9e81f77b2b3087fa5675
     Pseudo is Ultrasoft, Zval = 20.0
     Generated by new atomic code, or converted to UPF format
     Using radial grid of  943 points,  6 beta functions with:
                l(1) =   0
                l(2) =   0
                l(3) =   1
                l(4) =   1
                l(5) =   2
                l(6) =   2
     Q(r) pseudized with  8 coefficients,  rinner =    1.100   1.100   1.100
                                                       1.100   1.100

     PseudoPot. # 2 for Ir read from file:
     /home/users/vossj/suncat/psp/gbrv1.5pbe/Ir.UPF
     MD5 check sum: 8836f839c3459d2b385c504ce6d91f2c
     Pseudo is Ultrasoft + core correction, Zval = 15.0
     Generated by new atomic code, or converted to UPF format
     Using radial grid of  983 points,  7 beta functions with:
                l(1) =   0
                l(2) =   0
                l(3) =   1
                l(4) =   1
                l(5) =   1
                l(6) =   2
                l(7) =   2
     Q(r) pseudized with  8 coefficients,  rinner =    1.400   1.400   1.400
                                                       1.400   1.400

     vdW kernel table read from file vdW_kernel_table
     MD5 check sum: 095c7af220d748ca6e76c0b4c6cfb241

     atomic species   valence    mass     pseudopotential
        Zn1           20.00    65.39000     Zn( 1.00)
        Ir1           15.00   192.22000     Ir( 1.00)

     16 Sym. Ops., with inversion, found

   Cartesian axes

     site n.     atom                  positions (alat units)
         1           Zn1 tau(   1) = (   0.0000000   0.0000000   0.0000000  )
         2           Zn1 tau(   2) = (   2.1508700   2.1508700   0.0000000  )
         3           Ir1 tau(   3) = (   2.1508700   0.0000000   1.5252173  )
         4           Ir1 tau(   4) = (   0.0000000   2.1508700   1.5252173  )

     number of k points=    75  Fermi-Dirac smearing, width (Ry)=  0.0073
                       cart. coord. in units 2pi/alat
        k(    1) = (   0.0000000   0.0000000   0.0000000), wk =   0.0027435
        k(    2) = (   0.0000000   0.0000000   0.0364247), wk =   0.0054870
        k(    3) = (   0.0000000   0.0000000   0.0728494), wk =   0.0054870
        k(    4) = (   0.0000000   0.0000000   0.1092740), wk =   0.0054870
        k(    5) = (   0.0000000   0.0000000   0.1456987), wk =   0.0054870
        k(    6) = (   0.0000000   0.0258293   0.0000000), wk =   0.0109739
        k(    7) = (   0.0000000   0.0258293   0.0364247), wk =   0.0219479
        k(    8) = (   0.0000000   0.0258293   0.0728494), wk =   0.0219479
        k(    9) = (   0.0000000   0.0258293   0.1092740), wk =   0.0219479
        k(   10) = (   0.0000000   0.0258293   0.1456987), wk =   0.0219479
        k(   11) = (   0.0000000   0.0516587   0.0000000), wk =   0.0109739
        k(   12) = (   0.0000000   0.0516587   0.0364247), wk =   0.0219479
        k(   13) = (   0.0000000   0.0516587   0.0728494), wk =   0.0219479
        k(   14) = (   0.0000000   0.0516587   0.1092740), wk =   0.0219479
        k(   15) = (   0.0000000   0.0516587   0.1456987), wk =   0.0219479
        k(   16) = (   0.0000000   0.0774880   0.0000000), wk =   0.0109739
        k(   17) = (   0.0000000   0.0774880   0.0364247), wk =   0.0219479
        k(   18) = (   0.0000000   0.0774880   0.0728494), wk =   0.0219479
        k(   19) = (   0.0000000   0.0774880   0.1092740), wk =   0.0219479
        k(   20) = (   0.0000000   0.0774880   0.1456987), wk =   0.0219479
        k(   21) = (   0.0000000   0.1033174   0.0000000), wk =   0.0109739
        k(   22) = (   0.0000000   0.1033174   0.0364247), wk =   0.0219479
        k(   23) = (   0.0000000   0.1033174   0.0728494), wk =   0.0219479
        k(   24) = (   0.0000000   0.1033174   0.1092740), wk =   0.0219479
        k(   25) = (   0.0000000   0.1033174   0.1456987), wk =   0.0219479
        k(   26) = (   0.0258293   0.0258293   0.0000000), wk =   0.0109739
        k(   27) = (   0.0258293   0.0258293   0.0364247), wk =   0.0219479
        k(   28) = (   0.0258293   0.0258293   0.0728494), wk =   0.0219479
        k(   29) = (   0.0258293   0.0258293   0.1092740), wk =   0.0219479
        k(   30) = (   0.0258293   0.0258293   0.1456987), wk =   0.0219479
        k(   31) = (   0.0258293   0.0516587   0.0000000), wk =   0.0219479
        k(   32) = (   0.0258293   0.0516587   0.0364247), wk =   0.0438957
        k(   33) = (   0.0258293   0.0516587   0.0728494), wk =   0.0438957
        k(   34) = (   0.0258293   0.0516587   0.1092740), wk =   0.0438957
        k(   35) = (   0.0258293   0.0516587   0.1456987), wk =   0.0438957
        k(   36) = (   0.0258293   0.0774880   0.0000000), wk =   0.0219479
        k(   37) = (   0.0258293   0.0774880   0.0364247), wk =   0.0438957
        k(   38) = (   0.0258293   0.0774880   0.0728494), wk =   0.0438957
        k(   39) = (   0.0258293   0.0774880   0.1092740), wk =   0.0438957
        k(   40) = (   0.0258293   0.0774880   0.1456987), wk =   0.0438957
        k(   41) = (   0.0258293   0.1033174   0.0000000), wk =   0.0219479
        k(   42) = (   0.0258293   0.1033174   0.0364247), wk =   0.0438957
        k(   43) = (   0.0258293   0.1033174   0.0728494), wk =   0.0438957
        k(   44) = (   0.0258293   0.1033174   0.1092740), wk =   0.0438957
        k(   45) = (   0.0258293   0.1033174   0.1456987), wk =   0.0438957
        k(   46) = (   0.0516587   0.0516587   0.0000000), wk =   0.0109739
        k(   47) = (   0.0516587   0.0516587   0.0364247), wk =   0.0219479
        k(   48) = (   0.0516587   0.0516587   0.0728494), wk =   0.0219479
        k(   49) = (   0.0516587   0.0516587   0.1092740), wk =   0.0219479
        k(   50) = (   0.0516587   0.0516587   0.1456987), wk =   0.0219479
        k(   51) = (   0.0516587   0.0774880   0.0000000), wk =   0.0219479
        k(   52) = (   0.0516587   0.0774880   0.0364247), wk =   0.0438957
        k(   53) = (   0.0516587   0.0774880   0.0728494), wk =   0.0438957
        k(   54) = (   0.0516587   0.0774880   0.1092740), wk =   0.0438957
        k(   55) = (   0.0516587   0.0774880   0.1456987), wk =   0.0438957
        k(   56) = (   0.0516587   0.1033174   0.0000000), wk =   0.0219479
        k(   57) = (   0.0516587   0.1033174   0.0364247), wk =   0.0438957
        k(   58) = (   0.0516587   0.1033174   0.0728494), wk =   0.0438957
        k(   59) = (   0.0516587   0.1033174   0.1092740), wk =   0.0438957
        k(   60) = (   0.0516587   0.1033174   0.1456987), wk =   0.0438957
        k(   61) = (   0.0774880   0.0774880   0.0000000), wk =   0.0109739
        k(   62) = (   0.0774880   0.0774880   0.0364247), wk =   0.0219479
        k(   63) = (   0.0774880   0.0774880   0.0728494), wk =   0.0219479
        k(   64) = (   0.0774880   0.0774880   0.1092740), wk =   0.0219479
        k(   65) = (   0.0774880   0.0774880   0.1456987), wk =   0.0219479
        k(   66) = (   0.0774880   0.1033174   0.0000000), wk =   0.0219479
        k(   67) = (   0.0774880   0.1033174   0.0364247), wk =   0.0438957
        k(   68) = (   0.0774880   0.1033174   0.0728494), wk =   0.0438957
        k(   69) = (   0.0774880   0.1033174   0.1092740), wk =   0.0438957
        k(   70) = (   0.0774880   0.1033174   0.1456987), wk =   0.0438957
        k(   71) = (   0.1033174   0.1033174   0.0000000), wk =   0.0109739
        k(   72) = (   0.1033174   0.1033174   0.0364247), wk =   0.0219479
        k(   73) = (   0.1033174   0.1033174   0.0728494), wk =   0.0219479
        k(   74) = (   0.1033174   0.1033174   0.1092740), wk =   0.0219479
        k(   75) = (   0.1033174   0.1033174   0.1456987), wk =   0.0219479

     Largest allocated arrays     est. size (Mb)     dimensions
     Largest temporary arrays     est. size (Mb)     dimensions

     Initial potential from superposition of free atoms
     Check: negative starting charge=   -0.727159

     starting charge   68.99965, renormalised to   70.00000

     negative rho (up, down):  7.377E-01 0.000E+00

     *
     * You are using vdW-DF for exchange-correlation in this calculation.
     * Please cite the following three references that made this development
     * possible:
     *
     *   M. Dion, H. Rydberg, E. Schroder, D. C. Langreth, and
     *   B. I. Lundqvist, Phys. Rev. Lett. 92, 246401 (2004).
     *
     *   T. Thonhauser, V. R. Cooper, S. Li, A. Puzder, P. Hyldgaard, and
     *   D. C. Langreth, Phys. Rev. B 76, 125112 (2007).
     *
     *   G. Roman-Perez and J. M. Soler, Phys. Rev. Lett. 103, 096102 (2009).
     *
     *
     * If you are using vdW-DF2, please also cite:
     *
     *   K. Lee, E. D. Murray, L. Kong, B. I. Lundqvist, and
     *   D. C. Langreth, Phys. Rev. B 82, 081101(R) (2010).
     *
     *
     * If you are calculating the stress with vdW-DF, please also cite:
     *
     *   R. Sabatini, E. Kucukbenli, B. Kolb, T. Thonhauser, and
     *   S. de Gironcoli, J. Phys.: Condens. Matter 24, 424209 (2012).
     *

     Carrying out vdW-DF run using the following parameters:

     Nqs =      20    Nr_points =    1024   r_max =   100.000
     q_mesh =
               0.00001000     0.04494208     0.09755937     0.15916263
               0.23128650     0.31572767     0.41458969     0.53033537
               0.66584808     0.82450364     1.01025438     1.22772762
               1.48234092     1.78043706     2.12944203     2.53805004
               3.01644009     3.57652955     4.23227104     5.00000000

     Gradients computed in reciprocal space

     Starting wfc are   50 randomized atomic wfcs +    5 random wfc

     Self-consistent Calculation

     iteration #  1     ecut=    58.80 Ry     beta=0.10
     Davidson diagonalization with overlap
     ethr =  1.00E-02,  avg # of iterations =  5.5

[...]

     total energy              =   -1292.49820140 Ry
     Harris-Foulkes estimate   =   -1292.86852990 Ry
     estimated scf accuracy    <       2.27244927 Ry

[...]

     total energy              =   -1292.33192830 Ry
     Harris-Foulkes estimate   =   -1292.33192605 Ry
     estimated scf accuracy    <       0.00000137 Ry

     iteration # 11     ecut=    58.80 Ry     beta=0.10
     Davidson diagonalization with overlap
     ethr =  1.96E-09,  avg # of iterations =  2.0

     negative rho (up, down):  6.636E-01 0.000E+00

     End of self-consistent calculation

          k = 0.0000 0.0000 0.0000 (  2871 PWs)   bands (ev):

  -107.1408-107.1405 -61.3270 -61.3270 -61.3264 -61.3259 -61.3240 -61.3240
   -29.9985 -29.9985 -29.8877 -29.8877 -29.8768 -29.8569   8.7239  11.0202
    11.1174  11.1623  11.1633  11.5848  11.5848  11.9268  11.9268  11.9334
    12.2687  13.6377  15.4702  15.4937  15.9724  17.7154  17.7154  17.9311
    17.9311  18.4917  18.4917  18.4939  19.4699  23.2748  24.8431  25.3779
    25.4688  25.4688  30.3990  30.4140  30.6765  31.2905  32.9629  32.9629
    33.6924  33.7149  37.9726  38.1268  38.1862  38.1862  38.6020

[...]

          k = 0.1033 0.1033 0.1457 (  2908 PWs)   bands (ev):

  -107.1405-107.1405 -61.3291 -61.3291 -61.3270 -61.3269 -61.3236 -61.3236
   -29.9990 -29.9957 -29.9806 -29.9799 -29.8722 -29.8689  11.0405  11.0508
    11.1535  11.1673  11.6019  11.6032  11.6044  11.6239  12.2312  12.2477
    13.6160  13.6341  15.7361  15.8841  17.0683  17.0774  17.6076  17.6431
    17.6710  17.7462  18.3282  18.5396  19.6725  19.8045  23.4685  23.5663
    24.8744  25.1325  30.4139  30.4140  30.5751  30.8687  32.8689  32.9803
    33.0426  33.1993  37.8096  37.8331  38.2194  38.4472  41.2831

     the Fermi energy is    18.4453 ev

!    total energy              =   -1292.33194048 Ry
     Harris-Foulkes estimate   =   -1292.33192856 Ry
     estimated scf accuracy    <       0.00000011 Ry

     The total energy is the sum of the following terms:

     one-electron contribution =    -731.07637418 Ry
     hartree contribution      =     413.61904575 Ry
     xc contribution           =    -191.19249595 Ry
     ewald contribution        =    -783.67495591 Ry
     smearing contrib. (-TS)   =      -0.00716019 Ry

     convergence has been achieved in  11 iterations

     Forces acting on atoms (Ry/au):

     negative rho (up, down):  6.636E-01 0.000E+00
     atom    1 type  1   force =     0.00000000    0.00000000    0.00000000
     atom    2 type  1   force =     0.00000000    0.00000000    0.00000000
     atom    3 type  2   force =     0.00000000    0.00000000    0.00000000
     atom    4 type  2   force =     0.00000000    0.00000000    0.00000000

     Total force =     0.000000     Total SCF correction =     0.000000

     General routines

     Parallel routines

   This run was terminated on:   9:38:18  14Nov2017

   JOB DONE.