     Program PWSCF v.5.1rc2 starts on 15Nov2017 at  3:10:39

     Current dimensions of program PWSCF are:
     Max number of different atomic species (ntypx) = 10
     Max number of k-points (npk) =  40000
     Max angular momentum in pseudopotentials (lmaxx) =  3

     IMPORTANT: XC functional enforced from input :
     Exchange-correlation      = BEEF-VDW ( 1  4 27 13 2)
     Any further DFT definition will be discarded
     Please, verify this is what you really want

     Found symmetry operation: I + (  0.5000  0.5000  0.0000)
     This is a supercell, fractional translations are disabled

     bravais-lattice index     =            0
     lattice parameter (alat)  =       1.8897  a.u.
     unit-cell volume          =     496.8263 (a.u.)^3
     number of atoms/cell      =            4
     number of atomic types    =            2
     number of electrons       =        54.00
     number of Kohn-Sham states=           47
     kinetic-energy cutoff     =      58.7989  Ry
     charge density cutoff     =     587.9892  Ry
     convergence threshold     =      1.0E-06
     mixing beta               =       0.1000
     number of iterations used =           10  plain     mixing
     Exchange-correlation      = BEEF-VDW ( 1  4 27 13 2)

     celldm(1)=   1.889726  celldm(2)=   0.000000  celldm(3)=   0.000000
     celldm(4)=   0.000000  celldm(5)=   0.000000  celldm(6)=   0.000000

     crystal axes: (cart. coord. in units of alat)
               a(1) = (   4.693000   0.000000   0.000000 )
               a(2) = (   0.000000   4.693000   0.000000 )
               a(3) = (   0.000000   0.000000   3.342773 )

     reciprocal axes: (cart. coord. in units 2 pi/alat)
               b(1) = (  0.213083  0.000000  0.000000 )
               b(2) = (  0.000000  0.213083  0.000000 )
               b(3) = (  0.000000  0.000000  0.299153 )

     PseudoPot. # 1 for Sc read from file:
     /home/users/vossj/suncat/psp/gbrv1.5pbe/Sc.UPF
     MD5 check sum: db30a2753ba66ef00f23801d899b7e7f
     Pseudo is Ultrasoft + core correction, Zval = 11.0
     Generated by new atomic code, or converted to UPF format
     Using radial grid of  849 points,  6 beta functions with:
                l(1) =   0
                l(2) =   0
                l(3) =   1
                l(4) =   1
                l(5) =   2
                l(6) =   2
     Q(r) pseudized with  6 coefficients,  rinner =    1.200   1.200   1.200
                                                       1.200   1.200

     PseudoPot. # 2 for Pd read from file:
     /home/users/vossj/suncat/psp/gbrv1.5pbe/Pd.UPF
     MD5 check sum: 2d733d2bc2cbfd217af676df1668a4bc
     Pseudo is Ultrasoft + core correction, Zval = 16.0
     Generated by new atomic code, or converted to UPF format
     Using radial grid of  887 points,  6 beta functions with:
                l(1) =   0
                l(2) =   0
                l(3) =   1
                l(4) =   1
                l(5) =   2
                l(6) =   2
     Q(r) pseudized with  8 coefficients,  rinner =    1.130   1.130   1.130
                                                       1.130   1.130

     vdW kernel table read from file vdW_kernel_table
     MD5 check sum: 095c7af220d748ca6e76c0b4c6cfb241

     atomic species   valence    mass     pseudopotential
        Sc1           11.00    44.95590     Sc( 1.00)
        Pd1           16.00   106.42000     Pd( 1.00)

     16 Sym. Ops., with inversion, found

   Cartesian axes

     site n.     atom                  positions (alat units)
         1           Sc1 tau(   1) = (   0.0000000   0.0000000   0.0000000  )
         2           Sc1 tau(   2) = (   2.3465000   2.3465000   0.0000000  )
         3           Pd1 tau(   3) = (   2.3465000   0.0000000   1.6713865  )
         4           Pd1 tau(   4) = (   0.0000000   2.3465000   1.6713865  )

     number of k points=    75  Fermi-Dirac smearing, width (Ry)=  0.0073
                       cart. coord. in units 2pi/alat
        k(    1) = (   0.0000000   0.0000000   0.0000000), wk =   0.0027435
        k(    2) = (   0.0000000   0.0000000   0.0332392), wk =   0.0054870
        k(    3) = (   0.0000000   0.0000000   0.0664784), wk =   0.0054870
        k(    4) = (   0.0000000   0.0000000   0.0997176), wk =   0.0054870
        k(    5) = (   0.0000000   0.0000000   0.1329568), wk =   0.0054870
        k(    6) = (   0.0000000   0.0236759   0.0000000), wk =   0.0109739
        k(    7) = (   0.0000000   0.0236759   0.0332392), wk =   0.0219479
        k(    8) = (   0.0000000   0.0236759   0.0664784), wk =   0.0219479
        k(    9) = (   0.0000000   0.0236759   0.0997176), wk =   0.0219479
        k(   10) = (   0.0000000   0.0236759   0.1329568), wk =   0.0219479
        k(   11) = (   0.0000000   0.0473518   0.0000000), wk =   0.0109739
        k(   12) = (   0.0000000   0.0473518   0.0332392), wk =   0.0219479
        k(   13) = (   0.0000000   0.0473518   0.0664784), wk =   0.0219479
        k(   14) = (   0.0000000   0.0473518   0.0997176), wk =   0.0219479
        k(   15) = (   0.0000000   0.0473518   0.1329568), wk =   0.0219479
        k(   16) = (   0.0000000   0.0710278   0.0000000), wk =   0.0109739
        k(   17) = (   0.0000000   0.0710278   0.0332392), wk =   0.0219479
        k(   18) = (   0.0000000   0.0710278   0.0664784), wk =   0.0219479
        k(   19) = (   0.0000000   0.0710278   0.0997176), wk =   0.0219479
        k(   20) = (   0.0000000   0.0710278   0.1329568), wk =   0.0219479
        k(   21) = (   0.0000000   0.0947037   0.0000000), wk =   0.0109739
        k(   22) = (   0.0000000   0.0947037   0.0332392), wk =   0.0219479
        k(   23) = (   0.0000000   0.0947037   0.0664784), wk =   0.0219479
        k(   24) = (   0.0000000   0.0947037   0.0997176), wk =   0.0219479
        k(   25) = (   0.0000000   0.0947037   0.1329568), wk =   0.0219479
        k(   26) = (   0.0236759   0.0236759   0.0000000), wk =   0.0109739
        k(   27) = (   0.0236759   0.0236759   0.0332392), wk =   0.0219479
        k(   28) = (   0.0236759   0.0236759   0.0664784), wk =   0.0219479
        k(   29) = (   0.0236759   0.0236759   0.0997176), wk =   0.0219479
        k(   30) = (   0.0236759   0.0236759   0.1329568), wk =   0.0219479
        k(   31) = (   0.0236759   0.0473518   0.0000000), wk =   0.0219479
        k(   32) = (   0.0236759   0.0473518   0.0332392), wk =   0.0438957
        k(   33) = (   0.0236759   0.0473518   0.0664784), wk =   0.0438957
        k(   34) = (   0.0236759   0.0473518   0.0997176), wk =   0.0438957
        k(   35) = (   0.0236759   0.0473518   0.1329568), wk =   0.0438957
        k(   36) = (   0.0236759   0.0710278   0.0000000), wk =   0.0219479
        k(   37) = (   0.0236759   0.0710278   0.0332392), wk =   0.0438957
        k(   38) = (   0.0236759   0.0710278   0.0664784), wk =   0.0438957
        k(   39) = (   0.0236759   0.0710278   0.0997176), wk =   0.0438957
        k(   40) = (   0.0236759   0.0710278   0.1329568), wk =   0.0438957
        k(   41) = (   0.0236759   0.0947037   0.0000000), wk =   0.0219479
        k(   42) = (   0.0236759   0.0947037   0.0332392), wk =   0.0438957
        k(   43) = (   0.0236759   0.0947037   0.0664784), wk =   0.0438957
        k(   44) = (   0.0236759   0.0947037   0.0997176), wk =   0.0438957
        k(   45) = (   0.0236759   0.0947037   0.1329568), wk =   0.0438957
        k(   46) = (   0.0473518   0.0473518   0.0000000), wk =   0.0109739
        k(   47) = (   0.0473518   0.0473518   0.0332392), wk =   0.0219479
        k(   48) = (   0.0473518   0.0473518   0.0664784), wk =   0.0219479
        k(   49) = (   0.0473518   0.0473518   0.0997176), wk =   0.0219479
        k(   50) = (   0.0473518   0.0473518   0.1329568), wk =   0.0219479
        k(   51) = (   0.0473518   0.0710278   0.0000000), wk =   0.0219479
        k(   52) = (   0.0473518   0.0710278   0.0332392), wk =   0.0438957
        k(   53) = (   0.0473518   0.0710278   0.0664784), wk =   0.0438957
        k(   54) = (   0.0473518   0.0710278   0.0997176), wk =   0.0438957
        k(   55) = (   0.0473518   0.0710278   0.1329568), wk =   0.0438957
        k(   56) = (   0.0473518   0.0947037   0.0000000), wk =   0.0219479
        k(   57) = (   0.0473518   0.0947037   0.0332392), wk =   0.0438957
        k(   58) = (   0.0473518   0.0947037   0.0664784), wk =   0.0438957
        k(   59) = (   0.0473518   0.0947037   0.0997176), wk =   0.0438957
        k(   60) = (   0.0473518   0.0947037   0.1329568), wk =   0.0438957
        k(   61) = (   0.0710278   0.0710278   0.0000000), wk =   0.0109739
        k(   62) = (   0.0710278   0.0710278   0.0332392), wk =   0.0219479
        k(   63) = (   0.0710278   0.0710278   0.0664784), wk =   0.0219479
        k(   64) = (   0.0710278   0.0710278   0.0997176), wk =   0.0219479
        k(   65) = (   0.0710278   0.0710278   0.1329568), wk =   0.0219479
        k(   66) = (   0.0710278   0.0947037   0.0000000), wk =   0.0219479
        k(   67) = (   0.0710278   0.0947037   0.0332392), wk =   0.0438957
        k(   68) = (   0.0710278   0.0947037   0.0664784), wk =   0.0438957
        k(   69) = (   0.0710278   0.0947037   0.0997176), wk =   0.0438957
        k(   70) = (   0.0710278   0.0947037   0.1329568), wk =   0.0438957
        k(   71) = (   0.0947037   0.0947037   0.0000000), wk =   0.0109739
        k(   72) = (   0.0947037   0.0947037   0.0332392), wk =   0.0219479
        k(   73) = (   0.0947037   0.0947037   0.0664784), wk =   0.0219479
        k(   74) = (   0.0947037   0.0947037   0.0997176), wk =   0.0219479
        k(   75) = (   0.0947037   0.0947037   0.1329568), wk =   0.0219479

     Largest allocated arrays     est. size (Mb)     dimensions
     Largest temporary arrays     est. size (Mb)     dimensions

     Initial potential from superposition of free atoms
     Check: negative starting charge=   -0.154433

     starting charge   52.99518, renormalised to   54.00000

     negative rho (up, down):  1.574E-01 0.000E+00

     *
     * You are using vdW-DF for exchange-correlation in this calculation.
     * Please cite the following three references that made this development
     * possible:
     *
     *   M. Dion, H. Rydberg, E. Schroder, D. C. Langreth, and
     *   B. I. Lundqvist, Phys. Rev. Lett. 92, 246401 (2004).
     *
     *   T. Thonhauser, V. R. Cooper, S. Li, A. Puzder, P. Hyldgaard, and
     *   D. C. Langreth, Phys. Rev. B 76, 125112 (2007).
     *
     *   G. Roman-Perez and J. M. Soler, Phys. Rev. Lett. 103, 096102 (2009).
     *
     *
     * If you are using vdW-DF2, please also cite:
     *
     *   K. Lee, E. D. Murray, L. Kong, B. I. Lundqvist, and
     *   D. C. Langreth, Phys. Rev. B 82, 081101(R) (2010).
     *
     *
     * If you are calculating the stress with vdW-DF, please also cite:
     *
     *   R. Sabatini, E. Kucukbenli, B. Kolb, T. Thonhauser, and
     *   S. de Gironcoli, J. Phys.: Condens. Matter 24, 424209 (2012).
     *

     Carrying out vdW-DF run using the following parameters:

     Nqs =      20    Nr_points =    1024   r_max =   100.000
     q_mesh =
               0.00001000     0.04494208     0.09755937     0.15916263
               0.23128650     0.31572767     0.41458969     0.53033537
               0.66584808     0.82450364     1.01025438     1.22772762
               1.48234092     1.78043706     2.12944203     2.53805004
               3.01644009     3.57652955     4.23227104     5.00000000

     Gradients computed in reciprocal space

     Starting wfc are   50 randomized atomic wfcs

     Self-consistent Calculation

     iteration #  1     ecut=    58.80 Ry     beta=0.10
     Davidson diagonalization with overlap
     ethr =  1.00E-02,  avg # of iterations =  4.2

[...]

     total energy              =    -589.15568415 Ry
     Harris-Foulkes estimate   =    -590.30966086 Ry
     estimated scf accuracy    <       6.74384066 Ry

[...]

     total energy              =    -589.54052592 Ry
     Harris-Foulkes estimate   =    -589.54053626 Ry
     estimated scf accuracy    <       0.00003521 Ry

     iteration # 10     ecut=    58.80 Ry     beta=0.10
     Davidson diagonalization with overlap
     ethr =  5.25E-08,  avg # of iterations =  2.1

     negative rho (up, down):  1.632E-01 0.000E+00

     End of self-consistent calculation

          k = 0.0000 0.0000 0.0000 (  3803 PWs)   bands (ev):

   -36.6715 -36.6715 -36.6488 -36.6488 -36.6483 -36.6442 -36.1857 -36.1542
   -14.8191 -14.8191 -14.6703 -14.6649 -14.6649 -14.6411   7.6141   9.4859
     9.6273   9.6296   9.7112  10.5598  10.5598  11.2881  11.2881  11.3134
    12.1169  13.5524  14.8165  14.8165  15.1060  15.1488  15.6150  16.8724
    16.8724  17.0283  17.0283  17.0327  17.3801  21.2682  21.4914  21.6910
    21.6910  21.8713  26.8570  26.8570  27.8957  28.2619  28.3887

[...]

          k = 0.0947 0.0947 0.1330 (  3819 PWs)   bands (ev):

   -36.6724 -36.6719 -36.6688 -36.6681 -36.6457 -36.6450 -36.1549 -36.1548
   -14.8211 -14.8166 -14.8091 -14.8079 -14.6429 -14.6382   9.5386   9.5400
     9.7242   9.7613  10.5930  10.6108  10.6172  10.6459  11.9601  12.0230
    13.2824  13.4202  14.5061  14.6313  14.7854  14.8385  15.5620  15.5879
    16.7826  16.8817  16.9795  16.9818  17.4427  17.4632  21.2920  21.3358
    21.9183  22.0994  26.8435  26.9274  27.0298  27.0751  27.8228

     the Fermi energy is    14.0976 ev

!    total energy              =    -589.54055465 Ry
     Harris-Foulkes estimate   =    -589.54053225 Ry
     estimated scf accuracy    <       0.00000019 Ry

     The total energy is the sum of the following terms:

     one-electron contribution =    -192.70654457 Ry
     hartree contribution      =     126.22003062 Ry
     xc contribution           =     -92.92104390 Ry
     ewald contribution        =    -430.12622217 Ry
     smearing contrib. (-TS)   =      -0.00677463 Ry

     convergence has been achieved in  10 iterations

     Forces acting on atoms (Ry/au):

     negative rho (up, down):  1.632E-01 0.000E+00
     atom    1 type  1   force =     0.00000000    0.00000000    0.00000000
     atom    2 type  1   force =     0.00000000    0.00000000    0.00000000
     atom    3 type  2   force =     0.00000000    0.00000000    0.00000000
     atom    4 type  2   force =     0.00000000    0.00000000    0.00000000

     Total force =     0.000000     Total SCF correction =     0.000000

     General routines

     Parallel routines

   This run was terminated on:   3:11:14  15Nov2017

   JOB DONE.