     Program PWSCF v.5.1rc2 starts on 14Nov2017 at  8:23:34

     Current dimensions of program PWSCF are:
     Max number of different atomic species (ntypx) = 10
     Max number of k-points (npk) =  40000
     Max angular momentum in pseudopotentials (lmaxx) =  3

     IMPORTANT: XC functional enforced from input :
     Exchange-correlation      = BEEF-VDW ( 1  4 27 13 2)
     Any further DFT definition will be discarded
     Please, verify this is what you really want

     Found symmetry operation: I + ( -0.5000 -0.5000  0.0000)
     This is a supercell, fractional translations are disabled

     bravais-lattice index     =            0
     lattice parameter (alat)  =       1.8897  a.u.
     unit-cell volume          =     403.1759 (a.u.)^3
     number of atoms/cell      =            4
     number of atomic types    =            2
     number of electrons       =        54.00
     number of Kohn-Sham states=           47
     kinetic-energy cutoff     =      58.7989  Ry
     charge density cutoff     =     587.9892  Ry
     convergence threshold     =      1.0E-06
     mixing beta               =       0.1000
     number of iterations used =           10  plain     mixing
     Exchange-correlation      = BEEF-VDW ( 1  4 27 13 2)

     celldm(1)=   1.889726  celldm(2)=   0.000000  celldm(3)=   0.000000
     celldm(4)=   0.000000  celldm(5)=   0.000000  celldm(6)=   0.000000

     crystal axes: (cart. coord. in units of alat)
               a(1) = (   4.387970   0.000000   0.000000 )
               a(2) = (   0.000000   4.387970   0.000000 )
               a(3) = (   0.000000   0.000000   3.102921 )

     reciprocal axes: (cart. coord. in units 2 pi/alat)
               b(1) = (  0.227896  0.000000  0.000000 )
               b(2) = (  0.000000  0.227896  0.000000 )
               b(3) = (  0.000000  0.000000  0.322277 )

     PseudoPot. # 1 for Cr read from file:
     /home/users/vossj/suncat/psp/gbrv1.5pbe/Cr.UPF
     MD5 check sum: 0d52af634a40206e4dee301ad30da4bf
     Pseudo is Ultrasoft + core correction, Zval = 14.0
     Generated by new atomic code, or converted to UPF format
     Using radial grid of  857 points,  6 beta functions with:
                l(1) =   0
                l(2) =   0
                l(3) =   1
                l(4) =   1
                l(5) =   2
                l(6) =   2
     Q(r) pseudized with  8 coefficients,  rinner =    0.950   0.950   0.950
                                                       0.950   0.950

     PseudoPot. # 2 for Ta read from file:
     /home/users/vossj/suncat/psp/gbrv1.5pbe/Ta.UPF
     MD5 check sum: f8bbe9446314a3b8ea5d9f3e3836c939
     Pseudo is Ultrasoft + core correction, Zval = 13.0
     Generated by new atomic code, or converted to UPF format
     Using radial grid of  921 points,  7 beta functions with:
                l(1) =   0
                l(2) =   0
                l(3) =   1
                l(4) =   1
                l(5) =   2
                l(6) =   2
                l(7) =   3
     Q(r) pseudized with  6 coefficients,  rinner =    1.300   1.300   1.300
                                                       1.300   1.300   1.300
                                                       1.300

     vdW kernel table read from file vdW_kernel_table
     MD5 check sum: 095c7af220d748ca6e76c0b4c6cfb241

     atomic species   valence    mass     pseudopotential
        Cr1           14.00    51.99600     Cr( 1.00)
        Ta1           13.00   180.94790     Ta( 1.00)

     16 Sym. Ops., with inversion, found

   Cartesian axes

     site n.     atom                  positions (alat units)
         1           Cr1 tau(   1) = (   0.0000000   0.0000000   0.0000000  )
         2           Cr1 tau(   2) = (   2.1939848   2.1939848   0.0000000  )
         3           Ta1 tau(   3) = (   2.1939848   0.0000000   1.5514606  )
         4           Ta1 tau(   4) = (   0.0000000   2.1939848   1.5514606  )

     number of k points=    75  Fermi-Dirac smearing, width (Ry)=  0.0073
                       cart. coord. in units 2pi/alat
        k(    1) = (   0.0000000   0.0000000   0.0000000), wk =   0.0027435
        k(    2) = (   0.0000000   0.0000000   0.0358086), wk =   0.0054870
        k(    3) = (   0.0000000   0.0000000   0.0716171), wk =   0.0054870
        k(    4) = (   0.0000000   0.0000000   0.1074257), wk =   0.0054870
        k(    5) = (   0.0000000   0.0000000   0.1432342), wk =   0.0054870
        k(    6) = (   0.0000000   0.0253218   0.0000000), wk =   0.0109739
        k(    7) = (   0.0000000   0.0253218   0.0358086), wk =   0.0219479
        k(    8) = (   0.0000000   0.0253218   0.0716171), wk =   0.0219479
        k(    9) = (   0.0000000   0.0253218   0.1074257), wk =   0.0219479
        k(   10) = (   0.0000000   0.0253218   0.1432342), wk =   0.0219479
        k(   11) = (   0.0000000   0.0506435   0.0000000), wk =   0.0109739
        k(   12) = (   0.0000000   0.0506435   0.0358086), wk =   0.0219479
        k(   13) = (   0.0000000   0.0506435   0.0716171), wk =   0.0219479
        k(   14) = (   0.0000000   0.0506435   0.1074257), wk =   0.0219479
        k(   15) = (   0.0000000   0.0506435   0.1432342), wk =   0.0219479
        k(   16) = (   0.0000000   0.0759653   0.0000000), wk =   0.0109739
        k(   17) = (   0.0000000   0.0759653   0.0358086), wk =   0.0219479
        k(   18) = (   0.0000000   0.0759653   0.0716171), wk =   0.0219479
        k(   19) = (   0.0000000   0.0759653   0.1074257), wk =   0.0219479
        k(   20) = (   0.0000000   0.0759653   0.1432342), wk =   0.0219479
        k(   21) = (   0.0000000   0.1012870   0.0000000), wk =   0.0109739
        k(   22) = (   0.0000000   0.1012870   0.0358086), wk =   0.0219479
        k(   23) = (   0.0000000   0.1012870   0.0716171), wk =   0.0219479
        k(   24) = (   0.0000000   0.1012870   0.1074257), wk =   0.0219479
        k(   25) = (   0.0000000   0.1012870   0.1432342), wk =   0.0219479
        k(   26) = (   0.0253218   0.0253218   0.0000000), wk =   0.0109739
        k(   27) = (   0.0253218   0.0253218   0.0358086), wk =   0.0219479
        k(   28) = (   0.0253218   0.0253218   0.0716171), wk =   0.0219479
        k(   29) = (   0.0253218   0.0253218   0.1074257), wk =   0.0219479
        k(   30) = (   0.0253218   0.0253218   0.1432342), wk =   0.0219479
        k(   31) = (   0.0253218   0.0506435   0.0000000), wk =   0.0219479
        k(   32) = (   0.0253218   0.0506435   0.0358086), wk =   0.0438957
        k(   33) = (   0.0253218   0.0506435   0.0716171), wk =   0.0438957
        k(   34) = (   0.0253218   0.0506435   0.1074257), wk =   0.0438957
        k(   35) = (   0.0253218   0.0506435   0.1432342), wk =   0.0438957
        k(   36) = (   0.0253218   0.0759653   0.0000000), wk =   0.0219479
        k(   37) = (   0.0253218   0.0759653   0.0358086), wk =   0.0438957
        k(   38) = (   0.0253218   0.0759653   0.0716171), wk =   0.0438957
        k(   39) = (   0.0253218   0.0759653   0.1074257), wk =   0.0438957
        k(   40) = (   0.0253218   0.0759653   0.1432342), wk =   0.0438957
        k(   41) = (   0.0253218   0.1012870   0.0000000), wk =   0.0219479
        k(   42) = (   0.0253218   0.1012870   0.0358086), wk =   0.0438957
        k(   43) = (   0.0253218   0.1012870   0.0716171), wk =   0.0438957
        k(   44) = (   0.0253218   0.1012870   0.1074257), wk =   0.0438957
        k(   45) = (   0.0253218   0.1012870   0.1432342), wk =   0.0438957
        k(   46) = (   0.0506435   0.0506435   0.0000000), wk =   0.0109739
        k(   47) = (   0.0506435   0.0506435   0.0358086), wk =   0.0219479
        k(   48) = (   0.0506435   0.0506435   0.0716171), wk =   0.0219479
        k(   49) = (   0.0506435   0.0506435   0.1074257), wk =   0.0219479
        k(   50) = (   0.0506435   0.0506435   0.1432342), wk =   0.0219479
        k(   51) = (   0.0506435   0.0759653   0.0000000), wk =   0.0219479
        k(   52) = (   0.0506435   0.0759653   0.0358086), wk =   0.0438957
        k(   53) = (   0.0506435   0.0759653   0.0716171), wk =   0.0438957
        k(   54) = (   0.0506435   0.0759653   0.1074257), wk =   0.0438957
        k(   55) = (   0.0506435   0.0759653   0.1432342), wk =   0.0438957
        k(   56) = (   0.0506435   0.1012870   0.0000000), wk =   0.0219479
        k(   57) = (   0.0506435   0.1012870   0.0358086), wk =   0.0438957
        k(   58) = (   0.0506435   0.1012870   0.0716171), wk =   0.0438957
        k(   59) = (   0.0506435   0.1012870   0.1074257), wk =   0.0438957
        k(   60) = (   0.0506435   0.1012870   0.1432342), wk =   0.0438957
        k(   61) = (   0.0759653   0.0759653   0.0000000), wk =   0.0109739
        k(   62) = (   0.0759653   0.0759653   0.0358086), wk =   0.0219479
        k(   63) = (   0.0759653   0.0759653   0.0716171), wk =   0.0219479
        k(   64) = (   0.0759653   0.0759653   0.1074257), wk =   0.0219479
        k(   65) = (   0.0759653   0.0759653   0.1432342), wk =   0.0219479
        k(   66) = (   0.0759653   0.1012870   0.0000000), wk =   0.0219479
        k(   67) = (   0.0759653   0.1012870   0.0358086), wk =   0.0438957
        k(   68) = (   0.0759653   0.1012870   0.0716171), wk =   0.0438957
        k(   69) = (   0.0759653   0.1012870   0.1074257), wk =   0.0438957
        k(   70) = (   0.0759653   0.1012870   0.1432342), wk =   0.0438957
        k(   71) = (   0.1012870   0.1012870   0.0000000), wk =   0.0109739
        k(   72) = (   0.1012870   0.1012870   0.0358086), wk =   0.0219479
        k(   73) = (   0.1012870   0.1012870   0.0716171), wk =   0.0219479
        k(   74) = (   0.1012870   0.1012870   0.1074257), wk =   0.0219479
        k(   75) = (   0.1012870   0.1012870   0.1432342), wk =   0.0219479

     Largest allocated arrays     est. size (Mb)     dimensions
     Largest temporary arrays     est. size (Mb)     dimensions

     Check: negative/imaginary core charge=   -0.000001    0.000000

     Initial potential from superposition of free atoms
     Check: negative starting charge=   -0.189447

     starting charge   51.99775, renormalised to   54.00000

     negative rho (up, down):  1.967E-01 0.000E+00

     *
     * You are using vdW-DF for exchange-correlation in this calculation.
     * Please cite the following three references that made this development
     * possible:
     *
     *   M. Dion, H. Rydberg, E. Schroder, D. C. Langreth, and
     *   B. I. Lundqvist, Phys. Rev. Lett. 92, 246401 (2004).
     *
     *   T. Thonhauser, V. R. Cooper, S. Li, A. Puzder, P. Hyldgaard, and
     *   D. C. Langreth, Phys. Rev. B 76, 125112 (2007).
     *
     *   G. Roman-Perez and J. M. Soler, Phys. Rev. Lett. 103, 096102 (2009).
     *
     *
     * If you are using vdW-DF2, please also cite:
     *
     *   K. Lee, E. D. Murray, L. Kong, B. I. Lundqvist, and
     *   D. C. Langreth, Phys. Rev. B 82, 081101(R) (2010).
     *
     *
     * If you are calculating the stress with vdW-DF, please also cite:
     *
     *   R. Sabatini, E. Kucukbenli, B. Kolb, T. Thonhauser, and
     *   S. de Gironcoli, J. Phys.: Condens. Matter 24, 424209 (2012).
     *

     Carrying out vdW-DF run using the following parameters:

     Nqs =      20    Nr_points =    1024   r_max =   100.000
     q_mesh =
               0.00001000     0.04494208     0.09755937     0.15916263
               0.23128650     0.31572767     0.41458969     0.53033537
               0.66584808     0.82450364     1.01025438     1.22772762
               1.48234092     1.78043706     2.12944203     2.53805004
               3.01644009     3.57652955     4.23227104     5.00000000

     Gradients computed in reciprocal space

     Starting wfc are   46 randomized atomic wfcs +    1 random wfc

     Self-consistent Calculation

     iteration #  1     ecut=    58.80 Ry     beta=0.10
     Davidson diagonalization with overlap
     ethr =  1.00E-02,  avg # of iterations =  3.9

[...]

     total energy              =    -639.36797684 Ry
     Harris-Foulkes estimate   =    -639.53922638 Ry
     estimated scf accuracy    <       1.13424385 Ry

[...]

     total energy              =    -639.17137706 Ry
     Harris-Foulkes estimate   =    -639.17136850 Ry
     estimated scf accuracy    <       0.00001182 Ry

     iteration # 12     ecut=    58.80 Ry     beta=0.10
     Davidson diagonalization with overlap
     ethr =  2.19E-08,  avg # of iterations =  1.0

     negative rho (up, down):  2.043E-01 0.000E+00

     End of self-consistent calculation

          k = 0.0000 0.0000 0.0000 (  3067 PWs)   bands (ev):

   -52.9082 -52.8944 -49.3187 -49.2882 -24.2636 -24.2636 -24.1926 -24.1926
   -24.1916 -24.1716 -15.8417 -15.8417 -15.5250 -15.5245 -15.5245 -15.4739
    10.6302  14.1131  14.3996  14.6254  14.6254  16.6941  16.6941  18.3027
    18.3029  18.3029  19.8245  19.8245  19.9295  20.1212  20.7545  20.7553
    21.2237  23.4446  23.4446  23.5931  23.5931  23.5936  24.1476  27.6410
    27.6422  27.6422  28.0568  31.8531  32.2554  32.2554  34.0620

[...]

          k = 0.1013 0.1013 0.1432 (  3076 PWs)   bands (ev):

   -52.8948 -52.8945 -49.2893 -49.2883 -24.2627 -24.2611 -24.2594 -24.2594
   -24.1750 -24.1731 -15.8440 -15.8365 -15.8327 -15.8323 -15.4858 -15.4756
    14.1833  14.2028  14.4301  14.4909  16.7137  16.7190  16.7385  16.8049
    19.1409  19.2767  19.3776  19.4892  20.0671  20.2163  20.3312  20.4374
    21.1050  21.1984  23.2347  23.4405  23.5225  23.5428  24.2683  24.2699
    28.1360  28.2185  31.6420  31.8018  32.3646  32.4964  32.5950

     the Fermi energy is    18.3075 ev

!    total energy              =    -639.17138527 Ry
     Harris-Foulkes estimate   =    -639.17137785 Ry
     estimated scf accuracy    <       0.00000006 Ry

     The total energy is the sum of the following terms:

     one-electron contribution =    -163.58351648 Ry
     hartree contribution      =     111.32463862 Ry
     xc contribution           =    -134.09223697 Ry
     ewald contribution        =    -452.80962094 Ry
     smearing contrib. (-TS)   =      -0.01064950 Ry

     convergence has been achieved in  12 iterations

     Forces acting on atoms (Ry/au):

     negative rho (up, down):  2.043E-01 0.000E+00
     atom    1 type  1   force =     0.00000000    0.00000000    0.00000000
     atom    2 type  1   force =     0.00000000    0.00000000    0.00000000
     atom    3 type  2   force =     0.00000000    0.00000000    0.00000000
     atom    4 type  2   force =     0.00000000    0.00000000    0.00000000

     Total force =     0.000000     Total SCF correction =     0.000000

     General routines

     Parallel routines

   This run was terminated on:   8:24: 9  14Nov2017

   JOB DONE.