     Program PWSCF v.5.1rc2 starts on 15Nov2017 at  3:15: 7

     Current dimensions of program PWSCF are:
     Max number of different atomic species (ntypx) = 10
     Max number of k-points (npk) =  40000
     Max angular momentum in pseudopotentials (lmaxx) =  3

     IMPORTANT: XC functional enforced from input :
     Exchange-correlation      = BEEF-VDW ( 1  4 27 13 2)
     Any further DFT definition will be discarded
     Please, verify this is what you really want

     Found symmetry operation: I + (  0.5000  0.5000  0.0000)
     This is a supercell, fractional translations are disabled

     bravais-lattice index     =            0
     lattice parameter (alat)  =       1.8897  a.u.
     unit-cell volume          =     468.4473 (a.u.)^3
     number of atoms/cell      =            4
     number of atomic types    =            2
     number of electrons       =        52.00
     number of Kohn-Sham states=           46
     kinetic-energy cutoff     =      58.7989  Ry
     charge density cutoff     =     587.9892  Ry
     convergence threshold     =      1.0E-06
     mixing beta               =       0.1000
     number of iterations used =           10  plain     mixing
     Exchange-correlation      = BEEF-VDW ( 1  4 27 13 2)

     celldm(1)=   1.889726  celldm(2)=   0.000000  celldm(3)=   0.000000
     celldm(4)=   0.000000  celldm(5)=   0.000000  celldm(6)=   0.000000

     crystal axes: (cart. coord. in units of alat)
               a(1) = (   3.880780   0.000000   0.000000 )
               a(2) = (   0.000000   3.880780   0.000000 )
               a(3) = (   0.000000   0.000000   4.609205 )

     reciprocal axes: (cart. coord. in units 2 pi/alat)
               b(1) = (  0.257680  0.000000  0.000000 )
               b(2) = (  0.000000  0.257680  0.000000 )
               b(3) = (  0.000000  0.000000  0.216957 )

     PseudoPot. # 1 for Sc read from file:
     /home/users/vossj/suncat/psp/gbrv1.5pbe/Sc.UPF
     MD5 check sum: db30a2753ba66ef00f23801d899b7e7f
     Pseudo is Ultrasoft + core correction, Zval = 11.0
     Generated by new atomic code, or converted to UPF format
     Using radial grid of  849 points,  6 beta functions with:
                l(1) =   0
                l(2) =   0
                l(3) =   1
                l(4) =   1
                l(5) =   2
                l(6) =   2
     Q(r) pseudized with  6 coefficients,  rinner =    1.200   1.200   1.200
                                                       1.200   1.200

     PseudoPot. # 2 for Re read from file:
     /home/users/vossj/suncat/psp/gbrv1.5pbe/Re.UPF
     MD5 check sum: 85f993410f3e006da9d71c142b4ad953
     Pseudo is Ultrasoft + core correction, Zval = 15.0
     Generated by new atomic code, or converted to UPF format
     Using radial grid of  981 points,  8 beta functions with:
                l(1) =   0
                l(2) =   0
                l(3) =   1
                l(4) =   1
                l(5) =   2
                l(6) =   2
                l(7) =   3
                l(8) =   3
     Q(r) pseudized with  8 coefficients,  rinner =    1.150   1.150   1.150
                                                       1.150   1.150   1.150
                                                       1.150

     vdW kernel table read from file vdW_kernel_table
     MD5 check sum: 095c7af220d748ca6e76c0b4c6cfb241

     atomic species   valence    mass     pseudopotential
        Sc1           11.00    44.95590     Sc( 1.00)
        Re1           15.00   186.20700     Re( 1.00)

     16 Sym. Ops., with inversion, found

   Cartesian axes

     site n.     atom                  positions (alat units)
         1           Sc1 tau(   1) = (   0.0000000   0.0000000   0.0000000  )
         2           Sc1 tau(   2) = (   1.9403900   1.9403900   0.0000000  )
         3           Re1 tau(   3) = (   1.9403900   0.0000000   2.3046027  )
         4           Re1 tau(   4) = (   0.0000000   1.9403900   2.3046027  )

     number of k points=    75  Fermi-Dirac smearing, width (Ry)=  0.0073
                       cart. coord. in units 2pi/alat
        k(    1) = (   0.0000000   0.0000000   0.0000000), wk =   0.0027435
        k(    2) = (   0.0000000   0.0000000   0.0241063), wk =   0.0054870
        k(    3) = (   0.0000000   0.0000000   0.0482127), wk =   0.0054870
        k(    4) = (   0.0000000   0.0000000   0.0723190), wk =   0.0054870
        k(    5) = (   0.0000000   0.0000000   0.0964254), wk =   0.0054870
        k(    6) = (   0.0000000   0.0286311   0.0000000), wk =   0.0109739
        k(    7) = (   0.0000000   0.0286311   0.0241063), wk =   0.0219479
        k(    8) = (   0.0000000   0.0286311   0.0482127), wk =   0.0219479
        k(    9) = (   0.0000000   0.0286311   0.0723190), wk =   0.0219479
        k(   10) = (   0.0000000   0.0286311   0.0964254), wk =   0.0219479
        k(   11) = (   0.0000000   0.0572623   0.0000000), wk =   0.0109739
        k(   12) = (   0.0000000   0.0572623   0.0241063), wk =   0.0219479
        k(   13) = (   0.0000000   0.0572623   0.0482127), wk =   0.0219479
        k(   14) = (   0.0000000   0.0572623   0.0723190), wk =   0.0219479
        k(   15) = (   0.0000000   0.0572623   0.0964254), wk =   0.0219479
        k(   16) = (   0.0000000   0.0858934   0.0000000), wk =   0.0109739
        k(   17) = (   0.0000000   0.0858934   0.0241063), wk =   0.0219479
        k(   18) = (   0.0000000   0.0858934   0.0482127), wk =   0.0219479
        k(   19) = (   0.0000000   0.0858934   0.0723190), wk =   0.0219479
        k(   20) = (   0.0000000   0.0858934   0.0964254), wk =   0.0219479
        k(   21) = (   0.0000000   0.1145245   0.0000000), wk =   0.0109739
        k(   22) = (   0.0000000   0.1145245   0.0241063), wk =   0.0219479
        k(   23) = (   0.0000000   0.1145245   0.0482127), wk =   0.0219479
        k(   24) = (   0.0000000   0.1145245   0.0723190), wk =   0.0219479
        k(   25) = (   0.0000000   0.1145245   0.0964254), wk =   0.0219479
        k(   26) = (   0.0286311   0.0286311   0.0000000), wk =   0.0109739
        k(   27) = (   0.0286311   0.0286311   0.0241063), wk =   0.0219479
        k(   28) = (   0.0286311   0.0286311   0.0482127), wk =   0.0219479
        k(   29) = (   0.0286311   0.0286311   0.0723190), wk =   0.0219479
        k(   30) = (   0.0286311   0.0286311   0.0964254), wk =   0.0219479
        k(   31) = (   0.0286311   0.0572623   0.0000000), wk =   0.0219479
        k(   32) = (   0.0286311   0.0572623   0.0241063), wk =   0.0438957
        k(   33) = (   0.0286311   0.0572623   0.0482127), wk =   0.0438957
        k(   34) = (   0.0286311   0.0572623   0.0723190), wk =   0.0438957
        k(   35) = (   0.0286311   0.0572623   0.0964254), wk =   0.0438957
        k(   36) = (   0.0286311   0.0858934   0.0000000), wk =   0.0219479
        k(   37) = (   0.0286311   0.0858934   0.0241063), wk =   0.0438957
        k(   38) = (   0.0286311   0.0858934   0.0482127), wk =   0.0438957
        k(   39) = (   0.0286311   0.0858934   0.0723190), wk =   0.0438957
        k(   40) = (   0.0286311   0.0858934   0.0964254), wk =   0.0438957
        k(   41) = (   0.0286311   0.1145245   0.0000000), wk =   0.0219479
        k(   42) = (   0.0286311   0.1145245   0.0241063), wk =   0.0438957
        k(   43) = (   0.0286311   0.1145245   0.0482127), wk =   0.0438957
        k(   44) = (   0.0286311   0.1145245   0.0723190), wk =   0.0438957
        k(   45) = (   0.0286311   0.1145245   0.0964254), wk =   0.0438957
        k(   46) = (   0.0572623   0.0572623   0.0000000), wk =   0.0109739
        k(   47) = (   0.0572623   0.0572623   0.0241063), wk =   0.0219479
        k(   48) = (   0.0572623   0.0572623   0.0482127), wk =   0.0219479
        k(   49) = (   0.0572623   0.0572623   0.0723190), wk =   0.0219479
        k(   50) = (   0.0572623   0.0572623   0.0964254), wk =   0.0219479
        k(   51) = (   0.0572623   0.0858934   0.0000000), wk =   0.0219479
        k(   52) = (   0.0572623   0.0858934   0.0241063), wk =   0.0438957
        k(   53) = (   0.0572623   0.0858934   0.0482127), wk =   0.0438957
        k(   54) = (   0.0572623   0.0858934   0.0723190), wk =   0.0438957
        k(   55) = (   0.0572623   0.0858934   0.0964254), wk =   0.0438957
        k(   56) = (   0.0572623   0.1145245   0.0000000), wk =   0.0219479
        k(   57) = (   0.0572623   0.1145245   0.0241063), wk =   0.0438957
        k(   58) = (   0.0572623   0.1145245   0.0482127), wk =   0.0438957
        k(   59) = (   0.0572623   0.1145245   0.0723190), wk =   0.0438957
        k(   60) = (   0.0572623   0.1145245   0.0964254), wk =   0.0438957
        k(   61) = (   0.0858934   0.0858934   0.0000000), wk =   0.0109739
        k(   62) = (   0.0858934   0.0858934   0.0241063), wk =   0.0219479
        k(   63) = (   0.0858934   0.0858934   0.0482127), wk =   0.0219479
        k(   64) = (   0.0858934   0.0858934   0.0723190), wk =   0.0219479
        k(   65) = (   0.0858934   0.0858934   0.0964254), wk =   0.0219479
        k(   66) = (   0.0858934   0.1145245   0.0000000), wk =   0.0219479
        k(   67) = (   0.0858934   0.1145245   0.0241063), wk =   0.0438957
        k(   68) = (   0.0858934   0.1145245   0.0482127), wk =   0.0438957
        k(   69) = (   0.0858934   0.1145245   0.0723190), wk =   0.0438957
        k(   70) = (   0.0858934   0.1145245   0.0964254), wk =   0.0438957
        k(   71) = (   0.1145245   0.1145245   0.0000000), wk =   0.0109739
        k(   72) = (   0.1145245   0.1145245   0.0241063), wk =   0.0219479
        k(   73) = (   0.1145245   0.1145245   0.0482127), wk =   0.0219479
        k(   74) = (   0.1145245   0.1145245   0.0723190), wk =   0.0219479
        k(   75) = (   0.1145245   0.1145245   0.0964254), wk =   0.0219479

     Largest allocated arrays     est. size (Mb)     dimensions
     Largest temporary arrays     est. size (Mb)     dimensions

     Initial potential from superposition of free atoms
     Check: negative starting charge=   -0.257003

     starting charge   50.99511, renormalised to   52.00000

     negative rho (up, down):  2.621E-01 0.000E+00

     *
     * You are using vdW-DF for exchange-correlation in this calculation.
     * Please cite the following three references that made this development
     * possible:
     *
     *   M. Dion, H. Rydberg, E. Schroder, D. C. Langreth, and
     *   B. I. Lundqvist, Phys. Rev. Lett. 92, 246401 (2004).
     *
     *   T. Thonhauser, V. R. Cooper, S. Li, A. Puzder, P. Hyldgaard, and
     *   D. C. Langreth, Phys. Rev. B 76, 125112 (2007).
     *
     *   G. Roman-Perez and J. M. Soler, Phys. Rev. Lett. 103, 096102 (2009).
     *
     *
     * If you are using vdW-DF2, please also cite:
     *
     *   K. Lee, E. D. Murray, L. Kong, B. I. Lundqvist, and
     *   D. C. Langreth, Phys. Rev. B 82, 081101(R) (2010).
     *
     *
     * If you are calculating the stress with vdW-DF, please also cite:
     *
     *   R. Sabatini, E. Kucukbenli, B. Kolb, T. Thonhauser, and
     *   S. de Gironcoli, J. Phys.: Condens. Matter 24, 424209 (2012).
     *

     Carrying out vdW-DF run using the following parameters:

     Nqs =      20    Nr_points =    1024   r_max =   100.000
     q_mesh =
               0.00001000     0.04494208     0.09755937     0.15916263
               0.23128650     0.31572767     0.41458969     0.53033537
               0.66584808     0.82450364     1.01025438     1.22772762
               1.48234092     1.78043706     2.12944203     2.53805004
               3.01644009     3.57652955     4.23227104     5.00000000

     Gradients computed in reciprocal space

     Starting wfc are   52 randomized atomic wfcs

     Self-consistent Calculation

     iteration #  1     ecut=    58.80 Ry     beta=0.10
     Davidson diagonalization with overlap
     ethr =  1.00E-02,  avg # of iterations =  4.1

     Threshold (ethr) on eigenvalues was too large:
     Diagonalizing with lowered threshold

     Davidson diagonalization with overlap
     ethr =  5.68E-04,  avg # of iterations =  1.4

[...]

     total energy              =    -574.09742100 Ry
     Harris-Foulkes estimate   =    -574.13701542 Ry
     estimated scf accuracy    <       0.29487144 Ry

[...]

     total energy              =    -574.03456461 Ry
     Harris-Foulkes estimate   =    -574.03456860 Ry
     estimated scf accuracy    <       0.00002465 Ry

     iteration # 10     ecut=    58.80 Ry     beta=0.10
     Davidson diagonalization with overlap
     ethr =  2.79E-08,  avg # of iterations =  1.8

     negative rho (up, down):  2.748E-01 0.000E+00

     End of self-consistent calculation

          k = 0.0000 0.0000 0.0000 (  3565 PWs)   bands (ev):

   -63.6239 -63.5476 -32.4345 -32.1528 -25.5792 -25.5792 -25.2206 -25.0829
   -25.0240 -25.0240 -11.4110 -11.4110 -10.9189 -10.6805 -10.5943 -10.5943
     9.1581  11.9164  12.6346  12.8028  13.3604  13.5319  13.5319  16.8982
    17.3653  17.3653  17.8907  18.2454  19.5433  19.9860  20.6816  20.6816
    20.8671  20.8671  21.4674  21.5428  21.6804  21.6804  21.8121  22.9434
    26.4625  26.6676  27.2577  28.3605  28.7367  28.7367

[...]

          k = 0.1145 0.1145 0.0964 (  3580 PWs)   bands (ev):

   -63.5866 -63.5843 -32.2946 -32.2860 -25.6531 -25.6371 -25.1529 -25.1491
   -24.9887 -24.9712 -11.5570 -11.5337 -10.8032 -10.7953 -10.5338 -10.5076
    12.1264  12.2813  12.7477  12.7478  14.8218  14.8881  16.2034  16.8155
    16.9728  17.3488  17.5394  17.5447  17.6877  17.7352  17.8169  17.8391
    20.6116  20.7774  20.9435  21.0474  21.3933  21.4423  21.8305  21.8980
    24.9833  25.1681  27.4064  27.5775  29.4738  29.6542

     the Fermi energy is    16.8775 ev

!    total energy              =    -574.03457738 Ry
     Harris-Foulkes estimate   =    -574.03456783 Ry
     estimated scf accuracy    <       0.00000076 Ry

     The total energy is the sum of the following terms:

     one-electron contribution =    -117.83293904 Ry
     hartree contribution      =      82.49760742 Ry
     xc contribution           =    -136.25017886 Ry
     ewald contribution        =    -402.43750575 Ry
     smearing contrib. (-TS)   =      -0.01156114 Ry

     convergence has been achieved in  10 iterations

     Forces acting on atoms (Ry/au):

     negative rho (up, down):  2.748E-01 0.000E+00
     atom    1 type  1   force =     0.00000000    0.00000000    0.00000000
     atom    2 type  1   force =     0.00000000    0.00000000    0.00000000
     atom    3 type  2   force =     0.00000000    0.00000000    0.00000000
     atom    4 type  2   force =     0.00000000    0.00000000    0.00000000

     Total force =     0.000000     Total SCF correction =     0.000000

     General routines

     Parallel routines

   This run was terminated on:   3:15:44  15Nov2017

   JOB DONE.