     Program PWSCF v.5.1rc2 (svn rev. ) starts on 18Feb2018 at 16:53:45

     Current dimensions of program PWSCF are:
     Max number of different atomic species (ntypx) = 10
     Max number of k-points (npk) =  40000
     Max angular momentum in pseudopotentials (lmaxx) =  3

     IMPORTANT: XC functional enforced from input :
     Exchange-correlation      = BEEF-VDW ( 1  4 27 13 2)
     Any further DFT definition will be discarded
     Please, verify this is what you really want

     Subspace diagonalization in iterative solution of the eigenvalue problem:
     a serial algorithm will be used

     Found symmetry operation: I + ( -0.5000 -0.5000  0.0000)
     This is a supercell, fractional translations are disabled

     bravais-lattice index     =            0
     lattice parameter (alat)  =       1.8897  a.u.
     unit-cell volume          =     598.1270 (a.u.)^3
     number of atoms/cell      =            4
     number of atomic types    =            2
     number of electrons       =        68.00
     number of Kohn-Sham states=           54
     kinetic-energy cutoff     =      58.7989  Ry
     charge density cutoff     =     587.9892  Ry
     convergence threshold     =      1.0E-06
     mixing beta               =       0.1000
     number of iterations used =           10  plain     mixing
     Exchange-correlation      = BEEF-VDW ( 1  4 27 13 2)

     celldm(1)=   1.889726  celldm(2)=   0.000000  celldm(3)=   0.000000
     celldm(4)=   0.000000  celldm(5)=   0.000000  celldm(6)=   0.000000

     crystal axes: (cart. coord. in units of alat)
               a(1) = (   5.056516   0.000000   0.000000 )
               a(2) = (   0.000000   5.056516   0.000000 )
               a(3) = (   0.000000   0.000000   3.466523 )

     reciprocal axes: (cart. coord. in units 2 pi/alat)
               b(1) = (  0.197765  0.000000  0.000000 )
               b(2) = (  0.000000  0.197765  0.000000 )
               b(3) = (  0.000000  0.000000  0.288473 )

     PseudoPot. # 1 for Cu read from file:
     /home/mamunm/src/pseudo/gbrv1.5pbe/Cu.UPF
     MD5 check sum: 6e991ff952a84172a2a52a1c1e996048
     Pseudo is Ultrasoft + core correction, Zval = 19.0
     Generated by new atomic code, or converted to UPF format
     Using radial grid of  867 points,  6 beta functions with:
                l(1) =   0
                l(2) =   0
                l(3) =   1
                l(4) =   1
                l(5) =   2
                l(6) =   2
     Q(r) pseudized with  8 coefficients,  rinner =    1.150   1.150   1.150
                                                       1.150   1.150

     PseudoPot. # 2 for Bi read from file:
     /home/mamunm/src/pseudo/gbrv1.5pbe/Bi.UPF
     MD5 check sum: 81103212dc04adf40945787f699eab19
     Pseudo is Ultrasoft + core correction, Zval = 15.0
     Generated by new atomic code, or converted to UPF format
     Using radial grid of  899 points,  6 beta functions with:
                l(1) =   0
                l(2) =   0
                l(3) =   1
                l(4) =   1
                l(5) =   2
                l(6) =   2
     Q(r) pseudized with  6 coefficients,  rinner =    1.000   1.000   1.000
                                                       1.000   1.000

     vdW kernel table read from file vdW_kernel_table
     MD5 check sum: 095c7af220d748ca6e76c0b4c6cfb241

     atomic species   valence    mass     pseudopotential
        Cu1           19.00    63.54600     Cu( 1.00)
        Bi1           15.00   208.98040     Bi( 1.00)

     16 Sym. Ops., with inversion, found

   Cartesian axes

     site n.     atom                  positions (alat units)
         1           Cu1 tau(   1) = (   0.0000000   0.0000000   0.0000000  )
         2           Cu1 tau(   2) = (   2.5282579   2.5282579   0.0000000  )
         3           Bi1 tau(   3) = (   2.5282579   0.0000000   1.7332616  )
         4           Bi1 tau(   4) = (   0.0000000   2.5282579   1.7332616  )

     number of k points=    75  Fermi-Dirac smearing, width (Ry)=  0.0073
                       cart. coord. in units 2pi/alat
        k(    1) = (   0.0000000   0.0000000   0.0000000), wk =   0.0027435
        k(    2) = (   0.0000000   0.0000000   0.0320526), wk =   0.0054870
        k(    3) = (   0.0000000   0.0000000   0.0641052), wk =   0.0054870
        k(    4) = (   0.0000000   0.0000000   0.0961578), wk =   0.0054870
        k(    5) = (   0.0000000   0.0000000   0.1282104), wk =   0.0054870
        k(    6) = (   0.0000000   0.0219738   0.0000000), wk =   0.0109739
        k(    7) = (   0.0000000   0.0219738   0.0320526), wk =   0.0219479
        k(    8) = (   0.0000000   0.0219738   0.0641052), wk =   0.0219479
        k(    9) = (   0.0000000   0.0219738   0.0961578), wk =   0.0219479
        k(   10) = (   0.0000000   0.0219738   0.1282104), wk =   0.0219479
        k(   11) = (   0.0000000   0.0439477   0.0000000), wk =   0.0109739
        k(   12) = (   0.0000000   0.0439477   0.0320526), wk =   0.0219479
        k(   13) = (   0.0000000   0.0439477   0.0641052), wk =   0.0219479
        k(   14) = (   0.0000000   0.0439477   0.0961578), wk =   0.0219479
        k(   15) = (   0.0000000   0.0439477   0.1282104), wk =   0.0219479
        k(   16) = (   0.0000000   0.0659215   0.0000000), wk =   0.0109739
        k(   17) = (   0.0000000   0.0659215   0.0320526), wk =   0.0219479
        k(   18) = (   0.0000000   0.0659215   0.0641052), wk =   0.0219479
        k(   19) = (   0.0000000   0.0659215   0.0961578), wk =   0.0219479
        k(   20) = (   0.0000000   0.0659215   0.1282104), wk =   0.0219479
        k(   21) = (   0.0000000   0.0878954   0.0000000), wk =   0.0109739
        k(   22) = (   0.0000000   0.0878954   0.0320526), wk =   0.0219479
        k(   23) = (   0.0000000   0.0878954   0.0641052), wk =   0.0219479
        k(   24) = (   0.0000000   0.0878954   0.0961578), wk =   0.0219479
        k(   25) = (   0.0000000   0.0878954   0.1282104), wk =   0.0219479
        k(   26) = (   0.0219738   0.0219738   0.0000000), wk =   0.0109739
        k(   27) = (   0.0219738   0.0219738   0.0320526), wk =   0.0219479
        k(   28) = (   0.0219738   0.0219738   0.0641052), wk =   0.0219479
        k(   29) = (   0.0219738   0.0219738   0.0961578), wk =   0.0219479
        k(   30) = (   0.0219738   0.0219738   0.1282104), wk =   0.0219479
        k(   31) = (   0.0219738   0.0439477   0.0000000), wk =   0.0219479
        k(   32) = (   0.0219738   0.0439477   0.0320526), wk =   0.0438957
        k(   33) = (   0.0219738   0.0439477   0.0641052), wk =   0.0438957
        k(   34) = (   0.0219738   0.0439477   0.0961578), wk =   0.0438957
        k(   35) = (   0.0219738   0.0439477   0.1282104), wk =   0.0438957
        k(   36) = (   0.0219738   0.0659215   0.0000000), wk =   0.0219479
        k(   37) = (   0.0219738   0.0659215   0.0320526), wk =   0.0438957
        k(   38) = (   0.0219738   0.0659215   0.0641052), wk =   0.0438957
        k(   39) = (   0.0219738   0.0659215   0.0961578), wk =   0.0438957
        k(   40) = (   0.0219738   0.0659215   0.1282104), wk =   0.0438957
        k(   41) = (   0.0219738   0.0878954   0.0000000), wk =   0.0219479
        k(   42) = (   0.0219738   0.0878954   0.0320526), wk =   0.0438957
        k(   43) = (   0.0219738   0.0878954   0.0641052), wk =   0.0438957
        k(   44) = (   0.0219738   0.0878954   0.0961578), wk =   0.0438957
        k(   45) = (   0.0219738   0.0878954   0.1282104), wk =   0.0438957
        k(   46) = (   0.0439477   0.0439477   0.0000000), wk =   0.0109739
        k(   47) = (   0.0439477   0.0439477   0.0320526), wk =   0.0219479
        k(   48) = (   0.0439477   0.0439477   0.0641052), wk =   0.0219479
        k(   49) = (   0.0439477   0.0439477   0.0961578), wk =   0.0219479
        k(   50) = (   0.0439477   0.0439477   0.1282104), wk =   0.0219479
        k(   51) = (   0.0439477   0.0659215   0.0000000), wk =   0.0219479
        k(   52) = (   0.0439477   0.0659215   0.0320526), wk =   0.0438957
        k(   53) = (   0.0439477   0.0659215   0.0641052), wk =   0.0438957
        k(   54) = (   0.0439477   0.0659215   0.0961578), wk =   0.0438957
        k(   55) = (   0.0439477   0.0659215   0.1282104), wk =   0.0438957
        k(   56) = (   0.0439477   0.0878954   0.0000000), wk =   0.0219479
        k(   57) = (   0.0439477   0.0878954   0.0320526), wk =   0.0438957
        k(   58) = (   0.0439477   0.0878954   0.0641052), wk =   0.0438957
        k(   59) = (   0.0439477   0.0878954   0.0961578), wk =   0.0438957
        k(   60) = (   0.0439477   0.0878954   0.1282104), wk =   0.0438957
        k(   61) = (   0.0659215   0.0659215   0.0000000), wk =   0.0109739
        k(   62) = (   0.0659215   0.0659215   0.0320526), wk =   0.0219479
        k(   63) = (   0.0659215   0.0659215   0.0641052), wk =   0.0219479
        k(   64) = (   0.0659215   0.0659215   0.0961578), wk =   0.0219479
        k(   65) = (   0.0659215   0.0659215   0.1282104), wk =   0.0219479
        k(   66) = (   0.0659215   0.0878954   0.0000000), wk =   0.0219479
        k(   67) = (   0.0659215   0.0878954   0.0320526), wk =   0.0438957
        k(   68) = (   0.0659215   0.0878954   0.0641052), wk =   0.0438957
        k(   69) = (   0.0659215   0.0878954   0.0961578), wk =   0.0438957
        k(   70) = (   0.0659215   0.0878954   0.1282104), wk =   0.0438957
        k(   71) = (   0.0878954   0.0878954   0.0000000), wk =   0.0109739
        k(   72) = (   0.0878954   0.0878954   0.0320526), wk =   0.0219479
        k(   73) = (   0.0878954   0.0878954   0.0641052), wk =   0.0219479
        k(   74) = (   0.0878954   0.0878954   0.0961578), wk =   0.0219479
        k(   75) = (   0.0878954   0.0878954   0.1282104), wk =   0.0219479

     Largest allocated arrays     est. size (Mb)     dimensions
     Largest temporary arrays     est. size (Mb)     dimensions

     Check: negative/imaginary core charge=   -0.000001    0.000000

     Initial potential from superposition of free atoms
     Check: negative starting charge=   -0.083076

     starting charge   63.99991, renormalised to   68.00000

     negative rho (up, down):  8.827E-02 0.000E+00

     *
     * You are using vdW-DF for exchange-correlation in this calculation.
     * Please cite the following three references that made this development
     * possible:
     *
     *   M. Dion, H. Rydberg, E. Schroder, D. C. Langreth, and
     *   B. I. Lundqvist, Phys. Rev. Lett. 92, 246401 (2004).
     *
     *   T. Thonhauser, V. R. Cooper, S. Li, A. Puzder, P. Hyldgaard, and
     *   D. C. Langreth, Phys. Rev. B 76, 125112 (2007).
     *
     *   G. Roman-Perez and J. M. Soler, Phys. Rev. Lett. 103, 096102 (2009).
     *
     *
     * If you are using vdW-DF2, please also cite:
     *
     *   K. Lee, E. D. Murray, L. Kong, B. I. Lundqvist, and
     *   D. C. Langreth, Phys. Rev. B 82, 081101(R) (2010).
     *
     *
     * If you are calculating the stress with vdW-DF, please also cite:
     *
     *   R. Sabatini, E. Kucukbenli, B. Kolb, T. Thonhauser, and
     *   S. de Gironcoli, J. Phys.: Condens. Matter 24, 424209 (2012).
     *

     Carrying out vdW-DF run using the following parameters:

     Nqs =      20    Nr_points =    1024   r_max =   100.000
     q_mesh =
               0.00001000     0.04494208     0.09755937     0.15916263
               0.23128650     0.31572767     0.41458969     0.53033537
               0.66584808     0.82450364     1.01025438     1.22772762
               1.48234092     1.78043706     2.12944203     2.53805004
               3.01644009     3.57652955     4.23227104     5.00000000

     Gradients computed in reciprocal space

     Starting wfc are   44 randomized atomic wfcs +   10 random wfc

     Self-consistent Calculation

     iteration #  1     ecut=    58.80 Ry     beta=0.10
     Davidson diagonalization with overlap
     ethr =  1.00E-02,  avg # of iterations =  5.5

[...]

     total energy              =   -1180.90759037 Ry
     Harris-Foulkes estimate   =   -1188.03638309 Ry
     estimated scf accuracy    <      40.09338187 Ry

[...]

     total energy              =   -1184.18828874 Ry
     Harris-Foulkes estimate   =   -1184.18827742 Ry
     estimated scf accuracy    <       0.00000169 Ry

     iteration # 16     ecut=    58.80 Ry     beta=0.10
     Davidson diagonalization with overlap
     ethr =  2.10E-09,  avg # of iterations =  1.1

     negative rho (up, down):  8.703E-02 0.000E+00

     End of self-consistent calculation

          k = 0.0000 0.0000 0.0000 (  4531 PWs)   bands (ev):

  -100.0611-100.0605 -57.4723 -57.4723 -57.4715 -57.4715 -57.4715 -57.4710
   -11.0197 -10.9953 -10.9629 -10.9514 -10.9002 -10.9002 -10.8760 -10.8715
   -10.8715 -10.8239  -0.4909   2.0173   8.3942   8.3942   9.3676   9.4408
     9.4462   9.7790   9.7790   9.8695   9.8930   9.8930  10.0320  10.0646
    11.5236  13.0001  13.0001  13.2399  13.6756  16.7768  18.6192  18.9938
    21.0879  21.0879  21.5443  22.5020  24.5030  24.5030  24.7533  24.7533
    25.1607  26.0381  26.6264  26.6264  27.0379  29.1408

[...]

          k = 0.0879 0.0879 0.1282 (  4550 PWs)   bands (ev):

  -100.0611-100.0605 -57.4724 -57.4722 -57.4722 -57.4719 -57.4714 -57.4714
   -10.9581 -10.9570 -10.9349 -10.9306 -10.9136 -10.9125 -10.9055 -10.9033
   -10.8186 -10.8159   2.1418   2.2159   8.2651   8.3870   8.4848   8.5552
     9.5002   9.5320   9.7338   9.7509   9.7805   9.7844  10.0630  10.0642
    10.0762  10.1135  11.9307  12.0656  16.0149  16.2759  19.9808  20.0678
    20.0825  20.6156  20.8142  20.8289  22.4833  22.5311  23.9797  24.4110
    24.4488  24.4524  25.5964  25.9538  29.5874  30.2861

     the Fermi energy is    12.5979 ev

!    total energy              =   -1184.18833886 Ry
     Harris-Foulkes estimate   =   -1184.18828889 Ry
     estimated scf accuracy    <       0.00000006 Ry

     The total energy is the sum of the following terms:

     one-electron contribution =    -754.74853842 Ry
     hartree contribution      =     417.79815600 Ry
     xc contribution           =    -213.29004614 Ry
     ewald contribution        =    -633.94340241 Ry
     smearing contrib. (-TS)   =      -0.00450788 Ry

     convergence has been achieved in  16 iterations

     Forces acting on atoms (Ry/au):

     negative rho (up, down):  8.703E-02 0.000E+00
     atom    1 type  1   force =     0.00000000    0.00000000    0.00000000
     atom    2 type  1   force =     0.00000000    0.00000000    0.00000000
     atom    3 type  2   force =     0.00000000    0.00000000    0.00000000
     atom    4 type  2   force =     0.00000000    0.00000000    0.00000000

     Total force =     0.000000     Total SCF correction =     0.000000

     General routines

     Parallel routines

   This run was terminated on:  16:55:11  18Feb2018

   JOB DONE.