     Program PWSCF v.5.1rc2 starts on 15Nov2017 at 12:33: 2

     Current dimensions of program PWSCF are:
     Max number of different atomic species (ntypx) = 10
     Max number of k-points (npk) =  40000
     Max angular momentum in pseudopotentials (lmaxx) =  3

     IMPORTANT: XC functional enforced from input :
     Exchange-correlation      = BEEF-VDW ( 1  4 27 13 2)
     Any further DFT definition will be discarded
     Please, verify this is what you really want

     Found symmetry operation: I + ( -0.5000 -0.5000  0.0000)
     This is a supercell, fractional translations are disabled

     bravais-lattice index     =            0
     lattice parameter (alat)  =       1.8897  a.u.
     unit-cell volume          =     460.9288 (a.u.)^3
     number of atoms/cell      =            4
     number of atomic types    =            2
     number of electrons       =        54.00
     number of Kohn-Sham states=           47
     kinetic-energy cutoff     =      58.7989  Ry
     charge density cutoff     =     587.9892  Ry
     convergence threshold     =      1.0E-06
     mixing beta               =       0.1000
     number of iterations used =           10  plain     mixing
     Exchange-correlation      = BEEF-VDW ( 1  4 27 13 2)

     celldm(1)=   1.889726  celldm(2)=   0.000000  celldm(3)=   0.000000
     celldm(4)=   0.000000  celldm(5)=   0.000000  celldm(6)=   0.000000

     crystal axes: (cart. coord. in units of alat)
               a(1) = (   4.055969   0.000000   0.000000 )
               a(2) = (   0.000000   4.055969   0.000000 )
               a(3) = (   0.000000   0.000000   4.151910 )

     reciprocal axes: (cart. coord. in units 2 pi/alat)
               b(1) = (  0.246550  0.000000  0.000000 )
               b(2) = (  0.000000  0.246550  0.000000 )
               b(3) = (  0.000000  0.000000  0.240853 )

     PseudoPot. # 1 for Pt read from file:
     /home/users/vossj/suncat/psp/gbrv1.5pbe/Pt.UPF
     MD5 check sum: f09d6de1a584b5a045c4fc126da2d0c4
     Pseudo is Ultrasoft + core correction, Zval = 16.0
     Generated by new atomic code, or converted to UPF format
     Using radial grid of  985 points,  6 beta functions with:
                l(1) =   0
                l(2) =   0
                l(3) =   1
                l(4) =   1
                l(5) =   2
                l(6) =   2
     Q(r) pseudized with  8 coefficients,  rinner =    1.300   1.300   1.300
                                                       1.300   1.300

     PseudoPot. # 2 for Au read from file:
     /home/users/vossj/suncat/psp/gbrv1.5pbe/Au.UPF
     MD5 check sum: 9d7f43293ad2c663164586bc4b293ffc
     Pseudo is Ultrasoft + core correction, Zval = 11.0
     Generated by new atomic code, or converted to UPF format
     Using radial grid of  985 points,  7 beta functions with:
                l(1) =   0
                l(2) =   0
                l(3) =   1
                l(4) =   1
                l(5) =   2
                l(6) =   2
                l(7) =   3
     Q(r) pseudized with  6 coefficients,  rinner =    1.900   1.900   1.900
                                                       1.900   1.900   1.900
                                                       1.900

     vdW kernel table read from file vdW_kernel_table
     MD5 check sum: 095c7af220d748ca6e76c0b4c6cfb241

     atomic species   valence    mass     pseudopotential
        Pt1           16.00   195.08000     Pt( 1.00)
        Au1           11.00   196.96650     Au( 1.00)

     16 Sym. Ops., with inversion, found

   Cartesian axes

     site n.     atom                  positions (alat units)
         1           Pt1 tau(   1) = (   0.0000000   0.0000000   0.0000000  )
         2           Pt1 tau(   2) = (   2.0279847   2.0279847   0.0000000  )
         3           Au1 tau(   3) = (   2.0279847   0.0000000   2.0759549  )
         4           Au1 tau(   4) = (   0.0000000   2.0279847   2.0759549  )

     number of k points=    75  Fermi-Dirac smearing, width (Ry)=  0.0073
                       cart. coord. in units 2pi/alat
        k(    1) = (   0.0000000   0.0000000   0.0000000), wk =   0.0027435
        k(    2) = (   0.0000000   0.0000000   0.0267614), wk =   0.0054870
        k(    3) = (   0.0000000   0.0000000   0.0535229), wk =   0.0054870
        k(    4) = (   0.0000000   0.0000000   0.0802843), wk =   0.0054870
        k(    5) = (   0.0000000   0.0000000   0.1070458), wk =   0.0054870
        k(    6) = (   0.0000000   0.0273945   0.0000000), wk =   0.0109739
        k(    7) = (   0.0000000   0.0273945   0.0267614), wk =   0.0219479
        k(    8) = (   0.0000000   0.0273945   0.0535229), wk =   0.0219479
        k(    9) = (   0.0000000   0.0273945   0.0802843), wk =   0.0219479
        k(   10) = (   0.0000000   0.0273945   0.1070458), wk =   0.0219479
        k(   11) = (   0.0000000   0.0547889   0.0000000), wk =   0.0109739
        k(   12) = (   0.0000000   0.0547889   0.0267614), wk =   0.0219479
        k(   13) = (   0.0000000   0.0547889   0.0535229), wk =   0.0219479
        k(   14) = (   0.0000000   0.0547889   0.0802843), wk =   0.0219479
        k(   15) = (   0.0000000   0.0547889   0.1070458), wk =   0.0219479
        k(   16) = (   0.0000000   0.0821834   0.0000000), wk =   0.0109739
        k(   17) = (   0.0000000   0.0821834   0.0267614), wk =   0.0219479
        k(   18) = (   0.0000000   0.0821834   0.0535229), wk =   0.0219479
        k(   19) = (   0.0000000   0.0821834   0.0802843), wk =   0.0219479
        k(   20) = (   0.0000000   0.0821834   0.1070458), wk =   0.0219479
        k(   21) = (   0.0000000   0.1095779   0.0000000), wk =   0.0109739
        k(   22) = (   0.0000000   0.1095779   0.0267614), wk =   0.0219479
        k(   23) = (   0.0000000   0.1095779   0.0535229), wk =   0.0219479
        k(   24) = (   0.0000000   0.1095779   0.0802843), wk =   0.0219479
        k(   25) = (   0.0000000   0.1095779   0.1070458), wk =   0.0219479
        k(   26) = (   0.0273945   0.0273945   0.0000000), wk =   0.0109739
        k(   27) = (   0.0273945   0.0273945   0.0267614), wk =   0.0219479
        k(   28) = (   0.0273945   0.0273945   0.0535229), wk =   0.0219479
        k(   29) = (   0.0273945   0.0273945   0.0802843), wk =   0.0219479
        k(   30) = (   0.0273945   0.0273945   0.1070458), wk =   0.0219479
        k(   31) = (   0.0273945   0.0547889   0.0000000), wk =   0.0219479
        k(   32) = (   0.0273945   0.0547889   0.0267614), wk =   0.0438957
        k(   33) = (   0.0273945   0.0547889   0.0535229), wk =   0.0438957
        k(   34) = (   0.0273945   0.0547889   0.0802843), wk =   0.0438957
        k(   35) = (   0.0273945   0.0547889   0.1070458), wk =   0.0438957
        k(   36) = (   0.0273945   0.0821834   0.0000000), wk =   0.0219479
        k(   37) = (   0.0273945   0.0821834   0.0267614), wk =   0.0438957
        k(   38) = (   0.0273945   0.0821834   0.0535229), wk =   0.0438957
        k(   39) = (   0.0273945   0.0821834   0.0802843), wk =   0.0438957
        k(   40) = (   0.0273945   0.0821834   0.1070458), wk =   0.0438957
        k(   41) = (   0.0273945   0.1095779   0.0000000), wk =   0.0219479
        k(   42) = (   0.0273945   0.1095779   0.0267614), wk =   0.0438957
        k(   43) = (   0.0273945   0.1095779   0.0535229), wk =   0.0438957
        k(   44) = (   0.0273945   0.1095779   0.0802843), wk =   0.0438957
        k(   45) = (   0.0273945   0.1095779   0.1070458), wk =   0.0438957
        k(   46) = (   0.0547889   0.0547889   0.0000000), wk =   0.0109739
        k(   47) = (   0.0547889   0.0547889   0.0267614), wk =   0.0219479
        k(   48) = (   0.0547889   0.0547889   0.0535229), wk =   0.0219479
        k(   49) = (   0.0547889   0.0547889   0.0802843), wk =   0.0219479
        k(   50) = (   0.0547889   0.0547889   0.1070458), wk =   0.0219479
        k(   51) = (   0.0547889   0.0821834   0.0000000), wk =   0.0219479
        k(   52) = (   0.0547889   0.0821834   0.0267614), wk =   0.0438957
        k(   53) = (   0.0547889   0.0821834   0.0535229), wk =   0.0438957
        k(   54) = (   0.0547889   0.0821834   0.0802843), wk =   0.0438957
        k(   55) = (   0.0547889   0.0821834   0.1070458), wk =   0.0438957
        k(   56) = (   0.0547889   0.1095779   0.0000000), wk =   0.0219479
        k(   57) = (   0.0547889   0.1095779   0.0267614), wk =   0.0438957
        k(   58) = (   0.0547889   0.1095779   0.0535229), wk =   0.0438957
        k(   59) = (   0.0547889   0.1095779   0.0802843), wk =   0.0438957
        k(   60) = (   0.0547889   0.1095779   0.1070458), wk =   0.0438957
        k(   61) = (   0.0821834   0.0821834   0.0000000), wk =   0.0109739
        k(   62) = (   0.0821834   0.0821834   0.0267614), wk =   0.0219479
        k(   63) = (   0.0821834   0.0821834   0.0535229), wk =   0.0219479
        k(   64) = (   0.0821834   0.0821834   0.0802843), wk =   0.0219479
        k(   65) = (   0.0821834   0.0821834   0.1070458), wk =   0.0219479
        k(   66) = (   0.0821834   0.1095779   0.0000000), wk =   0.0219479
        k(   67) = (   0.0821834   0.1095779   0.0267614), wk =   0.0438957
        k(   68) = (   0.0821834   0.1095779   0.0535229), wk =   0.0438957
        k(   69) = (   0.0821834   0.1095779   0.0802843), wk =   0.0438957
        k(   70) = (   0.0821834   0.1095779   0.1070458), wk =   0.0438957
        k(   71) = (   0.1095779   0.1095779   0.0000000), wk =   0.0109739
        k(   72) = (   0.1095779   0.1095779   0.0267614), wk =   0.0219479
        k(   73) = (   0.1095779   0.1095779   0.0535229), wk =   0.0219479
        k(   74) = (   0.1095779   0.1095779   0.0802843), wk =   0.0219479
        k(   75) = (   0.1095779   0.1095779   0.1070458), wk =   0.0219479

     Largest allocated arrays     est. size (Mb)     dimensions
     Largest temporary arrays     est. size (Mb)     dimensions

     Initial potential from superposition of free atoms
     Check: negative starting charge=   -0.367764

     starting charge   52.99973, renormalised to   54.00000

     negative rho (up, down):  3.747E-01 0.000E+00

     *
     * You are using vdW-DF for exchange-correlation in this calculation.
     * Please cite the following three references that made this development
     * possible:
     *
     *   M. Dion, H. Rydberg, E. Schroder, D. C. Langreth, and
     *   B. I. Lundqvist, Phys. Rev. Lett. 92, 246401 (2004).
     *
     *   T. Thonhauser, V. R. Cooper, S. Li, A. Puzder, P. Hyldgaard, and
     *   D. C. Langreth, Phys. Rev. B 76, 125112 (2007).
     *
     *   G. Roman-Perez and J. M. Soler, Phys. Rev. Lett. 103, 096102 (2009).
     *
     *
     * If you are using vdW-DF2, please also cite:
     *
     *   K. Lee, E. D. Murray, L. Kong, B. I. Lundqvist, and
     *   D. C. Langreth, Phys. Rev. B 82, 081101(R) (2010).
     *
     *
     * If you are calculating the stress with vdW-DF, please also cite:
     *
     *   R. Sabatini, E. Kucukbenli, B. Kolb, T. Thonhauser, and
     *   S. de Gironcoli, J. Phys.: Condens. Matter 24, 424209 (2012).
     *

     Carrying out vdW-DF run using the following parameters:

     Nqs =      20    Nr_points =    1024   r_max =   100.000
     q_mesh =
               0.00001000     0.04494208     0.09755937     0.15916263
               0.23128650     0.31572767     0.41458969     0.53033537
               0.66584808     0.82450364     1.01025438     1.22772762
               1.48234092     1.78043706     2.12944203     2.53805004
               3.01644009     3.57652955     4.23227104     5.00000000

     Gradients computed in reciprocal space

     Starting wfc are   42 randomized atomic wfcs +    5 random wfc

     Self-consistent Calculation

     iteration #  1     ecut=    58.80 Ry     beta=0.10
     Davidson diagonalization with overlap
     ethr =  1.00E-02,  avg # of iterations =  5.1

[...]

     total energy              =    -658.31004616 Ry
     Harris-Foulkes estimate   =    -658.46606526 Ry
     estimated scf accuracy    <       1.08199596 Ry

[...]

     iteration #  7     ecut=    58.80 Ry     beta=0.10
     Davidson diagonalization with overlap
     c_bands:  1 eigenvalues not converged
     ethr =  9.27E-07,  avg # of iterations =  6.0

[...]

     total energy              =    -658.16910089 Ry
     Harris-Foulkes estimate   =    -658.16910061 Ry
     estimated scf accuracy    <       0.00000300 Ry

     iteration # 12     ecut=    58.80 Ry     beta=0.10
     Davidson diagonalization with overlap
     ethr =  4.19E-09,  avg # of iterations =  2.0

     negative rho (up, down):  3.577E-01 0.000E+00

     End of self-consistent calculation

          k = 0.0000 0.0000 0.0000 (  3535 PWs)   bands (ev):

   -35.4273 -35.4273 -35.2921 -35.2769 -35.2769 -35.2619   7.8666  10.3595
    10.5533  10.7819  10.8677  10.9224  10.9224  13.0134  13.0134  13.2413
    14.2880  14.7291  15.3916  15.4853  16.3977  16.3977  16.5379  16.5618
    16.6208  16.6208  17.5207  18.5195  18.8997  18.8997  23.5187  23.6404
    24.4370  27.3111  27.6624  27.6624  27.8964  28.0177  28.0177  32.0139
    34.9461  35.0504  35.3111  35.8517  36.2503  36.2506  37.1057

[...]

          k = 0.1096 0.1096 0.1070 (  3506 PWs)   bands (ev):

   -35.4430 -35.4385 -35.2783 -35.2774 -35.2686 -35.2640  10.3485  10.3941
    10.4326  10.4738  12.4608  12.4911  12.7669  12.8652  13.0989  13.1518
    13.5800  13.6620  15.0854  15.2928  15.6855  15.7123  16.0132  16.1077
    16.3730  16.4113  16.6044  17.4046  17.4157  17.4877  21.0809  21.2417
    21.5125  22.0945  31.5285  31.5598  31.5760  31.5843  34.2928  34.3486
    34.4572  34.5156  34.7173  34.9165  35.2016  35.5494  37.1118

     the Fermi energy is    16.7195 ev

!    total energy              =    -658.16910717 Ry
     Harris-Foulkes estimate   =    -658.16910122 Ry
     estimated scf accuracy    <       0.00000019 Ry

     The total energy is the sum of the following terms:

     one-electron contribution =     -52.83764021 Ry
     hartree contribution      =      79.95141809 Ry
     xc contribution           =    -245.44138380 Ry
     ewald contribution        =    -439.83431078 Ry
     smearing contrib. (-TS)   =      -0.00719047 Ry

     convergence has been achieved in  12 iterations

     Forces acting on atoms (Ry/au):

     negative rho (up, down):  3.577E-01 0.000E+00
     atom    1 type  1   force =     0.00000000    0.00000000    0.00000000
     atom    2 type  1   force =     0.00000000    0.00000000    0.00000000
     atom    3 type  2   force =     0.00000000    0.00000000    0.00000000
     atom    4 type  2   force =     0.00000000    0.00000000    0.00000000

     Total force =     0.000000     Total SCF correction =     0.000000

     General routines

     Parallel routines

   This run was terminated on:  12:33:52  15Nov2017

   JOB DONE.