     Program PWSCF v.5.1rc2 starts on 15Nov2017 at  1:59:52

     Current dimensions of program PWSCF are:
     Max number of different atomic species (ntypx) = 10
     Max number of k-points (npk) =  40000
     Max angular momentum in pseudopotentials (lmaxx) =  3

     IMPORTANT: XC functional enforced from input :
     Exchange-correlation      = BEEF-VDW ( 1  4 27 13 2)
     Any further DFT definition will be discarded
     Please, verify this is what you really want

     Found symmetry operation: I + ( -0.5000 -0.5000  0.0000)
     This is a supercell, fractional translations are disabled

     bravais-lattice index     =            0
     lattice parameter (alat)  =       1.8897  a.u.
     unit-cell volume          =     405.6091 (a.u.)^3
     number of atoms/cell      =            4
     number of atomic types    =            2
     number of electrons       =        62.00
     number of Kohn-Sham states=           51
     kinetic-energy cutoff     =      58.7989  Ry
     charge density cutoff     =     587.9892  Ry
     convergence threshold     =      1.0E-06
     mixing beta               =       0.1000
     number of iterations used =           10  plain     mixing
     Exchange-correlation      = BEEF-VDW ( 1  4 27 13 2)

     celldm(1)=   1.889726  celldm(2)=   0.000000  celldm(3)=   0.000000
     celldm(4)=   0.000000  celldm(5)=   0.000000  celldm(6)=   0.000000

     crystal axes: (cart. coord. in units of alat)
               a(1) = (   3.812244   0.000000   0.000000 )
               a(2) = (   0.000000   3.812244   0.000000 )
               a(3) = (   0.000000   0.000000   4.135707 )

     reciprocal axes: (cart. coord. in units 2 pi/alat)
               b(1) = (  0.262313  0.000000  0.000000 )
               b(2) = (  0.000000  0.262313  0.000000 )
               b(3) = (  0.000000  0.000000  0.241797 )

     PseudoPot. # 1 for Pd read from file:
     /home/users/vossj/suncat/psp/gbrv1.5pbe/Pd.UPF
     MD5 check sum: 2d733d2bc2cbfd217af676df1668a4bc
     Pseudo is Ultrasoft + core correction, Zval = 16.0
     Generated by new atomic code, or converted to UPF format
     Using radial grid of  887 points,  6 beta functions with:
                l(1) =   0
                l(2) =   0
                l(3) =   1
                l(4) =   1
                l(5) =   2
                l(6) =   2
     Q(r) pseudized with  8 coefficients,  rinner =    1.130   1.130   1.130
                                                       1.130   1.130

     PseudoPot. # 2 for Re read from file:
     /home/users/vossj/suncat/psp/gbrv1.5pbe/Re.UPF
     MD5 check sum: 85f993410f3e006da9d71c142b4ad953
     Pseudo is Ultrasoft + core correction, Zval = 15.0
     Generated by new atomic code, or converted to UPF format
     Using radial grid of  981 points,  8 beta functions with:
                l(1) =   0
                l(2) =   0
                l(3) =   1
                l(4) =   1
                l(5) =   2
                l(6) =   2
                l(7) =   3
                l(8) =   3
     Q(r) pseudized with  8 coefficients,  rinner =    1.150   1.150   1.150
                                                       1.150   1.150   1.150
                                                       1.150

     vdW kernel table read from file vdW_kernel_table
     MD5 check sum: 095c7af220d748ca6e76c0b4c6cfb241

     atomic species   valence    mass     pseudopotential
        Pd1           16.00   106.42000     Pd( 1.00)
        Re1           15.00   186.20700     Re( 1.00)

     16 Sym. Ops., with inversion, found

   Cartesian axes

     site n.     atom                  positions (alat units)
         1           Pd1 tau(   1) = (   0.0000000   0.0000000   0.0000000  )
         2           Pd1 tau(   2) = (   1.9061219   1.9061219   0.0000000  )
         3           Re1 tau(   3) = (   1.9061219   0.0000000   2.0678534  )
         4           Re1 tau(   4) = (   0.0000000   1.9061219   2.0678534  )

     number of k points=    75  Fermi-Dirac smearing, width (Ry)=  0.0073
                       cart. coord. in units 2pi/alat
        k(    1) = (   0.0000000   0.0000000   0.0000000), wk =   0.0027435
        k(    2) = (   0.0000000   0.0000000   0.0268663), wk =   0.0054870
        k(    3) = (   0.0000000   0.0000000   0.0537326), wk =   0.0054870
        k(    4) = (   0.0000000   0.0000000   0.0805989), wk =   0.0054870
        k(    5) = (   0.0000000   0.0000000   0.1074652), wk =   0.0054870
        k(    6) = (   0.0000000   0.0291459   0.0000000), wk =   0.0109739
        k(    7) = (   0.0000000   0.0291459   0.0268663), wk =   0.0219479
        k(    8) = (   0.0000000   0.0291459   0.0537326), wk =   0.0219479
        k(    9) = (   0.0000000   0.0291459   0.0805989), wk =   0.0219479
        k(   10) = (   0.0000000   0.0291459   0.1074652), wk =   0.0219479
        k(   11) = (   0.0000000   0.0582917   0.0000000), wk =   0.0109739
        k(   12) = (   0.0000000   0.0582917   0.0268663), wk =   0.0219479
        k(   13) = (   0.0000000   0.0582917   0.0537326), wk =   0.0219479
        k(   14) = (   0.0000000   0.0582917   0.0805989), wk =   0.0219479
        k(   15) = (   0.0000000   0.0582917   0.1074652), wk =   0.0219479
        k(   16) = (   0.0000000   0.0874376   0.0000000), wk =   0.0109739
        k(   17) = (   0.0000000   0.0874376   0.0268663), wk =   0.0219479
        k(   18) = (   0.0000000   0.0874376   0.0537326), wk =   0.0219479
        k(   19) = (   0.0000000   0.0874376   0.0805989), wk =   0.0219479
        k(   20) = (   0.0000000   0.0874376   0.1074652), wk =   0.0219479
        k(   21) = (   0.0000000   0.1165834   0.0000000), wk =   0.0109739
        k(   22) = (   0.0000000   0.1165834   0.0268663), wk =   0.0219479
        k(   23) = (   0.0000000   0.1165834   0.0537326), wk =   0.0219479
        k(   24) = (   0.0000000   0.1165834   0.0805989), wk =   0.0219479
        k(   25) = (   0.0000000   0.1165834   0.1074652), wk =   0.0219479
        k(   26) = (   0.0291459   0.0291459   0.0000000), wk =   0.0109739
        k(   27) = (   0.0291459   0.0291459   0.0268663), wk =   0.0219479
        k(   28) = (   0.0291459   0.0291459   0.0537326), wk =   0.0219479
        k(   29) = (   0.0291459   0.0291459   0.0805989), wk =   0.0219479
        k(   30) = (   0.0291459   0.0291459   0.1074652), wk =   0.0219479
        k(   31) = (   0.0291459   0.0582917   0.0000000), wk =   0.0219479
        k(   32) = (   0.0291459   0.0582917   0.0268663), wk =   0.0438957
        k(   33) = (   0.0291459   0.0582917   0.0537326), wk =   0.0438957
        k(   34) = (   0.0291459   0.0582917   0.0805989), wk =   0.0438957
        k(   35) = (   0.0291459   0.0582917   0.1074652), wk =   0.0438957
        k(   36) = (   0.0291459   0.0874376   0.0000000), wk =   0.0219479
        k(   37) = (   0.0291459   0.0874376   0.0268663), wk =   0.0438957
        k(   38) = (   0.0291459   0.0874376   0.0537326), wk =   0.0438957
        k(   39) = (   0.0291459   0.0874376   0.0805989), wk =   0.0438957
        k(   40) = (   0.0291459   0.0874376   0.1074652), wk =   0.0438957
        k(   41) = (   0.0291459   0.1165834   0.0000000), wk =   0.0219479
        k(   42) = (   0.0291459   0.1165834   0.0268663), wk =   0.0438957
        k(   43) = (   0.0291459   0.1165834   0.0537326), wk =   0.0438957
        k(   44) = (   0.0291459   0.1165834   0.0805989), wk =   0.0438957
        k(   45) = (   0.0291459   0.1165834   0.1074652), wk =   0.0438957
        k(   46) = (   0.0582917   0.0582917   0.0000000), wk =   0.0109739
        k(   47) = (   0.0582917   0.0582917   0.0268663), wk =   0.0219479
        k(   48) = (   0.0582917   0.0582917   0.0537326), wk =   0.0219479
        k(   49) = (   0.0582917   0.0582917   0.0805989), wk =   0.0219479
        k(   50) = (   0.0582917   0.0582917   0.1074652), wk =   0.0219479
        k(   51) = (   0.0582917   0.0874376   0.0000000), wk =   0.0219479
        k(   52) = (   0.0582917   0.0874376   0.0268663), wk =   0.0438957
        k(   53) = (   0.0582917   0.0874376   0.0537326), wk =   0.0438957
        k(   54) = (   0.0582917   0.0874376   0.0805989), wk =   0.0438957
        k(   55) = (   0.0582917   0.0874376   0.1074652), wk =   0.0438957
        k(   56) = (   0.0582917   0.1165834   0.0000000), wk =   0.0219479
        k(   57) = (   0.0582917   0.1165834   0.0268663), wk =   0.0438957
        k(   58) = (   0.0582917   0.1165834   0.0537326), wk =   0.0438957
        k(   59) = (   0.0582917   0.1165834   0.0805989), wk =   0.0438957
        k(   60) = (   0.0582917   0.1165834   0.1074652), wk =   0.0438957
        k(   61) = (   0.0874376   0.0874376   0.0000000), wk =   0.0109739
        k(   62) = (   0.0874376   0.0874376   0.0268663), wk =   0.0219479
        k(   63) = (   0.0874376   0.0874376   0.0537326), wk =   0.0219479
        k(   64) = (   0.0874376   0.0874376   0.0805989), wk =   0.0219479
        k(   65) = (   0.0874376   0.0874376   0.1074652), wk =   0.0219479
        k(   66) = (   0.0874376   0.1165834   0.0000000), wk =   0.0219479
        k(   67) = (   0.0874376   0.1165834   0.0268663), wk =   0.0438957
        k(   68) = (   0.0874376   0.1165834   0.0537326), wk =   0.0438957
        k(   69) = (   0.0874376   0.1165834   0.0805989), wk =   0.0438957
        k(   70) = (   0.0874376   0.1165834   0.1074652), wk =   0.0438957
        k(   71) = (   0.1165834   0.1165834   0.0000000), wk =   0.0109739
        k(   72) = (   0.1165834   0.1165834   0.0268663), wk =   0.0219479
        k(   73) = (   0.1165834   0.1165834   0.0537326), wk =   0.0219479
        k(   74) = (   0.1165834   0.1165834   0.0805989), wk =   0.0219479
        k(   75) = (   0.1165834   0.1165834   0.1074652), wk =   0.0219479

     Largest allocated arrays     est. size (Mb)     dimensions
     Largest temporary arrays     est. size (Mb)     dimensions

     Initial potential from superposition of free atoms
     Check: negative starting charge=   -0.414160

     starting charge   59.99990, renormalised to   62.00000

     negative rho (up, down):  4.280E-01 0.000E+00

     *
     * You are using vdW-DF for exchange-correlation in this calculation.
     * Please cite the following three references that made this development
     * possible:
     *
     *   M. Dion, H. Rydberg, E. Schroder, D. C. Langreth, and
     *   B. I. Lundqvist, Phys. Rev. Lett. 92, 246401 (2004).
     *
     *   T. Thonhauser, V. R. Cooper, S. Li, A. Puzder, P. Hyldgaard, and
     *   D. C. Langreth, Phys. Rev. B 76, 125112 (2007).
     *
     *   G. Roman-Perez and J. M. Soler, Phys. Rev. Lett. 103, 096102 (2009).
     *
     *
     * If you are using vdW-DF2, please also cite:
     *
     *   K. Lee, E. D. Murray, L. Kong, B. I. Lundqvist, and
     *   D. C. Langreth, Phys. Rev. B 82, 081101(R) (2010).
     *
     *
     * If you are calculating the stress with vdW-DF, please also cite:
     *
     *   R. Sabatini, E. Kucukbenli, B. Kolb, T. Thonhauser, and
     *   S. de Gironcoli, J. Phys.: Condens. Matter 24, 424209 (2012).
     *

     Carrying out vdW-DF run using the following parameters:

     Nqs =      20    Nr_points =    1024   r_max =   100.000
     q_mesh =
               0.00001000     0.04494208     0.09755937     0.15916263
               0.23128650     0.31572767     0.41458969     0.53033537
               0.66584808     0.82450364     1.01025438     1.22772762
               1.48234092     1.78043706     2.12944203     2.53805004
               3.01644009     3.57652955     4.23227104     5.00000000

     Gradients computed in reciprocal space

     Starting wfc are   50 randomized atomic wfcs +    1 random wfc

     Self-consistent Calculation

     iteration #  1     ecut=    58.80 Ry     beta=0.10
     Davidson diagonalization with overlap
     ethr =  1.00E-02,  avg # of iterations =  4.5

[...]

     total energy              =    -782.88413080 Ry
     Harris-Foulkes estimate   =    -785.72205096 Ry
     estimated scf accuracy    <      16.06778268 Ry

[...]

     total energy              =    -783.95419890 Ry
     Harris-Foulkes estimate   =    -783.95420009 Ry
     estimated scf accuracy    <       0.00000595 Ry

     iteration # 11     ecut=    58.80 Ry     beta=0.10
     Davidson diagonalization with overlap
     ethr =  9.60E-09,  avg # of iterations =  2.0

     negative rho (up, down):  4.397E-01 0.000E+00

     End of self-consistent calculation

          k = 0.0000 0.0000 0.0000 (  3067 PWs)   bands (ev):

   -59.5139 -59.4180 -29.7054 -29.6578 -29.6578 -29.6464 -29.4221 -29.4221
   -21.4654 -21.4654 -21.1925 -21.0463 -20.8113 -20.8113  12.3532  14.8741
    15.0263  15.0771  15.4562  15.4562  15.5377  17.9161  18.3128  18.3128
    19.8524  19.8856  20.9003  21.0135  22.3553  22.3553  22.8078  23.2653
    23.4526  23.4526  24.1446  24.4796  24.4796  26.1561  31.3577  31.5751
    33.0059  33.5652  33.5652  33.8702  33.9762  34.4953  34.4953  36.3098
    39.9567  41.7173  42.8460

[...]

          k = 0.1166 0.1166 0.1075 (  3077 PWs)   bands (ev):

   -59.4670 -59.4641 -29.6876 -29.6806 -29.6781 -29.6765 -29.4073 -29.4001
   -21.5496 -21.5307 -21.1239 -21.1191 -20.7699 -20.7492  14.8008  14.8614
    15.3096  15.3379  17.2976  17.3560  18.1592  18.3055  18.3271  18.4386
    18.4718  18.5181  20.5387  20.5751  21.0598  21.1446  21.3741  21.9528
    22.1983  22.9324  23.3603  23.4168  23.6617  23.9319  29.4400  29.5512
    29.9585  30.3140  35.4054  35.4475  35.9129  36.0837  39.4974  39.8373
    40.8347  41.2994  41.8356

     the Fermi energy is    21.3699 ev

!    total energy              =    -783.95420747 Ry
     Harris-Foulkes estimate   =    -783.95420054 Ry
     estimated scf accuracy    <       0.00000062 Ry

     The total energy is the sum of the following terms:

     one-electron contribution =    -126.55262762 Ry
     hartree contribution      =     111.36771547 Ry
     xc contribution           =    -173.34785845 Ry
     ewald contribution        =    -595.41106885 Ry
     smearing contrib. (-TS)   =      -0.01036801 Ry

     convergence has been achieved in  11 iterations

     Forces acting on atoms (Ry/au):

     negative rho (up, down):  4.397E-01 0.000E+00
     atom    1 type  1   force =     0.00000000    0.00000000    0.00000000
     atom    2 type  1   force =     0.00000000    0.00000000    0.00000000
     atom    3 type  2   force =     0.00000000    0.00000000    0.00000000
     atom    4 type  2   force =     0.00000000    0.00000000    0.00000000

     Total force =     0.000000     Total SCF correction =     0.000000

     General routines

     Parallel routines

   This run was terminated on:   2: 0:29  15Nov2017

   JOB DONE.