     Program PWSCF v.5.1rc2 (svn rev. ) starts on 14Nov2017 at 19:34: 0

     Current dimensions of program PWSCF are:
     Max number of different atomic species (ntypx) = 10
     Max number of k-points (npk) =  40000
     Max angular momentum in pseudopotentials (lmaxx) =  3

     IMPORTANT: XC functional enforced from input :
     Exchange-correlation      = BEEF-VDW ( 1  4 27 13 2)
     Any further DFT definition will be discarded
     Please, verify this is what you really want

     Subspace diagonalization in iterative solution of the eigenvalue problem:
     a serial algorithm will be used

     Found symmetry operation: I + (  0.5000  0.5000  0.0000)
     This is a supercell, fractional translations are disabled

     bravais-lattice index     =            0
     lattice parameter (alat)  =       1.8897  a.u.
     unit-cell volume          =     531.6555 (a.u.)^3
     number of atoms/cell      =            4
     number of atomic types    =            2
     number of electrons       =        66.00
     number of Kohn-Sham states=           53
     kinetic-energy cutoff     =      58.7989  Ry
     charge density cutoff     =     587.9892  Ry
     convergence threshold     =      1.0E-06
     mixing beta               =       0.1000
     number of iterations used =           10  plain     mixing
     Exchange-correlation      = BEEF-VDW ( 1  4 27 13 2)

     celldm(1)=   1.889726  celldm(2)=   0.000000  celldm(3)=   0.000000
     celldm(4)=   0.000000  celldm(5)=   0.000000  celldm(6)=   0.000000

     crystal axes: (cart. coord. in units of alat)
               a(1) = (   4.613023   0.000000   0.000000 )
               a(2) = (   0.000000   4.613023   0.000000 )
               a(3) = (   0.000000   0.000000   3.702222 )

     reciprocal axes: (cart. coord. in units 2 pi/alat)
               b(1) = (  0.216778  0.000000  0.000000 )
               b(2) = (  0.000000  0.216778  0.000000 )
               b(3) = (  0.000000  0.000000  0.270108 )

     PseudoPot. # 1 for Cu read from file:
     /home/vossj/suncat/psp/gbrv1.5pbe/Cu.UPF
     MD5 check sum: 6e991ff952a84172a2a52a1c1e996048
     Pseudo is Ultrasoft + core correction, Zval = 19.0
     Generated by new atomic code, or converted to UPF format
     Using radial grid of  867 points,  6 beta functions with:
                l(1) =   0
                l(2) =   0
                l(3) =   1
                l(4) =   1
                l(5) =   2
                l(6) =   2
     Q(r) pseudized with  8 coefficients,  rinner =    1.150   1.150   1.150
                                                       1.150   1.150

     PseudoPot. # 2 for Sn read from file:
     /home/vossj/suncat/psp/gbrv1.5pbe/Sn.UPF
     MD5 check sum: 469debedee59599fedebd795477fea03
     Pseudo is Ultrasoft + core correction, Zval = 14.0
     Generated by new atomic code, or converted to UPF format
     Using radial grid of  891 points,  6 beta functions with:
                l(1) =   0
                l(2) =   0
                l(3) =   1
                l(4) =   1
                l(5) =   2
                l(6) =   2
     Q(r) pseudized with  8 coefficients,  rinner =    1.350   1.350   1.350
                                                       1.350   1.350

     vdW kernel table read from file vdW_kernel_table
     MD5 check sum: 095c7af220d748ca6e76c0b4c6cfb241

     atomic species   valence    mass     pseudopotential
        Cu1           19.00    63.54600     Cu( 1.00)
        Sn1           14.00   118.71000     Sn( 1.00)

     16 Sym. Ops., with inversion, found

   Cartesian axes

     site n.     atom                  positions (alat units)
         1           Cu1 tau(   1) = (   0.0000000   0.0000000   0.0000000  )
         2           Cu1 tau(   2) = (   2.3065115   2.3065115   0.0000000  )
         3           Sn1 tau(   3) = (   2.3065115   0.0000000   1.8511112  )
         4           Sn1 tau(   4) = (   0.0000000   2.3065115   1.8511112  )

     number of k points=    75  Fermi-Dirac smearing, width (Ry)=  0.0073
                       cart. coord. in units 2pi/alat
        k(    1) = (   0.0000000   0.0000000   0.0000000), wk =   0.0027435
        k(    2) = (   0.0000000   0.0000000   0.0300120), wk =   0.0054870
        k(    3) = (   0.0000000   0.0000000   0.0600240), wk =   0.0054870
        k(    4) = (   0.0000000   0.0000000   0.0900360), wk =   0.0054870
        k(    5) = (   0.0000000   0.0000000   0.1200480), wk =   0.0054870
        k(    6) = (   0.0000000   0.0240864   0.0000000), wk =   0.0109739
        k(    7) = (   0.0000000   0.0240864   0.0300120), wk =   0.0219479
        k(    8) = (   0.0000000   0.0240864   0.0600240), wk =   0.0219479
        k(    9) = (   0.0000000   0.0240864   0.0900360), wk =   0.0219479
        k(   10) = (   0.0000000   0.0240864   0.1200480), wk =   0.0219479
        k(   11) = (   0.0000000   0.0481728   0.0000000), wk =   0.0109739
        k(   12) = (   0.0000000   0.0481728   0.0300120), wk =   0.0219479
        k(   13) = (   0.0000000   0.0481728   0.0600240), wk =   0.0219479
        k(   14) = (   0.0000000   0.0481728   0.0900360), wk =   0.0219479
        k(   15) = (   0.0000000   0.0481728   0.1200480), wk =   0.0219479
        k(   16) = (   0.0000000   0.0722592   0.0000000), wk =   0.0109739
        k(   17) = (   0.0000000   0.0722592   0.0300120), wk =   0.0219479
        k(   18) = (   0.0000000   0.0722592   0.0600240), wk =   0.0219479
        k(   19) = (   0.0000000   0.0722592   0.0900360), wk =   0.0219479
        k(   20) = (   0.0000000   0.0722592   0.1200480), wk =   0.0219479
        k(   21) = (   0.0000000   0.0963456   0.0000000), wk =   0.0109739
        k(   22) = (   0.0000000   0.0963456   0.0300120), wk =   0.0219479
        k(   23) = (   0.0000000   0.0963456   0.0600240), wk =   0.0219479
        k(   24) = (   0.0000000   0.0963456   0.0900360), wk =   0.0219479
        k(   25) = (   0.0000000   0.0963456   0.1200480), wk =   0.0219479
        k(   26) = (   0.0240864   0.0240864   0.0000000), wk =   0.0109739
        k(   27) = (   0.0240864   0.0240864   0.0300120), wk =   0.0219479
        k(   28) = (   0.0240864   0.0240864   0.0600240), wk =   0.0219479
        k(   29) = (   0.0240864   0.0240864   0.0900360), wk =   0.0219479
        k(   30) = (   0.0240864   0.0240864   0.1200480), wk =   0.0219479
        k(   31) = (   0.0240864   0.0481728   0.0000000), wk =   0.0219479
        k(   32) = (   0.0240864   0.0481728   0.0300120), wk =   0.0438957
        k(   33) = (   0.0240864   0.0481728   0.0600240), wk =   0.0438957
        k(   34) = (   0.0240864   0.0481728   0.0900360), wk =   0.0438957
        k(   35) = (   0.0240864   0.0481728   0.1200480), wk =   0.0438957
        k(   36) = (   0.0240864   0.0722592   0.0000000), wk =   0.0219479
        k(   37) = (   0.0240864   0.0722592   0.0300120), wk =   0.0438957
        k(   38) = (   0.0240864   0.0722592   0.0600240), wk =   0.0438957
        k(   39) = (   0.0240864   0.0722592   0.0900360), wk =   0.0438957
        k(   40) = (   0.0240864   0.0722592   0.1200480), wk =   0.0438957
        k(   41) = (   0.0240864   0.0963456   0.0000000), wk =   0.0219479
        k(   42) = (   0.0240864   0.0963456   0.0300120), wk =   0.0438957
        k(   43) = (   0.0240864   0.0963456   0.0600240), wk =   0.0438957
        k(   44) = (   0.0240864   0.0963456   0.0900360), wk =   0.0438957
        k(   45) = (   0.0240864   0.0963456   0.1200480), wk =   0.0438957
        k(   46) = (   0.0481728   0.0481728   0.0000000), wk =   0.0109739
        k(   47) = (   0.0481728   0.0481728   0.0300120), wk =   0.0219479
        k(   48) = (   0.0481728   0.0481728   0.0600240), wk =   0.0219479
        k(   49) = (   0.0481728   0.0481728   0.0900360), wk =   0.0219479
        k(   50) = (   0.0481728   0.0481728   0.1200480), wk =   0.0219479
        k(   51) = (   0.0481728   0.0722592   0.0000000), wk =   0.0219479
        k(   52) = (   0.0481728   0.0722592   0.0300120), wk =   0.0438957
        k(   53) = (   0.0481728   0.0722592   0.0600240), wk =   0.0438957
        k(   54) = (   0.0481728   0.0722592   0.0900360), wk =   0.0438957
        k(   55) = (   0.0481728   0.0722592   0.1200480), wk =   0.0438957
        k(   56) = (   0.0481728   0.0963456   0.0000000), wk =   0.0219479
        k(   57) = (   0.0481728   0.0963456   0.0300120), wk =   0.0438957
        k(   58) = (   0.0481728   0.0963456   0.0600240), wk =   0.0438957
        k(   59) = (   0.0481728   0.0963456   0.0900360), wk =   0.0438957
        k(   60) = (   0.0481728   0.0963456   0.1200480), wk =   0.0438957
        k(   61) = (   0.0722592   0.0722592   0.0000000), wk =   0.0109739
        k(   62) = (   0.0722592   0.0722592   0.0300120), wk =   0.0219479
        k(   63) = (   0.0722592   0.0722592   0.0600240), wk =   0.0219479
        k(   64) = (   0.0722592   0.0722592   0.0900360), wk =   0.0219479
        k(   65) = (   0.0722592   0.0722592   0.1200480), wk =   0.0219479
        k(   66) = (   0.0722592   0.0963456   0.0000000), wk =   0.0219479
        k(   67) = (   0.0722592   0.0963456   0.0300120), wk =   0.0438957
        k(   68) = (   0.0722592   0.0963456   0.0600240), wk =   0.0438957
        k(   69) = (   0.0722592   0.0963456   0.0900360), wk =   0.0438957
        k(   70) = (   0.0722592   0.0963456   0.1200480), wk =   0.0438957
        k(   71) = (   0.0963456   0.0963456   0.0000000), wk =   0.0109739
        k(   72) = (   0.0963456   0.0963456   0.0300120), wk =   0.0219479
        k(   73) = (   0.0963456   0.0963456   0.0600240), wk =   0.0219479
        k(   74) = (   0.0963456   0.0963456   0.0900360), wk =   0.0219479
        k(   75) = (   0.0963456   0.0963456   0.1200480), wk =   0.0219479

     Largest allocated arrays     est. size (Mb)     dimensions
     Largest temporary arrays     est. size (Mb)     dimensions

     Initial potential from superposition of free atoms

     starting charge   61.99991, renormalised to   66.00000

     *
     * You are using vdW-DF for exchange-correlation in this calculation.
     * Please cite the following three references that made this development
     * possible:
     *
     *   M. Dion, H. Rydberg, E. Schroder, D. C. Langreth, and
     *   B. I. Lundqvist, Phys. Rev. Lett. 92, 246401 (2004).
     *
     *   T. Thonhauser, V. R. Cooper, S. Li, A. Puzder, P. Hyldgaard, and
     *   D. C. Langreth, Phys. Rev. B 76, 125112 (2007).
     *
     *   G. Roman-Perez and J. M. Soler, Phys. Rev. Lett. 103, 096102 (2009).
     *
     *
     * If you are using vdW-DF2, please also cite:
     *
     *   K. Lee, E. D. Murray, L. Kong, B. I. Lundqvist, and
     *   D. C. Langreth, Phys. Rev. B 82, 081101(R) (2010).
     *
     *
     * If you are calculating the stress with vdW-DF, please also cite:
     *
     *   R. Sabatini, E. Kucukbenli, B. Kolb, T. Thonhauser, and
     *   S. de Gironcoli, J. Phys.: Condens. Matter 24, 424209 (2012).
     *

     Carrying out vdW-DF run using the following parameters:

     Nqs =      20    Nr_points =    1024   r_max =   100.000
     q_mesh =
               0.00001000     0.04494208     0.09755937     0.15916263
               0.23128650     0.31572767     0.41458969     0.53033537
               0.66584808     0.82450364     1.01025438     1.22772762
               1.48234092     1.78043706     2.12944203     2.53805004
               3.01644009     3.57652955     4.23227104     5.00000000

     Gradients computed in reciprocal space

     Starting wfc are   44 randomized atomic wfcs +    9 random wfc

     Self-consistent Calculation

     iteration #  1     ecut=    58.80 Ry     beta=0.10
     Davidson diagonalization with overlap
     ethr =  1.00E-02,  avg # of iterations =  5.2

     total energy              =   -1128.13845177 Ry
     Harris-Foulkes estimate   =   -1135.70592861 Ry
     estimated scf accuracy    <      42.75078796 Ry

[...]

     total energy              =   -1131.29447762 Ry
     Harris-Foulkes estimate   =   -1131.29446121 Ry
     estimated scf accuracy    <       0.00002367 Ry

     iteration # 11     ecut=    58.80 Ry     beta=0.10
     Davidson diagonalization with overlap
     ethr =  3.59E-08,  avg # of iterations =  1.5

     End of self-consistent calculation

          k = 0.0000 0.0000 0.0000 (  4069 PWs)   bands (ev):

  -100.4722-100.4720 -57.8933 -57.8930 -57.8712 -57.8712 -57.8691 -57.8691
    -9.7986  -9.7294  -9.7159  -9.6607  -9.6607  -9.6124  -9.6033  -9.6033
    -9.5923  -9.5110   1.4447   6.4415   8.9591   8.9889   9.0788   9.1388
     9.1388   9.2722   9.2722   9.5044   9.5044   9.6109   9.8109  10.5026
    12.2890  12.4583  15.3262  15.4105  15.4105  17.5230  19.5108  19.8152
    20.4172  20.4172  20.7025  23.1759  23.3799  23.3799  25.0545  26.2984
    26.8757  26.8758  27.2880  29.7655  30.0341

[...]

          k = 0.0963 0.0963 0.1200 (  4039 PWs)   bands (ev):

  -100.4721-100.4721 -57.8935 -57.8935 -57.8714 -57.8713 -57.8690 -57.8689
    -9.7181  -9.7113  -9.6938  -9.6919  -9.6510  -9.6470  -9.6143  -9.6124
    -9.5511  -9.5460   5.2577   5.4450   8.1661   8.2381   8.7487   8.9403
     9.0148   9.1567   9.4167   9.4414   9.4772   9.5260   9.6960   9.7011
    10.4486  10.4777  11.6165  11.9026  19.0072  19.3698  21.8156  22.3945
    22.5057  22.7951  22.8472  23.0327  25.2081  25.3866  25.5536  26.0453
    26.3446  26.7643  27.9613  28.4151  28.8060

     the Fermi energy is    12.2792 ev

!    total energy              =   -1131.29456817 Ry
     Harris-Foulkes estimate   =   -1131.29448097 Ry
     estimated scf accuracy    <       0.00000022 Ry

     The total energy is the sum of the following terms:

     one-electron contribution =    -757.93823373 Ry
     hartree contribution      =     419.87506451 Ry
     xc contribution           =    -169.14788054 Ry
     ewald contribution        =    -624.07968600 Ry
     smearing contrib. (-TS)   =      -0.00383241 Ry

     convergence has been achieved in  11 iterations

     Forces acting on atoms (Ry/au):

     atom    1 type  1   force =     0.00000000    0.00000000    0.00000000
     atom    2 type  1   force =     0.00000000    0.00000000    0.00000000
     atom    3 type  2   force =     0.00000000    0.00000000    0.00000000
     atom    4 type  2   force =     0.00000000    0.00000000    0.00000000

     Total force =     0.000000     Total SCF correction =     0.000000

     General routines

     Parallel routines

   This run was terminated on:  19:35: 1  14Nov2017

   JOB DONE.