     Program PWSCF v.5.1rc2 starts on 15Nov2017 at  6:45:31

     Current dimensions of program PWSCF are:
     Max number of different atomic species (ntypx) = 10
     Max number of k-points (npk) =  40000
     Max angular momentum in pseudopotentials (lmaxx) =  3

     IMPORTANT: XC functional enforced from input :
     Exchange-correlation      = BEEF-VDW ( 1  4 27 13 2)
     Any further DFT definition will be discarded
     Please, verify this is what you really want

     Found symmetry operation: I + ( -0.5000 -0.5000  0.0000)
     This is a supercell, fractional translations are disabled

     bravais-lattice index     =            0
     lattice parameter (alat)  =       1.8897  a.u.
     unit-cell volume          =     370.4769 (a.u.)^3
     number of atoms/cell      =            4
     number of atomic types    =            2
     number of electrons       =        60.00
     number of Kohn-Sham states=           50
     kinetic-energy cutoff     =      58.7989  Ry
     charge density cutoff     =     587.9892  Ry
     convergence threshold     =      1.0E-06
     mixing beta               =       0.1000
     number of iterations used =           10  plain     mixing
     Exchange-correlation      = BEEF-VDW ( 1  4 27 13 2)

     celldm(1)=   1.889726  celldm(2)=   0.000000  celldm(3)=   0.000000
     celldm(4)=   0.000000  celldm(5)=   0.000000  celldm(6)=   0.000000

     crystal axes: (cart. coord. in units of alat)
               a(1) = (   4.317355   0.000000   0.000000 )
               a(2) = (   0.000000   4.317355   0.000000 )
               a(3) = (   0.000000   0.000000   2.945297 )

     reciprocal axes: (cart. coord. in units 2 pi/alat)
               b(1) = (  0.231623  0.000000  0.000000 )
               b(2) = (  0.000000  0.231623  0.000000 )
               b(3) = (  0.000000  0.000000  0.339524 )

     PseudoPot. # 1 for Ti read from file:
     /home/users/vossj/suncat/psp/gbrv1.5pbe/Ti.UPF
     MD5 check sum: 88a00a6731bd790ddea75d31a80cb452
     Pseudo is Ultrasoft + core correction, Zval = 12.0
     Generated by new atomic code, or converted to UPF format
     Using radial grid of  851 points,  6 beta functions with:
                l(1) =   0
                l(2) =   0
                l(3) =   1
                l(4) =   1
                l(5) =   2
                l(6) =   2
     Q(r) pseudized with  6 coefficients,  rinner =    1.000   1.000   1.000
                                                       1.000   1.000

     PseudoPot. # 2 for Ni read from file:
     /home/users/vossj/suncat/psp/gbrv1.5pbe/Ni.UPF
     MD5 check sum: 1ee80287db30b12d2bc1f57a5b5d6409
     Pseudo is Ultrasoft + core correction, Zval = 18.0
     Generated by new atomic code, or converted to UPF format
     Using radial grid of  865 points,  6 beta functions with:
                l(1) =   0
                l(2) =   0
                l(3) =   1
                l(4) =   1
                l(5) =   2
                l(6) =   2
     Q(r) pseudized with 10 coefficients,  rinner =    0.980   0.980   0.980
                                                       0.980   0.980

     vdW kernel table read from file vdW_kernel_table
     MD5 check sum: 095c7af220d748ca6e76c0b4c6cfb241

     atomic species   valence    mass     pseudopotential
        Ti1           12.00    47.88000     Ti( 1.00)
        Ni1           18.00    58.69340     Ni( 1.00)

     16 Sym. Ops., with inversion, found

   Cartesian axes

     site n.     atom                  positions (alat units)
         1           Ti1 tau(   1) = (   0.0000000   0.0000000   0.0000000  )
         2           Ti1 tau(   2) = (   2.1586774   2.1586774   0.0000000  )
         3           Ni1 tau(   3) = (   2.1586774   0.0000000   1.4726484  )
         4           Ni1 tau(   4) = (   0.0000000   2.1586774   1.4726484  )

     number of k points=    75  Fermi-Dirac smearing, width (Ry)=  0.0073
                       cart. coord. in units 2pi/alat
        k(    1) = (   0.0000000   0.0000000   0.0000000), wk =   0.0027435
        k(    2) = (   0.0000000   0.0000000   0.0377249), wk =   0.0054870
        k(    3) = (   0.0000000   0.0000000   0.0754499), wk =   0.0054870
        k(    4) = (   0.0000000   0.0000000   0.1131748), wk =   0.0054870
        k(    5) = (   0.0000000   0.0000000   0.1508997), wk =   0.0054870
        k(    6) = (   0.0000000   0.0257359   0.0000000), wk =   0.0109739
        k(    7) = (   0.0000000   0.0257359   0.0377249), wk =   0.0219479
        k(    8) = (   0.0000000   0.0257359   0.0754499), wk =   0.0219479
        k(    9) = (   0.0000000   0.0257359   0.1131748), wk =   0.0219479
        k(   10) = (   0.0000000   0.0257359   0.1508997), wk =   0.0219479
        k(   11) = (   0.0000000   0.0514718   0.0000000), wk =   0.0109739
        k(   12) = (   0.0000000   0.0514718   0.0377249), wk =   0.0219479
        k(   13) = (   0.0000000   0.0514718   0.0754499), wk =   0.0219479
        k(   14) = (   0.0000000   0.0514718   0.1131748), wk =   0.0219479
        k(   15) = (   0.0000000   0.0514718   0.1508997), wk =   0.0219479
        k(   16) = (   0.0000000   0.0772078   0.0000000), wk =   0.0109739
        k(   17) = (   0.0000000   0.0772078   0.0377249), wk =   0.0219479
        k(   18) = (   0.0000000   0.0772078   0.0754499), wk =   0.0219479
        k(   19) = (   0.0000000   0.0772078   0.1131748), wk =   0.0219479
        k(   20) = (   0.0000000   0.0772078   0.1508997), wk =   0.0219479
        k(   21) = (   0.0000000   0.1029437   0.0000000), wk =   0.0109739
        k(   22) = (   0.0000000   0.1029437   0.0377249), wk =   0.0219479
        k(   23) = (   0.0000000   0.1029437   0.0754499), wk =   0.0219479
        k(   24) = (   0.0000000   0.1029437   0.1131748), wk =   0.0219479
        k(   25) = (   0.0000000   0.1029437   0.1508997), wk =   0.0219479
        k(   26) = (   0.0257359   0.0257359   0.0000000), wk =   0.0109739
        k(   27) = (   0.0257359   0.0257359   0.0377249), wk =   0.0219479
        k(   28) = (   0.0257359   0.0257359   0.0754499), wk =   0.0219479
        k(   29) = (   0.0257359   0.0257359   0.1131748), wk =   0.0219479
        k(   30) = (   0.0257359   0.0257359   0.1508997), wk =   0.0219479
        k(   31) = (   0.0257359   0.0514718   0.0000000), wk =   0.0219479
        k(   32) = (   0.0257359   0.0514718   0.0377249), wk =   0.0438957
        k(   33) = (   0.0257359   0.0514718   0.0754499), wk =   0.0438957
        k(   34) = (   0.0257359   0.0514718   0.1131748), wk =   0.0438957
        k(   35) = (   0.0257359   0.0514718   0.1508997), wk =   0.0438957
        k(   36) = (   0.0257359   0.0772078   0.0000000), wk =   0.0219479
        k(   37) = (   0.0257359   0.0772078   0.0377249), wk =   0.0438957
        k(   38) = (   0.0257359   0.0772078   0.0754499), wk =   0.0438957
        k(   39) = (   0.0257359   0.0772078   0.1131748), wk =   0.0438957
        k(   40) = (   0.0257359   0.0772078   0.1508997), wk =   0.0438957
        k(   41) = (   0.0257359   0.1029437   0.0000000), wk =   0.0219479
        k(   42) = (   0.0257359   0.1029437   0.0377249), wk =   0.0438957
        k(   43) = (   0.0257359   0.1029437   0.0754499), wk =   0.0438957
        k(   44) = (   0.0257359   0.1029437   0.1131748), wk =   0.0438957
        k(   45) = (   0.0257359   0.1029437   0.1508997), wk =   0.0438957
        k(   46) = (   0.0514718   0.0514718   0.0000000), wk =   0.0109739
        k(   47) = (   0.0514718   0.0514718   0.0377249), wk =   0.0219479
        k(   48) = (   0.0514718   0.0514718   0.0754499), wk =   0.0219479
        k(   49) = (   0.0514718   0.0514718   0.1131748), wk =   0.0219479
        k(   50) = (   0.0514718   0.0514718   0.1508997), wk =   0.0219479
        k(   51) = (   0.0514718   0.0772078   0.0000000), wk =   0.0219479
        k(   52) = (   0.0514718   0.0772078   0.0377249), wk =   0.0438957
        k(   53) = (   0.0514718   0.0772078   0.0754499), wk =   0.0438957
        k(   54) = (   0.0514718   0.0772078   0.1131748), wk =   0.0438957
        k(   55) = (   0.0514718   0.0772078   0.1508997), wk =   0.0438957
        k(   56) = (   0.0514718   0.1029437   0.0000000), wk =   0.0219479
        k(   57) = (   0.0514718   0.1029437   0.0377249), wk =   0.0438957
        k(   58) = (   0.0514718   0.1029437   0.0754499), wk =   0.0438957
        k(   59) = (   0.0514718   0.1029437   0.1131748), wk =   0.0438957
        k(   60) = (   0.0514718   0.1029437   0.1508997), wk =   0.0438957
        k(   61) = (   0.0772078   0.0772078   0.0000000), wk =   0.0109739
        k(   62) = (   0.0772078   0.0772078   0.0377249), wk =   0.0219479
        k(   63) = (   0.0772078   0.0772078   0.0754499), wk =   0.0219479
        k(   64) = (   0.0772078   0.0772078   0.1131748), wk =   0.0219479
        k(   65) = (   0.0772078   0.0772078   0.1508997), wk =   0.0219479
        k(   66) = (   0.0772078   0.1029437   0.0000000), wk =   0.0219479
        k(   67) = (   0.0772078   0.1029437   0.0377249), wk =   0.0438957
        k(   68) = (   0.0772078   0.1029437   0.0754499), wk =   0.0438957
        k(   69) = (   0.0772078   0.1029437   0.1131748), wk =   0.0438957
        k(   70) = (   0.0772078   0.1029437   0.1508997), wk =   0.0438957
        k(   71) = (   0.1029437   0.1029437   0.0000000), wk =   0.0109739
        k(   72) = (   0.1029437   0.1029437   0.0377249), wk =   0.0219479
        k(   73) = (   0.1029437   0.1029437   0.0754499), wk =   0.0219479
        k(   74) = (   0.1029437   0.1029437   0.1131748), wk =   0.0219479
        k(   75) = (   0.1029437   0.1029437   0.1508997), wk =   0.0219479

     Largest allocated arrays     est. size (Mb)     dimensions
     Largest temporary arrays     est. size (Mb)     dimensions

     Check: negative/imaginary core charge=   -0.000007    0.000000

     Initial potential from superposition of free atoms
     Check: negative starting charge=   -0.002707

     starting charge   53.99991, renormalised to   60.00000

     negative rho (up, down):  3.007E-03 0.000E+00

     *
     * You are using vdW-DF for exchange-correlation in this calculation.
     * Please cite the following three references that made this development
     * possible:
     *
     *   M. Dion, H. Rydberg, E. Schroder, D. C. Langreth, and
     *   B. I. Lundqvist, Phys. Rev. Lett. 92, 246401 (2004).
     *
     *   T. Thonhauser, V. R. Cooper, S. Li, A. Puzder, P. Hyldgaard, and
     *   D. C. Langreth, Phys. Rev. B 76, 125112 (2007).
     *
     *   G. Roman-Perez and J. M. Soler, Phys. Rev. Lett. 103, 096102 (2009).
     *
     *
     * If you are using vdW-DF2, please also cite:
     *
     *   K. Lee, E. D. Murray, L. Kong, B. I. Lundqvist, and
     *   D. C. Langreth, Phys. Rev. B 82, 081101(R) (2010).
     *
     *
     * If you are calculating the stress with vdW-DF, please also cite:
     *
     *   R. Sabatini, E. Kucukbenli, B. Kolb, T. Thonhauser, and
     *   S. de Gironcoli, J. Phys.: Condens. Matter 24, 424209 (2012).
     *

     Carrying out vdW-DF run using the following parameters:

     Nqs =      20    Nr_points =    1024   r_max =   100.000
     q_mesh =
               0.00001000     0.04494208     0.09755937     0.15916263
               0.23128650     0.31572767     0.41458969     0.53033537
               0.66584808     0.82450364     1.01025438     1.22772762
               1.48234092     1.78043706     2.12944203     2.53805004
               3.01644009     3.57652955     4.23227104     5.00000000

     Gradients computed in reciprocal space

     Starting wfc are   46 randomized atomic wfcs +    4 random wfc

     Self-consistent Calculation

     iteration #  1     ecut=    58.80 Ry     beta=0.10
     Davidson diagonalization with overlap
     ethr =  1.00E-02,  avg # of iterations =  4.2

[...]

     total energy              =    -928.55750799 Ry
     Harris-Foulkes estimate   =    -952.66107574 Ry
     estimated scf accuracy    <     133.88115139 Ry

[...]

     total energy              =    -928.85906299 Ry
     Harris-Foulkes estimate   =    -928.85906294 Ry
     estimated scf accuracy    <       0.00000219 Ry

     iteration # 21     ecut=    58.80 Ry     beta=0.10
     Davidson diagonalization with overlap
     ethr =  3.65E-09,  avg # of iterations =  1.0

     negative rho (up, down):  1.508E-03 0.000E+00

     End of self-consistent calculation

          k = 0.0000 0.0000 0.0000 (  2781 PWs)   bands (ev):

   -88.1056 -88.1045 -48.4937 -48.4937 -48.4841 -48.4841 -48.4718 -48.4702
   -41.8492 -41.8040 -18.1451 -18.1451 -17.9453 -17.9453 -17.8813 -17.8439
     7.9226  11.1916  11.7594  11.7842  11.8318  13.0081  13.0081  13.5150
    13.6455  13.6455  14.2248  14.6794  15.8463  15.8981  15.8981  16.0410
    16.2031  17.7508  17.7508  17.9391  18.0070  18.0070  18.3153  22.9209
    23.6281  23.7658  23.7658  24.9556  30.0308  30.5418  31.2022  31.5616
    31.5616  33.7864

[...]

          k = 0.1029 0.1029 0.1509 (  2833 PWs)   bands (ev):

   -88.1041 -88.1041 -48.4932 -48.4929 -48.4869 -48.4868 -48.4823 -48.4820
   -41.7938 -41.7925 -18.1594 -18.1576 -18.1341 -18.1284 -17.9044 -17.8985
    11.2539  11.2852  11.7861  11.8038  12.8262  12.8339  12.8366  12.8719
    14.1405  14.2137  14.7219  14.7827  15.7860  15.8750  16.0467  16.1822
    16.5618  16.5747  17.5649  17.6925  17.8154  17.9132  18.5807  18.6549
    23.2698  23.3167  24.1244  24.3112  29.7660  30.2137  30.8841  30.8859
    30.9408  31.1654

     the Fermi energy is    15.5283 ev

!    total energy              =    -928.85906395 Ry
     Harris-Foulkes estimate   =    -928.85906307 Ry
     estimated scf accuracy    <       0.00000021 Ry

     The total energy is the sum of the following terms:

     one-electron contribution =    -522.73528596 Ry
     hartree contribution      =     292.41903226 Ry
     xc contribution           =    -111.13721339 Ry
     ewald contribution        =    -587.39162909 Ry
     smearing contrib. (-TS)   =      -0.01396777 Ry

     convergence has been achieved in  21 iterations

     Forces acting on atoms (Ry/au):

     negative rho (up, down):  1.508E-03 0.000E+00
     atom    1 type  1   force =     0.00000000    0.00000000    0.00000000
     atom    2 type  1   force =     0.00000000    0.00000000    0.00000000
     atom    3 type  2   force =     0.00000000    0.00000000    0.00000000
     atom    4 type  2   force =     0.00000000    0.00000000    0.00000000

     Total force =     0.000000     Total SCF correction =     0.000000

     General routines

     Parallel routines

   This run was terminated on:   6:46:27  15Nov2017

   JOB DONE.