     Program PWSCF v.5.1rc2 starts on 14Nov2017 at 13:20:48

     Current dimensions of program PWSCF are:
     Max number of different atomic species (ntypx) = 10
     Max number of k-points (npk) =  40000
     Max angular momentum in pseudopotentials (lmaxx) =  3

     IMPORTANT: XC functional enforced from input :
     Exchange-correlation      = BEEF-VDW ( 1  4 27 13 2)
     Any further DFT definition will be discarded
     Please, verify this is what you really want

     Found symmetry operation: I + (  0.5000  0.5000  0.0000)
     This is a supercell, fractional translations are disabled

     bravais-lattice index     =            0
     lattice parameter (alat)  =       1.8897  a.u.
     unit-cell volume          =     419.7697 (a.u.)^3
     number of atoms/cell      =            4
     number of atomic types    =            2
     number of electrons       =        70.00
     number of Kohn-Sham states=           55
     kinetic-energy cutoff     =      58.7989  Ry
     charge density cutoff     =     587.9892  Ry
     convergence threshold     =      1.0E-06
     mixing beta               =       0.1000
     number of iterations used =           10  plain     mixing
     Exchange-correlation      = BEEF-VDW ( 1  4 27 13 2)

     celldm(1)=   1.889726  celldm(2)=   0.000000  celldm(3)=   0.000000
     celldm(4)=   0.000000  celldm(5)=   0.000000  celldm(6)=   0.000000

     crystal axes: (cart. coord. in units of alat)
               a(1) = (   4.462093   0.000000   0.000000 )
               a(2) = (   0.000000   4.462093   0.000000 )
               a(3) = (   0.000000   0.000000   3.124189 )

     reciprocal axes: (cart. coord. in units 2 pi/alat)
               b(1) = (  0.224110  0.000000  0.000000 )
               b(2) = (  0.000000  0.224110  0.000000 )
               b(3) = (  0.000000  0.000000  0.320083 )

     PseudoPot. # 1 for Ga read from file:
     /home/users/vossj/suncat/psp/gbrv1.5pbe/Ga.UPF
     MD5 check sum: ccd671392a58a050fbb373893b4fcd66
     Pseudo is Ultrasoft + core correction, Zval = 19.0
     Generated by new atomic code, or converted to UPF format
     Using radial grid of  871 points,  6 beta functions with:
                l(1) =   0
                l(2) =   0
                l(3) =   1
                l(4) =   1
                l(5) =   2
                l(6) =   2
     Q(r) pseudized with  8 coefficients,  rinner =    1.250   1.250   1.250
                                                       1.250   1.250

     PseudoPot. # 2 for Pt read from file:
     /home/users/vossj/suncat/psp/gbrv1.5pbe/Pt.UPF
     MD5 check sum: f09d6de1a584b5a045c4fc126da2d0c4
     Pseudo is Ultrasoft + core correction, Zval = 16.0
     Generated by new atomic code, or converted to UPF format
     Using radial grid of  985 points,  6 beta functions with:
                l(1) =   0
                l(2) =   0
                l(3) =   1
                l(4) =   1
                l(5) =   2
                l(6) =   2
     Q(r) pseudized with  8 coefficients,  rinner =    1.300   1.300   1.300
                                                       1.300   1.300

     vdW kernel table read from file vdW_kernel_table
     MD5 check sum: 095c7af220d748ca6e76c0b4c6cfb241

     atomic species   valence    mass     pseudopotential
        Ga1           19.00    69.72300     Ga( 1.00)
        Pt1           16.00   195.08000     Pt( 1.00)

     16 Sym. Ops., with inversion, found

   Cartesian axes

     site n.     atom                  positions (alat units)
         1           Ga1 tau(   1) = (   0.0000000   0.0000000   0.0000000  )
         2           Ga1 tau(   2) = (   2.2310464   2.2310464   0.0000000  )
         3           Pt1 tau(   3) = (   2.2310464   0.0000000   1.5620945  )
         4           Pt1 tau(   4) = (   0.0000000   2.2310464   1.5620945  )

     number of k points=    75  Fermi-Dirac smearing, width (Ry)=  0.0073
                       cart. coord. in units 2pi/alat
        k(    1) = (   0.0000000   0.0000000   0.0000000), wk =   0.0027435
        k(    2) = (   0.0000000   0.0000000   0.0355648), wk =   0.0054870
        k(    3) = (   0.0000000   0.0000000   0.0711296), wk =   0.0054870
        k(    4) = (   0.0000000   0.0000000   0.1066944), wk =   0.0054870
        k(    5) = (   0.0000000   0.0000000   0.1422591), wk =   0.0054870
        k(    6) = (   0.0000000   0.0249011   0.0000000), wk =   0.0109739
        k(    7) = (   0.0000000   0.0249011   0.0355648), wk =   0.0219479
        k(    8) = (   0.0000000   0.0249011   0.0711296), wk =   0.0219479
        k(    9) = (   0.0000000   0.0249011   0.1066944), wk =   0.0219479
        k(   10) = (   0.0000000   0.0249011   0.1422591), wk =   0.0219479
        k(   11) = (   0.0000000   0.0498022   0.0000000), wk =   0.0109739
        k(   12) = (   0.0000000   0.0498022   0.0355648), wk =   0.0219479
        k(   13) = (   0.0000000   0.0498022   0.0711296), wk =   0.0219479
        k(   14) = (   0.0000000   0.0498022   0.1066944), wk =   0.0219479
        k(   15) = (   0.0000000   0.0498022   0.1422591), wk =   0.0219479
        k(   16) = (   0.0000000   0.0747034   0.0000000), wk =   0.0109739
        k(   17) = (   0.0000000   0.0747034   0.0355648), wk =   0.0219479
        k(   18) = (   0.0000000   0.0747034   0.0711296), wk =   0.0219479
        k(   19) = (   0.0000000   0.0747034   0.1066944), wk =   0.0219479
        k(   20) = (   0.0000000   0.0747034   0.1422591), wk =   0.0219479
        k(   21) = (   0.0000000   0.0996045   0.0000000), wk =   0.0109739
        k(   22) = (   0.0000000   0.0996045   0.0355648), wk =   0.0219479
        k(   23) = (   0.0000000   0.0996045   0.0711296), wk =   0.0219479
        k(   24) = (   0.0000000   0.0996045   0.1066944), wk =   0.0219479
        k(   25) = (   0.0000000   0.0996045   0.1422591), wk =   0.0219479
        k(   26) = (   0.0249011   0.0249011   0.0000000), wk =   0.0109739
        k(   27) = (   0.0249011   0.0249011   0.0355648), wk =   0.0219479
        k(   28) = (   0.0249011   0.0249011   0.0711296), wk =   0.0219479
        k(   29) = (   0.0249011   0.0249011   0.1066944), wk =   0.0219479
        k(   30) = (   0.0249011   0.0249011   0.1422591), wk =   0.0219479
        k(   31) = (   0.0249011   0.0498022   0.0000000), wk =   0.0219479
        k(   32) = (   0.0249011   0.0498022   0.0355648), wk =   0.0438957
        k(   33) = (   0.0249011   0.0498022   0.0711296), wk =   0.0438957
        k(   34) = (   0.0249011   0.0498022   0.1066944), wk =   0.0438957
        k(   35) = (   0.0249011   0.0498022   0.1422591), wk =   0.0438957
        k(   36) = (   0.0249011   0.0747034   0.0000000), wk =   0.0219479
        k(   37) = (   0.0249011   0.0747034   0.0355648), wk =   0.0438957
        k(   38) = (   0.0249011   0.0747034   0.0711296), wk =   0.0438957
        k(   39) = (   0.0249011   0.0747034   0.1066944), wk =   0.0438957
        k(   40) = (   0.0249011   0.0747034   0.1422591), wk =   0.0438957
        k(   41) = (   0.0249011   0.0996045   0.0000000), wk =   0.0219479
        k(   42) = (   0.0249011   0.0996045   0.0355648), wk =   0.0438957
        k(   43) = (   0.0249011   0.0996045   0.0711296), wk =   0.0438957
        k(   44) = (   0.0249011   0.0996045   0.1066944), wk =   0.0438957
        k(   45) = (   0.0249011   0.0996045   0.1422591), wk =   0.0438957
        k(   46) = (   0.0498022   0.0498022   0.0000000), wk =   0.0109739
        k(   47) = (   0.0498022   0.0498022   0.0355648), wk =   0.0219479
        k(   48) = (   0.0498022   0.0498022   0.0711296), wk =   0.0219479
        k(   49) = (   0.0498022   0.0498022   0.1066944), wk =   0.0219479
        k(   50) = (   0.0498022   0.0498022   0.1422591), wk =   0.0219479
        k(   51) = (   0.0498022   0.0747034   0.0000000), wk =   0.0219479
        k(   52) = (   0.0498022   0.0747034   0.0355648), wk =   0.0438957
        k(   53) = (   0.0498022   0.0747034   0.0711296), wk =   0.0438957
        k(   54) = (   0.0498022   0.0747034   0.1066944), wk =   0.0438957
        k(   55) = (   0.0498022   0.0747034   0.1422591), wk =   0.0438957
        k(   56) = (   0.0498022   0.0996045   0.0000000), wk =   0.0219479
        k(   57) = (   0.0498022   0.0996045   0.0355648), wk =   0.0438957
        k(   58) = (   0.0498022   0.0996045   0.0711296), wk =   0.0438957
        k(   59) = (   0.0498022   0.0996045   0.1066944), wk =   0.0438957
        k(   60) = (   0.0498022   0.0996045   0.1422591), wk =   0.0438957
        k(   61) = (   0.0747034   0.0747034   0.0000000), wk =   0.0109739
        k(   62) = (   0.0747034   0.0747034   0.0355648), wk =   0.0219479
        k(   63) = (   0.0747034   0.0747034   0.0711296), wk =   0.0219479
        k(   64) = (   0.0747034   0.0747034   0.1066944), wk =   0.0219479
        k(   65) = (   0.0747034   0.0747034   0.1422591), wk =   0.0219479
        k(   66) = (   0.0747034   0.0996045   0.0000000), wk =   0.0219479
        k(   67) = (   0.0747034   0.0996045   0.0355648), wk =   0.0438957
        k(   68) = (   0.0747034   0.0996045   0.0711296), wk =   0.0438957
        k(   69) = (   0.0747034   0.0996045   0.1066944), wk =   0.0438957
        k(   70) = (   0.0747034   0.0996045   0.1422591), wk =   0.0438957
        k(   71) = (   0.0996045   0.0996045   0.0000000), wk =   0.0109739
        k(   72) = (   0.0996045   0.0996045   0.0355648), wk =   0.0219479
        k(   73) = (   0.0996045   0.0996045   0.0711296), wk =   0.0219479
        k(   74) = (   0.0996045   0.0996045   0.1066944), wk =   0.0219479
        k(   75) = (   0.0996045   0.0996045   0.1422591), wk =   0.0219479

     Largest allocated arrays     est. size (Mb)     dimensions
     Largest temporary arrays     est. size (Mb)     dimensions

     Initial potential from superposition of free atoms
     Check: negative starting charge=   -0.367654

     starting charge   66.99998, renormalised to   70.00000

     negative rho (up, down):  3.841E-01 0.000E+00

     *
     * You are using vdW-DF for exchange-correlation in this calculation.
     * Please cite the following three references that made this development
     * possible:
     *
     *   M. Dion, H. Rydberg, E. Schroder, D. C. Langreth, and
     *   B. I. Lundqvist, Phys. Rev. Lett. 92, 246401 (2004).
     *
     *   T. Thonhauser, V. R. Cooper, S. Li, A. Puzder, P. Hyldgaard, and
     *   D. C. Langreth, Phys. Rev. B 76, 125112 (2007).
     *
     *   G. Roman-Perez and J. M. Soler, Phys. Rev. Lett. 103, 096102 (2009).
     *
     *
     * If you are using vdW-DF2, please also cite:
     *
     *   K. Lee, E. D. Murray, L. Kong, B. I. Lundqvist, and
     *   D. C. Langreth, Phys. Rev. B 82, 081101(R) (2010).
     *
     *
     * If you are calculating the stress with vdW-DF, please also cite:
     *
     *   R. Sabatini, E. Kucukbenli, B. Kolb, T. Thonhauser, and
     *   S. de Gironcoli, J. Phys.: Condens. Matter 24, 424209 (2012).
     *

     Carrying out vdW-DF run using the following parameters:

     Nqs =      20    Nr_points =    1024   r_max =   100.000
     q_mesh =
               0.00001000     0.04494208     0.09755937     0.15916263
               0.23128650     0.31572767     0.41458969     0.53033537
               0.66584808     0.82450364     1.01025438     1.22772762
               1.48234092     1.78043706     2.12944203     2.53805004
               3.01644009     3.57652955     4.23227104     5.00000000

     Gradients computed in reciprocal space

     Starting wfc are   48 randomized atomic wfcs +    7 random wfc

     Self-consistent Calculation

     iteration #  1     ecut=    58.80 Ry     beta=0.10
     Davidson diagonalization with overlap
     ethr =  1.00E-02,  avg # of iterations =  4.8

[...]

     total energy              =   -1259.09021333 Ry
     Harris-Foulkes estimate   =   -1260.77312501 Ry
     estimated scf accuracy    <       9.89460057 Ry

[...]

     total energy              =   -1258.08457602 Ry
     Harris-Foulkes estimate   =   -1258.08457294 Ry
     estimated scf accuracy    <       0.00000112 Ry

     iteration # 11     ecut=    58.80 Ry     beta=0.10
     Davidson diagonalization with overlap
     ethr =  1.60E-09,  avg # of iterations =  2.0

     negative rho (up, down):  3.542E-01 0.000E+00

     End of self-consistent calculation

          k = 0.0000 0.0000 0.0000 (  3203 PWs)   bands (ev):

   -77.1852 -77.1851 -77.1846 -77.1846 -77.1840 -77.1840 -35.1217 -35.1217
   -35.0705 -35.0703 -35.0703 -35.0617   2.3314   2.3351   2.3378   2.4120
     2.4402   2.4402   2.5003   2.5032   2.5032   2.5963   6.3739  10.2700
    13.1792  13.2030  13.3452  14.9624  14.9624  15.0966  15.0966  15.6959
    15.7341  15.7341  16.6410  19.4881  19.6424  21.5779  21.5779  21.8569
    25.2471  25.9595  29.2427  29.3007  30.2497  30.2497  32.9744  34.5944
    35.6499  35.6499  35.8446  36.5346  36.5346  39.3981  39.3981

[...]

          k = 0.0996 0.0996 0.1423 (  3218 PWs)   bands (ev):

   -77.1860 -77.1860 -77.1846 -77.1846 -77.1839 -77.1838 -35.1271 -35.1268
   -35.1210 -35.1195 -35.0626 -35.0611   2.3379   2.3397   2.4195   2.4255
     2.4348   2.4362   2.4365   2.4403   2.5909   2.5950  10.3128  10.3542
    13.1871  13.3522  14.4073  14.4555  14.8823  14.9321  14.9375  14.9873
    15.5070  15.6113  16.8049  16.9090  19.6246  19.7287  19.8479  20.2971
    25.6278  25.8513  29.7377  29.7935  29.9335  30.2315  33.3005  33.3770
    33.4618  33.5027  36.3490  36.5850  36.9922  37.4192  40.4987

     the Fermi energy is    17.9382 ev

!    total energy              =   -1258.08459002 Ry
     Harris-Foulkes estimate   =   -1258.08457622 Ry
     estimated scf accuracy    <       0.00000019 Ry

     The total energy is the sum of the following terms:

     one-electron contribution =    -674.34259637 Ry
     hartree contribution      =     386.66308424 Ry
     xc contribution           =    -217.16312660 Ry
     ewald contribution        =    -753.23795582 Ry
     smearing contrib. (-TS)   =      -0.00399547 Ry

     convergence has been achieved in  11 iterations

     Forces acting on atoms (Ry/au):

     negative rho (up, down):  3.542E-01 0.000E+00
     atom    1 type  1   force =     0.00000000    0.00000000    0.00000000
     atom    2 type  1   force =     0.00000000    0.00000000    0.00000000
     atom    3 type  2   force =     0.00000000    0.00000000    0.00000000
     atom    4 type  2   force =     0.00000000    0.00000000    0.00000000

     Total force =     0.000000     Total SCF correction =     0.000000

     General routines

     Parallel routines

   This run was terminated on:  13:21:33  14Nov2017

   JOB DONE.