     Program PWSCF v.5.1rc2 starts on 14Nov2017 at  8: 1:51

     Current dimensions of program PWSCF are:
     Max number of different atomic species (ntypx) = 10
     Max number of k-points (npk) =  40000
     Max angular momentum in pseudopotentials (lmaxx) =  3

     IMPORTANT: XC functional enforced from input :
     Exchange-correlation      = BEEF-VDW ( 1  4 27 13 2)
     Any further DFT definition will be discarded
     Please, verify this is what you really want

     Found symmetry operation: I + (  0.5000  0.5000  0.0000)
     This is a supercell, fractional translations are disabled

     bravais-lattice index     =            0
     lattice parameter (alat)  =       1.8897  a.u.
     unit-cell volume          =     356.3805 (a.u.)^3
     number of atoms/cell      =            4
     number of atomic types    =            2
     number of electrons       =        60.00
     number of Kohn-Sham states=           50
     kinetic-energy cutoff     =      58.7989  Ry
     charge density cutoff     =     587.9892  Ry
     convergence threshold     =      1.0E-06
     mixing beta               =       0.1000
     number of iterations used =           10  plain     mixing
     Exchange-correlation      = BEEF-VDW ( 1  4 27 13 2)

     celldm(1)=   1.889726  celldm(2)=   0.000000  celldm(3)=   0.000000
     celldm(4)=   0.000000  celldm(5)=   0.000000  celldm(6)=   0.000000

     crystal axes: (cart. coord. in units of alat)
               a(1) = (   3.792221   0.000000   0.000000 )
               a(2) = (   0.000000   3.792221   0.000000 )
               a(3) = (   0.000000   0.000000   3.672232 )

     reciprocal axes: (cart. coord. in units 2 pi/alat)
               b(1) = (  0.263698  0.000000  0.000000 )
               b(2) = (  0.000000  0.263698  0.000000 )
               b(3) = (  0.000000  0.000000  0.272314 )

     PseudoPot. # 1 for Cr read from file:
     /home/users/vossj/suncat/psp/gbrv1.5pbe/Cr.UPF
     MD5 check sum: 0d52af634a40206e4dee301ad30da4bf
     Pseudo is Ultrasoft + core correction, Zval = 14.0
     Generated by new atomic code, or converted to UPF format
     Using radial grid of  857 points,  6 beta functions with:
                l(1) =   0
                l(2) =   0
                l(3) =   1
                l(4) =   1
                l(5) =   2
                l(6) =   2
     Q(r) pseudized with  8 coefficients,  rinner =    0.950   0.950   0.950
                                                       0.950   0.950

     PseudoPot. # 2 for Os read from file:
     /home/users/vossj/suncat/psp/gbrv1.5pbe/Os.UPF
     MD5 check sum: a3fb40a04f0c37c25c34bbc47164c9a8
     Pseudo is Ultrasoft + core correction, Zval = 16.0
     Generated by new atomic code, or converted to UPF format
     Using radial grid of  983 points,  8 beta functions with:
                l(1) =   0
                l(2) =   0
                l(3) =   1
                l(4) =   1
                l(5) =   2
                l(6) =   2
                l(7) =   3
                l(8) =   3
     Q(r) pseudized with  8 coefficients,  rinner =    1.150   1.150   1.150
                                                       1.150   1.150   1.150
                                                       1.150

     vdW kernel table read from file vdW_kernel_table
     MD5 check sum: 095c7af220d748ca6e76c0b4c6cfb241

     atomic species   valence    mass     pseudopotential
        Cr1           14.00    51.99600     Cr( 1.00)
        Os1           16.00   190.20000     Os( 1.00)

     16 Sym. Ops., with inversion, found

   Cartesian axes

     site n.     atom                  positions (alat units)
         1           Cr1 tau(   1) = (   0.0000000   0.0000000   0.0000000  )
         2           Cr1 tau(   2) = (   1.8961103   1.8961103   0.0000000  )
         3           Os1 tau(   3) = (   1.8961103   0.0000000   1.8361161  )
         4           Os1 tau(   4) = (   0.0000000   1.8961103   1.8361161  )

     number of k points=    75  Fermi-Dirac smearing, width (Ry)=  0.0073
                       cart. coord. in units 2pi/alat
        k(    1) = (   0.0000000   0.0000000   0.0000000), wk =   0.0027435
        k(    2) = (   0.0000000   0.0000000   0.0302571), wk =   0.0054870
        k(    3) = (   0.0000000   0.0000000   0.0605142), wk =   0.0054870
        k(    4) = (   0.0000000   0.0000000   0.0907713), wk =   0.0054870
        k(    5) = (   0.0000000   0.0000000   0.1210284), wk =   0.0054870
        k(    6) = (   0.0000000   0.0292997   0.0000000), wk =   0.0109739
        k(    7) = (   0.0000000   0.0292997   0.0302571), wk =   0.0219479
        k(    8) = (   0.0000000   0.0292997   0.0605142), wk =   0.0219479
        k(    9) = (   0.0000000   0.0292997   0.0907713), wk =   0.0219479
        k(   10) = (   0.0000000   0.0292997   0.1210284), wk =   0.0219479
        k(   11) = (   0.0000000   0.0585995   0.0000000), wk =   0.0109739
        k(   12) = (   0.0000000   0.0585995   0.0302571), wk =   0.0219479
        k(   13) = (   0.0000000   0.0585995   0.0605142), wk =   0.0219479
        k(   14) = (   0.0000000   0.0585995   0.0907713), wk =   0.0219479
        k(   15) = (   0.0000000   0.0585995   0.1210284), wk =   0.0219479
        k(   16) = (   0.0000000   0.0878992   0.0000000), wk =   0.0109739
        k(   17) = (   0.0000000   0.0878992   0.0302571), wk =   0.0219479
        k(   18) = (   0.0000000   0.0878992   0.0605142), wk =   0.0219479
        k(   19) = (   0.0000000   0.0878992   0.0907713), wk =   0.0219479
        k(   20) = (   0.0000000   0.0878992   0.1210284), wk =   0.0219479
        k(   21) = (   0.0000000   0.1171990   0.0000000), wk =   0.0109739
        k(   22) = (   0.0000000   0.1171990   0.0302571), wk =   0.0219479
        k(   23) = (   0.0000000   0.1171990   0.0605142), wk =   0.0219479
        k(   24) = (   0.0000000   0.1171990   0.0907713), wk =   0.0219479
        k(   25) = (   0.0000000   0.1171990   0.1210284), wk =   0.0219479
        k(   26) = (   0.0292997   0.0292997   0.0000000), wk =   0.0109739
        k(   27) = (   0.0292997   0.0292997   0.0302571), wk =   0.0219479
        k(   28) = (   0.0292997   0.0292997   0.0605142), wk =   0.0219479
        k(   29) = (   0.0292997   0.0292997   0.0907713), wk =   0.0219479
        k(   30) = (   0.0292997   0.0292997   0.1210284), wk =   0.0219479
        k(   31) = (   0.0292997   0.0585995   0.0000000), wk =   0.0219479
        k(   32) = (   0.0292997   0.0585995   0.0302571), wk =   0.0438957
        k(   33) = (   0.0292997   0.0585995   0.0605142), wk =   0.0438957
        k(   34) = (   0.0292997   0.0585995   0.0907713), wk =   0.0438957
        k(   35) = (   0.0292997   0.0585995   0.1210284), wk =   0.0438957
        k(   36) = (   0.0292997   0.0878992   0.0000000), wk =   0.0219479
        k(   37) = (   0.0292997   0.0878992   0.0302571), wk =   0.0438957
        k(   38) = (   0.0292997   0.0878992   0.0605142), wk =   0.0438957
        k(   39) = (   0.0292997   0.0878992   0.0907713), wk =   0.0438957
        k(   40) = (   0.0292997   0.0878992   0.1210284), wk =   0.0438957
        k(   41) = (   0.0292997   0.1171990   0.0000000), wk =   0.0219479
        k(   42) = (   0.0292997   0.1171990   0.0302571), wk =   0.0438957
        k(   43) = (   0.0292997   0.1171990   0.0605142), wk =   0.0438957
        k(   44) = (   0.0292997   0.1171990   0.0907713), wk =   0.0438957
        k(   45) = (   0.0292997   0.1171990   0.1210284), wk =   0.0438957
        k(   46) = (   0.0585995   0.0585995   0.0000000), wk =   0.0109739
        k(   47) = (   0.0585995   0.0585995   0.0302571), wk =   0.0219479
        k(   48) = (   0.0585995   0.0585995   0.0605142), wk =   0.0219479
        k(   49) = (   0.0585995   0.0585995   0.0907713), wk =   0.0219479
        k(   50) = (   0.0585995   0.0585995   0.1210284), wk =   0.0219479
        k(   51) = (   0.0585995   0.0878992   0.0000000), wk =   0.0219479
        k(   52) = (   0.0585995   0.0878992   0.0302571), wk =   0.0438957
        k(   53) = (   0.0585995   0.0878992   0.0605142), wk =   0.0438957
        k(   54) = (   0.0585995   0.0878992   0.0907713), wk =   0.0438957
        k(   55) = (   0.0585995   0.0878992   0.1210284), wk =   0.0438957
        k(   56) = (   0.0585995   0.1171990   0.0000000), wk =   0.0219479
        k(   57) = (   0.0585995   0.1171990   0.0302571), wk =   0.0438957
        k(   58) = (   0.0585995   0.1171990   0.0605142), wk =   0.0438957
        k(   59) = (   0.0585995   0.1171990   0.0907713), wk =   0.0438957
        k(   60) = (   0.0585995   0.1171990   0.1210284), wk =   0.0438957
        k(   61) = (   0.0878992   0.0878992   0.0000000), wk =   0.0109739
        k(   62) = (   0.0878992   0.0878992   0.0302571), wk =   0.0219479
        k(   63) = (   0.0878992   0.0878992   0.0605142), wk =   0.0219479
        k(   64) = (   0.0878992   0.0878992   0.0907713), wk =   0.0219479
        k(   65) = (   0.0878992   0.0878992   0.1210284), wk =   0.0219479
        k(   66) = (   0.0878992   0.1171990   0.0000000), wk =   0.0219479
        k(   67) = (   0.0878992   0.1171990   0.0302571), wk =   0.0438957
        k(   68) = (   0.0878992   0.1171990   0.0605142), wk =   0.0438957
        k(   69) = (   0.0878992   0.1171990   0.0907713), wk =   0.0438957
        k(   70) = (   0.0878992   0.1171990   0.1210284), wk =   0.0438957
        k(   71) = (   0.1171990   0.1171990   0.0000000), wk =   0.0109739
        k(   72) = (   0.1171990   0.1171990   0.0302571), wk =   0.0219479
        k(   73) = (   0.1171990   0.1171990   0.0605142), wk =   0.0219479
        k(   74) = (   0.1171990   0.1171990   0.0907713), wk =   0.0219479
        k(   75) = (   0.1171990   0.1171990   0.1210284), wk =   0.0219479

     Largest allocated arrays     est. size (Mb)     dimensions
     Largest temporary arrays     est. size (Mb)     dimensions

     Check: negative/imaginary core charge=   -0.000004    0.000000

     Initial potential from superposition of free atoms
     Check: negative starting charge=   -0.249085

     starting charge   56.99990, renormalised to   60.00000

     negative rho (up, down):  2.622E-01 0.000E+00

     *
     * You are using vdW-DF for exchange-correlation in this calculation.
     * Please cite the following three references that made this development
     * possible:
     *
     *   M. Dion, H. Rydberg, E. Schroder, D. C. Langreth, and
     *   B. I. Lundqvist, Phys. Rev. Lett. 92, 246401 (2004).
     *
     *   T. Thonhauser, V. R. Cooper, S. Li, A. Puzder, P. Hyldgaard, and
     *   D. C. Langreth, Phys. Rev. B 76, 125112 (2007).
     *
     *   G. Roman-Perez and J. M. Soler, Phys. Rev. Lett. 103, 096102 (2009).
     *
     *
     * If you are using vdW-DF2, please also cite:
     *
     *   K. Lee, E. D. Murray, L. Kong, B. I. Lundqvist, and
     *   D. C. Langreth, Phys. Rev. B 82, 081101(R) (2010).
     *
     *
     * If you are calculating the stress with vdW-DF, please also cite:
     *
     *   R. Sabatini, E. Kucukbenli, B. Kolb, T. Thonhauser, and
     *   S. de Gironcoli, J. Phys.: Condens. Matter 24, 424209 (2012).
     *

     Carrying out vdW-DF run using the following parameters:

     Nqs =      20    Nr_points =    1024   r_max =   100.000
     q_mesh =
               0.00001000     0.04494208     0.09755937     0.15916263
               0.23128650     0.31572767     0.41458969     0.53033537
               0.66584808     0.82450364     1.01025438     1.22772762
               1.48234092     1.78043706     2.12944203     2.53805004
               3.01644009     3.57652955     4.23227104     5.00000000

     Gradients computed in reciprocal space

     Starting wfc are   46 randomized atomic wfcs +    4 random wfc

     Self-consistent Calculation

     iteration #  1     ecut=    58.80 Ry     beta=0.10
     Davidson diagonalization with overlap
     ethr =  1.00E-02,  avg # of iterations =  4.1

[...]

     total energy              =    -752.70862151 Ry
     Harris-Foulkes estimate   =    -753.07589817 Ry
     estimated scf accuracy    <       2.37732983 Ry

[...]

     total energy              =    -752.26218820 Ry
     Harris-Foulkes estimate   =    -752.26218902 Ry
     estimated scf accuracy    <       0.00000412 Ry

     iteration # 13     ecut=    58.80 Ry     beta=0.10
     Davidson diagonalization with overlap
     ethr =  6.86E-09,  avg # of iterations =  2.0

     negative rho (up, down):  2.531E-01 0.000E+00

     End of self-consistent calculation

          k = 0.0000 0.0000 0.0000 (  2697 PWs)   bands (ev):

   -64.7075 -64.6344 -50.0417 -49.9765 -24.2624 -24.2624 -24.0295 -23.8452
   -23.7114 -23.7114 -21.3809 -21.3809 -21.3181 -21.3117 -21.1430 -21.1430
    12.6662  15.3351  16.0182  16.3224  16.7493  16.9034  16.9034  20.1973
    20.1973  20.8812  22.4007  22.7842  23.8293  23.9092  24.2394  24.4171
    24.6039  24.6039  24.6310  24.6310  24.6503  24.6503  25.3020  25.4870
    32.7828  34.2065  34.8089  34.8089  35.1866  35.2372  35.2372  35.9857
    37.2610  38.0206

[...]

          k = 0.1172 0.1172 0.1210 (  2719 PWs)   bands (ev):

   -64.6714 -64.6692 -50.0097 -50.0076 -24.3469 -24.3315 -23.9731 -23.9694
   -23.6655 -23.6486 -21.3876 -21.3804 -21.3105 -21.3091 -21.1385 -21.1307
    15.8976  16.0434  16.0737  16.0875  19.5368  19.7446  19.7550  19.7862
    20.1644  20.2408  20.9827  21.0635  21.7385  21.7749  21.8392  21.8547
    23.8214  23.8486  24.0225  24.3868  24.4349  24.4471  24.6551  24.8518
    29.9409  30.1824  32.4188  32.6440  37.3892  37.4708  37.6058  37.6910
    41.6897  42.3409

     the Fermi energy is    21.8415 ev

!    total energy              =    -752.26219177 Ry
     Harris-Foulkes estimate   =    -752.26218885 Ry
     estimated scf accuracy    <       0.00000026 Ry

     The total energy is the sum of the following terms:

     one-electron contribution =    -167.00091484 Ry
     hartree contribution      =     122.25094044 Ry
     xc contribution           =    -124.19254822 Ry
     ewald contribution        =    -583.30735177 Ry
     smearing contrib. (-TS)   =      -0.01231738 Ry

     convergence has been achieved in  13 iterations

     Forces acting on atoms (Ry/au):

     negative rho (up, down):  2.531E-01 0.000E+00
     atom    1 type  1   force =     0.00000000    0.00000000    0.00000000
     atom    2 type  1   force =     0.00000000    0.00000000    0.00000000
     atom    3 type  2   force =     0.00000000    0.00000000    0.00000000
     atom    4 type  2   force =     0.00000000    0.00000000    0.00000000

     Total force =     0.000000     Total SCF correction =     0.000000

     General routines

     Parallel routines

   This run was terminated on:   8: 2:32  14Nov2017

   JOB DONE.