     Program PWSCF v.5.1rc2 starts on 14Nov2017 at 10:23:27

     Current dimensions of program PWSCF are:
     Max number of different atomic species (ntypx) = 10
     Max number of k-points (npk) =  40000
     Max angular momentum in pseudopotentials (lmaxx) =  3

     IMPORTANT: XC functional enforced from input :
     Exchange-correlation      = BEEF-VDW ( 1  4 27 13 2)
     Any further DFT definition will be discarded
     Please, verify this is what you really want

     Found symmetry operation: I + ( -0.5000 -0.5000  0.0000)
     This is a supercell, fractional translations are disabled

     Generating pointlists ...
     new r_m :   0.4125 (alat units)  0.7795 (a.u.) for type    1
     new r_m :   0.4125 (alat units)  0.7795 (a.u.) for type    2

     bravais-lattice index     =            0
     lattice parameter (alat)  =       1.8897  a.u.
     unit-cell volume          =     448.9770 (a.u.)^3
     number of atoms/cell      =            4
     number of atomic types    =            2
     number of electrons       =        56.00
     number of Kohn-Sham states=           48
     kinetic-energy cutoff     =      58.7989  Ry
     charge density cutoff     =     587.9892  Ry
     convergence threshold     =      1.0E-06
     mixing beta               =       0.1000
     number of iterations used =           10  plain     mixing
     Exchange-correlation      = BEEF-VDW ( 1  4 27 13 2)

     celldm(1)=   1.889726  celldm(2)=   0.000000  celldm(3)=   0.000000
     celldm(4)=   0.000000  celldm(5)=   0.000000  celldm(6)=   0.000000

     crystal axes: (cart. coord. in units of alat)
               a(1) = (   3.981174   0.000000   0.000000 )
               a(2) = (   0.000000   3.981174   0.000000 )
               a(3) = (   0.000000   0.000000   4.197639 )

     reciprocal axes: (cart. coord. in units 2 pi/alat)
               b(1) = (  0.251182  0.000000  0.000000 )
               b(2) = (  0.000000  0.251182  0.000000 )
               b(3) = (  0.000000  0.000000  0.238229 )

     PseudoPot. # 1 for Fe read from file:
     /home/users/vossj/suncat/psp/gbrv1.5pbe/Fe.UPF
     MD5 check sum: a130daea23fe5165f5d574ae7f82ed95
     Pseudo is Ultrasoft + core correction, Zval = 16.0
     Generated by new atomic code, or converted to UPF format
     Using radial grid of  861 points,  6 beta functions with:
                l(1) =   0
                l(2) =   0
                l(3) =   1
                l(4) =   1
                l(5) =   2
                l(6) =   2
     Q(r) pseudized with  8 coefficients,  rinner =    1.000   1.000   1.000
                                                       1.000   1.000

     PseudoPot. # 2 for Cd read from file:
     /home/users/vossj/suncat/psp/gbrv1.5pbe/Cd.UPF
     MD5 check sum: 17164a7926edb8e0dc231208abae86a6
     Pseudo is Ultrasoft + core correction, Zval = 12.0
     Generated by new atomic code, or converted to UPF format
     Using radial grid of  889 points,  6 beta functions with:
                l(1) =   0
                l(2) =   0
                l(3) =   1
                l(4) =   1
                l(5) =   2
                l(6) =   2
     Q(r) pseudized with  6 coefficients,  rinner =    1.000   1.000   1.000
                                                       1.000   1.000

     vdW kernel table read from file vdW_kernel_table
     MD5 check sum: 095c7af220d748ca6e76c0b4c6cfb241

     atomic species   valence    mass     pseudopotential
        Fe1           16.00    55.84700     Fe( 1.00)
        Cd1           12.00   112.41000     Cd( 1.00)

     Starting magnetic structure
     atomic species   magnetization
        Fe1          0.125
        Cd1          0.167

     16 Sym. Ops., with inversion, found

   Cartesian axes

     site n.     atom                  positions (alat units)
         1           Fe1 tau(   1) = (   0.0000000   0.0000000   0.0000000  )
         2           Fe1 tau(   2) = (   1.9905872   1.9905872   0.0000000  )
         3           Cd1 tau(   3) = (   1.9905872   0.0000000   2.0988194  )
         4           Cd1 tau(   4) = (   0.0000000   1.9905872   2.0988194  )

     number of k points=   150  Fermi-Dirac smearing, width (Ry)=  0.0073

     Number of k-points >= 100: set verbosity='high' to print them.

     Largest allocated arrays     est. size (Mb)     dimensions
     Largest temporary arrays     est. size (Mb)     dimensions

     Check: negative/imaginary core charge=   -0.000019    0.000000

     Initial potential from superposition of free atoms
     Check: negative starting charge=(component1):   -0.023703
     Check: negative starting charge=(component2):   -0.016927

     starting charge   52.99991, renormalised to   56.00000

     negative rho (up, down):  2.504E-02 1.789E-02

     *
     * You are using vdW-DF for exchange-correlation in this calculation.
     * Please cite the following three references that made this development
     * possible:
     *
     *   M. Dion, H. Rydberg, E. Schroder, D. C. Langreth, and
     *   B. I. Lundqvist, Phys. Rev. Lett. 92, 246401 (2004).
     *
     *   T. Thonhauser, V. R. Cooper, S. Li, A. Puzder, P. Hyldgaard, and
     *   D. C. Langreth, Phys. Rev. B 76, 125112 (2007).
     *
     *   G. Roman-Perez and J. M. Soler, Phys. Rev. Lett. 103, 096102 (2009).
     *
     *
     * If you are using vdW-DF2, please also cite:
     *
     *   K. Lee, E. D. Murray, L. Kong, B. I. Lundqvist, and
     *   D. C. Langreth, Phys. Rev. B 82, 081101(R) (2010).
     *
     *
     * If you are calculating the stress with vdW-DF, please also cite:
     *
     *   R. Sabatini, E. Kucukbenli, B. Kolb, T. Thonhauser, and
     *   S. de Gironcoli, J. Phys.: Condens. Matter 24, 424209 (2012).
     *

     Carrying out vdW-DF run using the following parameters:

     Nqs =      20    Nr_points =    1024   r_max =   100.000
     q_mesh =
               0.00001000     0.04494208     0.09755937     0.15916263
               0.23128650     0.31572767     0.41458969     0.53033537
               0.66584808     0.82450364     1.01025438     1.22772762
               1.48234092     1.78043706     2.12944203     2.53805004
               3.01644009     3.57652955     4.23227104     5.00000000

     Gradients computed in reciprocal space

     Starting wfc are   44 randomized atomic wfcs +    4 random wfc

     Self-consistent Calculation

     iteration #  1     ecut=    58.80 Ry     beta=0.10
     Davidson diagonalization with overlap
     ethr =  1.00E-02,  avg # of iterations =  4.4

[...]

     Magnetic moment per site:
     atom:    1    charge:    7.2684    magn:    0.9238    constr:    0.0000
     atom:    2    charge:    7.2684    magn:    0.9238    constr:    0.0000
     atom:    3    charge:    2.3594    magn:    0.3613    constr:    0.0000
     atom:    4    charge:    2.3594    magn:    0.3613    constr:    0.0000

     total energy              =    -734.92704445 Ry
     Harris-Foulkes estimate   =    -735.34176929 Ry
     estimated scf accuracy    <       2.72858083 Ry

     total magnetization       =     4.93 Bohr mag/cell
     absolute magnetization    =     5.03 Bohr mag/cell

[...]

     total energy              =    -734.83604159 Ry
     Harris-Foulkes estimate   =    -734.83603583 Ry
     estimated scf accuracy    <       0.00000445 Ry

[...]

     iteration # 15     ecut=    58.80 Ry     beta=0.10
     Davidson diagonalization with overlap
     ethr =  7.94E-09,  avg # of iterations =  1.9

     negative rho (up, down):  2.132E-02 2.150E-02

     Magnetic moment per site:
     atom:    1    charge:    7.0936    magn:    1.2919    constr:    0.0000
     atom:    2    charge:    7.0935    magn:    1.2920    constr:    0.0000
     atom:    3    charge:    2.2952    magn:   -0.0003    constr:    0.0000
     atom:    4    charge:    2.2952    magn:   -0.0003    constr:    0.0000

     End of self-consistent calculation

     Number of k-points >= 100: set verbosity='high' to print the bands.

     the Fermi energy is    13.5359 ev

!    total energy              =    -734.83606989 Ry
     Harris-Foulkes estimate   =    -734.83604246 Ry
     estimated scf accuracy    <       0.00000007 Ry

     The total energy is the sum of the following terms:

     one-electron contribution =    -320.27379912 Ry
     hartree contribution      =     201.69799786 Ry
     xc contribution           =    -142.36983537 Ry
     ewald contribution        =    -473.88399373 Ry
     smearing contrib. (-TS)   =      -0.00643954 Ry

     total magnetization       =     5.19 Bohr mag/cell
     absolute magnetization    =     5.99 Bohr mag/cell

     convergence has been achieved in  15 iterations

     Forces acting on atoms (Ry/au):

     negative rho (up, down):  2.132E-02 2.150E-02
     atom    1 type  1   force =     0.00000000    0.00000000    0.00000000
     atom    2 type  1   force =     0.00000000    0.00000000    0.00000000
     atom    3 type  2   force =     0.00000000    0.00000000    0.00000000
     atom    4 type  2   force =     0.00000000    0.00000000    0.00000000

     Total force =     0.000000     Total SCF correction =     0.000000

     General routines

     Parallel routines

   This run was terminated on:  10:24:51  14Nov2017

   JOB DONE.