     Program PWSCF v.5.1rc2 starts on 15Nov2017 at  4:58:20

     Current dimensions of program PWSCF are:
     Max number of different atomic species (ntypx) = 10
     Max number of k-points (npk) =  40000
     Max angular momentum in pseudopotentials (lmaxx) =  3

     IMPORTANT: XC functional enforced from input :
     Exchange-correlation      = BEEF-VDW ( 1  4 27 13 2)
     Any further DFT definition will be discarded
     Please, verify this is what you really want

     Found symmetry operation: I + ( -0.5000 -0.5000  0.0000)
     This is a supercell, fractional translations are disabled

     bravais-lattice index     =            0
     lattice parameter (alat)  =       1.8897  a.u.
     unit-cell volume          =     532.8816 (a.u.)^3
     number of atoms/cell      =            4
     number of atomic types    =            2
     number of electrons       =        58.00
     number of Kohn-Sham states=           49
     kinetic-energy cutoff     =      58.7989  Ry
     charge density cutoff     =     587.9892  Ry
     convergence threshold     =      1.0E-06
     mixing beta               =       0.1000
     number of iterations used =           10  plain     mixing
     Exchange-correlation      = BEEF-VDW ( 1  4 27 13 2)

     celldm(1)=   1.889726  celldm(2)=   0.000000  celldm(3)=   0.000000
     celldm(4)=   0.000000  celldm(5)=   0.000000  celldm(6)=   0.000000

     crystal axes: (cart. coord. in units of alat)
               a(1) = (   4.798957   0.000000   0.000000 )
               a(2) = (   0.000000   4.798957   0.000000 )
               a(3) = (   0.000000   0.000000   3.428787 )

     reciprocal axes: (cart. coord. in units 2 pi/alat)
               b(1) = (  0.208379  0.000000  0.000000 )
               b(2) = (  0.000000  0.208379  0.000000 )
               b(3) = (  0.000000  0.000000  0.291648 )

     PseudoPot. # 1 for Rh read from file:
     /home/users/vossj/suncat/psp/gbrv1.5pbe/Rh.UPF
     MD5 check sum: 761627e959a2e3a1f56b0b5fe687810e
     Pseudo is Ultrasoft + core correction, Zval = 15.0
     Generated by new atomic code, or converted to UPF format
     Using radial grid of  969 points,  7 beta functions with:
                l(1) =   0
                l(2) =   0
                l(3) =   1
                l(4) =   1
                l(5) =   2
                l(6) =   2
                l(7) =   2
     Q(r) pseudized with  8 coefficients,  rinner =    1.200   1.200   1.200
                                                       1.200   1.200

     PseudoPot. # 2 for Pb read from file:
     /home/users/vossj/suncat/psp/gbrv1.5pbe/Pb.UPF
     MD5 check sum: 3d1c1779aa92214d1e8f3a7db79003e2
     Pseudo is Ultrasoft + core correction, Zval = 14.0
     Generated by new atomic code, or converted to UPF format
     Using radial grid of  899 points,  6 beta functions with:
                l(1) =   0
                l(2) =   0
                l(3) =   1
                l(4) =   1
                l(5) =   2
                l(6) =   2
     Q(r) pseudized with  6 coefficients,  rinner =    1.000   1.000   1.000
                                                       1.000   1.000

     vdW kernel table read from file vdW_kernel_table
     MD5 check sum: 095c7af220d748ca6e76c0b4c6cfb241

     atomic species   valence    mass     pseudopotential
        Rh1           15.00   102.90550     Rh( 1.00)
        Pb1           14.00   207.20000     Pb( 1.00)

     16 Sym. Ops., with inversion, found

   Cartesian axes

     site n.     atom                  positions (alat units)
         1           Rh1 tau(   1) = (   0.0000000   0.0000000   0.0000000  )
         2           Rh1 tau(   2) = (   2.3994783   2.3994783   0.0000000  )
         3           Pb1 tau(   3) = (   2.3994783   0.0000000   1.7143933  )
         4           Pb1 tau(   4) = (   0.0000000   2.3994783   1.7143933  )

     number of k points=    75  Fermi-Dirac smearing, width (Ry)=  0.0073
                       cart. coord. in units 2pi/alat
        k(    1) = (   0.0000000   0.0000000   0.0000000), wk =   0.0027435
        k(    2) = (   0.0000000   0.0000000   0.0324054), wk =   0.0054870
        k(    3) = (   0.0000000   0.0000000   0.0648107), wk =   0.0054870
        k(    4) = (   0.0000000   0.0000000   0.0972161), wk =   0.0054870
        k(    5) = (   0.0000000   0.0000000   0.1296215), wk =   0.0054870
        k(    6) = (   0.0000000   0.0231532   0.0000000), wk =   0.0109739
        k(    7) = (   0.0000000   0.0231532   0.0324054), wk =   0.0219479
        k(    8) = (   0.0000000   0.0231532   0.0648107), wk =   0.0219479
        k(    9) = (   0.0000000   0.0231532   0.0972161), wk =   0.0219479
        k(   10) = (   0.0000000   0.0231532   0.1296215), wk =   0.0219479
        k(   11) = (   0.0000000   0.0463064   0.0000000), wk =   0.0109739
        k(   12) = (   0.0000000   0.0463064   0.0324054), wk =   0.0219479
        k(   13) = (   0.0000000   0.0463064   0.0648107), wk =   0.0219479
        k(   14) = (   0.0000000   0.0463064   0.0972161), wk =   0.0219479
        k(   15) = (   0.0000000   0.0463064   0.1296215), wk =   0.0219479
        k(   16) = (   0.0000000   0.0694595   0.0000000), wk =   0.0109739
        k(   17) = (   0.0000000   0.0694595   0.0324054), wk =   0.0219479
        k(   18) = (   0.0000000   0.0694595   0.0648107), wk =   0.0219479
        k(   19) = (   0.0000000   0.0694595   0.0972161), wk =   0.0219479
        k(   20) = (   0.0000000   0.0694595   0.1296215), wk =   0.0219479
        k(   21) = (   0.0000000   0.0926127   0.0000000), wk =   0.0109739
        k(   22) = (   0.0000000   0.0926127   0.0324054), wk =   0.0219479
        k(   23) = (   0.0000000   0.0926127   0.0648107), wk =   0.0219479
        k(   24) = (   0.0000000   0.0926127   0.0972161), wk =   0.0219479
        k(   25) = (   0.0000000   0.0926127   0.1296215), wk =   0.0219479
        k(   26) = (   0.0231532   0.0231532   0.0000000), wk =   0.0109739
        k(   27) = (   0.0231532   0.0231532   0.0324054), wk =   0.0219479
        k(   28) = (   0.0231532   0.0231532   0.0648107), wk =   0.0219479
        k(   29) = (   0.0231532   0.0231532   0.0972161), wk =   0.0219479
        k(   30) = (   0.0231532   0.0231532   0.1296215), wk =   0.0219479
        k(   31) = (   0.0231532   0.0463064   0.0000000), wk =   0.0219479
        k(   32) = (   0.0231532   0.0463064   0.0324054), wk =   0.0438957
        k(   33) = (   0.0231532   0.0463064   0.0648107), wk =   0.0438957
        k(   34) = (   0.0231532   0.0463064   0.0972161), wk =   0.0438957
        k(   35) = (   0.0231532   0.0463064   0.1296215), wk =   0.0438957
        k(   36) = (   0.0231532   0.0694595   0.0000000), wk =   0.0219479
        k(   37) = (   0.0231532   0.0694595   0.0324054), wk =   0.0438957
        k(   38) = (   0.0231532   0.0694595   0.0648107), wk =   0.0438957
        k(   39) = (   0.0231532   0.0694595   0.0972161), wk =   0.0438957
        k(   40) = (   0.0231532   0.0694595   0.1296215), wk =   0.0438957
        k(   41) = (   0.0231532   0.0926127   0.0000000), wk =   0.0219479
        k(   42) = (   0.0231532   0.0926127   0.0324054), wk =   0.0438957
        k(   43) = (   0.0231532   0.0926127   0.0648107), wk =   0.0438957
        k(   44) = (   0.0231532   0.0926127   0.0972161), wk =   0.0438957
        k(   45) = (   0.0231532   0.0926127   0.1296215), wk =   0.0438957
        k(   46) = (   0.0463064   0.0463064   0.0000000), wk =   0.0109739
        k(   47) = (   0.0463064   0.0463064   0.0324054), wk =   0.0219479
        k(   48) = (   0.0463064   0.0463064   0.0648107), wk =   0.0219479
        k(   49) = (   0.0463064   0.0463064   0.0972161), wk =   0.0219479
        k(   50) = (   0.0463064   0.0463064   0.1296215), wk =   0.0219479
        k(   51) = (   0.0463064   0.0694595   0.0000000), wk =   0.0219479
        k(   52) = (   0.0463064   0.0694595   0.0324054), wk =   0.0438957
        k(   53) = (   0.0463064   0.0694595   0.0648107), wk =   0.0438957
        k(   54) = (   0.0463064   0.0694595   0.0972161), wk =   0.0438957
        k(   55) = (   0.0463064   0.0694595   0.1296215), wk =   0.0438957
        k(   56) = (   0.0463064   0.0926127   0.0000000), wk =   0.0219479
        k(   57) = (   0.0463064   0.0926127   0.0324054), wk =   0.0438957
        k(   58) = (   0.0463064   0.0926127   0.0648107), wk =   0.0438957
        k(   59) = (   0.0463064   0.0926127   0.0972161), wk =   0.0438957
        k(   60) = (   0.0463064   0.0926127   0.1296215), wk =   0.0438957
        k(   61) = (   0.0694595   0.0694595   0.0000000), wk =   0.0109739
        k(   62) = (   0.0694595   0.0694595   0.0324054), wk =   0.0219479
        k(   63) = (   0.0694595   0.0694595   0.0648107), wk =   0.0219479
        k(   64) = (   0.0694595   0.0694595   0.0972161), wk =   0.0219479
        k(   65) = (   0.0694595   0.0694595   0.1296215), wk =   0.0219479
        k(   66) = (   0.0694595   0.0926127   0.0000000), wk =   0.0219479
        k(   67) = (   0.0694595   0.0926127   0.0324054), wk =   0.0438957
        k(   68) = (   0.0694595   0.0926127   0.0648107), wk =   0.0438957
        k(   69) = (   0.0694595   0.0926127   0.0972161), wk =   0.0438957
        k(   70) = (   0.0694595   0.0926127   0.1296215), wk =   0.0438957
        k(   71) = (   0.0926127   0.0926127   0.0000000), wk =   0.0109739
        k(   72) = (   0.0926127   0.0926127   0.0324054), wk =   0.0219479
        k(   73) = (   0.0926127   0.0926127   0.0648107), wk =   0.0219479
        k(   74) = (   0.0926127   0.0926127   0.0972161), wk =   0.0219479
        k(   75) = (   0.0926127   0.0926127   0.1296215), wk =   0.0219479

     Largest allocated arrays     est. size (Mb)     dimensions
     Largest temporary arrays     est. size (Mb)     dimensions

     Initial potential from superposition of free atoms
     Check: negative starting charge=   -0.143277

     starting charge   56.99510, renormalised to   58.00000

     negative rho (up, down):  1.458E-01 0.000E+00

     *
     * You are using vdW-DF for exchange-correlation in this calculation.
     * Please cite the following three references that made this development
     * possible:
     *
     *   M. Dion, H. Rydberg, E. Schroder, D. C. Langreth, and
     *   B. I. Lundqvist, Phys. Rev. Lett. 92, 246401 (2004).
     *
     *   T. Thonhauser, V. R. Cooper, S. Li, A. Puzder, P. Hyldgaard, and
     *   D. C. Langreth, Phys. Rev. B 76, 125112 (2007).
     *
     *   G. Roman-Perez and J. M. Soler, Phys. Rev. Lett. 103, 096102 (2009).
     *
     *
     * If you are using vdW-DF2, please also cite:
     *
     *   K. Lee, E. D. Murray, L. Kong, B. I. Lundqvist, and
     *   D. C. Langreth, Phys. Rev. B 82, 081101(R) (2010).
     *
     *
     * If you are calculating the stress with vdW-DF, please also cite:
     *
     *   R. Sabatini, E. Kucukbenli, B. Kolb, T. Thonhauser, and
     *   S. de Gironcoli, J. Phys.: Condens. Matter 24, 424209 (2012).
     *

     Carrying out vdW-DF run using the following parameters:

     Nqs =      20    Nr_points =    1024   r_max =   100.000
     q_mesh =
               0.00001000     0.04494208     0.09755937     0.15916263
               0.23128650     0.31572767     0.41458969     0.53033537
               0.66584808     0.82450364     1.01025438     1.22772762
               1.48234092     1.78043706     2.12944203     2.53805004
               3.01644009     3.57652955     4.23227104     5.00000000

     Gradients computed in reciprocal space

     Starting wfc are   42 randomized atomic wfcs +    7 random wfc

     Self-consistent Calculation

     iteration #  1     ecut=    58.80 Ry     beta=0.10
     Davidson diagonalization with overlap
     ethr =  1.00E-02,  avg # of iterations =  4.6

     Threshold (ethr) on eigenvalues was too large:
     Diagonalizing with lowered threshold

     Davidson diagonalization with overlap
     c_bands:  1 eigenvalues not converged
     ethr =  3.33E-04,  avg # of iterations =  1.6

[...]

     total energy              =    -676.55151160 Ry
     Harris-Foulkes estimate   =    -676.58043296 Ry
     estimated scf accuracy    <       0.19407101 Ry

[...]

     total energy              =    -676.50294516 Ry
     Harris-Foulkes estimate   =    -676.50272829 Ry
     estimated scf accuracy    <       0.00002532 Ry

     iteration #  8     ecut=    58.80 Ry     beta=0.10
     Davidson diagonalization with overlap
     ethr =  4.36E-08,  avg # of iterations =  2.0

     negative rho (up, down):  1.477E-01 0.000E+00

     End of self-consistent calculation

          k = 0.0000 0.0000 0.0000 (  4063 PWs)   bands (ev):

   -29.8474 -29.8474 -29.8194 -29.8194 -29.8136 -29.8086  -1.5109  -1.4919
    -1.4218  -1.3274  -1.2660  -1.2660  -1.1573  -1.1573  -1.1546  -0.9936
     4.3683   7.8455  13.1775  13.1775  13.3161  13.3320  13.5935  14.4685
    14.4685  14.9284  14.9284  14.9497  15.5344  16.1622  18.7350  18.7985
    18.9909  18.9909  21.5561  22.8114  26.0519  26.0519  26.1520  26.2526
    26.6098  26.6638  28.6551  29.4660  30.4640  30.6333  30.6333  32.1359
    32.1359

[...]

          k = 0.0926 0.0926 0.1296 (  4062 PWs)   bands (ev):

   -29.8478 -29.8469 -29.8373 -29.8371 -29.8158 -29.8150  -1.4069  -1.4034
    -1.3548  -1.3422  -1.2659  -1.2589  -1.2538  -1.2499  -1.0152  -1.0065
     7.6587   7.7507  12.7456  12.7840  13.1013  13.1570  13.7041  13.7816
    14.4622  14.5149  14.6257  14.6454  15.5501  15.5699  16.2177  16.3621
    18.8382  18.9811  22.7593  23.0248  26.0477  26.0551  26.0728  26.3284
    26.6199  26.6271  28.5137  28.6482  29.8306  30.0169  32.2542  32.4909
    32.5363

     the Fermi energy is    15.9982 ev

!    total energy              =    -676.50386962 Ry
     Harris-Foulkes estimate   =    -676.50294851 Ry
     estimated scf accuracy    <       0.00000028 Ry

     The total energy is the sum of the following terms:

     one-electron contribution =    -115.29357211 Ry
     hartree contribution      =     107.91325934 Ry
     xc contribution           =    -193.16370526 Ry
     ewald contribution        =    -475.94878537 Ry
     smearing contrib. (-TS)   =      -0.01106622 Ry

     convergence has been achieved in   8 iterations

     Forces acting on atoms (Ry/au):

     negative rho (up, down):  1.477E-01 0.000E+00
     atom    1 type  1   force =     0.00000000    0.00000000    0.00000000
     atom    2 type  1   force =     0.00000000    0.00000000    0.00000000
     atom    3 type  2   force =     0.00000000    0.00000000    0.00000000
     atom    4 type  2   force =     0.00000000    0.00000000    0.00000000

     Total force =     0.000000     Total SCF correction =     0.000000

     General routines

     Parallel routines

   This run was terminated on:   4:58:59  15Nov2017

   JOB DONE.