     Program PWSCF v.5.1rc2 starts on 13Nov2017 at 18:17: 3

     Current dimensions of program PWSCF are:
     Max number of different atomic species (ntypx) = 10
     Max number of k-points (npk) =  40000
     Max angular momentum in pseudopotentials (lmaxx) =  3

     IMPORTANT: XC functional enforced from input :
     Exchange-correlation      = BEEF-VDW ( 1  4 27 13 2)
     Any further DFT definition will be discarded
     Please, verify this is what you really want

     Found symmetry operation: I + ( -0.5000 -0.5000  0.0000)
     This is a supercell, fractional translations are disabled

     bravais-lattice index     =            0
     lattice parameter (alat)  =       1.8897  a.u.
     unit-cell volume          =     610.6257 (a.u.)^3
     number of atoms/cell      =            4
     number of atomic types    =            2
     number of electrons       =        32.00
     number of Kohn-Sham states=           36
     kinetic-energy cutoff     =      58.7989  Ry
     charge density cutoff     =     587.9892  Ry
     convergence threshold     =      1.0E-06
     mixing beta               =       0.1000
     number of iterations used =           10  plain     mixing
     Exchange-correlation      = BEEF-VDW ( 1  4 27 13 2)

     celldm(1)=   1.889726  celldm(2)=   0.000000  celldm(3)=   0.000000
     celldm(4)=   0.000000  celldm(5)=   0.000000  celldm(6)=   0.000000

     crystal axes: (cart. coord. in units of alat)
               a(1) = (   4.647163   0.000000   0.000000 )
               a(2) = (   0.000000   4.647163   0.000000 )
               a(3) = (   0.000000   0.000000   4.189890 )

     reciprocal axes: (cart. coord. in units 2 pi/alat)
               b(1) = (  0.215185  0.000000  0.000000 )
               b(2) = (  0.000000  0.215185  0.000000 )
               b(3) = (  0.000000  0.000000  0.238670 )

     PseudoPot. # 1 for Al read from file:
     /home/users/vossj/suncat/psp/gbrv1.5pbe/Al.UPF
     MD5 check sum: 0a6289f5291fc8f409219462bc851e1f
     Pseudo is Ultrasoft + core correction, Zval =  3.0
     Generated by new atomic code, or converted to UPF format
     Using radial grid of  893 points,  3 beta functions with:
                l(1) =   0
                l(2) =   1
                l(3) =   2
     Q(r) pseudized with  8 coefficients,  rinner =    0.900   0.900   0.900
                                                       0.900   0.900

     PseudoPot. # 2 for In read from file:
     /home/users/vossj/suncat/psp/gbrv1.5pbe/In.UPF
     MD5 check sum: 90777abd96fbb83f2e67db2a40c566b9
     Pseudo is Ultrasoft + core correction, Zval = 13.0
     Generated by new atomic code, or converted to UPF format
     Using radial grid of  889 points,  6 beta functions with:
                l(1) =   0
                l(2) =   0
                l(3) =   1
                l(4) =   1
                l(5) =   2
                l(6) =   2
     Q(r) pseudized with  6 coefficients,  rinner =    1.400   1.400   1.400
                                                       1.400   1.400

     vdW kernel table read from file vdW_kernel_table
     MD5 check sum: 095c7af220d748ca6e76c0b4c6cfb241

     atomic species   valence    mass     pseudopotential
        Al1            3.00    26.98154     Al( 1.00)
        In1           13.00   114.82000     In( 1.00)

     16 Sym. Ops., with inversion, found

   Cartesian axes

     site n.     atom                  positions (alat units)
         1           Al1 tau(   1) = (   0.0000000   0.0000000   0.0000000  )
         2           Al1 tau(   2) = (   2.3235814   2.3235814   0.0000000  )
         3           In1 tau(   3) = (   2.3235814   0.0000000   2.0949452  )
         4           In1 tau(   4) = (   0.0000000   2.3235814   2.0949452  )

     number of k points=    75  Fermi-Dirac smearing, width (Ry)=  0.0073
                       cart. coord. in units 2pi/alat
        k(    1) = (   0.0000000   0.0000000   0.0000000), wk =   0.0027435
        k(    2) = (   0.0000000   0.0000000   0.0265189), wk =   0.0054870
        k(    3) = (   0.0000000   0.0000000   0.0530377), wk =   0.0054870
        k(    4) = (   0.0000000   0.0000000   0.0795566), wk =   0.0054870
        k(    5) = (   0.0000000   0.0000000   0.1060754), wk =   0.0054870
        k(    6) = (   0.0000000   0.0239095   0.0000000), wk =   0.0109739
        k(    7) = (   0.0000000   0.0239095   0.0265189), wk =   0.0219479
        k(    8) = (   0.0000000   0.0239095   0.0530377), wk =   0.0219479
        k(    9) = (   0.0000000   0.0239095   0.0795566), wk =   0.0219479
        k(   10) = (   0.0000000   0.0239095   0.1060754), wk =   0.0219479
        k(   11) = (   0.0000000   0.0478189   0.0000000), wk =   0.0109739
        k(   12) = (   0.0000000   0.0478189   0.0265189), wk =   0.0219479
        k(   13) = (   0.0000000   0.0478189   0.0530377), wk =   0.0219479
        k(   14) = (   0.0000000   0.0478189   0.0795566), wk =   0.0219479
        k(   15) = (   0.0000000   0.0478189   0.1060754), wk =   0.0219479
        k(   16) = (   0.0000000   0.0717284   0.0000000), wk =   0.0109739
        k(   17) = (   0.0000000   0.0717284   0.0265189), wk =   0.0219479
        k(   18) = (   0.0000000   0.0717284   0.0530377), wk =   0.0219479
        k(   19) = (   0.0000000   0.0717284   0.0795566), wk =   0.0219479
        k(   20) = (   0.0000000   0.0717284   0.1060754), wk =   0.0219479
        k(   21) = (   0.0000000   0.0956378   0.0000000), wk =   0.0109739
        k(   22) = (   0.0000000   0.0956378   0.0265189), wk =   0.0219479
        k(   23) = (   0.0000000   0.0956378   0.0530377), wk =   0.0219479
        k(   24) = (   0.0000000   0.0956378   0.0795566), wk =   0.0219479
        k(   25) = (   0.0000000   0.0956378   0.1060754), wk =   0.0219479
        k(   26) = (   0.0239095   0.0239095   0.0000000), wk =   0.0109739
        k(   27) = (   0.0239095   0.0239095   0.0265189), wk =   0.0219479
        k(   28) = (   0.0239095   0.0239095   0.0530377), wk =   0.0219479
        k(   29) = (   0.0239095   0.0239095   0.0795566), wk =   0.0219479
        k(   30) = (   0.0239095   0.0239095   0.1060754), wk =   0.0219479
        k(   31) = (   0.0239095   0.0478189   0.0000000), wk =   0.0219479
        k(   32) = (   0.0239095   0.0478189   0.0265189), wk =   0.0438957
        k(   33) = (   0.0239095   0.0478189   0.0530377), wk =   0.0438957
        k(   34) = (   0.0239095   0.0478189   0.0795566), wk =   0.0438957
        k(   35) = (   0.0239095   0.0478189   0.1060754), wk =   0.0438957
        k(   36) = (   0.0239095   0.0717284   0.0000000), wk =   0.0219479
        k(   37) = (   0.0239095   0.0717284   0.0265189), wk =   0.0438957
        k(   38) = (   0.0239095   0.0717284   0.0530377), wk =   0.0438957
        k(   39) = (   0.0239095   0.0717284   0.0795566), wk =   0.0438957
        k(   40) = (   0.0239095   0.0717284   0.1060754), wk =   0.0438957
        k(   41) = (   0.0239095   0.0956378   0.0000000), wk =   0.0219479
        k(   42) = (   0.0239095   0.0956378   0.0265189), wk =   0.0438957
        k(   43) = (   0.0239095   0.0956378   0.0530377), wk =   0.0438957
        k(   44) = (   0.0239095   0.0956378   0.0795566), wk =   0.0438957
        k(   45) = (   0.0239095   0.0956378   0.1060754), wk =   0.0438957
        k(   46) = (   0.0478189   0.0478189   0.0000000), wk =   0.0109739
        k(   47) = (   0.0478189   0.0478189   0.0265189), wk =   0.0219479
        k(   48) = (   0.0478189   0.0478189   0.0530377), wk =   0.0219479
        k(   49) = (   0.0478189   0.0478189   0.0795566), wk =   0.0219479
        k(   50) = (   0.0478189   0.0478189   0.1060754), wk =   0.0219479
        k(   51) = (   0.0478189   0.0717284   0.0000000), wk =   0.0219479
        k(   52) = (   0.0478189   0.0717284   0.0265189), wk =   0.0438957
        k(   53) = (   0.0478189   0.0717284   0.0530377), wk =   0.0438957
        k(   54) = (   0.0478189   0.0717284   0.0795566), wk =   0.0438957
        k(   55) = (   0.0478189   0.0717284   0.1060754), wk =   0.0438957
        k(   56) = (   0.0478189   0.0956378   0.0000000), wk =   0.0219479
        k(   57) = (   0.0478189   0.0956378   0.0265189), wk =   0.0438957
        k(   58) = (   0.0478189   0.0956378   0.0530377), wk =   0.0438957
        k(   59) = (   0.0478189   0.0956378   0.0795566), wk =   0.0438957
        k(   60) = (   0.0478189   0.0956378   0.1060754), wk =   0.0438957
        k(   61) = (   0.0717284   0.0717284   0.0000000), wk =   0.0109739
        k(   62) = (   0.0717284   0.0717284   0.0265189), wk =   0.0219479
        k(   63) = (   0.0717284   0.0717284   0.0530377), wk =   0.0219479
        k(   64) = (   0.0717284   0.0717284   0.0795566), wk =   0.0219479
        k(   65) = (   0.0717284   0.0717284   0.1060754), wk =   0.0219479
        k(   66) = (   0.0717284   0.0956378   0.0000000), wk =   0.0219479
        k(   67) = (   0.0717284   0.0956378   0.0265189), wk =   0.0438957
        k(   68) = (   0.0717284   0.0956378   0.0530377), wk =   0.0438957
        k(   69) = (   0.0717284   0.0956378   0.0795566), wk =   0.0438957
        k(   70) = (   0.0717284   0.0956378   0.1060754), wk =   0.0438957
        k(   71) = (   0.0956378   0.0956378   0.0000000), wk =   0.0109739
        k(   72) = (   0.0956378   0.0956378   0.0265189), wk =   0.0219479
        k(   73) = (   0.0956378   0.0956378   0.0530377), wk =   0.0219479
        k(   74) = (   0.0956378   0.0956378   0.0795566), wk =   0.0219479
        k(   75) = (   0.0956378   0.0956378   0.1060754), wk =   0.0219479

     Largest allocated arrays     est. size (Mb)     dimensions
     Largest temporary arrays     est. size (Mb)     dimensions

     Initial potential from superposition of free atoms

     starting charge   28.99507, renormalised to   32.00000

     *
     * You are using vdW-DF for exchange-correlation in this calculation.
     * Please cite the following three references that made this development
     * possible:
     *
     *   M. Dion, H. Rydberg, E. Schroder, D. C. Langreth, and
     *   B. I. Lundqvist, Phys. Rev. Lett. 92, 246401 (2004).
     *
     *   T. Thonhauser, V. R. Cooper, S. Li, A. Puzder, P. Hyldgaard, and
     *   D. C. Langreth, Phys. Rev. B 76, 125112 (2007).
     *
     *   G. Roman-Perez and J. M. Soler, Phys. Rev. Lett. 103, 096102 (2009).
     *
     *
     * If you are using vdW-DF2, please also cite:
     *
     *   K. Lee, E. D. Murray, L. Kong, B. I. Lundqvist, and
     *   D. C. Langreth, Phys. Rev. B 82, 081101(R) (2010).
     *
     *
     * If you are calculating the stress with vdW-DF, please also cite:
     *
     *   R. Sabatini, E. Kucukbenli, B. Kolb, T. Thonhauser, and
     *   S. de Gironcoli, J. Phys.: Condens. Matter 24, 424209 (2012).
     *

     Carrying out vdW-DF run using the following parameters:

     Nqs =      20    Nr_points =    1024   r_max =   100.000
     q_mesh =
               0.00001000     0.04494208     0.09755937     0.15916263
               0.23128650     0.31572767     0.41458969     0.53033537
               0.66584808     0.82450364     1.01025438     1.22772762
               1.48234092     1.78043706     2.12944203     2.53805004
               3.01644009     3.57652955     4.23227104     5.00000000

     Gradients computed in reciprocal space

     Starting wfc are   26 randomized atomic wfcs +   10 random wfc

     Self-consistent Calculation

     iteration #  1     ecut=    58.80 Ry     beta=0.10
     Davidson diagonalization with overlap
     ethr =  1.00E-02,  avg # of iterations =  5.4

     total energy              =    -284.16167555 Ry
     Harris-Foulkes estimate   =    -285.30153967 Ry
     estimated scf accuracy    <       6.45671237 Ry

[...]

     total energy              =    -283.28116216 Ry
     Harris-Foulkes estimate   =    -283.28116482 Ry
     estimated scf accuracy    <       0.00000423 Ry

     iteration # 11     ecut=    58.80 Ry     beta=0.10
     Davidson diagonalization with overlap
     ethr =  1.32E-08,  avg # of iterations =  2.0

     End of self-consistent calculation

          k = 0.0000 0.0000 0.0000 (  4639 PWs)   bands (ev):

    -6.5664  -6.4896  -6.4145  -6.3590  -6.3590  -6.2356  -6.2356  -6.2210
    -6.1903  -6.0511  -1.3144   5.7598   5.7598   5.8909   6.4517   6.9815
     8.1720  11.8752  11.8752  12.4890  13.8107  13.8107  13.9807  14.1049
    14.6748  15.5227  15.5227  16.5204  16.6962  19.6081  19.9115  19.9115
    20.9484  20.9484  21.6897  22.6177

[...]

          k = 0.0956 0.0956 0.1061 (  4667 PWs)   bands (ev):

    -6.4418  -6.4312  -6.4298  -6.4272  -6.3077  -6.2988  -6.2372  -6.2328
    -6.1577  -6.1483   3.2865   3.8811   4.3490   4.3507   5.0877   5.1848
     5.3583   6.0401  15.1347  15.5204  16.6055  16.9412  17.1847  17.3067
    17.4855  17.7679  18.5184  18.7205  19.0546  19.7293  19.7505  19.9665
    20.9044  21.2035  21.2895  21.5139

     the Fermi energy is     8.5247 ev

!    total energy              =    -283.28117887 Ry
     Harris-Foulkes estimate   =    -283.28116318 Ry
     estimated scf accuracy    <       0.00000005 Ry

     The total energy is the sum of the following terms:

     one-electron contribution =    -106.80188588 Ry
     hartree contribution      =      77.43631199 Ry
     xc contribution           =     -87.08620906 Ry
     ewald contribution        =    -166.82537079 Ry
     smearing contrib. (-TS)   =      -0.00402513 Ry

     convergence has been achieved in  11 iterations

     Forces acting on atoms (Ry/au):

     atom    1 type  1   force =     0.00000000    0.00000000    0.00000000
     atom    2 type  1   force =     0.00000000    0.00000000    0.00000000
     atom    3 type  2   force =     0.00000000    0.00000000    0.00000000
     atom    4 type  2   force =     0.00000000    0.00000000    0.00000000

     Total force =     0.000000     Total SCF correction =     0.000000

     General routines

     Parallel routines

   This run was terminated on:  18:17:40  13Nov2017

   JOB DONE.