     Program PWSCF v.5.1rc2 (svn rev. ) starts on 14Nov2017 at 20:19:35

     Current dimensions of program PWSCF are:
     Max number of different atomic species (ntypx) = 10
     Max number of k-points (npk) =  40000
     Max angular momentum in pseudopotentials (lmaxx) =  3

     IMPORTANT: XC functional enforced from input :
     Exchange-correlation      = BEEF-VDW ( 1  4 27 13 2)
     Any further DFT definition will be discarded
     Please, verify this is what you really want

     Subspace diagonalization in iterative solution of the eigenvalue problem:
     a serial algorithm will be used

     Found symmetry operation: I + ( -0.5000 -0.5000  0.0000)
     This is a supercell, fractional translations are disabled

     bravais-lattice index     =            0
     lattice parameter (alat)  =       1.8897  a.u.
     unit-cell volume          =     621.5706 (a.u.)^3
     number of atoms/cell      =            4
     number of atomic types    =            2
     number of electrons       =        52.00
     number of Kohn-Sham states=           46
     kinetic-energy cutoff     =      58.7989  Ry
     charge density cutoff     =     587.9892  Ry
     convergence threshold     =      1.0E-06
     mixing beta               =       0.1000
     number of iterations used =           10  plain     mixing
     Exchange-correlation      = BEEF-VDW ( 1  4 27 13 2)

     celldm(1)=   1.889726  celldm(2)=   0.000000  celldm(3)=   0.000000
     celldm(4)=   0.000000  celldm(5)=   0.000000  celldm(6)=   0.000000

     crystal axes: (cart. coord. in units of alat)
               a(1) = (   5.070611   0.000000   0.000000 )
               a(2) = (   0.000000   5.070611   0.000000 )
               a(3) = (   0.000000   0.000000   3.582393 )

     reciprocal axes: (cart. coord. in units 2 pi/alat)
               b(1) = (  0.197215  0.000000  0.000000 )
               b(2) = (  0.000000  0.197215  0.000000 )
               b(3) = (  0.000000  0.000000  0.279143 )

     PseudoPot. # 1 for La read from file:
     /home/vossj/suncat/psp/gbrv1.5pbe/La.UPF
     MD5 check sum: 5937b0c7494ba0601a847275249473aa
     Pseudo is Ultrasoft + core correction, Zval = 11.0
     Generated by new atomic code, or converted to UPF format
     Using radial grid of  995 points,  8 beta functions with:
                l(1) =   0
                l(2) =   0
                l(3) =   1
                l(4) =   1
                l(5) =   2
                l(6) =   2
                l(7) =   3
                l(8) =   3
     Q(r) pseudized with  8 coefficients,  rinner =    1.700   1.700   1.700
                                                       1.700   1.700   1.700
                                                       1.700

     PseudoPot. # 2 for Tc read from file:
     /home/vossj/suncat/psp/gbrv1.5pbe/Tc.UPF
     MD5 check sum: 9eb49e5b028550b2339a02317eb7b844
     Pseudo is Ultrasoft + core correction, Zval = 15.0
     Generated by new atomic code, or converted to UPF format
     Using radial grid of  965 points,  6 beta functions with:
                l(1) =   0
                l(2) =   0
                l(3) =   1
                l(4) =   1
                l(5) =   2
                l(6) =   2
     Q(r) pseudized with  8 coefficients,  rinner =    1.300   1.300   1.300
                                                       1.300   1.300

     vdW kernel table read from file vdW_kernel_table
     MD5 check sum: 095c7af220d748ca6e76c0b4c6cfb241

     atomic species   valence    mass     pseudopotential
        La1           11.00   138.90547     La( 1.00)
        Tc1           15.00    97.90721     Tc( 1.00)

     16 Sym. Ops., with inversion, found

   Cartesian axes

     site n.     atom                  positions (alat units)
         1           La1 tau(   1) = (   0.0000000   0.0000000   0.0000000  )
         2           La1 tau(   2) = (   2.5353055   2.5353055   0.0000000  )
         3           Tc1 tau(   3) = (   2.5353055   0.0000000   1.7911966  )
         4           Tc1 tau(   4) = (   0.0000000   2.5353055   1.7911966  )

     number of k points=    75  Fermi-Dirac smearing, width (Ry)=  0.0073
                       cart. coord. in units 2pi/alat
        k(    1) = (   0.0000000   0.0000000   0.0000000), wk =   0.0027435
        k(    2) = (   0.0000000   0.0000000   0.0310159), wk =   0.0054870
        k(    3) = (   0.0000000   0.0000000   0.0620318), wk =   0.0054870
        k(    4) = (   0.0000000   0.0000000   0.0930477), wk =   0.0054870
        k(    5) = (   0.0000000   0.0000000   0.1240636), wk =   0.0054870
        k(    6) = (   0.0000000   0.0219128   0.0000000), wk =   0.0109739
        k(    7) = (   0.0000000   0.0219128   0.0310159), wk =   0.0219479
        k(    8) = (   0.0000000   0.0219128   0.0620318), wk =   0.0219479
        k(    9) = (   0.0000000   0.0219128   0.0930477), wk =   0.0219479
        k(   10) = (   0.0000000   0.0219128   0.1240636), wk =   0.0219479
        k(   11) = (   0.0000000   0.0438255   0.0000000), wk =   0.0109739
        k(   12) = (   0.0000000   0.0438255   0.0310159), wk =   0.0219479
        k(   13) = (   0.0000000   0.0438255   0.0620318), wk =   0.0219479
        k(   14) = (   0.0000000   0.0438255   0.0930477), wk =   0.0219479
        k(   15) = (   0.0000000   0.0438255   0.1240636), wk =   0.0219479
        k(   16) = (   0.0000000   0.0657383   0.0000000), wk =   0.0109739
        k(   17) = (   0.0000000   0.0657383   0.0310159), wk =   0.0219479
        k(   18) = (   0.0000000   0.0657383   0.0620318), wk =   0.0219479
        k(   19) = (   0.0000000   0.0657383   0.0930477), wk =   0.0219479
        k(   20) = (   0.0000000   0.0657383   0.1240636), wk =   0.0219479
        k(   21) = (   0.0000000   0.0876511   0.0000000), wk =   0.0109739
        k(   22) = (   0.0000000   0.0876511   0.0310159), wk =   0.0219479
        k(   23) = (   0.0000000   0.0876511   0.0620318), wk =   0.0219479
        k(   24) = (   0.0000000   0.0876511   0.0930477), wk =   0.0219479
        k(   25) = (   0.0000000   0.0876511   0.1240636), wk =   0.0219479
        k(   26) = (   0.0219128   0.0219128   0.0000000), wk =   0.0109739
        k(   27) = (   0.0219128   0.0219128   0.0310159), wk =   0.0219479
        k(   28) = (   0.0219128   0.0219128   0.0620318), wk =   0.0219479
        k(   29) = (   0.0219128   0.0219128   0.0930477), wk =   0.0219479
        k(   30) = (   0.0219128   0.0219128   0.1240636), wk =   0.0219479
        k(   31) = (   0.0219128   0.0438255   0.0000000), wk =   0.0219479
        k(   32) = (   0.0219128   0.0438255   0.0310159), wk =   0.0438957
        k(   33) = (   0.0219128   0.0438255   0.0620318), wk =   0.0438957
        k(   34) = (   0.0219128   0.0438255   0.0930477), wk =   0.0438957
        k(   35) = (   0.0219128   0.0438255   0.1240636), wk =   0.0438957
        k(   36) = (   0.0219128   0.0657383   0.0000000), wk =   0.0219479
        k(   37) = (   0.0219128   0.0657383   0.0310159), wk =   0.0438957
        k(   38) = (   0.0219128   0.0657383   0.0620318), wk =   0.0438957
        k(   39) = (   0.0219128   0.0657383   0.0930477), wk =   0.0438957
        k(   40) = (   0.0219128   0.0657383   0.1240636), wk =   0.0438957
        k(   41) = (   0.0219128   0.0876511   0.0000000), wk =   0.0219479
        k(   42) = (   0.0219128   0.0876511   0.0310159), wk =   0.0438957
        k(   43) = (   0.0219128   0.0876511   0.0620318), wk =   0.0438957
        k(   44) = (   0.0219128   0.0876511   0.0930477), wk =   0.0438957
        k(   45) = (   0.0219128   0.0876511   0.1240636), wk =   0.0438957
        k(   46) = (   0.0438255   0.0438255   0.0000000), wk =   0.0109739
        k(   47) = (   0.0438255   0.0438255   0.0310159), wk =   0.0219479
        k(   48) = (   0.0438255   0.0438255   0.0620318), wk =   0.0219479
        k(   49) = (   0.0438255   0.0438255   0.0930477), wk =   0.0219479
        k(   50) = (   0.0438255   0.0438255   0.1240636), wk =   0.0219479
        k(   51) = (   0.0438255   0.0657383   0.0000000), wk =   0.0219479
        k(   52) = (   0.0438255   0.0657383   0.0310159), wk =   0.0438957
        k(   53) = (   0.0438255   0.0657383   0.0620318), wk =   0.0438957
        k(   54) = (   0.0438255   0.0657383   0.0930477), wk =   0.0438957
        k(   55) = (   0.0438255   0.0657383   0.1240636), wk =   0.0438957
        k(   56) = (   0.0438255   0.0876511   0.0000000), wk =   0.0219479
        k(   57) = (   0.0438255   0.0876511   0.0310159), wk =   0.0438957
        k(   58) = (   0.0438255   0.0876511   0.0620318), wk =   0.0438957
        k(   59) = (   0.0438255   0.0876511   0.0930477), wk =   0.0438957
        k(   60) = (   0.0438255   0.0876511   0.1240636), wk =   0.0438957
        k(   61) = (   0.0657383   0.0657383   0.0000000), wk =   0.0109739
        k(   62) = (   0.0657383   0.0657383   0.0310159), wk =   0.0219479
        k(   63) = (   0.0657383   0.0657383   0.0620318), wk =   0.0219479
        k(   64) = (   0.0657383   0.0657383   0.0930477), wk =   0.0219479
        k(   65) = (   0.0657383   0.0657383   0.1240636), wk =   0.0219479
        k(   66) = (   0.0657383   0.0876511   0.0000000), wk =   0.0219479
        k(   67) = (   0.0657383   0.0876511   0.0310159), wk =   0.0438957
        k(   68) = (   0.0657383   0.0876511   0.0620318), wk =   0.0438957
        k(   69) = (   0.0657383   0.0876511   0.0930477), wk =   0.0438957
        k(   70) = (   0.0657383   0.0876511   0.1240636), wk =   0.0438957
        k(   71) = (   0.0876511   0.0876511   0.0000000), wk =   0.0109739
        k(   72) = (   0.0876511   0.0876511   0.0310159), wk =   0.0219479
        k(   73) = (   0.0876511   0.0876511   0.0620318), wk =   0.0219479
        k(   74) = (   0.0876511   0.0876511   0.0930477), wk =   0.0219479
        k(   75) = (   0.0876511   0.0876511   0.1240636), wk =   0.0219479

     Largest allocated arrays     est. size (Mb)     dimensions
     Largest temporary arrays     est. size (Mb)     dimensions

     Check: negative/imaginary core charge=   -0.000005    0.000000

     Initial potential from superposition of free atoms
     Check: negative starting charge=   -0.388633

     starting charge   49.93581, renormalised to   52.00000

     negative rho (up, down):  4.047E-01 0.000E+00

     *
     * You are using vdW-DF for exchange-correlation in this calculation.
     * Please cite the following three references that made this development
     * possible:
     *
     *   M. Dion, H. Rydberg, E. Schroder, D. C. Langreth, and
     *   B. I. Lundqvist, Phys. Rev. Lett. 92, 246401 (2004).
     *
     *   T. Thonhauser, V. R. Cooper, S. Li, A. Puzder, P. Hyldgaard, and
     *   D. C. Langreth, Phys. Rev. B 76, 125112 (2007).
     *
     *   G. Roman-Perez and J. M. Soler, Phys. Rev. Lett. 103, 096102 (2009).
     *
     *
     * If you are using vdW-DF2, please also cite:
     *
     *   K. Lee, E. D. Murray, L. Kong, B. I. Lundqvist, and
     *   D. C. Langreth, Phys. Rev. B 82, 081101(R) (2010).
     *
     *
     * If you are calculating the stress with vdW-DF, please also cite:
     *
     *   R. Sabatini, E. Kucukbenli, B. Kolb, T. Thonhauser, and
     *   S. de Gironcoli, J. Phys.: Condens. Matter 24, 424209 (2012).
     *

     Carrying out vdW-DF run using the following parameters:

     Nqs =      20    Nr_points =    1024   r_max =   100.000
     q_mesh =
               0.00001000     0.04494208     0.09755937     0.15916263
               0.23128650     0.31572767     0.41458969     0.53033537
               0.66584808     0.82450364     1.01025438     1.22772762
               1.48234092     1.78043706     2.12944203     2.53805004
               3.01644009     3.57652955     4.23227104     5.00000000

     Gradients computed in reciprocal space

     Starting wfc are   66 randomized atomic wfcs

     Self-consistent Calculation

     iteration #  1     ecut=    58.80 Ry     beta=0.10
     Davidson diagonalization with overlap
     ethr =  1.00E-02,  avg # of iterations =  2.0

[...]

     total energy              =    -558.61967437 Ry
     Harris-Foulkes estimate   =    -559.06520664 Ry
     estimated scf accuracy    <       2.67363356 Ry

[...]

     total energy              =    -558.61948792 Ry
     Harris-Foulkes estimate   =    -558.61947209 Ry
     estimated scf accuracy    <       0.00000435 Ry

     iteration # 14     ecut=    58.80 Ry     beta=0.10
     Davidson diagonalization with overlap
     ethr =  3.66E-09,  avg # of iterations =  3.0

     negative rho (up, down):  3.363E-01 0.000E+00

     End of self-consistent calculation

          k = 0.0000 0.0000 0.0000 (  4733 PWs)   bands (ev):

   -50.5145 -50.5107 -22.5999 -22.5999 -22.5632 -22.5619 -22.5619 -22.5552
   -16.4142 -16.1929  -0.5410  -0.5410   0.4189   0.4189   0.4226   0.6368
    11.5668  12.1323  12.5326  12.5331  13.2333  14.0554  14.0554  15.2659
    15.2699  15.2699  16.5770  17.0140  17.9518  17.9518  18.6358  18.6358
    18.6378  18.6700  18.6800  18.7135  18.7145  18.7145  18.7541  18.7541
    18.7559  19.0012  19.1633  19.2175  19.3884  20.1906

[...]

          k = 0.0877 0.0877 0.1241 (  4746 PWs)   bands (ev):

   -50.5108 -50.5107 -22.6008 -22.6002 -22.6001 -22.5990 -22.5552 -22.5541
   -16.1971 -16.1912  -0.5473  -0.5296  -0.5166  -0.5147   0.5910   0.6246
    12.2315  12.2328  13.2778  13.3240  14.0774  14.0791  14.0851  14.1403
    16.3617  16.4500  16.7862  16.9291  17.8549  18.0277  18.0730  18.0844
    18.6726  18.6755  18.6982  18.7084  18.7215  18.7334  19.0995  19.1567
    19.1572  19.2216  19.3588  19.5423  19.9230  19.9907

     the Fermi energy is    15.4642 ev

!    total energy              =    -558.61956103 Ry
     Harris-Foulkes estimate   =    -558.61948853 Ry
     estimated scf accuracy    <       0.00000012 Ry

     The total energy is the sum of the following terms:

     one-electron contribution =    -103.19586988 Ry
     hartree contribution      =      80.82528688 Ry
     xc contribution           =    -168.23168213 Ry
     ewald contribution        =    -367.99989690 Ry
     smearing contrib. (-TS)   =      -0.01739899 Ry

     convergence has been achieved in  14 iterations

     Forces acting on atoms (Ry/au):

     negative rho (up, down):  3.363E-01 0.000E+00
     atom    1 type  1   force =     0.00000000    0.00000000    0.00000000
     atom    2 type  1   force =     0.00000000    0.00000000    0.00000000
     atom    3 type  2   force =     0.00000000    0.00000000    0.00000000
     atom    4 type  2   force =     0.00000000    0.00000000    0.00000000

     Total force =     0.000000     Total SCF correction =     0.000000

     General routines

     Parallel routines

   This run was terminated on:  20:20:52  14Nov2017

   JOB DONE.