     Program PWSCF v.5.1rc2 starts on 15Nov2017 at  7:21:21

     Current dimensions of program PWSCF are:
     Max number of different atomic species (ntypx) = 10
     Max number of k-points (npk) =  40000
     Max angular momentum in pseudopotentials (lmaxx) =  3

     IMPORTANT: XC functional enforced from input :
     Exchange-correlation      = BEEF-VDW ( 1  4 27 13 2)
     Any further DFT definition will be discarded
     Please, verify this is what you really want

     Found symmetry operation: I + ( -0.5000 -0.5000  0.0000)
     This is a supercell, fractional translations are disabled

     bravais-lattice index     =            0
     lattice parameter (alat)  =       1.8897  a.u.
     unit-cell volume          =     512.2484 (a.u.)^3
     number of atoms/cell      =            4
     number of atomic types    =            2
     number of electrons       =        56.00
     number of Kohn-Sham states=           48
     kinetic-energy cutoff     =      58.7989  Ry
     charge density cutoff     =     587.9892  Ry
     convergence threshold     =      1.0E-06
     mixing beta               =       0.1000
     number of iterations used =           10  plain     mixing
     Exchange-correlation      = BEEF-VDW ( 1  4 27 13 2)

     celldm(1)=   1.889726  celldm(2)=   0.000000  celldm(3)=   0.000000
     celldm(4)=   0.000000  celldm(5)=   0.000000  celldm(6)=   0.000000

     crystal axes: (cart. coord. in units of alat)
               a(1) = (   4.841221   0.000000   0.000000 )
               a(2) = (   0.000000   4.841221   0.000000 )
               a(3) = (   0.000000   0.000000   3.238726 )

     reciprocal axes: (cart. coord. in units 2 pi/alat)
               b(1) = (  0.206559  0.000000  0.000000 )
               b(2) = (  0.000000  0.206559  0.000000 )
               b(3) = (  0.000000  0.000000  0.308763 )

     PseudoPot. # 1 for Zr read from file:
     /home/users/vossj/suncat/psp/gbrv1.5pbe/Zr.UPF
     MD5 check sum: 5db81b1e868ab7776c4564c113de050b
     Pseudo is Ultrasoft + core correction, Zval = 12.0
     Generated by new atomic code, or converted to UPF format
     Using radial grid of  887 points,  6 beta functions with:
                l(1) =   0
                l(2) =   0
                l(3) =   1
                l(4) =   1
                l(5) =   2
                l(6) =   2
     Q(r) pseudized with  6 coefficients,  rinner =    1.200   1.200   1.200
                                                       1.200   1.200

     PseudoPot. # 2 for Pt read from file:
     /home/users/vossj/suncat/psp/gbrv1.5pbe/Pt.UPF
     MD5 check sum: f09d6de1a584b5a045c4fc126da2d0c4
     Pseudo is Ultrasoft + core correction, Zval = 16.0
     Generated by new atomic code, or converted to UPF format
     Using radial grid of  985 points,  6 beta functions with:
                l(1) =   0
                l(2) =   0
                l(3) =   1
                l(4) =   1
                l(5) =   2
                l(6) =   2
     Q(r) pseudized with  8 coefficients,  rinner =    1.300   1.300   1.300
                                                       1.300   1.300

     vdW kernel table read from file vdW_kernel_table
     MD5 check sum: 095c7af220d748ca6e76c0b4c6cfb241

     atomic species   valence    mass     pseudopotential
        Zr1           12.00    91.22400     Zr( 1.00)
        Pt1           16.00   195.08000     Pt( 1.00)

     16 Sym. Ops., with inversion, found

   Cartesian axes

     site n.     atom                  positions (alat units)
         1           Zr1 tau(   1) = (   0.0000000   0.0000000   0.0000000  )
         2           Zr1 tau(   2) = (   2.4206105   2.4206105   0.0000000  )
         3           Pt1 tau(   3) = (   2.4206105   0.0000000   1.6193629  )
         4           Pt1 tau(   4) = (   0.0000000   2.4206105   1.6193629  )

     number of k points=    75  Fermi-Dirac smearing, width (Ry)=  0.0073
                       cart. coord. in units 2pi/alat
        k(    1) = (   0.0000000   0.0000000   0.0000000), wk =   0.0027435
        k(    2) = (   0.0000000   0.0000000   0.0343070), wk =   0.0054870
        k(    3) = (   0.0000000   0.0000000   0.0686141), wk =   0.0054870
        k(    4) = (   0.0000000   0.0000000   0.1029211), wk =   0.0054870
        k(    5) = (   0.0000000   0.0000000   0.1372282), wk =   0.0054870
        k(    6) = (   0.0000000   0.0229511   0.0000000), wk =   0.0109739
        k(    7) = (   0.0000000   0.0229511   0.0343070), wk =   0.0219479
        k(    8) = (   0.0000000   0.0229511   0.0686141), wk =   0.0219479
        k(    9) = (   0.0000000   0.0229511   0.1029211), wk =   0.0219479
        k(   10) = (   0.0000000   0.0229511   0.1372282), wk =   0.0219479
        k(   11) = (   0.0000000   0.0459021   0.0000000), wk =   0.0109739
        k(   12) = (   0.0000000   0.0459021   0.0343070), wk =   0.0219479
        k(   13) = (   0.0000000   0.0459021   0.0686141), wk =   0.0219479
        k(   14) = (   0.0000000   0.0459021   0.1029211), wk =   0.0219479
        k(   15) = (   0.0000000   0.0459021   0.1372282), wk =   0.0219479
        k(   16) = (   0.0000000   0.0688532   0.0000000), wk =   0.0109739
        k(   17) = (   0.0000000   0.0688532   0.0343070), wk =   0.0219479
        k(   18) = (   0.0000000   0.0688532   0.0686141), wk =   0.0219479
        k(   19) = (   0.0000000   0.0688532   0.1029211), wk =   0.0219479
        k(   20) = (   0.0000000   0.0688532   0.1372282), wk =   0.0219479
        k(   21) = (   0.0000000   0.0918042   0.0000000), wk =   0.0109739
        k(   22) = (   0.0000000   0.0918042   0.0343070), wk =   0.0219479
        k(   23) = (   0.0000000   0.0918042   0.0686141), wk =   0.0219479
        k(   24) = (   0.0000000   0.0918042   0.1029211), wk =   0.0219479
        k(   25) = (   0.0000000   0.0918042   0.1372282), wk =   0.0219479
        k(   26) = (   0.0229511   0.0229511   0.0000000), wk =   0.0109739
        k(   27) = (   0.0229511   0.0229511   0.0343070), wk =   0.0219479
        k(   28) = (   0.0229511   0.0229511   0.0686141), wk =   0.0219479
        k(   29) = (   0.0229511   0.0229511   0.1029211), wk =   0.0219479
        k(   30) = (   0.0229511   0.0229511   0.1372282), wk =   0.0219479
        k(   31) = (   0.0229511   0.0459021   0.0000000), wk =   0.0219479
        k(   32) = (   0.0229511   0.0459021   0.0343070), wk =   0.0438957
        k(   33) = (   0.0229511   0.0459021   0.0686141), wk =   0.0438957
        k(   34) = (   0.0229511   0.0459021   0.1029211), wk =   0.0438957
        k(   35) = (   0.0229511   0.0459021   0.1372282), wk =   0.0438957
        k(   36) = (   0.0229511   0.0688532   0.0000000), wk =   0.0219479
        k(   37) = (   0.0229511   0.0688532   0.0343070), wk =   0.0438957
        k(   38) = (   0.0229511   0.0688532   0.0686141), wk =   0.0438957
        k(   39) = (   0.0229511   0.0688532   0.1029211), wk =   0.0438957
        k(   40) = (   0.0229511   0.0688532   0.1372282), wk =   0.0438957
        k(   41) = (   0.0229511   0.0918042   0.0000000), wk =   0.0219479
        k(   42) = (   0.0229511   0.0918042   0.0343070), wk =   0.0438957
        k(   43) = (   0.0229511   0.0918042   0.0686141), wk =   0.0438957
        k(   44) = (   0.0229511   0.0918042   0.1029211), wk =   0.0438957
        k(   45) = (   0.0229511   0.0918042   0.1372282), wk =   0.0438957
        k(   46) = (   0.0459021   0.0459021   0.0000000), wk =   0.0109739
        k(   47) = (   0.0459021   0.0459021   0.0343070), wk =   0.0219479
        k(   48) = (   0.0459021   0.0459021   0.0686141), wk =   0.0219479
        k(   49) = (   0.0459021   0.0459021   0.1029211), wk =   0.0219479
        k(   50) = (   0.0459021   0.0459021   0.1372282), wk =   0.0219479
        k(   51) = (   0.0459021   0.0688532   0.0000000), wk =   0.0219479
        k(   52) = (   0.0459021   0.0688532   0.0343070), wk =   0.0438957
        k(   53) = (   0.0459021   0.0688532   0.0686141), wk =   0.0438957
        k(   54) = (   0.0459021   0.0688532   0.1029211), wk =   0.0438957
        k(   55) = (   0.0459021   0.0688532   0.1372282), wk =   0.0438957
        k(   56) = (   0.0459021   0.0918042   0.0000000), wk =   0.0219479
        k(   57) = (   0.0459021   0.0918042   0.0343070), wk =   0.0438957
        k(   58) = (   0.0459021   0.0918042   0.0686141), wk =   0.0438957
        k(   59) = (   0.0459021   0.0918042   0.1029211), wk =   0.0438957
        k(   60) = (   0.0459021   0.0918042   0.1372282), wk =   0.0438957
        k(   61) = (   0.0688532   0.0688532   0.0000000), wk =   0.0109739
        k(   62) = (   0.0688532   0.0688532   0.0343070), wk =   0.0219479
        k(   63) = (   0.0688532   0.0688532   0.0686141), wk =   0.0219479
        k(   64) = (   0.0688532   0.0688532   0.1029211), wk =   0.0219479
        k(   65) = (   0.0688532   0.0688532   0.1372282), wk =   0.0219479
        k(   66) = (   0.0688532   0.0918042   0.0000000), wk =   0.0219479
        k(   67) = (   0.0688532   0.0918042   0.0343070), wk =   0.0438957
        k(   68) = (   0.0688532   0.0918042   0.0686141), wk =   0.0438957
        k(   69) = (   0.0688532   0.0918042   0.1029211), wk =   0.0438957
        k(   70) = (   0.0688532   0.0918042   0.1372282), wk =   0.0438957
        k(   71) = (   0.0918042   0.0918042   0.0000000), wk =   0.0109739
        k(   72) = (   0.0918042   0.0918042   0.0343070), wk =   0.0219479
        k(   73) = (   0.0918042   0.0918042   0.0686141), wk =   0.0219479
        k(   74) = (   0.0918042   0.0918042   0.1029211), wk =   0.0219479
        k(   75) = (   0.0918042   0.0918042   0.1372282), wk =   0.0219479

     Largest allocated arrays     est. size (Mb)     dimensions
     Largest temporary arrays     est. size (Mb)     dimensions

     Initial potential from superposition of free atoms
     Check: negative starting charge=   -0.485311

     starting charge   54.99568, renormalised to   56.00000

     negative rho (up, down):  4.942E-01 0.000E+00

     *
     * You are using vdW-DF for exchange-correlation in this calculation.
     * Please cite the following three references that made this development
     * possible:
     *
     *   M. Dion, H. Rydberg, E. Schroder, D. C. Langreth, and
     *   B. I. Lundqvist, Phys. Rev. Lett. 92, 246401 (2004).
     *
     *   T. Thonhauser, V. R. Cooper, S. Li, A. Puzder, P. Hyldgaard, and
     *   D. C. Langreth, Phys. Rev. B 76, 125112 (2007).
     *
     *   G. Roman-Perez and J. M. Soler, Phys. Rev. Lett. 103, 096102 (2009).
     *
     *
     * If you are using vdW-DF2, please also cite:
     *
     *   K. Lee, E. D. Murray, L. Kong, B. I. Lundqvist, and
     *   D. C. Langreth, Phys. Rev. B 82, 081101(R) (2010).
     *
     *
     * If you are calculating the stress with vdW-DF, please also cite:
     *
     *   R. Sabatini, E. Kucukbenli, B. Kolb, T. Thonhauser, and
     *   S. de Gironcoli, J. Phys.: Condens. Matter 24, 424209 (2012).
     *

     Carrying out vdW-DF run using the following parameters:

     Nqs =      20    Nr_points =    1024   r_max =   100.000
     q_mesh =
               0.00001000     0.04494208     0.09755937     0.15916263
               0.23128650     0.31572767     0.41458969     0.53033537
               0.66584808     0.82450364     1.01025438     1.22772762
               1.48234092     1.78043706     2.12944203     2.53805004
               3.01644009     3.57652955     4.23227104     5.00000000

     Gradients computed in reciprocal space

     Starting wfc are   50 randomized atomic wfcs

     Self-consistent Calculation

     iteration #  1     ecut=    58.80 Ry     beta=0.10
     Davidson diagonalization with overlap
     ethr =  1.00E-02,  avg # of iterations =  4.3

[...]

     total energy              =    -624.49423627 Ry
     Harris-Foulkes estimate   =    -625.19934000 Ry
     estimated scf accuracy    <       4.22803733 Ry

[...]

     total energy              =    -624.57935120 Ry
     Harris-Foulkes estimate   =    -624.57935397 Ry
     estimated scf accuracy    <       0.00000109 Ry

     iteration # 12     ecut=    58.80 Ry     beta=0.10
     Davidson diagonalization with overlap
     ethr =  1.95E-09,  avg # of iterations =  1.0

     negative rho (up, down):  4.740E-01 0.000E+00

     End of self-consistent calculation

          k = 0.0000 0.0000 0.0000 (  3895 PWs)   bands (ev):

   -35.4523 -35.4523 -35.4338 -35.4338 -35.4158 -35.4126 -32.0591 -32.0182
   -10.1213 -10.1213  -9.8821  -9.8821  -9.7593  -9.7173   9.8156  11.8434
    12.3362  12.3962  12.4246  13.8471  13.8471  14.4182  14.7453  14.7453
    15.7532  16.0668  18.0493  18.0493  18.2093  18.6547  18.7575  21.3781
    21.3781  21.4007  21.4691  21.4691  21.5296  24.2279  24.2279  25.4468
    25.6305  26.5946  29.0198  29.0198  30.6406  31.0378  31.4321  31.4321

[...]

          k = 0.0918 0.0918 0.1372 (  3895 PWs)   bands (ev):

   -35.4532 -35.4530 -35.4506 -35.4500 -35.4293 -35.4287 -32.0002 -31.9992
   -10.1641 -10.1619 -10.1005 -10.0934  -9.8285  -9.8211  12.0138  12.0467
    12.3902  12.3971  13.4399  13.4537  13.4898  13.5279  15.6776  15.8077
    16.4369  16.4850  18.1158  18.2275  18.3757  18.5037  19.2917  19.3726
    21.0061  21.2941  21.3173  21.4786  21.9965  22.0327  25.4576  25.6941
    27.2178  27.3090  28.6959  28.8456  29.0860  29.1462  29.5378  29.6048

     the Fermi energy is    17.7379 ev

!    total energy              =    -624.57936885 Ry
     Harris-Foulkes estimate   =    -624.57935125 Ry
     estimated scf accuracy    <       0.00000029 Ry

     The total energy is the sum of the following terms:

     one-electron contribution =    -104.48841793 Ry
     hartree contribution      =      88.51707325 Ry
     xc contribution           =    -154.24551253 Ry
     ewald contribution        =    -454.35259022 Ry
     smearing contrib. (-TS)   =      -0.00992142 Ry

     convergence has been achieved in  12 iterations

     Forces acting on atoms (Ry/au):

     negative rho (up, down):  4.740E-01 0.000E+00
     atom    1 type  1   force =     0.00000000    0.00000000    0.00000000
     atom    2 type  1   force =     0.00000000    0.00000000    0.00000000
     atom    3 type  2   force =     0.00000000    0.00000000    0.00000000
     atom    4 type  2   force =     0.00000000    0.00000000    0.00000000

     Total force =     0.000000     Total SCF correction =     0.000000

     General routines

     Parallel routines

   This run was terminated on:   7:22: 1  15Nov2017

   JOB DONE.