     Program PWSCF v.5.1rc2 starts on 15Nov2017 at  4:43:53

     Current dimensions of program PWSCF are:
     Max number of different atomic species (ntypx) = 10
     Max number of k-points (npk) =  40000
     Max angular momentum in pseudopotentials (lmaxx) =  3

     IMPORTANT: XC functional enforced from input :
     Exchange-correlation      = BEEF-VDW ( 1  4 27 13 2)
     Any further DFT definition will be discarded
     Please, verify this is what you really want

     Found symmetry operation: I + (  0.5000  0.5000  0.0000)
     This is a supercell, fractional translations are disabled

     bravais-lattice index     =            0
     lattice parameter (alat)  =       1.8897  a.u.
     unit-cell volume          =     440.2500 (a.u.)^3
     number of atoms/cell      =            4
     number of atomic types    =            2
     number of electrons       =        52.00
     number of Kohn-Sham states=           46
     kinetic-energy cutoff     =      58.7989  Ry
     charge density cutoff     =     587.9892  Ry
     convergence threshold     =      1.0E-06
     mixing beta               =       0.1000
     number of iterations used =           10  plain     mixing
     Exchange-correlation      = BEEF-VDW ( 1  4 27 13 2)

     celldm(1)=   1.889726  celldm(2)=   0.000000  celldm(3)=   0.000000
     celldm(4)=   0.000000  celldm(5)=   0.000000  celldm(6)=   0.000000

     crystal axes: (cart. coord. in units of alat)
               a(1) = (   3.855914   0.000000   0.000000 )
               a(2) = (   0.000000   3.855914   0.000000 )
               a(3) = (   0.000000   0.000000   4.387813 )

     reciprocal axes: (cart. coord. in units 2 pi/alat)
               b(1) = (  0.259342  0.000000  0.000000 )
               b(2) = (  0.000000  0.259342  0.000000 )
               b(3) = (  0.000000  0.000000  0.227904 )

     PseudoPot. # 1 for Re read from file:
     /home/users/vossj/suncat/psp/gbrv1.5pbe/Re.UPF
     MD5 check sum: 85f993410f3e006da9d71c142b4ad953
     Pseudo is Ultrasoft + core correction, Zval = 15.0
     Generated by new atomic code, or converted to UPF format
     Using radial grid of  981 points,  8 beta functions with:
                l(1) =   0
                l(2) =   0
                l(3) =   1
                l(4) =   1
                l(5) =   2
                l(6) =   2
                l(7) =   3
                l(8) =   3
     Q(r) pseudized with  8 coefficients,  rinner =    1.150   1.150   1.150
                                                       1.150   1.150   1.150
                                                       1.150

     PseudoPot. # 2 for Au read from file:
     /home/users/vossj/suncat/psp/gbrv1.5pbe/Au.UPF
     MD5 check sum: 9d7f43293ad2c663164586bc4b293ffc
     Pseudo is Ultrasoft + core correction, Zval = 11.0
     Generated by new atomic code, or converted to UPF format
     Using radial grid of  985 points,  7 beta functions with:
                l(1) =   0
                l(2) =   0
                l(3) =   1
                l(4) =   1
                l(5) =   2
                l(6) =   2
                l(7) =   3
     Q(r) pseudized with  6 coefficients,  rinner =    1.900   1.900   1.900
                                                       1.900   1.900   1.900
                                                       1.900

     vdW kernel table read from file vdW_kernel_table
     MD5 check sum: 095c7af220d748ca6e76c0b4c6cfb241

     atomic species   valence    mass     pseudopotential
        Re1           15.00   186.20700     Re( 1.00)
        Au1           11.00   196.96650     Au( 1.00)

     16 Sym. Ops., with inversion, found

   Cartesian axes

     site n.     atom                  positions (alat units)
         1           Re1 tau(   1) = (   0.0000000   0.0000000   0.0000000  )
         2           Re1 tau(   2) = (   1.9279569   1.9279569   0.0000000  )
         3           Au1 tau(   3) = (   1.9279569   0.0000000   2.1939066  )
         4           Au1 tau(   4) = (   0.0000000   1.9279569   2.1939066  )

     number of k points=    75  Fermi-Dirac smearing, width (Ry)=  0.0073
                       cart. coord. in units 2pi/alat
        k(    1) = (   0.0000000   0.0000000   0.0000000), wk =   0.0027435
        k(    2) = (   0.0000000   0.0000000   0.0253227), wk =   0.0054870
        k(    3) = (   0.0000000   0.0000000   0.0506453), wk =   0.0054870
        k(    4) = (   0.0000000   0.0000000   0.0759680), wk =   0.0054870
        k(    5) = (   0.0000000   0.0000000   0.1012906), wk =   0.0054870
        k(    6) = (   0.0000000   0.0288158   0.0000000), wk =   0.0109739
        k(    7) = (   0.0000000   0.0288158   0.0253227), wk =   0.0219479
        k(    8) = (   0.0000000   0.0288158   0.0506453), wk =   0.0219479
        k(    9) = (   0.0000000   0.0288158   0.0759680), wk =   0.0219479
        k(   10) = (   0.0000000   0.0288158   0.1012906), wk =   0.0219479
        k(   11) = (   0.0000000   0.0576315   0.0000000), wk =   0.0109739
        k(   12) = (   0.0000000   0.0576315   0.0253227), wk =   0.0219479
        k(   13) = (   0.0000000   0.0576315   0.0506453), wk =   0.0219479
        k(   14) = (   0.0000000   0.0576315   0.0759680), wk =   0.0219479
        k(   15) = (   0.0000000   0.0576315   0.1012906), wk =   0.0219479
        k(   16) = (   0.0000000   0.0864473   0.0000000), wk =   0.0109739
        k(   17) = (   0.0000000   0.0864473   0.0253227), wk =   0.0219479
        k(   18) = (   0.0000000   0.0864473   0.0506453), wk =   0.0219479
        k(   19) = (   0.0000000   0.0864473   0.0759680), wk =   0.0219479
        k(   20) = (   0.0000000   0.0864473   0.1012906), wk =   0.0219479
        k(   21) = (   0.0000000   0.1152631   0.0000000), wk =   0.0109739
        k(   22) = (   0.0000000   0.1152631   0.0253227), wk =   0.0219479
        k(   23) = (   0.0000000   0.1152631   0.0506453), wk =   0.0219479
        k(   24) = (   0.0000000   0.1152631   0.0759680), wk =   0.0219479
        k(   25) = (   0.0000000   0.1152631   0.1012906), wk =   0.0219479
        k(   26) = (   0.0288158   0.0288158   0.0000000), wk =   0.0109739
        k(   27) = (   0.0288158   0.0288158   0.0253227), wk =   0.0219479
        k(   28) = (   0.0288158   0.0288158   0.0506453), wk =   0.0219479
        k(   29) = (   0.0288158   0.0288158   0.0759680), wk =   0.0219479
        k(   30) = (   0.0288158   0.0288158   0.1012906), wk =   0.0219479
        k(   31) = (   0.0288158   0.0576315   0.0000000), wk =   0.0219479
        k(   32) = (   0.0288158   0.0576315   0.0253227), wk =   0.0438957
        k(   33) = (   0.0288158   0.0576315   0.0506453), wk =   0.0438957
        k(   34) = (   0.0288158   0.0576315   0.0759680), wk =   0.0438957
        k(   35) = (   0.0288158   0.0576315   0.1012906), wk =   0.0438957
        k(   36) = (   0.0288158   0.0864473   0.0000000), wk =   0.0219479
        k(   37) = (   0.0288158   0.0864473   0.0253227), wk =   0.0438957
        k(   38) = (   0.0288158   0.0864473   0.0506453), wk =   0.0438957
        k(   39) = (   0.0288158   0.0864473   0.0759680), wk =   0.0438957
        k(   40) = (   0.0288158   0.0864473   0.1012906), wk =   0.0438957
        k(   41) = (   0.0288158   0.1152631   0.0000000), wk =   0.0219479
        k(   42) = (   0.0288158   0.1152631   0.0253227), wk =   0.0438957
        k(   43) = (   0.0288158   0.1152631   0.0506453), wk =   0.0438957
        k(   44) = (   0.0288158   0.1152631   0.0759680), wk =   0.0438957
        k(   45) = (   0.0288158   0.1152631   0.1012906), wk =   0.0438957
        k(   46) = (   0.0576315   0.0576315   0.0000000), wk =   0.0109739
        k(   47) = (   0.0576315   0.0576315   0.0253227), wk =   0.0219479
        k(   48) = (   0.0576315   0.0576315   0.0506453), wk =   0.0219479
        k(   49) = (   0.0576315   0.0576315   0.0759680), wk =   0.0219479
        k(   50) = (   0.0576315   0.0576315   0.1012906), wk =   0.0219479
        k(   51) = (   0.0576315   0.0864473   0.0000000), wk =   0.0219479
        k(   52) = (   0.0576315   0.0864473   0.0253227), wk =   0.0438957
        k(   53) = (   0.0576315   0.0864473   0.0506453), wk =   0.0438957
        k(   54) = (   0.0576315   0.0864473   0.0759680), wk =   0.0438957
        k(   55) = (   0.0576315   0.0864473   0.1012906), wk =   0.0438957
        k(   56) = (   0.0576315   0.1152631   0.0000000), wk =   0.0219479
        k(   57) = (   0.0576315   0.1152631   0.0253227), wk =   0.0438957
        k(   58) = (   0.0576315   0.1152631   0.0506453), wk =   0.0438957
        k(   59) = (   0.0576315   0.1152631   0.0759680), wk =   0.0438957
        k(   60) = (   0.0576315   0.1152631   0.1012906), wk =   0.0438957
        k(   61) = (   0.0864473   0.0864473   0.0000000), wk =   0.0109739
        k(   62) = (   0.0864473   0.0864473   0.0253227), wk =   0.0219479
        k(   63) = (   0.0864473   0.0864473   0.0506453), wk =   0.0219479
        k(   64) = (   0.0864473   0.0864473   0.0759680), wk =   0.0219479
        k(   65) = (   0.0864473   0.0864473   0.1012906), wk =   0.0219479
        k(   66) = (   0.0864473   0.1152631   0.0000000), wk =   0.0219479
        k(   67) = (   0.0864473   0.1152631   0.0253227), wk =   0.0438957
        k(   68) = (   0.0864473   0.1152631   0.0506453), wk =   0.0438957
        k(   69) = (   0.0864473   0.1152631   0.0759680), wk =   0.0438957
        k(   70) = (   0.0864473   0.1152631   0.1012906), wk =   0.0438957
        k(   71) = (   0.1152631   0.1152631   0.0000000), wk =   0.0109739
        k(   72) = (   0.1152631   0.1152631   0.0253227), wk =   0.0219479
        k(   73) = (   0.1152631   0.1152631   0.0506453), wk =   0.0219479
        k(   74) = (   0.1152631   0.1152631   0.0759680), wk =   0.0219479
        k(   75) = (   0.1152631   0.1152631   0.1012906), wk =   0.0219479

     Largest allocated arrays     est. size (Mb)     dimensions
     Largest temporary arrays     est. size (Mb)     dimensions

     Initial potential from superposition of free atoms
     Check: negative starting charge=   -0.258887

     starting charge   50.99967, renormalised to   52.00000

     negative rho (up, down):  2.640E-01 0.000E+00

     *
     * You are using vdW-DF for exchange-correlation in this calculation.
     * Please cite the following three references that made this development
     * possible:
     *
     *   M. Dion, H. Rydberg, E. Schroder, D. C. Langreth, and
     *   B. I. Lundqvist, Phys. Rev. Lett. 92, 246401 (2004).
     *
     *   T. Thonhauser, V. R. Cooper, S. Li, A. Puzder, P. Hyldgaard, and
     *   D. C. Langreth, Phys. Rev. B 76, 125112 (2007).
     *
     *   G. Roman-Perez and J. M. Soler, Phys. Rev. Lett. 103, 096102 (2009).
     *
     *
     * If you are using vdW-DF2, please also cite:
     *
     *   K. Lee, E. D. Murray, L. Kong, B. I. Lundqvist, and
     *   D. C. Langreth, Phys. Rev. B 82, 081101(R) (2010).
     *
     *
     * If you are calculating the stress with vdW-DF, please also cite:
     *
     *   R. Sabatini, E. Kucukbenli, B. Kolb, T. Thonhauser, and
     *   S. de Gironcoli, J. Phys.: Condens. Matter 24, 424209 (2012).
     *

     Carrying out vdW-DF run using the following parameters:

     Nqs =      20    Nr_points =    1024   r_max =   100.000
     q_mesh =
               0.00001000     0.04494208     0.09755937     0.15916263
               0.23128650     0.31572767     0.41458969     0.53033537
               0.66584808     0.82450364     1.01025438     1.22772762
               1.48234092     1.78043706     2.12944203     2.53805004
               3.01644009     3.57652955     4.23227104     5.00000000

     Gradients computed in reciprocal space

     Starting wfc are   44 randomized atomic wfcs +    2 random wfc

     Self-consistent Calculation

     iteration #  1     ecut=    58.80 Ry     beta=0.10
     Davidson diagonalization with overlap
     ethr =  1.00E-02,  avg # of iterations =  5.0

[...]

     total energy              =    -617.44367413 Ry
     Harris-Foulkes estimate   =    -618.09737754 Ry
     estimated scf accuracy    <       3.70386669 Ry

[...]

     iteration #  5     ecut=    58.80 Ry     beta=0.10
     Davidson diagonalization with overlap
     c_bands:  1 eigenvalues not converged
     ethr =  4.71E-05,  avg # of iterations =  5.6

[...]

     iteration #  6     ecut=    58.80 Ry     beta=0.10
     Davidson diagonalization with overlap
     c_bands:  1 eigenvalues not converged
     ethr =  1.04E-05,  avg # of iterations =  6.5

[...]

     total energy              =    -617.65966329 Ry
     Harris-Foulkes estimate   =    -617.65966340 Ry
     estimated scf accuracy    <       0.00000147 Ry

     iteration # 13     ecut=    58.80 Ry     beta=0.10
     Davidson diagonalization with overlap
     ethr =  2.19E-09,  avg # of iterations =  1.1

     negative rho (up, down):  2.702E-01 0.000E+00

     End of self-consistent calculation

          k = 0.0000 0.0000 0.0000 (  3349 PWs)   bands (ev):

   -61.5732 -61.4906 -23.4933 -23.4933 -23.2855 -23.1453 -22.9050 -22.9050
     9.1436  11.6492  11.8242  12.0707  12.4336  12.4336  12.4803  15.0271
    15.0271  15.3838  16.3450  16.6923  17.6152  17.6352  19.1528  19.3757
    19.3757  20.5415  20.8992  20.8992  21.4348  21.4348  21.8684  23.8151
    25.8641  27.2657  27.8091  29.7118  29.8023  29.8023  30.3017  31.2377
    31.2377  33.0426  35.5970  38.0413  38.4481  38.4482

[...]

          k = 0.1153 0.1153 0.1013 (  3389 PWs)   bands (ev):

   -61.5328 -61.5303 -23.5711 -23.5541 -23.2181 -23.2138 -22.8676 -22.8491
    11.7648  11.8179  11.8341  11.8909  13.6080  13.6458  14.6046  14.7712
    15.2501  15.3270  15.8903  16.0664  17.1987  17.8403  18.0657  18.2396
    18.4110  19.0242  19.7083  20.2671  20.7852  20.8287  20.8988  21.1416
    24.3415  24.6369  26.6814  26.8813  31.6852  31.7718  32.2619  32.4363
    36.0922  36.3884  36.8038  37.1099  37.1438  37.4805

     the Fermi energy is    19.4192 ev

!    total energy              =    -617.65966526 Ry
     Harris-Foulkes estimate   =    -617.65966357 Ry
     estimated scf accuracy    <       0.00000006 Ry

     The total energy is the sum of the following terms:

     one-electron contribution =     -31.36290381 Ry
     hartree contribution      =      61.37596017 Ry
     xc contribution           =    -236.33255448 Ry
     ewald contribution        =    -411.33364879 Ry
     smearing contrib. (-TS)   =      -0.00651835 Ry

     convergence has been achieved in  13 iterations

     Forces acting on atoms (Ry/au):

     negative rho (up, down):  2.702E-01 0.000E+00
     atom    1 type  1   force =     0.00000000    0.00000000    0.00000000
     atom    2 type  1   force =     0.00000000    0.00000000    0.00000000
     atom    3 type  2   force =     0.00000000    0.00000000    0.00000000
     atom    4 type  2   force =     0.00000000    0.00000000    0.00000000

     Total force =     0.000000     Total SCF correction =     0.000000

     General routines

     Parallel routines

   This run was terminated on:   4:44:43  15Nov2017

   JOB DONE.