     Program PWSCF v.5.1rc2 starts on 15Nov2017 at  3:43: 2

     Current dimensions of program PWSCF are:
     Max number of different atomic species (ntypx) = 10
     Max number of k-points (npk) =  40000
     Max angular momentum in pseudopotentials (lmaxx) =  3

     IMPORTANT: XC functional enforced from input :
     Exchange-correlation      = BEEF-VDW ( 1  4 27 13 2)
     Any further DFT definition will be discarded
     Please, verify this is what you really want

     Found symmetry operation: I + (  0.5000  0.5000  0.0000)
     This is a supercell, fractional translations are disabled

     bravais-lattice index     =            0
     lattice parameter (alat)  =       1.8897  a.u.
     unit-cell volume          =     694.1231 (a.u.)^3
     number of atoms/cell      =            4
     number of atomic types    =            2
     number of electrons       =        50.00
     number of Kohn-Sham states=           45
     kinetic-energy cutoff     =      58.7989  Ry
     charge density cutoff     =     587.9892  Ry
     convergence threshold     =      1.0E-06
     mixing beta               =       0.1000
     number of iterations used =           10  plain     mixing
     Exchange-correlation      = BEEF-VDW ( 1  4 27 13 2)

     celldm(1)=   1.889726  celldm(2)=   0.000000  celldm(3)=   0.000000
     celldm(4)=   0.000000  celldm(5)=   0.000000  celldm(6)=   0.000000

     crystal axes: (cart. coord. in units of alat)
               a(1) = (   4.936271   0.000000   0.000000 )
               a(2) = (   0.000000   4.936271   0.000000 )
               a(3) = (   0.000000   0.000000   4.221259 )

     reciprocal axes: (cart. coord. in units 2 pi/alat)
               b(1) = (  0.202582  0.000000  0.000000 )
               b(2) = (  0.000000  0.202582  0.000000 )
               b(3) = (  0.000000  0.000000  0.236896 )

     PseudoPot. # 1 for Sc read from file:
     /home/users/vossj/suncat/psp/gbrv1.5pbe/Sc.UPF
     MD5 check sum: db30a2753ba66ef00f23801d899b7e7f
     Pseudo is Ultrasoft + core correction, Zval = 11.0
     Generated by new atomic code, or converted to UPF format
     Using radial grid of  849 points,  6 beta functions with:
                l(1) =   0
                l(2) =   0
                l(3) =   1
                l(4) =   1
                l(5) =   2
                l(6) =   2
     Q(r) pseudized with  6 coefficients,  rinner =    1.200   1.200   1.200
                                                       1.200   1.200

     PseudoPot. # 2 for Pb read from file:
     /home/users/vossj/suncat/psp/gbrv1.5pbe/Pb.UPF
     MD5 check sum: 3d1c1779aa92214d1e8f3a7db79003e2
     Pseudo is Ultrasoft + core correction, Zval = 14.0
     Generated by new atomic code, or converted to UPF format
     Using radial grid of  899 points,  6 beta functions with:
                l(1) =   0
                l(2) =   0
                l(3) =   1
                l(4) =   1
                l(5) =   2
                l(6) =   2
     Q(r) pseudized with  6 coefficients,  rinner =    1.000   1.000   1.000
                                                       1.000   1.000

     vdW kernel table read from file vdW_kernel_table
     MD5 check sum: 095c7af220d748ca6e76c0b4c6cfb241

     atomic species   valence    mass     pseudopotential
        Sc1           11.00    44.95590     Sc( 1.00)
        Pb1           14.00   207.20000     Pb( 1.00)

     16 Sym. Ops., with inversion, found

   Cartesian axes

     site n.     atom                  positions (alat units)
         1           Sc1 tau(   1) = (   0.0000000   0.0000000   0.0000000  )
         2           Sc1 tau(   2) = (   2.4681353   2.4681353   0.0000000  )
         3           Pb1 tau(   3) = (   2.4681353   0.0000000   2.1106295  )
         4           Pb1 tau(   4) = (   0.0000000   2.4681353   2.1106295  )

     number of k points=    75  Fermi-Dirac smearing, width (Ry)=  0.0073
                       cart. coord. in units 2pi/alat
        k(    1) = (   0.0000000   0.0000000   0.0000000), wk =   0.0027435
        k(    2) = (   0.0000000   0.0000000   0.0263218), wk =   0.0054870
        k(    3) = (   0.0000000   0.0000000   0.0526436), wk =   0.0054870
        k(    4) = (   0.0000000   0.0000000   0.0789654), wk =   0.0054870
        k(    5) = (   0.0000000   0.0000000   0.1052872), wk =   0.0054870
        k(    6) = (   0.0000000   0.0225091   0.0000000), wk =   0.0109739
        k(    7) = (   0.0000000   0.0225091   0.0263218), wk =   0.0219479
        k(    8) = (   0.0000000   0.0225091   0.0526436), wk =   0.0219479
        k(    9) = (   0.0000000   0.0225091   0.0789654), wk =   0.0219479
        k(   10) = (   0.0000000   0.0225091   0.1052872), wk =   0.0219479
        k(   11) = (   0.0000000   0.0450182   0.0000000), wk =   0.0109739
        k(   12) = (   0.0000000   0.0450182   0.0263218), wk =   0.0219479
        k(   13) = (   0.0000000   0.0450182   0.0526436), wk =   0.0219479
        k(   14) = (   0.0000000   0.0450182   0.0789654), wk =   0.0219479
        k(   15) = (   0.0000000   0.0450182   0.1052872), wk =   0.0219479
        k(   16) = (   0.0000000   0.0675274   0.0000000), wk =   0.0109739
        k(   17) = (   0.0000000   0.0675274   0.0263218), wk =   0.0219479
        k(   18) = (   0.0000000   0.0675274   0.0526436), wk =   0.0219479
        k(   19) = (   0.0000000   0.0675274   0.0789654), wk =   0.0219479
        k(   20) = (   0.0000000   0.0675274   0.1052872), wk =   0.0219479
        k(   21) = (   0.0000000   0.0900365   0.0000000), wk =   0.0109739
        k(   22) = (   0.0000000   0.0900365   0.0263218), wk =   0.0219479
        k(   23) = (   0.0000000   0.0900365   0.0526436), wk =   0.0219479
        k(   24) = (   0.0000000   0.0900365   0.0789654), wk =   0.0219479
        k(   25) = (   0.0000000   0.0900365   0.1052872), wk =   0.0219479
        k(   26) = (   0.0225091   0.0225091   0.0000000), wk =   0.0109739
        k(   27) = (   0.0225091   0.0225091   0.0263218), wk =   0.0219479
        k(   28) = (   0.0225091   0.0225091   0.0526436), wk =   0.0219479
        k(   29) = (   0.0225091   0.0225091   0.0789654), wk =   0.0219479
        k(   30) = (   0.0225091   0.0225091   0.1052872), wk =   0.0219479
        k(   31) = (   0.0225091   0.0450182   0.0000000), wk =   0.0219479
        k(   32) = (   0.0225091   0.0450182   0.0263218), wk =   0.0438957
        k(   33) = (   0.0225091   0.0450182   0.0526436), wk =   0.0438957
        k(   34) = (   0.0225091   0.0450182   0.0789654), wk =   0.0438957
        k(   35) = (   0.0225091   0.0450182   0.1052872), wk =   0.0438957
        k(   36) = (   0.0225091   0.0675274   0.0000000), wk =   0.0219479
        k(   37) = (   0.0225091   0.0675274   0.0263218), wk =   0.0438957
        k(   38) = (   0.0225091   0.0675274   0.0526436), wk =   0.0438957
        k(   39) = (   0.0225091   0.0675274   0.0789654), wk =   0.0438957
        k(   40) = (   0.0225091   0.0675274   0.1052872), wk =   0.0438957
        k(   41) = (   0.0225091   0.0900365   0.0000000), wk =   0.0219479
        k(   42) = (   0.0225091   0.0900365   0.0263218), wk =   0.0438957
        k(   43) = (   0.0225091   0.0900365   0.0526436), wk =   0.0438957
        k(   44) = (   0.0225091   0.0900365   0.0789654), wk =   0.0438957
        k(   45) = (   0.0225091   0.0900365   0.1052872), wk =   0.0438957
        k(   46) = (   0.0450182   0.0450182   0.0000000), wk =   0.0109739
        k(   47) = (   0.0450182   0.0450182   0.0263218), wk =   0.0219479
        k(   48) = (   0.0450182   0.0450182   0.0526436), wk =   0.0219479
        k(   49) = (   0.0450182   0.0450182   0.0789654), wk =   0.0219479
        k(   50) = (   0.0450182   0.0450182   0.1052872), wk =   0.0219479
        k(   51) = (   0.0450182   0.0675274   0.0000000), wk =   0.0219479
        k(   52) = (   0.0450182   0.0675274   0.0263218), wk =   0.0438957
        k(   53) = (   0.0450182   0.0675274   0.0526436), wk =   0.0438957
        k(   54) = (   0.0450182   0.0675274   0.0789654), wk =   0.0438957
        k(   55) = (   0.0450182   0.0675274   0.1052872), wk =   0.0438957
        k(   56) = (   0.0450182   0.0900365   0.0000000), wk =   0.0219479
        k(   57) = (   0.0450182   0.0900365   0.0263218), wk =   0.0438957
        k(   58) = (   0.0450182   0.0900365   0.0526436), wk =   0.0438957
        k(   59) = (   0.0450182   0.0900365   0.0789654), wk =   0.0438957
        k(   60) = (   0.0450182   0.0900365   0.1052872), wk =   0.0438957
        k(   61) = (   0.0675274   0.0675274   0.0000000), wk =   0.0109739
        k(   62) = (   0.0675274   0.0675274   0.0263218), wk =   0.0219479
        k(   63) = (   0.0675274   0.0675274   0.0526436), wk =   0.0219479
        k(   64) = (   0.0675274   0.0675274   0.0789654), wk =   0.0219479
        k(   65) = (   0.0675274   0.0675274   0.1052872), wk =   0.0219479
        k(   66) = (   0.0675274   0.0900365   0.0000000), wk =   0.0219479
        k(   67) = (   0.0675274   0.0900365   0.0263218), wk =   0.0438957
        k(   68) = (   0.0675274   0.0900365   0.0526436), wk =   0.0438957
        k(   69) = (   0.0675274   0.0900365   0.0789654), wk =   0.0438957
        k(   70) = (   0.0675274   0.0900365   0.1052872), wk =   0.0438957
        k(   71) = (   0.0900365   0.0900365   0.0000000), wk =   0.0109739
        k(   72) = (   0.0900365   0.0900365   0.0263218), wk =   0.0219479
        k(   73) = (   0.0900365   0.0900365   0.0526436), wk =   0.0219479
        k(   74) = (   0.0900365   0.0900365   0.0789654), wk =   0.0219479
        k(   75) = (   0.0900365   0.0900365   0.1052872), wk =   0.0219479

     Largest allocated arrays     est. size (Mb)     dimensions
     Largest temporary arrays     est. size (Mb)     dimensions

     Check: negative/imaginary core charge=   -0.000001    0.000000

     Initial potential from superposition of free atoms
     Check: negative starting charge=   -0.031511

     starting charge   49.99049, renormalised to   50.00000

     negative rho (up, down):  3.152E-02 0.000E+00

     *
     * You are using vdW-DF for exchange-correlation in this calculation.
     * Please cite the following three references that made this development
     * possible:
     *
     *   M. Dion, H. Rydberg, E. Schroder, D. C. Langreth, and
     *   B. I. Lundqvist, Phys. Rev. Lett. 92, 246401 (2004).
     *
     *   T. Thonhauser, V. R. Cooper, S. Li, A. Puzder, P. Hyldgaard, and
     *   D. C. Langreth, Phys. Rev. B 76, 125112 (2007).
     *
     *   G. Roman-Perez and J. M. Soler, Phys. Rev. Lett. 103, 096102 (2009).
     *
     *
     * If you are using vdW-DF2, please also cite:
     *
     *   K. Lee, E. D. Murray, L. Kong, B. I. Lundqvist, and
     *   D. C. Langreth, Phys. Rev. B 82, 081101(R) (2010).
     *
     *
     * If you are calculating the stress with vdW-DF, please also cite:
     *
     *   R. Sabatini, E. Kucukbenli, B. Kolb, T. Thonhauser, and
     *   S. de Gironcoli, J. Phys.: Condens. Matter 24, 424209 (2012).
     *

     Carrying out vdW-DF run using the following parameters:

     Nqs =      20    Nr_points =    1024   r_max =   100.000
     q_mesh =
               0.00001000     0.04494208     0.09755937     0.15916263
               0.23128650     0.31572767     0.41458969     0.53033537
               0.66584808     0.82450364     1.01025438     1.22772762
               1.48234092     1.78043706     2.12944203     2.53805004
               3.01644009     3.57652955     4.23227104     5.00000000

     Gradients computed in reciprocal space

     Starting wfc are   44 randomized atomic wfcs +    1 random wfc

     Self-consistent Calculation

     iteration #  1     ecut=    58.80 Ry     beta=0.10
     Davidson diagonalization with overlap
     ethr =  1.00E-02,  avg # of iterations =  4.0

     Threshold (ethr) on eigenvalues was too large:
     Diagonalizing with lowered threshold

     Davidson diagonalization with overlap
     c_bands:  1 eigenvalues not converged
     ethr =  3.14E-05,  avg # of iterations =  4.5

[...]

     total energy              =    -521.79582620 Ry
     Harris-Foulkes estimate   =    -521.79484426 Ry
     estimated scf accuracy    <       0.01586409 Ry

[...]

     total energy              =    -521.80237446 Ry
     Harris-Foulkes estimate   =    -521.80192018 Ry
     estimated scf accuracy    <       0.00000500 Ry

     iteration #  8     ecut=    58.80 Ry     beta=0.10
     Davidson diagonalization with overlap
     ethr =  1.00E-08,  avg # of iterations =  3.2

     negative rho (up, down):  3.710E-02 0.000E+00

     End of self-consistent calculation

          k = 0.0000 0.0000 0.0000 (  5279 PWs)   bands (ev):

   -39.0449 -39.0285 -17.6837 -17.6616 -17.6449 -17.6449 -17.5501 -17.5501
    -5.9446  -5.8877  -5.7885  -5.7789  -5.7789  -5.6891  -5.6889  -5.6889
    -5.6429  -5.5472   0.7390   4.1401   9.0116   9.0116  10.7001  11.0234
    11.0890  11.3070  12.0996  12.0996  12.7242  13.1178  13.1178  13.6152
    14.1164  14.4900  14.4900  14.6776  14.7439  15.8106  18.3650  18.3650
    19.7437  20.3967  20.4453  21.0645  21.9832

[...]

          k = 0.0900 0.0900 0.1053 (  5253 PWs)   bands (ev):

   -39.0363 -39.0358 -17.6867 -17.6859 -17.6559 -17.6530 -17.5431 -17.5402
    -5.8325  -5.8227  -5.8062  -5.8037  -5.7760  -5.7704  -5.6942  -5.6915
    -5.5930  -5.5864   2.9586   3.0639   8.0213   8.1392   8.8052   8.9638
    10.7254  10.7927  12.7916  12.7934  12.9542  12.9731  13.2456  13.2784
    13.3384  13.4687  14.9891  15.0492  16.9016  17.1418  20.3235  20.4205
    20.7345  20.9664  21.8861  21.8886  22.8260

     the Fermi energy is    11.3226 ev

!    total energy              =    -521.80424532 Ry
     Harris-Foulkes estimate   =    -521.80237504 Ry
     estimated scf accuracy    <       0.00000032 Ry

     The total energy is the sum of the following terms:

     one-electron contribution =    -129.43429423 Ry
     hartree contribution      =      92.35041669 Ry
     xc contribution           =    -158.58609502 Ry
     ewald contribution        =    -326.12324572 Ry
     smearing contrib. (-TS)   =      -0.01102703 Ry

     convergence has been achieved in   8 iterations

     Forces acting on atoms (Ry/au):

     negative rho (up, down):  3.710E-02 0.000E+00
     atom    1 type  1   force =     0.00000000    0.00000000    0.00000000
     atom    2 type  1   force =     0.00000000    0.00000000    0.00000000
     atom    3 type  2   force =     0.00000000    0.00000000    0.00000000
     atom    4 type  2   force =     0.00000000    0.00000000    0.00000000

     Total force =     0.000000     Total SCF correction =     0.000000

     General routines

     Parallel routines

   This run was terminated on:   3:43:47  15Nov2017

   JOB DONE.