     Program PWSCF v.5.1rc2 starts on 14Nov2017 at 14:17:48

     Current dimensions of program PWSCF are:
     Max number of different atomic species (ntypx) = 10
     Max number of k-points (npk) =  40000
     Max angular momentum in pseudopotentials (lmaxx) =  3

     IMPORTANT: XC functional enforced from input :
     Exchange-correlation      = BEEF-VDW ( 1  4 27 13 2)
     Any further DFT definition will be discarded
     Please, verify this is what you really want

     Found symmetry operation: I + (  0.5000  0.5000  0.0000)
     This is a supercell, fractional translations are disabled

     bravais-lattice index     =            0
     lattice parameter (alat)  =       1.8897  a.u.
     unit-cell volume          =     753.4630 (a.u.)^3
     number of atoms/cell      =            4
     number of atomic types    =            2
     number of electrons       =        60.00
     number of Kohn-Sham states=           50
     kinetic-energy cutoff     =      58.7989  Ry
     charge density cutoff     =     587.9892  Ry
     convergence threshold     =      1.0E-06
     mixing beta               =       0.1000
     number of iterations used =           10  plain     mixing
     Exchange-correlation      = BEEF-VDW ( 1  4 27 13 2)

     celldm(1)=   1.889726  celldm(2)=   0.000000  celldm(3)=   0.000000
     celldm(4)=   0.000000  celldm(5)=   0.000000  celldm(6)=   0.000000

     crystal axes: (cart. coord. in units of alat)
               a(1) = (   5.484774   0.000000   0.000000 )
               a(2) = (   0.000000   5.484774   0.000000 )
               a(3) = (   0.000000   0.000000   3.711486 )

     reciprocal axes: (cart. coord. in units 2 pi/alat)
               b(1) = (  0.182323  0.000000  0.000000 )
               b(2) = (  0.000000  0.182323  0.000000 )
               b(3) = (  0.000000  0.000000  0.269434 )

     PseudoPot. # 1 for Ga read from file:
     /home/users/vossj/suncat/psp/gbrv1.5pbe/Ga.UPF
     MD5 check sum: ccd671392a58a050fbb373893b4fcd66
     Pseudo is Ultrasoft + core correction, Zval = 19.0
     Generated by new atomic code, or converted to UPF format
     Using radial grid of  871 points,  6 beta functions with:
                l(1) =   0
                l(2) =   0
                l(3) =   1
                l(4) =   1
                l(5) =   2
                l(6) =   2
     Q(r) pseudized with  8 coefficients,  rinner =    1.250   1.250   1.250
                                                       1.250   1.250

     PseudoPot. # 2 for La read from file:
     /home/users/vossj/suncat/psp/gbrv1.5pbe/La.UPF
     MD5 check sum: 5937b0c7494ba0601a847275249473aa
     Pseudo is Ultrasoft + core correction, Zval = 11.0
     Generated by new atomic code, or converted to UPF format
     Using radial grid of  995 points,  8 beta functions with:
                l(1) =   0
                l(2) =   0
                l(3) =   1
                l(4) =   1
                l(5) =   2
                l(6) =   2
                l(7) =   3
                l(8) =   3
     Q(r) pseudized with  8 coefficients,  rinner =    1.700   1.700   1.700
                                                       1.700   1.700   1.700
                                                       1.700

     vdW kernel table read from file vdW_kernel_table
     MD5 check sum: 095c7af220d748ca6e76c0b4c6cfb241

     atomic species   valence    mass     pseudopotential
        Ga1           19.00    69.72300     Ga( 1.00)
        La1           11.00   138.90550     La( 1.00)

     16 Sym. Ops., with inversion, found

   Cartesian axes

     site n.     atom                  positions (alat units)
         1           Ga1 tau(   1) = (   0.0000000   0.0000000   0.0000000  )
         2           Ga1 tau(   2) = (   2.7423870   2.7423870   0.0000000  )
         3           La1 tau(   3) = (   2.7423870   0.0000000   1.8557430  )
         4           La1 tau(   4) = (   0.0000000   2.7423870   1.8557430  )

     number of k points=    75  Fermi-Dirac smearing, width (Ry)=  0.0073
                       cart. coord. in units 2pi/alat
        k(    1) = (   0.0000000   0.0000000   0.0000000), wk =   0.0027435
        k(    2) = (   0.0000000   0.0000000   0.0299371), wk =   0.0054870
        k(    3) = (   0.0000000   0.0000000   0.0598742), wk =   0.0054870
        k(    4) = (   0.0000000   0.0000000   0.0898113), wk =   0.0054870
        k(    5) = (   0.0000000   0.0000000   0.1197484), wk =   0.0054870
        k(    6) = (   0.0000000   0.0202581   0.0000000), wk =   0.0109739
        k(    7) = (   0.0000000   0.0202581   0.0299371), wk =   0.0219479
        k(    8) = (   0.0000000   0.0202581   0.0598742), wk =   0.0219479
        k(    9) = (   0.0000000   0.0202581   0.0898113), wk =   0.0219479
        k(   10) = (   0.0000000   0.0202581   0.1197484), wk =   0.0219479
        k(   11) = (   0.0000000   0.0405162   0.0000000), wk =   0.0109739
        k(   12) = (   0.0000000   0.0405162   0.0299371), wk =   0.0219479
        k(   13) = (   0.0000000   0.0405162   0.0598742), wk =   0.0219479
        k(   14) = (   0.0000000   0.0405162   0.0898113), wk =   0.0219479
        k(   15) = (   0.0000000   0.0405162   0.1197484), wk =   0.0219479
        k(   16) = (   0.0000000   0.0607743   0.0000000), wk =   0.0109739
        k(   17) = (   0.0000000   0.0607743   0.0299371), wk =   0.0219479
        k(   18) = (   0.0000000   0.0607743   0.0598742), wk =   0.0219479
        k(   19) = (   0.0000000   0.0607743   0.0898113), wk =   0.0219479
        k(   20) = (   0.0000000   0.0607743   0.1197484), wk =   0.0219479
        k(   21) = (   0.0000000   0.0810324   0.0000000), wk =   0.0109739
        k(   22) = (   0.0000000   0.0810324   0.0299371), wk =   0.0219479
        k(   23) = (   0.0000000   0.0810324   0.0598742), wk =   0.0219479
        k(   24) = (   0.0000000   0.0810324   0.0898113), wk =   0.0219479
        k(   25) = (   0.0000000   0.0810324   0.1197484), wk =   0.0219479
        k(   26) = (   0.0202581   0.0202581   0.0000000), wk =   0.0109739
        k(   27) = (   0.0202581   0.0202581   0.0299371), wk =   0.0219479
        k(   28) = (   0.0202581   0.0202581   0.0598742), wk =   0.0219479
        k(   29) = (   0.0202581   0.0202581   0.0898113), wk =   0.0219479
        k(   30) = (   0.0202581   0.0202581   0.1197484), wk =   0.0219479
        k(   31) = (   0.0202581   0.0405162   0.0000000), wk =   0.0219479
        k(   32) = (   0.0202581   0.0405162   0.0299371), wk =   0.0438957
        k(   33) = (   0.0202581   0.0405162   0.0598742), wk =   0.0438957
        k(   34) = (   0.0202581   0.0405162   0.0898113), wk =   0.0438957
        k(   35) = (   0.0202581   0.0405162   0.1197484), wk =   0.0438957
        k(   36) = (   0.0202581   0.0607743   0.0000000), wk =   0.0219479
        k(   37) = (   0.0202581   0.0607743   0.0299371), wk =   0.0438957
        k(   38) = (   0.0202581   0.0607743   0.0598742), wk =   0.0438957
        k(   39) = (   0.0202581   0.0607743   0.0898113), wk =   0.0438957
        k(   40) = (   0.0202581   0.0607743   0.1197484), wk =   0.0438957
        k(   41) = (   0.0202581   0.0810324   0.0000000), wk =   0.0219479
        k(   42) = (   0.0202581   0.0810324   0.0299371), wk =   0.0438957
        k(   43) = (   0.0202581   0.0810324   0.0598742), wk =   0.0438957
        k(   44) = (   0.0202581   0.0810324   0.0898113), wk =   0.0438957
        k(   45) = (   0.0202581   0.0810324   0.1197484), wk =   0.0438957
        k(   46) = (   0.0405162   0.0405162   0.0000000), wk =   0.0109739
        k(   47) = (   0.0405162   0.0405162   0.0299371), wk =   0.0219479
        k(   48) = (   0.0405162   0.0405162   0.0598742), wk =   0.0219479
        k(   49) = (   0.0405162   0.0405162   0.0898113), wk =   0.0219479
        k(   50) = (   0.0405162   0.0405162   0.1197484), wk =   0.0219479
        k(   51) = (   0.0405162   0.0607743   0.0000000), wk =   0.0219479
        k(   52) = (   0.0405162   0.0607743   0.0299371), wk =   0.0438957
        k(   53) = (   0.0405162   0.0607743   0.0598742), wk =   0.0438957
        k(   54) = (   0.0405162   0.0607743   0.0898113), wk =   0.0438957
        k(   55) = (   0.0405162   0.0607743   0.1197484), wk =   0.0438957
        k(   56) = (   0.0405162   0.0810324   0.0000000), wk =   0.0219479
        k(   57) = (   0.0405162   0.0810324   0.0299371), wk =   0.0438957
        k(   58) = (   0.0405162   0.0810324   0.0598742), wk =   0.0438957
        k(   59) = (   0.0405162   0.0810324   0.0898113), wk =   0.0438957
        k(   60) = (   0.0405162   0.0810324   0.1197484), wk =   0.0438957
        k(   61) = (   0.0607743   0.0607743   0.0000000), wk =   0.0109739
        k(   62) = (   0.0607743   0.0607743   0.0299371), wk =   0.0219479
        k(   63) = (   0.0607743   0.0607743   0.0598742), wk =   0.0219479
        k(   64) = (   0.0607743   0.0607743   0.0898113), wk =   0.0219479
        k(   65) = (   0.0607743   0.0607743   0.1197484), wk =   0.0219479
        k(   66) = (   0.0607743   0.0810324   0.0000000), wk =   0.0219479
        k(   67) = (   0.0607743   0.0810324   0.0299371), wk =   0.0438957
        k(   68) = (   0.0607743   0.0810324   0.0598742), wk =   0.0438957
        k(   69) = (   0.0607743   0.0810324   0.0898113), wk =   0.0438957
        k(   70) = (   0.0607743   0.0810324   0.1197484), wk =   0.0438957
        k(   71) = (   0.0810324   0.0810324   0.0000000), wk =   0.0109739
        k(   72) = (   0.0810324   0.0810324   0.0299371), wk =   0.0219479
        k(   73) = (   0.0810324   0.0810324   0.0598742), wk =   0.0219479
        k(   74) = (   0.0810324   0.0810324   0.0898113), wk =   0.0219479
        k(   75) = (   0.0810324   0.0810324   0.1197484), wk =   0.0219479

     Largest allocated arrays     est. size (Mb)     dimensions
     Largest temporary arrays     est. size (Mb)     dimensions

     Initial potential from superposition of free atoms
     Check: negative starting charge=   -0.140912

     starting charge   57.93586, renormalised to   60.00000

     negative rho (up, down):  1.459E-01 0.000E+00

     *
     * You are using vdW-DF for exchange-correlation in this calculation.
     * Please cite the following three references that made this development
     * possible:
     *
     *   M. Dion, H. Rydberg, E. Schroder, D. C. Langreth, and
     *   B. I. Lundqvist, Phys. Rev. Lett. 92, 246401 (2004).
     *
     *   T. Thonhauser, V. R. Cooper, S. Li, A. Puzder, P. Hyldgaard, and
     *   D. C. Langreth, Phys. Rev. B 76, 125112 (2007).
     *
     *   G. Roman-Perez and J. M. Soler, Phys. Rev. Lett. 103, 096102 (2009).
     *
     *
     * If you are using vdW-DF2, please also cite:
     *
     *   K. Lee, E. D. Murray, L. Kong, B. I. Lundqvist, and
     *   D. C. Langreth, Phys. Rev. B 82, 081101(R) (2010).
     *
     *
     * If you are calculating the stress with vdW-DF, please also cite:
     *
     *   R. Sabatini, E. Kucukbenli, B. Kolb, T. Thonhauser, and
     *   S. de Gironcoli, J. Phys.: Condens. Matter 24, 424209 (2012).
     *

     Carrying out vdW-DF run using the following parameters:

     Nqs =      20    Nr_points =    1024   r_max =   100.000
     q_mesh =
               0.00001000     0.04494208     0.09755937     0.15916263
               0.23128650     0.31572767     0.41458969     0.53033537
               0.66584808     0.82450364     1.01025438     1.22772762
               1.48234092     1.78043706     2.12944203     2.53805004
               3.01644009     3.57652955     4.23227104     5.00000000

     Gradients computed in reciprocal space

     Starting wfc are   64 randomized atomic wfcs

     Self-consistent Calculation

     iteration #  1     ecut=    58.80 Ry     beta=0.10
     Davidson diagonalization with overlap
     ethr =  1.00E-02,  avg # of iterations =  2.0

[...]

     total energy              =   -1041.77118195 Ry
     Harris-Foulkes estimate   =   -1043.26073701 Ry
     estimated scf accuracy    <       8.24752397 Ry

[...]

     total energy              =   -1041.44402460 Ry
     Harris-Foulkes estimate   =   -1041.44398237 Ry
     estimated scf accuracy    <       0.00000217 Ry

     iteration # 12     ecut=    58.80 Ry     beta=0.10
     Davidson diagonalization with overlap
     ethr =  3.62E-09,  avg # of iterations =  3.1

     negative rho (up, down):  9.731E-02 0.000E+00

     End of self-consistent calculation

          k = 0.0000 0.0000 0.0000 (  5785 PWs)   bands (ev):

   -83.4407 -83.4398 -83.4378 -83.4378 -83.4370 -83.4370 -22.1555 -22.0682
    -5.9984  -5.9984  -5.4969  -5.4969  -5.3835  -5.2746  -3.7747  -3.7735
    -3.7668  -3.7646  -3.7646  -3.7584  -3.7576  -3.7547  -3.7547  -3.7191
     3.6496   5.0445  10.4059  10.4147  10.5754  10.5754  10.9283  12.3184
    12.3184  12.5173  12.5179  12.6957  12.6957  12.7297  12.7297  12.7868
    12.9738  13.0461  13.0585  13.0585  13.1012  13.6127  13.6127  14.7287
    14.7287  15.2075

[...]

          k = 0.0810 0.0810 0.1197 (  5728 PWs)   bands (ev):

   -83.4407 -83.4398 -83.4378 -83.4378 -83.4370 -83.4370 -22.0439 -22.0414
    -6.1017  -6.0960  -5.9634  -5.9498  -5.3729  -5.3570  -3.7748  -3.7742
    -3.7693  -3.7685  -3.7653  -3.7637  -3.7493  -3.7481  -3.7174  -3.7168
     5.2793   5.2914  10.1757  10.3465  10.3824  10.6126  11.3917  11.4721
    12.2727  12.3052  12.7043  12.7060  12.7079  12.7223  12.9423  12.9506
    13.0150  13.0536  13.0654  13.0960  13.1110  13.1372  13.1931  13.3197
    13.3829  13.4295

     the Fermi energy is    10.9523 ev

!    total energy              =   -1041.44420627 Ry
     Harris-Foulkes estimate   =   -1041.44402560 Ry
     estimated scf accuracy    <       0.00000075 Ry

     The total energy is the sum of the following terms:

     one-electron contribution =    -788.83827475 Ry
     hartree contribution      =     419.91050212 Ry
     xc contribution           =    -201.02760561 Ry
     ewald contribution        =    -471.48260742 Ry
     smearing contrib. (-TS)   =      -0.00622061 Ry

     convergence has been achieved in  12 iterations

     Forces acting on atoms (Ry/au):

     negative rho (up, down):  9.731E-02 0.000E+00
     atom    1 type  1   force =     0.00000000    0.00000000    0.00000000
     atom    2 type  1   force =     0.00000000    0.00000000    0.00000000
     atom    3 type  2   force =     0.00000000    0.00000000    0.00000000
     atom    4 type  2   force =     0.00000000    0.00000000    0.00000000

     Total force =     0.000000     Total SCF correction =     0.000000

     General routines

     Parallel routines

   This run was terminated on:  14:19: 3  14Nov2017

   JOB DONE.