     Program PWSCF v.5.1rc2 starts on 14Nov2017 at  1:42:16

     Current dimensions of program PWSCF are:
     Max number of different atomic species (ntypx) = 10
     Max number of k-points (npk) =  40000
     Max angular momentum in pseudopotentials (lmaxx) =  3

     IMPORTANT: XC functional enforced from input :
     Exchange-correlation      = BEEF-VDW ( 1  4 27 13 2)
     Any further DFT definition will be discarded
     Please, verify this is what you really want

     Found symmetry operation: I + ( -0.5000 -0.5000  0.0000)
     This is a supercell, fractional translations are disabled

     bravais-lattice index     =            0
     lattice parameter (alat)  =       1.8897  a.u.
     unit-cell volume          =     469.7642 (a.u.)^3
     number of atoms/cell      =            4
     number of atomic types    =            2
     number of electrons       =        54.00
     number of Kohn-Sham states=           47
     kinetic-energy cutoff     =      58.7989  Ry
     charge density cutoff     =     587.9892  Ry
     convergence threshold     =      1.0E-06
     mixing beta               =       0.1000
     number of iterations used =           10  plain     mixing
     Exchange-correlation      = BEEF-VDW ( 1  4 27 13 2)

     celldm(1)=   1.889726  celldm(2)=   0.000000  celldm(3)=   0.000000
     celldm(4)=   0.000000  celldm(5)=   0.000000  celldm(6)=   0.000000

     crystal axes: (cart. coord. in units of alat)
               a(1) = (   4.113656   0.000000   0.000000 )
               a(2) = (   0.000000   4.113656   0.000000 )
               a(3) = (   0.000000   0.000000   4.113650 )

     reciprocal axes: (cart. coord. in units 2 pi/alat)
               b(1) = (  0.243093  0.000000  0.000000 )
               b(2) = (  0.000000  0.243093  0.000000 )
               b(3) = (  0.000000  0.000000  0.243093 )

     PseudoPot. # 1 for Cd read from file:
     /home/users/vossj/suncat/psp/gbrv1.5pbe/Cd.UPF
     MD5 check sum: 17164a7926edb8e0dc231208abae86a6
     Pseudo is Ultrasoft + core correction, Zval = 12.0
     Generated by new atomic code, or converted to UPF format
     Using radial grid of  889 points,  6 beta functions with:
                l(1) =   0
                l(2) =   0
                l(3) =   1
                l(4) =   1
                l(5) =   2
                l(6) =   2
     Q(r) pseudized with  6 coefficients,  rinner =    1.000   1.000   1.000
                                                       1.000   1.000

     PseudoPot. # 2 for Ir read from file:
     /home/users/vossj/suncat/psp/gbrv1.5pbe/Ir.UPF
     MD5 check sum: 8836f839c3459d2b385c504ce6d91f2c
     Pseudo is Ultrasoft + core correction, Zval = 15.0
     Generated by new atomic code, or converted to UPF format
     Using radial grid of  983 points,  7 beta functions with:
                l(1) =   0
                l(2) =   0
                l(3) =   1
                l(4) =   1
                l(5) =   1
                l(6) =   2
                l(7) =   2
     Q(r) pseudized with  8 coefficients,  rinner =    1.400   1.400   1.400
                                                       1.400   1.400

     vdW kernel table read from file vdW_kernel_table
     MD5 check sum: 095c7af220d748ca6e76c0b4c6cfb241

     atomic species   valence    mass     pseudopotential
        Cd1           12.00   112.41000     Cd( 1.00)
        Ir1           15.00   192.22000     Ir( 1.00)

     16 Sym. Ops., with inversion, found

   Cartesian axes

     site n.     atom                  positions (alat units)
         1           Cd1 tau(   1) = (   0.0000000   0.0000000   0.0000000  )
         2           Cd1 tau(   2) = (   2.0568282   2.0568282   0.0000000  )
         3           Ir1 tau(   3) = (   2.0568282   0.0000000   2.0568250  )
         4           Ir1 tau(   4) = (   0.0000000   2.0568282   2.0568250  )

     number of k points=    75  Fermi-Dirac smearing, width (Ry)=  0.0073
                       cart. coord. in units 2pi/alat
        k(    1) = (   0.0000000   0.0000000   0.0000000), wk =   0.0027435
        k(    2) = (   0.0000000   0.0000000   0.0270103), wk =   0.0054870
        k(    3) = (   0.0000000   0.0000000   0.0540207), wk =   0.0054870
        k(    4) = (   0.0000000   0.0000000   0.0810310), wk =   0.0054870
        k(    5) = (   0.0000000   0.0000000   0.1080414), wk =   0.0054870
        k(    6) = (   0.0000000   0.0270103   0.0000000), wk =   0.0109739
        k(    7) = (   0.0000000   0.0270103   0.0270103), wk =   0.0219479
        k(    8) = (   0.0000000   0.0270103   0.0540207), wk =   0.0219479
        k(    9) = (   0.0000000   0.0270103   0.0810310), wk =   0.0219479
        k(   10) = (   0.0000000   0.0270103   0.1080414), wk =   0.0219479
        k(   11) = (   0.0000000   0.0540206   0.0000000), wk =   0.0109739
        k(   12) = (   0.0000000   0.0540206   0.0270103), wk =   0.0219479
        k(   13) = (   0.0000000   0.0540206   0.0540207), wk =   0.0219479
        k(   14) = (   0.0000000   0.0540206   0.0810310), wk =   0.0219479
        k(   15) = (   0.0000000   0.0540206   0.1080414), wk =   0.0219479
        k(   16) = (   0.0000000   0.0810309   0.0000000), wk =   0.0109739
        k(   17) = (   0.0000000   0.0810309   0.0270103), wk =   0.0219479
        k(   18) = (   0.0000000   0.0810309   0.0540207), wk =   0.0219479
        k(   19) = (   0.0000000   0.0810309   0.0810310), wk =   0.0219479
        k(   20) = (   0.0000000   0.0810309   0.1080414), wk =   0.0219479
        k(   21) = (   0.0000000   0.1080412   0.0000000), wk =   0.0109739
        k(   22) = (   0.0000000   0.1080412   0.0270103), wk =   0.0219479
        k(   23) = (   0.0000000   0.1080412   0.0540207), wk =   0.0219479
        k(   24) = (   0.0000000   0.1080412   0.0810310), wk =   0.0219479
        k(   25) = (   0.0000000   0.1080412   0.1080414), wk =   0.0219479
        k(   26) = (   0.0270103   0.0270103   0.0000000), wk =   0.0109739
        k(   27) = (   0.0270103   0.0270103   0.0270103), wk =   0.0219479
        k(   28) = (   0.0270103   0.0270103   0.0540207), wk =   0.0219479
        k(   29) = (   0.0270103   0.0270103   0.0810310), wk =   0.0219479
        k(   30) = (   0.0270103   0.0270103   0.1080414), wk =   0.0219479
        k(   31) = (   0.0270103   0.0540206   0.0000000), wk =   0.0219479
        k(   32) = (   0.0270103   0.0540206   0.0270103), wk =   0.0438957
        k(   33) = (   0.0270103   0.0540206   0.0540207), wk =   0.0438957
        k(   34) = (   0.0270103   0.0540206   0.0810310), wk =   0.0438957
        k(   35) = (   0.0270103   0.0540206   0.1080414), wk =   0.0438957
        k(   36) = (   0.0270103   0.0810309   0.0000000), wk =   0.0219479
        k(   37) = (   0.0270103   0.0810309   0.0270103), wk =   0.0438957
        k(   38) = (   0.0270103   0.0810309   0.0540207), wk =   0.0438957
        k(   39) = (   0.0270103   0.0810309   0.0810310), wk =   0.0438957
        k(   40) = (   0.0270103   0.0810309   0.1080414), wk =   0.0438957
        k(   41) = (   0.0270103   0.1080412   0.0000000), wk =   0.0219479
        k(   42) = (   0.0270103   0.1080412   0.0270103), wk =   0.0438957
        k(   43) = (   0.0270103   0.1080412   0.0540207), wk =   0.0438957
        k(   44) = (   0.0270103   0.1080412   0.0810310), wk =   0.0438957
        k(   45) = (   0.0270103   0.1080412   0.1080414), wk =   0.0438957
        k(   46) = (   0.0540206   0.0540206   0.0000000), wk =   0.0109739
        k(   47) = (   0.0540206   0.0540206   0.0270103), wk =   0.0219479
        k(   48) = (   0.0540206   0.0540206   0.0540207), wk =   0.0219479
        k(   49) = (   0.0540206   0.0540206   0.0810310), wk =   0.0219479
        k(   50) = (   0.0540206   0.0540206   0.1080414), wk =   0.0219479
        k(   51) = (   0.0540206   0.0810309   0.0000000), wk =   0.0219479
        k(   52) = (   0.0540206   0.0810309   0.0270103), wk =   0.0438957
        k(   53) = (   0.0540206   0.0810309   0.0540207), wk =   0.0438957
        k(   54) = (   0.0540206   0.0810309   0.0810310), wk =   0.0438957
        k(   55) = (   0.0540206   0.0810309   0.1080414), wk =   0.0438957
        k(   56) = (   0.0540206   0.1080412   0.0000000), wk =   0.0219479
        k(   57) = (   0.0540206   0.1080412   0.0270103), wk =   0.0438957
        k(   58) = (   0.0540206   0.1080412   0.0540207), wk =   0.0438957
        k(   59) = (   0.0540206   0.1080412   0.0810310), wk =   0.0438957
        k(   60) = (   0.0540206   0.1080412   0.1080414), wk =   0.0438957
        k(   61) = (   0.0810309   0.0810309   0.0000000), wk =   0.0109739
        k(   62) = (   0.0810309   0.0810309   0.0270103), wk =   0.0219479
        k(   63) = (   0.0810309   0.0810309   0.0540207), wk =   0.0219479
        k(   64) = (   0.0810309   0.0810309   0.0810310), wk =   0.0219479
        k(   65) = (   0.0810309   0.0810309   0.1080414), wk =   0.0219479
        k(   66) = (   0.0810309   0.1080412   0.0000000), wk =   0.0219479
        k(   67) = (   0.0810309   0.1080412   0.0270103), wk =   0.0438957
        k(   68) = (   0.0810309   0.1080412   0.0540207), wk =   0.0438957
        k(   69) = (   0.0810309   0.1080412   0.0810310), wk =   0.0438957
        k(   70) = (   0.0810309   0.1080412   0.1080414), wk =   0.0438957
        k(   71) = (   0.1080412   0.1080412   0.0000000), wk =   0.0109739
        k(   72) = (   0.1080412   0.1080412   0.0270103), wk =   0.0219479
        k(   73) = (   0.1080412   0.1080412   0.0540207), wk =   0.0219479
        k(   74) = (   0.1080412   0.1080412   0.0810310), wk =   0.0219479
        k(   75) = (   0.1080412   0.1080412   0.1080414), wk =   0.0219479

     Largest allocated arrays     est. size (Mb)     dimensions
     Largest temporary arrays     est. size (Mb)     dimensions

     Initial potential from superposition of free atoms
     Check: negative starting charge=   -0.772762

     starting charge   51.99985, renormalised to   54.00000

     negative rho (up, down):  8.025E-01 0.000E+00

     *
     * You are using vdW-DF for exchange-correlation in this calculation.
     * Please cite the following three references that made this development
     * possible:
     *
     *   M. Dion, H. Rydberg, E. Schroder, D. C. Langreth, and
     *   B. I. Lundqvist, Phys. Rev. Lett. 92, 246401 (2004).
     *
     *   T. Thonhauser, V. R. Cooper, S. Li, A. Puzder, P. Hyldgaard, and
     *   D. C. Langreth, Phys. Rev. B 76, 125112 (2007).
     *
     *   G. Roman-Perez and J. M. Soler, Phys. Rev. Lett. 103, 096102 (2009).
     *
     *
     * If you are using vdW-DF2, please also cite:
     *
     *   K. Lee, E. D. Murray, L. Kong, B. I. Lundqvist, and
     *   D. C. Langreth, Phys. Rev. B 82, 081101(R) (2010).
     *
     *
     * If you are calculating the stress with vdW-DF, please also cite:
     *
     *   R. Sabatini, E. Kucukbenli, B. Kolb, T. Thonhauser, and
     *   S. de Gironcoli, J. Phys.: Condens. Matter 24, 424209 (2012).
     *

     Carrying out vdW-DF run using the following parameters:

     Nqs =      20    Nr_points =    1024   r_max =   100.000
     q_mesh =
               0.00001000     0.04494208     0.09755937     0.15916263
               0.23128650     0.31572767     0.41458969     0.53033537
               0.66584808     0.82450364     1.01025438     1.22772762
               1.48234092     1.78043706     2.12944203     2.53805004
               3.01644009     3.57652955     4.23227104     5.00000000

     Gradients computed in reciprocal space

     Starting wfc are   42 randomized atomic wfcs +    5 random wfc

     Self-consistent Calculation

     iteration #  1     ecut=    58.80 Ry     beta=0.10
     Davidson diagonalization with overlap
     ethr =  1.00E-02,  avg # of iterations =  4.6

[...]

     total energy              =    -599.06695624 Ry
     Harris-Foulkes estimate   =    -599.47758168 Ry
     estimated scf accuracy    <       2.66206820 Ry

[...]

     total energy              =    -598.83411314 Ry
     Harris-Foulkes estimate   =    -598.83410217 Ry
     estimated scf accuracy    <       0.00000167 Ry

     iteration # 11     ecut=    58.80 Ry     beta=0.10
     Davidson diagonalization with overlap
     ethr =  3.10E-09,  avg # of iterations =  2.0

     negative rho (up, down):  7.118E-01 0.000E+00

     End of self-consistent calculation

          k = 0.0000 0.0000 0.0000 (  3695 PWs)   bands (ev):

   -32.2285 -32.2285 -32.0526 -32.0526 -31.9973 -31.9604   6.7316   6.7453
     7.0378   7.2247   7.2247   7.3920   7.7816   8.0027   8.0027   8.2965
     8.7543  12.5008  12.8078  13.2918  14.8230  14.8230  15.4193  16.0869
    16.0869  16.7305  17.1835  17.1835  17.3226  17.9306  22.7974  22.8352
    22.8457  25.0965  26.0900  26.0900  26.4109  26.4109  27.5530  28.2062
    28.2077  31.1122  32.8775  32.9259  33.1520  33.6499  34.6147

[...]

          k = 0.1080 0.1080 0.1080 (  3563 PWs)   bands (ev):

   -32.2473 -32.2420 -32.0424 -32.0371 -31.9813 -31.9802   6.9966   7.0050
     7.0926   7.1406   7.7365   7.7798   8.0439   8.0659   8.0902   8.1138
    11.8720  12.0208  12.9700  13.1260  14.5564  14.6433  14.8901  15.4507
    15.5218  15.9822  16.1421  16.1527  16.2992  16.5011  20.3225  20.3811
    20.4721  20.9565  28.2088  28.2088  30.4371  30.4439  30.5234  30.5825
    31.4278  31.8435  32.5526  32.7111  33.5288  33.9072  34.4295

     the Fermi energy is    16.1585 ev

!    total energy              =    -598.83416250 Ry
     Harris-Foulkes estimate   =    -598.83411338 Ry
     estimated scf accuracy    <       0.00000012 Ry

     The total energy is the sum of the following terms:

     one-electron contribution =     -63.15696195 Ry
     hartree contribution      =      82.73389130 Ry
     xc contribution           =    -185.83128729 Ry
     ewald contribution        =    -432.56958379 Ry
     smearing contrib. (-TS)   =      -0.01022078 Ry

     convergence has been achieved in  11 iterations

     Forces acting on atoms (Ry/au):

     negative rho (up, down):  7.118E-01 0.000E+00
     atom    1 type  1   force =     0.00000000    0.00000000    0.00000000
     atom    2 type  1   force =     0.00000000    0.00000000    0.00000000
     atom    3 type  2   force =     0.00000000    0.00000000    0.00000000
     atom    4 type  2   force =     0.00000000    0.00000000    0.00000000

     Total force =     0.000000     Total SCF correction =     0.000000

     General routines

     Parallel routines

   This run was terminated on:   1:42:56  14Nov2017

   JOB DONE.