     Program PWSCF v.5.1rc2 (svn rev. ) starts on 18Feb2018 at 18: 5:30

     Current dimensions of program PWSCF are:
     Max number of different atomic species (ntypx) = 10
     Max number of k-points (npk) =  40000
     Max angular momentum in pseudopotentials (lmaxx) =  3

     IMPORTANT: XC functional enforced from input :
     Exchange-correlation      = BEEF-VDW ( 1  4 27 13 2)
     Any further DFT definition will be discarded
     Please, verify this is what you really want

     Subspace diagonalization in iterative solution of the eigenvalue problem:
     a serial algorithm will be used

     Found symmetry operation: I + ( -0.5000 -0.5000  0.0000)
     This is a supercell, fractional translations are disabled

     bravais-lattice index     =            0
     lattice parameter (alat)  =       1.8897  a.u.
     unit-cell volume          =     666.8638 (a.u.)^3
     number of atoms/cell      =            4
     number of atomic types    =            2
     number of electrons       =        54.00
     number of Kohn-Sham states=           47
     kinetic-energy cutoff     =      58.7989  Ry
     charge density cutoff     =     587.9892  Ry
     convergence threshold     =      1.0E-06
     mixing beta               =       0.1000
     number of iterations used =           10  plain     mixing
     Exchange-correlation      = BEEF-VDW ( 1  4 27 13 2)

     celldm(1)=   1.889726  celldm(2)=   0.000000  celldm(3)=   0.000000
     celldm(4)=   0.000000  celldm(5)=   0.000000  celldm(6)=   0.000000

     crystal axes: (cart. coord. in units of alat)
               a(1) = (   5.209746   0.000000   0.000000 )
               a(2) = (   0.000000   5.209746   0.000000 )
               a(3) = (   0.000000   0.000000   3.640888 )

     reciprocal axes: (cart. coord. in units 2 pi/alat)
               b(1) = (  0.191948  0.000000  0.000000 )
               b(2) = (  0.000000  0.191948  0.000000 )
               b(3) = (  0.000000  0.000000  0.274658 )

     PseudoPot. # 1 for Zr read from file:
     /home/mamunm/src/pseudo/gbrv1.5pbe/Zr.UPF
     MD5 check sum: 5db81b1e868ab7776c4564c113de050b
     Pseudo is Ultrasoft + core correction, Zval = 12.0
     Generated by new atomic code, or converted to UPF format
     Using radial grid of  887 points,  6 beta functions with:
                l(1) =   0
                l(2) =   0
                l(3) =   1
                l(4) =   1
                l(5) =   2
                l(6) =   2
     Q(r) pseudized with  6 coefficients,  rinner =    1.200   1.200   1.200
                                                       1.200   1.200

     PseudoPot. # 2 for Bi read from file:
     /home/mamunm/src/pseudo/gbrv1.5pbe/Bi.UPF
     MD5 check sum: 81103212dc04adf40945787f699eab19
     Pseudo is Ultrasoft + core correction, Zval = 15.0
     Generated by new atomic code, or converted to UPF format
     Using radial grid of  899 points,  6 beta functions with:
                l(1) =   0
                l(2) =   0
                l(3) =   1
                l(4) =   1
                l(5) =   2
                l(6) =   2
     Q(r) pseudized with  6 coefficients,  rinner =    1.000   1.000   1.000
                                                       1.000   1.000

     vdW kernel table read from file vdW_kernel_table
     MD5 check sum: 095c7af220d748ca6e76c0b4c6cfb241

     atomic species   valence    mass     pseudopotential
        Zr1           12.00    91.22400     Zr( 1.00)
        Bi1           15.00   208.98040     Bi( 1.00)

     16 Sym. Ops., with inversion, found

   Cartesian axes

     site n.     atom                  positions (alat units)
         1           Zr1 tau(   1) = (   0.0000000   0.0000000   0.0000000  )
         2           Zr1 tau(   2) = (   2.6048732   2.6048732   0.0000000  )
         3           Bi1 tau(   3) = (   2.6048732   0.0000000   1.8204441  )
         4           Bi1 tau(   4) = (   0.0000000   2.6048732   1.8204441  )

     number of k points=    75  Fermi-Dirac smearing, width (Ry)=  0.0073
                       cart. coord. in units 2pi/alat
        k(    1) = (   0.0000000   0.0000000   0.0000000), wk =   0.0027435
        k(    2) = (   0.0000000   0.0000000   0.0305176), wk =   0.0054870
        k(    3) = (   0.0000000   0.0000000   0.0610352), wk =   0.0054870
        k(    4) = (   0.0000000   0.0000000   0.0915528), wk =   0.0054870
        k(    5) = (   0.0000000   0.0000000   0.1220703), wk =   0.0054870
        k(    6) = (   0.0000000   0.0213275   0.0000000), wk =   0.0109739
        k(    7) = (   0.0000000   0.0213275   0.0305176), wk =   0.0219479
        k(    8) = (   0.0000000   0.0213275   0.0610352), wk =   0.0219479
        k(    9) = (   0.0000000   0.0213275   0.0915528), wk =   0.0219479
        k(   10) = (   0.0000000   0.0213275   0.1220703), wk =   0.0219479
        k(   11) = (   0.0000000   0.0426551   0.0000000), wk =   0.0109739
        k(   12) = (   0.0000000   0.0426551   0.0305176), wk =   0.0219479
        k(   13) = (   0.0000000   0.0426551   0.0610352), wk =   0.0219479
        k(   14) = (   0.0000000   0.0426551   0.0915528), wk =   0.0219479
        k(   15) = (   0.0000000   0.0426551   0.1220703), wk =   0.0219479
        k(   16) = (   0.0000000   0.0639826   0.0000000), wk =   0.0109739
        k(   17) = (   0.0000000   0.0639826   0.0305176), wk =   0.0219479
        k(   18) = (   0.0000000   0.0639826   0.0610352), wk =   0.0219479
        k(   19) = (   0.0000000   0.0639826   0.0915528), wk =   0.0219479
        k(   20) = (   0.0000000   0.0639826   0.1220703), wk =   0.0219479
        k(   21) = (   0.0000000   0.0853102   0.0000000), wk =   0.0109739
        k(   22) = (   0.0000000   0.0853102   0.0305176), wk =   0.0219479
        k(   23) = (   0.0000000   0.0853102   0.0610352), wk =   0.0219479
        k(   24) = (   0.0000000   0.0853102   0.0915528), wk =   0.0219479
        k(   25) = (   0.0000000   0.0853102   0.1220703), wk =   0.0219479
        k(   26) = (   0.0213275   0.0213275   0.0000000), wk =   0.0109739
        k(   27) = (   0.0213275   0.0213275   0.0305176), wk =   0.0219479
        k(   28) = (   0.0213275   0.0213275   0.0610352), wk =   0.0219479
        k(   29) = (   0.0213275   0.0213275   0.0915528), wk =   0.0219479
        k(   30) = (   0.0213275   0.0213275   0.1220703), wk =   0.0219479
        k(   31) = (   0.0213275   0.0426551   0.0000000), wk =   0.0219479
        k(   32) = (   0.0213275   0.0426551   0.0305176), wk =   0.0438957
        k(   33) = (   0.0213275   0.0426551   0.0610352), wk =   0.0438957
        k(   34) = (   0.0213275   0.0426551   0.0915528), wk =   0.0438957
        k(   35) = (   0.0213275   0.0426551   0.1220703), wk =   0.0438957
        k(   36) = (   0.0213275   0.0639826   0.0000000), wk =   0.0219479
        k(   37) = (   0.0213275   0.0639826   0.0305176), wk =   0.0438957
        k(   38) = (   0.0213275   0.0639826   0.0610352), wk =   0.0438957
        k(   39) = (   0.0213275   0.0639826   0.0915528), wk =   0.0438957
        k(   40) = (   0.0213275   0.0639826   0.1220703), wk =   0.0438957
        k(   41) = (   0.0213275   0.0853102   0.0000000), wk =   0.0219479
        k(   42) = (   0.0213275   0.0853102   0.0305176), wk =   0.0438957
        k(   43) = (   0.0213275   0.0853102   0.0610352), wk =   0.0438957
        k(   44) = (   0.0213275   0.0853102   0.0915528), wk =   0.0438957
        k(   45) = (   0.0213275   0.0853102   0.1220703), wk =   0.0438957
        k(   46) = (   0.0426551   0.0426551   0.0000000), wk =   0.0109739
        k(   47) = (   0.0426551   0.0426551   0.0305176), wk =   0.0219479
        k(   48) = (   0.0426551   0.0426551   0.0610352), wk =   0.0219479
        k(   49) = (   0.0426551   0.0426551   0.0915528), wk =   0.0219479
        k(   50) = (   0.0426551   0.0426551   0.1220703), wk =   0.0219479
        k(   51) = (   0.0426551   0.0639826   0.0000000), wk =   0.0219479
        k(   52) = (   0.0426551   0.0639826   0.0305176), wk =   0.0438957
        k(   53) = (   0.0426551   0.0639826   0.0610352), wk =   0.0438957
        k(   54) = (   0.0426551   0.0639826   0.0915528), wk =   0.0438957
        k(   55) = (   0.0426551   0.0639826   0.1220703), wk =   0.0438957
        k(   56) = (   0.0426551   0.0853102   0.0000000), wk =   0.0219479
        k(   57) = (   0.0426551   0.0853102   0.0305176), wk =   0.0438957
        k(   58) = (   0.0426551   0.0853102   0.0610352), wk =   0.0438957
        k(   59) = (   0.0426551   0.0853102   0.0915528), wk =   0.0438957
        k(   60) = (   0.0426551   0.0853102   0.1220703), wk =   0.0438957
        k(   61) = (   0.0639826   0.0639826   0.0000000), wk =   0.0109739
        k(   62) = (   0.0639826   0.0639826   0.0305176), wk =   0.0219479
        k(   63) = (   0.0639826   0.0639826   0.0610352), wk =   0.0219479
        k(   64) = (   0.0639826   0.0639826   0.0915528), wk =   0.0219479
        k(   65) = (   0.0639826   0.0639826   0.1220703), wk =   0.0219479
        k(   66) = (   0.0639826   0.0853102   0.0000000), wk =   0.0219479
        k(   67) = (   0.0639826   0.0853102   0.0305176), wk =   0.0438957
        k(   68) = (   0.0639826   0.0853102   0.0610352), wk =   0.0438957
        k(   69) = (   0.0639826   0.0853102   0.0915528), wk =   0.0438957
        k(   70) = (   0.0639826   0.0853102   0.1220703), wk =   0.0438957
        k(   71) = (   0.0853102   0.0853102   0.0000000), wk =   0.0109739
        k(   72) = (   0.0853102   0.0853102   0.0305176), wk =   0.0219479
        k(   73) = (   0.0853102   0.0853102   0.0610352), wk =   0.0219479
        k(   74) = (   0.0853102   0.0853102   0.0915528), wk =   0.0219479
        k(   75) = (   0.0853102   0.0853102   0.1220703), wk =   0.0219479

     Largest allocated arrays     est. size (Mb)     dimensions
     Largest temporary arrays     est. size (Mb)     dimensions

     Initial potential from superposition of free atoms
     Check: negative starting charge=   -0.204749

     starting charge   51.99562, renormalised to   54.00000

     negative rho (up, down):  2.126E-01 0.000E+00

     *
     * You are using vdW-DF for exchange-correlation in this calculation.
     * Please cite the following three references that made this development
     * possible:
     *
     *   M. Dion, H. Rydberg, E. Schroder, D. C. Langreth, and
     *   B. I. Lundqvist, Phys. Rev. Lett. 92, 246401 (2004).
     *
     *   T. Thonhauser, V. R. Cooper, S. Li, A. Puzder, P. Hyldgaard, and
     *   D. C. Langreth, Phys. Rev. B 76, 125112 (2007).
     *
     *   G. Roman-Perez and J. M. Soler, Phys. Rev. Lett. 103, 096102 (2009).
     *
     *
     * If you are using vdW-DF2, please also cite:
     *
     *   K. Lee, E. D. Murray, L. Kong, B. I. Lundqvist, and
     *   D. C. Langreth, Phys. Rev. B 82, 081101(R) (2010).
     *
     *
     * If you are calculating the stress with vdW-DF, please also cite:
     *
     *   R. Sabatini, E. Kucukbenli, B. Kolb, T. Thonhauser, and
     *   S. de Gironcoli, J. Phys.: Condens. Matter 24, 424209 (2012).
     *

     Carrying out vdW-DF run using the following parameters:

     Nqs =      20    Nr_points =    1024   r_max =   100.000
     q_mesh =
               0.00001000     0.04494208     0.09755937     0.15916263
               0.23128650     0.31572767     0.41458969     0.53033537
               0.66584808     0.82450364     1.01025438     1.22772762
               1.48234092     1.78043706     2.12944203     2.53805004
               3.01644009     3.57652955     4.23227104     5.00000000

     Gradients computed in reciprocal space

     Starting wfc are   44 randomized atomic wfcs +    3 random wfc

     Self-consistent Calculation

     iteration #  1     ecut=    58.80 Ry     beta=0.10
     Davidson diagonalization with overlap
     ethr =  1.00E-02,  avg # of iterations =  4.5

[...]

     total energy              =    -574.15636493 Ry
     Harris-Foulkes estimate   =    -574.24799429 Ry
     estimated scf accuracy    <       0.59972205 Ry

[...]

     total energy              =    -573.97377081 Ry
     Harris-Foulkes estimate   =    -573.97374725 Ry
     estimated scf accuracy    <       0.00000133 Ry

     iteration # 10     ecut=    58.80 Ry     beta=0.10
     Davidson diagonalization with overlap
     ethr =  2.47E-09,  avg # of iterations =  2.0

     negative rho (up, down):  2.136E-01 0.000E+00

     End of self-consistent calculation

          k = 0.0000 0.0000 0.0000 (  5065 PWs)   bands (ev):

   -35.2863 -35.2705 -13.3199 -13.3199 -13.1983 -13.1983 -13.1779 -13.1529
    -8.6450  -8.6311  -8.6222  -8.5978  -8.5957  -8.5957  -8.5699  -8.5699
    -8.5657  -8.4926   1.8156   3.7152  10.8084  10.8084  12.9597  13.0287
    13.0431  14.9634  14.9634  15.1778  15.2916  15.2916  16.2008  16.3264
    16.3974  16.3974  17.1436  17.1930  17.4169  18.7031  22.4163  22.4163
    23.6660  23.6996  24.9890  25.7271  25.7271  26.8965  29.1749

[...]

          k = 0.0853 0.0853 0.1221 (  5070 PWs)   bands (ev):

   -35.2697 -35.2692 -13.3187 -13.3151 -13.3119 -13.3111 -13.1764 -13.1726
    -8.6277  -8.6273  -8.5986  -8.5982  -8.5908  -8.5900  -8.5854  -8.5821
    -8.4994  -8.4972   3.7467   3.7937  10.6633  10.7159  10.8328  10.8811
    13.1719  13.2165  14.9707  15.0386  15.2281  15.2565  15.6768  16.1905
    17.3636  17.3976  17.4476  17.6987  18.8037  18.8201  22.1658  22.3128
    22.4808  22.4954  25.1847  25.2180  26.2487  26.2840  28.9481

     the Fermi energy is    14.1875 ev

!    total energy              =    -573.97388712 Ry
     Harris-Foulkes estimate   =    -573.97377107 Ry
     estimated scf accuracy    <       0.00000027 Ry

     The total energy is the sum of the following terms:

     one-electron contribution =    -103.39988865 Ry
     hartree contribution      =      84.95950033 Ry
     xc contribution           =    -170.29179549 Ry
     ewald contribution        =    -385.23162326 Ry
     smearing contrib. (-TS)   =      -0.01008005 Ry

     convergence has been achieved in  10 iterations

     Forces acting on atoms (Ry/au):

     negative rho (up, down):  2.136E-01 0.000E+00
     atom    1 type  1   force =     0.00000000    0.00000000    0.00000000
     atom    2 type  1   force =     0.00000000    0.00000000    0.00000000
     atom    3 type  2   force =     0.00000000    0.00000000    0.00000000
     atom    4 type  2   force =     0.00000000    0.00000000    0.00000000

     Total force =     0.000000     Total SCF correction =     0.000000

     General routines

     Parallel routines

   This run was terminated on:  18: 6:24  18Feb2018

   JOB DONE.