     Program PWSCF v.5.1rc2 starts on 15Nov2017 at  4:48:51

     Current dimensions of program PWSCF are:
     Max number of different atomic species (ntypx) = 10
     Max number of k-points (npk) =  40000
     Max angular momentum in pseudopotentials (lmaxx) =  3

     IMPORTANT: XC functional enforced from input :
     Exchange-correlation      = BEEF-VDW ( 1  4 27 13 2)
     Any further DFT definition will be discarded
     Please, verify this is what you really want

     Found symmetry operation: I + ( -0.5000 -0.5000  0.0000)
     This is a supercell, fractional translations are disabled

     bravais-lattice index     =            0
     lattice parameter (alat)  =       1.8897  a.u.
     unit-cell volume          =     399.9326 (a.u.)^3
     number of atoms/cell      =            4
     number of atomic types    =            2
     number of electrons       =        64.00
     number of Kohn-Sham states=           52
     kinetic-energy cutoff     =      58.7989  Ry
     charge density cutoff     =     587.9892  Ry
     convergence threshold     =      1.0E-06
     mixing beta               =       0.1000
     number of iterations used =           10  plain     mixing
     Exchange-correlation      = BEEF-VDW ( 1  4 27 13 2)

     celldm(1)=   1.889726  celldm(2)=   0.000000  celldm(3)=   0.000000
     celldm(4)=   0.000000  celldm(5)=   0.000000  celldm(6)=   0.000000

     crystal axes: (cart. coord. in units of alat)
               a(1) = (   3.884081   0.000000   0.000000 )
               a(2) = (   0.000000   3.884081   0.000000 )
               a(3) = (   0.000000   0.000000   3.928382 )

     reciprocal axes: (cart. coord. in units 2 pi/alat)
               b(1) = (  0.257461  0.000000  0.000000 )
               b(2) = (  0.000000  0.257461  0.000000 )
               b(3) = (  0.000000  0.000000  0.254558 )

     PseudoPot. # 1 for Ru read from file:
     /home/users/vossj/suncat/psp/gbrv1.5pbe/Ru.UPF
     MD5 check sum: 7158a806dd851261a58e6920c40ebe78
     Pseudo is Ultrasoft + core correction, Zval = 16.0
     Generated by new atomic code, or converted to UPF format
     Using radial grid of  967 points,  6 beta functions with:
                l(1) =   0
                l(2) =   0
                l(3) =   1
                l(4) =   1
                l(5) =   2
                l(6) =   2
     Q(r) pseudized with  8 coefficients,  rinner =    1.300   1.300   1.300
                                                       1.300   1.300

     PseudoPot. # 2 for Pt read from file:
     /home/users/vossj/suncat/psp/gbrv1.5pbe/Pt.UPF
     MD5 check sum: f09d6de1a584b5a045c4fc126da2d0c4
     Pseudo is Ultrasoft + core correction, Zval = 16.0
     Generated by new atomic code, or converted to UPF format
     Using radial grid of  985 points,  6 beta functions with:
                l(1) =   0
                l(2) =   0
                l(3) =   1
                l(4) =   1
                l(5) =   2
                l(6) =   2
     Q(r) pseudized with  8 coefficients,  rinner =    1.300   1.300   1.300
                                                       1.300   1.300

     vdW kernel table read from file vdW_kernel_table
     MD5 check sum: 095c7af220d748ca6e76c0b4c6cfb241

     atomic species   valence    mass     pseudopotential
        Ru1           16.00   101.07000     Ru( 1.00)
        Pt1           16.00   195.08000     Pt( 1.00)

     16 Sym. Ops., with inversion, found

   Cartesian axes

     site n.     atom                  positions (alat units)
         1           Ru1 tau(   1) = (   0.0000000   0.0000000   0.0000000  )
         2           Ru1 tau(   2) = (   1.9420404   1.9420404   0.0000000  )
         3           Pt1 tau(   3) = (   1.9420404   0.0000000   1.9641908  )
         4           Pt1 tau(   4) = (   0.0000000   1.9420404   1.9641908  )

     number of k points=    75  Fermi-Dirac smearing, width (Ry)=  0.0073
                       cart. coord. in units 2pi/alat
        k(    1) = (   0.0000000   0.0000000   0.0000000), wk =   0.0027435
        k(    2) = (   0.0000000   0.0000000   0.0282842), wk =   0.0054870
        k(    3) = (   0.0000000   0.0000000   0.0565684), wk =   0.0054870
        k(    4) = (   0.0000000   0.0000000   0.0848526), wk =   0.0054870
        k(    5) = (   0.0000000   0.0000000   0.1131368), wk =   0.0054870
        k(    6) = (   0.0000000   0.0286068   0.0000000), wk =   0.0109739
        k(    7) = (   0.0000000   0.0286068   0.0282842), wk =   0.0219479
        k(    8) = (   0.0000000   0.0286068   0.0565684), wk =   0.0219479
        k(    9) = (   0.0000000   0.0286068   0.0848526), wk =   0.0219479
        k(   10) = (   0.0000000   0.0286068   0.1131368), wk =   0.0219479
        k(   11) = (   0.0000000   0.0572136   0.0000000), wk =   0.0109739
        k(   12) = (   0.0000000   0.0572136   0.0282842), wk =   0.0219479
        k(   13) = (   0.0000000   0.0572136   0.0565684), wk =   0.0219479
        k(   14) = (   0.0000000   0.0572136   0.0848526), wk =   0.0219479
        k(   15) = (   0.0000000   0.0572136   0.1131368), wk =   0.0219479
        k(   16) = (   0.0000000   0.0858204   0.0000000), wk =   0.0109739
        k(   17) = (   0.0000000   0.0858204   0.0282842), wk =   0.0219479
        k(   18) = (   0.0000000   0.0858204   0.0565684), wk =   0.0219479
        k(   19) = (   0.0000000   0.0858204   0.0848526), wk =   0.0219479
        k(   20) = (   0.0000000   0.0858204   0.1131368), wk =   0.0219479
        k(   21) = (   0.0000000   0.1144272   0.0000000), wk =   0.0109739
        k(   22) = (   0.0000000   0.1144272   0.0282842), wk =   0.0219479
        k(   23) = (   0.0000000   0.1144272   0.0565684), wk =   0.0219479
        k(   24) = (   0.0000000   0.1144272   0.0848526), wk =   0.0219479
        k(   25) = (   0.0000000   0.1144272   0.1131368), wk =   0.0219479
        k(   26) = (   0.0286068   0.0286068   0.0000000), wk =   0.0109739
        k(   27) = (   0.0286068   0.0286068   0.0282842), wk =   0.0219479
        k(   28) = (   0.0286068   0.0286068   0.0565684), wk =   0.0219479
        k(   29) = (   0.0286068   0.0286068   0.0848526), wk =   0.0219479
        k(   30) = (   0.0286068   0.0286068   0.1131368), wk =   0.0219479
        k(   31) = (   0.0286068   0.0572136   0.0000000), wk =   0.0219479
        k(   32) = (   0.0286068   0.0572136   0.0282842), wk =   0.0438957
        k(   33) = (   0.0286068   0.0572136   0.0565684), wk =   0.0438957
        k(   34) = (   0.0286068   0.0572136   0.0848526), wk =   0.0438957
        k(   35) = (   0.0286068   0.0572136   0.1131368), wk =   0.0438957
        k(   36) = (   0.0286068   0.0858204   0.0000000), wk =   0.0219479
        k(   37) = (   0.0286068   0.0858204   0.0282842), wk =   0.0438957
        k(   38) = (   0.0286068   0.0858204   0.0565684), wk =   0.0438957
        k(   39) = (   0.0286068   0.0858204   0.0848526), wk =   0.0438957
        k(   40) = (   0.0286068   0.0858204   0.1131368), wk =   0.0438957
        k(   41) = (   0.0286068   0.1144272   0.0000000), wk =   0.0219479
        k(   42) = (   0.0286068   0.1144272   0.0282842), wk =   0.0438957
        k(   43) = (   0.0286068   0.1144272   0.0565684), wk =   0.0438957
        k(   44) = (   0.0286068   0.1144272   0.0848526), wk =   0.0438957
        k(   45) = (   0.0286068   0.1144272   0.1131368), wk =   0.0438957
        k(   46) = (   0.0572136   0.0572136   0.0000000), wk =   0.0109739
        k(   47) = (   0.0572136   0.0572136   0.0282842), wk =   0.0219479
        k(   48) = (   0.0572136   0.0572136   0.0565684), wk =   0.0219479
        k(   49) = (   0.0572136   0.0572136   0.0848526), wk =   0.0219479
        k(   50) = (   0.0572136   0.0572136   0.1131368), wk =   0.0219479
        k(   51) = (   0.0572136   0.0858204   0.0000000), wk =   0.0219479
        k(   52) = (   0.0572136   0.0858204   0.0282842), wk =   0.0438957
        k(   53) = (   0.0572136   0.0858204   0.0565684), wk =   0.0438957
        k(   54) = (   0.0572136   0.0858204   0.0848526), wk =   0.0438957
        k(   55) = (   0.0572136   0.0858204   0.1131368), wk =   0.0438957
        k(   56) = (   0.0572136   0.1144272   0.0000000), wk =   0.0219479
        k(   57) = (   0.0572136   0.1144272   0.0282842), wk =   0.0438957
        k(   58) = (   0.0572136   0.1144272   0.0565684), wk =   0.0438957
        k(   59) = (   0.0572136   0.1144272   0.0848526), wk =   0.0438957
        k(   60) = (   0.0572136   0.1144272   0.1131368), wk =   0.0438957
        k(   61) = (   0.0858204   0.0858204   0.0000000), wk =   0.0109739
        k(   62) = (   0.0858204   0.0858204   0.0282842), wk =   0.0219479
        k(   63) = (   0.0858204   0.0858204   0.0565684), wk =   0.0219479
        k(   64) = (   0.0858204   0.0858204   0.0848526), wk =   0.0219479
        k(   65) = (   0.0858204   0.0858204   0.1131368), wk =   0.0219479
        k(   66) = (   0.0858204   0.1144272   0.0000000), wk =   0.0219479
        k(   67) = (   0.0858204   0.1144272   0.0282842), wk =   0.0438957
        k(   68) = (   0.0858204   0.1144272   0.0565684), wk =   0.0438957
        k(   69) = (   0.0858204   0.1144272   0.0848526), wk =   0.0438957
        k(   70) = (   0.0858204   0.1144272   0.1131368), wk =   0.0438957
        k(   71) = (   0.1144272   0.1144272   0.0000000), wk =   0.0109739
        k(   72) = (   0.1144272   0.1144272   0.0282842), wk =   0.0219479
        k(   73) = (   0.1144272   0.1144272   0.0565684), wk =   0.0219479
        k(   74) = (   0.1144272   0.1144272   0.0848526), wk =   0.0219479
        k(   75) = (   0.1144272   0.1144272   0.1131368), wk =   0.0219479

     Largest allocated arrays     est. size (Mb)     dimensions
     Largest temporary arrays     est. size (Mb)     dimensions

     Initial potential from superposition of free atoms
     Check: negative starting charge=   -0.518747

     starting charge   60.99995, renormalised to   64.00000

     negative rho (up, down):  5.443E-01 0.000E+00

     *
     * You are using vdW-DF for exchange-correlation in this calculation.
     * Please cite the following three references that made this development
     * possible:
     *
     *   M. Dion, H. Rydberg, E. Schroder, D. C. Langreth, and
     *   B. I. Lundqvist, Phys. Rev. Lett. 92, 246401 (2004).
     *
     *   T. Thonhauser, V. R. Cooper, S. Li, A. Puzder, P. Hyldgaard, and
     *   D. C. Langreth, Phys. Rev. B 76, 125112 (2007).
     *
     *   G. Roman-Perez and J. M. Soler, Phys. Rev. Lett. 103, 096102 (2009).
     *
     *
     * If you are using vdW-DF2, please also cite:
     *
     *   K. Lee, E. D. Murray, L. Kong, B. I. Lundqvist, and
     *   D. C. Langreth, Phys. Rev. B 82, 081101(R) (2010).
     *
     *
     * If you are calculating the stress with vdW-DF, please also cite:
     *
     *   R. Sabatini, E. Kucukbenli, B. Kolb, T. Thonhauser, and
     *   S. de Gironcoli, J. Phys.: Condens. Matter 24, 424209 (2012).
     *

     Carrying out vdW-DF run using the following parameters:

     Nqs =      20    Nr_points =    1024   r_max =   100.000
     q_mesh =
               0.00001000     0.04494208     0.09755937     0.15916263
               0.23128650     0.31572767     0.41458969     0.53033537
               0.66584808     0.82450364     1.01025438     1.22772762
               1.48234092     1.78043706     2.12944203     2.53805004
               3.01644009     3.57652955     4.23227104     5.00000000

     Gradients computed in reciprocal space

     Starting wfc are   50 randomized atomic wfcs +    2 random wfc

     Self-consistent Calculation

     iteration #  1     ecut=    58.80 Ry     beta=0.10
     Davidson diagonalization with overlap
     ethr =  1.00E-02,  avg # of iterations =  4.7

[...]

     total energy              =    -815.39509787 Ry
     Harris-Foulkes estimate   =    -816.76559107 Ry
     estimated scf accuracy    <       8.26752786 Ry

[...]

     total energy              =    -815.03504180 Ry
     Harris-Foulkes estimate   =    -815.03504034 Ry
     estimated scf accuracy    <       0.00000123 Ry

     iteration # 12     ecut=    58.80 Ry     beta=0.10
     Davidson diagonalization with overlap
     ethr =  1.92E-09,  avg # of iterations =  1.0

     negative rho (up, down):  5.083E-01 0.000E+00

     End of self-consistent calculation

          k = 0.0000 0.0000 0.0000 (  3019 PWs)   bands (ev):

   -51.0294 -50.9439 -31.5376 -31.5376 -31.4490 -31.3933 -31.2967 -31.2967
   -21.1242 -21.1242 -20.9771 -20.8972 -20.7435 -20.7435  12.9204  15.1431
    15.4387  15.6009  15.6463  15.7800  15.7800  18.6326  18.6326  18.9395
    20.5738  20.9181  22.1328  22.2337  22.8853  22.9610  23.0405  23.0405
    23.1558  23.1558  23.8831  24.4106  24.6102  24.6102  31.2256  32.7168
    33.5158  34.2377  34.2377  34.2893  34.2893  34.4675  34.6039  36.7782
    41.6994  42.0348  42.0348  42.0415

[...]

          k = 0.1144 0.1144 0.1131 (  3072 PWs)   bands (ev):

   -50.9873 -50.9847 -31.5658 -31.5587 -31.4252 -31.4237 -31.2820 -31.2747
   -21.1701 -21.1588 -20.9428 -20.9399 -20.7203 -20.7084  15.1293  15.2074
    15.6198  15.6251  17.9894  18.0339  18.3102  18.4498  18.6954  18.7712
    19.2620  19.3595  21.0596  21.3488  21.3536  21.8446  22.2144  22.4769
    22.5303  22.8083  23.0190  23.5074  23.5694  23.5731  28.2411  28.5470
    30.8290  31.1152  36.4973  36.5344  36.5359  36.5630  41.1218  41.3409
    41.3533  41.3883  41.9285  41.9894

     the Fermi energy is    22.0250 ev

!    total energy              =    -815.03504783 Ry
     Harris-Foulkes estimate   =    -815.03504182 Ry
     estimated scf accuracy    <       0.00000065 Ry

     The total energy is the sum of the following terms:

     one-electron contribution =    -117.03857545 Ry
     hartree contribution      =     110.33485050 Ry
     xc contribution           =    -171.08707536 Ry
     ewald contribution        =    -637.23025266 Ry
     smearing contrib. (-TS)   =      -0.01399486 Ry

     convergence has been achieved in  12 iterations

     Forces acting on atoms (Ry/au):

     negative rho (up, down):  5.083E-01 0.000E+00
     atom    1 type  1   force =     0.00000000    0.00000000    0.00000000
     atom    2 type  1   force =     0.00000000    0.00000000    0.00000000
     atom    3 type  2   force =     0.00000000    0.00000000    0.00000000
     atom    4 type  2   force =     0.00000000    0.00000000    0.00000000

     Total force =     0.000000     Total SCF correction =     0.000000

     General routines

     Parallel routines

   This run was terminated on:   4:49:28  15Nov2017

   JOB DONE.