     Program PWSCF v.5.1rc2 starts on 14Nov2017 at 16:55:41

     Current dimensions of program PWSCF are:
     Max number of different atomic species (ntypx) = 10
     Max number of k-points (npk) =  40000
     Max angular momentum in pseudopotentials (lmaxx) =  3

     IMPORTANT: XC functional enforced from input :
     Exchange-correlation      = BEEF-VDW ( 1  4 27 13 2)
     Any further DFT definition will be discarded
     Please, verify this is what you really want

     Found symmetry operation: I + (  0.5000  0.5000  0.0000)
     This is a supercell, fractional translations are disabled

     bravais-lattice index     =            0
     lattice parameter (alat)  =       1.8897  a.u.
     unit-cell volume          =     447.5505 (a.u.)^3
     number of atoms/cell      =            4
     number of atomic types    =            2
     number of electrons       =        58.00
     number of Kohn-Sham states=           49
     kinetic-energy cutoff     =      58.7989  Ry
     charge density cutoff     =     587.9892  Ry
     convergence threshold     =      1.0E-06
     mixing beta               =       0.1000
     number of iterations used =           10  plain     mixing
     Exchange-correlation      = BEEF-VDW ( 1  4 27 13 2)

     celldm(1)=   1.889726  celldm(2)=   0.000000  celldm(3)=   0.000000
     celldm(4)=   0.000000  celldm(5)=   0.000000  celldm(6)=   0.000000

     crystal axes: (cart. coord. in units of alat)
               a(1) = (   3.996530   0.000000   0.000000 )
               a(2) = (   0.000000   3.996530   0.000000 )
               a(3) = (   0.000000   0.000000   4.152209 )

     reciprocal axes: (cart. coord. in units 2 pi/alat)
               b(1) = (  0.250217  0.000000  0.000000 )
               b(2) = (  0.000000  0.250217  0.000000 )
               b(3) = (  0.000000  0.000000  0.240836 )

     PseudoPot. # 1 for Nb read from file:
     /home/users/vossj/suncat/psp/gbrv1.5pbe/Nb.UPF
     MD5 check sum: 573aab8a2fa660278ed4a62cd769473f
     Pseudo is Ultrasoft + core correction, Zval = 13.0
     Generated by new atomic code, or converted to UPF format
     Using radial grid of  887 points,  6 beta functions with:
                l(1) =   0
                l(2) =   0
                l(3) =   1
                l(4) =   1
                l(5) =   2
                l(6) =   2
     Q(r) pseudized with  6 coefficients,  rinner =    1.000   1.000   1.000
                                                       1.000   1.000

     PseudoPot. # 2 for Pd read from file:
     /home/users/vossj/suncat/psp/gbrv1.5pbe/Pd.UPF
     MD5 check sum: 2d733d2bc2cbfd217af676df1668a4bc
     Pseudo is Ultrasoft + core correction, Zval = 16.0
     Generated by new atomic code, or converted to UPF format
     Using radial grid of  887 points,  6 beta functions with:
                l(1) =   0
                l(2) =   0
                l(3) =   1
                l(4) =   1
                l(5) =   2
                l(6) =   2
     Q(r) pseudized with  8 coefficients,  rinner =    1.130   1.130   1.130
                                                       1.130   1.130

     vdW kernel table read from file vdW_kernel_table
     MD5 check sum: 095c7af220d748ca6e76c0b4c6cfb241

     atomic species   valence    mass     pseudopotential
        Nb1           13.00    92.90640     Nb( 1.00)
        Pd1           16.00   106.42000     Pd( 1.00)

     16 Sym. Ops., with inversion, found

   Cartesian axes

     site n.     atom                  positions (alat units)
         1           Nb1 tau(   1) = (   0.0000000   0.0000000   0.0000000  )
         2           Nb1 tau(   2) = (   1.9982652   1.9982652   0.0000000  )
         3           Pd1 tau(   3) = (   1.9982652   0.0000000   2.0761047  )
         4           Pd1 tau(   4) = (   0.0000000   1.9982652   2.0761047  )

     number of k points=    75  Fermi-Dirac smearing, width (Ry)=  0.0073
                       cart. coord. in units 2pi/alat
        k(    1) = (   0.0000000   0.0000000   0.0000000), wk =   0.0027435
        k(    2) = (   0.0000000   0.0000000   0.0267595), wk =   0.0054870
        k(    3) = (   0.0000000   0.0000000   0.0535190), wk =   0.0054870
        k(    4) = (   0.0000000   0.0000000   0.0802785), wk =   0.0054870
        k(    5) = (   0.0000000   0.0000000   0.1070381), wk =   0.0054870
        k(    6) = (   0.0000000   0.0278019   0.0000000), wk =   0.0109739
        k(    7) = (   0.0000000   0.0278019   0.0267595), wk =   0.0219479
        k(    8) = (   0.0000000   0.0278019   0.0535190), wk =   0.0219479
        k(    9) = (   0.0000000   0.0278019   0.0802785), wk =   0.0219479
        k(   10) = (   0.0000000   0.0278019   0.1070381), wk =   0.0219479
        k(   11) = (   0.0000000   0.0556038   0.0000000), wk =   0.0109739
        k(   12) = (   0.0000000   0.0556038   0.0267595), wk =   0.0219479
        k(   13) = (   0.0000000   0.0556038   0.0535190), wk =   0.0219479
        k(   14) = (   0.0000000   0.0556038   0.0802785), wk =   0.0219479
        k(   15) = (   0.0000000   0.0556038   0.1070381), wk =   0.0219479
        k(   16) = (   0.0000000   0.0834057   0.0000000), wk =   0.0109739
        k(   17) = (   0.0000000   0.0834057   0.0267595), wk =   0.0219479
        k(   18) = (   0.0000000   0.0834057   0.0535190), wk =   0.0219479
        k(   19) = (   0.0000000   0.0834057   0.0802785), wk =   0.0219479
        k(   20) = (   0.0000000   0.0834057   0.1070381), wk =   0.0219479
        k(   21) = (   0.0000000   0.1112076   0.0000000), wk =   0.0109739
        k(   22) = (   0.0000000   0.1112076   0.0267595), wk =   0.0219479
        k(   23) = (   0.0000000   0.1112076   0.0535190), wk =   0.0219479
        k(   24) = (   0.0000000   0.1112076   0.0802785), wk =   0.0219479
        k(   25) = (   0.0000000   0.1112076   0.1070381), wk =   0.0219479
        k(   26) = (   0.0278019   0.0278019   0.0000000), wk =   0.0109739
        k(   27) = (   0.0278019   0.0278019   0.0267595), wk =   0.0219479
        k(   28) = (   0.0278019   0.0278019   0.0535190), wk =   0.0219479
        k(   29) = (   0.0278019   0.0278019   0.0802785), wk =   0.0219479
        k(   30) = (   0.0278019   0.0278019   0.1070381), wk =   0.0219479
        k(   31) = (   0.0278019   0.0556038   0.0000000), wk =   0.0219479
        k(   32) = (   0.0278019   0.0556038   0.0267595), wk =   0.0438957
        k(   33) = (   0.0278019   0.0556038   0.0535190), wk =   0.0438957
        k(   34) = (   0.0278019   0.0556038   0.0802785), wk =   0.0438957
        k(   35) = (   0.0278019   0.0556038   0.1070381), wk =   0.0438957
        k(   36) = (   0.0278019   0.0834057   0.0000000), wk =   0.0219479
        k(   37) = (   0.0278019   0.0834057   0.0267595), wk =   0.0438957
        k(   38) = (   0.0278019   0.0834057   0.0535190), wk =   0.0438957
        k(   39) = (   0.0278019   0.0834057   0.0802785), wk =   0.0438957
        k(   40) = (   0.0278019   0.0834057   0.1070381), wk =   0.0438957
        k(   41) = (   0.0278019   0.1112076   0.0000000), wk =   0.0219479
        k(   42) = (   0.0278019   0.1112076   0.0267595), wk =   0.0438957
        k(   43) = (   0.0278019   0.1112076   0.0535190), wk =   0.0438957
        k(   44) = (   0.0278019   0.1112076   0.0802785), wk =   0.0438957
        k(   45) = (   0.0278019   0.1112076   0.1070381), wk =   0.0438957
        k(   46) = (   0.0556038   0.0556038   0.0000000), wk =   0.0109739
        k(   47) = (   0.0556038   0.0556038   0.0267595), wk =   0.0219479
        k(   48) = (   0.0556038   0.0556038   0.0535190), wk =   0.0219479
        k(   49) = (   0.0556038   0.0556038   0.0802785), wk =   0.0219479
        k(   50) = (   0.0556038   0.0556038   0.1070381), wk =   0.0219479
        k(   51) = (   0.0556038   0.0834057   0.0000000), wk =   0.0219479
        k(   52) = (   0.0556038   0.0834057   0.0267595), wk =   0.0438957
        k(   53) = (   0.0556038   0.0834057   0.0535190), wk =   0.0438957
        k(   54) = (   0.0556038   0.0834057   0.0802785), wk =   0.0438957
        k(   55) = (   0.0556038   0.0834057   0.1070381), wk =   0.0438957
        k(   56) = (   0.0556038   0.1112076   0.0000000), wk =   0.0219479
        k(   57) = (   0.0556038   0.1112076   0.0267595), wk =   0.0438957
        k(   58) = (   0.0556038   0.1112076   0.0535190), wk =   0.0438957
        k(   59) = (   0.0556038   0.1112076   0.0802785), wk =   0.0438957
        k(   60) = (   0.0556038   0.1112076   0.1070381), wk =   0.0438957
        k(   61) = (   0.0834057   0.0834057   0.0000000), wk =   0.0109739
        k(   62) = (   0.0834057   0.0834057   0.0267595), wk =   0.0219479
        k(   63) = (   0.0834057   0.0834057   0.0535190), wk =   0.0219479
        k(   64) = (   0.0834057   0.0834057   0.0802785), wk =   0.0219479
        k(   65) = (   0.0834057   0.0834057   0.1070381), wk =   0.0219479
        k(   66) = (   0.0834057   0.1112076   0.0000000), wk =   0.0219479
        k(   67) = (   0.0834057   0.1112076   0.0267595), wk =   0.0438957
        k(   68) = (   0.0834057   0.1112076   0.0535190), wk =   0.0438957
        k(   69) = (   0.0834057   0.1112076   0.0802785), wk =   0.0438957
        k(   70) = (   0.0834057   0.1112076   0.1070381), wk =   0.0438957
        k(   71) = (   0.1112076   0.1112076   0.0000000), wk =   0.0109739
        k(   72) = (   0.1112076   0.1112076   0.0267595), wk =   0.0219479
        k(   73) = (   0.1112076   0.1112076   0.0535190), wk =   0.0219479
        k(   74) = (   0.1112076   0.1112076   0.0802785), wk =   0.0219479
        k(   75) = (   0.1112076   0.1112076   0.1070381), wk =   0.0219479

     Largest allocated arrays     est. size (Mb)     dimensions
     Largest temporary arrays     est. size (Mb)     dimensions

     Initial potential from superposition of free atoms
     Check: negative starting charge=   -0.154496

     starting charge   56.99452, renormalised to   58.00000

     negative rho (up, down):  1.572E-01 0.000E+00

     *
     * You are using vdW-DF for exchange-correlation in this calculation.
     * Please cite the following three references that made this development
     * possible:
     *
     *   M. Dion, H. Rydberg, E. Schroder, D. C. Langreth, and
     *   B. I. Lundqvist, Phys. Rev. Lett. 92, 246401 (2004).
     *
     *   T. Thonhauser, V. R. Cooper, S. Li, A. Puzder, P. Hyldgaard, and
     *   D. C. Langreth, Phys. Rev. B 76, 125112 (2007).
     *
     *   G. Roman-Perez and J. M. Soler, Phys. Rev. Lett. 103, 096102 (2009).
     *
     *
     * If you are using vdW-DF2, please also cite:
     *
     *   K. Lee, E. D. Murray, L. Kong, B. I. Lundqvist, and
     *   D. C. Langreth, Phys. Rev. B 82, 081101(R) (2010).
     *
     *
     * If you are calculating the stress with vdW-DF, please also cite:
     *
     *   R. Sabatini, E. Kucukbenli, B. Kolb, T. Thonhauser, and
     *   S. de Gironcoli, J. Phys.: Condens. Matter 24, 424209 (2012).
     *

     Carrying out vdW-DF run using the following parameters:

     Nqs =      20    Nr_points =    1024   r_max =   100.000
     q_mesh =
               0.00001000     0.04494208     0.09755937     0.15916263
               0.23128650     0.31572767     0.41458969     0.53033537
               0.66584808     0.82450364     1.01025438     1.22772762
               1.48234092     1.78043706     2.12944203     2.53805004
               3.01644009     3.57652955     4.23227104     5.00000000

     Gradients computed in reciprocal space

     Starting wfc are   50 randomized atomic wfcs

     Self-consistent Calculation

     iteration #  1     ecut=    58.80 Ry     beta=0.10
     Davidson diagonalization with overlap
     ethr =  1.00E-02,  avg # of iterations =  4.5

[...]

     total energy              =    -636.86142034 Ry
     Harris-Foulkes estimate   =    -637.44952369 Ry
     estimated scf accuracy    <       3.63581439 Ry

[...]

     total energy              =    -636.85144311 Ry
     Harris-Foulkes estimate   =    -636.85144305 Ry
     estimated scf accuracy    <       0.00000199 Ry

     iteration # 10     ecut=    58.80 Ry     beta=0.10
     Davidson diagonalization with overlap
     ethr =  3.43E-09,  avg # of iterations =  1.9

     negative rho (up, down):  1.646E-01 0.000E+00

     End of self-consistent calculation

          k = 0.0000 0.0000 0.0000 (  3383 PWs)   bands (ev):

   -36.9930 -36.7639 -32.5216 -32.4932 -32.4932 -32.4896 -32.3508 -32.3508
   -13.2774 -13.2774 -13.0728 -12.8532 -12.4306 -12.4306  11.4237  12.9421
    13.0069  13.0955  13.3469  13.3469  13.3620  15.5303  15.5303  16.5976
    16.6707  17.5936  18.1108  18.3113  20.4283  20.4283  21.0559  21.3572
    21.6635  21.6635  21.7424  21.7424  22.5434  24.2340  28.0407  29.7286
    29.8297  30.6938  30.6938  30.7109  30.7109  30.9520  32.0839  32.4600
    36.7452

[...]

          k = 0.1112 0.1112 0.1070 (  3402 PWs)   bands (ev):

   -36.8798 -36.8727 -32.5095 -32.5070 -32.5063 -32.5052 -32.3423 -32.3380
   -13.4061 -13.3820 -12.9799 -12.9727 -12.3710 -12.3437  13.1906  13.2501
    13.2624  13.2637  14.8569  14.8850  15.3272  15.4344  15.6326  15.6844
    17.1711  17.3332  17.7586  18.2162  18.7551  19.0471  19.1031  19.6336
    20.6045  21.1689  21.6669  21.6793  21.8027  22.0255  26.7351  26.9257
    28.2934  28.4072  31.8816  31.8961  32.2797  32.4089  35.6811  35.9805
    36.0018

     the Fermi energy is    18.2995 ev

!    total energy              =    -636.85145634 Ry
     Harris-Foulkes estimate   =    -636.85144350 Ry
     estimated scf accuracy    <       0.00000034 Ry

     The total energy is the sum of the following terms:

     one-electron contribution =    -136.64714342 Ry
     hartree contribution      =     109.72417547 Ry
     xc contribution           =    -103.28102126 Ry
     ewald contribution        =    -506.63906179 Ry
     smearing contrib. (-TS)   =      -0.00840533 Ry

     convergence has been achieved in  10 iterations

     Forces acting on atoms (Ry/au):

     negative rho (up, down):  1.646E-01 0.000E+00
     atom    1 type  1   force =     0.00000000    0.00000000    0.00000000
     atom    2 type  1   force =     0.00000000    0.00000000    0.00000000
     atom    3 type  2   force =     0.00000000    0.00000000    0.00000000
     atom    4 type  2   force =     0.00000000    0.00000000    0.00000000

     Total force =     0.000000     Total SCF correction =     0.000000

     General routines

     Parallel routines

   This run was terminated on:  16:56:12  14Nov2017

   JOB DONE.