     Program PWSCF v.5.1rc2 starts on 15Nov2017 at  4:54: 0

     Current dimensions of program PWSCF are:
     Max number of different atomic species (ntypx) = 10
     Max number of k-points (npk) =  40000
     Max angular momentum in pseudopotentials (lmaxx) =  3

     IMPORTANT: XC functional enforced from input :
     Exchange-correlation      = BEEF-VDW ( 1  4 27 13 2)
     Any further DFT definition will be discarded
     Please, verify this is what you really want

     Found symmetry operation: I + ( -0.5000 -0.5000  0.0000)
     This is a supercell, fractional translations are disabled

     bravais-lattice index     =            0
     lattice parameter (alat)  =       1.8897  a.u.
     unit-cell volume          =     381.9162 (a.u.)^3
     number of atoms/cell      =            4
     number of atomic types    =            2
     number of electrons       =        64.00
     number of Kohn-Sham states=           52
     kinetic-energy cutoff     =      58.7989  Ry
     charge density cutoff     =     587.9892  Ry
     convergence threshold     =      1.0E-06
     mixing beta               =       0.1000
     number of iterations used =           10  plain     mixing
     Exchange-correlation      = BEEF-VDW ( 1  4 27 13 2)

     celldm(1)=   1.889726  celldm(2)=   0.000000  celldm(3)=   0.000000
     celldm(4)=   0.000000  celldm(5)=   0.000000  celldm(6)=   0.000000

     crystal axes: (cart. coord. in units of alat)
               a(1) = (   3.836573   0.000000   0.000000 )
               a(2) = (   0.000000   3.836573   0.000000 )
               a(3) = (   0.000000   0.000000   3.844896 )

     reciprocal axes: (cart. coord. in units 2 pi/alat)
               b(1) = (  0.260649  0.000000  0.000000 )
               b(2) = (  0.000000  0.260649  0.000000 )
               b(3) = (  0.000000  0.000000  0.260085 )

     PseudoPot. # 1 for Ru read from file:
     /home/users/vossj/suncat/psp/gbrv1.5pbe/Ru.UPF
     MD5 check sum: 7158a806dd851261a58e6920c40ebe78
     Pseudo is Ultrasoft + core correction, Zval = 16.0
     Generated by new atomic code, or converted to UPF format
     Using radial grid of  967 points,  6 beta functions with:
                l(1) =   0
                l(2) =   0
                l(3) =   1
                l(4) =   1
                l(5) =   2
                l(6) =   2
     Q(r) pseudized with  8 coefficients,  rinner =    1.300   1.300   1.300
                                                       1.300   1.300

     PseudoPot. # 2 for Os read from file:
     /home/users/vossj/suncat/psp/gbrv1.5pbe/Os.UPF
     MD5 check sum: a3fb40a04f0c37c25c34bbc47164c9a8
     Pseudo is Ultrasoft + core correction, Zval = 16.0
     Generated by new atomic code, or converted to UPF format
     Using radial grid of  983 points,  8 beta functions with:
                l(1) =   0
                l(2) =   0
                l(3) =   1
                l(4) =   1
                l(5) =   2
                l(6) =   2
                l(7) =   3
                l(8) =   3
     Q(r) pseudized with  8 coefficients,  rinner =    1.150   1.150   1.150
                                                       1.150   1.150   1.150
                                                       1.150

     vdW kernel table read from file vdW_kernel_table
     MD5 check sum: 095c7af220d748ca6e76c0b4c6cfb241

     atomic species   valence    mass     pseudopotential
        Ru1           16.00   101.07000     Ru( 1.00)
        Os1           16.00   190.20000     Os( 1.00)

     16 Sym. Ops., with inversion, found

   Cartesian axes

     site n.     atom                  positions (alat units)
         1           Ru1 tau(   1) = (   0.0000000   0.0000000   0.0000000  )
         2           Ru1 tau(   2) = (   1.9182864   1.9182864   0.0000000  )
         3           Os1 tau(   3) = (   1.9182864   0.0000000   1.9224478  )
         4           Os1 tau(   4) = (   0.0000000   1.9182864   1.9224478  )

     number of k points=    75  Fermi-Dirac smearing, width (Ry)=  0.0073
                       cart. coord. in units 2pi/alat
        k(    1) = (   0.0000000   0.0000000   0.0000000), wk =   0.0027435
        k(    2) = (   0.0000000   0.0000000   0.0288983), wk =   0.0054870
        k(    3) = (   0.0000000   0.0000000   0.0577967), wk =   0.0054870
        k(    4) = (   0.0000000   0.0000000   0.0866950), wk =   0.0054870
        k(    5) = (   0.0000000   0.0000000   0.1155934), wk =   0.0054870
        k(    6) = (   0.0000000   0.0289610   0.0000000), wk =   0.0109739
        k(    7) = (   0.0000000   0.0289610   0.0288983), wk =   0.0219479
        k(    8) = (   0.0000000   0.0289610   0.0577967), wk =   0.0219479
        k(    9) = (   0.0000000   0.0289610   0.0866950), wk =   0.0219479
        k(   10) = (   0.0000000   0.0289610   0.1155934), wk =   0.0219479
        k(   11) = (   0.0000000   0.0579221   0.0000000), wk =   0.0109739
        k(   12) = (   0.0000000   0.0579221   0.0288983), wk =   0.0219479
        k(   13) = (   0.0000000   0.0579221   0.0577967), wk =   0.0219479
        k(   14) = (   0.0000000   0.0579221   0.0866950), wk =   0.0219479
        k(   15) = (   0.0000000   0.0579221   0.1155934), wk =   0.0219479
        k(   16) = (   0.0000000   0.0868831   0.0000000), wk =   0.0109739
        k(   17) = (   0.0000000   0.0868831   0.0288983), wk =   0.0219479
        k(   18) = (   0.0000000   0.0868831   0.0577967), wk =   0.0219479
        k(   19) = (   0.0000000   0.0868831   0.0866950), wk =   0.0219479
        k(   20) = (   0.0000000   0.0868831   0.1155934), wk =   0.0219479
        k(   21) = (   0.0000000   0.1158441   0.0000000), wk =   0.0109739
        k(   22) = (   0.0000000   0.1158441   0.0288983), wk =   0.0219479
        k(   23) = (   0.0000000   0.1158441   0.0577967), wk =   0.0219479
        k(   24) = (   0.0000000   0.1158441   0.0866950), wk =   0.0219479
        k(   25) = (   0.0000000   0.1158441   0.1155934), wk =   0.0219479
        k(   26) = (   0.0289610   0.0289610   0.0000000), wk =   0.0109739
        k(   27) = (   0.0289610   0.0289610   0.0288983), wk =   0.0219479
        k(   28) = (   0.0289610   0.0289610   0.0577967), wk =   0.0219479
        k(   29) = (   0.0289610   0.0289610   0.0866950), wk =   0.0219479
        k(   30) = (   0.0289610   0.0289610   0.1155934), wk =   0.0219479
        k(   31) = (   0.0289610   0.0579221   0.0000000), wk =   0.0219479
        k(   32) = (   0.0289610   0.0579221   0.0288983), wk =   0.0438957
        k(   33) = (   0.0289610   0.0579221   0.0577967), wk =   0.0438957
        k(   34) = (   0.0289610   0.0579221   0.0866950), wk =   0.0438957
        k(   35) = (   0.0289610   0.0579221   0.1155934), wk =   0.0438957
        k(   36) = (   0.0289610   0.0868831   0.0000000), wk =   0.0219479
        k(   37) = (   0.0289610   0.0868831   0.0288983), wk =   0.0438957
        k(   38) = (   0.0289610   0.0868831   0.0577967), wk =   0.0438957
        k(   39) = (   0.0289610   0.0868831   0.0866950), wk =   0.0438957
        k(   40) = (   0.0289610   0.0868831   0.1155934), wk =   0.0438957
        k(   41) = (   0.0289610   0.1158441   0.0000000), wk =   0.0219479
        k(   42) = (   0.0289610   0.1158441   0.0288983), wk =   0.0438957
        k(   43) = (   0.0289610   0.1158441   0.0577967), wk =   0.0438957
        k(   44) = (   0.0289610   0.1158441   0.0866950), wk =   0.0438957
        k(   45) = (   0.0289610   0.1158441   0.1155934), wk =   0.0438957
        k(   46) = (   0.0579221   0.0579221   0.0000000), wk =   0.0109739
        k(   47) = (   0.0579221   0.0579221   0.0288983), wk =   0.0219479
        k(   48) = (   0.0579221   0.0579221   0.0577967), wk =   0.0219479
        k(   49) = (   0.0579221   0.0579221   0.0866950), wk =   0.0219479
        k(   50) = (   0.0579221   0.0579221   0.1155934), wk =   0.0219479
        k(   51) = (   0.0579221   0.0868831   0.0000000), wk =   0.0219479
        k(   52) = (   0.0579221   0.0868831   0.0288983), wk =   0.0438957
        k(   53) = (   0.0579221   0.0868831   0.0577967), wk =   0.0438957
        k(   54) = (   0.0579221   0.0868831   0.0866950), wk =   0.0438957
        k(   55) = (   0.0579221   0.0868831   0.1155934), wk =   0.0438957
        k(   56) = (   0.0579221   0.1158441   0.0000000), wk =   0.0219479
        k(   57) = (   0.0579221   0.1158441   0.0288983), wk =   0.0438957
        k(   58) = (   0.0579221   0.1158441   0.0577967), wk =   0.0438957
        k(   59) = (   0.0579221   0.1158441   0.0866950), wk =   0.0438957
        k(   60) = (   0.0579221   0.1158441   0.1155934), wk =   0.0438957
        k(   61) = (   0.0868831   0.0868831   0.0000000), wk =   0.0109739
        k(   62) = (   0.0868831   0.0868831   0.0288983), wk =   0.0219479
        k(   63) = (   0.0868831   0.0868831   0.0577967), wk =   0.0219479
        k(   64) = (   0.0868831   0.0868831   0.0866950), wk =   0.0219479
        k(   65) = (   0.0868831   0.0868831   0.1155934), wk =   0.0219479
        k(   66) = (   0.0868831   0.1158441   0.0000000), wk =   0.0219479
        k(   67) = (   0.0868831   0.1158441   0.0288983), wk =   0.0438957
        k(   68) = (   0.0868831   0.1158441   0.0577967), wk =   0.0438957
        k(   69) = (   0.0868831   0.1158441   0.0866950), wk =   0.0438957
        k(   70) = (   0.0868831   0.1158441   0.1155934), wk =   0.0438957
        k(   71) = (   0.1158441   0.1158441   0.0000000), wk =   0.0109739
        k(   72) = (   0.1158441   0.1158441   0.0288983), wk =   0.0219479
        k(   73) = (   0.1158441   0.1158441   0.0577967), wk =   0.0219479
        k(   74) = (   0.1158441   0.1158441   0.0866950), wk =   0.0219479
        k(   75) = (   0.1158441   0.1158441   0.1155934), wk =   0.0219479

     Largest allocated arrays     est. size (Mb)     dimensions
     Largest temporary arrays     est. size (Mb)     dimensions

     Initial potential from superposition of free atoms
     Check: negative starting charge=   -0.395955

     starting charge   60.99990, renormalised to   64.00000

     negative rho (up, down):  4.154E-01 0.000E+00

     *
     * You are using vdW-DF for exchange-correlation in this calculation.
     * Please cite the following three references that made this development
     * possible:
     *
     *   M. Dion, H. Rydberg, E. Schroder, D. C. Langreth, and
     *   B. I. Lundqvist, Phys. Rev. Lett. 92, 246401 (2004).
     *
     *   T. Thonhauser, V. R. Cooper, S. Li, A. Puzder, P. Hyldgaard, and
     *   D. C. Langreth, Phys. Rev. B 76, 125112 (2007).
     *
     *   G. Roman-Perez and J. M. Soler, Phys. Rev. Lett. 103, 096102 (2009).
     *
     *
     * If you are using vdW-DF2, please also cite:
     *
     *   K. Lee, E. D. Murray, L. Kong, B. I. Lundqvist, and
     *   D. C. Langreth, Phys. Rev. B 82, 081101(R) (2010).
     *
     *
     * If you are calculating the stress with vdW-DF, please also cite:
     *
     *   R. Sabatini, E. Kucukbenli, B. Kolb, T. Thonhauser, and
     *   S. de Gironcoli, J. Phys.: Condens. Matter 24, 424209 (2012).
     *

     Carrying out vdW-DF run using the following parameters:

     Nqs =      20    Nr_points =    1024   r_max =   100.000
     q_mesh =
               0.00001000     0.04494208     0.09755937     0.15916263
               0.23128650     0.31572767     0.41458969     0.53033537
               0.66584808     0.82450364     1.01025438     1.22772762
               1.48234092     1.78043706     2.12944203     2.53805004
               3.01644009     3.57652955     4.23227104     5.00000000

     Gradients computed in reciprocal space

     Starting wfc are   52 randomized atomic wfcs

     Self-consistent Calculation

     iteration #  1     ecut=    58.80 Ry     beta=0.10
     Davidson diagonalization with overlap
     ethr =  1.00E-02,  avg # of iterations =  4.5

[...]

     total energy              =    -790.35258611 Ry
     Harris-Foulkes estimate   =    -790.67437327 Ry
     estimated scf accuracy    <       2.14101689 Ry

[...]

     total energy              =    -789.94826670 Ry
     Harris-Foulkes estimate   =    -789.94826620 Ry
     estimated scf accuracy    <       0.00000123 Ry

     iteration # 12     ecut=    58.80 Ry     beta=0.10
     Davidson diagonalization with overlap
     ethr =  1.92E-09,  avg # of iterations =  1.0

     negative rho (up, down):  4.040E-01 0.000E+00

     End of self-consistent calculation

          k = 0.0000 0.0000 0.0000 (  2945 PWs)   bands (ev):

   -62.8978 -62.8357 -49.2948 -49.1952 -22.3978 -22.3978 -22.2265 -22.0541
   -21.9074 -21.9074 -19.3779 -19.3779 -19.2000 -19.1699 -18.9599 -18.9599
    14.6744  17.0844  17.2862  17.3191  17.7516  17.7845  17.7845  21.2240
    21.2422  21.2422  23.7812  23.7871  25.4878  25.8363  25.8829  26.0516
    26.3681  26.3681  26.4212  26.4212  26.8502  26.8923  26.8923  27.0805
    35.4253  36.4118  36.5391  36.5391  36.5532  36.5532  36.5980  36.7448
    38.0903  38.1260  43.6389  43.7129

[...]

          k = 0.1158 0.1158 0.1156 (  2930 PWs)   bands (ev):

   -62.8672 -62.8653 -49.2460 -49.2430 -22.4743 -22.4606 -22.1662 -22.1632
   -21.8677 -21.8528 -19.4057 -19.3933 -19.1836 -19.1807 -18.9425 -18.9290
    17.0473  17.1203  17.6666  17.6875  20.9421  20.9591  20.9875  21.1269
    21.1443  21.1829  21.2285  21.2394  23.5741  23.6374  23.8567  23.9485
    25.5634  25.6021  25.6133  25.9309  26.0964  26.2427  26.5186  26.6515
    32.1237  32.3865  34.3089  34.5710  37.9539  37.9601  38.0379  38.0857
    43.6493  43.8096  43.8617  43.9170

     the Fermi energy is    23.8557 ev

!    total energy              =    -789.94826839 Ry
     Harris-Foulkes estimate   =    -789.94826672 Ry
     estimated scf accuracy    <       0.00000080 Ry

     The total energy is the sum of the following terms:

     one-electron contribution =    -115.83106318 Ry
     hartree contribution      =     104.34247922 Ry
     xc contribution           =    -131.35208807 Ry
     ewald contribution        =    -647.09818578 Ry
     smearing contrib. (-TS)   =      -0.00941058 Ry

     convergence has been achieved in  12 iterations

     Forces acting on atoms (Ry/au):

     negative rho (up, down):  4.040E-01 0.000E+00
     atom    1 type  1   force =     0.00000000    0.00000000    0.00000000
     atom    2 type  1   force =     0.00000000    0.00000000    0.00000000
     atom    3 type  2   force =     0.00000000    0.00000000    0.00000000
     atom    4 type  2   force =     0.00000000    0.00000000    0.00000000

     Total force =     0.000000     Total SCF correction =     0.000000

     General routines

     Parallel routines

   This run was terminated on:   4:54:44  15Nov2017

   JOB DONE.