     Program PWSCF v.5.1rc2 starts on 15Nov2017 at  4: 2:58

     Current dimensions of program PWSCF are:
     Max number of different atomic species (ntypx) = 10
     Max number of k-points (npk) =  40000
     Max angular momentum in pseudopotentials (lmaxx) =  3

     IMPORTANT: XC functional enforced from input :
     Exchange-correlation      = BEEF-VDW ( 1  4 27 13 2)
     Any further DFT definition will be discarded
     Please, verify this is what you really want

     Found symmetry operation: I + ( -0.5000 -0.5000  0.0000)
     This is a supercell, fractional translations are disabled

     bravais-lattice index     =            0
     lattice parameter (alat)  =       1.8897  a.u.
     unit-cell volume          =     622.0138 (a.u.)^3
     number of atoms/cell      =            4
     number of atomic types    =            2
     number of electrons       =        50.00
     number of Kohn-Sham states=           45
     kinetic-energy cutoff     =      58.7989  Ry
     charge density cutoff     =     587.9892  Ry
     convergence threshold     =      1.0E-06
     mixing beta               =       0.1000
     number of iterations used =           10  plain     mixing
     Exchange-correlation      = BEEF-VDW ( 1  4 27 13 2)

     celldm(1)=   1.889726  celldm(2)=   0.000000  celldm(3)=   0.000000
     celldm(4)=   0.000000  celldm(5)=   0.000000  celldm(6)=   0.000000

     crystal axes: (cart. coord. in units of alat)
               a(1) = (   4.640338   0.000000   0.000000 )
               a(2) = (   0.000000   4.640338   0.000000 )
               a(3) = (   0.000000   0.000000   4.280596 )

     reciprocal axes: (cart. coord. in units 2 pi/alat)
               b(1) = (  0.215502  0.000000  0.000000 )
               b(2) = (  0.000000  0.215502  0.000000 )
               b(3) = (  0.000000  0.000000  0.233612 )

     PseudoPot. # 1 for Sc read from file:
     /home/users/vossj/suncat/psp/gbrv1.5pbe/Sc.UPF
     MD5 check sum: db30a2753ba66ef00f23801d899b7e7f
     Pseudo is Ultrasoft + core correction, Zval = 11.0
     Generated by new atomic code, or converted to UPF format
     Using radial grid of  849 points,  6 beta functions with:
                l(1) =   0
                l(2) =   0
                l(3) =   1
                l(4) =   1
                l(5) =   2
                l(6) =   2
     Q(r) pseudized with  6 coefficients,  rinner =    1.200   1.200   1.200
                                                       1.200   1.200

     PseudoPot. # 2 for Sn read from file:
     /home/users/vossj/suncat/psp/gbrv1.5pbe/Sn.UPF
     MD5 check sum: 469debedee59599fedebd795477fea03
     Pseudo is Ultrasoft + core correction, Zval = 14.0
     Generated by new atomic code, or converted to UPF format
     Using radial grid of  891 points,  6 beta functions with:
                l(1) =   0
                l(2) =   0
                l(3) =   1
                l(4) =   1
                l(5) =   2
                l(6) =   2
     Q(r) pseudized with  8 coefficients,  rinner =    1.350   1.350   1.350
                                                       1.350   1.350

     vdW kernel table read from file vdW_kernel_table
     MD5 check sum: 095c7af220d748ca6e76c0b4c6cfb241

     atomic species   valence    mass     pseudopotential
        Sc1           11.00    44.95590     Sc( 1.00)
        Sn1           14.00   118.71000     Sn( 1.00)

     16 Sym. Ops., with inversion, found

   Cartesian axes

     site n.     atom                  positions (alat units)
         1           Sc1 tau(   1) = (   0.0000000   0.0000000   0.0000000  )
         2           Sc1 tau(   2) = (   2.3201689   2.3201689   0.0000000  )
         3           Sn1 tau(   3) = (   2.3201689   0.0000000   2.1402979  )
         4           Sn1 tau(   4) = (   0.0000000   2.3201689   2.1402979  )

     number of k points=    75  Fermi-Dirac smearing, width (Ry)=  0.0073
                       cart. coord. in units 2pi/alat
        k(    1) = (   0.0000000   0.0000000   0.0000000), wk =   0.0027435
        k(    2) = (   0.0000000   0.0000000   0.0259569), wk =   0.0054870
        k(    3) = (   0.0000000   0.0000000   0.0519139), wk =   0.0054870
        k(    4) = (   0.0000000   0.0000000   0.0778708), wk =   0.0054870
        k(    5) = (   0.0000000   0.0000000   0.1038277), wk =   0.0054870
        k(    6) = (   0.0000000   0.0239446   0.0000000), wk =   0.0109739
        k(    7) = (   0.0000000   0.0239446   0.0259569), wk =   0.0219479
        k(    8) = (   0.0000000   0.0239446   0.0519139), wk =   0.0219479
        k(    9) = (   0.0000000   0.0239446   0.0778708), wk =   0.0219479
        k(   10) = (   0.0000000   0.0239446   0.1038277), wk =   0.0219479
        k(   11) = (   0.0000000   0.0478892   0.0000000), wk =   0.0109739
        k(   12) = (   0.0000000   0.0478892   0.0259569), wk =   0.0219479
        k(   13) = (   0.0000000   0.0478892   0.0519139), wk =   0.0219479
        k(   14) = (   0.0000000   0.0478892   0.0778708), wk =   0.0219479
        k(   15) = (   0.0000000   0.0478892   0.1038277), wk =   0.0219479
        k(   16) = (   0.0000000   0.0718339   0.0000000), wk =   0.0109739
        k(   17) = (   0.0000000   0.0718339   0.0259569), wk =   0.0219479
        k(   18) = (   0.0000000   0.0718339   0.0519139), wk =   0.0219479
        k(   19) = (   0.0000000   0.0718339   0.0778708), wk =   0.0219479
        k(   20) = (   0.0000000   0.0718339   0.1038277), wk =   0.0219479
        k(   21) = (   0.0000000   0.0957785   0.0000000), wk =   0.0109739
        k(   22) = (   0.0000000   0.0957785   0.0259569), wk =   0.0219479
        k(   23) = (   0.0000000   0.0957785   0.0519139), wk =   0.0219479
        k(   24) = (   0.0000000   0.0957785   0.0778708), wk =   0.0219479
        k(   25) = (   0.0000000   0.0957785   0.1038277), wk =   0.0219479
        k(   26) = (   0.0239446   0.0239446   0.0000000), wk =   0.0109739
        k(   27) = (   0.0239446   0.0239446   0.0259569), wk =   0.0219479
        k(   28) = (   0.0239446   0.0239446   0.0519139), wk =   0.0219479
        k(   29) = (   0.0239446   0.0239446   0.0778708), wk =   0.0219479
        k(   30) = (   0.0239446   0.0239446   0.1038277), wk =   0.0219479
        k(   31) = (   0.0239446   0.0478892   0.0000000), wk =   0.0219479
        k(   32) = (   0.0239446   0.0478892   0.0259569), wk =   0.0438957
        k(   33) = (   0.0239446   0.0478892   0.0519139), wk =   0.0438957
        k(   34) = (   0.0239446   0.0478892   0.0778708), wk =   0.0438957
        k(   35) = (   0.0239446   0.0478892   0.1038277), wk =   0.0438957
        k(   36) = (   0.0239446   0.0718339   0.0000000), wk =   0.0219479
        k(   37) = (   0.0239446   0.0718339   0.0259569), wk =   0.0438957
        k(   38) = (   0.0239446   0.0718339   0.0519139), wk =   0.0438957
        k(   39) = (   0.0239446   0.0718339   0.0778708), wk =   0.0438957
        k(   40) = (   0.0239446   0.0718339   0.1038277), wk =   0.0438957
        k(   41) = (   0.0239446   0.0957785   0.0000000), wk =   0.0219479
        k(   42) = (   0.0239446   0.0957785   0.0259569), wk =   0.0438957
        k(   43) = (   0.0239446   0.0957785   0.0519139), wk =   0.0438957
        k(   44) = (   0.0239446   0.0957785   0.0778708), wk =   0.0438957
        k(   45) = (   0.0239446   0.0957785   0.1038277), wk =   0.0438957
        k(   46) = (   0.0478892   0.0478892   0.0000000), wk =   0.0109739
        k(   47) = (   0.0478892   0.0478892   0.0259569), wk =   0.0219479
        k(   48) = (   0.0478892   0.0478892   0.0519139), wk =   0.0219479
        k(   49) = (   0.0478892   0.0478892   0.0778708), wk =   0.0219479
        k(   50) = (   0.0478892   0.0478892   0.1038277), wk =   0.0219479
        k(   51) = (   0.0478892   0.0718339   0.0000000), wk =   0.0219479
        k(   52) = (   0.0478892   0.0718339   0.0259569), wk =   0.0438957
        k(   53) = (   0.0478892   0.0718339   0.0519139), wk =   0.0438957
        k(   54) = (   0.0478892   0.0718339   0.0778708), wk =   0.0438957
        k(   55) = (   0.0478892   0.0718339   0.1038277), wk =   0.0438957
        k(   56) = (   0.0478892   0.0957785   0.0000000), wk =   0.0219479
        k(   57) = (   0.0478892   0.0957785   0.0259569), wk =   0.0438957
        k(   58) = (   0.0478892   0.0957785   0.0519139), wk =   0.0438957
        k(   59) = (   0.0478892   0.0957785   0.0778708), wk =   0.0438957
        k(   60) = (   0.0478892   0.0957785   0.1038277), wk =   0.0438957
        k(   61) = (   0.0718339   0.0718339   0.0000000), wk =   0.0109739
        k(   62) = (   0.0718339   0.0718339   0.0259569), wk =   0.0219479
        k(   63) = (   0.0718339   0.0718339   0.0519139), wk =   0.0219479
        k(   64) = (   0.0718339   0.0718339   0.0778708), wk =   0.0219479
        k(   65) = (   0.0718339   0.0718339   0.1038277), wk =   0.0219479
        k(   66) = (   0.0718339   0.0957785   0.0000000), wk =   0.0219479
        k(   67) = (   0.0718339   0.0957785   0.0259569), wk =   0.0438957
        k(   68) = (   0.0718339   0.0957785   0.0519139), wk =   0.0438957
        k(   69) = (   0.0718339   0.0957785   0.0778708), wk =   0.0438957
        k(   70) = (   0.0718339   0.0957785   0.1038277), wk =   0.0438957
        k(   71) = (   0.0957785   0.0957785   0.0000000), wk =   0.0109739
        k(   72) = (   0.0957785   0.0957785   0.0259569), wk =   0.0219479
        k(   73) = (   0.0957785   0.0957785   0.0519139), wk =   0.0219479
        k(   74) = (   0.0957785   0.0957785   0.0778708), wk =   0.0219479
        k(   75) = (   0.0957785   0.0957785   0.1038277), wk =   0.0219479

     Largest allocated arrays     est. size (Mb)     dimensions
     Largest temporary arrays     est. size (Mb)     dimensions

     Initial potential from superposition of free atoms

     starting charge   47.99510, renormalised to   50.00000

     *
     * You are using vdW-DF for exchange-correlation in this calculation.
     * Please cite the following three references that made this development
     * possible:
     *
     *   M. Dion, H. Rydberg, E. Schroder, D. C. Langreth, and
     *   B. I. Lundqvist, Phys. Rev. Lett. 92, 246401 (2004).
     *
     *   T. Thonhauser, V. R. Cooper, S. Li, A. Puzder, P. Hyldgaard, and
     *   D. C. Langreth, Phys. Rev. B 76, 125112 (2007).
     *
     *   G. Roman-Perez and J. M. Soler, Phys. Rev. Lett. 103, 096102 (2009).
     *
     *
     * If you are using vdW-DF2, please also cite:
     *
     *   K. Lee, E. D. Murray, L. Kong, B. I. Lundqvist, and
     *   D. C. Langreth, Phys. Rev. B 82, 081101(R) (2010).
     *
     *
     * If you are calculating the stress with vdW-DF, please also cite:
     *
     *   R. Sabatini, E. Kucukbenli, B. Kolb, T. Thonhauser, and
     *   S. de Gironcoli, J. Phys.: Condens. Matter 24, 424209 (2012).
     *

     Carrying out vdW-DF run using the following parameters:

     Nqs =      20    Nr_points =    1024   r_max =   100.000
     q_mesh =
               0.00001000     0.04494208     0.09755937     0.15916263
               0.23128650     0.31572767     0.41458969     0.53033537
               0.66584808     0.82450364     1.01025438     1.22772762
               1.48234092     1.78043706     2.12944203     2.53805004
               3.01644009     3.57652955     4.23227104     5.00000000

     Gradients computed in reciprocal space

     Starting wfc are   44 randomized atomic wfcs +    1 random wfc

     Self-consistent Calculation

     iteration #  1     ecut=    58.80 Ry     beta=0.10
     Davidson diagonalization with overlap
     ethr =  1.00E-02,  avg # of iterations =  4.6

     total energy              =    -511.51975350 Ry
     Harris-Foulkes estimate   =    -511.68313467 Ry
     estimated scf accuracy    <       1.02793064 Ry

[...]

     total energy              =    -511.25141821 Ry
     Harris-Foulkes estimate   =    -511.25140158 Ry
     estimated scf accuracy    <       0.00000262 Ry

     iteration # 11     ecut=    58.80 Ry     beta=0.10
     Davidson diagonalization with overlap
     ethr =  5.25E-09,  avg # of iterations =  1.9

     End of self-consistent calculation

          k = 0.0000 0.0000 0.0000 (  4727 PWs)   bands (ev):

   -38.3268 -38.2902 -16.9919 -16.9741 -16.9741 -16.9466 -16.7976 -16.7976
   -10.1486 -10.0971  -9.9937  -9.9937  -9.9789  -9.9678  -9.9336  -9.9336
    -9.8769  -9.8709   1.6129   6.3005   9.2751   9.2751  10.5877  10.6414
    11.4133  11.5903  12.2637  12.2637  13.5491  13.8277  13.8277  14.5758
    14.7041  15.2134  15.5559  15.5559  16.3997  17.0151  19.0656  19.0656
    20.5269  21.1242  21.3152  22.2603  23.1556

[...]

          k = 0.0958 0.0958 0.1038 (  4747 PWs)   bands (ev):

   -38.3083 -38.3072 -16.9982 -16.9930 -16.9827 -16.9813 -16.7851 -16.7797
   -10.0577 -10.0504 -10.0255 -10.0218 -10.0035 -10.0018  -9.9321  -9.9304
    -9.8728  -9.8685   4.4064   4.5710   7.8647   8.0342   9.0684   9.2638
    10.9440  11.0377  13.4570  13.4735  13.6186  13.6304  13.7519  13.8047
    14.4081  14.5130  16.1258  16.1656  17.9100  18.2547  21.6652  21.7666
    22.4142  22.7234  22.9053  22.9470  24.0358

     the Fermi energy is    11.7105 ev

!    total energy              =    -511.25149328 Ry
     Harris-Foulkes estimate   =    -511.25141854 Ry
     estimated scf accuracy    <       0.00000077 Ry

     The total energy is the sum of the following terms:

     one-electron contribution =    -167.71050978 Ry
     hartree contribution      =     111.74104049 Ry
     xc contribution           =    -117.08361773 Ry
     ewald contribution        =    -338.18809413 Ry
     smearing contrib. (-TS)   =      -0.01031212 Ry

     convergence has been achieved in  11 iterations

     Forces acting on atoms (Ry/au):

     atom    1 type  1   force =     0.00000000    0.00000000    0.00000000
     atom    2 type  1   force =     0.00000000    0.00000000    0.00000000
     atom    3 type  2   force =     0.00000000    0.00000000    0.00000000
     atom    4 type  2   force =     0.00000000    0.00000000    0.00000000

     Total force =     0.000000     Total SCF correction =     0.000000

     General routines

     Parallel routines

   This run was terminated on:   4: 3:42  15Nov2017

   JOB DONE.