     Program PWSCF v.5.1rc2 starts on 15Nov2017 at  5:33: 3

     Current dimensions of program PWSCF are:
     Max number of different atomic species (ntypx) = 10
     Max number of k-points (npk) =  40000
     Max angular momentum in pseudopotentials (lmaxx) =  3

     IMPORTANT: XC functional enforced from input :
     Exchange-correlation      = BEEF-VDW ( 1  4 27 13 2)
     Any further DFT definition will be discarded
     Please, verify this is what you really want

     Found symmetry operation: I + ( -0.5000 -0.5000  0.0000)
     This is a supercell, fractional translations are disabled

     bravais-lattice index     =            0
     lattice parameter (alat)  =       1.8897  a.u.
     unit-cell volume          =     485.6685 (a.u.)^3
     number of atoms/cell      =            4
     number of atomic types    =            2
     number of electrons       =        58.00
     number of Kohn-Sham states=           49
     kinetic-energy cutoff     =      58.7989  Ry
     charge density cutoff     =     587.9892  Ry
     convergence threshold     =      1.0E-06
     mixing beta               =       0.1000
     number of iterations used =           10  plain     mixing
     Exchange-correlation      = BEEF-VDW ( 1  4 27 13 2)

     celldm(1)=   1.889726  celldm(2)=   0.000000  celldm(3)=   0.000000
     celldm(4)=   0.000000  celldm(5)=   0.000000  celldm(6)=   0.000000

     crystal axes: (cart. coord. in units of alat)
               a(1) = (   4.408966   0.000000   0.000000 )
               a(2) = (   0.000000   4.408966   0.000000 )
               a(3) = (   0.000000   0.000000   3.702285 )

     reciprocal axes: (cart. coord. in units 2 pi/alat)
               b(1) = (  0.226811  0.000000  0.000000 )
               b(2) = (  0.000000  0.226811  0.000000 )
               b(3) = (  0.000000  0.000000  0.270103 )

     PseudoPot. # 1 for Sn read from file:
     /home/users/vossj/suncat/psp/gbrv1.5pbe/Sn.UPF
     MD5 check sum: 469debedee59599fedebd795477fea03
     Pseudo is Ultrasoft + core correction, Zval = 14.0
     Generated by new atomic code, or converted to UPF format
     Using radial grid of  891 points,  6 beta functions with:
                l(1) =   0
                l(2) =   0
                l(3) =   1
                l(4) =   1
                l(5) =   2
                l(6) =   2
     Q(r) pseudized with  8 coefficients,  rinner =    1.350   1.350   1.350
                                                       1.350   1.350

     PseudoPot. # 2 for Ir read from file:
     /home/users/vossj/suncat/psp/gbrv1.5pbe/Ir.UPF
     MD5 check sum: 8836f839c3459d2b385c504ce6d91f2c
     Pseudo is Ultrasoft + core correction, Zval = 15.0
     Generated by new atomic code, or converted to UPF format
     Using radial grid of  983 points,  7 beta functions with:
                l(1) =   0
                l(2) =   0
                l(3) =   1
                l(4) =   1
                l(5) =   1
                l(6) =   2
                l(7) =   2
     Q(r) pseudized with  8 coefficients,  rinner =    1.400   1.400   1.400
                                                       1.400   1.400

     vdW kernel table read from file vdW_kernel_table
     MD5 check sum: 095c7af220d748ca6e76c0b4c6cfb241

     atomic species   valence    mass     pseudopotential
        Sn1           14.00   118.71000     Sn( 1.00)
        Ir1           15.00   192.22000     Ir( 1.00)

     16 Sym. Ops., with inversion, found

   Cartesian axes

     site n.     atom                  positions (alat units)
         1           Sn1 tau(   1) = (   0.0000000   0.0000000   0.0000000  )
         2           Sn1 tau(   2) = (   2.2044829   2.2044829   0.0000000  )
         3           Ir1 tau(   3) = (   2.2044829   0.0000000   1.8511426  )
         4           Ir1 tau(   4) = (   0.0000000   2.2044829   1.8511426  )

     number of k points=    75  Fermi-Dirac smearing, width (Ry)=  0.0073
                       cart. coord. in units 2pi/alat
        k(    1) = (   0.0000000   0.0000000   0.0000000), wk =   0.0027435
        k(    2) = (   0.0000000   0.0000000   0.0300115), wk =   0.0054870
        k(    3) = (   0.0000000   0.0000000   0.0600230), wk =   0.0054870
        k(    4) = (   0.0000000   0.0000000   0.0900345), wk =   0.0054870
        k(    5) = (   0.0000000   0.0000000   0.1200460), wk =   0.0054870
        k(    6) = (   0.0000000   0.0252012   0.0000000), wk =   0.0109739
        k(    7) = (   0.0000000   0.0252012   0.0300115), wk =   0.0219479
        k(    8) = (   0.0000000   0.0252012   0.0600230), wk =   0.0219479
        k(    9) = (   0.0000000   0.0252012   0.0900345), wk =   0.0219479
        k(   10) = (   0.0000000   0.0252012   0.1200460), wk =   0.0219479
        k(   11) = (   0.0000000   0.0504023   0.0000000), wk =   0.0109739
        k(   12) = (   0.0000000   0.0504023   0.0300115), wk =   0.0219479
        k(   13) = (   0.0000000   0.0504023   0.0600230), wk =   0.0219479
        k(   14) = (   0.0000000   0.0504023   0.0900345), wk =   0.0219479
        k(   15) = (   0.0000000   0.0504023   0.1200460), wk =   0.0219479
        k(   16) = (   0.0000000   0.0756035   0.0000000), wk =   0.0109739
        k(   17) = (   0.0000000   0.0756035   0.0300115), wk =   0.0219479
        k(   18) = (   0.0000000   0.0756035   0.0600230), wk =   0.0219479
        k(   19) = (   0.0000000   0.0756035   0.0900345), wk =   0.0219479
        k(   20) = (   0.0000000   0.0756035   0.1200460), wk =   0.0219479
        k(   21) = (   0.0000000   0.1008047   0.0000000), wk =   0.0109739
        k(   22) = (   0.0000000   0.1008047   0.0300115), wk =   0.0219479
        k(   23) = (   0.0000000   0.1008047   0.0600230), wk =   0.0219479
        k(   24) = (   0.0000000   0.1008047   0.0900345), wk =   0.0219479
        k(   25) = (   0.0000000   0.1008047   0.1200460), wk =   0.0219479
        k(   26) = (   0.0252012   0.0252012   0.0000000), wk =   0.0109739
        k(   27) = (   0.0252012   0.0252012   0.0300115), wk =   0.0219479
        k(   28) = (   0.0252012   0.0252012   0.0600230), wk =   0.0219479
        k(   29) = (   0.0252012   0.0252012   0.0900345), wk =   0.0219479
        k(   30) = (   0.0252012   0.0252012   0.1200460), wk =   0.0219479
        k(   31) = (   0.0252012   0.0504023   0.0000000), wk =   0.0219479
        k(   32) = (   0.0252012   0.0504023   0.0300115), wk =   0.0438957
        k(   33) = (   0.0252012   0.0504023   0.0600230), wk =   0.0438957
        k(   34) = (   0.0252012   0.0504023   0.0900345), wk =   0.0438957
        k(   35) = (   0.0252012   0.0504023   0.1200460), wk =   0.0438957
        k(   36) = (   0.0252012   0.0756035   0.0000000), wk =   0.0219479
        k(   37) = (   0.0252012   0.0756035   0.0300115), wk =   0.0438957
        k(   38) = (   0.0252012   0.0756035   0.0600230), wk =   0.0438957
        k(   39) = (   0.0252012   0.0756035   0.0900345), wk =   0.0438957
        k(   40) = (   0.0252012   0.0756035   0.1200460), wk =   0.0438957
        k(   41) = (   0.0252012   0.1008047   0.0000000), wk =   0.0219479
        k(   42) = (   0.0252012   0.1008047   0.0300115), wk =   0.0438957
        k(   43) = (   0.0252012   0.1008047   0.0600230), wk =   0.0438957
        k(   44) = (   0.0252012   0.1008047   0.0900345), wk =   0.0438957
        k(   45) = (   0.0252012   0.1008047   0.1200460), wk =   0.0438957
        k(   46) = (   0.0504023   0.0504023   0.0000000), wk =   0.0109739
        k(   47) = (   0.0504023   0.0504023   0.0300115), wk =   0.0219479
        k(   48) = (   0.0504023   0.0504023   0.0600230), wk =   0.0219479
        k(   49) = (   0.0504023   0.0504023   0.0900345), wk =   0.0219479
        k(   50) = (   0.0504023   0.0504023   0.1200460), wk =   0.0219479
        k(   51) = (   0.0504023   0.0756035   0.0000000), wk =   0.0219479
        k(   52) = (   0.0504023   0.0756035   0.0300115), wk =   0.0438957
        k(   53) = (   0.0504023   0.0756035   0.0600230), wk =   0.0438957
        k(   54) = (   0.0504023   0.0756035   0.0900345), wk =   0.0438957
        k(   55) = (   0.0504023   0.0756035   0.1200460), wk =   0.0438957
        k(   56) = (   0.0504023   0.1008047   0.0000000), wk =   0.0219479
        k(   57) = (   0.0504023   0.1008047   0.0300115), wk =   0.0438957
        k(   58) = (   0.0504023   0.1008047   0.0600230), wk =   0.0438957
        k(   59) = (   0.0504023   0.1008047   0.0900345), wk =   0.0438957
        k(   60) = (   0.0504023   0.1008047   0.1200460), wk =   0.0438957
        k(   61) = (   0.0756035   0.0756035   0.0000000), wk =   0.0109739
        k(   62) = (   0.0756035   0.0756035   0.0300115), wk =   0.0219479
        k(   63) = (   0.0756035   0.0756035   0.0600230), wk =   0.0219479
        k(   64) = (   0.0756035   0.0756035   0.0900345), wk =   0.0219479
        k(   65) = (   0.0756035   0.0756035   0.1200460), wk =   0.0219479
        k(   66) = (   0.0756035   0.1008047   0.0000000), wk =   0.0219479
        k(   67) = (   0.0756035   0.1008047   0.0300115), wk =   0.0438957
        k(   68) = (   0.0756035   0.1008047   0.0600230), wk =   0.0438957
        k(   69) = (   0.0756035   0.1008047   0.0900345), wk =   0.0438957
        k(   70) = (   0.0756035   0.1008047   0.1200460), wk =   0.0438957
        k(   71) = (   0.1008047   0.1008047   0.0000000), wk =   0.0109739
        k(   72) = (   0.1008047   0.1008047   0.0300115), wk =   0.0219479
        k(   73) = (   0.1008047   0.1008047   0.0600230), wk =   0.0219479
        k(   74) = (   0.1008047   0.1008047   0.0900345), wk =   0.0219479
        k(   75) = (   0.1008047   0.1008047   0.1200460), wk =   0.0219479

     Largest allocated arrays     est. size (Mb)     dimensions
     Largest temporary arrays     est. size (Mb)     dimensions

     Initial potential from superposition of free atoms
     Check: negative starting charge=   -0.722743

     starting charge   54.99985, renormalised to   58.00000

     negative rho (up, down):  7.622E-01 0.000E+00

     *
     * You are using vdW-DF for exchange-correlation in this calculation.
     * Please cite the following three references that made this development
     * possible:
     *
     *   M. Dion, H. Rydberg, E. Schroder, D. C. Langreth, and
     *   B. I. Lundqvist, Phys. Rev. Lett. 92, 246401 (2004).
     *
     *   T. Thonhauser, V. R. Cooper, S. Li, A. Puzder, P. Hyldgaard, and
     *   D. C. Langreth, Phys. Rev. B 76, 125112 (2007).
     *
     *   G. Roman-Perez and J. M. Soler, Phys. Rev. Lett. 103, 096102 (2009).
     *
     *
     * If you are using vdW-DF2, please also cite:
     *
     *   K. Lee, E. D. Murray, L. Kong, B. I. Lundqvist, and
     *   D. C. Langreth, Phys. Rev. B 82, 081101(R) (2010).
     *
     *
     * If you are calculating the stress with vdW-DF, please also cite:
     *
     *   R. Sabatini, E. Kucukbenli, B. Kolb, T. Thonhauser, and
     *   S. de Gironcoli, J. Phys.: Condens. Matter 24, 424209 (2012).
     *

     Carrying out vdW-DF run using the following parameters:

     Nqs =      20    Nr_points =    1024   r_max =   100.000
     q_mesh =
               0.00001000     0.04494208     0.09755937     0.15916263
               0.23128650     0.31572767     0.41458969     0.53033537
               0.66584808     0.82450364     1.01025438     1.22772762
               1.48234092     1.78043706     2.12944203     2.53805004
               3.01644009     3.57652955     4.23227104     5.00000000

     Gradients computed in reciprocal space

     Starting wfc are   42 randomized atomic wfcs +    7 random wfc

     Self-consistent Calculation

     iteration #  1     ecut=    58.80 Ry     beta=0.10
     Davidson diagonalization with overlap
     ethr =  1.00E-02,  avg # of iterations =  5.2

[...]

     total energy              =    -688.73242647 Ry
     Harris-Foulkes estimate   =    -689.36417545 Ry
     estimated scf accuracy    <       4.15287218 Ry

[...]

     total energy              =    -688.13086453 Ry
     Harris-Foulkes estimate   =    -688.13085471 Ry
     estimated scf accuracy    <       0.00000120 Ry

     iteration # 11     ecut=    58.80 Ry     beta=0.10
     Davidson diagonalization with overlap
     ethr =  2.06E-09,  avg # of iterations =  2.0

     negative rho (up, down):  6.655E-01 0.000E+00

     End of self-consistent calculation

          k = 0.0000 0.0000 0.0000 (  3701 PWs)   bands (ev):

   -30.9383 -30.9383 -30.8548 -30.8548 -30.8077 -30.7909  -4.3833  -4.2836
    -4.2017  -4.1591  -4.1591  -4.0592  -4.0571  -4.0571  -4.0411  -3.9440
     5.9374  10.9093  14.0432  14.0516  14.7328  14.7328  14.7420  15.3291
    15.3291  16.6185  16.6185  17.1581  17.7492  18.2086  19.1706  20.9065
    21.9021  21.9021  22.7435  22.9271  26.6287  26.6287  28.3442  28.9233
    29.2700  29.4482  29.4538  31.1963  31.3368  33.4345  33.4345  33.5333
    33.5333

[...]

          k = 0.1008 0.1008 0.1200 (  3710 PWs)   bands (ev):

   -30.9461 -30.9436 -30.8494 -30.8470 -30.8105 -30.8100  -4.2512  -4.2402
    -4.1940  -4.1912  -4.1568  -4.1508  -4.0662  -4.0633  -3.9811  -3.9739
     9.6370   9.7631  13.1940  13.2220  14.0064  14.1970  14.4964  14.7846
    16.0474  16.2233  16.3855  16.4522  17.0770  17.1358  19.2640  19.3200
    19.6388  19.9211  25.3986  25.7618  28.6769  28.7699  29.2708  29.4492
    29.4494  29.4921  32.0107  32.1938  32.3382  32.4619  33.8811  33.9383
    34.8066

     the Fermi energy is    18.2324 ev

!    total energy              =    -688.13090793 Ry
     Harris-Foulkes estimate   =    -688.13086494 Ry
     estimated scf accuracy    <       0.00000038 Ry

     The total energy is the sum of the following terms:

     one-electron contribution =    -109.24743641 Ry
     hartree contribution      =     105.43343142 Ry
     xc contribution           =    -193.49875684 Ry
     ewald contribution        =    -490.81124716 Ry
     smearing contrib. (-TS)   =      -0.00689894 Ry

     convergence has been achieved in  11 iterations

     Forces acting on atoms (Ry/au):

     negative rho (up, down):  6.655E-01 0.000E+00
     atom    1 type  1   force =     0.00000000    0.00000000    0.00000000
     atom    2 type  1   force =     0.00000000    0.00000000    0.00000000
     atom    3 type  2   force =     0.00000000    0.00000000    0.00000000
     atom    4 type  2   force =     0.00000000    0.00000000    0.00000000

     Total force =     0.000000     Total SCF correction =     0.000000

     General routines

     Parallel routines

   This run was terminated on:   5:33:51  15Nov2017

   JOB DONE.