     Program PWSCF v.5.1rc2 starts on 13Nov2017 at 16:23: 5

     Current dimensions of program PWSCF are:
     Max number of different atomic species (ntypx) = 10
     Max number of k-points (npk) =  40000
     Max angular momentum in pseudopotentials (lmaxx) =  3

     IMPORTANT: XC functional enforced from input :
     Exchange-correlation      = BEEF-VDW ( 1  4 27 13 2)
     Any further DFT definition will be discarded
     Please, verify this is what you really want

     Found symmetry operation: I + ( -0.5000 -0.5000  0.0000)
     This is a supercell, fractional translations are disabled

     bravais-lattice index     =            0
     lattice parameter (alat)  =       1.8897  a.u.
     unit-cell volume          =     689.7159 (a.u.)^3
     number of atoms/cell      =            4
     number of atomic types    =            2
     number of electrons       =        64.00
     number of Kohn-Sham states=           52
     kinetic-energy cutoff     =      58.7989  Ry
     charge density cutoff     =     587.9892  Ry
     convergence threshold     =      1.0E-06
     mixing beta               =       0.1000
     number of iterations used =           10  plain     mixing
     Exchange-correlation      = BEEF-VDW ( 1  4 27 13 2)

     celldm(1)=   1.889726  celldm(2)=   0.000000  celldm(3)=   0.000000
     celldm(4)=   0.000000  celldm(5)=   0.000000  celldm(6)=   0.000000

     crystal axes: (cart. coord. in units of alat)
               a(1) = (   5.085069   0.000000   0.000000 )
               a(2) = (   0.000000   5.085069   0.000000 )
               a(3) = (   0.000000   0.000000   3.952573 )

     reciprocal axes: (cart. coord. in units 2 pi/alat)
               b(1) = (  0.196654  0.000000  0.000000 )
               b(2) = (  0.000000  0.196654  0.000000 )
               b(3) = (  0.000000  0.000000  0.253000 )

     PseudoPot. # 1 for Ag read from file:
     /home/users/vossj/suncat/psp/gbrv1.5pbe/Ag.UPF
     MD5 check sum: d66d668201baa78d5eb5b04ef7011058
     Pseudo is Ultrasoft + core correction, Zval = 19.0
     Generated by new atomic code, or converted to UPF format
     Using radial grid of  887 points,  6 beta functions with:
                l(1) =   0
                l(2) =   0
                l(3) =   1
                l(4) =   1
                l(5) =   2
                l(6) =   2
     Q(r) pseudized with  6 coefficients,  rinner =    1.300   1.300   1.300
                                                       1.300   1.300

     PseudoPot. # 2 for Tl read from file:
     /home/users/vossj/suncat/psp/gbrv1.5pbe/Tl.UPF
     MD5 check sum: b76cf1f7e72655a2b2c53cf6385d7059
     Pseudo is Ultrasoft + core correction, Zval = 13.0
     Generated by new atomic code, or converted to UPF format
     Using radial grid of  899 points,  6 beta functions with:
                l(1) =   0
                l(2) =   0
                l(3) =   1
                l(4) =   1
                l(5) =   2
                l(6) =   2
     Q(r) pseudized with  6 coefficients,  rinner =    1.100   1.100   1.100
                                                       1.100   1.100

     vdW kernel table read from file vdW_kernel_table
     MD5 check sum: 095c7af220d748ca6e76c0b4c6cfb241

     atomic species   valence    mass     pseudopotential
        Ag1           19.00   107.86800     Ag( 1.00)
        Tl1           13.00   204.38300     Tl( 1.00)

     16 Sym. Ops., with inversion, found

   Cartesian axes

     site n.     atom                  positions (alat units)
         1           Ag1 tau(   1) = (   0.0000000   0.0000000   0.0000000  )
         2           Ag1 tau(   2) = (   2.5425346   2.5425346   0.0000000  )
         3           Tl1 tau(   3) = (   2.5425346   0.0000000   1.9762866  )
         4           Tl1 tau(   4) = (   0.0000000   2.5425346   1.9762866  )

     number of k points=    75  Fermi-Dirac smearing, width (Ry)=  0.0073
                       cart. coord. in units 2pi/alat
        k(    1) = (   0.0000000   0.0000000   0.0000000), wk =   0.0027435
        k(    2) = (   0.0000000   0.0000000   0.0281111), wk =   0.0054870
        k(    3) = (   0.0000000   0.0000000   0.0562222), wk =   0.0054870
        k(    4) = (   0.0000000   0.0000000   0.0843332), wk =   0.0054870
        k(    5) = (   0.0000000   0.0000000   0.1124443), wk =   0.0054870
        k(    6) = (   0.0000000   0.0218505   0.0000000), wk =   0.0109739
        k(    7) = (   0.0000000   0.0218505   0.0281111), wk =   0.0219479
        k(    8) = (   0.0000000   0.0218505   0.0562222), wk =   0.0219479
        k(    9) = (   0.0000000   0.0218505   0.0843332), wk =   0.0219479
        k(   10) = (   0.0000000   0.0218505   0.1124443), wk =   0.0219479
        k(   11) = (   0.0000000   0.0437009   0.0000000), wk =   0.0109739
        k(   12) = (   0.0000000   0.0437009   0.0281111), wk =   0.0219479
        k(   13) = (   0.0000000   0.0437009   0.0562222), wk =   0.0219479
        k(   14) = (   0.0000000   0.0437009   0.0843332), wk =   0.0219479
        k(   15) = (   0.0000000   0.0437009   0.1124443), wk =   0.0219479
        k(   16) = (   0.0000000   0.0655514   0.0000000), wk =   0.0109739
        k(   17) = (   0.0000000   0.0655514   0.0281111), wk =   0.0219479
        k(   18) = (   0.0000000   0.0655514   0.0562222), wk =   0.0219479
        k(   19) = (   0.0000000   0.0655514   0.0843332), wk =   0.0219479
        k(   20) = (   0.0000000   0.0655514   0.1124443), wk =   0.0219479
        k(   21) = (   0.0000000   0.0874018   0.0000000), wk =   0.0109739
        k(   22) = (   0.0000000   0.0874018   0.0281111), wk =   0.0219479
        k(   23) = (   0.0000000   0.0874018   0.0562222), wk =   0.0219479
        k(   24) = (   0.0000000   0.0874018   0.0843332), wk =   0.0219479
        k(   25) = (   0.0000000   0.0874018   0.1124443), wk =   0.0219479
        k(   26) = (   0.0218505   0.0218505   0.0000000), wk =   0.0109739
        k(   27) = (   0.0218505   0.0218505   0.0281111), wk =   0.0219479
        k(   28) = (   0.0218505   0.0218505   0.0562222), wk =   0.0219479
        k(   29) = (   0.0218505   0.0218505   0.0843332), wk =   0.0219479
        k(   30) = (   0.0218505   0.0218505   0.1124443), wk =   0.0219479
        k(   31) = (   0.0218505   0.0437009   0.0000000), wk =   0.0219479
        k(   32) = (   0.0218505   0.0437009   0.0281111), wk =   0.0438957
        k(   33) = (   0.0218505   0.0437009   0.0562222), wk =   0.0438957
        k(   34) = (   0.0218505   0.0437009   0.0843332), wk =   0.0438957
        k(   35) = (   0.0218505   0.0437009   0.1124443), wk =   0.0438957
        k(   36) = (   0.0218505   0.0655514   0.0000000), wk =   0.0219479
        k(   37) = (   0.0218505   0.0655514   0.0281111), wk =   0.0438957
        k(   38) = (   0.0218505   0.0655514   0.0562222), wk =   0.0438957
        k(   39) = (   0.0218505   0.0655514   0.0843332), wk =   0.0438957
        k(   40) = (   0.0218505   0.0655514   0.1124443), wk =   0.0438957
        k(   41) = (   0.0218505   0.0874018   0.0000000), wk =   0.0219479
        k(   42) = (   0.0218505   0.0874018   0.0281111), wk =   0.0438957
        k(   43) = (   0.0218505   0.0874018   0.0562222), wk =   0.0438957
        k(   44) = (   0.0218505   0.0874018   0.0843332), wk =   0.0438957
        k(   45) = (   0.0218505   0.0874018   0.1124443), wk =   0.0438957
        k(   46) = (   0.0437009   0.0437009   0.0000000), wk =   0.0109739
        k(   47) = (   0.0437009   0.0437009   0.0281111), wk =   0.0219479
        k(   48) = (   0.0437009   0.0437009   0.0562222), wk =   0.0219479
        k(   49) = (   0.0437009   0.0437009   0.0843332), wk =   0.0219479
        k(   50) = (   0.0437009   0.0437009   0.1124443), wk =   0.0219479
        k(   51) = (   0.0437009   0.0655514   0.0000000), wk =   0.0219479
        k(   52) = (   0.0437009   0.0655514   0.0281111), wk =   0.0438957
        k(   53) = (   0.0437009   0.0655514   0.0562222), wk =   0.0438957
        k(   54) = (   0.0437009   0.0655514   0.0843332), wk =   0.0438957
        k(   55) = (   0.0437009   0.0655514   0.1124443), wk =   0.0438957
        k(   56) = (   0.0437009   0.0874018   0.0000000), wk =   0.0219479
        k(   57) = (   0.0437009   0.0874018   0.0281111), wk =   0.0438957
        k(   58) = (   0.0437009   0.0874018   0.0562222), wk =   0.0438957
        k(   59) = (   0.0437009   0.0874018   0.0843332), wk =   0.0438957
        k(   60) = (   0.0437009   0.0874018   0.1124443), wk =   0.0438957
        k(   61) = (   0.0655514   0.0655514   0.0000000), wk =   0.0109739
        k(   62) = (   0.0655514   0.0655514   0.0281111), wk =   0.0219479
        k(   63) = (   0.0655514   0.0655514   0.0562222), wk =   0.0219479
        k(   64) = (   0.0655514   0.0655514   0.0843332), wk =   0.0219479
        k(   65) = (   0.0655514   0.0655514   0.1124443), wk =   0.0219479
        k(   66) = (   0.0655514   0.0874018   0.0000000), wk =   0.0219479
        k(   67) = (   0.0655514   0.0874018   0.0281111), wk =   0.0438957
        k(   68) = (   0.0655514   0.0874018   0.0562222), wk =   0.0438957
        k(   69) = (   0.0655514   0.0874018   0.0843332), wk =   0.0438957
        k(   70) = (   0.0655514   0.0874018   0.1124443), wk =   0.0438957
        k(   71) = (   0.0874018   0.0874018   0.0000000), wk =   0.0109739
        k(   72) = (   0.0874018   0.0874018   0.0281111), wk =   0.0219479
        k(   73) = (   0.0874018   0.0874018   0.0562222), wk =   0.0219479
        k(   74) = (   0.0874018   0.0874018   0.0843332), wk =   0.0219479
        k(   75) = (   0.0874018   0.0874018   0.1124443), wk =   0.0219479

     Largest allocated arrays     est. size (Mb)     dimensions
     Largest temporary arrays     est. size (Mb)     dimensions

     Initial potential from superposition of free atoms
     Check: negative starting charge=   -0.100933

     starting charge   62.99017, renormalised to   64.00000

     negative rho (up, down):  1.026E-01 0.000E+00

     *
     * You are using vdW-DF for exchange-correlation in this calculation.
     * Please cite the following three references that made this development
     * possible:
     *
     *   M. Dion, H. Rydberg, E. Schroder, D. C. Langreth, and
     *   B. I. Lundqvist, Phys. Rev. Lett. 92, 246401 (2004).
     *
     *   T. Thonhauser, V. R. Cooper, S. Li, A. Puzder, P. Hyldgaard, and
     *   D. C. Langreth, Phys. Rev. B 76, 125112 (2007).
     *
     *   G. Roman-Perez and J. M. Soler, Phys. Rev. Lett. 103, 096102 (2009).
     *
     *
     * If you are using vdW-DF2, please also cite:
     *
     *   K. Lee, E. D. Murray, L. Kong, B. I. Lundqvist, and
     *   D. C. Langreth, Phys. Rev. B 82, 081101(R) (2010).
     *
     *
     * If you are calculating the stress with vdW-DF, please also cite:
     *
     *   R. Sabatini, E. Kucukbenli, B. Kolb, T. Thonhauser, and
     *   S. de Gironcoli, J. Phys.: Condens. Matter 24, 424209 (2012).
     *

     Carrying out vdW-DF run using the following parameters:

     Nqs =      20    Nr_points =    1024   r_max =   100.000
     q_mesh =
               0.00001000     0.04494208     0.09755937     0.15916263
               0.23128650     0.31572767     0.41458969     0.53033537
               0.66584808     0.82450364     1.01025438     1.22772762
               1.48234092     1.78043706     2.12944203     2.53805004
               3.01644009     3.57652955     4.23227104     5.00000000

     Gradients computed in reciprocal space

     Starting wfc are   44 randomized atomic wfcs +    8 random wfc

     Self-consistent Calculation

     iteration #  1     ecut=    58.80 Ry     beta=0.10
     Davidson diagonalization with overlap
     ethr =  1.00E-02,  avg # of iterations =  5.3

[...]

     total energy              =    -887.01153293 Ry
     Harris-Foulkes estimate   =    -887.18576198 Ry
     estimated scf accuracy    <       1.07360867 Ry

[...]

     total energy              =    -886.94281755 Ry
     Harris-Foulkes estimate   =    -886.94252943 Ry
     estimated scf accuracy    <       0.00000109 Ry

     iteration # 10     ecut=    58.80 Ry     beta=0.10
     Davidson diagonalization with overlap
     ethr =  1.71E-09,  avg # of iterations =  2.3

     negative rho (up, down):  1.064E-01 0.000E+00

     End of self-consistent calculation

          k = 0.0000 0.0000 0.0000 (  5223 PWs)   bands (ev):

   -80.7847 -80.7843 -44.2884 -44.2877 -44.2803 -44.2803 -44.2761 -44.2761
    -0.6110  -0.5514  -0.5234  -0.4034  -0.4034  -0.3444  -0.2736  -0.2736
    -0.2348  -0.0773   2.5372   5.3285   6.6099   6.6817   6.9385   6.9999
     6.9999   7.1581   7.1581   7.2260   7.4472   8.7581  10.0558  10.0558
    12.4241  13.3284  14.3916  15.2487  15.2487  17.6388  19.6381  19.7834
    19.7834  20.1818  20.4849  22.5588  24.1083  24.1083  24.6809  24.9333
    25.1759  25.3266  25.3266  27.0721

[...]

          k = 0.0874 0.0874 0.1124 (  5270 PWs)   bands (ev):

   -80.7846 -80.7844 -44.2893 -44.2893 -44.2807 -44.2806 -44.2758 -44.2757
    -0.5084  -0.5043  -0.4783  -0.4655  -0.3627  -0.3540  -0.3184  -0.3139
    -0.1524  -0.1433   4.9025   4.9580   6.7542   6.7799   7.0294   7.0663
     7.0721   7.1032   7.2832   7.3051   8.1449   8.3813   9.5573   9.8294
     9.9077  10.1994  11.9481  12.2365  18.5841  18.8971  20.8203  21.0963
    21.1404  21.4241  21.5184  21.6465  24.2637  24.4850  25.4615  25.6719
    25.8781  25.9981  26.6952  27.0502

     the Fermi energy is    11.1896 ev

!    total energy              =    -886.94401512 Ry
     Harris-Foulkes estimate   =    -886.94281784 Ry
     estimated scf accuracy    <       0.00000019 Ry

     The total energy is the sum of the following terms:

     one-electron contribution =    -385.77319895 Ry
     hartree contribution      =     228.78718119 Ry
     xc contribution           =    -188.23211057 Ry
     ewald contribution        =    -541.72287459 Ry
     smearing contrib. (-TS)   =      -0.00301219 Ry

     convergence has been achieved in  10 iterations

     Forces acting on atoms (Ry/au):

     negative rho (up, down):  1.064E-01 0.000E+00
     atom    1 type  1   force =     0.00000000    0.00000000    0.00000000
     atom    2 type  1   force =     0.00000000    0.00000000    0.00000000
     atom    3 type  2   force =     0.00000000    0.00000000    0.00000000
     atom    4 type  2   force =     0.00000000    0.00000000    0.00000000

     Total force =     0.000000     Total SCF correction =     0.000000

     General routines

     Parallel routines

   This run was terminated on:  16:23:56  13Nov2017

   JOB DONE.