     Program PWSCF v.5.1rc2 starts on 15Nov2017 at  6:35:47

     Current dimensions of program PWSCF are:
     Max number of different atomic species (ntypx) = 10
     Max number of k-points (npk) =  40000
     Max angular momentum in pseudopotentials (lmaxx) =  3

     IMPORTANT: XC functional enforced from input :
     Exchange-correlation      = BEEF-VDW ( 1  4 27 13 2)
     Any further DFT definition will be discarded
     Please, verify this is what you really want

     Found symmetry operation: I + ( -0.5000 -0.5000  0.0000)
     This is a supercell, fractional translations are disabled

     bravais-lattice index     =            0
     lattice parameter (alat)  =       1.8897  a.u.
     unit-cell volume          =     548.3142 (a.u.)^3
     number of atoms/cell      =            4
     number of atomic types    =            2
     number of electrons       =        48.00
     number of Kohn-Sham states=           44
     kinetic-energy cutoff     =      58.7989  Ry
     charge density cutoff     =     587.9892  Ry
     convergence threshold     =      1.0E-06
     mixing beta               =       0.1000
     number of iterations used =           10  plain     mixing
     Exchange-correlation      = BEEF-VDW ( 1  4 27 13 2)

     celldm(1)=   1.889726  celldm(2)=   0.000000  celldm(3)=   0.000000
     celldm(4)=   0.000000  celldm(5)=   0.000000  celldm(6)=   0.000000

     crystal axes: (cart. coord. in units of alat)
               a(1) = (   4.402043   0.000000   0.000000 )
               a(2) = (   0.000000   4.402043   0.000000 )
               a(3) = (   0.000000   0.000000   4.192996 )

     reciprocal axes: (cart. coord. in units 2 pi/alat)
               b(1) = (  0.227167  0.000000  0.000000 )
               b(2) = (  0.000000  0.227167  0.000000 )
               b(3) = (  0.000000  0.000000  0.238493 )

     PseudoPot. # 1 for Ti read from file:
     /home/users/vossj/suncat/psp/gbrv1.5pbe/Ti.UPF
     MD5 check sum: 88a00a6731bd790ddea75d31a80cb452
     Pseudo is Ultrasoft + core correction, Zval = 12.0
     Generated by new atomic code, or converted to UPF format
     Using radial grid of  851 points,  6 beta functions with:
                l(1) =   0
                l(2) =   0
                l(3) =   1
                l(4) =   1
                l(5) =   2
                l(6) =   2
     Q(r) pseudized with  6 coefficients,  rinner =    1.000   1.000   1.000
                                                       1.000   1.000

     PseudoPot. # 2 for Zr read from file:
     /home/users/vossj/suncat/psp/gbrv1.5pbe/Zr.UPF
     MD5 check sum: 5db81b1e868ab7776c4564c113de050b
     Pseudo is Ultrasoft + core correction, Zval = 12.0
     Generated by new atomic code, or converted to UPF format
     Using radial grid of  887 points,  6 beta functions with:
                l(1) =   0
                l(2) =   0
                l(3) =   1
                l(4) =   1
                l(5) =   2
                l(6) =   2
     Q(r) pseudized with  6 coefficients,  rinner =    1.200   1.200   1.200
                                                       1.200   1.200

     vdW kernel table read from file vdW_kernel_table
     MD5 check sum: 095c7af220d748ca6e76c0b4c6cfb241

     atomic species   valence    mass     pseudopotential
        Ti1           12.00    47.88000     Ti( 1.00)
        Zr1           12.00    91.22400     Zr( 1.00)

     16 Sym. Ops., with inversion, found

   Cartesian axes

     site n.     atom                  positions (alat units)
         1           Ti1 tau(   1) = (   0.0000000   0.0000000   0.0000000  )
         2           Ti1 tau(   2) = (   2.2010213   2.2010213   0.0000000  )
         3           Zr1 tau(   3) = (   2.2010213   0.0000000   2.0964978  )
         4           Zr1 tau(   4) = (   0.0000000   2.2010213   2.0964978  )

     number of k points=    75  Fermi-Dirac smearing, width (Ry)=  0.0073
                       cart. coord. in units 2pi/alat
        k(    1) = (   0.0000000   0.0000000   0.0000000), wk =   0.0027435
        k(    2) = (   0.0000000   0.0000000   0.0264992), wk =   0.0054870
        k(    3) = (   0.0000000   0.0000000   0.0529984), wk =   0.0054870
        k(    4) = (   0.0000000   0.0000000   0.0794977), wk =   0.0054870
        k(    5) = (   0.0000000   0.0000000   0.1059969), wk =   0.0054870
        k(    6) = (   0.0000000   0.0252408   0.0000000), wk =   0.0109739
        k(    7) = (   0.0000000   0.0252408   0.0264992), wk =   0.0219479
        k(    8) = (   0.0000000   0.0252408   0.0529984), wk =   0.0219479
        k(    9) = (   0.0000000   0.0252408   0.0794977), wk =   0.0219479
        k(   10) = (   0.0000000   0.0252408   0.1059969), wk =   0.0219479
        k(   11) = (   0.0000000   0.0504816   0.0000000), wk =   0.0109739
        k(   12) = (   0.0000000   0.0504816   0.0264992), wk =   0.0219479
        k(   13) = (   0.0000000   0.0504816   0.0529984), wk =   0.0219479
        k(   14) = (   0.0000000   0.0504816   0.0794977), wk =   0.0219479
        k(   15) = (   0.0000000   0.0504816   0.1059969), wk =   0.0219479
        k(   16) = (   0.0000000   0.0757224   0.0000000), wk =   0.0109739
        k(   17) = (   0.0000000   0.0757224   0.0264992), wk =   0.0219479
        k(   18) = (   0.0000000   0.0757224   0.0529984), wk =   0.0219479
        k(   19) = (   0.0000000   0.0757224   0.0794977), wk =   0.0219479
        k(   20) = (   0.0000000   0.0757224   0.1059969), wk =   0.0219479
        k(   21) = (   0.0000000   0.1009632   0.0000000), wk =   0.0109739
        k(   22) = (   0.0000000   0.1009632   0.0264992), wk =   0.0219479
        k(   23) = (   0.0000000   0.1009632   0.0529984), wk =   0.0219479
        k(   24) = (   0.0000000   0.1009632   0.0794977), wk =   0.0219479
        k(   25) = (   0.0000000   0.1009632   0.1059969), wk =   0.0219479
        k(   26) = (   0.0252408   0.0252408   0.0000000), wk =   0.0109739
        k(   27) = (   0.0252408   0.0252408   0.0264992), wk =   0.0219479
        k(   28) = (   0.0252408   0.0252408   0.0529984), wk =   0.0219479
        k(   29) = (   0.0252408   0.0252408   0.0794977), wk =   0.0219479
        k(   30) = (   0.0252408   0.0252408   0.1059969), wk =   0.0219479
        k(   31) = (   0.0252408   0.0504816   0.0000000), wk =   0.0219479
        k(   32) = (   0.0252408   0.0504816   0.0264992), wk =   0.0438957
        k(   33) = (   0.0252408   0.0504816   0.0529984), wk =   0.0438957
        k(   34) = (   0.0252408   0.0504816   0.0794977), wk =   0.0438957
        k(   35) = (   0.0252408   0.0504816   0.1059969), wk =   0.0438957
        k(   36) = (   0.0252408   0.0757224   0.0000000), wk =   0.0219479
        k(   37) = (   0.0252408   0.0757224   0.0264992), wk =   0.0438957
        k(   38) = (   0.0252408   0.0757224   0.0529984), wk =   0.0438957
        k(   39) = (   0.0252408   0.0757224   0.0794977), wk =   0.0438957
        k(   40) = (   0.0252408   0.0757224   0.1059969), wk =   0.0438957
        k(   41) = (   0.0252408   0.1009632   0.0000000), wk =   0.0219479
        k(   42) = (   0.0252408   0.1009632   0.0264992), wk =   0.0438957
        k(   43) = (   0.0252408   0.1009632   0.0529984), wk =   0.0438957
        k(   44) = (   0.0252408   0.1009632   0.0794977), wk =   0.0438957
        k(   45) = (   0.0252408   0.1009632   0.1059969), wk =   0.0438957
        k(   46) = (   0.0504816   0.0504816   0.0000000), wk =   0.0109739
        k(   47) = (   0.0504816   0.0504816   0.0264992), wk =   0.0219479
        k(   48) = (   0.0504816   0.0504816   0.0529984), wk =   0.0219479
        k(   49) = (   0.0504816   0.0504816   0.0794977), wk =   0.0219479
        k(   50) = (   0.0504816   0.0504816   0.1059969), wk =   0.0219479
        k(   51) = (   0.0504816   0.0757224   0.0000000), wk =   0.0219479
        k(   52) = (   0.0504816   0.0757224   0.0264992), wk =   0.0438957
        k(   53) = (   0.0504816   0.0757224   0.0529984), wk =   0.0438957
        k(   54) = (   0.0504816   0.0757224   0.0794977), wk =   0.0438957
        k(   55) = (   0.0504816   0.0757224   0.1059969), wk =   0.0438957
        k(   56) = (   0.0504816   0.1009632   0.0000000), wk =   0.0219479
        k(   57) = (   0.0504816   0.1009632   0.0264992), wk =   0.0438957
        k(   58) = (   0.0504816   0.1009632   0.0529984), wk =   0.0438957
        k(   59) = (   0.0504816   0.1009632   0.0794977), wk =   0.0438957
        k(   60) = (   0.0504816   0.1009632   0.1059969), wk =   0.0438957
        k(   61) = (   0.0757224   0.0757224   0.0000000), wk =   0.0109739
        k(   62) = (   0.0757224   0.0757224   0.0264992), wk =   0.0219479
        k(   63) = (   0.0757224   0.0757224   0.0529984), wk =   0.0219479
        k(   64) = (   0.0757224   0.0757224   0.0794977), wk =   0.0219479
        k(   65) = (   0.0757224   0.0757224   0.1059969), wk =   0.0219479
        k(   66) = (   0.0757224   0.1009632   0.0000000), wk =   0.0219479
        k(   67) = (   0.0757224   0.1009632   0.0264992), wk =   0.0438957
        k(   68) = (   0.0757224   0.1009632   0.0529984), wk =   0.0438957
        k(   69) = (   0.0757224   0.1009632   0.0794977), wk =   0.0438957
        k(   70) = (   0.0757224   0.1009632   0.1059969), wk =   0.0438957
        k(   71) = (   0.1009632   0.1009632   0.0000000), wk =   0.0109739
        k(   72) = (   0.1009632   0.1009632   0.0264992), wk =   0.0219479
        k(   73) = (   0.1009632   0.1009632   0.0529984), wk =   0.0219479
        k(   74) = (   0.1009632   0.1009632   0.0794977), wk =   0.0219479
        k(   75) = (   0.1009632   0.1009632   0.1059969), wk =   0.0219479

     Largest allocated arrays     est. size (Mb)     dimensions
     Largest temporary arrays     est. size (Mb)     dimensions

     Check: negative/imaginary core charge=   -0.000002    0.000000

     Initial potential from superposition of free atoms
     Check: negative starting charge=   -0.124347

     starting charge   45.99561, renormalised to   48.00000

     negative rho (up, down):  1.298E-01 0.000E+00

     *
     * You are using vdW-DF for exchange-correlation in this calculation.
     * Please cite the following three references that made this development
     * possible:
     *
     *   M. Dion, H. Rydberg, E. Schroder, D. C. Langreth, and
     *   B. I. Lundqvist, Phys. Rev. Lett. 92, 246401 (2004).
     *
     *   T. Thonhauser, V. R. Cooper, S. Li, A. Puzder, P. Hyldgaard, and
     *   D. C. Langreth, Phys. Rev. B 76, 125112 (2007).
     *
     *   G. Roman-Perez and J. M. Soler, Phys. Rev. Lett. 103, 096102 (2009).
     *
     *
     * If you are using vdW-DF2, please also cite:
     *
     *   K. Lee, E. D. Murray, L. Kong, B. I. Lundqvist, and
     *   D. C. Langreth, Phys. Rev. B 82, 081101(R) (2010).
     *
     *
     * If you are calculating the stress with vdW-DF, please also cite:
     *
     *   R. Sabatini, E. Kucukbenli, B. Kolb, T. Thonhauser, and
     *   S. de Gironcoli, J. Phys.: Condens. Matter 24, 424209 (2012).
     *

     Carrying out vdW-DF run using the following parameters:

     Nqs =      20    Nr_points =    1024   r_max =   100.000
     q_mesh =
               0.00001000     0.04494208     0.09755937     0.15916263
               0.23128650     0.31572767     0.41458969     0.53033537
               0.66584808     0.82450364     1.01025438     1.22772762
               1.48234092     1.78043706     2.12944203     2.53805004
               3.01644009     3.57652955     4.23227104     5.00000000

     Gradients computed in reciprocal space

     Starting wfc are   46 randomized atomic wfcs

     Self-consistent Calculation

     iteration #  1     ecut=    58.80 Ry     beta=0.10
     Davidson diagonalization with overlap
     ethr =  1.00E-02,  avg # of iterations =  3.6

[...]

     total energy              =    -439.40315211 Ry
     Harris-Foulkes estimate   =    -439.77877765 Ry
     estimated scf accuracy    <       2.16067662 Ry

[...]

     total energy              =    -439.38078830 Ry
     Harris-Foulkes estimate   =    -439.38079196 Ry
     estimated scf accuracy    <       0.00000131 Ry

     iteration # 12     ecut=    58.80 Ry     beta=0.10
     Davidson diagonalization with overlap
     ethr =  2.73E-09,  avg # of iterations =  2.0

     negative rho (up, down):  1.258E-01 0.000E+00

     End of self-consistent calculation

          k = 0.0000 0.0000 0.0000 (  4183 PWs)   bands (ev):

   -43.5524 -43.5171 -35.2684 -35.1406 -19.8302 -19.8302 -19.7971 -19.7450
   -19.6650 -19.6650 -13.4920 -13.4920 -13.2370 -13.1097 -12.9315 -12.9315
     7.7563  10.3099  10.7248  11.0878  11.4190  11.6072  11.6072  14.1615
    14.1615  14.5866  15.5960  16.0855  16.0855  16.3630  16.4559  16.7673
    16.9368  17.9826  17.9826  18.0805  18.2425  18.2425  18.4040  19.6855
    22.9890  23.6419  23.6419  24.3081

[...]

          k = 0.1010 0.1010 0.1060 (  4163 PWs)   bands (ev):

   -43.5346 -43.5335 -35.2050 -35.2011 -19.8550 -19.8502 -19.7829 -19.7819
   -19.6519 -19.6470 -13.5678 -13.5516 -13.1988 -13.1941 -12.8942 -12.8762
    10.4899  10.5273  10.9992  11.0732  13.8007  13.8587  13.9349  13.9582
    14.0293  14.1011  14.1773  14.2303  14.4668  14.5318  14.7010  14.7029
    16.5864  16.6411  17.5379  17.7176  18.1649  18.2296  18.2824  18.4041
    22.5424  22.5475  22.7253  22.9170

     the Fermi energy is    13.4510 ev

!    total energy              =    -439.38079924 Ry
     Harris-Foulkes estimate   =    -439.38078867 Ry
     estimated scf accuracy    <       0.00000010 Ry

     The total energy is the sum of the following terms:

     one-electron contribution =    -120.53045921 Ry
     hartree contribution      =      78.24426498 Ry
     xc contribution           =     -74.43083229 Ry
     ewald contribution        =    -322.64688076 Ry
     smearing contrib. (-TS)   =      -0.01689196 Ry

     convergence has been achieved in  12 iterations

     Forces acting on atoms (Ry/au):

     negative rho (up, down):  1.258E-01 0.000E+00
     atom    1 type  1   force =     0.00000000    0.00000000    0.00000000
     atom    2 type  1   force =     0.00000000    0.00000000    0.00000000
     atom    3 type  2   force =     0.00000000    0.00000000    0.00000000
     atom    4 type  2   force =     0.00000000    0.00000000    0.00000000

     Total force =     0.000000     Total SCF correction =     0.000000

     General routines

     Parallel routines

   This run was terminated on:   6:36:29  15Nov2017

   JOB DONE.