     Program PWSCF v.5.1rc2 starts on 13Nov2017 at 18:36: 9

     Current dimensions of program PWSCF are:
     Max number of different atomic species (ntypx) = 10
     Max number of k-points (npk) =  40000
     Max angular momentum in pseudopotentials (lmaxx) =  3

     IMPORTANT: XC functional enforced from input :
     Exchange-correlation      = BEEF-VDW ( 1  4 27 13 2)
     Any further DFT definition will be discarded
     Please, verify this is what you really want

     Found symmetry operation: I + ( -0.5000 -0.5000  0.0000)
     This is a supercell, fractional translations are disabled

     bravais-lattice index     =            0
     lattice parameter (alat)  =       1.8897  a.u.
     unit-cell volume          =     519.2752 (a.u.)^3
     number of atoms/cell      =            4
     number of atomic types    =            2
     number of electrons       =        50.00
     number of Kohn-Sham states=           45
     kinetic-energy cutoff     =      58.7989  Ry
     charge density cutoff     =     587.9892  Ry
     convergence threshold     =      1.0E-06
     mixing beta               =       0.1000
     number of iterations used =           10  plain     mixing
     Exchange-correlation      = BEEF-VDW ( 1  4 27 13 2)

     celldm(1)=   1.889726  celldm(2)=   0.000000  celldm(3)=   0.000000
     celldm(4)=   0.000000  celldm(5)=   0.000000  celldm(6)=   0.000000

     crystal axes: (cart. coord. in units of alat)
               a(1) = (   4.062206   0.000000   0.000000 )
               a(2) = (   0.000000   4.062206   0.000000 )
               a(3) = (   0.000000   0.000000   4.663124 )

     reciprocal axes: (cart. coord. in units 2 pi/alat)
               b(1) = (  0.246172  0.000000  0.000000 )
               b(2) = (  0.000000  0.246172  0.000000 )
               b(3) = (  0.000000  0.000000  0.214449 )

     PseudoPot. # 1 for Cd read from file:
     /home/users/vossj/suncat/psp/gbrv1.5pbe/Cd.UPF
     MD5 check sum: 17164a7926edb8e0dc231208abae86a6
     Pseudo is Ultrasoft + core correction, Zval = 12.0
     Generated by new atomic code, or converted to UPF format
     Using radial grid of  889 points,  6 beta functions with:
                l(1) =   0
                l(2) =   0
                l(3) =   1
                l(4) =   1
                l(5) =   2
                l(6) =   2
     Q(r) pseudized with  6 coefficients,  rinner =    1.000   1.000   1.000
                                                       1.000   1.000

     PseudoPot. # 2 for Ta read from file:
     /home/users/vossj/suncat/psp/gbrv1.5pbe/Ta.UPF
     MD5 check sum: f8bbe9446314a3b8ea5d9f3e3836c939
     Pseudo is Ultrasoft + core correction, Zval = 13.0
     Generated by new atomic code, or converted to UPF format
     Using radial grid of  921 points,  7 beta functions with:
                l(1) =   0
                l(2) =   0
                l(3) =   1
                l(4) =   1
                l(5) =   2
                l(6) =   2
                l(7) =   3
     Q(r) pseudized with  6 coefficients,  rinner =    1.300   1.300   1.300
                                                       1.300   1.300   1.300
                                                       1.300

     vdW kernel table read from file vdW_kernel_table
     MD5 check sum: 095c7af220d748ca6e76c0b4c6cfb241

     atomic species   valence    mass     pseudopotential
        Cd1           12.00   112.41000     Cd( 1.00)
        Ta1           13.00   180.94790     Ta( 1.00)

     16 Sym. Ops., with inversion, found

   Cartesian axes

     site n.     atom                  positions (alat units)
         1           Cd1 tau(   1) = (   0.0000000   0.0000000   0.0000000  )
         2           Cd1 tau(   2) = (   2.0311032   2.0311032   0.0000000  )
         3           Ta1 tau(   3) = (   2.0311032   0.0000000   2.3315621  )
         4           Ta1 tau(   4) = (   0.0000000   2.0311032   2.3315621  )

     number of k points=    75  Fermi-Dirac smearing, width (Ry)=  0.0073
                       cart. coord. in units 2pi/alat
        k(    1) = (   0.0000000   0.0000000   0.0000000), wk =   0.0027435
        k(    2) = (   0.0000000   0.0000000   0.0238276), wk =   0.0054870
        k(    3) = (   0.0000000   0.0000000   0.0476552), wk =   0.0054870
        k(    4) = (   0.0000000   0.0000000   0.0714828), wk =   0.0054870
        k(    5) = (   0.0000000   0.0000000   0.0953104), wk =   0.0054870
        k(    6) = (   0.0000000   0.0273524   0.0000000), wk =   0.0109739
        k(    7) = (   0.0000000   0.0273524   0.0238276), wk =   0.0219479
        k(    8) = (   0.0000000   0.0273524   0.0476552), wk =   0.0219479
        k(    9) = (   0.0000000   0.0273524   0.0714828), wk =   0.0219479
        k(   10) = (   0.0000000   0.0273524   0.0953104), wk =   0.0219479
        k(   11) = (   0.0000000   0.0547048   0.0000000), wk =   0.0109739
        k(   12) = (   0.0000000   0.0547048   0.0238276), wk =   0.0219479
        k(   13) = (   0.0000000   0.0547048   0.0476552), wk =   0.0219479
        k(   14) = (   0.0000000   0.0547048   0.0714828), wk =   0.0219479
        k(   15) = (   0.0000000   0.0547048   0.0953104), wk =   0.0219479
        k(   16) = (   0.0000000   0.0820572   0.0000000), wk =   0.0109739
        k(   17) = (   0.0000000   0.0820572   0.0238276), wk =   0.0219479
        k(   18) = (   0.0000000   0.0820572   0.0476552), wk =   0.0219479
        k(   19) = (   0.0000000   0.0820572   0.0714828), wk =   0.0219479
        k(   20) = (   0.0000000   0.0820572   0.0953104), wk =   0.0219479
        k(   21) = (   0.0000000   0.1094096   0.0000000), wk =   0.0109739
        k(   22) = (   0.0000000   0.1094096   0.0238276), wk =   0.0219479
        k(   23) = (   0.0000000   0.1094096   0.0476552), wk =   0.0219479
        k(   24) = (   0.0000000   0.1094096   0.0714828), wk =   0.0219479
        k(   25) = (   0.0000000   0.1094096   0.0953104), wk =   0.0219479
        k(   26) = (   0.0273524   0.0273524   0.0000000), wk =   0.0109739
        k(   27) = (   0.0273524   0.0273524   0.0238276), wk =   0.0219479
        k(   28) = (   0.0273524   0.0273524   0.0476552), wk =   0.0219479
        k(   29) = (   0.0273524   0.0273524   0.0714828), wk =   0.0219479
        k(   30) = (   0.0273524   0.0273524   0.0953104), wk =   0.0219479
        k(   31) = (   0.0273524   0.0547048   0.0000000), wk =   0.0219479
        k(   32) = (   0.0273524   0.0547048   0.0238276), wk =   0.0438957
        k(   33) = (   0.0273524   0.0547048   0.0476552), wk =   0.0438957
        k(   34) = (   0.0273524   0.0547048   0.0714828), wk =   0.0438957
        k(   35) = (   0.0273524   0.0547048   0.0953104), wk =   0.0438957
        k(   36) = (   0.0273524   0.0820572   0.0000000), wk =   0.0219479
        k(   37) = (   0.0273524   0.0820572   0.0238276), wk =   0.0438957
        k(   38) = (   0.0273524   0.0820572   0.0476552), wk =   0.0438957
        k(   39) = (   0.0273524   0.0820572   0.0714828), wk =   0.0438957
        k(   40) = (   0.0273524   0.0820572   0.0953104), wk =   0.0438957
        k(   41) = (   0.0273524   0.1094096   0.0000000), wk =   0.0219479
        k(   42) = (   0.0273524   0.1094096   0.0238276), wk =   0.0438957
        k(   43) = (   0.0273524   0.1094096   0.0476552), wk =   0.0438957
        k(   44) = (   0.0273524   0.1094096   0.0714828), wk =   0.0438957
        k(   45) = (   0.0273524   0.1094096   0.0953104), wk =   0.0438957
        k(   46) = (   0.0547048   0.0547048   0.0000000), wk =   0.0109739
        k(   47) = (   0.0547048   0.0547048   0.0238276), wk =   0.0219479
        k(   48) = (   0.0547048   0.0547048   0.0476552), wk =   0.0219479
        k(   49) = (   0.0547048   0.0547048   0.0714828), wk =   0.0219479
        k(   50) = (   0.0547048   0.0547048   0.0953104), wk =   0.0219479
        k(   51) = (   0.0547048   0.0820572   0.0000000), wk =   0.0219479
        k(   52) = (   0.0547048   0.0820572   0.0238276), wk =   0.0438957
        k(   53) = (   0.0547048   0.0820572   0.0476552), wk =   0.0438957
        k(   54) = (   0.0547048   0.0820572   0.0714828), wk =   0.0438957
        k(   55) = (   0.0547048   0.0820572   0.0953104), wk =   0.0438957
        k(   56) = (   0.0547048   0.1094096   0.0000000), wk =   0.0219479
        k(   57) = (   0.0547048   0.1094096   0.0238276), wk =   0.0438957
        k(   58) = (   0.0547048   0.1094096   0.0476552), wk =   0.0438957
        k(   59) = (   0.0547048   0.1094096   0.0714828), wk =   0.0438957
        k(   60) = (   0.0547048   0.1094096   0.0953104), wk =   0.0438957
        k(   61) = (   0.0820572   0.0820572   0.0000000), wk =   0.0109739
        k(   62) = (   0.0820572   0.0820572   0.0238276), wk =   0.0219479
        k(   63) = (   0.0820572   0.0820572   0.0476552), wk =   0.0219479
        k(   64) = (   0.0820572   0.0820572   0.0714828), wk =   0.0219479
        k(   65) = (   0.0820572   0.0820572   0.0953104), wk =   0.0219479
        k(   66) = (   0.0820572   0.1094096   0.0000000), wk =   0.0219479
        k(   67) = (   0.0820572   0.1094096   0.0238276), wk =   0.0438957
        k(   68) = (   0.0820572   0.1094096   0.0476552), wk =   0.0438957
        k(   69) = (   0.0820572   0.1094096   0.0714828), wk =   0.0438957
        k(   70) = (   0.0820572   0.1094096   0.0953104), wk =   0.0438957
        k(   71) = (   0.1094096   0.1094096   0.0000000), wk =   0.0109739
        k(   72) = (   0.1094096   0.1094096   0.0238276), wk =   0.0219479
        k(   73) = (   0.1094096   0.1094096   0.0476552), wk =   0.0219479
        k(   74) = (   0.1094096   0.1094096   0.0714828), wk =   0.0219479
        k(   75) = (   0.1094096   0.1094096   0.0953104), wk =   0.0219479

     Largest allocated arrays     est. size (Mb)     dimensions
     Largest temporary arrays     est. size (Mb)     dimensions

     Initial potential from superposition of free atoms
     Check: negative starting charge=   -0.229988

     starting charge   48.99769, renormalised to   50.00000

     negative rho (up, down):  2.347E-01 0.000E+00

     *
     * You are using vdW-DF for exchange-correlation in this calculation.
     * Please cite the following three references that made this development
     * possible:
     *
     *   M. Dion, H. Rydberg, E. Schroder, D. C. Langreth, and
     *   B. I. Lundqvist, Phys. Rev. Lett. 92, 246401 (2004).
     *
     *   T. Thonhauser, V. R. Cooper, S. Li, A. Puzder, P. Hyldgaard, and
     *   D. C. Langreth, Phys. Rev. B 76, 125112 (2007).
     *
     *   G. Roman-Perez and J. M. Soler, Phys. Rev. Lett. 103, 096102 (2009).
     *
     *
     * If you are using vdW-DF2, please also cite:
     *
     *   K. Lee, E. D. Murray, L. Kong, B. I. Lundqvist, and
     *   D. C. Langreth, Phys. Rev. B 82, 081101(R) (2010).
     *
     *
     * If you are calculating the stress with vdW-DF, please also cite:
     *
     *   R. Sabatini, E. Kucukbenli, B. Kolb, T. Thonhauser, and
     *   S. de Gironcoli, J. Phys.: Condens. Matter 24, 424209 (2012).
     *

     Carrying out vdW-DF run using the following parameters:

     Nqs =      20    Nr_points =    1024   r_max =   100.000
     q_mesh =
               0.00001000     0.04494208     0.09755937     0.15916263
               0.23128650     0.31572767     0.41458969     0.53033537
               0.66584808     0.82450364     1.01025438     1.22772762
               1.48234092     1.78043706     2.12944203     2.53805004
               3.01644009     3.57652955     4.23227104     5.00000000

     Gradients computed in reciprocal space

     Starting wfc are   44 randomized atomic wfcs +    1 random wfc

     Self-consistent Calculation

     iteration #  1     ecut=    58.80 Ry     beta=0.10
     Davidson diagonalization with overlap
     ethr =  1.00E-02,  avg # of iterations =  4.2

     Threshold (ethr) on eigenvalues was too large:
     Diagonalizing with lowered threshold

     Davidson diagonalization with overlap
     ethr =  3.97E-04,  avg # of iterations =  1.1

[...]

     total energy              =    -518.65872536 Ry
     Harris-Foulkes estimate   =    -518.68270718 Ry
     estimated scf accuracy    <       0.19906918 Ry

[...]

     total energy              =    -518.62215281 Ry
     Harris-Foulkes estimate   =    -518.62214024 Ry
     estimated scf accuracy    <       0.00000575 Ry

     iteration # 10     ecut=    58.80 Ry     beta=0.10
     Davidson diagonalization with overlap
     ethr =  3.01E-09,  avg # of iterations =  2.0

     negative rho (up, down):  2.448E-01 0.000E+00

     End of self-consistent calculation

          k = 0.0000 0.0000 0.0000 (  3961 PWs)   bands (ev):

   -53.2343 -53.1445 -19.7676 -19.7676 -19.7428 -19.5820 -19.1287 -19.1287
     5.4071   5.4644   5.7737   5.9641   5.9641   6.5009   6.6083   6.7219
     6.7219   7.0149   7.4974  12.1561  12.5467  13.1874  14.6297  15.2951
    15.2951  16.4019  16.4859  16.4859  18.3389  18.3389  20.2242  21.2005
    21.7819  21.8358  22.2076  24.7459  24.7459  25.1230  25.3106  25.5199
    25.5199  28.4707  30.5384  31.1079  31.7898

[...]

          k = 0.1094 0.1094 0.0953 (  3970 PWs)   bands (ev):

   -53.1903 -53.1876 -19.8580 -19.8398 -19.6654 -19.6604 -19.0866 -19.0663
     5.7553   5.7648   5.7671   5.8159   6.4604   6.5083   6.6905   6.7146
     6.7836   6.8050  11.2085  11.5362  12.8064  13.0185  13.6288  13.7669
    14.6382  14.7745  16.6117  16.6292  17.4518  17.5196  18.6402  18.6789
    19.9253  20.0807  23.3974  23.5150  26.3588  26.3608  27.4852  27.7513
    29.8531  30.5315  30.5343  30.7919  30.8716

     the Fermi energy is    15.0801 ev

!    total energy              =    -518.62219888 Ry
     Harris-Foulkes estimate   =    -518.62215324 Ry
     estimated scf accuracy    <       0.00000078 Ry

     The total energy is the sum of the following terms:

     one-electron contribution =     -62.45112096 Ry
     hartree contribution      =      69.33716483 Ry
     xc contribution           =    -168.95695286 Ry
     ewald contribution        =    -356.54488756 Ry
     smearing contrib. (-TS)   =      -0.00640233 Ry

     convergence has been achieved in  10 iterations

     Forces acting on atoms (Ry/au):

     negative rho (up, down):  2.448E-01 0.000E+00
     atom    1 type  1   force =     0.00000000    0.00000000    0.00000000
     atom    2 type  1   force =     0.00000000    0.00000000    0.00000000
     atom    3 type  2   force =     0.00000000    0.00000000    0.00000000
     atom    4 type  2   force =     0.00000000    0.00000000    0.00000000

     Total force =     0.000000     Total SCF correction =     0.000000

     General routines

     Parallel routines

   This run was terminated on:  18:36:47  13Nov2017

   JOB DONE.