     Program PWSCF v.5.1rc2 starts on 15Nov2017 at  5: 3:50

     Current dimensions of program PWSCF are:
     Max number of different atomic species (ntypx) = 10
     Max number of k-points (npk) =  40000
     Max angular momentum in pseudopotentials (lmaxx) =  3

     IMPORTANT: XC functional enforced from input :
     Exchange-correlation      = BEEF-VDW ( 1  4 27 13 2)
     Any further DFT definition will be discarded
     Please, verify this is what you really want

     Found symmetry operation: I + ( -0.5000 -0.5000  0.0000)
     This is a supercell, fractional translations are disabled

     bravais-lattice index     =            0
     lattice parameter (alat)  =       1.8897  a.u.
     unit-cell volume          =     434.9632 (a.u.)^3
     number of atoms/cell      =            4
     number of atomic types    =            2
     number of electrons       =        70.00
     number of Kohn-Sham states=           55
     kinetic-energy cutoff     =      58.7989  Ry
     charge density cutoff     =     587.9892  Ry
     convergence threshold     =      1.0E-06
     mixing beta               =       0.1000
     number of iterations used =           10  plain     mixing
     Exchange-correlation      = BEEF-VDW ( 1  4 27 13 2)

     celldm(1)=   1.889726  celldm(2)=   0.000000  celldm(3)=   0.000000
     celldm(4)=   0.000000  celldm(5)=   0.000000  celldm(6)=   0.000000

     crystal axes: (cart. coord. in units of alat)
               a(1) = (   3.771273   0.000000   0.000000 )
               a(2) = (   0.000000   3.771273   0.000000 )
               a(3) = (   0.000000   0.000000   4.531895 )

     reciprocal axes: (cart. coord. in units 2 pi/alat)
               b(1) = (  0.265162  0.000000  0.000000 )
               b(2) = (  0.000000  0.265162  0.000000 )
               b(3) = (  0.000000  0.000000  0.220658 )

     PseudoPot. # 1 for Ru read from file:
     /home/users/vossj/suncat/psp/gbrv1.5pbe/Ru.UPF
     MD5 check sum: 7158a806dd851261a58e6920c40ebe78
     Pseudo is Ultrasoft + core correction, Zval = 16.0
     Generated by new atomic code, or converted to UPF format
     Using radial grid of  967 points,  6 beta functions with:
                l(1) =   0
                l(2) =   0
                l(3) =   1
                l(4) =   1
                l(5) =   2
                l(6) =   2
     Q(r) pseudized with  8 coefficients,  rinner =    1.300   1.300   1.300
                                                       1.300   1.300

     PseudoPot. # 2 for Ag read from file:
     /home/users/vossj/suncat/psp/gbrv1.5pbe/Ag.UPF
     MD5 check sum: d66d668201baa78d5eb5b04ef7011058
     Pseudo is Ultrasoft + core correction, Zval = 19.0
     Generated by new atomic code, or converted to UPF format
     Using radial grid of  887 points,  6 beta functions with:
                l(1) =   0
                l(2) =   0
                l(3) =   1
                l(4) =   1
                l(5) =   2
                l(6) =   2
     Q(r) pseudized with  6 coefficients,  rinner =    1.300   1.300   1.300
                                                       1.300   1.300

     vdW kernel table read from file vdW_kernel_table
     MD5 check sum: 095c7af220d748ca6e76c0b4c6cfb241

     atomic species   valence    mass     pseudopotential
        Ru1           16.00   101.07000     Ru( 1.00)
        Ag1           19.00   107.86800     Ag( 1.00)

     16 Sym. Ops., with inversion, found

   Cartesian axes

     site n.     atom                  positions (alat units)
         1           Ru1 tau(   1) = (   0.0000000   0.0000000   0.0000000  )
         2           Ru1 tau(   2) = (   1.8856367   1.8856367   0.0000000  )
         3           Ag1 tau(   3) = (   1.8856367   0.0000000   2.2659476  )
         4           Ag1 tau(   4) = (   0.0000000   1.8856367   2.2659476  )

     number of k points=    75  Fermi-Dirac smearing, width (Ry)=  0.0073
                       cart. coord. in units 2pi/alat
        k(    1) = (   0.0000000   0.0000000   0.0000000), wk =   0.0027435
        k(    2) = (   0.0000000   0.0000000   0.0245176), wk =   0.0054870
        k(    3) = (   0.0000000   0.0000000   0.0490352), wk =   0.0054870
        k(    4) = (   0.0000000   0.0000000   0.0735527), wk =   0.0054870
        k(    5) = (   0.0000000   0.0000000   0.0980703), wk =   0.0054870
        k(    6) = (   0.0000000   0.0294625   0.0000000), wk =   0.0109739
        k(    7) = (   0.0000000   0.0294625   0.0245176), wk =   0.0219479
        k(    8) = (   0.0000000   0.0294625   0.0490352), wk =   0.0219479
        k(    9) = (   0.0000000   0.0294625   0.0735527), wk =   0.0219479
        k(   10) = (   0.0000000   0.0294625   0.0980703), wk =   0.0219479
        k(   11) = (   0.0000000   0.0589250   0.0000000), wk =   0.0109739
        k(   12) = (   0.0000000   0.0589250   0.0245176), wk =   0.0219479
        k(   13) = (   0.0000000   0.0589250   0.0490352), wk =   0.0219479
        k(   14) = (   0.0000000   0.0589250   0.0735527), wk =   0.0219479
        k(   15) = (   0.0000000   0.0589250   0.0980703), wk =   0.0219479
        k(   16) = (   0.0000000   0.0883875   0.0000000), wk =   0.0109739
        k(   17) = (   0.0000000   0.0883875   0.0245176), wk =   0.0219479
        k(   18) = (   0.0000000   0.0883875   0.0490352), wk =   0.0219479
        k(   19) = (   0.0000000   0.0883875   0.0735527), wk =   0.0219479
        k(   20) = (   0.0000000   0.0883875   0.0980703), wk =   0.0219479
        k(   21) = (   0.0000000   0.1178500   0.0000000), wk =   0.0109739
        k(   22) = (   0.0000000   0.1178500   0.0245176), wk =   0.0219479
        k(   23) = (   0.0000000   0.1178500   0.0490352), wk =   0.0219479
        k(   24) = (   0.0000000   0.1178500   0.0735527), wk =   0.0219479
        k(   25) = (   0.0000000   0.1178500   0.0980703), wk =   0.0219479
        k(   26) = (   0.0294625   0.0294625   0.0000000), wk =   0.0109739
        k(   27) = (   0.0294625   0.0294625   0.0245176), wk =   0.0219479
        k(   28) = (   0.0294625   0.0294625   0.0490352), wk =   0.0219479
        k(   29) = (   0.0294625   0.0294625   0.0735527), wk =   0.0219479
        k(   30) = (   0.0294625   0.0294625   0.0980703), wk =   0.0219479
        k(   31) = (   0.0294625   0.0589250   0.0000000), wk =   0.0219479
        k(   32) = (   0.0294625   0.0589250   0.0245176), wk =   0.0438957
        k(   33) = (   0.0294625   0.0589250   0.0490352), wk =   0.0438957
        k(   34) = (   0.0294625   0.0589250   0.0735527), wk =   0.0438957
        k(   35) = (   0.0294625   0.0589250   0.0980703), wk =   0.0438957
        k(   36) = (   0.0294625   0.0883875   0.0000000), wk =   0.0219479
        k(   37) = (   0.0294625   0.0883875   0.0245176), wk =   0.0438957
        k(   38) = (   0.0294625   0.0883875   0.0490352), wk =   0.0438957
        k(   39) = (   0.0294625   0.0883875   0.0735527), wk =   0.0438957
        k(   40) = (   0.0294625   0.0883875   0.0980703), wk =   0.0438957
        k(   41) = (   0.0294625   0.1178500   0.0000000), wk =   0.0219479
        k(   42) = (   0.0294625   0.1178500   0.0245176), wk =   0.0438957
        k(   43) = (   0.0294625   0.1178500   0.0490352), wk =   0.0438957
        k(   44) = (   0.0294625   0.1178500   0.0735527), wk =   0.0438957
        k(   45) = (   0.0294625   0.1178500   0.0980703), wk =   0.0438957
        k(   46) = (   0.0589250   0.0589250   0.0000000), wk =   0.0109739
        k(   47) = (   0.0589250   0.0589250   0.0245176), wk =   0.0219479
        k(   48) = (   0.0589250   0.0589250   0.0490352), wk =   0.0219479
        k(   49) = (   0.0589250   0.0589250   0.0735527), wk =   0.0219479
        k(   50) = (   0.0589250   0.0589250   0.0980703), wk =   0.0219479
        k(   51) = (   0.0589250   0.0883875   0.0000000), wk =   0.0219479
        k(   52) = (   0.0589250   0.0883875   0.0245176), wk =   0.0438957
        k(   53) = (   0.0589250   0.0883875   0.0490352), wk =   0.0438957
        k(   54) = (   0.0589250   0.0883875   0.0735527), wk =   0.0438957
        k(   55) = (   0.0589250   0.0883875   0.0980703), wk =   0.0438957
        k(   56) = (   0.0589250   0.1178500   0.0000000), wk =   0.0219479
        k(   57) = (   0.0589250   0.1178500   0.0245176), wk =   0.0438957
        k(   58) = (   0.0589250   0.1178500   0.0490352), wk =   0.0438957
        k(   59) = (   0.0589250   0.1178500   0.0735527), wk =   0.0438957
        k(   60) = (   0.0589250   0.1178500   0.0980703), wk =   0.0438957
        k(   61) = (   0.0883875   0.0883875   0.0000000), wk =   0.0109739
        k(   62) = (   0.0883875   0.0883875   0.0245176), wk =   0.0219479
        k(   63) = (   0.0883875   0.0883875   0.0490352), wk =   0.0219479
        k(   64) = (   0.0883875   0.0883875   0.0735527), wk =   0.0219479
        k(   65) = (   0.0883875   0.0883875   0.0980703), wk =   0.0219479
        k(   66) = (   0.0883875   0.1178500   0.0000000), wk =   0.0219479
        k(   67) = (   0.0883875   0.1178500   0.0245176), wk =   0.0438957
        k(   68) = (   0.0883875   0.1178500   0.0490352), wk =   0.0438957
        k(   69) = (   0.0883875   0.1178500   0.0735527), wk =   0.0438957
        k(   70) = (   0.0883875   0.1178500   0.0980703), wk =   0.0438957
        k(   71) = (   0.1178500   0.1178500   0.0000000), wk =   0.0109739
        k(   72) = (   0.1178500   0.1178500   0.0245176), wk =   0.0219479
        k(   73) = (   0.1178500   0.1178500   0.0490352), wk =   0.0219479
        k(   74) = (   0.1178500   0.1178500   0.0735527), wk =   0.0219479
        k(   75) = (   0.1178500   0.1178500   0.0980703), wk =   0.0219479

     Largest allocated arrays     est. size (Mb)     dimensions
     Largest temporary arrays     est. size (Mb)     dimensions

     Initial potential from superposition of free atoms
     Check: negative starting charge=   -0.147450

     starting charge   66.99987, renormalised to   70.00000

     negative rho (up, down):  1.541E-01 0.000E+00

     *
     * You are using vdW-DF for exchange-correlation in this calculation.
     * Please cite the following three references that made this development
     * possible:
     *
     *   M. Dion, H. Rydberg, E. Schroder, D. C. Langreth, and
     *   B. I. Lundqvist, Phys. Rev. Lett. 92, 246401 (2004).
     *
     *   T. Thonhauser, V. R. Cooper, S. Li, A. Puzder, P. Hyldgaard, and
     *   D. C. Langreth, Phys. Rev. B 76, 125112 (2007).
     *
     *   G. Roman-Perez and J. M. Soler, Phys. Rev. Lett. 103, 096102 (2009).
     *
     *
     * If you are using vdW-DF2, please also cite:
     *
     *   K. Lee, E. D. Murray, L. Kong, B. I. Lundqvist, and
     *   D. C. Langreth, Phys. Rev. B 82, 081101(R) (2010).
     *
     *
     * If you are calculating the stress with vdW-DF, please also cite:
     *
     *   R. Sabatini, E. Kucukbenli, B. Kolb, T. Thonhauser, and
     *   S. de Gironcoli, J. Phys.: Condens. Matter 24, 424209 (2012).
     *

     Carrying out vdW-DF run using the following parameters:

     Nqs =      20    Nr_points =    1024   r_max =   100.000
     q_mesh =
               0.00001000     0.04494208     0.09755937     0.15916263
               0.23128650     0.31572767     0.41458969     0.53033537
               0.66584808     0.82450364     1.01025438     1.22772762
               1.48234092     1.78043706     2.12944203     2.53805004
               3.01644009     3.57652955     4.23227104     5.00000000

     Gradients computed in reciprocal space

     Starting wfc are   52 randomized atomic wfcs +    3 random wfc

     Self-consistent Calculation

     iteration #  1     ecut=    58.80 Ry     beta=0.10
     Davidson diagonalization with overlap
     ethr =  1.00E-02,  avg # of iterations =  4.5

[...]

     total energy              =    -981.76617534 Ry
     Harris-Foulkes estimate   =    -986.73098514 Ry
     estimated scf accuracy    <      27.82445652 Ry

[...]

     total energy              =    -983.46505903 Ry
     Harris-Foulkes estimate   =    -983.46505872 Ry
     estimated scf accuracy    <       0.00000512 Ry

     iteration # 13     ecut=    58.80 Ry     beta=0.10
     Davidson diagonalization with overlap
     ethr =  7.31E-09,  avg # of iterations =  1.0

     negative rho (up, down):  1.495E-01 0.000E+00

     End of self-consistent calculation

          k = 0.0000 0.0000 0.0000 (  3333 PWs)   bands (ev):

   -73.6331 -73.5977 -54.0795 -53.9567 -37.2112 -37.2112 -37.0972 -37.0580
   -37.0250 -37.0250 -24.2783 -24.2783 -23.9429 -23.8228 -23.7739 -23.7739
    11.2102  12.0241  12.2473  12.4364  12.7962  12.7962  13.0254  14.7205
    14.7205  14.8597  15.5277  15.8645  16.3209  16.4216  17.6749  17.6749
    18.9614  19.0819  19.0819  19.2098  19.8232  21.2382  22.3641  22.3641
    25.2368  28.5229  29.0344  29.8981  30.2010  30.2778  30.2778  32.7608
    32.7608  34.9334  36.3525  37.5158  37.5158  37.7282  38.5577

[...]

          k = 0.1178 0.1178 0.0981 (  3303 PWs)   bands (ev):

   -73.6158 -73.6148 -54.0193 -54.0156 -37.2321 -37.2266 -37.0778 -37.0766
   -37.0143 -37.0086 -24.3452 -24.3305 -23.8840 -23.8803 -23.7416 -23.7259
    12.4519  12.4563  12.6170  12.7024  13.5527  13.5669  14.2955  14.4200
    14.8873  14.9416  15.5279  15.6650  16.6955  16.8916  17.7361  18.1870
    18.2628  18.3243  19.0650  19.1412  19.1720  19.5470  19.7971  19.8445
    24.3721  24.6690  25.9938  26.3159  32.1532  32.2892  32.9705  33.1272
    37.1180  37.3845  37.8663  38.3068  38.5434  39.2603  40.2723

     the Fermi energy is    18.6520 ev

!    total energy              =    -983.46506769 Ry
     Harris-Foulkes estimate   =    -983.46505941 Ry
     estimated scf accuracy    <       0.00000088 Ry

     The total energy is the sum of the following terms:

     one-electron contribution =    -337.38006635 Ry
     hartree contribution      =     210.38149198 Ry
     xc contribution           =    -113.95797066 Ry
     ewald contribution        =    -742.49404256 Ry
     smearing contrib. (-TS)   =      -0.01448010 Ry

     convergence has been achieved in  13 iterations

     Forces acting on atoms (Ry/au):

     negative rho (up, down):  1.495E-01 0.000E+00
     atom    1 type  1   force =     0.00000000    0.00000000    0.00000000
     atom    2 type  1   force =     0.00000000    0.00000000    0.00000000
     atom    3 type  2   force =     0.00000000    0.00000000    0.00000000
     atom    4 type  2   force =     0.00000000    0.00000000    0.00000000

     Total force =     0.000000     Total SCF correction =     0.000000

     General routines

     Parallel routines

   This run was terminated on:   5: 4:35  15Nov2017

   JOB DONE.