     Program PWSCF v.5.1rc2 starts on 15Nov2017 at  1:14:13

     Current dimensions of program PWSCF are:
     Max number of different atomic species (ntypx) = 10
     Max number of k-points (npk) =  40000
     Max angular momentum in pseudopotentials (lmaxx) =  3

     IMPORTANT: XC functional enforced from input :
     Exchange-correlation      = BEEF-VDW ( 1  4 27 13 2)
     Any further DFT definition will be discarded
     Please, verify this is what you really want

     Found symmetry operation: I + (  0.5000  0.5000  0.0000)
     This is a supercell, fractional translations are disabled

     bravais-lattice index     =            0
     lattice parameter (alat)  =       1.8897  a.u.
     unit-cell volume          =     499.3144 (a.u.)^3
     number of atoms/cell      =            4
     number of atomic types    =            2
     number of electrons       =        56.00
     number of Kohn-Sham states=           48
     kinetic-energy cutoff     =      58.7989  Ry
     charge density cutoff     =     587.9892  Ry
     convergence threshold     =      1.0E-06
     mixing beta               =       0.1000
     number of iterations used =           10  plain     mixing
     Exchange-correlation      = BEEF-VDW ( 1  4 27 13 2)

     celldm(1)=   1.889726  celldm(2)=   0.000000  celldm(3)=   0.000000
     celldm(4)=   0.000000  celldm(5)=   0.000000  celldm(6)=   0.000000

     crystal axes: (cart. coord. in units of alat)
               a(1) = (   4.625430   0.000000   0.000000 )
               a(2) = (   0.000000   4.625430   0.000000 )
               a(3) = (   0.000000   0.000000   3.458384 )

     reciprocal axes: (cart. coord. in units 2 pi/alat)
               b(1) = (  0.216196  0.000000  0.000000 )
               b(2) = (  0.000000  0.216196  0.000000 )
               b(3) = (  0.000000  0.000000  0.289152 )

     PseudoPot. # 1 for Pd read from file:
     /home/users/vossj/suncat/psp/gbrv1.5pbe/Pd.UPF
     MD5 check sum: 2d733d2bc2cbfd217af676df1668a4bc
     Pseudo is Ultrasoft + core correction, Zval = 16.0
     Generated by new atomic code, or converted to UPF format
     Using radial grid of  887 points,  6 beta functions with:
                l(1) =   0
                l(2) =   0
                l(3) =   1
                l(4) =   1
                l(5) =   2
                l(6) =   2
     Q(r) pseudized with  8 coefficients,  rinner =    1.130   1.130   1.130
                                                       1.130   1.130

     PseudoPot. # 2 for Hf read from file:
     /home/users/vossj/suncat/psp/gbrv1.5pbe/Hf.UPF
     MD5 check sum: 8ee9378dfe14276e333edf04c5e4aa26
     Pseudo is Ultrasoft + core correction, Zval = 12.0
     Generated by new atomic code, or converted to UPF format
     Using radial grid of  921 points,  8 beta functions with:
                l(1) =   0
                l(2) =   0
                l(3) =   0
                l(4) =   1
                l(5) =   1
                l(6) =   2
                l(7) =   2
                l(8) =   3
     Q(r) pseudized with  6 coefficients,  rinner =    1.200   1.200   1.200
                                                       1.200   1.200   1.200
                                                       1.200

     vdW kernel table read from file vdW_kernel_table
     MD5 check sum: 095c7af220d748ca6e76c0b4c6cfb241

     atomic species   valence    mass     pseudopotential
        Pd1           16.00   106.42000     Pd( 1.00)
        Hf1           12.00   178.49000     Hf( 1.00)

     16 Sym. Ops., with inversion, found

   Cartesian axes

     site n.     atom                  positions (alat units)
         1           Pd1 tau(   1) = (   0.0000000   0.0000000   0.0000000  )
         2           Pd1 tau(   2) = (   2.3127150   2.3127150   0.0000000  )
         3           Hf1 tau(   3) = (   2.3127150   0.0000000   1.7291921  )
         4           Hf1 tau(   4) = (   0.0000000   2.3127150   1.7291921  )

     number of k points=    75  Fermi-Dirac smearing, width (Ry)=  0.0073
                       cart. coord. in units 2pi/alat
        k(    1) = (   0.0000000   0.0000000   0.0000000), wk =   0.0027435
        k(    2) = (   0.0000000   0.0000000   0.0321280), wk =   0.0054870
        k(    3) = (   0.0000000   0.0000000   0.0642561), wk =   0.0054870
        k(    4) = (   0.0000000   0.0000000   0.0963841), wk =   0.0054870
        k(    5) = (   0.0000000   0.0000000   0.1285122), wk =   0.0054870
        k(    6) = (   0.0000000   0.0240218   0.0000000), wk =   0.0109739
        k(    7) = (   0.0000000   0.0240218   0.0321280), wk =   0.0219479
        k(    8) = (   0.0000000   0.0240218   0.0642561), wk =   0.0219479
        k(    9) = (   0.0000000   0.0240218   0.0963841), wk =   0.0219479
        k(   10) = (   0.0000000   0.0240218   0.1285122), wk =   0.0219479
        k(   11) = (   0.0000000   0.0480436   0.0000000), wk =   0.0109739
        k(   12) = (   0.0000000   0.0480436   0.0321280), wk =   0.0219479
        k(   13) = (   0.0000000   0.0480436   0.0642561), wk =   0.0219479
        k(   14) = (   0.0000000   0.0480436   0.0963841), wk =   0.0219479
        k(   15) = (   0.0000000   0.0480436   0.1285122), wk =   0.0219479
        k(   16) = (   0.0000000   0.0720654   0.0000000), wk =   0.0109739
        k(   17) = (   0.0000000   0.0720654   0.0321280), wk =   0.0219479
        k(   18) = (   0.0000000   0.0720654   0.0642561), wk =   0.0219479
        k(   19) = (   0.0000000   0.0720654   0.0963841), wk =   0.0219479
        k(   20) = (   0.0000000   0.0720654   0.1285122), wk =   0.0219479
        k(   21) = (   0.0000000   0.0960872   0.0000000), wk =   0.0109739
        k(   22) = (   0.0000000   0.0960872   0.0321280), wk =   0.0219479
        k(   23) = (   0.0000000   0.0960872   0.0642561), wk =   0.0219479
        k(   24) = (   0.0000000   0.0960872   0.0963841), wk =   0.0219479
        k(   25) = (   0.0000000   0.0960872   0.1285122), wk =   0.0219479
        k(   26) = (   0.0240218   0.0240218   0.0000000), wk =   0.0109739
        k(   27) = (   0.0240218   0.0240218   0.0321280), wk =   0.0219479
        k(   28) = (   0.0240218   0.0240218   0.0642561), wk =   0.0219479
        k(   29) = (   0.0240218   0.0240218   0.0963841), wk =   0.0219479
        k(   30) = (   0.0240218   0.0240218   0.1285122), wk =   0.0219479
        k(   31) = (   0.0240218   0.0480436   0.0000000), wk =   0.0219479
        k(   32) = (   0.0240218   0.0480436   0.0321280), wk =   0.0438957
        k(   33) = (   0.0240218   0.0480436   0.0642561), wk =   0.0438957
        k(   34) = (   0.0240218   0.0480436   0.0963841), wk =   0.0438957
        k(   35) = (   0.0240218   0.0480436   0.1285122), wk =   0.0438957
        k(   36) = (   0.0240218   0.0720654   0.0000000), wk =   0.0219479
        k(   37) = (   0.0240218   0.0720654   0.0321280), wk =   0.0438957
        k(   38) = (   0.0240218   0.0720654   0.0642561), wk =   0.0438957
        k(   39) = (   0.0240218   0.0720654   0.0963841), wk =   0.0438957
        k(   40) = (   0.0240218   0.0720654   0.1285122), wk =   0.0438957
        k(   41) = (   0.0240218   0.0960872   0.0000000), wk =   0.0219479
        k(   42) = (   0.0240218   0.0960872   0.0321280), wk =   0.0438957
        k(   43) = (   0.0240218   0.0960872   0.0642561), wk =   0.0438957
        k(   44) = (   0.0240218   0.0960872   0.0963841), wk =   0.0438957
        k(   45) = (   0.0240218   0.0960872   0.1285122), wk =   0.0438957
        k(   46) = (   0.0480436   0.0480436   0.0000000), wk =   0.0109739
        k(   47) = (   0.0480436   0.0480436   0.0321280), wk =   0.0219479
        k(   48) = (   0.0480436   0.0480436   0.0642561), wk =   0.0219479
        k(   49) = (   0.0480436   0.0480436   0.0963841), wk =   0.0219479
        k(   50) = (   0.0480436   0.0480436   0.1285122), wk =   0.0219479
        k(   51) = (   0.0480436   0.0720654   0.0000000), wk =   0.0219479
        k(   52) = (   0.0480436   0.0720654   0.0321280), wk =   0.0438957
        k(   53) = (   0.0480436   0.0720654   0.0642561), wk =   0.0438957
        k(   54) = (   0.0480436   0.0720654   0.0963841), wk =   0.0438957
        k(   55) = (   0.0480436   0.0720654   0.1285122), wk =   0.0438957
        k(   56) = (   0.0480436   0.0960872   0.0000000), wk =   0.0219479
        k(   57) = (   0.0480436   0.0960872   0.0321280), wk =   0.0438957
        k(   58) = (   0.0480436   0.0960872   0.0642561), wk =   0.0438957
        k(   59) = (   0.0480436   0.0960872   0.0963841), wk =   0.0438957
        k(   60) = (   0.0480436   0.0960872   0.1285122), wk =   0.0438957
        k(   61) = (   0.0720654   0.0720654   0.0000000), wk =   0.0109739
        k(   62) = (   0.0720654   0.0720654   0.0321280), wk =   0.0219479
        k(   63) = (   0.0720654   0.0720654   0.0642561), wk =   0.0219479
        k(   64) = (   0.0720654   0.0720654   0.0963841), wk =   0.0219479
        k(   65) = (   0.0720654   0.0720654   0.1285122), wk =   0.0219479
        k(   66) = (   0.0720654   0.0960872   0.0000000), wk =   0.0219479
        k(   67) = (   0.0720654   0.0960872   0.0321280), wk =   0.0438957
        k(   68) = (   0.0720654   0.0960872   0.0642561), wk =   0.0438957
        k(   69) = (   0.0720654   0.0960872   0.0963841), wk =   0.0438957
        k(   70) = (   0.0720654   0.0960872   0.1285122), wk =   0.0438957
        k(   71) = (   0.0960872   0.0960872   0.0000000), wk =   0.0109739
        k(   72) = (   0.0960872   0.0960872   0.0321280), wk =   0.0219479
        k(   73) = (   0.0960872   0.0960872   0.0642561), wk =   0.0219479
        k(   74) = (   0.0960872   0.0960872   0.0963841), wk =   0.0219479
        k(   75) = (   0.0960872   0.0960872   0.1285122), wk =   0.0219479

     Largest allocated arrays     est. size (Mb)     dimensions
     Largest temporary arrays     est. size (Mb)     dimensions

     Initial potential from superposition of free atoms
     Check: negative starting charge=   -0.371158

     starting charge   50.99998, renormalised to   56.00000

     negative rho (up, down):  4.075E-01 0.000E+00

     *
     * You are using vdW-DF for exchange-correlation in this calculation.
     * Please cite the following three references that made this development
     * possible:
     *
     *   M. Dion, H. Rydberg, E. Schroder, D. C. Langreth, and
     *   B. I. Lundqvist, Phys. Rev. Lett. 92, 246401 (2004).
     *
     *   T. Thonhauser, V. R. Cooper, S. Li, A. Puzder, P. Hyldgaard, and
     *   D. C. Langreth, Phys. Rev. B 76, 125112 (2007).
     *
     *   G. Roman-Perez and J. M. Soler, Phys. Rev. Lett. 103, 096102 (2009).
     *
     *
     * If you are using vdW-DF2, please also cite:
     *
     *   K. Lee, E. D. Murray, L. Kong, B. I. Lundqvist, and
     *   D. C. Langreth, Phys. Rev. B 82, 081101(R) (2010).
     *
     *
     * If you are calculating the stress with vdW-DF, please also cite:
     *
     *   R. Sabatini, E. Kucukbenli, B. Kolb, T. Thonhauser, and
     *   S. de Gironcoli, J. Phys.: Condens. Matter 24, 424209 (2012).
     *

     Carrying out vdW-DF run using the following parameters:

     Nqs =      20    Nr_points =    1024   r_max =   100.000
     q_mesh =
               0.00001000     0.04494208     0.09755937     0.15916263
               0.23128650     0.31572767     0.41458969     0.53033537
               0.66584808     0.82450364     1.01025438     1.22772762
               1.48234092     1.78043706     2.12944203     2.53805004
               3.01644009     3.57652955     4.23227104     5.00000000

     Gradients computed in reciprocal space

     Starting wfc are   50 randomized atomic wfcs

     Self-consistent Calculation

     iteration #  1     ecut=    58.80 Ry     beta=0.10
     Davidson diagonalization with overlap
     ethr =  1.00E-02,  avg # of iterations =  4.3

[...]

     total energy              =    -721.07598027 Ry
     Harris-Foulkes estimate   =    -727.51394874 Ry
     estimated scf accuracy    <      38.96880686 Ry

[...]

     total energy              =    -720.98114512 Ry
     Harris-Foulkes estimate   =    -720.98114693 Ry
     estimated scf accuracy    <       0.00003455 Ry

     iteration # 11     ecut=    58.80 Ry     beta=0.10
     Davidson diagonalization with overlap
     ethr =  6.17E-08,  avg # of iterations =  1.8

     negative rho (up, down):  4.004E-01 0.000E+00

     End of self-consistent calculation

          k = 0.0000 0.0000 0.0000 (  3811 PWs)   bands (ev):

   -46.3125 -46.2874 -34.3044 -34.3044 -34.3020 -34.2963 -34.2769 -34.2769
   -14.9309 -14.9309 -14.7579 -14.7067 -14.6671 -14.6671   8.9482  11.2866
    11.6003  11.6190  11.6820  12.4676  12.4676  13.4664  13.4664  13.6966
    14.5923  15.8976  17.1963  17.4768  17.4768  17.6087  18.4280  20.3475
    20.3475  20.9994  20.9994  21.1587  22.1509  23.0331  24.4920  24.4920
    24.7744  27.1540  28.2964  28.2964  28.8309  30.5624  31.5069  32.4272

[...]

          k = 0.0961 0.0961 0.1285 (  3803 PWs)   bands (ev):

   -46.2947 -46.2939 -34.3142 -34.3141 -34.3057 -34.3049 -34.2738 -34.2730
   -14.9463 -14.9386 -14.8929 -14.8909 -14.6397 -14.6315  11.3252  11.3506
    11.6648  11.6939  12.7975  12.8243  12.8363  12.8720  14.2518  14.2965
    15.3622  15.5317  16.7340  16.7944  17.1103  17.1803  17.8279  17.8514
    20.2924  20.4714  20.6009  20.7286  21.6781  21.7361  24.2461  24.3457
    26.7488  26.9874  28.8602  28.9247  28.9685  29.0933  30.1464  30.2978

     the Fermi energy is    16.7468 ev

!    total energy              =    -720.98115710 Ry
     Harris-Foulkes estimate   =    -720.98114941 Ry
     estimated scf accuracy    <       0.00000034 Ry

     The total energy is the sum of the following terms:

     one-electron contribution =    -156.19133269 Ry
     hartree contribution      =     113.32593187 Ry
     xc contribution           =    -219.85029744 Ry
     ewald contribution        =    -458.25629169 Ry
     smearing contrib. (-TS)   =      -0.00916714 Ry

     convergence has been achieved in  11 iterations

     Forces acting on atoms (Ry/au):

     negative rho (up, down):  4.004E-01 0.000E+00
     atom    1 type  1   force =     0.00000000    0.00000000    0.00000000
     atom    2 type  1   force =     0.00000000    0.00000000    0.00000000
     atom    3 type  2   force =     0.00000000    0.00000000    0.00000000
     atom    4 type  2   force =     0.00000000    0.00000000    0.00000000

     Total force =     0.000000     Total SCF correction =     0.000000

     General routines

     Parallel routines

   This run was terminated on:   1:14:53  15Nov2017

   JOB DONE.