     Program PWSCF v.5.1rc2 starts on 14Nov2017 at  7:11:41

     Current dimensions of program PWSCF are:
     Max number of different atomic species (ntypx) = 10
     Max number of k-points (npk) =  40000
     Max angular momentum in pseudopotentials (lmaxx) =  3

     IMPORTANT: XC functional enforced from input :
     Exchange-correlation      = BEEF-VDW ( 1  4 27 13 2)
     Any further DFT definition will be discarded
     Please, verify this is what you really want

     Found symmetry operation: I + (  0.5000  0.5000  0.0000)
     This is a supercell, fractional translations are disabled

     bravais-lattice index     =            0
     lattice parameter (alat)  =       1.8897  a.u.
     unit-cell volume          =     359.9973 (a.u.)^3
     number of atoms/cell      =            4
     number of atomic types    =            2
     number of electrons       =        66.00
     number of Kohn-Sham states=           53
     kinetic-energy cutoff     =      58.7989  Ry
     charge density cutoff     =     587.9892  Ry
     convergence threshold     =      1.0E-06
     mixing beta               =       0.1000
     number of iterations used =           10  plain     mixing
     Exchange-correlation      = BEEF-VDW ( 1  4 27 13 2)

     celldm(1)=   1.889726  celldm(2)=   0.000000  celldm(3)=   0.000000
     celldm(4)=   0.000000  celldm(5)=   0.000000  celldm(6)=   0.000000

     crystal axes: (cart. coord. in units of alat)
               a(1) = (   3.702259   0.000000   0.000000 )
               a(2) = (   0.000000   3.702259   0.000000 )
               a(3) = (   0.000000   0.000000   3.891967 )

     reciprocal axes: (cart. coord. in units 2 pi/alat)
               b(1) = (  0.270105  0.000000  0.000000 )
               b(2) = (  0.000000  0.270105  0.000000 )
               b(3) = (  0.000000  0.000000  0.256940 )

     PseudoPot. # 1 for Cr read from file:
     /home/users/vossj/suncat/psp/gbrv1.5pbe/Cr.UPF
     MD5 check sum: 0d52af634a40206e4dee301ad30da4bf
     Pseudo is Ultrasoft + core correction, Zval = 14.0
     Generated by new atomic code, or converted to UPF format
     Using radial grid of  857 points,  6 beta functions with:
                l(1) =   0
                l(2) =   0
                l(3) =   1
                l(4) =   1
                l(5) =   2
                l(6) =   2
     Q(r) pseudized with  8 coefficients,  rinner =    0.950   0.950   0.950
                                                       0.950   0.950

     PseudoPot. # 2 for Ga read from file:
     /home/users/vossj/suncat/psp/gbrv1.5pbe/Ga.UPF
     MD5 check sum: ccd671392a58a050fbb373893b4fcd66
     Pseudo is Ultrasoft + core correction, Zval = 19.0
     Generated by new atomic code, or converted to UPF format
     Using radial grid of  871 points,  6 beta functions with:
                l(1) =   0
                l(2) =   0
                l(3) =   1
                l(4) =   1
                l(5) =   2
                l(6) =   2
     Q(r) pseudized with  8 coefficients,  rinner =    1.250   1.250   1.250
                                                       1.250   1.250

     vdW kernel table read from file vdW_kernel_table
     MD5 check sum: 095c7af220d748ca6e76c0b4c6cfb241

     atomic species   valence    mass     pseudopotential
        Cr1           14.00    51.99600     Cr( 1.00)
        Ga1           19.00    69.72300     Ga( 1.00)

     16 Sym. Ops., with inversion, found

   Cartesian axes

     site n.     atom                  positions (alat units)
         1           Cr1 tau(   1) = (   0.0000000   0.0000000   0.0000000  )
         2           Cr1 tau(   2) = (   1.8511293   1.8511293   0.0000000  )
         3           Ga1 tau(   3) = (   1.8511293   0.0000000   1.9459833  )
         4           Ga1 tau(   4) = (   0.0000000   1.8511293   1.9459833  )

     number of k points=    75  Fermi-Dirac smearing, width (Ry)=  0.0073
                       cart. coord. in units 2pi/alat
        k(    1) = (   0.0000000   0.0000000   0.0000000), wk =   0.0027435
        k(    2) = (   0.0000000   0.0000000   0.0285488), wk =   0.0054870
        k(    3) = (   0.0000000   0.0000000   0.0570977), wk =   0.0054870
        k(    4) = (   0.0000000   0.0000000   0.0856465), wk =   0.0054870
        k(    5) = (   0.0000000   0.0000000   0.1141953), wk =   0.0054870
        k(    6) = (   0.0000000   0.0300117   0.0000000), wk =   0.0109739
        k(    7) = (   0.0000000   0.0300117   0.0285488), wk =   0.0219479
        k(    8) = (   0.0000000   0.0300117   0.0570977), wk =   0.0219479
        k(    9) = (   0.0000000   0.0300117   0.0856465), wk =   0.0219479
        k(   10) = (   0.0000000   0.0300117   0.1141953), wk =   0.0219479
        k(   11) = (   0.0000000   0.0600234   0.0000000), wk =   0.0109739
        k(   12) = (   0.0000000   0.0600234   0.0285488), wk =   0.0219479
        k(   13) = (   0.0000000   0.0600234   0.0570977), wk =   0.0219479
        k(   14) = (   0.0000000   0.0600234   0.0856465), wk =   0.0219479
        k(   15) = (   0.0000000   0.0600234   0.1141953), wk =   0.0219479
        k(   16) = (   0.0000000   0.0900351   0.0000000), wk =   0.0109739
        k(   17) = (   0.0000000   0.0900351   0.0285488), wk =   0.0219479
        k(   18) = (   0.0000000   0.0900351   0.0570977), wk =   0.0219479
        k(   19) = (   0.0000000   0.0900351   0.0856465), wk =   0.0219479
        k(   20) = (   0.0000000   0.0900351   0.1141953), wk =   0.0219479
        k(   21) = (   0.0000000   0.1200468   0.0000000), wk =   0.0109739
        k(   22) = (   0.0000000   0.1200468   0.0285488), wk =   0.0219479
        k(   23) = (   0.0000000   0.1200468   0.0570977), wk =   0.0219479
        k(   24) = (   0.0000000   0.1200468   0.0856465), wk =   0.0219479
        k(   25) = (   0.0000000   0.1200468   0.1141953), wk =   0.0219479
        k(   26) = (   0.0300117   0.0300117   0.0000000), wk =   0.0109739
        k(   27) = (   0.0300117   0.0300117   0.0285488), wk =   0.0219479
        k(   28) = (   0.0300117   0.0300117   0.0570977), wk =   0.0219479
        k(   29) = (   0.0300117   0.0300117   0.0856465), wk =   0.0219479
        k(   30) = (   0.0300117   0.0300117   0.1141953), wk =   0.0219479
        k(   31) = (   0.0300117   0.0600234   0.0000000), wk =   0.0219479
        k(   32) = (   0.0300117   0.0600234   0.0285488), wk =   0.0438957
        k(   33) = (   0.0300117   0.0600234   0.0570977), wk =   0.0438957
        k(   34) = (   0.0300117   0.0600234   0.0856465), wk =   0.0438957
        k(   35) = (   0.0300117   0.0600234   0.1141953), wk =   0.0438957
        k(   36) = (   0.0300117   0.0900351   0.0000000), wk =   0.0219479
        k(   37) = (   0.0300117   0.0900351   0.0285488), wk =   0.0438957
        k(   38) = (   0.0300117   0.0900351   0.0570977), wk =   0.0438957
        k(   39) = (   0.0300117   0.0900351   0.0856465), wk =   0.0438957
        k(   40) = (   0.0300117   0.0900351   0.1141953), wk =   0.0438957
        k(   41) = (   0.0300117   0.1200468   0.0000000), wk =   0.0219479
        k(   42) = (   0.0300117   0.1200468   0.0285488), wk =   0.0438957
        k(   43) = (   0.0300117   0.1200468   0.0570977), wk =   0.0438957
        k(   44) = (   0.0300117   0.1200468   0.0856465), wk =   0.0438957
        k(   45) = (   0.0300117   0.1200468   0.1141953), wk =   0.0438957
        k(   46) = (   0.0600234   0.0600234   0.0000000), wk =   0.0109739
        k(   47) = (   0.0600234   0.0600234   0.0285488), wk =   0.0219479
        k(   48) = (   0.0600234   0.0600234   0.0570977), wk =   0.0219479
        k(   49) = (   0.0600234   0.0600234   0.0856465), wk =   0.0219479
        k(   50) = (   0.0600234   0.0600234   0.1141953), wk =   0.0219479
        k(   51) = (   0.0600234   0.0900351   0.0000000), wk =   0.0219479
        k(   52) = (   0.0600234   0.0900351   0.0285488), wk =   0.0438957
        k(   53) = (   0.0600234   0.0900351   0.0570977), wk =   0.0438957
        k(   54) = (   0.0600234   0.0900351   0.0856465), wk =   0.0438957
        k(   55) = (   0.0600234   0.0900351   0.1141953), wk =   0.0438957
        k(   56) = (   0.0600234   0.1200468   0.0000000), wk =   0.0219479
        k(   57) = (   0.0600234   0.1200468   0.0285488), wk =   0.0438957
        k(   58) = (   0.0600234   0.1200468   0.0570977), wk =   0.0438957
        k(   59) = (   0.0600234   0.1200468   0.0856465), wk =   0.0438957
        k(   60) = (   0.0600234   0.1200468   0.1141953), wk =   0.0438957
        k(   61) = (   0.0900351   0.0900351   0.0000000), wk =   0.0109739
        k(   62) = (   0.0900351   0.0900351   0.0285488), wk =   0.0219479
        k(   63) = (   0.0900351   0.0900351   0.0570977), wk =   0.0219479
        k(   64) = (   0.0900351   0.0900351   0.0856465), wk =   0.0219479
        k(   65) = (   0.0900351   0.0900351   0.1141953), wk =   0.0219479
        k(   66) = (   0.0900351   0.1200468   0.0000000), wk =   0.0219479
        k(   67) = (   0.0900351   0.1200468   0.0285488), wk =   0.0438957
        k(   68) = (   0.0900351   0.1200468   0.0570977), wk =   0.0438957
        k(   69) = (   0.0900351   0.1200468   0.0856465), wk =   0.0438957
        k(   70) = (   0.0900351   0.1200468   0.1141953), wk =   0.0438957
        k(   71) = (   0.1200468   0.1200468   0.0000000), wk =   0.0109739
        k(   72) = (   0.1200468   0.1200468   0.0285488), wk =   0.0219479
        k(   73) = (   0.1200468   0.1200468   0.0570977), wk =   0.0219479
        k(   74) = (   0.1200468   0.1200468   0.0856465), wk =   0.0219479
        k(   75) = (   0.1200468   0.1200468   0.1141953), wk =   0.0219479

     Largest allocated arrays     est. size (Mb)     dimensions
     Largest temporary arrays     est. size (Mb)     dimensions

     Check: negative/imaginary core charge=   -0.000005    0.000000

     Initial potential from superposition of free atoms
     Check: negative starting charge=   -0.001121

     starting charge   61.99997, renormalised to   66.00000

     negative rho (up, down):  1.193E-03 0.000E+00

     *
     * You are using vdW-DF for exchange-correlation in this calculation.
     * Please cite the following three references that made this development
     * possible:
     *
     *   M. Dion, H. Rydberg, E. Schroder, D. C. Langreth, and
     *   B. I. Lundqvist, Phys. Rev. Lett. 92, 246401 (2004).
     *
     *   T. Thonhauser, V. R. Cooper, S. Li, A. Puzder, P. Hyldgaard, and
     *   D. C. Langreth, Phys. Rev. B 76, 125112 (2007).
     *
     *   G. Roman-Perez and J. M. Soler, Phys. Rev. Lett. 103, 096102 (2009).
     *
     *
     * If you are using vdW-DF2, please also cite:
     *
     *   K. Lee, E. D. Murray, L. Kong, B. I. Lundqvist, and
     *   D. C. Langreth, Phys. Rev. B 82, 081101(R) (2010).
     *
     *
     * If you are calculating the stress with vdW-DF, please also cite:
     *
     *   R. Sabatini, E. Kucukbenli, B. Kolb, T. Thonhauser, and
     *   S. de Gironcoli, J. Phys.: Condens. Matter 24, 424209 (2012).
     *

     Carrying out vdW-DF run using the following parameters:

     Nqs =      20    Nr_points =    1024   r_max =   100.000
     q_mesh =
               0.00001000     0.04494208     0.09755937     0.15916263
               0.23128650     0.31572767     0.41458969     0.53033537
               0.66584808     0.82450364     1.01025438     1.22772762
               1.48234092     1.78043706     2.12944203     2.53805004
               3.01644009     3.57652955     4.23227104     5.00000000

     Gradients computed in reciprocal space

     Starting wfc are   44 randomized atomic wfcs +    9 random wfc

     Self-consistent Calculation

     iteration #  1     ecut=    58.80 Ry     beta=0.10
     Davidson diagonalization with overlap
     ethr =  1.00E-02,  avg # of iterations =  4.6

[...]

     total energy              =   -1174.87401467 Ry
     Harris-Foulkes estimate   =   -1193.82128144 Ry
     estimated scf accuracy    <     104.01919540 Ry

[...]

     total energy              =   -1185.76566889 Ry
     Harris-Foulkes estimate   =   -1185.76567582 Ry
     estimated scf accuracy    <       0.00001150 Ry

     iteration # 15     ecut=    58.80 Ry     beta=0.10
     Davidson diagonalization with overlap
     ethr =  1.74E-08,  avg # of iterations =  2.0

     negative rho (up, down):  1.010E-03 0.000E+00

     End of self-consistent calculation

          k = 0.0000 0.0000 0.0000 (  2721 PWs)   bands (ev):

   -78.1964 -78.1964 -78.1848 -78.1848 -78.1382 -78.1363 -55.2826 -55.1941
   -26.7309 -26.7309 -26.5688 -26.4868 -26.4118 -26.4118   1.0074   1.1047
     1.2501   1.3325   1.3325   1.5851   1.5851   1.5984   1.6620   1.8523
     5.0993  12.3481  13.8274  14.3640  15.1160  15.4507  15.4507  15.5394
    15.5394  15.9081  17.2333  17.2333  18.0015  18.7733  19.9408  21.7578
    23.1392  23.2153  26.1548  26.1548  27.2273  27.2273  29.3403  30.1915
    31.0318  31.0318  31.5717  33.0989  34.9307

[...]

          k = 0.1200 0.1200 0.1142 (  2733 PWs)   bands (ev):

   -78.1974 -78.1970 -78.1843 -78.1839 -78.1373 -78.1372 -55.2388 -55.2362
   -26.7761 -26.7667 -26.5328 -26.5302 -26.3907 -26.3809   1.1887   1.2099
     1.2715   1.2779   1.4567   1.4732   1.6009   1.6084   1.6455   1.6592
     9.8572  10.2624  12.4598  12.8003  13.9652  14.4255  14.5903  14.8635
    16.7249  16.7430  16.8156  16.8917  17.3581  17.3780  18.6998  18.7959
    21.5398  21.7778  30.2341  31.0546  31.1542  31.4632  32.9398  33.2026
    34.4818  34.5579  34.9150  35.2608  35.6486

     the Fermi energy is    16.6062 ev

!    total energy              =   -1185.76568312 Ry
     Harris-Foulkes estimate   =   -1185.76567066 Ry
     estimated scf accuracy    <       0.00000010 Ry

     The total energy is the sum of the following terms:

     one-electron contribution =    -735.09307427 Ry
     hartree contribution      =     405.20919231 Ry
     xc contribution           =    -146.47108011 Ry
     ewald contribution        =    -709.39641279 Ry
     smearing contrib. (-TS)   =      -0.01430826 Ry

     convergence has been achieved in  15 iterations

     Forces acting on atoms (Ry/au):

     negative rho (up, down):  1.010E-03 0.000E+00
     atom    1 type  1   force =     0.00000000    0.00000000    0.00000000
     atom    2 type  1   force =     0.00000000    0.00000000    0.00000000
     atom    3 type  2   force =     0.00000000    0.00000000    0.00000000
     atom    4 type  2   force =     0.00000000    0.00000000    0.00000000

     Total force =     0.000000     Total SCF correction =     0.000000

     General routines

     Parallel routines

   This run was terminated on:   7:12:29  14Nov2017

   JOB DONE.