     Program PWSCF v.5.1rc2 starts on 15Nov2017 at  4: 6:30

     Current dimensions of program PWSCF are:
     Max number of different atomic species (ntypx) = 10
     Max number of k-points (npk) =  40000
     Max angular momentum in pseudopotentials (lmaxx) =  3

     IMPORTANT: XC functional enforced from input :
     Exchange-correlation      = BEEF-VDW ( 1  4 27 13 2)
     Any further DFT definition will be discarded
     Please, verify this is what you really want

     Found symmetry operation: I + (  0.5000  0.5000  0.0000)
     This is a supercell, fractional translations are disabled

     bravais-lattice index     =            0
     lattice parameter (alat)  =       1.8897  a.u.
     unit-cell volume          =     389.4914 (a.u.)^3
     number of atoms/cell      =            4
     number of atomic types    =            2
     number of electrons       =        60.00
     number of Kohn-Sham states=           50
     kinetic-energy cutoff     =      58.7989  Ry
     charge density cutoff     =     587.9892  Ry
     convergence threshold     =      1.0E-06
     mixing beta               =       0.1000
     number of iterations used =           10  plain     mixing
     Exchange-correlation      = BEEF-VDW ( 1  4 27 13 2)

     celldm(1)=   1.889726  celldm(2)=   0.000000  celldm(3)=   0.000000
     celldm(4)=   0.000000  celldm(5)=   0.000000  celldm(6)=   0.000000

     crystal axes: (cart. coord. in units of alat)
               a(1) = (   3.861032   0.000000   0.000000 )
               a(2) = (   0.000000   3.861032   0.000000 )
               a(3) = (   0.000000   0.000000   3.871635 )

     reciprocal axes: (cart. coord. in units 2 pi/alat)
               b(1) = (  0.258998  0.000000  0.000000 )
               b(2) = (  0.000000  0.258998  0.000000 )
               b(3) = (  0.000000  0.000000  0.258289 )

     PseudoPot. # 1 for Rh read from file:
     /home/users/vossj/suncat/psp/gbrv1.5pbe/Rh.UPF
     MD5 check sum: 761627e959a2e3a1f56b0b5fe687810e
     Pseudo is Ultrasoft + core correction, Zval = 15.0
     Generated by new atomic code, or converted to UPF format
     Using radial grid of  969 points,  7 beta functions with:
                l(1) =   0
                l(2) =   0
                l(3) =   1
                l(4) =   1
                l(5) =   2
                l(6) =   2
                l(7) =   2
     Q(r) pseudized with  8 coefficients,  rinner =    1.200   1.200   1.200
                                                       1.200   1.200

     PseudoPot. # 2 for Ir read from file:
     /home/users/vossj/suncat/psp/gbrv1.5pbe/Ir.UPF
     MD5 check sum: 8836f839c3459d2b385c504ce6d91f2c
     Pseudo is Ultrasoft + core correction, Zval = 15.0
     Generated by new atomic code, or converted to UPF format
     Using radial grid of  983 points,  7 beta functions with:
                l(1) =   0
                l(2) =   0
                l(3) =   1
                l(4) =   1
                l(5) =   1
                l(6) =   2
                l(7) =   2
     Q(r) pseudized with  8 coefficients,  rinner =    1.400   1.400   1.400
                                                       1.400   1.400

     vdW kernel table read from file vdW_kernel_table
     MD5 check sum: 095c7af220d748ca6e76c0b4c6cfb241

     atomic species   valence    mass     pseudopotential
        Rh1           15.00   102.90550     Rh( 1.00)
        Ir1           15.00   192.22000     Ir( 1.00)

     16 Sym. Ops., with inversion, found

   Cartesian axes

     site n.     atom                  positions (alat units)
         1           Rh1 tau(   1) = (   0.0000000   0.0000000   0.0000000  )
         2           Rh1 tau(   2) = (   1.9305162   1.9305162   0.0000000  )
         3           Ir1 tau(   3) = (   1.9305162   0.0000000   1.9358173  )
         4           Ir1 tau(   4) = (   0.0000000   1.9305162   1.9358173  )

     number of k points=    75  Fermi-Dirac smearing, width (Ry)=  0.0073
                       cart. coord. in units 2pi/alat
        k(    1) = (   0.0000000   0.0000000   0.0000000), wk =   0.0027435
        k(    2) = (   0.0000000   0.0000000   0.0286988), wk =   0.0054870
        k(    3) = (   0.0000000   0.0000000   0.0573975), wk =   0.0054870
        k(    4) = (   0.0000000   0.0000000   0.0860963), wk =   0.0054870
        k(    5) = (   0.0000000   0.0000000   0.1147950), wk =   0.0054870
        k(    6) = (   0.0000000   0.0287776   0.0000000), wk =   0.0109739
        k(    7) = (   0.0000000   0.0287776   0.0286988), wk =   0.0219479
        k(    8) = (   0.0000000   0.0287776   0.0573975), wk =   0.0219479
        k(    9) = (   0.0000000   0.0287776   0.0860963), wk =   0.0219479
        k(   10) = (   0.0000000   0.0287776   0.1147950), wk =   0.0219479
        k(   11) = (   0.0000000   0.0575551   0.0000000), wk =   0.0109739
        k(   12) = (   0.0000000   0.0575551   0.0286988), wk =   0.0219479
        k(   13) = (   0.0000000   0.0575551   0.0573975), wk =   0.0219479
        k(   14) = (   0.0000000   0.0575551   0.0860963), wk =   0.0219479
        k(   15) = (   0.0000000   0.0575551   0.1147950), wk =   0.0219479
        k(   16) = (   0.0000000   0.0863327   0.0000000), wk =   0.0109739
        k(   17) = (   0.0000000   0.0863327   0.0286988), wk =   0.0219479
        k(   18) = (   0.0000000   0.0863327   0.0573975), wk =   0.0219479
        k(   19) = (   0.0000000   0.0863327   0.0860963), wk =   0.0219479
        k(   20) = (   0.0000000   0.0863327   0.1147950), wk =   0.0219479
        k(   21) = (   0.0000000   0.1151103   0.0000000), wk =   0.0109739
        k(   22) = (   0.0000000   0.1151103   0.0286988), wk =   0.0219479
        k(   23) = (   0.0000000   0.1151103   0.0573975), wk =   0.0219479
        k(   24) = (   0.0000000   0.1151103   0.0860963), wk =   0.0219479
        k(   25) = (   0.0000000   0.1151103   0.1147950), wk =   0.0219479
        k(   26) = (   0.0287776   0.0287776   0.0000000), wk =   0.0109739
        k(   27) = (   0.0287776   0.0287776   0.0286988), wk =   0.0219479
        k(   28) = (   0.0287776   0.0287776   0.0573975), wk =   0.0219479
        k(   29) = (   0.0287776   0.0287776   0.0860963), wk =   0.0219479
        k(   30) = (   0.0287776   0.0287776   0.1147950), wk =   0.0219479
        k(   31) = (   0.0287776   0.0575551   0.0000000), wk =   0.0219479
        k(   32) = (   0.0287776   0.0575551   0.0286988), wk =   0.0438957
        k(   33) = (   0.0287776   0.0575551   0.0573975), wk =   0.0438957
        k(   34) = (   0.0287776   0.0575551   0.0860963), wk =   0.0438957
        k(   35) = (   0.0287776   0.0575551   0.1147950), wk =   0.0438957
        k(   36) = (   0.0287776   0.0863327   0.0000000), wk =   0.0219479
        k(   37) = (   0.0287776   0.0863327   0.0286988), wk =   0.0438957
        k(   38) = (   0.0287776   0.0863327   0.0573975), wk =   0.0438957
        k(   39) = (   0.0287776   0.0863327   0.0860963), wk =   0.0438957
        k(   40) = (   0.0287776   0.0863327   0.1147950), wk =   0.0438957
        k(   41) = (   0.0287776   0.1151103   0.0000000), wk =   0.0219479
        k(   42) = (   0.0287776   0.1151103   0.0286988), wk =   0.0438957
        k(   43) = (   0.0287776   0.1151103   0.0573975), wk =   0.0438957
        k(   44) = (   0.0287776   0.1151103   0.0860963), wk =   0.0438957
        k(   45) = (   0.0287776   0.1151103   0.1147950), wk =   0.0438957
        k(   46) = (   0.0575551   0.0575551   0.0000000), wk =   0.0109739
        k(   47) = (   0.0575551   0.0575551   0.0286988), wk =   0.0219479
        k(   48) = (   0.0575551   0.0575551   0.0573975), wk =   0.0219479
        k(   49) = (   0.0575551   0.0575551   0.0860963), wk =   0.0219479
        k(   50) = (   0.0575551   0.0575551   0.1147950), wk =   0.0219479
        k(   51) = (   0.0575551   0.0863327   0.0000000), wk =   0.0219479
        k(   52) = (   0.0575551   0.0863327   0.0286988), wk =   0.0438957
        k(   53) = (   0.0575551   0.0863327   0.0573975), wk =   0.0438957
        k(   54) = (   0.0575551   0.0863327   0.0860963), wk =   0.0438957
        k(   55) = (   0.0575551   0.0863327   0.1147950), wk =   0.0438957
        k(   56) = (   0.0575551   0.1151103   0.0000000), wk =   0.0219479
        k(   57) = (   0.0575551   0.1151103   0.0286988), wk =   0.0438957
        k(   58) = (   0.0575551   0.1151103   0.0573975), wk =   0.0438957
        k(   59) = (   0.0575551   0.1151103   0.0860963), wk =   0.0438957
        k(   60) = (   0.0575551   0.1151103   0.1147950), wk =   0.0438957
        k(   61) = (   0.0863327   0.0863327   0.0000000), wk =   0.0109739
        k(   62) = (   0.0863327   0.0863327   0.0286988), wk =   0.0219479
        k(   63) = (   0.0863327   0.0863327   0.0573975), wk =   0.0219479
        k(   64) = (   0.0863327   0.0863327   0.0860963), wk =   0.0219479
        k(   65) = (   0.0863327   0.0863327   0.1147950), wk =   0.0219479
        k(   66) = (   0.0863327   0.1151103   0.0000000), wk =   0.0219479
        k(   67) = (   0.0863327   0.1151103   0.0286988), wk =   0.0438957
        k(   68) = (   0.0863327   0.1151103   0.0573975), wk =   0.0438957
        k(   69) = (   0.0863327   0.1151103   0.0860963), wk =   0.0438957
        k(   70) = (   0.0863327   0.1151103   0.1147950), wk =   0.0438957
        k(   71) = (   0.1151103   0.1151103   0.0000000), wk =   0.0109739
        k(   72) = (   0.1151103   0.1151103   0.0286988), wk =   0.0219479
        k(   73) = (   0.1151103   0.1151103   0.0573975), wk =   0.0219479
        k(   74) = (   0.1151103   0.1151103   0.0860963), wk =   0.0219479
        k(   75) = (   0.1151103   0.1151103   0.1147950), wk =   0.0219479

     Largest allocated arrays     est. size (Mb)     dimensions
     Largest temporary arrays     est. size (Mb)     dimensions

     Initial potential from superposition of free atoms
     Check: negative starting charge=   -0.842941

     starting charge   57.99974, renormalised to   60.00000

     negative rho (up, down):  8.720E-01 0.000E+00

     *
     * You are using vdW-DF for exchange-correlation in this calculation.
     * Please cite the following three references that made this development
     * possible:
     *
     *   M. Dion, H. Rydberg, E. Schroder, D. C. Langreth, and
     *   B. I. Lundqvist, Phys. Rev. Lett. 92, 246401 (2004).
     *
     *   T. Thonhauser, V. R. Cooper, S. Li, A. Puzder, P. Hyldgaard, and
     *   D. C. Langreth, Phys. Rev. B 76, 125112 (2007).
     *
     *   G. Roman-Perez and J. M. Soler, Phys. Rev. Lett. 103, 096102 (2009).
     *
     *
     * If you are using vdW-DF2, please also cite:
     *
     *   K. Lee, E. D. Murray, L. Kong, B. I. Lundqvist, and
     *   D. C. Langreth, Phys. Rev. B 82, 081101(R) (2010).
     *
     *
     * If you are calculating the stress with vdW-DF, please also cite:
     *
     *   R. Sabatini, E. Kucukbenli, B. Kolb, T. Thonhauser, and
     *   S. de Gironcoli, J. Phys.: Condens. Matter 24, 424209 (2012).
     *

     Carrying out vdW-DF run using the following parameters:

     Nqs =      20    Nr_points =    1024   r_max =   100.000
     q_mesh =
               0.00001000     0.04494208     0.09755937     0.15916263
               0.23128650     0.31572767     0.41458969     0.53033537
               0.66584808     0.82450364     1.01025438     1.22772762
               1.48234092     1.78043706     2.12944203     2.53805004
               3.01644009     3.57652955     4.23227104     5.00000000

     Gradients computed in reciprocal space

     Starting wfc are   48 randomized atomic wfcs +    2 random wfc

     Self-consistent Calculation

     iteration #  1     ecut=    58.80 Ry     beta=0.10
     Davidson diagonalization with overlap
     ethr =  1.00E-02,  avg # of iterations =  5.0

[...]

     total energy              =    -711.50798064 Ry
     Harris-Foulkes estimate   =    -712.00416172 Ry
     estimated scf accuracy    <       3.20916949 Ry

[...]

     total energy              =    -711.19781904 Ry
     Harris-Foulkes estimate   =    -711.19781779 Ry
     estimated scf accuracy    <       0.00000752 Ry

     iteration # 10     ecut=    58.80 Ry     beta=0.10
     Davidson diagonalization with overlap
     ethr =  1.25E-08,  avg # of iterations =  1.0

     negative rho (up, down):  7.674E-01 0.000E+00

     End of self-consistent calculation

          k = 0.0000 0.0000 0.0000 (  2945 PWs)   bands (ev):

   -27.8947 -27.8947 -27.7514 -27.6421 -27.5468 -27.5468 -25.2461 -25.2461
   -25.1419 -25.1163 -24.9644 -24.9644  12.6922  15.0290  15.2365  15.3111
    15.5738  15.6204  15.6204  18.5802  18.5950  18.5950  20.7318  20.7494
    22.1624  22.4498  22.4882  22.6353  22.8854  22.8854  22.9326  22.9326
    23.4996  24.4577  24.5137  24.5137  31.8627  32.7894  32.8397  33.1414
    34.0836  34.3674  34.3674  34.3980  34.4084  34.4084  34.6224  37.1129
    42.3884  42.4584

[...]

          k = 0.1151 0.1151 0.1148 (  2980 PWs)   bands (ev):

   -27.9441 -27.9342 -27.7105 -27.7083 -27.5210 -27.5105 -25.2665 -25.2580
   -25.1287 -25.1269 -24.9524 -24.9435  14.9807  15.0498  15.4842  15.4998
    18.3346  18.3815  18.3817  18.5131  18.5649  18.5663  18.6288  18.6419
    21.0436  21.1336  21.2695  21.5654  22.2332  22.2718  22.3140  22.5326
    22.6811  23.1863  23.3937  23.5298  28.6214  28.9235  30.7162  31.0154
    32.8222  32.8222  36.7344  36.7367  36.8737  36.9292  41.4000  41.5754
    41.8031  42.0193

     the Fermi energy is    21.7843 ev

!    total energy              =    -711.19783418 Ry
     Harris-Foulkes estimate   =    -711.19781993 Ry
     estimated scf accuracy    <       0.00000006 Ry

     The total energy is the sum of the following terms:

     one-electron contribution =     -69.29763195 Ry
     hartree contribution      =      89.33133574 Ry
     xc contribution           =    -166.19255760 Ry
     ewald contribution        =    -565.02732906 Ry
     smearing contrib. (-TS)   =      -0.01165131 Ry

     convergence has been achieved in  10 iterations

     Forces acting on atoms (Ry/au):

     negative rho (up, down):  7.674E-01 0.000E+00
     atom    1 type  1   force =     0.00000000    0.00000000    0.00000000
     atom    2 type  1   force =     0.00000000    0.00000000    0.00000000
     atom    3 type  2   force =     0.00000000    0.00000000    0.00000000
     atom    4 type  2   force =     0.00000000    0.00000000    0.00000000

     Total force =     0.000000     Total SCF correction =     0.000000

     General routines

     Parallel routines

   This run was terminated on:   4: 7: 5  15Nov2017

   JOB DONE.