     Program PWSCF v.5.1rc2 starts on 13Nov2017 at 14: 5:37

     Current dimensions of program PWSCF are:
     Max number of different atomic species (ntypx) = 10
     Max number of k-points (npk) =  40000
     Max angular momentum in pseudopotentials (lmaxx) =  3

     IMPORTANT: XC functional enforced from input :
     Exchange-correlation      = BEEF-VDW ( 1  4 27 13 2)
     Any further DFT definition will be discarded
     Please, verify this is what you really want

     Found symmetry operation: I + ( -0.5000 -0.5000  0.0000)
     This is a supercell, fractional translations are disabled

     bravais-lattice index     =            0
     lattice parameter (alat)  =       1.8897  a.u.
     unit-cell volume          =     439.5437 (a.u.)^3
     number of atoms/cell      =            4
     number of atomic types    =            2
     number of electrons       =        70.00
     number of Kohn-Sham states=           55
     kinetic-energy cutoff     =      58.7989  Ry
     charge density cutoff     =     587.9892  Ry
     convergence threshold     =      1.0E-06
     mixing beta               =       0.1000
     number of iterations used =           10  plain     mixing
     Exchange-correlation      = BEEF-VDW ( 1  4 27 13 2)

     celldm(1)=   1.889726  celldm(2)=   0.000000  celldm(3)=   0.000000
     celldm(4)=   0.000000  celldm(5)=   0.000000  celldm(6)=   0.000000

     crystal axes: (cart. coord. in units of alat)
               a(1) = (   3.751409   0.000000   0.000000 )
               a(2) = (   0.000000   3.751409   0.000000 )
               a(3) = (   0.000000   0.000000   4.628249 )

     reciprocal axes: (cart. coord. in units 2 pi/alat)
               b(1) = (  0.266567  0.000000  0.000000 )
               b(2) = (  0.000000  0.266567  0.000000 )
               b(3) = (  0.000000  0.000000  0.216064 )

     PseudoPot. # 1 for Ag read from file:
     /home/users/vossj/suncat/psp/gbrv1.5pbe/Ag.UPF
     MD5 check sum: d66d668201baa78d5eb5b04ef7011058
     Pseudo is Ultrasoft + core correction, Zval = 19.0
     Generated by new atomic code, or converted to UPF format
     Using radial grid of  887 points,  6 beta functions with:
                l(1) =   0
                l(2) =   0
                l(3) =   1
                l(4) =   1
                l(5) =   2
                l(6) =   2
     Q(r) pseudized with  6 coefficients,  rinner =    1.300   1.300   1.300
                                                       1.300   1.300

     PseudoPot. # 2 for Os read from file:
     /home/users/vossj/suncat/psp/gbrv1.5pbe/Os.UPF
     MD5 check sum: a3fb40a04f0c37c25c34bbc47164c9a8
     Pseudo is Ultrasoft + core correction, Zval = 16.0
     Generated by new atomic code, or converted to UPF format
     Using radial grid of  983 points,  8 beta functions with:
                l(1) =   0
                l(2) =   0
                l(3) =   1
                l(4) =   1
                l(5) =   2
                l(6) =   2
                l(7) =   3
                l(8) =   3
     Q(r) pseudized with  8 coefficients,  rinner =    1.150   1.150   1.150
                                                       1.150   1.150   1.150
                                                       1.150

     vdW kernel table read from file vdW_kernel_table
     MD5 check sum: 095c7af220d748ca6e76c0b4c6cfb241

     atomic species   valence    mass     pseudopotential
        Ag1           19.00   107.86800     Ag( 1.00)
        Os1           16.00   190.20000     Os( 1.00)

     16 Sym. Ops., with inversion, found

   Cartesian axes

     site n.     atom                  positions (alat units)
         1           Ag1 tau(   1) = (   0.0000000   0.0000000   0.0000000  )
         2           Ag1 tau(   2) = (   1.8757043   1.8757043   0.0000000  )
         3           Os1 tau(   3) = (   1.8757043   0.0000000   2.3141246  )
         4           Os1 tau(   4) = (   0.0000000   1.8757043   2.3141246  )

     number of k points=    75  Fermi-Dirac smearing, width (Ry)=  0.0073
                       cart. coord. in units 2pi/alat
        k(    1) = (   0.0000000   0.0000000   0.0000000), wk =   0.0027435
        k(    2) = (   0.0000000   0.0000000   0.0240072), wk =   0.0054870
        k(    3) = (   0.0000000   0.0000000   0.0480143), wk =   0.0054870
        k(    4) = (   0.0000000   0.0000000   0.0720215), wk =   0.0054870
        k(    5) = (   0.0000000   0.0000000   0.0960286), wk =   0.0054870
        k(    6) = (   0.0000000   0.0296185   0.0000000), wk =   0.0109739
        k(    7) = (   0.0000000   0.0296185   0.0240072), wk =   0.0219479
        k(    8) = (   0.0000000   0.0296185   0.0480143), wk =   0.0219479
        k(    9) = (   0.0000000   0.0296185   0.0720215), wk =   0.0219479
        k(   10) = (   0.0000000   0.0296185   0.0960286), wk =   0.0219479
        k(   11) = (   0.0000000   0.0592370   0.0000000), wk =   0.0109739
        k(   12) = (   0.0000000   0.0592370   0.0240072), wk =   0.0219479
        k(   13) = (   0.0000000   0.0592370   0.0480143), wk =   0.0219479
        k(   14) = (   0.0000000   0.0592370   0.0720215), wk =   0.0219479
        k(   15) = (   0.0000000   0.0592370   0.0960286), wk =   0.0219479
        k(   16) = (   0.0000000   0.0888555   0.0000000), wk =   0.0109739
        k(   17) = (   0.0000000   0.0888555   0.0240072), wk =   0.0219479
        k(   18) = (   0.0000000   0.0888555   0.0480143), wk =   0.0219479
        k(   19) = (   0.0000000   0.0888555   0.0720215), wk =   0.0219479
        k(   20) = (   0.0000000   0.0888555   0.0960286), wk =   0.0219479
        k(   21) = (   0.0000000   0.1184740   0.0000000), wk =   0.0109739
        k(   22) = (   0.0000000   0.1184740   0.0240072), wk =   0.0219479
        k(   23) = (   0.0000000   0.1184740   0.0480143), wk =   0.0219479
        k(   24) = (   0.0000000   0.1184740   0.0720215), wk =   0.0219479
        k(   25) = (   0.0000000   0.1184740   0.0960286), wk =   0.0219479
        k(   26) = (   0.0296185   0.0296185   0.0000000), wk =   0.0109739
        k(   27) = (   0.0296185   0.0296185   0.0240072), wk =   0.0219479
        k(   28) = (   0.0296185   0.0296185   0.0480143), wk =   0.0219479
        k(   29) = (   0.0296185   0.0296185   0.0720215), wk =   0.0219479
        k(   30) = (   0.0296185   0.0296185   0.0960286), wk =   0.0219479
        k(   31) = (   0.0296185   0.0592370   0.0000000), wk =   0.0219479
        k(   32) = (   0.0296185   0.0592370   0.0240072), wk =   0.0438957
        k(   33) = (   0.0296185   0.0592370   0.0480143), wk =   0.0438957
        k(   34) = (   0.0296185   0.0592370   0.0720215), wk =   0.0438957
        k(   35) = (   0.0296185   0.0592370   0.0960286), wk =   0.0438957
        k(   36) = (   0.0296185   0.0888555   0.0000000), wk =   0.0219479
        k(   37) = (   0.0296185   0.0888555   0.0240072), wk =   0.0438957
        k(   38) = (   0.0296185   0.0888555   0.0480143), wk =   0.0438957
        k(   39) = (   0.0296185   0.0888555   0.0720215), wk =   0.0438957
        k(   40) = (   0.0296185   0.0888555   0.0960286), wk =   0.0438957
        k(   41) = (   0.0296185   0.1184740   0.0000000), wk =   0.0219479
        k(   42) = (   0.0296185   0.1184740   0.0240072), wk =   0.0438957
        k(   43) = (   0.0296185   0.1184740   0.0480143), wk =   0.0438957
        k(   44) = (   0.0296185   0.1184740   0.0720215), wk =   0.0438957
        k(   45) = (   0.0296185   0.1184740   0.0960286), wk =   0.0438957
        k(   46) = (   0.0592370   0.0592370   0.0000000), wk =   0.0109739
        k(   47) = (   0.0592370   0.0592370   0.0240072), wk =   0.0219479
        k(   48) = (   0.0592370   0.0592370   0.0480143), wk =   0.0219479
        k(   49) = (   0.0592370   0.0592370   0.0720215), wk =   0.0219479
        k(   50) = (   0.0592370   0.0592370   0.0960286), wk =   0.0219479
        k(   51) = (   0.0592370   0.0888555   0.0000000), wk =   0.0219479
        k(   52) = (   0.0592370   0.0888555   0.0240072), wk =   0.0438957
        k(   53) = (   0.0592370   0.0888555   0.0480143), wk =   0.0438957
        k(   54) = (   0.0592370   0.0888555   0.0720215), wk =   0.0438957
        k(   55) = (   0.0592370   0.0888555   0.0960286), wk =   0.0438957
        k(   56) = (   0.0592370   0.1184740   0.0000000), wk =   0.0219479
        k(   57) = (   0.0592370   0.1184740   0.0240072), wk =   0.0438957
        k(   58) = (   0.0592370   0.1184740   0.0480143), wk =   0.0438957
        k(   59) = (   0.0592370   0.1184740   0.0720215), wk =   0.0438957
        k(   60) = (   0.0592370   0.1184740   0.0960286), wk =   0.0438957
        k(   61) = (   0.0888555   0.0888555   0.0000000), wk =   0.0109739
        k(   62) = (   0.0888555   0.0888555   0.0240072), wk =   0.0219479
        k(   63) = (   0.0888555   0.0888555   0.0480143), wk =   0.0219479
        k(   64) = (   0.0888555   0.0888555   0.0720215), wk =   0.0219479
        k(   65) = (   0.0888555   0.0888555   0.0960286), wk =   0.0219479
        k(   66) = (   0.0888555   0.1184740   0.0000000), wk =   0.0219479
        k(   67) = (   0.0888555   0.1184740   0.0240072), wk =   0.0438957
        k(   68) = (   0.0888555   0.1184740   0.0480143), wk =   0.0438957
        k(   69) = (   0.0888555   0.1184740   0.0720215), wk =   0.0438957
        k(   70) = (   0.0888555   0.1184740   0.0960286), wk =   0.0438957
        k(   71) = (   0.1184740   0.1184740   0.0000000), wk =   0.0109739
        k(   72) = (   0.1184740   0.1184740   0.0240072), wk =   0.0219479
        k(   73) = (   0.1184740   0.1184740   0.0480143), wk =   0.0219479
        k(   74) = (   0.1184740   0.1184740   0.0720215), wk =   0.0219479
        k(   75) = (   0.1184740   0.1184740   0.0960286), wk =   0.0219479

     Largest allocated arrays     est. size (Mb)     dimensions
     Largest temporary arrays     est. size (Mb)     dimensions

     Initial potential from superposition of free atoms
     Check: negative starting charge=   -0.249775

     starting charge   67.99983, renormalised to   70.00000

     negative rho (up, down):  2.571E-01 0.000E+00

     *
     * You are using vdW-DF for exchange-correlation in this calculation.
     * Please cite the following three references that made this development
     * possible:
     *
     *   M. Dion, H. Rydberg, E. Schroder, D. C. Langreth, and
     *   B. I. Lundqvist, Phys. Rev. Lett. 92, 246401 (2004).
     *
     *   T. Thonhauser, V. R. Cooper, S. Li, A. Puzder, P. Hyldgaard, and
     *   D. C. Langreth, Phys. Rev. B 76, 125112 (2007).
     *
     *   G. Roman-Perez and J. M. Soler, Phys. Rev. Lett. 103, 096102 (2009).
     *
     *
     * If you are using vdW-DF2, please also cite:
     *
     *   K. Lee, E. D. Murray, L. Kong, B. I. Lundqvist, and
     *   D. C. Langreth, Phys. Rev. B 82, 081101(R) (2010).
     *
     *
     * If you are calculating the stress with vdW-DF, please also cite:
     *
     *   R. Sabatini, E. Kucukbenli, B. Kolb, T. Thonhauser, and
     *   S. de Gironcoli, J. Phys.: Condens. Matter 24, 424209 (2012).
     *

     Carrying out vdW-DF run using the following parameters:

     Nqs =      20    Nr_points =    1024   r_max =   100.000
     q_mesh =
               0.00001000     0.04494208     0.09755937     0.15916263
               0.23128650     0.31572767     0.41458969     0.53033537
               0.66584808     0.82450364     1.01025438     1.22772762
               1.48234092     1.78043706     2.12944203     2.53805004
               3.01644009     3.57652955     4.23227104     5.00000000

     Gradients computed in reciprocal space

     Starting wfc are   52 randomized atomic wfcs +    3 random wfc

     Self-consistent Calculation

     iteration #  1     ecut=    58.80 Ry     beta=0.10
     Davidson diagonalization with overlap
     ethr =  1.00E-02,  avg # of iterations =  4.3

[...]

     total energy              =    -991.30189616 Ry
     Harris-Foulkes estimate   =    -994.29338920 Ry
     estimated scf accuracy    <      16.63678150 Ry

[...]

     total energy              =    -992.74795694 Ry
     Harris-Foulkes estimate   =    -992.74804257 Ry
     estimated scf accuracy    <       0.00027358 Ry

     iteration # 11     ecut=    58.80 Ry     beta=0.10
     Davidson diagonalization with overlap
     ethr =  3.78E-07,  avg # of iterations =  1.1

     negative rho (up, down):  2.416E-01 0.000E+00

     End of self-consistent calculation

          k = 0.0000 0.0000 0.0000 (  3373 PWs)   bands (ev):

   -72.4755 -72.4374 -66.6175 -66.5343 -36.0600 -36.0600 -35.9435 -35.9012
   -35.8627 -35.8627 -26.1832 -26.1832 -25.8232 -25.6879 -25.5957 -25.5957
    11.1334  13.0463  13.2184  13.3046  13.6358  13.7807  13.7807  15.2884
    15.8823  15.8823  16.4344  16.7191  17.2463  17.6323  18.6907  18.6907
    19.6175  20.2721  20.6932  20.6932  21.8487  23.2225  23.2225  23.8227
    25.4971  29.0116  30.5879  30.6796  30.6962  30.7716  30.7716  33.7069
    33.7069  35.4968  36.4614  37.6055  39.4896  39.4896  39.9841

[...]

          k = 0.1185 0.1185 0.0960 (  3329 PWs)   bands (ev):

   -72.4569 -72.4557 -66.5768 -66.5743 -36.0823 -36.0764 -35.9226 -35.9214
   -35.8510 -35.8451 -26.2583 -26.2413 -25.7567 -25.7525 -25.5588 -25.5404
    13.1386  13.1677  13.6002  13.6709  14.4385  14.4662  15.4508  15.5833
    15.8632  16.0283  16.0557  16.1142  17.7467  17.9447  18.7519  19.1275
    19.2517  19.5046  19.7895  20.4901  20.5890  20.6258  20.8801  21.1917
    25.8596  26.1136  26.7441  27.0246  32.3983  32.4969  33.2253  33.4319
    37.6442  37.9266  38.8346  39.2496  39.3901  40.2624  41.2031

     the Fermi energy is    19.9515 ev

!    total energy              =    -992.74801111 Ry
     Harris-Foulkes estimate   =    -992.74799609 Ry
     estimated scf accuracy    <       0.00000070 Ry

     The total energy is the sum of the following terms:

     one-electron contribution =    -313.60656827 Ry
     hartree contribution      =     197.94058361 Ry
     xc contribution           =    -137.66199491 Ry
     ewald contribution        =    -739.40764135 Ry
     smearing contrib. (-TS)   =      -0.01239020 Ry

     convergence has been achieved in  11 iterations

     Forces acting on atoms (Ry/au):

     negative rho (up, down):  2.416E-01 0.000E+00
     atom    1 type  1   force =     0.00000000    0.00000000    0.00000000
     atom    2 type  1   force =     0.00000000    0.00000000    0.00000000
     atom    3 type  2   force =     0.00000000    0.00000000    0.00000000
     atom    4 type  2   force =     0.00000000    0.00000000    0.00000000

     Total force =     0.000000     Total SCF correction =     0.000000

     General routines

     Parallel routines

   This run was terminated on:  14: 6:22  13Nov2017

   JOB DONE.