     Program PWSCF v.5.1rc2 starts on 15Nov2017 at  5:48:13

     Current dimensions of program PWSCF are:
     Max number of different atomic species (ntypx) = 10
     Max number of k-points (npk) =  40000
     Max angular momentum in pseudopotentials (lmaxx) =  3

     IMPORTANT: XC functional enforced from input :
     Exchange-correlation      = BEEF-VDW ( 1  4 27 13 2)
     Any further DFT definition will be discarded
     Please, verify this is what you really want

     Found symmetry operation: I + ( -0.5000 -0.5000  0.0000)
     This is a supercell, fractional translations are disabled

     bravais-lattice index     =            0
     lattice parameter (alat)  =       1.8897  a.u.
     unit-cell volume          =     516.5846 (a.u.)^3
     number of atoms/cell      =            4
     number of atomic types    =            2
     number of electrons       =        48.00
     number of Kohn-Sham states=           44
     kinetic-energy cutoff     =      58.7989  Ry
     charge density cutoff     =     587.9892  Ry
     convergence threshold     =      1.0E-06
     mixing beta               =       0.1000
     number of iterations used =           10  plain     mixing
     Exchange-correlation      = BEEF-VDW ( 1  4 27 13 2)

     celldm(1)=   1.889726  celldm(2)=   0.000000  celldm(3)=   0.000000
     celldm(4)=   0.000000  celldm(5)=   0.000000  celldm(6)=   0.000000

     crystal axes: (cart. coord. in units of alat)
               a(1) = (   4.302387   0.000000   0.000000 )
               a(2) = (   0.000000   4.302387   0.000000 )
               a(3) = (   0.000000   0.000000   4.135481 )

     reciprocal axes: (cart. coord. in units 2 pi/alat)
               b(1) = (  0.232429  0.000000  0.000000 )
               b(2) = (  0.000000  0.232429  0.000000 )
               b(3) = (  0.000000  0.000000  0.241810 )

     PseudoPot. # 1 for Ti read from file:
     /home/users/vossj/suncat/psp/gbrv1.5pbe/Ti.UPF
     MD5 check sum: 88a00a6731bd790ddea75d31a80cb452
     Pseudo is Ultrasoft + core correction, Zval = 12.0
     Generated by new atomic code, or converted to UPF format
     Using radial grid of  851 points,  6 beta functions with:
                l(1) =   0
                l(2) =   0
                l(3) =   1
                l(4) =   1
                l(5) =   2
                l(6) =   2
     Q(r) pseudized with  6 coefficients,  rinner =    1.000   1.000   1.000
                                                       1.000   1.000

     PseudoPot. # 2 for Hg read from file:
     /home/users/vossj/suncat/psp/gbrv1.5pbe/Hg.UPF
     MD5 check sum: 8f42caffe07f7fd9c0a564347f8c5498
     Pseudo is Ultrasoft + core correction, Zval = 12.0
     Generated by new atomic code, or converted to UPF format
     Using radial grid of  985 points,  6 beta functions with:
                l(1) =   0
                l(2) =   0
                l(3) =   1
                l(4) =   1
                l(5) =   2
                l(6) =   2
     Q(r) pseudized with  8 coefficients,  rinner =    2.000   2.000   2.000
                                                       2.000   2.000

     vdW kernel table read from file vdW_kernel_table
     MD5 check sum: 095c7af220d748ca6e76c0b4c6cfb241

     atomic species   valence    mass     pseudopotential
        Ti1           12.00    47.88000     Ti( 1.00)
        Hg1           12.00   200.59000     Hg( 1.00)

     16 Sym. Ops., with inversion, found

   Cartesian axes

     site n.     atom                  positions (alat units)
         1           Ti1 tau(   1) = (   0.0000000   0.0000000   0.0000000  )
         2           Ti1 tau(   2) = (   2.1511933   2.1511933   0.0000000  )
         3           Hg1 tau(   3) = (   2.1511933   0.0000000   2.0677405  )
         4           Hg1 tau(   4) = (   0.0000000   2.1511933   2.0677405  )

     number of k points=    75  Fermi-Dirac smearing, width (Ry)=  0.0073
                       cart. coord. in units 2pi/alat
        k(    1) = (   0.0000000   0.0000000   0.0000000), wk =   0.0027435
        k(    2) = (   0.0000000   0.0000000   0.0268678), wk =   0.0054870
        k(    3) = (   0.0000000   0.0000000   0.0537355), wk =   0.0054870
        k(    4) = (   0.0000000   0.0000000   0.0806033), wk =   0.0054870
        k(    5) = (   0.0000000   0.0000000   0.1074710), wk =   0.0054870
        k(    6) = (   0.0000000   0.0258255   0.0000000), wk =   0.0109739
        k(    7) = (   0.0000000   0.0258255   0.0268678), wk =   0.0219479
        k(    8) = (   0.0000000   0.0258255   0.0537355), wk =   0.0219479
        k(    9) = (   0.0000000   0.0258255   0.0806033), wk =   0.0219479
        k(   10) = (   0.0000000   0.0258255   0.1074710), wk =   0.0219479
        k(   11) = (   0.0000000   0.0516509   0.0000000), wk =   0.0109739
        k(   12) = (   0.0000000   0.0516509   0.0268678), wk =   0.0219479
        k(   13) = (   0.0000000   0.0516509   0.0537355), wk =   0.0219479
        k(   14) = (   0.0000000   0.0516509   0.0806033), wk =   0.0219479
        k(   15) = (   0.0000000   0.0516509   0.1074710), wk =   0.0219479
        k(   16) = (   0.0000000   0.0774764   0.0000000), wk =   0.0109739
        k(   17) = (   0.0000000   0.0774764   0.0268678), wk =   0.0219479
        k(   18) = (   0.0000000   0.0774764   0.0537355), wk =   0.0219479
        k(   19) = (   0.0000000   0.0774764   0.0806033), wk =   0.0219479
        k(   20) = (   0.0000000   0.0774764   0.1074710), wk =   0.0219479
        k(   21) = (   0.0000000   0.1033018   0.0000000), wk =   0.0109739
        k(   22) = (   0.0000000   0.1033018   0.0268678), wk =   0.0219479
        k(   23) = (   0.0000000   0.1033018   0.0537355), wk =   0.0219479
        k(   24) = (   0.0000000   0.1033018   0.0806033), wk =   0.0219479
        k(   25) = (   0.0000000   0.1033018   0.1074710), wk =   0.0219479
        k(   26) = (   0.0258255   0.0258255   0.0000000), wk =   0.0109739
        k(   27) = (   0.0258255   0.0258255   0.0268678), wk =   0.0219479
        k(   28) = (   0.0258255   0.0258255   0.0537355), wk =   0.0219479
        k(   29) = (   0.0258255   0.0258255   0.0806033), wk =   0.0219479
        k(   30) = (   0.0258255   0.0258255   0.1074710), wk =   0.0219479
        k(   31) = (   0.0258255   0.0516509   0.0000000), wk =   0.0219479
        k(   32) = (   0.0258255   0.0516509   0.0268678), wk =   0.0438957
        k(   33) = (   0.0258255   0.0516509   0.0537355), wk =   0.0438957
        k(   34) = (   0.0258255   0.0516509   0.0806033), wk =   0.0438957
        k(   35) = (   0.0258255   0.0516509   0.1074710), wk =   0.0438957
        k(   36) = (   0.0258255   0.0774764   0.0000000), wk =   0.0219479
        k(   37) = (   0.0258255   0.0774764   0.0268678), wk =   0.0438957
        k(   38) = (   0.0258255   0.0774764   0.0537355), wk =   0.0438957
        k(   39) = (   0.0258255   0.0774764   0.0806033), wk =   0.0438957
        k(   40) = (   0.0258255   0.0774764   0.1074710), wk =   0.0438957
        k(   41) = (   0.0258255   0.1033018   0.0000000), wk =   0.0219479
        k(   42) = (   0.0258255   0.1033018   0.0268678), wk =   0.0438957
        k(   43) = (   0.0258255   0.1033018   0.0537355), wk =   0.0438957
        k(   44) = (   0.0258255   0.1033018   0.0806033), wk =   0.0438957
        k(   45) = (   0.0258255   0.1033018   0.1074710), wk =   0.0438957
        k(   46) = (   0.0516509   0.0516509   0.0000000), wk =   0.0109739
        k(   47) = (   0.0516509   0.0516509   0.0268678), wk =   0.0219479
        k(   48) = (   0.0516509   0.0516509   0.0537355), wk =   0.0219479
        k(   49) = (   0.0516509   0.0516509   0.0806033), wk =   0.0219479
        k(   50) = (   0.0516509   0.0516509   0.1074710), wk =   0.0219479
        k(   51) = (   0.0516509   0.0774764   0.0000000), wk =   0.0219479
        k(   52) = (   0.0516509   0.0774764   0.0268678), wk =   0.0438957
        k(   53) = (   0.0516509   0.0774764   0.0537355), wk =   0.0438957
        k(   54) = (   0.0516509   0.0774764   0.0806033), wk =   0.0438957
        k(   55) = (   0.0516509   0.0774764   0.1074710), wk =   0.0438957
        k(   56) = (   0.0516509   0.1033018   0.0000000), wk =   0.0219479
        k(   57) = (   0.0516509   0.1033018   0.0268678), wk =   0.0438957
        k(   58) = (   0.0516509   0.1033018   0.0537355), wk =   0.0438957
        k(   59) = (   0.0516509   0.1033018   0.0806033), wk =   0.0438957
        k(   60) = (   0.0516509   0.1033018   0.1074710), wk =   0.0438957
        k(   61) = (   0.0774764   0.0774764   0.0000000), wk =   0.0109739
        k(   62) = (   0.0774764   0.0774764   0.0268678), wk =   0.0219479
        k(   63) = (   0.0774764   0.0774764   0.0537355), wk =   0.0219479
        k(   64) = (   0.0774764   0.0774764   0.0806033), wk =   0.0219479
        k(   65) = (   0.0774764   0.0774764   0.1074710), wk =   0.0219479
        k(   66) = (   0.0774764   0.1033018   0.0000000), wk =   0.0219479
        k(   67) = (   0.0774764   0.1033018   0.0268678), wk =   0.0438957
        k(   68) = (   0.0774764   0.1033018   0.0537355), wk =   0.0438957
        k(   69) = (   0.0774764   0.1033018   0.0806033), wk =   0.0438957
        k(   70) = (   0.0774764   0.1033018   0.1074710), wk =   0.0438957
        k(   71) = (   0.1033018   0.1033018   0.0000000), wk =   0.0109739
        k(   72) = (   0.1033018   0.1033018   0.0268678), wk =   0.0219479
        k(   73) = (   0.1033018   0.1033018   0.0537355), wk =   0.0219479
        k(   74) = (   0.1033018   0.1033018   0.0806033), wk =   0.0219479
        k(   75) = (   0.1033018   0.1033018   0.1074710), wk =   0.0219479

     Largest allocated arrays     est. size (Mb)     dimensions
     Largest temporary arrays     est. size (Mb)     dimensions

     Check: negative/imaginary core charge=   -0.000001    0.000000

     Initial potential from superposition of free atoms
     Check: negative starting charge=   -0.002684

     starting charge   45.99980, renormalised to   48.00000

     negative rho (up, down):  2.801E-03 0.000E+00

     *
     * You are using vdW-DF for exchange-correlation in this calculation.
     * Please cite the following three references that made this development
     * possible:
     *
     *   M. Dion, H. Rydberg, E. Schroder, D. C. Langreth, and
     *   B. I. Lundqvist, Phys. Rev. Lett. 92, 246401 (2004).
     *
     *   T. Thonhauser, V. R. Cooper, S. Li, A. Puzder, P. Hyldgaard, and
     *   D. C. Langreth, Phys. Rev. B 76, 125112 (2007).
     *
     *   G. Roman-Perez and J. M. Soler, Phys. Rev. Lett. 103, 096102 (2009).
     *
     *
     * If you are using vdW-DF2, please also cite:
     *
     *   K. Lee, E. D. Murray, L. Kong, B. I. Lundqvist, and
     *   D. C. Langreth, Phys. Rev. B 82, 081101(R) (2010).
     *
     *
     * If you are calculating the stress with vdW-DF, please also cite:
     *
     *   R. Sabatini, E. Kucukbenli, B. Kolb, T. Thonhauser, and
     *   S. de Gironcoli, J. Phys.: Condens. Matter 24, 424209 (2012).
     *

     Carrying out vdW-DF run using the following parameters:

     Nqs =      20    Nr_points =    1024   r_max =   100.000
     q_mesh =
               0.00001000     0.04494208     0.09755937     0.15916263
               0.23128650     0.31572767     0.41458969     0.53033537
               0.66584808     0.82450364     1.01025438     1.22772762
               1.48234092     1.78043706     2.12944203     2.53805004
               3.01644009     3.57652955     4.23227104     5.00000000

     Gradients computed in reciprocal space

     Starting wfc are   38 randomized atomic wfcs +    6 random wfc

     Self-consistent Calculation

     iteration #  1     ecut=    58.80 Ry     beta=0.10
     Davidson diagonalization with overlap
     ethr =  1.00E-02,  avg # of iterations =  4.6

[...]

     total energy              =    -457.80431017 Ry
     Harris-Foulkes estimate   =    -458.93683558 Ry
     estimated scf accuracy    <       6.30977234 Ry

[...]

     total energy              =    -458.03175639 Ry
     Harris-Foulkes estimate   =    -458.03175822 Ry
     estimated scf accuracy    <       0.00000444 Ry

     iteration # 14     ecut=    58.80 Ry     beta=0.10
     Davidson diagonalization with overlap
     ethr =  9.25E-09,  avg # of iterations =  2.0

     negative rho (up, down):  1.100E-03 0.000E+00

     End of self-consistent calculation

          k = 0.0000 0.0000 0.0000 (  3923 PWs)   bands (ev):

   -43.9294 -43.8840 -20.2887 -20.2411 -20.1523 -20.1523 -19.9543 -19.9543
     4.3200   4.8287   4.8471   5.3644   5.4176   5.4176   5.9413   6.2840
     6.2840   6.6966   7.3435  11.2825  12.8832  12.9991  13.8178  13.8178
    14.4056  14.4056  14.5403  14.6502  15.1626  15.1626  15.7412  16.3024
    17.2491  20.2235  21.0364  21.6315  21.9424  21.9424  22.9848  22.9848
    24.0256  27.3344  27.4278  27.7853

[...]

          k = 0.1033 0.1033 0.1075 (  3934 PWs)   bands (ev):

   -43.9068 -43.9054 -20.2730 -20.2715 -20.1786 -20.1727 -19.9413 -19.9352
     5.0495   5.1138   5.1499   5.1650   5.9916   6.0487   6.3064   6.3348
     6.3794   6.3993   9.3913   9.7942  11.7796  12.0734  12.4709  12.6359
    13.1384  13.2009  14.9392  15.0199  15.1470  15.1674  15.1853  15.2963
    16.6765  16.7984  19.0404  19.2422  26.3063  26.4311  26.6304  26.7762
    27.0648  27.3409  29.2025  29.2420

     the Fermi energy is    13.3639 ev

!    total energy              =    -458.03175850 Ry
     Harris-Foulkes estimate   =    -458.03175739 Ry
     estimated scf accuracy    <       0.00000026 Ry

     The total energy is the sum of the following terms:

     one-electron contribution =     -89.84675215 Ry
     hartree contribution      =      79.44718968 Ry
     xc contribution           =    -118.49438719 Ry
     ewald contribution        =    -329.12447223 Ry
     smearing contrib. (-TS)   =      -0.01333662 Ry

     convergence has been achieved in  14 iterations

     Forces acting on atoms (Ry/au):

     negative rho (up, down):  1.100E-03 0.000E+00
     atom    1 type  1   force =     0.00000000    0.00000000    0.00000000
     atom    2 type  1   force =     0.00000000    0.00000000    0.00000000
     atom    3 type  2   force =     0.00000000    0.00000000    0.00000000
     atom    4 type  2   force =     0.00000000    0.00000000    0.00000000

     Total force =     0.000000     Total SCF correction =     0.000000

     General routines

     Parallel routines

   This run was terminated on:   5:48:55  15Nov2017

   JOB DONE.