     Program PWSCF v.5.1rc2 starts on 15Nov2017 at  5:47: 6

     Current dimensions of program PWSCF are:
     Max number of different atomic species (ntypx) = 10
     Max number of k-points (npk) =  40000
     Max angular momentum in pseudopotentials (lmaxx) =  3

     IMPORTANT: XC functional enforced from input :
     Exchange-correlation      = BEEF-VDW ( 1  4 27 13 2)
     Any further DFT definition will be discarded
     Please, verify this is what you really want

     Found symmetry operation: I + ( -0.5000 -0.5000  0.0000)
     This is a supercell, fractional translations are disabled

     bravais-lattice index     =            0
     lattice parameter (alat)  =       1.8897  a.u.
     unit-cell volume          =     357.3178 (a.u.)^3
     number of atoms/cell      =            4
     number of atomic types    =            2
     number of electrons       =        54.00
     number of Kohn-Sham states=           47
     kinetic-energy cutoff     =      58.7989  Ry
     charge density cutoff     =     587.9892  Ry
     convergence threshold     =      1.0E-06
     mixing beta               =       0.1000
     number of iterations used =           10  plain     mixing
     Exchange-correlation      = BEEF-VDW ( 1  4 27 13 2)

     celldm(1)=   1.889726  celldm(2)=   0.000000  celldm(3)=   0.000000
     celldm(4)=   0.000000  celldm(5)=   0.000000  celldm(6)=   0.000000

     crystal axes: (cart. coord. in units of alat)
               a(1) = (   4.213281   0.000000   0.000000 )
               a(2) = (   0.000000   4.213281   0.000000 )
               a(3) = (   0.000000   0.000000   2.982753 )

     reciprocal axes: (cart. coord. in units 2 pi/alat)
               b(1) = (  0.237345  0.000000  0.000000 )
               b(2) = (  0.000000  0.237345  0.000000 )
               b(3) = (  0.000000  0.000000  0.335261 )

     PseudoPot. # 1 for Ti read from file:
     /home/users/vossj/suncat/psp/gbrv1.5pbe/Ti.UPF
     MD5 check sum: 88a00a6731bd790ddea75d31a80cb452
     Pseudo is Ultrasoft + core correction, Zval = 12.0
     Generated by new atomic code, or converted to UPF format
     Using radial grid of  851 points,  6 beta functions with:
                l(1) =   0
                l(2) =   0
                l(3) =   1
                l(4) =   1
                l(5) =   2
                l(6) =   2
     Q(r) pseudized with  6 coefficients,  rinner =    1.000   1.000   1.000
                                                       1.000   1.000

     PseudoPot. # 2 for Mn read from file:
     /home/users/vossj/suncat/psp/gbrv1.5pbe/Mn.UPF
     MD5 check sum: 82ef2b46521d7a7d9e736dc3972e4928
     Pseudo is Ultrasoft + core correction, Zval = 15.0
     Generated by new atomic code, or converted to UPF format
     Using radial grid of  859 points,  6 beta functions with:
                l(1) =   0
                l(2) =   0
                l(3) =   1
                l(4) =   1
                l(5) =   2
                l(6) =   2
     Q(r) pseudized with  8 coefficients,  rinner =    0.950   0.950   0.950
                                                       0.950   0.950

     vdW kernel table read from file vdW_kernel_table
     MD5 check sum: 095c7af220d748ca6e76c0b4c6cfb241

     atomic species   valence    mass     pseudopotential
        Ti1           12.00    47.88000     Ti( 1.00)
        Mn1           15.00    54.93800     Mn( 1.00)

     16 Sym. Ops., with inversion, found

   Cartesian axes

     site n.     atom                  positions (alat units)
         1           Ti1 tau(   1) = (   0.0000000   0.0000000   0.0000000  )
         2           Ti1 tau(   2) = (   2.1066404   2.1066404   0.0000000  )
         3           Mn1 tau(   3) = (   2.1066404   0.0000000   1.4913765  )
         4           Mn1 tau(   4) = (   0.0000000   2.1066404   1.4913765  )

     number of k points=    75  Fermi-Dirac smearing, width (Ry)=  0.0073
                       cart. coord. in units 2pi/alat
        k(    1) = (   0.0000000   0.0000000   0.0000000), wk =   0.0027435
        k(    2) = (   0.0000000   0.0000000   0.0372512), wk =   0.0054870
        k(    3) = (   0.0000000   0.0000000   0.0745024), wk =   0.0054870
        k(    4) = (   0.0000000   0.0000000   0.1117536), wk =   0.0054870
        k(    5) = (   0.0000000   0.0000000   0.1490048), wk =   0.0054870
        k(    6) = (   0.0000000   0.0263716   0.0000000), wk =   0.0109739
        k(    7) = (   0.0000000   0.0263716   0.0372512), wk =   0.0219479
        k(    8) = (   0.0000000   0.0263716   0.0745024), wk =   0.0219479
        k(    9) = (   0.0000000   0.0263716   0.1117536), wk =   0.0219479
        k(   10) = (   0.0000000   0.0263716   0.1490048), wk =   0.0219479
        k(   11) = (   0.0000000   0.0527433   0.0000000), wk =   0.0109739
        k(   12) = (   0.0000000   0.0527433   0.0372512), wk =   0.0219479
        k(   13) = (   0.0000000   0.0527433   0.0745024), wk =   0.0219479
        k(   14) = (   0.0000000   0.0527433   0.1117536), wk =   0.0219479
        k(   15) = (   0.0000000   0.0527433   0.1490048), wk =   0.0219479
        k(   16) = (   0.0000000   0.0791149   0.0000000), wk =   0.0109739
        k(   17) = (   0.0000000   0.0791149   0.0372512), wk =   0.0219479
        k(   18) = (   0.0000000   0.0791149   0.0745024), wk =   0.0219479
        k(   19) = (   0.0000000   0.0791149   0.1117536), wk =   0.0219479
        k(   20) = (   0.0000000   0.0791149   0.1490048), wk =   0.0219479
        k(   21) = (   0.0000000   0.1054865   0.0000000), wk =   0.0109739
        k(   22) = (   0.0000000   0.1054865   0.0372512), wk =   0.0219479
        k(   23) = (   0.0000000   0.1054865   0.0745024), wk =   0.0219479
        k(   24) = (   0.0000000   0.1054865   0.1117536), wk =   0.0219479
        k(   25) = (   0.0000000   0.1054865   0.1490048), wk =   0.0219479
        k(   26) = (   0.0263716   0.0263716   0.0000000), wk =   0.0109739
        k(   27) = (   0.0263716   0.0263716   0.0372512), wk =   0.0219479
        k(   28) = (   0.0263716   0.0263716   0.0745024), wk =   0.0219479
        k(   29) = (   0.0263716   0.0263716   0.1117536), wk =   0.0219479
        k(   30) = (   0.0263716   0.0263716   0.1490048), wk =   0.0219479
        k(   31) = (   0.0263716   0.0527433   0.0000000), wk =   0.0219479
        k(   32) = (   0.0263716   0.0527433   0.0372512), wk =   0.0438957
        k(   33) = (   0.0263716   0.0527433   0.0745024), wk =   0.0438957
        k(   34) = (   0.0263716   0.0527433   0.1117536), wk =   0.0438957
        k(   35) = (   0.0263716   0.0527433   0.1490048), wk =   0.0438957
        k(   36) = (   0.0263716   0.0791149   0.0000000), wk =   0.0219479
        k(   37) = (   0.0263716   0.0791149   0.0372512), wk =   0.0438957
        k(   38) = (   0.0263716   0.0791149   0.0745024), wk =   0.0438957
        k(   39) = (   0.0263716   0.0791149   0.1117536), wk =   0.0438957
        k(   40) = (   0.0263716   0.0791149   0.1490048), wk =   0.0438957
        k(   41) = (   0.0263716   0.1054865   0.0000000), wk =   0.0219479
        k(   42) = (   0.0263716   0.1054865   0.0372512), wk =   0.0438957
        k(   43) = (   0.0263716   0.1054865   0.0745024), wk =   0.0438957
        k(   44) = (   0.0263716   0.1054865   0.1117536), wk =   0.0438957
        k(   45) = (   0.0263716   0.1054865   0.1490048), wk =   0.0438957
        k(   46) = (   0.0527433   0.0527433   0.0000000), wk =   0.0109739
        k(   47) = (   0.0527433   0.0527433   0.0372512), wk =   0.0219479
        k(   48) = (   0.0527433   0.0527433   0.0745024), wk =   0.0219479
        k(   49) = (   0.0527433   0.0527433   0.1117536), wk =   0.0219479
        k(   50) = (   0.0527433   0.0527433   0.1490048), wk =   0.0219479
        k(   51) = (   0.0527433   0.0791149   0.0000000), wk =   0.0219479
        k(   52) = (   0.0527433   0.0791149   0.0372512), wk =   0.0438957
        k(   53) = (   0.0527433   0.0791149   0.0745024), wk =   0.0438957
        k(   54) = (   0.0527433   0.0791149   0.1117536), wk =   0.0438957
        k(   55) = (   0.0527433   0.0791149   0.1490048), wk =   0.0438957
        k(   56) = (   0.0527433   0.1054865   0.0000000), wk =   0.0219479
        k(   57) = (   0.0527433   0.1054865   0.0372512), wk =   0.0438957
        k(   58) = (   0.0527433   0.1054865   0.0745024), wk =   0.0438957
        k(   59) = (   0.0527433   0.1054865   0.1117536), wk =   0.0438957
        k(   60) = (   0.0527433   0.1054865   0.1490048), wk =   0.0438957
        k(   61) = (   0.0791149   0.0791149   0.0000000), wk =   0.0109739
        k(   62) = (   0.0791149   0.0791149   0.0372512), wk =   0.0219479
        k(   63) = (   0.0791149   0.0791149   0.0745024), wk =   0.0219479
        k(   64) = (   0.0791149   0.0791149   0.1117536), wk =   0.0219479
        k(   65) = (   0.0791149   0.0791149   0.1490048), wk =   0.0219479
        k(   66) = (   0.0791149   0.1054865   0.0000000), wk =   0.0219479
        k(   67) = (   0.0791149   0.1054865   0.0372512), wk =   0.0438957
        k(   68) = (   0.0791149   0.1054865   0.0745024), wk =   0.0438957
        k(   69) = (   0.0791149   0.1054865   0.1117536), wk =   0.0438957
        k(   70) = (   0.0791149   0.1054865   0.1490048), wk =   0.0438957
        k(   71) = (   0.1054865   0.1054865   0.0000000), wk =   0.0109739
        k(   72) = (   0.1054865   0.1054865   0.0372512), wk =   0.0219479
        k(   73) = (   0.1054865   0.1054865   0.0745024), wk =   0.0219479
        k(   74) = (   0.1054865   0.1054865   0.1117536), wk =   0.0219479
        k(   75) = (   0.1054865   0.1054865   0.1490048), wk =   0.0219479

     Largest allocated arrays     est. size (Mb)     dimensions
     Largest temporary arrays     est. size (Mb)     dimensions

     Check: negative/imaginary core charge=   -0.000038    0.000000

     Initial potential from superposition of free atoms
     Check: negative starting charge=   -0.002607

     starting charge   50.99974, renormalised to   54.00000

     negative rho (up, down):  2.760E-03 0.000E+00

     *
     * You are using vdW-DF for exchange-correlation in this calculation.
     * Please cite the following three references that made this development
     * possible:
     *
     *   M. Dion, H. Rydberg, E. Schroder, D. C. Langreth, and
     *   B. I. Lundqvist, Phys. Rev. Lett. 92, 246401 (2004).
     *
     *   T. Thonhauser, V. R. Cooper, S. Li, A. Puzder, P. Hyldgaard, and
     *   D. C. Langreth, Phys. Rev. B 76, 125112 (2007).
     *
     *   G. Roman-Perez and J. M. Soler, Phys. Rev. Lett. 103, 096102 (2009).
     *
     *
     * If you are using vdW-DF2, please also cite:
     *
     *   K. Lee, E. D. Murray, L. Kong, B. I. Lundqvist, and
     *   D. C. Langreth, Phys. Rev. B 82, 081101(R) (2010).
     *
     *
     * If you are calculating the stress with vdW-DF, please also cite:
     *
     *   R. Sabatini, E. Kucukbenli, B. Kolb, T. Thonhauser, and
     *   S. de Gironcoli, J. Phys.: Condens. Matter 24, 424209 (2012).
     *

     Carrying out vdW-DF run using the following parameters:

     Nqs =      20    Nr_points =    1024   r_max =   100.000
     q_mesh =
               0.00001000     0.04494208     0.09755937     0.15916263
               0.23128650     0.31572767     0.41458969     0.53033537
               0.66584808     0.82450364     1.01025438     1.22772762
               1.48234092     1.78043706     2.12944203     2.53805004
               3.01644009     3.57652955     4.23227104     5.00000000

     Gradients computed in reciprocal space

     Starting wfc are   46 randomized atomic wfcs +    1 random wfc

     Self-consistent Calculation

     iteration #  1     ecut=    58.80 Ry     beta=0.10
     Davidson diagonalization with overlap
     ethr =  1.00E-02,  avg # of iterations =  3.8

[...]

     total energy              =    -662.83842932 Ry
     Harris-Foulkes estimate   =    -667.94557499 Ry
     estimated scf accuracy    <      28.58952926 Ry

[...]

     total energy              =    -664.21516520 Ry
     Harris-Foulkes estimate   =    -664.21516618 Ry
     estimated scf accuracy    <       0.00001845 Ry

     iteration # 15     ecut=    58.80 Ry     beta=0.10
     Davidson diagonalization with overlap
     ethr =  3.42E-08,  avg # of iterations =  1.0

     negative rho (up, down):  1.588E-03 0.000E+00

     End of self-consistent calculation

          k = 0.0000 0.0000 0.0000 (  2713 PWs)   bands (ev):

   -62.3908 -62.3806 -40.0491 -39.9877 -31.1599 -31.1599 -31.0998 -31.0998
   -31.0991 -31.0860 -16.3841 -16.3841 -16.1322 -16.1306 -16.1306 -16.0861
     9.6724  12.8779  13.2938  13.2965  13.3117  14.9457  14.9457  16.2017
    16.2017  16.2082  17.5109  17.8458  17.9797  17.9797  18.4586  18.4685
    18.8323  20.1467  20.1470  20.1470  20.2378  20.2378  20.2629  26.3375
    26.5386  26.5779  26.5779  26.6243  32.6081  32.6081  33.0379

[...]

          k = 0.1055 0.1055 0.1490 (  2714 PWs)   bands (ev):

   -62.3810 -62.3807 -39.9902 -39.9882 -31.1595 -31.1579 -31.1562 -31.1561
   -31.0888 -31.0871 -16.3858 -16.3789 -16.3760 -16.3744 -16.0945 -16.0866
    12.9194  12.9530  13.3541  13.3816  14.9737  14.9779  14.9906  15.0428
    16.9920  17.1300  17.3999  17.6319  17.7693  18.0650  18.1769  18.3012
    18.7509  18.8099  20.1083  20.2024  20.2318  20.4069  20.4808  20.5628
    26.3998  26.4122  26.7364  26.9790  32.4737  32.5740  32.6989

     the Fermi energy is    16.2802 ev

!    total energy              =    -664.21517314 Ry
     Harris-Foulkes estimate   =    -664.21516656 Ry
     estimated scf accuracy    <       0.00000034 Ry

     The total energy is the sum of the following terms:

     one-electron contribution =    -250.61064698 Ry
     hartree contribution      =     153.45768479 Ry
     xc contribution           =     -92.75251670 Ry
     ewald contribution        =    -474.29757762 Ry
     smearing contrib. (-TS)   =      -0.01211663 Ry

     convergence has been achieved in  15 iterations

     Forces acting on atoms (Ry/au):

     negative rho (up, down):  1.588E-03 0.000E+00
     atom    1 type  1   force =     0.00000000    0.00000000    0.00000000
     atom    2 type  1   force =     0.00000000    0.00000000    0.00000000
     atom    3 type  2   force =     0.00000000    0.00000000    0.00000000
     atom    4 type  2   force =     0.00000000    0.00000000    0.00000000

     Total force =     0.000000     Total SCF correction =     0.000000

     General routines

     Parallel routines

   This run was terminated on:   5:47:42  15Nov2017

   JOB DONE.