     Program PWSCF v.5.1rc2 (svn rev. ) starts on 14Nov2017 at 23:10:34

     Current dimensions of program PWSCF are:
     Max number of different atomic species (ntypx) = 10
     Max number of k-points (npk) =  40000
     Max angular momentum in pseudopotentials (lmaxx) =  3

     IMPORTANT: XC functional enforced from input :
     Exchange-correlation      = BEEF-VDW ( 1  4 27 13 2)
     Any further DFT definition will be discarded
     Please, verify this is what you really want

     Subspace diagonalization in iterative solution of the eigenvalue problem:
     a serial algorithm will be used

     Found symmetry operation: I + ( -0.5000 -0.5000  0.0000)
     This is a supercell, fractional translations are disabled

     bravais-lattice index     =            0
     lattice parameter (alat)  =       1.8897  a.u.
     unit-cell volume          =     472.8337 (a.u.)^3
     number of atoms/cell      =            4
     number of atomic types    =            2
     number of electrons       =        58.00
     number of Kohn-Sham states=           49
     kinetic-energy cutoff     =      58.7989  Ry
     charge density cutoff     =     587.9892  Ry
     convergence threshold     =      1.0E-06
     mixing beta               =       0.1000
     number of iterations used =           10  plain     mixing
     Exchange-correlation      = BEEF-VDW ( 1  4 27 13 2)

     celldm(1)=   1.889726  celldm(2)=   0.000000  celldm(3)=   0.000000
     celldm(4)=   0.000000  celldm(5)=   0.000000  celldm(6)=   0.000000

     crystal axes: (cart. coord. in units of alat)
               a(1) = (   4.614185   0.000000   0.000000 )
               a(2) = (   0.000000   4.614185   0.000000 )
               a(3) = (   0.000000   0.000000   3.290955 )

     reciprocal axes: (cart. coord. in units 2 pi/alat)
               b(1) = (  0.216723  0.000000  0.000000 )
               b(2) = (  0.000000  0.216723  0.000000 )
               b(3) = (  0.000000  0.000000  0.303863 )

     PseudoPot. # 1 for Tc read from file:
     /home/vossj/suncat/psp/gbrv1.5pbe/Tc.UPF
     MD5 check sum: 9eb49e5b028550b2339a02317eb7b844
     Pseudo is Ultrasoft + core correction, Zval = 15.0
     Generated by new atomic code, or converted to UPF format
     Using radial grid of  965 points,  6 beta functions with:
                l(1) =   0
                l(2) =   0
                l(3) =   1
                l(4) =   1
                l(5) =   2
                l(6) =   2
     Q(r) pseudized with  8 coefficients,  rinner =    1.300   1.300   1.300
                                                       1.300   1.300

     PseudoPot. # 2 for Sn read from file:
     /home/vossj/suncat/psp/gbrv1.5pbe/Sn.UPF
     MD5 check sum: 469debedee59599fedebd795477fea03
     Pseudo is Ultrasoft + core correction, Zval = 14.0
     Generated by new atomic code, or converted to UPF format
     Using radial grid of  891 points,  6 beta functions with:
                l(1) =   0
                l(2) =   0
                l(3) =   1
                l(4) =   1
                l(5) =   2
                l(6) =   2
     Q(r) pseudized with  8 coefficients,  rinner =    1.350   1.350   1.350
                                                       1.350   1.350

     vdW kernel table read from file vdW_kernel_table
     MD5 check sum: 095c7af220d748ca6e76c0b4c6cfb241

     atomic species   valence    mass     pseudopotential
        Tc1           15.00    97.90721     Tc( 1.00)
        Sn1           14.00   118.71000     Sn( 1.00)

     16 Sym. Ops., with inversion, found

   Cartesian axes

     site n.     atom                  positions (alat units)
         1           Tc1 tau(   1) = (   0.0000000   0.0000000   0.0000000  )
         2           Tc1 tau(   2) = (   2.3070923   2.3070923   0.0000000  )
         3           Sn1 tau(   3) = (   2.3070923   0.0000000   1.6454775  )
         4           Sn1 tau(   4) = (   0.0000000   2.3070923   1.6454775  )

     number of k points=    75  Fermi-Dirac smearing, width (Ry)=  0.0073
                       cart. coord. in units 2pi/alat
        k(    1) = (   0.0000000   0.0000000   0.0000000), wk =   0.0027435
        k(    2) = (   0.0000000   0.0000000   0.0337626), wk =   0.0054870
        k(    3) = (   0.0000000   0.0000000   0.0675251), wk =   0.0054870
        k(    4) = (   0.0000000   0.0000000   0.1012877), wk =   0.0054870
        k(    5) = (   0.0000000   0.0000000   0.1350503), wk =   0.0054870
        k(    6) = (   0.0000000   0.0240803   0.0000000), wk =   0.0109739
        k(    7) = (   0.0000000   0.0240803   0.0337626), wk =   0.0219479
        k(    8) = (   0.0000000   0.0240803   0.0675251), wk =   0.0219479
        k(    9) = (   0.0000000   0.0240803   0.1012877), wk =   0.0219479
        k(   10) = (   0.0000000   0.0240803   0.1350503), wk =   0.0219479
        k(   11) = (   0.0000000   0.0481607   0.0000000), wk =   0.0109739
        k(   12) = (   0.0000000   0.0481607   0.0337626), wk =   0.0219479
        k(   13) = (   0.0000000   0.0481607   0.0675251), wk =   0.0219479
        k(   14) = (   0.0000000   0.0481607   0.1012877), wk =   0.0219479
        k(   15) = (   0.0000000   0.0481607   0.1350503), wk =   0.0219479
        k(   16) = (   0.0000000   0.0722410   0.0000000), wk =   0.0109739
        k(   17) = (   0.0000000   0.0722410   0.0337626), wk =   0.0219479
        k(   18) = (   0.0000000   0.0722410   0.0675251), wk =   0.0219479
        k(   19) = (   0.0000000   0.0722410   0.1012877), wk =   0.0219479
        k(   20) = (   0.0000000   0.0722410   0.1350503), wk =   0.0219479
        k(   21) = (   0.0000000   0.0963213   0.0000000), wk =   0.0109739
        k(   22) = (   0.0000000   0.0963213   0.0337626), wk =   0.0219479
        k(   23) = (   0.0000000   0.0963213   0.0675251), wk =   0.0219479
        k(   24) = (   0.0000000   0.0963213   0.1012877), wk =   0.0219479
        k(   25) = (   0.0000000   0.0963213   0.1350503), wk =   0.0219479
        k(   26) = (   0.0240803   0.0240803   0.0000000), wk =   0.0109739
        k(   27) = (   0.0240803   0.0240803   0.0337626), wk =   0.0219479
        k(   28) = (   0.0240803   0.0240803   0.0675251), wk =   0.0219479
        k(   29) = (   0.0240803   0.0240803   0.1012877), wk =   0.0219479
        k(   30) = (   0.0240803   0.0240803   0.1350503), wk =   0.0219479
        k(   31) = (   0.0240803   0.0481607   0.0000000), wk =   0.0219479
        k(   32) = (   0.0240803   0.0481607   0.0337626), wk =   0.0438957
        k(   33) = (   0.0240803   0.0481607   0.0675251), wk =   0.0438957
        k(   34) = (   0.0240803   0.0481607   0.1012877), wk =   0.0438957
        k(   35) = (   0.0240803   0.0481607   0.1350503), wk =   0.0438957
        k(   36) = (   0.0240803   0.0722410   0.0000000), wk =   0.0219479
        k(   37) = (   0.0240803   0.0722410   0.0337626), wk =   0.0438957
        k(   38) = (   0.0240803   0.0722410   0.0675251), wk =   0.0438957
        k(   39) = (   0.0240803   0.0722410   0.1012877), wk =   0.0438957
        k(   40) = (   0.0240803   0.0722410   0.1350503), wk =   0.0438957
        k(   41) = (   0.0240803   0.0963213   0.0000000), wk =   0.0219479
        k(   42) = (   0.0240803   0.0963213   0.0337626), wk =   0.0438957
        k(   43) = (   0.0240803   0.0963213   0.0675251), wk =   0.0438957
        k(   44) = (   0.0240803   0.0963213   0.1012877), wk =   0.0438957
        k(   45) = (   0.0240803   0.0963213   0.1350503), wk =   0.0438957
        k(   46) = (   0.0481607   0.0481607   0.0000000), wk =   0.0109739
        k(   47) = (   0.0481607   0.0481607   0.0337626), wk =   0.0219479
        k(   48) = (   0.0481607   0.0481607   0.0675251), wk =   0.0219479
        k(   49) = (   0.0481607   0.0481607   0.1012877), wk =   0.0219479
        k(   50) = (   0.0481607   0.0481607   0.1350503), wk =   0.0219479
        k(   51) = (   0.0481607   0.0722410   0.0000000), wk =   0.0219479
        k(   52) = (   0.0481607   0.0722410   0.0337626), wk =   0.0438957
        k(   53) = (   0.0481607   0.0722410   0.0675251), wk =   0.0438957
        k(   54) = (   0.0481607   0.0722410   0.1012877), wk =   0.0438957
        k(   55) = (   0.0481607   0.0722410   0.1350503), wk =   0.0438957
        k(   56) = (   0.0481607   0.0963213   0.0000000), wk =   0.0219479
        k(   57) = (   0.0481607   0.0963213   0.0337626), wk =   0.0438957
        k(   58) = (   0.0481607   0.0963213   0.0675251), wk =   0.0438957
        k(   59) = (   0.0481607   0.0963213   0.1012877), wk =   0.0438957
        k(   60) = (   0.0481607   0.0963213   0.1350503), wk =   0.0438957
        k(   61) = (   0.0722410   0.0722410   0.0000000), wk =   0.0109739
        k(   62) = (   0.0722410   0.0722410   0.0337626), wk =   0.0219479
        k(   63) = (   0.0722410   0.0722410   0.0675251), wk =   0.0219479
        k(   64) = (   0.0722410   0.0722410   0.1012877), wk =   0.0219479
        k(   65) = (   0.0722410   0.0722410   0.1350503), wk =   0.0219479
        k(   66) = (   0.0722410   0.0963213   0.0000000), wk =   0.0219479
        k(   67) = (   0.0722410   0.0963213   0.0337626), wk =   0.0438957
        k(   68) = (   0.0722410   0.0963213   0.0675251), wk =   0.0438957
        k(   69) = (   0.0722410   0.0963213   0.1012877), wk =   0.0438957
        k(   70) = (   0.0722410   0.0963213   0.1350503), wk =   0.0438957
        k(   71) = (   0.0963213   0.0963213   0.0000000), wk =   0.0109739
        k(   72) = (   0.0963213   0.0963213   0.0337626), wk =   0.0219479
        k(   73) = (   0.0963213   0.0963213   0.0675251), wk =   0.0219479
        k(   74) = (   0.0963213   0.0963213   0.1012877), wk =   0.0219479
        k(   75) = (   0.0963213   0.0963213   0.1350503), wk =   0.0219479

     Largest allocated arrays     est. size (Mb)     dimensions
     Largest temporary arrays     est. size (Mb)     dimensions

     Check: negative/imaginary core charge=   -0.000004    0.000000

     Initial potential from superposition of free atoms
     Check: negative starting charge=   -0.249235

     starting charge   53.99985, renormalised to   58.00000

     negative rho (up, down):  2.677E-01 0.000E+00

     *
     * You are using vdW-DF for exchange-correlation in this calculation.
     * Please cite the following three references that made this development
     * possible:
     *
     *   M. Dion, H. Rydberg, E. Schroder, D. C. Langreth, and
     *   B. I. Lundqvist, Phys. Rev. Lett. 92, 246401 (2004).
     *
     *   T. Thonhauser, V. R. Cooper, S. Li, A. Puzder, P. Hyldgaard, and
     *   D. C. Langreth, Phys. Rev. B 76, 125112 (2007).
     *
     *   G. Roman-Perez and J. M. Soler, Phys. Rev. Lett. 103, 096102 (2009).
     *
     *
     * If you are using vdW-DF2, please also cite:
     *
     *   K. Lee, E. D. Murray, L. Kong, B. I. Lundqvist, and
     *   D. C. Langreth, Phys. Rev. B 82, 081101(R) (2010).
     *
     *
     * If you are calculating the stress with vdW-DF, please also cite:
     *
     *   R. Sabatini, E. Kucukbenli, B. Kolb, T. Thonhauser, and
     *   S. de Gironcoli, J. Phys.: Condens. Matter 24, 424209 (2012).
     *

     Carrying out vdW-DF run using the following parameters:

     Nqs =      20    Nr_points =    1024   r_max =   100.000
     q_mesh =
               0.00001000     0.04494208     0.09755937     0.15916263
               0.23128650     0.31572767     0.41458969     0.53033537
               0.66584808     0.82450364     1.01025438     1.22772762
               1.48234092     1.78043706     2.12944203     2.53805004
               3.01644009     3.57652955     4.23227104     5.00000000

     Gradients computed in reciprocal space

     Starting wfc are   44 randomized atomic wfcs +    5 random wfc

     Self-consistent Calculation

     iteration #  1     ecut=    58.80 Ry     beta=0.10
     Davidson diagonalization with overlap
     ethr =  1.00E-02,  avg # of iterations =  5.1

[...]

     total energy              =    -672.89222221 Ry
     Harris-Foulkes estimate   =    -673.49790979 Ry
     estimated scf accuracy    <       3.88943538 Ry

[...]

     total energy              =    -672.03191881 Ry
     Harris-Foulkes estimate   =    -672.03191654 Ry
     estimated scf accuracy    <       0.00000747 Ry

     iteration # 13     ecut=    58.80 Ry     beta=0.10
     Davidson diagonalization with overlap
     ethr =  2.37E-09,  avg # of iterations =  2.0

     negative rho (up, down):  2.531E-01 0.000E+00

     End of self-consistent calculation

          k = 0.0000 0.0000 0.0000 (  3579 PWs)   bands (ev):

   -48.6895 -48.6744 -20.8015 -20.8015 -20.6988 -20.6950 -20.6950 -20.6774
    -3.9875  -3.9772  -3.9370  -3.8711  -3.8566  -3.8566  -3.7920  -3.7920
    -3.7905  -3.6752   6.5783  10.3891  14.7315  14.7315  15.1777  15.1792
    15.4874  17.1047  17.1047  18.0643  18.0643  18.1026  19.1562  20.7197
    20.7199  20.9426  20.9426  22.1558  24.5616  26.7830  28.4448  28.4448
    28.4944  28.5103  31.7225  32.6054  32.7578  32.7578  33.1755  35.0429
    35.0429

[...]

          k = 0.0963 0.0963 0.1351 (  3565 PWs)   bands (ev):

   -48.6756 -48.6752 -20.8029 -20.7998 -20.7927 -20.7918 -20.6788 -20.6756
    -3.9286  -3.9268  -3.8857  -3.8782  -3.8557  -3.8523  -3.8497  -3.8477
    -3.6872  -3.6822  10.2443  10.3261  14.2816  14.3322  14.6867  14.7215
    15.6828  15.7855  17.1074  17.1860  17.2467  17.3063  19.1289  19.1326
    20.6497  20.8530  22.1357  22.2379  24.6803  24.8537  28.3963  28.4393
    28.5212  28.7127  32.0526  32.1825  32.6444  32.7373  35.0920  35.3379
    35.5198

     the Fermi energy is    17.7358 ev

!    total energy              =    -672.03193929 Ry
     Harris-Foulkes estimate   =    -672.03191990 Ry
     estimated scf accuracy    <       0.00000050 Ry

     The total energy is the sum of the following terms:

     one-electron contribution =    -133.16506588 Ry
     hartree contribution      =     112.25005491 Ry
     xc contribution           =    -155.80648239 Ry
     ewald contribution        =    -495.29951025 Ry
     smearing contrib. (-TS)   =      -0.01093569 Ry

     convergence has been achieved in  13 iterations

     Forces acting on atoms (Ry/au):

     negative rho (up, down):  2.531E-01 0.000E+00
     atom    1 type  1   force =     0.00000000    0.00000000    0.00000000
     atom    2 type  1   force =     0.00000000    0.00000000    0.00000000
     atom    3 type  2   force =     0.00000000    0.00000000    0.00000000
     atom    4 type  2   force =     0.00000000    0.00000000    0.00000000

     Total force =     0.000000     Total SCF correction =     0.000000

     General routines

     Parallel routines

   This run was terminated on:  23:11:27  14Nov2017

   JOB DONE.