     Program PWSCF v.5.1rc2 starts on 14Nov2017 at 13:47:57

     Current dimensions of program PWSCF are:
     Max number of different atomic species (ntypx) = 10
     Max number of k-points (npk) =  40000
     Max angular momentum in pseudopotentials (lmaxx) =  3

     IMPORTANT: XC functional enforced from input :
     Exchange-correlation      = BEEF-VDW ( 1  4 27 13 2)
     Any further DFT definition will be discarded
     Please, verify this is what you really want

     Found symmetry operation: I + (  0.5000  0.5000  0.0000)
     This is a supercell, fractional translations are disabled

     bravais-lattice index     =            0
     lattice parameter (alat)  =       1.8897  a.u.
     unit-cell volume          =     651.2588 (a.u.)^3
     number of atoms/cell      =            4
     number of atomic types    =            2
     number of electrons       =        64.00
     number of Kohn-Sham states=           52
     kinetic-energy cutoff     =      58.7989  Ry
     charge density cutoff     =     587.9892  Ry
     convergence threshold     =      1.0E-06
     mixing beta               =       0.1000
     number of iterations used =           10  plain     mixing
     Exchange-correlation      = BEEF-VDW ( 1  4 27 13 2)

     celldm(1)=   1.889726  celldm(2)=   0.000000  celldm(3)=   0.000000
     celldm(4)=   0.000000  celldm(5)=   0.000000  celldm(6)=   0.000000

     crystal axes: (cart. coord. in units of alat)
               a(1) = (   4.793259   0.000000   0.000000 )
               a(2) = (   0.000000   4.793259   0.000000 )
               a(3) = (   0.000000   0.000000   4.200444 )

     reciprocal axes: (cart. coord. in units 2 pi/alat)
               b(1) = (  0.208626  0.000000  0.000000 )
               b(2) = (  0.000000  0.208626  0.000000 )
               b(3) = (  0.000000  0.000000  0.238070 )

     PseudoPot. # 1 for Ga read from file:
     /home/users/vossj/suncat/psp/gbrv1.5pbe/Ga.UPF
     MD5 check sum: ccd671392a58a050fbb373893b4fcd66
     Pseudo is Ultrasoft + core correction, Zval = 19.0
     Generated by new atomic code, or converted to UPF format
     Using radial grid of  871 points,  6 beta functions with:
                l(1) =   0
                l(2) =   0
                l(3) =   1
                l(4) =   1
                l(5) =   2
                l(6) =   2
     Q(r) pseudized with  8 coefficients,  rinner =    1.250   1.250   1.250
                                                       1.250   1.250

     PseudoPot. # 2 for In read from file:
     /home/users/vossj/suncat/psp/gbrv1.5pbe/In.UPF
     MD5 check sum: 90777abd96fbb83f2e67db2a40c566b9
     Pseudo is Ultrasoft + core correction, Zval = 13.0
     Generated by new atomic code, or converted to UPF format
     Using radial grid of  889 points,  6 beta functions with:
                l(1) =   0
                l(2) =   0
                l(3) =   1
                l(4) =   1
                l(5) =   2
                l(6) =   2
     Q(r) pseudized with  6 coefficients,  rinner =    1.400   1.400   1.400
                                                       1.400   1.400

     vdW kernel table read from file vdW_kernel_table
     MD5 check sum: 095c7af220d748ca6e76c0b4c6cfb241

     atomic species   valence    mass     pseudopotential
        Ga1           19.00    69.72300     Ga( 1.00)
        In1           13.00   114.82000     In( 1.00)

     16 Sym. Ops., with inversion, found

   Cartesian axes

     site n.     atom                  positions (alat units)
         1           Ga1 tau(   1) = (   0.0000000   0.0000000   0.0000000  )
         2           Ga1 tau(   2) = (   2.3966296   2.3966296   0.0000000  )
         3           In1 tau(   3) = (   2.3966296   0.0000000   2.1002218  )
         4           In1 tau(   4) = (   0.0000000   2.3966296   2.1002218  )

     number of k points=    75  Fermi-Dirac smearing, width (Ry)=  0.0073
                       cart. coord. in units 2pi/alat
        k(    1) = (   0.0000000   0.0000000   0.0000000), wk =   0.0027435
        k(    2) = (   0.0000000   0.0000000   0.0264522), wk =   0.0054870
        k(    3) = (   0.0000000   0.0000000   0.0529045), wk =   0.0054870
        k(    4) = (   0.0000000   0.0000000   0.0793567), wk =   0.0054870
        k(    5) = (   0.0000000   0.0000000   0.1058089), wk =   0.0054870
        k(    6) = (   0.0000000   0.0231807   0.0000000), wk =   0.0109739
        k(    7) = (   0.0000000   0.0231807   0.0264522), wk =   0.0219479
        k(    8) = (   0.0000000   0.0231807   0.0529045), wk =   0.0219479
        k(    9) = (   0.0000000   0.0231807   0.0793567), wk =   0.0219479
        k(   10) = (   0.0000000   0.0231807   0.1058089), wk =   0.0219479
        k(   11) = (   0.0000000   0.0463614   0.0000000), wk =   0.0109739
        k(   12) = (   0.0000000   0.0463614   0.0264522), wk =   0.0219479
        k(   13) = (   0.0000000   0.0463614   0.0529045), wk =   0.0219479
        k(   14) = (   0.0000000   0.0463614   0.0793567), wk =   0.0219479
        k(   15) = (   0.0000000   0.0463614   0.1058089), wk =   0.0219479
        k(   16) = (   0.0000000   0.0695421   0.0000000), wk =   0.0109739
        k(   17) = (   0.0000000   0.0695421   0.0264522), wk =   0.0219479
        k(   18) = (   0.0000000   0.0695421   0.0529045), wk =   0.0219479
        k(   19) = (   0.0000000   0.0695421   0.0793567), wk =   0.0219479
        k(   20) = (   0.0000000   0.0695421   0.1058089), wk =   0.0219479
        k(   21) = (   0.0000000   0.0927228   0.0000000), wk =   0.0109739
        k(   22) = (   0.0000000   0.0927228   0.0264522), wk =   0.0219479
        k(   23) = (   0.0000000   0.0927228   0.0529045), wk =   0.0219479
        k(   24) = (   0.0000000   0.0927228   0.0793567), wk =   0.0219479
        k(   25) = (   0.0000000   0.0927228   0.1058089), wk =   0.0219479
        k(   26) = (   0.0231807   0.0231807   0.0000000), wk =   0.0109739
        k(   27) = (   0.0231807   0.0231807   0.0264522), wk =   0.0219479
        k(   28) = (   0.0231807   0.0231807   0.0529045), wk =   0.0219479
        k(   29) = (   0.0231807   0.0231807   0.0793567), wk =   0.0219479
        k(   30) = (   0.0231807   0.0231807   0.1058089), wk =   0.0219479
        k(   31) = (   0.0231807   0.0463614   0.0000000), wk =   0.0219479
        k(   32) = (   0.0231807   0.0463614   0.0264522), wk =   0.0438957
        k(   33) = (   0.0231807   0.0463614   0.0529045), wk =   0.0438957
        k(   34) = (   0.0231807   0.0463614   0.0793567), wk =   0.0438957
        k(   35) = (   0.0231807   0.0463614   0.1058089), wk =   0.0438957
        k(   36) = (   0.0231807   0.0695421   0.0000000), wk =   0.0219479
        k(   37) = (   0.0231807   0.0695421   0.0264522), wk =   0.0438957
        k(   38) = (   0.0231807   0.0695421   0.0529045), wk =   0.0438957
        k(   39) = (   0.0231807   0.0695421   0.0793567), wk =   0.0438957
        k(   40) = (   0.0231807   0.0695421   0.1058089), wk =   0.0438957
        k(   41) = (   0.0231807   0.0927228   0.0000000), wk =   0.0219479
        k(   42) = (   0.0231807   0.0927228   0.0264522), wk =   0.0438957
        k(   43) = (   0.0231807   0.0927228   0.0529045), wk =   0.0438957
        k(   44) = (   0.0231807   0.0927228   0.0793567), wk =   0.0438957
        k(   45) = (   0.0231807   0.0927228   0.1058089), wk =   0.0438957
        k(   46) = (   0.0463614   0.0463614   0.0000000), wk =   0.0109739
        k(   47) = (   0.0463614   0.0463614   0.0264522), wk =   0.0219479
        k(   48) = (   0.0463614   0.0463614   0.0529045), wk =   0.0219479
        k(   49) = (   0.0463614   0.0463614   0.0793567), wk =   0.0219479
        k(   50) = (   0.0463614   0.0463614   0.1058089), wk =   0.0219479
        k(   51) = (   0.0463614   0.0695421   0.0000000), wk =   0.0219479
        k(   52) = (   0.0463614   0.0695421   0.0264522), wk =   0.0438957
        k(   53) = (   0.0463614   0.0695421   0.0529045), wk =   0.0438957
        k(   54) = (   0.0463614   0.0695421   0.0793567), wk =   0.0438957
        k(   55) = (   0.0463614   0.0695421   0.1058089), wk =   0.0438957
        k(   56) = (   0.0463614   0.0927228   0.0000000), wk =   0.0219479
        k(   57) = (   0.0463614   0.0927228   0.0264522), wk =   0.0438957
        k(   58) = (   0.0463614   0.0927228   0.0529045), wk =   0.0438957
        k(   59) = (   0.0463614   0.0927228   0.0793567), wk =   0.0438957
        k(   60) = (   0.0463614   0.0927228   0.1058089), wk =   0.0438957
        k(   61) = (   0.0695421   0.0695421   0.0000000), wk =   0.0109739
        k(   62) = (   0.0695421   0.0695421   0.0264522), wk =   0.0219479
        k(   63) = (   0.0695421   0.0695421   0.0529045), wk =   0.0219479
        k(   64) = (   0.0695421   0.0695421   0.0793567), wk =   0.0219479
        k(   65) = (   0.0695421   0.0695421   0.1058089), wk =   0.0219479
        k(   66) = (   0.0695421   0.0927228   0.0000000), wk =   0.0219479
        k(   67) = (   0.0695421   0.0927228   0.0264522), wk =   0.0438957
        k(   68) = (   0.0695421   0.0927228   0.0529045), wk =   0.0438957
        k(   69) = (   0.0695421   0.0927228   0.0793567), wk =   0.0438957
        k(   70) = (   0.0695421   0.0927228   0.1058089), wk =   0.0438957
        k(   71) = (   0.0927228   0.0927228   0.0000000), wk =   0.0109739
        k(   72) = (   0.0927228   0.0927228   0.0264522), wk =   0.0219479
        k(   73) = (   0.0927228   0.0927228   0.0529045), wk =   0.0219479
        k(   74) = (   0.0927228   0.0927228   0.0793567), wk =   0.0219479
        k(   75) = (   0.0927228   0.0927228   0.1058089), wk =   0.0219479

     Largest allocated arrays     est. size (Mb)     dimensions
     Largest temporary arrays     est. size (Mb)     dimensions

     Initial potential from superposition of free atoms

     starting charge   59.00000, renormalised to   64.00000

     *
     * You are using vdW-DF for exchange-correlation in this calculation.
     * Please cite the following three references that made this development
     * possible:
     *
     *   M. Dion, H. Rydberg, E. Schroder, D. C. Langreth, and
     *   B. I. Lundqvist, Phys. Rev. Lett. 92, 246401 (2004).
     *
     *   T. Thonhauser, V. R. Cooper, S. Li, A. Puzder, P. Hyldgaard, and
     *   D. C. Langreth, Phys. Rev. B 76, 125112 (2007).
     *
     *   G. Roman-Perez and J. M. Soler, Phys. Rev. Lett. 103, 096102 (2009).
     *
     *
     * If you are using vdW-DF2, please also cite:
     *
     *   K. Lee, E. D. Murray, L. Kong, B. I. Lundqvist, and
     *   D. C. Langreth, Phys. Rev. B 82, 081101(R) (2010).
     *
     *
     * If you are calculating the stress with vdW-DF, please also cite:
     *
     *   R. Sabatini, E. Kucukbenli, B. Kolb, T. Thonhauser, and
     *   S. de Gironcoli, J. Phys.: Condens. Matter 24, 424209 (2012).
     *

     Carrying out vdW-DF run using the following parameters:

     Nqs =      20    Nr_points =    1024   r_max =   100.000
     q_mesh =
               0.00001000     0.04494208     0.09755937     0.15916263
               0.23128650     0.31572767     0.41458969     0.53033537
               0.66584808     0.82450364     1.01025438     1.22772762
               1.48234092     1.78043706     2.12944203     2.53805004
               3.01644009     3.57652955     4.23227104     5.00000000

     Gradients computed in reciprocal space

     Starting wfc are   42 randomized atomic wfcs +   10 random wfc

     Self-consistent Calculation

     iteration #  1     ecut=    58.80 Ry     beta=0.10
     Davidson diagonalization with overlap
     ethr =  1.00E-02,  avg # of iterations =  4.8

     total energy              =   -1088.31126678 Ry
     Harris-Foulkes estimate   =   -1119.03775005 Ry
     estimated scf accuracy    <     172.78343948 Ry

[...]

     total energy              =   -1102.76714698 Ry
     Harris-Foulkes estimate   =   -1102.76715313 Ry
     estimated scf accuracy    <       0.00002039 Ry

     iteration # 12     ecut=    58.80 Ry     beta=0.10
     Davidson diagonalization with overlap
     ethr =  6.02E-09,  avg # of iterations =  2.2

     End of self-consistent calculation

          k = 0.0000 0.0000 0.0000 (  4971 PWs)   bands (ev):

   -85.2693 -85.2693 -85.2690 -85.2690 -85.2679 -85.2679  -5.7095  -5.7095
    -5.6868  -5.6636  -5.6612  -5.6418  -5.6209  -5.6209  -5.5708  -5.5172
    -5.4490  -5.3562  -5.3326  -5.2201  -5.2201  -5.2008  -5.1946  -5.1946
    -5.1915  -5.0998  -0.1891   5.7954   6.9855   7.0400   7.0400   8.5045
     8.5527  12.5593  12.5593  13.4343  14.9102  14.9156  14.9156  15.7091
    16.3983  17.4063  18.0613  18.0613  18.5032  19.9322  20.2689  20.2689
    22.8176  23.8987  23.8987  24.4512

[...]

          k = 0.0927 0.0927 0.1058 (  4966 PWs)   bands (ev):

   -85.2693 -85.2693 -85.2690 -85.2690 -85.2679 -85.2679  -5.6416  -5.6410
    -5.6285  -5.6282  -5.6275  -5.6241  -5.6240  -5.6210  -5.5676  -5.5664
    -5.3896  -5.3815  -5.3622  -5.3603  -5.2391  -5.2333  -5.2006  -5.1970
    -5.1714  -5.1637   4.1282   4.4850   5.0795   5.2270   6.4431   6.4737
     6.6479   7.1820  15.5658  15.8886  17.2470  17.6280  17.6827  17.8456
    18.2215  18.5276  20.6693  20.9638  21.4778  21.5016  21.8061  21.8551
    21.8585  22.6395  22.6793  22.7663

     the Fermi energy is     9.5266 ev

!    total energy              =   -1102.76716707 Ry
     Harris-Foulkes estimate   =   -1102.76715021 Ry
     estimated scf accuracy    <       0.00000086 Ry

     The total energy is the sum of the following terms:

     one-electron contribution =    -817.64953080 Ry
     hartree contribution      =     444.35586415 Ry
     xc contribution           =    -177.70663162 Ry
     ewald contribution        =    -551.76302635 Ry
     smearing contrib. (-TS)   =      -0.00384246 Ry

     convergence has been achieved in  12 iterations

     Forces acting on atoms (Ry/au):

     atom    1 type  1   force =     0.00000000    0.00000000    0.00000000
     atom    2 type  1   force =     0.00000000    0.00000000    0.00000000
     atom    3 type  2   force =     0.00000000    0.00000000    0.00000000
     atom    4 type  2   force =     0.00000000    0.00000000    0.00000000

     Total force =     0.000000     Total SCF correction =     0.000000

     General routines

     Parallel routines

   This run was terminated on:  13:49: 9  14Nov2017

   JOB DONE.