     Program PWSCF v.5.1rc2 starts on 15Nov2017 at  8: 2:31

     Current dimensions of program PWSCF are:
     Max number of different atomic species (ntypx) = 10
     Max number of k-points (npk) =  40000
     Max angular momentum in pseudopotentials (lmaxx) =  3

     IMPORTANT: XC functional enforced from input :
     Exchange-correlation      = BEEF-VDW ( 1  4 27 13 2)
     Any further DFT definition will be discarded
     Please, verify this is what you really want

     Found symmetry operation: I + ( -0.5000 -0.5000  0.0000)
     This is a supercell, fractional translations are disabled

     bravais-lattice index     =            0
     lattice parameter (alat)  =       1.8897  a.u.
     unit-cell volume          =     528.0378 (a.u.)^3
     number of atoms/cell      =            4
     number of atomic types    =            2
     number of electrons       =        46.00
     number of Kohn-Sham states=           43
     kinetic-energy cutoff     =      58.7989  Ry
     charge density cutoff     =     587.9892  Ry
     convergence threshold     =      1.0E-06
     mixing beta               =       0.1000
     number of iterations used =           10  plain     mixing
     Exchange-correlation      = BEEF-VDW ( 1  4 27 13 2)

     celldm(1)=   1.889726  celldm(2)=   0.000000  celldm(3)=   0.000000
     celldm(4)=   0.000000  celldm(5)=   0.000000  celldm(6)=   0.000000

     crystal axes: (cart. coord. in units of alat)
               a(1) = (   4.450062   0.000000   0.000000 )
               a(2) = (   0.000000   4.450062   0.000000 )
               a(3) = (   0.000000   0.000000   3.951267 )

     reciprocal axes: (cart. coord. in units 2 pi/alat)
               b(1) = (  0.224716  0.000000  0.000000 )
               b(2) = (  0.000000  0.224716  0.000000 )
               b(3) = (  0.000000  0.000000  0.253083 )

     PseudoPot. # 1 for Hf read from file:
     /home/users/vossj/suncat/psp/gbrv1.5pbe/Hf.UPF
     MD5 check sum: 8ee9378dfe14276e333edf04c5e4aa26
     Pseudo is Ultrasoft + core correction, Zval = 12.0
     Generated by new atomic code, or converted to UPF format
     Using radial grid of  921 points,  8 beta functions with:
                l(1) =   0
                l(2) =   0
                l(3) =   0
                l(4) =   1
                l(5) =   1
                l(6) =   2
                l(7) =   2
                l(8) =   3
     Q(r) pseudized with  6 coefficients,  rinner =    1.200   1.200   1.200
                                                       1.200   1.200   1.200
                                                       1.200

     PseudoPot. # 2 for Au read from file:
     /home/users/vossj/suncat/psp/gbrv1.5pbe/Au.UPF
     MD5 check sum: 9d7f43293ad2c663164586bc4b293ffc
     Pseudo is Ultrasoft + core correction, Zval = 11.0
     Generated by new atomic code, or converted to UPF format
     Using radial grid of  985 points,  7 beta functions with:
                l(1) =   0
                l(2) =   0
                l(3) =   1
                l(4) =   1
                l(5) =   2
                l(6) =   2
                l(7) =   3
     Q(r) pseudized with  6 coefficients,  rinner =    1.900   1.900   1.900
                                                       1.900   1.900   1.900
                                                       1.900

     vdW kernel table read from file vdW_kernel_table
     MD5 check sum: 095c7af220d748ca6e76c0b4c6cfb241

     atomic species   valence    mass     pseudopotential
        Hf1           12.00   178.49000     Hf( 1.00)
        Au1           11.00   196.96650     Au( 1.00)

     16 Sym. Ops., with inversion, found

   Cartesian axes

     site n.     atom                  positions (alat units)
         1           Hf1 tau(   1) = (   0.0000000   0.0000000   0.0000000  )
         2           Hf1 tau(   2) = (   2.2250308   2.2250308   0.0000000  )
         3           Au1 tau(   3) = (   2.2250308   0.0000000   1.9756335  )
         4           Au1 tau(   4) = (   0.0000000   2.2250308   1.9756335  )

     number of k points=    75  Fermi-Dirac smearing, width (Ry)=  0.0073
                       cart. coord. in units 2pi/alat
        k(    1) = (   0.0000000   0.0000000   0.0000000), wk =   0.0027435
        k(    2) = (   0.0000000   0.0000000   0.0281204), wk =   0.0054870
        k(    3) = (   0.0000000   0.0000000   0.0562408), wk =   0.0054870
        k(    4) = (   0.0000000   0.0000000   0.0843611), wk =   0.0054870
        k(    5) = (   0.0000000   0.0000000   0.1124815), wk =   0.0054870
        k(    6) = (   0.0000000   0.0249684   0.0000000), wk =   0.0109739
        k(    7) = (   0.0000000   0.0249684   0.0281204), wk =   0.0219479
        k(    8) = (   0.0000000   0.0249684   0.0562408), wk =   0.0219479
        k(    9) = (   0.0000000   0.0249684   0.0843611), wk =   0.0219479
        k(   10) = (   0.0000000   0.0249684   0.1124815), wk =   0.0219479
        k(   11) = (   0.0000000   0.0499369   0.0000000), wk =   0.0109739
        k(   12) = (   0.0000000   0.0499369   0.0281204), wk =   0.0219479
        k(   13) = (   0.0000000   0.0499369   0.0562408), wk =   0.0219479
        k(   14) = (   0.0000000   0.0499369   0.0843611), wk =   0.0219479
        k(   15) = (   0.0000000   0.0499369   0.1124815), wk =   0.0219479
        k(   16) = (   0.0000000   0.0749053   0.0000000), wk =   0.0109739
        k(   17) = (   0.0000000   0.0749053   0.0281204), wk =   0.0219479
        k(   18) = (   0.0000000   0.0749053   0.0562408), wk =   0.0219479
        k(   19) = (   0.0000000   0.0749053   0.0843611), wk =   0.0219479
        k(   20) = (   0.0000000   0.0749053   0.1124815), wk =   0.0219479
        k(   21) = (   0.0000000   0.0998738   0.0000000), wk =   0.0109739
        k(   22) = (   0.0000000   0.0998738   0.0281204), wk =   0.0219479
        k(   23) = (   0.0000000   0.0998738   0.0562408), wk =   0.0219479
        k(   24) = (   0.0000000   0.0998738   0.0843611), wk =   0.0219479
        k(   25) = (   0.0000000   0.0998738   0.1124815), wk =   0.0219479
        k(   26) = (   0.0249684   0.0249684   0.0000000), wk =   0.0109739
        k(   27) = (   0.0249684   0.0249684   0.0281204), wk =   0.0219479
        k(   28) = (   0.0249684   0.0249684   0.0562408), wk =   0.0219479
        k(   29) = (   0.0249684   0.0249684   0.0843611), wk =   0.0219479
        k(   30) = (   0.0249684   0.0249684   0.1124815), wk =   0.0219479
        k(   31) = (   0.0249684   0.0499369   0.0000000), wk =   0.0219479
        k(   32) = (   0.0249684   0.0499369   0.0281204), wk =   0.0438957
        k(   33) = (   0.0249684   0.0499369   0.0562408), wk =   0.0438957
        k(   34) = (   0.0249684   0.0499369   0.0843611), wk =   0.0438957
        k(   35) = (   0.0249684   0.0499369   0.1124815), wk =   0.0438957
        k(   36) = (   0.0249684   0.0749053   0.0000000), wk =   0.0219479
        k(   37) = (   0.0249684   0.0749053   0.0281204), wk =   0.0438957
        k(   38) = (   0.0249684   0.0749053   0.0562408), wk =   0.0438957
        k(   39) = (   0.0249684   0.0749053   0.0843611), wk =   0.0438957
        k(   40) = (   0.0249684   0.0749053   0.1124815), wk =   0.0438957
        k(   41) = (   0.0249684   0.0998738   0.0000000), wk =   0.0219479
        k(   42) = (   0.0249684   0.0998738   0.0281204), wk =   0.0438957
        k(   43) = (   0.0249684   0.0998738   0.0562408), wk =   0.0438957
        k(   44) = (   0.0249684   0.0998738   0.0843611), wk =   0.0438957
        k(   45) = (   0.0249684   0.0998738   0.1124815), wk =   0.0438957
        k(   46) = (   0.0499369   0.0499369   0.0000000), wk =   0.0109739
        k(   47) = (   0.0499369   0.0499369   0.0281204), wk =   0.0219479
        k(   48) = (   0.0499369   0.0499369   0.0562408), wk =   0.0219479
        k(   49) = (   0.0499369   0.0499369   0.0843611), wk =   0.0219479
        k(   50) = (   0.0499369   0.0499369   0.1124815), wk =   0.0219479
        k(   51) = (   0.0499369   0.0749053   0.0000000), wk =   0.0219479
        k(   52) = (   0.0499369   0.0749053   0.0281204), wk =   0.0438957
        k(   53) = (   0.0499369   0.0749053   0.0562408), wk =   0.0438957
        k(   54) = (   0.0499369   0.0749053   0.0843611), wk =   0.0438957
        k(   55) = (   0.0499369   0.0749053   0.1124815), wk =   0.0438957
        k(   56) = (   0.0499369   0.0998738   0.0000000), wk =   0.0219479
        k(   57) = (   0.0499369   0.0998738   0.0281204), wk =   0.0438957
        k(   58) = (   0.0499369   0.0998738   0.0562408), wk =   0.0438957
        k(   59) = (   0.0499369   0.0998738   0.0843611), wk =   0.0438957
        k(   60) = (   0.0499369   0.0998738   0.1124815), wk =   0.0438957
        k(   61) = (   0.0749053   0.0749053   0.0000000), wk =   0.0109739
        k(   62) = (   0.0749053   0.0749053   0.0281204), wk =   0.0219479
        k(   63) = (   0.0749053   0.0749053   0.0562408), wk =   0.0219479
        k(   64) = (   0.0749053   0.0749053   0.0843611), wk =   0.0219479
        k(   65) = (   0.0749053   0.0749053   0.1124815), wk =   0.0219479
        k(   66) = (   0.0749053   0.0998738   0.0000000), wk =   0.0219479
        k(   67) = (   0.0749053   0.0998738   0.0281204), wk =   0.0438957
        k(   68) = (   0.0749053   0.0998738   0.0562408), wk =   0.0438957
        k(   69) = (   0.0749053   0.0998738   0.0843611), wk =   0.0438957
        k(   70) = (   0.0749053   0.0998738   0.1124815), wk =   0.0438957
        k(   71) = (   0.0998738   0.0998738   0.0000000), wk =   0.0109739
        k(   72) = (   0.0998738   0.0998738   0.0281204), wk =   0.0219479
        k(   73) = (   0.0998738   0.0998738   0.0562408), wk =   0.0219479
        k(   74) = (   0.0998738   0.0998738   0.0843611), wk =   0.0219479
        k(   75) = (   0.0998738   0.0998738   0.1124815), wk =   0.0219479

     Largest allocated arrays     est. size (Mb)     dimensions
     Largest temporary arrays     est. size (Mb)     dimensions

     Initial potential from superposition of free atoms
     Check: negative starting charge=   -0.214646

     starting charge   41.99975, renormalised to   46.00000

     negative rho (up, down):  2.351E-01 0.000E+00

     *
     * You are using vdW-DF for exchange-correlation in this calculation.
     * Please cite the following three references that made this development
     * possible:
     *
     *   M. Dion, H. Rydberg, E. Schroder, D. C. Langreth, and
     *   B. I. Lundqvist, Phys. Rev. Lett. 92, 246401 (2004).
     *
     *   T. Thonhauser, V. R. Cooper, S. Li, A. Puzder, P. Hyldgaard, and
     *   D. C. Langreth, Phys. Rev. B 76, 125112 (2007).
     *
     *   G. Roman-Perez and J. M. Soler, Phys. Rev. Lett. 103, 096102 (2009).
     *
     *
     * If you are using vdW-DF2, please also cite:
     *
     *   K. Lee, E. D. Murray, L. Kong, B. I. Lundqvist, and
     *   D. C. Langreth, Phys. Rev. B 82, 081101(R) (2010).
     *
     *
     * If you are calculating the stress with vdW-DF, please also cite:
     *
     *   R. Sabatini, E. Kucukbenli, B. Kolb, T. Thonhauser, and
     *   S. de Gironcoli, J. Phys.: Condens. Matter 24, 424209 (2012).
     *

     Carrying out vdW-DF run using the following parameters:

     Nqs =      20    Nr_points =    1024   r_max =   100.000
     q_mesh =
               0.00001000     0.04494208     0.09755937     0.15916263
               0.23128650     0.31572767     0.41458969     0.53033537
               0.66584808     0.82450364     1.01025438     1.22772762
               1.48234092     1.78043706     2.12944203     2.53805004
               3.01644009     3.57652955     4.23227104     5.00000000

     Gradients computed in reciprocal space

     Starting wfc are   44 randomized atomic wfcs

     Self-consistent Calculation

     iteration #  1     ecut=    58.80 Ry     beta=0.10
     Davidson diagonalization with overlap
     ethr =  1.00E-02,  avg # of iterations =  4.4

[...]

     total energy              =    -555.35009396 Ry
     Harris-Foulkes estimate   =    -556.45284293 Ry
     estimated scf accuracy    <       7.17178998 Ry

[...]

     total energy              =    -554.74726201 Ry
     Harris-Foulkes estimate   =    -554.74726259 Ry
     estimated scf accuracy    <       0.00000209 Ry

     iteration # 13     ecut=    58.80 Ry     beta=0.10
     Davidson diagonalization with overlap
     ethr =  2.46E-09,  avg # of iterations =  2.0

     negative rho (up, down):  2.348E-01 0.000E+00

     End of self-consistent calculation

          k = 0.0000 0.0000 0.0000 (  4039 PWs)   bands (ev):

   -47.5226 -47.4805 -16.1659 -16.1659 -16.1340 -16.0442 -15.7845 -15.7845
     6.4856   8.7219   9.0105   9.1199   9.2312   9.3834   9.3834  10.6388
    10.6388  11.2825  12.1078  13.8745  14.9739  15.8071  16.1592  16.1592
    17.9109  18.1811  18.3364  18.3364  19.4931  19.4931  20.2081  21.6898
    22.3687  23.5954  23.5954  24.0154  24.5359  25.0882  25.5265  25.5265
    28.1034  28.4302  31.2406

[...]

          k = 0.0999 0.0999 0.1125 (  4039 PWs)   bands (ev):

   -47.5012 -47.5000 -16.2142 -16.2031 -16.1287 -16.1257 -15.7574 -15.7454
     8.8198   8.8715   8.8871   8.9031  10.3350  10.3935  10.5333  10.5674
    10.8023  10.8145  12.6382  13.0010  14.4461  14.5558  15.0378  15.0727
    15.4502  15.6095  18.5928  18.7142  19.2995  19.3481  19.4019  19.6091
    22.4260  22.5737  23.0127  23.1301  27.2292  27.2775  27.4181  27.5735
    28.4703  28.6987  31.9246

     the Fermi energy is    15.3368 ev

!    total energy              =    -554.74726224 Ry
     Harris-Foulkes estimate   =    -554.74726222 Ry
     estimated scf accuracy    <       0.00000014 Ry

     The total energy is the sum of the following terms:

     one-electron contribution =     -15.89927384 Ry
     hartree contribution      =      44.30813178 Ry
     xc contribution           =    -282.79770344 Ry
     ewald contribution        =    -300.34825401 Ry
     smearing contrib. (-TS)   =      -0.01016273 Ry

     convergence has been achieved in  13 iterations

     Forces acting on atoms (Ry/au):

     negative rho (up, down):  2.348E-01 0.000E+00
     atom    1 type  1   force =     0.00000000    0.00000000    0.00000000
     atom    2 type  1   force =     0.00000000    0.00000000    0.00000000
     atom    3 type  2   force =     0.00000000    0.00000000    0.00000000
     atom    4 type  2   force =     0.00000000    0.00000000    0.00000000

     Total force =     0.000000     Total SCF correction =     0.000000

     General routines

     Parallel routines

   This run was terminated on:   8: 3:23  15Nov2017

   JOB DONE.