     Program PWSCF v.5.1rc2 starts on 14Nov2017 at  1:42:20

     Current dimensions of program PWSCF are:
     Max number of different atomic species (ntypx) = 10
     Max number of k-points (npk) =  40000
     Max angular momentum in pseudopotentials (lmaxx) =  3

     IMPORTANT: XC functional enforced from input :
     Exchange-correlation      = BEEF-VDW ( 1  4 27 13 2)
     Any further DFT definition will be discarded
     Please, verify this is what you really want

     Found symmetry operation: I + (  0.5000  0.5000  0.0000)
     This is a supercell, fractional translations are disabled

     bravais-lattice index     =            0
     lattice parameter (alat)  =       1.8897  a.u.
     unit-cell volume          =     577.0405 (a.u.)^3
     number of atoms/cell      =            4
     number of atomic types    =            2
     number of electrons       =        48.00
     number of Kohn-Sham states=           44
     kinetic-energy cutoff     =      58.7989  Ry
     charge density cutoff     =     587.9892  Ry
     convergence threshold     =      1.0E-06
     mixing beta               =       0.1000
     number of iterations used =           10  plain     mixing
     Exchange-correlation      = BEEF-VDW ( 1  4 27 13 2)

     celldm(1)=   1.889726  celldm(2)=   0.000000  celldm(3)=   0.000000
     celldm(4)=   0.000000  celldm(5)=   0.000000  celldm(6)=   0.000000

     crystal axes: (cart. coord. in units of alat)
               a(1) = (   4.397732   0.000000   0.000000 )
               a(2) = (   0.000000   4.397732   0.000000 )
               a(3) = (   0.000000   0.000000   4.421323 )

     reciprocal axes: (cart. coord. in units 2 pi/alat)
               b(1) = (  0.227390  0.000000  0.000000 )
               b(2) = (  0.000000  0.227390  0.000000 )
               b(3) = (  0.000000  0.000000  0.226177 )

     PseudoPot. # 1 for Cd read from file:
     /home/users/vossj/suncat/psp/gbrv1.5pbe/Cd.UPF
     MD5 check sum: 17164a7926edb8e0dc231208abae86a6
     Pseudo is Ultrasoft + core correction, Zval = 12.0
     Generated by new atomic code, or converted to UPF format
     Using radial grid of  889 points,  6 beta functions with:
                l(1) =   0
                l(2) =   0
                l(3) =   1
                l(4) =   1
                l(5) =   2
                l(6) =   2
     Q(r) pseudized with  6 coefficients,  rinner =    1.000   1.000   1.000
                                                       1.000   1.000

     PseudoPot. # 2 for Hf read from file:
     /home/users/vossj/suncat/psp/gbrv1.5pbe/Hf.UPF
     MD5 check sum: 8ee9378dfe14276e333edf04c5e4aa26
     Pseudo is Ultrasoft + core correction, Zval = 12.0
     Generated by new atomic code, or converted to UPF format
     Using radial grid of  921 points,  8 beta functions with:
                l(1) =   0
                l(2) =   0
                l(3) =   0
                l(4) =   1
                l(5) =   1
                l(6) =   2
                l(7) =   2
                l(8) =   3
     Q(r) pseudized with  6 coefficients,  rinner =    1.200   1.200   1.200
                                                       1.200   1.200   1.200
                                                       1.200

     vdW kernel table read from file vdW_kernel_table
     MD5 check sum: 095c7af220d748ca6e76c0b4c6cfb241

     atomic species   valence    mass     pseudopotential
        Cd1           12.00   112.41000     Cd( 1.00)
        Hf1           12.00   178.49000     Hf( 1.00)

     16 Sym. Ops., with inversion, found

   Cartesian axes

     site n.     atom                  positions (alat units)
         1           Cd1 tau(   1) = (   0.0000000   0.0000000   0.0000000  )
         2           Cd1 tau(   2) = (   2.1988658   2.1988658   0.0000000  )
         3           Hf1 tau(   3) = (   2.1988658   0.0000000   2.2106616  )
         4           Hf1 tau(   4) = (   0.0000000   2.1988658   2.2106616  )

     number of k points=    75  Fermi-Dirac smearing, width (Ry)=  0.0073
                       cart. coord. in units 2pi/alat
        k(    1) = (   0.0000000   0.0000000   0.0000000), wk =   0.0027435
        k(    2) = (   0.0000000   0.0000000   0.0251307), wk =   0.0054870
        k(    3) = (   0.0000000   0.0000000   0.0502615), wk =   0.0054870
        k(    4) = (   0.0000000   0.0000000   0.0753922), wk =   0.0054870
        k(    5) = (   0.0000000   0.0000000   0.1005229), wk =   0.0054870
        k(    6) = (   0.0000000   0.0252656   0.0000000), wk =   0.0109739
        k(    7) = (   0.0000000   0.0252656   0.0251307), wk =   0.0219479
        k(    8) = (   0.0000000   0.0252656   0.0502615), wk =   0.0219479
        k(    9) = (   0.0000000   0.0252656   0.0753922), wk =   0.0219479
        k(   10) = (   0.0000000   0.0252656   0.1005229), wk =   0.0219479
        k(   11) = (   0.0000000   0.0505311   0.0000000), wk =   0.0109739
        k(   12) = (   0.0000000   0.0505311   0.0251307), wk =   0.0219479
        k(   13) = (   0.0000000   0.0505311   0.0502615), wk =   0.0219479
        k(   14) = (   0.0000000   0.0505311   0.0753922), wk =   0.0219479
        k(   15) = (   0.0000000   0.0505311   0.1005229), wk =   0.0219479
        k(   16) = (   0.0000000   0.0757967   0.0000000), wk =   0.0109739
        k(   17) = (   0.0000000   0.0757967   0.0251307), wk =   0.0219479
        k(   18) = (   0.0000000   0.0757967   0.0502615), wk =   0.0219479
        k(   19) = (   0.0000000   0.0757967   0.0753922), wk =   0.0219479
        k(   20) = (   0.0000000   0.0757967   0.1005229), wk =   0.0219479
        k(   21) = (   0.0000000   0.1010622   0.0000000), wk =   0.0109739
        k(   22) = (   0.0000000   0.1010622   0.0251307), wk =   0.0219479
        k(   23) = (   0.0000000   0.1010622   0.0502615), wk =   0.0219479
        k(   24) = (   0.0000000   0.1010622   0.0753922), wk =   0.0219479
        k(   25) = (   0.0000000   0.1010622   0.1005229), wk =   0.0219479
        k(   26) = (   0.0252656   0.0252656   0.0000000), wk =   0.0109739
        k(   27) = (   0.0252656   0.0252656   0.0251307), wk =   0.0219479
        k(   28) = (   0.0252656   0.0252656   0.0502615), wk =   0.0219479
        k(   29) = (   0.0252656   0.0252656   0.0753922), wk =   0.0219479
        k(   30) = (   0.0252656   0.0252656   0.1005229), wk =   0.0219479
        k(   31) = (   0.0252656   0.0505311   0.0000000), wk =   0.0219479
        k(   32) = (   0.0252656   0.0505311   0.0251307), wk =   0.0438957
        k(   33) = (   0.0252656   0.0505311   0.0502615), wk =   0.0438957
        k(   34) = (   0.0252656   0.0505311   0.0753922), wk =   0.0438957
        k(   35) = (   0.0252656   0.0505311   0.1005229), wk =   0.0438957
        k(   36) = (   0.0252656   0.0757967   0.0000000), wk =   0.0219479
        k(   37) = (   0.0252656   0.0757967   0.0251307), wk =   0.0438957
        k(   38) = (   0.0252656   0.0757967   0.0502615), wk =   0.0438957
        k(   39) = (   0.0252656   0.0757967   0.0753922), wk =   0.0438957
        k(   40) = (   0.0252656   0.0757967   0.1005229), wk =   0.0438957
        k(   41) = (   0.0252656   0.1010622   0.0000000), wk =   0.0219479
        k(   42) = (   0.0252656   0.1010622   0.0251307), wk =   0.0438957
        k(   43) = (   0.0252656   0.1010622   0.0502615), wk =   0.0438957
        k(   44) = (   0.0252656   0.1010622   0.0753922), wk =   0.0438957
        k(   45) = (   0.0252656   0.1010622   0.1005229), wk =   0.0438957
        k(   46) = (   0.0505311   0.0505311   0.0000000), wk =   0.0109739
        k(   47) = (   0.0505311   0.0505311   0.0251307), wk =   0.0219479
        k(   48) = (   0.0505311   0.0505311   0.0502615), wk =   0.0219479
        k(   49) = (   0.0505311   0.0505311   0.0753922), wk =   0.0219479
        k(   50) = (   0.0505311   0.0505311   0.1005229), wk =   0.0219479
        k(   51) = (   0.0505311   0.0757967   0.0000000), wk =   0.0219479
        k(   52) = (   0.0505311   0.0757967   0.0251307), wk =   0.0438957
        k(   53) = (   0.0505311   0.0757967   0.0502615), wk =   0.0438957
        k(   54) = (   0.0505311   0.0757967   0.0753922), wk =   0.0438957
        k(   55) = (   0.0505311   0.0757967   0.1005229), wk =   0.0438957
        k(   56) = (   0.0505311   0.1010622   0.0000000), wk =   0.0219479
        k(   57) = (   0.0505311   0.1010622   0.0251307), wk =   0.0438957
        k(   58) = (   0.0505311   0.1010622   0.0502615), wk =   0.0438957
        k(   59) = (   0.0505311   0.1010622   0.0753922), wk =   0.0438957
        k(   60) = (   0.0505311   0.1010622   0.1005229), wk =   0.0438957
        k(   61) = (   0.0757967   0.0757967   0.0000000), wk =   0.0109739
        k(   62) = (   0.0757967   0.0757967   0.0251307), wk =   0.0219479
        k(   63) = (   0.0757967   0.0757967   0.0502615), wk =   0.0219479
        k(   64) = (   0.0757967   0.0757967   0.0753922), wk =   0.0219479
        k(   65) = (   0.0757967   0.0757967   0.1005229), wk =   0.0219479
        k(   66) = (   0.0757967   0.1010622   0.0000000), wk =   0.0219479
        k(   67) = (   0.0757967   0.1010622   0.0251307), wk =   0.0438957
        k(   68) = (   0.0757967   0.1010622   0.0502615), wk =   0.0438957
        k(   69) = (   0.0757967   0.1010622   0.0753922), wk =   0.0438957
        k(   70) = (   0.0757967   0.1010622   0.1005229), wk =   0.0438957
        k(   71) = (   0.1010622   0.1010622   0.0000000), wk =   0.0109739
        k(   72) = (   0.1010622   0.1010622   0.0251307), wk =   0.0219479
        k(   73) = (   0.1010622   0.1010622   0.0502615), wk =   0.0219479
        k(   74) = (   0.1010622   0.1010622   0.0753922), wk =   0.0219479
        k(   75) = (   0.1010622   0.1010622   0.1005229), wk =   0.0219479

     Largest allocated arrays     est. size (Mb)     dimensions
     Largest temporary arrays     est. size (Mb)     dimensions

     Initial potential from superposition of free atoms
     Check: negative starting charge=   -0.258751

     starting charge   42.99991, renormalised to   48.00000

     negative rho (up, down):  2.888E-01 0.000E+00

     *
     * You are using vdW-DF for exchange-correlation in this calculation.
     * Please cite the following three references that made this development
     * possible:
     *
     *   M. Dion, H. Rydberg, E. Schroder, D. C. Langreth, and
     *   B. I. Lundqvist, Phys. Rev. Lett. 92, 246401 (2004).
     *
     *   T. Thonhauser, V. R. Cooper, S. Li, A. Puzder, P. Hyldgaard, and
     *   D. C. Langreth, Phys. Rev. B 76, 125112 (2007).
     *
     *   G. Roman-Perez and J. M. Soler, Phys. Rev. Lett. 103, 096102 (2009).
     *
     *
     * If you are using vdW-DF2, please also cite:
     *
     *   K. Lee, E. D. Murray, L. Kong, B. I. Lundqvist, and
     *   D. C. Langreth, Phys. Rev. B 82, 081101(R) (2010).
     *
     *
     * If you are calculating the stress with vdW-DF, please also cite:
     *
     *   R. Sabatini, E. Kucukbenli, B. Kolb, T. Thonhauser, and
     *   S. de Gironcoli, J. Phys.: Condens. Matter 24, 424209 (2012).
     *

     Carrying out vdW-DF run using the following parameters:

     Nqs =      20    Nr_points =    1024   r_max =   100.000
     q_mesh =
               0.00001000     0.04494208     0.09755937     0.15916263
               0.23128650     0.31572767     0.41458969     0.53033537
               0.66584808     0.82450364     1.01025438     1.22772762
               1.48234092     1.78043706     2.12944203     2.53805004
               3.01644009     3.57652955     4.23227104     5.00000000

     Gradients computed in reciprocal space

     Starting wfc are   44 randomized atomic wfcs

     Self-consistent Calculation

     iteration #  1     ecut=    58.80 Ry     beta=0.10
     Davidson diagonalization with overlap
     ethr =  1.00E-02,  avg # of iterations =  4.3

[...]

     total energy              =    -554.43089310 Ry
     Harris-Foulkes estimate   =    -555.49000254 Ry
     estimated scf accuracy    <       7.08695809 Ry

[...]

     total energy              =    -553.37883700 Ry
     Harris-Foulkes estimate   =    -553.37883253 Ry
     estimated scf accuracy    <       0.00002139 Ry

     iteration # 11     ecut=    58.80 Ry     beta=0.10
     Davidson diagonalization with overlap
     ethr =  4.46E-08,  avg # of iterations =  2.0

     negative rho (up, down):  2.794E-01 0.000E+00

     End of self-consistent calculation

          k = 0.0000 0.0000 0.0000 (  4385 PWs)   bands (ev):

   -49.3354 -49.2866 -18.0123 -17.9794 -17.9794 -17.9082 -17.5568 -17.5568
     3.9699   3.9755   4.1968   4.2595   4.2595   4.6764   4.7426   4.7426
     4.9619   5.1632   5.3099  10.7208  11.9554  12.4690  13.9120  13.9120
    13.9676  14.4174  14.4174  14.4519  16.9319  16.9319  18.4588  19.2630
    19.7072  20.1366  20.8018  21.5348  21.5348  22.2735  22.4439  22.4439
    24.2174  25.7675  27.8392  28.0234

[...]

          k = 0.1011 0.1011 0.1005 (  4385 PWs)   bands (ev):

   -49.3114 -49.3100 -18.0372 -18.0250 -17.9709 -17.9676 -17.5288 -17.5155
     4.1275   4.1345   4.2215   4.2536   4.6039   4.6312   4.7686   4.7818
     4.8565   4.8746   9.3902   9.6185  11.4786  11.5538  12.2135  12.3714
    12.7304  13.0308  15.7685  15.7745  16.1099  16.1338  17.0558  17.0702
    19.0643  19.1882  20.8434  20.9088  25.0352  25.1350  25.2422  25.3584
    25.4641  25.8125  27.1290  27.4350

     the Fermi energy is    13.2238 ev

!    total energy              =    -553.37889937 Ry
     Harris-Foulkes estimate   =    -553.37884166 Ry
     estimated scf accuracy    <       0.00000020 Ry

     The total energy is the sum of the following terms:

     one-electron contribution =     -68.43383242 Ry
     hartree contribution      =      68.70385374 Ry
     xc contribution           =    -236.42938971 Ry
     ewald contribution        =    -317.20969742 Ry
     smearing contrib. (-TS)   =      -0.00983356 Ry

     convergence has been achieved in  11 iterations

     Forces acting on atoms (Ry/au):

     negative rho (up, down):  2.794E-01 0.000E+00
     atom    1 type  1   force =     0.00000000    0.00000000    0.00000000
     atom    2 type  1   force =     0.00000000    0.00000000    0.00000000
     atom    3 type  2   force =     0.00000000    0.00000000    0.00000000
     atom    4 type  2   force =     0.00000000    0.00000000    0.00000000

     Total force =     0.000000     Total SCF correction =     0.000000

     General routines

     Parallel routines

   This run was terminated on:   1:43: 8  14Nov2017

   JOB DONE.