     Program PWSCF v.5.1rc2 starts on 13Nov2017 at 17:55: 5

     Current dimensions of program PWSCF are:
     Max number of different atomic species (ntypx) = 10
     Max number of k-points (npk) =  40000
     Max angular momentum in pseudopotentials (lmaxx) =  3

     IMPORTANT: XC functional enforced from input :
     Exchange-correlation      = BEEF-VDW ( 1  4 27 13 2)
     Any further DFT definition will be discarded
     Please, verify this is what you really want

     Found symmetry operation: I + ( -0.5000 -0.5000  0.0000)
     This is a supercell, fractional translations are disabled

     bravais-lattice index     =            0
     lattice parameter (alat)  =       1.8897  a.u.
     unit-cell volume          =     504.7081 (a.u.)^3
     number of atoms/cell      =            4
     number of atomic types    =            2
     number of electrons       =        30.00
     number of Kohn-Sham states=           35
     kinetic-energy cutoff     =      58.7989  Ry
     charge density cutoff     =     587.9892  Ry
     convergence threshold     =      1.0E-06
     mixing beta               =       0.1000
     number of iterations used =           10  plain     mixing
     Exchange-correlation      = BEEF-VDW ( 1  4 27 13 2)

     celldm(1)=   1.889726  celldm(2)=   0.000000  celldm(3)=   0.000000
     celldm(4)=   0.000000  celldm(5)=   0.000000  celldm(6)=   0.000000

     crystal axes: (cart. coord. in units of alat)
               a(1) = (   4.244612   0.000000   0.000000 )
               a(2) = (   0.000000   4.244612   0.000000 )
               a(3) = (   0.000000   0.000000   4.151144 )

     reciprocal axes: (cart. coord. in units 2 pi/alat)
               b(1) = (  0.235593  0.000000  0.000000 )
               b(2) = (  0.000000  0.235593  0.000000 )
               b(3) = (  0.000000  0.000000  0.240897 )

     PseudoPot. # 1 for Al read from file:
     /home/users/vossj/suncat/psp/gbrv1.5pbe/Al.UPF
     MD5 check sum: 0a6289f5291fc8f409219462bc851e1f
     Pseudo is Ultrasoft + core correction, Zval =  3.0
     Generated by new atomic code, or converted to UPF format
     Using radial grid of  893 points,  3 beta functions with:
                l(1) =   0
                l(2) =   1
                l(3) =   2
     Q(r) pseudized with  8 coefficients,  rinner =    0.900   0.900   0.900
                                                       0.900   0.900

     PseudoPot. # 2 for Hf read from file:
     /home/users/vossj/suncat/psp/gbrv1.5pbe/Hf.UPF
     MD5 check sum: 8ee9378dfe14276e333edf04c5e4aa26
     Pseudo is Ultrasoft + core correction, Zval = 12.0
     Generated by new atomic code, or converted to UPF format
     Using radial grid of  921 points,  8 beta functions with:
                l(1) =   0
                l(2) =   0
                l(3) =   0
                l(4) =   1
                l(5) =   1
                l(6) =   2
                l(7) =   2
                l(8) =   3
     Q(r) pseudized with  6 coefficients,  rinner =    1.200   1.200   1.200
                                                       1.200   1.200   1.200
                                                       1.200

     vdW kernel table read from file vdW_kernel_table
     MD5 check sum: 095c7af220d748ca6e76c0b4c6cfb241

     atomic species   valence    mass     pseudopotential
        Al1            3.00    26.98154     Al( 1.00)
        Hf1           12.00   178.49000     Hf( 1.00)

     16 Sym. Ops., with inversion, found

   Cartesian axes

     site n.     atom                  positions (alat units)
         1           Al1 tau(   1) = (   0.0000000   0.0000000   0.0000000  )
         2           Al1 tau(   2) = (   2.1223058   2.1223058   0.0000000  )
         3           Hf1 tau(   3) = (   2.1223058   0.0000000   2.0755718  )
         4           Hf1 tau(   4) = (   0.0000000   2.1223058   2.0755718  )

     number of k points=    75  Fermi-Dirac smearing, width (Ry)=  0.0073
                       cart. coord. in units 2pi/alat
        k(    1) = (   0.0000000   0.0000000   0.0000000), wk =   0.0027435
        k(    2) = (   0.0000000   0.0000000   0.0267664), wk =   0.0054870
        k(    3) = (   0.0000000   0.0000000   0.0535328), wk =   0.0054870
        k(    4) = (   0.0000000   0.0000000   0.0802992), wk =   0.0054870
        k(    5) = (   0.0000000   0.0000000   0.1070655), wk =   0.0054870
        k(    6) = (   0.0000000   0.0261770   0.0000000), wk =   0.0109739
        k(    7) = (   0.0000000   0.0261770   0.0267664), wk =   0.0219479
        k(    8) = (   0.0000000   0.0261770   0.0535328), wk =   0.0219479
        k(    9) = (   0.0000000   0.0261770   0.0802992), wk =   0.0219479
        k(   10) = (   0.0000000   0.0261770   0.1070655), wk =   0.0219479
        k(   11) = (   0.0000000   0.0523540   0.0000000), wk =   0.0109739
        k(   12) = (   0.0000000   0.0523540   0.0267664), wk =   0.0219479
        k(   13) = (   0.0000000   0.0523540   0.0535328), wk =   0.0219479
        k(   14) = (   0.0000000   0.0523540   0.0802992), wk =   0.0219479
        k(   15) = (   0.0000000   0.0523540   0.1070655), wk =   0.0219479
        k(   16) = (   0.0000000   0.0785309   0.0000000), wk =   0.0109739
        k(   17) = (   0.0000000   0.0785309   0.0267664), wk =   0.0219479
        k(   18) = (   0.0000000   0.0785309   0.0535328), wk =   0.0219479
        k(   19) = (   0.0000000   0.0785309   0.0802992), wk =   0.0219479
        k(   20) = (   0.0000000   0.0785309   0.1070655), wk =   0.0219479
        k(   21) = (   0.0000000   0.1047079   0.0000000), wk =   0.0109739
        k(   22) = (   0.0000000   0.1047079   0.0267664), wk =   0.0219479
        k(   23) = (   0.0000000   0.1047079   0.0535328), wk =   0.0219479
        k(   24) = (   0.0000000   0.1047079   0.0802992), wk =   0.0219479
        k(   25) = (   0.0000000   0.1047079   0.1070655), wk =   0.0219479
        k(   26) = (   0.0261770   0.0261770   0.0000000), wk =   0.0109739
        k(   27) = (   0.0261770   0.0261770   0.0267664), wk =   0.0219479
        k(   28) = (   0.0261770   0.0261770   0.0535328), wk =   0.0219479
        k(   29) = (   0.0261770   0.0261770   0.0802992), wk =   0.0219479
        k(   30) = (   0.0261770   0.0261770   0.1070655), wk =   0.0219479
        k(   31) = (   0.0261770   0.0523540   0.0000000), wk =   0.0219479
        k(   32) = (   0.0261770   0.0523540   0.0267664), wk =   0.0438957
        k(   33) = (   0.0261770   0.0523540   0.0535328), wk =   0.0438957
        k(   34) = (   0.0261770   0.0523540   0.0802992), wk =   0.0438957
        k(   35) = (   0.0261770   0.0523540   0.1070655), wk =   0.0438957
        k(   36) = (   0.0261770   0.0785309   0.0000000), wk =   0.0219479
        k(   37) = (   0.0261770   0.0785309   0.0267664), wk =   0.0438957
        k(   38) = (   0.0261770   0.0785309   0.0535328), wk =   0.0438957
        k(   39) = (   0.0261770   0.0785309   0.0802992), wk =   0.0438957
        k(   40) = (   0.0261770   0.0785309   0.1070655), wk =   0.0438957
        k(   41) = (   0.0261770   0.1047079   0.0000000), wk =   0.0219479
        k(   42) = (   0.0261770   0.1047079   0.0267664), wk =   0.0438957
        k(   43) = (   0.0261770   0.1047079   0.0535328), wk =   0.0438957
        k(   44) = (   0.0261770   0.1047079   0.0802992), wk =   0.0438957
        k(   45) = (   0.0261770   0.1047079   0.1070655), wk =   0.0438957
        k(   46) = (   0.0523540   0.0523540   0.0000000), wk =   0.0109739
        k(   47) = (   0.0523540   0.0523540   0.0267664), wk =   0.0219479
        k(   48) = (   0.0523540   0.0523540   0.0535328), wk =   0.0219479
        k(   49) = (   0.0523540   0.0523540   0.0802992), wk =   0.0219479
        k(   50) = (   0.0523540   0.0523540   0.1070655), wk =   0.0219479
        k(   51) = (   0.0523540   0.0785309   0.0000000), wk =   0.0219479
        k(   52) = (   0.0523540   0.0785309   0.0267664), wk =   0.0438957
        k(   53) = (   0.0523540   0.0785309   0.0535328), wk =   0.0438957
        k(   54) = (   0.0523540   0.0785309   0.0802992), wk =   0.0438957
        k(   55) = (   0.0523540   0.0785309   0.1070655), wk =   0.0438957
        k(   56) = (   0.0523540   0.1047079   0.0000000), wk =   0.0219479
        k(   57) = (   0.0523540   0.1047079   0.0267664), wk =   0.0438957
        k(   58) = (   0.0523540   0.1047079   0.0535328), wk =   0.0438957
        k(   59) = (   0.0523540   0.1047079   0.0802992), wk =   0.0438957
        k(   60) = (   0.0523540   0.1047079   0.1070655), wk =   0.0438957
        k(   61) = (   0.0785309   0.0785309   0.0000000), wk =   0.0109739
        k(   62) = (   0.0785309   0.0785309   0.0267664), wk =   0.0219479
        k(   63) = (   0.0785309   0.0785309   0.0535328), wk =   0.0219479
        k(   64) = (   0.0785309   0.0785309   0.0802992), wk =   0.0219479
        k(   65) = (   0.0785309   0.0785309   0.1070655), wk =   0.0219479
        k(   66) = (   0.0785309   0.1047079   0.0000000), wk =   0.0219479
        k(   67) = (   0.0785309   0.1047079   0.0267664), wk =   0.0438957
        k(   68) = (   0.0785309   0.1047079   0.0535328), wk =   0.0438957
        k(   69) = (   0.0785309   0.1047079   0.0802992), wk =   0.0438957
        k(   70) = (   0.0785309   0.1047079   0.1070655), wk =   0.0438957
        k(   71) = (   0.1047079   0.1047079   0.0000000), wk =   0.0109739
        k(   72) = (   0.1047079   0.1047079   0.0267664), wk =   0.0219479
        k(   73) = (   0.1047079   0.1047079   0.0535328), wk =   0.0219479
        k(   74) = (   0.1047079   0.1047079   0.0802992), wk =   0.0219479
        k(   75) = (   0.1047079   0.1047079   0.1070655), wk =   0.0219479

     Largest allocated arrays     est. size (Mb)     dimensions
     Largest temporary arrays     est. size (Mb)     dimensions

     Initial potential from superposition of free atoms
     Check: negative starting charge=   -0.215103

     starting charge   25.99507, renormalised to   30.00000

     negative rho (up, down):  2.482E-01 0.000E+00

     *
     * You are using vdW-DF for exchange-correlation in this calculation.
     * Please cite the following three references that made this development
     * possible:
     *
     *   M. Dion, H. Rydberg, E. Schroder, D. C. Langreth, and
     *   B. I. Lundqvist, Phys. Rev. Lett. 92, 246401 (2004).
     *
     *   T. Thonhauser, V. R. Cooper, S. Li, A. Puzder, P. Hyldgaard, and
     *   D. C. Langreth, Phys. Rev. B 76, 125112 (2007).
     *
     *   G. Roman-Perez and J. M. Soler, Phys. Rev. Lett. 103, 096102 (2009).
     *
     *
     * If you are using vdW-DF2, please also cite:
     *
     *   K. Lee, E. D. Murray, L. Kong, B. I. Lundqvist, and
     *   D. C. Langreth, Phys. Rev. B 82, 081101(R) (2010).
     *
     *
     * If you are calculating the stress with vdW-DF, please also cite:
     *
     *   R. Sabatini, E. Kucukbenli, B. Kolb, T. Thonhauser, and
     *   S. de Gironcoli, J. Phys.: Condens. Matter 24, 424209 (2012).
     *

     Carrying out vdW-DF run using the following parameters:

     Nqs =      20    Nr_points =    1024   r_max =   100.000
     q_mesh =
               0.00001000     0.04494208     0.09755937     0.15916263
               0.23128650     0.31572767     0.41458969     0.53033537
               0.66584808     0.82450364     1.01025438     1.22772762
               1.48234092     1.78043706     2.12944203     2.53805004
               3.01644009     3.57652955     4.23227104     5.00000000

     Gradients computed in reciprocal space

     Starting wfc are   34 randomized atomic wfcs +    1 random wfc

     Self-consistent Calculation

     iteration #  1     ecut=    58.80 Ry     beta=0.10
     Davidson diagonalization with overlap
     ethr =  1.00E-02,  avg # of iterations =  4.3

[...]

     total energy              =    -336.44992079 Ry
     Harris-Foulkes estimate   =    -337.41090547 Ry
     estimated scf accuracy    <       5.74248224 Ry

[...]

     total energy              =    -335.06845737 Ry
     Harris-Foulkes estimate   =    -335.06844610 Ry
     estimated scf accuracy    <       0.00000279 Ry

     iteration # 11     ecut=    58.80 Ry     beta=0.10
     Davidson diagonalization with overlap
     ethr =  9.29E-09,  avg # of iterations =  1.1

     negative rho (up, down):  2.339E-01 0.000E+00

     End of self-consistent calculation

          k = 0.0000 0.0000 0.0000 (  3839 PWs)   bands (ev):

   -50.2286 -50.1498 -19.0221 -19.0221 -18.9357 -18.7767 -18.4237 -18.4237
     2.6592   7.7202   9.4500  10.6553  11.0841  11.1107  11.1107  11.7633
    11.7633  11.8007  15.5575  15.5575  16.3533  16.7978  17.7845  18.5757
    18.5757  19.8035  19.8770  20.8406  21.4319  21.8970  21.8970  24.3081
    25.1725  27.8471  27.9859

[...]

          k = 0.1047 0.1047 0.1071 (  3847 PWs)   bands (ev):

   -50.1896 -50.1872 -19.1102 -19.0932 -18.8821 -18.8770 -18.3811 -18.3621
     6.2661   6.4074   8.9309   8.9475   9.7461  10.1024  10.6651  11.0481
    14.2988  14.3264  14.6250  14.6514  15.5944  15.6064  17.6150  17.7068
    20.1594  20.4216  20.7032  21.6093  22.5769  23.6240  24.5391  24.5946
    24.9837  25.3456  25.5915

     the Fermi energy is    11.8384 ev

!    total energy              =    -335.06845935 Ry
     Harris-Foulkes estimate   =    -335.06845768 Ry
     estimated scf accuracy    <       0.00000042 Ry

     The total energy is the sum of the following terms:

     one-electron contribution =     -57.82674971 Ry
     hartree contribution      =      39.57765093 Ry
     xc contribution           =    -163.89623453 Ry
     ewald contribution        =    -152.91565976 Ry
     smearing contrib. (-TS)   =      -0.00746627 Ry

     convergence has been achieved in  11 iterations

     Forces acting on atoms (Ry/au):

     negative rho (up, down):  2.339E-01 0.000E+00
     atom    1 type  1   force =     0.00000000    0.00000000    0.00000000
     atom    2 type  1   force =     0.00000000    0.00000000    0.00000000
     atom    3 type  2   force =     0.00000000    0.00000000    0.00000000
     atom    4 type  2   force =     0.00000000    0.00000000    0.00000000

     Total force =     0.000000     Total SCF correction =     0.000000

     General routines

     Parallel routines

   This run was terminated on:  17:55:32  13Nov2017

   JOB DONE.