     Program PWSCF v.5.1rc2 starts on 15Nov2017 at  4:56:29

     Current dimensions of program PWSCF are:
     Max number of different atomic species (ntypx) = 10
     Max number of k-points (npk) =  40000
     Max angular momentum in pseudopotentials (lmaxx) =  3

     IMPORTANT: XC functional enforced from input :
     Exchange-correlation      = BEEF-VDW ( 1  4 27 13 2)
     Any further DFT definition will be discarded
     Please, verify this is what you really want

     Found symmetry operation: I + ( -0.5000 -0.5000  0.0000)
     This is a supercell, fractional translations are disabled

     bravais-lattice index     =            0
     lattice parameter (alat)  =       1.8897  a.u.
     unit-cell volume          =     508.0269 (a.u.)^3
     number of atoms/cell      =            4
     number of atomic types    =            2
     number of electrons       =        56.00
     number of Kohn-Sham states=           48
     kinetic-energy cutoff     =      58.7989  Ry
     charge density cutoff     =     587.9892  Ry
     convergence threshold     =      1.0E-06
     mixing beta               =       0.1000
     number of iterations used =           10  plain     mixing
     Exchange-correlation      = BEEF-VDW ( 1  4 27 13 2)

     celldm(1)=   1.889726  celldm(2)=   0.000000  celldm(3)=   0.000000
     celldm(4)=   0.000000  celldm(5)=   0.000000  celldm(6)=   0.000000

     crystal axes: (cart. coord. in units of alat)
               a(1) = (   4.666869   0.000000   0.000000 )
               a(2) = (   0.000000   4.666869   0.000000 )
               a(3) = (   0.000000   0.000000   3.456518 )

     reciprocal axes: (cart. coord. in units 2 pi/alat)
               b(1) = (  0.214276  0.000000  0.000000 )
               b(2) = (  0.000000  0.214276  0.000000 )
               b(3) = (  0.000000  0.000000  0.289308 )

     PseudoPot. # 1 for Rh read from file:
     /home/users/vossj/suncat/psp/gbrv1.5pbe/Rh.UPF
     MD5 check sum: 761627e959a2e3a1f56b0b5fe687810e
     Pseudo is Ultrasoft + core correction, Zval = 15.0
     Generated by new atomic code, or converted to UPF format
     Using radial grid of  969 points,  7 beta functions with:
                l(1) =   0
                l(2) =   0
                l(3) =   1
                l(4) =   1
                l(5) =   2
                l(6) =   2
                l(7) =   2
     Q(r) pseudized with  8 coefficients,  rinner =    1.200   1.200   1.200
                                                       1.200   1.200

     PseudoPot. # 2 for Tl read from file:
     /home/users/vossj/suncat/psp/gbrv1.5pbe/Tl.UPF
     MD5 check sum: b76cf1f7e72655a2b2c53cf6385d7059
     Pseudo is Ultrasoft + core correction, Zval = 13.0
     Generated by new atomic code, or converted to UPF format
     Using radial grid of  899 points,  6 beta functions with:
                l(1) =   0
                l(2) =   0
                l(3) =   1
                l(4) =   1
                l(5) =   2
                l(6) =   2
     Q(r) pseudized with  6 coefficients,  rinner =    1.100   1.100   1.100
                                                       1.100   1.100

     vdW kernel table read from file vdW_kernel_table
     MD5 check sum: 095c7af220d748ca6e76c0b4c6cfb241

     atomic species   valence    mass     pseudopotential
        Rh1           15.00   102.90550     Rh( 1.00)
        Tl1           13.00   204.38300     Tl( 1.00)

     16 Sym. Ops., with inversion, found

   Cartesian axes

     site n.     atom                  positions (alat units)
         1           Rh1 tau(   1) = (   0.0000000   0.0000000   0.0000000  )
         2           Rh1 tau(   2) = (   2.3334346   2.3334346   0.0000000  )
         3           Tl1 tau(   3) = (   2.3334346   0.0000000   1.7282592  )
         4           Tl1 tau(   4) = (   0.0000000   2.3334346   1.7282592  )

     number of k points=    75  Fermi-Dirac smearing, width (Ry)=  0.0073
                       cart. coord. in units 2pi/alat
        k(    1) = (   0.0000000   0.0000000   0.0000000), wk =   0.0027435
        k(    2) = (   0.0000000   0.0000000   0.0321454), wk =   0.0054870
        k(    3) = (   0.0000000   0.0000000   0.0642908), wk =   0.0054870
        k(    4) = (   0.0000000   0.0000000   0.0964362), wk =   0.0054870
        k(    5) = (   0.0000000   0.0000000   0.1285815), wk =   0.0054870
        k(    6) = (   0.0000000   0.0238085   0.0000000), wk =   0.0109739
        k(    7) = (   0.0000000   0.0238085   0.0321454), wk =   0.0219479
        k(    8) = (   0.0000000   0.0238085   0.0642908), wk =   0.0219479
        k(    9) = (   0.0000000   0.0238085   0.0964362), wk =   0.0219479
        k(   10) = (   0.0000000   0.0238085   0.1285815), wk =   0.0219479
        k(   11) = (   0.0000000   0.0476170   0.0000000), wk =   0.0109739
        k(   12) = (   0.0000000   0.0476170   0.0321454), wk =   0.0219479
        k(   13) = (   0.0000000   0.0476170   0.0642908), wk =   0.0219479
        k(   14) = (   0.0000000   0.0476170   0.0964362), wk =   0.0219479
        k(   15) = (   0.0000000   0.0476170   0.1285815), wk =   0.0219479
        k(   16) = (   0.0000000   0.0714255   0.0000000), wk =   0.0109739
        k(   17) = (   0.0000000   0.0714255   0.0321454), wk =   0.0219479
        k(   18) = (   0.0000000   0.0714255   0.0642908), wk =   0.0219479
        k(   19) = (   0.0000000   0.0714255   0.0964362), wk =   0.0219479
        k(   20) = (   0.0000000   0.0714255   0.1285815), wk =   0.0219479
        k(   21) = (   0.0000000   0.0952340   0.0000000), wk =   0.0109739
        k(   22) = (   0.0000000   0.0952340   0.0321454), wk =   0.0219479
        k(   23) = (   0.0000000   0.0952340   0.0642908), wk =   0.0219479
        k(   24) = (   0.0000000   0.0952340   0.0964362), wk =   0.0219479
        k(   25) = (   0.0000000   0.0952340   0.1285815), wk =   0.0219479
        k(   26) = (   0.0238085   0.0238085   0.0000000), wk =   0.0109739
        k(   27) = (   0.0238085   0.0238085   0.0321454), wk =   0.0219479
        k(   28) = (   0.0238085   0.0238085   0.0642908), wk =   0.0219479
        k(   29) = (   0.0238085   0.0238085   0.0964362), wk =   0.0219479
        k(   30) = (   0.0238085   0.0238085   0.1285815), wk =   0.0219479
        k(   31) = (   0.0238085   0.0476170   0.0000000), wk =   0.0219479
        k(   32) = (   0.0238085   0.0476170   0.0321454), wk =   0.0438957
        k(   33) = (   0.0238085   0.0476170   0.0642908), wk =   0.0438957
        k(   34) = (   0.0238085   0.0476170   0.0964362), wk =   0.0438957
        k(   35) = (   0.0238085   0.0476170   0.1285815), wk =   0.0438957
        k(   36) = (   0.0238085   0.0714255   0.0000000), wk =   0.0219479
        k(   37) = (   0.0238085   0.0714255   0.0321454), wk =   0.0438957
        k(   38) = (   0.0238085   0.0714255   0.0642908), wk =   0.0438957
        k(   39) = (   0.0238085   0.0714255   0.0964362), wk =   0.0438957
        k(   40) = (   0.0238085   0.0714255   0.1285815), wk =   0.0438957
        k(   41) = (   0.0238085   0.0952340   0.0000000), wk =   0.0219479
        k(   42) = (   0.0238085   0.0952340   0.0321454), wk =   0.0438957
        k(   43) = (   0.0238085   0.0952340   0.0642908), wk =   0.0438957
        k(   44) = (   0.0238085   0.0952340   0.0964362), wk =   0.0438957
        k(   45) = (   0.0238085   0.0952340   0.1285815), wk =   0.0438957
        k(   46) = (   0.0476170   0.0476170   0.0000000), wk =   0.0109739
        k(   47) = (   0.0476170   0.0476170   0.0321454), wk =   0.0219479
        k(   48) = (   0.0476170   0.0476170   0.0642908), wk =   0.0219479
        k(   49) = (   0.0476170   0.0476170   0.0964362), wk =   0.0219479
        k(   50) = (   0.0476170   0.0476170   0.1285815), wk =   0.0219479
        k(   51) = (   0.0476170   0.0714255   0.0000000), wk =   0.0219479
        k(   52) = (   0.0476170   0.0714255   0.0321454), wk =   0.0438957
        k(   53) = (   0.0476170   0.0714255   0.0642908), wk =   0.0438957
        k(   54) = (   0.0476170   0.0714255   0.0964362), wk =   0.0438957
        k(   55) = (   0.0476170   0.0714255   0.1285815), wk =   0.0438957
        k(   56) = (   0.0476170   0.0952340   0.0000000), wk =   0.0219479
        k(   57) = (   0.0476170   0.0952340   0.0321454), wk =   0.0438957
        k(   58) = (   0.0476170   0.0952340   0.0642908), wk =   0.0438957
        k(   59) = (   0.0476170   0.0952340   0.0964362), wk =   0.0438957
        k(   60) = (   0.0476170   0.0952340   0.1285815), wk =   0.0438957
        k(   61) = (   0.0714255   0.0714255   0.0000000), wk =   0.0109739
        k(   62) = (   0.0714255   0.0714255   0.0321454), wk =   0.0219479
        k(   63) = (   0.0714255   0.0714255   0.0642908), wk =   0.0219479
        k(   64) = (   0.0714255   0.0714255   0.0964362), wk =   0.0219479
        k(   65) = (   0.0714255   0.0714255   0.1285815), wk =   0.0219479
        k(   66) = (   0.0714255   0.0952340   0.0000000), wk =   0.0219479
        k(   67) = (   0.0714255   0.0952340   0.0321454), wk =   0.0438957
        k(   68) = (   0.0714255   0.0952340   0.0642908), wk =   0.0438957
        k(   69) = (   0.0714255   0.0952340   0.0964362), wk =   0.0438957
        k(   70) = (   0.0714255   0.0952340   0.1285815), wk =   0.0438957
        k(   71) = (   0.0952340   0.0952340   0.0000000), wk =   0.0109739
        k(   72) = (   0.0952340   0.0952340   0.0321454), wk =   0.0219479
        k(   73) = (   0.0952340   0.0952340   0.0642908), wk =   0.0219479
        k(   74) = (   0.0952340   0.0952340   0.0964362), wk =   0.0219479
        k(   75) = (   0.0952340   0.0952340   0.1285815), wk =   0.0219479

     Largest allocated arrays     est. size (Mb)     dimensions
     Largest temporary arrays     est. size (Mb)     dimensions

     Initial potential from superposition of free atoms
     Check: negative starting charge=   -0.211266

     starting charge   54.99007, renormalised to   56.00000

     negative rho (up, down):  2.151E-01 0.000E+00

     *
     * You are using vdW-DF for exchange-correlation in this calculation.
     * Please cite the following three references that made this development
     * possible:
     *
     *   M. Dion, H. Rydberg, E. Schroder, D. C. Langreth, and
     *   B. I. Lundqvist, Phys. Rev. Lett. 92, 246401 (2004).
     *
     *   T. Thonhauser, V. R. Cooper, S. Li, A. Puzder, P. Hyldgaard, and
     *   D. C. Langreth, Phys. Rev. B 76, 125112 (2007).
     *
     *   G. Roman-Perez and J. M. Soler, Phys. Rev. Lett. 103, 096102 (2009).
     *
     *
     * If you are using vdW-DF2, please also cite:
     *
     *   K. Lee, E. D. Murray, L. Kong, B. I. Lundqvist, and
     *   D. C. Langreth, Phys. Rev. B 82, 081101(R) (2010).
     *
     *
     * If you are calculating the stress with vdW-DF, please also cite:
     *
     *   R. Sabatini, E. Kucukbenli, B. Kolb, T. Thonhauser, and
     *   S. de Gironcoli, J. Phys.: Condens. Matter 24, 424209 (2012).
     *

     Carrying out vdW-DF run using the following parameters:

     Nqs =      20    Nr_points =    1024   r_max =   100.000
     q_mesh =
               0.00001000     0.04494208     0.09755937     0.15916263
               0.23128650     0.31572767     0.41458969     0.53033537
               0.66584808     0.82450364     1.01025438     1.22772762
               1.48234092     1.78043706     2.12944203     2.53805004
               3.01644009     3.57652955     4.23227104     5.00000000

     Gradients computed in reciprocal space

     Starting wfc are   42 randomized atomic wfcs +    6 random wfc

     Self-consistent Calculation

     iteration #  1     ecut=    58.80 Ry     beta=0.10
     Davidson diagonalization with overlap
     ethr =  1.00E-02,  avg # of iterations =  5.2

     Threshold (ethr) on eigenvalues was too large:
     Diagonalizing with lowered threshold

     Davidson diagonalization with overlap
     ethr =  4.05E-04,  avg # of iterations =  1.3

[...]

     total energy              =    -638.11775387 Ry
     Harris-Foulkes estimate   =    -638.15108683 Ry
     estimated scf accuracy    <       0.22673420 Ry

[...]

     total energy              =    -638.06476947 Ry
     Harris-Foulkes estimate   =    -638.06467079 Ry
     estimated scf accuracy    <       0.00006251 Ry

     iteration #  9     ecut=    58.80 Ry     beta=0.10
     Davidson diagonalization with overlap
     ethr =  1.12E-07,  avg # of iterations =  2.0

     negative rho (up, down):  2.235E-01 0.000E+00

     End of self-consistent calculation

          k = 0.0000 0.0000 0.0000 (  3859 PWs)   bands (ev):

   -29.9839 -29.9839 -29.9454 -29.9454 -29.9452 -29.9382   3.6096   3.6914
     3.7013   4.0078   4.0423   4.0423   4.3192   4.3192   4.3630   4.6934
     5.7350  10.0148  13.3562  13.4499  13.9086  14.3880  14.3880  14.5943
    14.5943  14.9828  14.9828  15.0661  15.5904  17.3038  19.7293  19.9889
    20.9408  20.9408  23.8528  25.0498  26.7333  26.7333  27.8328  28.3808
    29.0776  31.0466  31.6258  31.7787  31.7787  33.6891  33.6891  35.9077

[...]

          k = 0.0952 0.0952 0.1286 (  3900 PWs)   bands (ev):

   -29.9856 -29.9845 -29.9652 -29.9650 -29.9415 -29.9404   3.7597   3.7672
     3.8568   3.8826   4.0887   4.1055   4.1479   4.1574   4.6025   4.6214
     9.5750   9.6748  13.4000  13.4787  13.9206  13.9488  14.0283  14.2045
    14.6472  14.7339  14.9396  15.0196  15.5802  15.6196  17.3598  17.4981
    19.6948  19.8946  25.5992  25.9474  27.2164  27.3494  27.4195  27.5747
    29.7594  29.9664  32.6621  32.9374  34.2836  34.3893  34.6662  34.8066

     the Fermi energy is    15.8378 ev

!    total energy              =    -638.06538579 Ry
     Harris-Foulkes estimate   =    -638.06478404 Ry
     estimated scf accuracy    <       0.00000031 Ry

     The total energy is the sum of the following terms:

     one-electron contribution =     -93.80107984 Ry
     hartree contribution      =      98.04653655 Ry
     xc contribution           =    -190.52354475 Ry
     ewald contribution        =    -451.78215208 Ry
     smearing contrib. (-TS)   =      -0.00514568 Ry

     convergence has been achieved in   9 iterations

     Forces acting on atoms (Ry/au):

     negative rho (up, down):  2.235E-01 0.000E+00
     atom    1 type  1   force =     0.00000000    0.00000000    0.00000000
     atom    2 type  1   force =     0.00000000    0.00000000    0.00000000
     atom    3 type  2   force =     0.00000000    0.00000000    0.00000000
     atom    4 type  2   force =     0.00000000    0.00000000    0.00000000

     Total force =     0.000000     Total SCF correction =     0.000000

     General routines

     Parallel routines

   This run was terminated on:   4:57: 5  15Nov2017

   JOB DONE.