     Program PWSCF v.5.1rc2 (svn rev. ) starts on 18Feb2018 at 17:47: 3

     Current dimensions of program PWSCF are:
     Max number of different atomic species (ntypx) = 10
     Max number of k-points (npk) =  40000
     Max angular momentum in pseudopotentials (lmaxx) =  3

     IMPORTANT: XC functional enforced from input :
     Exchange-correlation      = BEEF-VDW ( 1  4 27 13 2)
     Any further DFT definition will be discarded
     Please, verify this is what you really want

     Subspace diagonalization in iterative solution of the eigenvalue problem:
     a serial algorithm will be used

     Found symmetry operation: I + ( -0.5000 -0.5000  0.0000)
     This is a supercell, fractional translations are disabled

     bravais-lattice index     =            0
     lattice parameter (alat)  =       1.8897  a.u.
     unit-cell volume          =     848.6299 (a.u.)^3
     number of atoms/cell      =            4
     number of atomic types    =            2
     number of electrons       =        58.00
     number of Kohn-Sham states=           49
     kinetic-energy cutoff     =      58.7989  Ry
     charge density cutoff     =     587.9892  Ry
     convergence threshold     =      1.0E-06
     mixing beta               =       0.1000
     number of iterations used =           10  plain     mixing
     Exchange-correlation      = BEEF-VDW ( 1  4 27 13 2)

     celldm(1)=   1.889726  celldm(2)=   0.000000  celldm(3)=   0.000000
     celldm(4)=   0.000000  celldm(5)=   0.000000  celldm(6)=   0.000000

     crystal axes: (cart. coord. in units of alat)
               a(1) = (   4.936302   0.000000   0.000000 )
               a(2) = (   0.000000   4.936302   0.000000 )
               a(3) = (   0.000000   0.000000   5.160815 )

     reciprocal axes: (cart. coord. in units 2 pi/alat)
               b(1) = (  0.202581  0.000000  0.000000 )
               b(2) = (  0.000000  0.202581  0.000000 )
               b(3) = (  0.000000  0.000000  0.193768 )

     PseudoPot. # 1 for Sn read from file:
     /home/mamunm/src/pseudo/gbrv1.5pbe/Sn.UPF
     MD5 check sum: 469debedee59599fedebd795477fea03
     Pseudo is Ultrasoft + core correction, Zval = 14.0
     Generated by new atomic code, or converted to UPF format
     Using radial grid of  891 points,  6 beta functions with:
                l(1) =   0
                l(2) =   0
                l(3) =   1
                l(4) =   1
                l(5) =   2
                l(6) =   2
     Q(r) pseudized with  8 coefficients,  rinner =    1.350   1.350   1.350
                                                       1.350   1.350

     PseudoPot. # 2 for Bi read from file:
     /home/mamunm/src/pseudo/gbrv1.5pbe/Bi.UPF
     MD5 check sum: 81103212dc04adf40945787f699eab19
     Pseudo is Ultrasoft + core correction, Zval = 15.0
     Generated by new atomic code, or converted to UPF format
     Using radial grid of  899 points,  6 beta functions with:
                l(1) =   0
                l(2) =   0
                l(3) =   1
                l(4) =   1
                l(5) =   2
                l(6) =   2
     Q(r) pseudized with  6 coefficients,  rinner =    1.000   1.000   1.000
                                                       1.000   1.000

     vdW kernel table read from file vdW_kernel_table
     MD5 check sum: 095c7af220d748ca6e76c0b4c6cfb241

     atomic species   valence    mass     pseudopotential
        Sn1           14.00   118.71000     Sn( 1.00)
        Bi1           15.00   208.98040     Bi( 1.00)

     16 Sym. Ops., with inversion, found

   Cartesian axes

     site n.     atom                  positions (alat units)
         1           Sn1 tau(   1) = (   0.0000000   0.0000000   0.0000000  )
         2           Sn1 tau(   2) = (   2.4681510   2.4681510   0.0000000  )
         3           Bi1 tau(   3) = (   2.4681510   0.0000000   2.5804075  )
         4           Bi1 tau(   4) = (   0.0000000   2.4681510   2.5804075  )

     number of k points=    75  Fermi-Dirac smearing, width (Ry)=  0.0073
                       cart. coord. in units 2pi/alat
        k(    1) = (   0.0000000   0.0000000   0.0000000), wk =   0.0027435
        k(    2) = (   0.0000000   0.0000000   0.0215298), wk =   0.0054870
        k(    3) = (   0.0000000   0.0000000   0.0430595), wk =   0.0054870
        k(    4) = (   0.0000000   0.0000000   0.0645893), wk =   0.0054870
        k(    5) = (   0.0000000   0.0000000   0.0861190), wk =   0.0054870
        k(    6) = (   0.0000000   0.0225090   0.0000000), wk =   0.0109739
        k(    7) = (   0.0000000   0.0225090   0.0215298), wk =   0.0219479
        k(    8) = (   0.0000000   0.0225090   0.0430595), wk =   0.0219479
        k(    9) = (   0.0000000   0.0225090   0.0645893), wk =   0.0219479
        k(   10) = (   0.0000000   0.0225090   0.0861190), wk =   0.0219479
        k(   11) = (   0.0000000   0.0450180   0.0000000), wk =   0.0109739
        k(   12) = (   0.0000000   0.0450180   0.0215298), wk =   0.0219479
        k(   13) = (   0.0000000   0.0450180   0.0430595), wk =   0.0219479
        k(   14) = (   0.0000000   0.0450180   0.0645893), wk =   0.0219479
        k(   15) = (   0.0000000   0.0450180   0.0861190), wk =   0.0219479
        k(   16) = (   0.0000000   0.0675269   0.0000000), wk =   0.0109739
        k(   17) = (   0.0000000   0.0675269   0.0215298), wk =   0.0219479
        k(   18) = (   0.0000000   0.0675269   0.0430595), wk =   0.0219479
        k(   19) = (   0.0000000   0.0675269   0.0645893), wk =   0.0219479
        k(   20) = (   0.0000000   0.0675269   0.0861190), wk =   0.0219479
        k(   21) = (   0.0000000   0.0900359   0.0000000), wk =   0.0109739
        k(   22) = (   0.0000000   0.0900359   0.0215298), wk =   0.0219479
        k(   23) = (   0.0000000   0.0900359   0.0430595), wk =   0.0219479
        k(   24) = (   0.0000000   0.0900359   0.0645893), wk =   0.0219479
        k(   25) = (   0.0000000   0.0900359   0.0861190), wk =   0.0219479
        k(   26) = (   0.0225090   0.0225090   0.0000000), wk =   0.0109739
        k(   27) = (   0.0225090   0.0225090   0.0215298), wk =   0.0219479
        k(   28) = (   0.0225090   0.0225090   0.0430595), wk =   0.0219479
        k(   29) = (   0.0225090   0.0225090   0.0645893), wk =   0.0219479
        k(   30) = (   0.0225090   0.0225090   0.0861190), wk =   0.0219479
        k(   31) = (   0.0225090   0.0450180   0.0000000), wk =   0.0219479
        k(   32) = (   0.0225090   0.0450180   0.0215298), wk =   0.0438957
        k(   33) = (   0.0225090   0.0450180   0.0430595), wk =   0.0438957
        k(   34) = (   0.0225090   0.0450180   0.0645893), wk =   0.0438957
        k(   35) = (   0.0225090   0.0450180   0.0861190), wk =   0.0438957
        k(   36) = (   0.0225090   0.0675269   0.0000000), wk =   0.0219479
        k(   37) = (   0.0225090   0.0675269   0.0215298), wk =   0.0438957
        k(   38) = (   0.0225090   0.0675269   0.0430595), wk =   0.0438957
        k(   39) = (   0.0225090   0.0675269   0.0645893), wk =   0.0438957
        k(   40) = (   0.0225090   0.0675269   0.0861190), wk =   0.0438957
        k(   41) = (   0.0225090   0.0900359   0.0000000), wk =   0.0219479
        k(   42) = (   0.0225090   0.0900359   0.0215298), wk =   0.0438957
        k(   43) = (   0.0225090   0.0900359   0.0430595), wk =   0.0438957
        k(   44) = (   0.0225090   0.0900359   0.0645893), wk =   0.0438957
        k(   45) = (   0.0225090   0.0900359   0.0861190), wk =   0.0438957
        k(   46) = (   0.0450180   0.0450180   0.0000000), wk =   0.0109739
        k(   47) = (   0.0450180   0.0450180   0.0215298), wk =   0.0219479
        k(   48) = (   0.0450180   0.0450180   0.0430595), wk =   0.0219479
        k(   49) = (   0.0450180   0.0450180   0.0645893), wk =   0.0219479
        k(   50) = (   0.0450180   0.0450180   0.0861190), wk =   0.0219479
        k(   51) = (   0.0450180   0.0675269   0.0000000), wk =   0.0219479
        k(   52) = (   0.0450180   0.0675269   0.0215298), wk =   0.0438957
        k(   53) = (   0.0450180   0.0675269   0.0430595), wk =   0.0438957
        k(   54) = (   0.0450180   0.0675269   0.0645893), wk =   0.0438957
        k(   55) = (   0.0450180   0.0675269   0.0861190), wk =   0.0438957
        k(   56) = (   0.0450180   0.0900359   0.0000000), wk =   0.0219479
        k(   57) = (   0.0450180   0.0900359   0.0215298), wk =   0.0438957
        k(   58) = (   0.0450180   0.0900359   0.0430595), wk =   0.0438957
        k(   59) = (   0.0450180   0.0900359   0.0645893), wk =   0.0438957
        k(   60) = (   0.0450180   0.0900359   0.0861190), wk =   0.0438957
        k(   61) = (   0.0675269   0.0675269   0.0000000), wk =   0.0109739
        k(   62) = (   0.0675269   0.0675269   0.0215298), wk =   0.0219479
        k(   63) = (   0.0675269   0.0675269   0.0430595), wk =   0.0219479
        k(   64) = (   0.0675269   0.0675269   0.0645893), wk =   0.0219479
        k(   65) = (   0.0675269   0.0675269   0.0861190), wk =   0.0219479
        k(   66) = (   0.0675269   0.0900359   0.0000000), wk =   0.0219479
        k(   67) = (   0.0675269   0.0900359   0.0215298), wk =   0.0438957
        k(   68) = (   0.0675269   0.0900359   0.0430595), wk =   0.0438957
        k(   69) = (   0.0675269   0.0900359   0.0645893), wk =   0.0438957
        k(   70) = (   0.0675269   0.0900359   0.0861190), wk =   0.0438957
        k(   71) = (   0.0900359   0.0900359   0.0000000), wk =   0.0109739
        k(   72) = (   0.0900359   0.0900359   0.0215298), wk =   0.0219479
        k(   73) = (   0.0900359   0.0900359   0.0430595), wk =   0.0219479
        k(   74) = (   0.0900359   0.0900359   0.0645893), wk =   0.0219479
        k(   75) = (   0.0900359   0.0900359   0.0861190), wk =   0.0219479

     Largest allocated arrays     est. size (Mb)     dimensions
     Largest temporary arrays     est. size (Mb)     dimensions

     Initial potential from superposition of free atoms
     Check: negative starting charge=   -0.082670

     starting charge   53.99983, renormalised to   58.00000

     negative rho (up, down):  8.879E-02 0.000E+00

     *
     * You are using vdW-DF for exchange-correlation in this calculation.
     * Please cite the following three references that made this development
     * possible:
     *
     *   M. Dion, H. Rydberg, E. Schroder, D. C. Langreth, and
     *   B. I. Lundqvist, Phys. Rev. Lett. 92, 246401 (2004).
     *
     *   T. Thonhauser, V. R. Cooper, S. Li, A. Puzder, P. Hyldgaard, and
     *   D. C. Langreth, Phys. Rev. B 76, 125112 (2007).
     *
     *   G. Roman-Perez and J. M. Soler, Phys. Rev. Lett. 103, 096102 (2009).
     *
     *
     * If you are using vdW-DF2, please also cite:
     *
     *   K. Lee, E. D. Murray, L. Kong, B. I. Lundqvist, and
     *   D. C. Langreth, Phys. Rev. B 82, 081101(R) (2010).
     *
     *
     * If you are calculating the stress with vdW-DF, please also cite:
     *
     *   R. Sabatini, E. Kucukbenli, B. Kolb, T. Thonhauser, and
     *   S. de Gironcoli, J. Phys.: Condens. Matter 24, 424209 (2012).
     *

     Carrying out vdW-DF run using the following parameters:

     Nqs =      20    Nr_points =    1024   r_max =   100.000
     q_mesh =
               0.00001000     0.04494208     0.09755937     0.15916263
               0.23128650     0.31572767     0.41458969     0.53033537
               0.66584808     0.82450364     1.01025438     1.22772762
               1.48234092     1.78043706     2.12944203     2.53805004
               3.01644009     3.57652955     4.23227104     5.00000000

     Gradients computed in reciprocal space

     Starting wfc are   36 randomized atomic wfcs +   13 random wfc

     Self-consistent Calculation

     iteration #  1     ecut=    58.80 Ry     beta=0.10
     Davidson diagonalization with overlap
     ethr =  1.00E-02,  avg # of iterations =  5.9

[...]

     total energy              =    -696.69767613 Ry
     Harris-Foulkes estimate   =    -697.24061778 Ry
     estimated scf accuracy    <       3.25499529 Ry

[...]

     total energy              =    -695.75839980 Ry
     Harris-Foulkes estimate   =    -695.75832174 Ry
     estimated scf accuracy    <       0.00000149 Ry

     iteration # 11     ecut=    58.80 Ry     beta=0.10
     Davidson diagonalization with overlap
     ethr =  2.57E-09,  avg # of iterations =  2.0

     negative rho (up, down):  8.703E-02 0.000E+00

     End of self-consistent calculation

          k = 0.0000 0.0000 0.0000 (  6435 PWs)   bands (ev):

   -13.2196 -13.1603 -13.1278 -13.1184 -13.1184 -13.0758 -13.0758 -13.0718
   -13.0522 -13.0073 -11.8964 -11.8730 -11.8520 -11.8468 -11.8468 -11.8218
   -11.8218 -11.8187 -11.7912 -11.7495  -2.2389   0.8289   3.1135   5.1148
     6.3072   6.5713   6.5713  10.8995  11.1104  11.1104  11.6186  11.6186
    11.8187  14.4797  14.9089  15.0620  15.5734  15.5734  15.9127  15.9686
    15.9701  15.9701  20.1871  20.7987  21.0174  21.2335  21.2335  23.6624
    25.2551

[...]

          k = 0.0900 0.0900 0.0861 (  6457 PWs)   bands (ev):

   -13.1627 -13.1578 -13.1213 -13.1201 -13.1130 -13.1105 -13.0727 -13.0715
   -13.0448 -13.0410 -11.8764 -11.8737 -11.8578 -11.8570 -11.8214 -11.8206
   -11.8184 -11.8165 -11.7950 -11.7916  -0.4392  -0.3457   3.2635   3.4409
     5.5903   5.6512   5.9725   6.1939  13.5021  13.5194  13.7788  13.9750
    13.9941  14.1048  14.9066  15.2282  17.8460  17.9728  18.6614  18.8575
    19.0892  19.1651  19.3661  19.6955  20.1238  20.3040  20.3624  20.5305
    20.7163

     the Fermi energy is    10.2738 ev

!    total energy              =    -695.75873422 Ry
     Harris-Foulkes estimate   =    -695.75839996 Ry
     estimated scf accuracy    <       0.00000076 Ry

     The total energy is the sum of the following terms:

     one-electron contribution =    -210.50057514 Ry
     hartree contribution      =     144.32918386 Ry
     xc contribution           =    -222.09877050 Ry
     ewald contribution        =    -407.48309489 Ry
     smearing contrib. (-TS)   =      -0.00547755 Ry

     convergence has been achieved in  11 iterations

     Forces acting on atoms (Ry/au):

     negative rho (up, down):  8.703E-02 0.000E+00
     atom    1 type  1   force =     0.00000000    0.00000000    0.00000000
     atom    2 type  1   force =     0.00000000    0.00000000    0.00000000
     atom    3 type  2   force =     0.00000000    0.00000000    0.00000000
     atom    4 type  2   force =     0.00000000    0.00000000    0.00000000

     Total force =     0.000000     Total SCF correction =     0.000000

     General routines

     Parallel routines

   This run was terminated on:  17:48:13  18Feb2018

   JOB DONE.