     Program PWSCF v.5.1rc2 starts on 15Nov2017 at  3:10:43

     Current dimensions of program PWSCF are:
     Max number of different atomic species (ntypx) = 10
     Max number of k-points (npk) =  40000
     Max angular momentum in pseudopotentials (lmaxx) =  3

     IMPORTANT: XC functional enforced from input :
     Exchange-correlation      = BEEF-VDW ( 1  4 27 13 2)
     Any further DFT definition will be discarded
     Please, verify this is what you really want

     Found symmetry operation: I + ( -0.5000 -0.5000  0.0000)
     This is a supercell, fractional translations are disabled

     bravais-lattice index     =            0
     lattice parameter (alat)  =       1.8897  a.u.
     unit-cell volume          =     608.2237 (a.u.)^3
     number of atoms/cell      =            4
     number of atomic types    =            2
     number of electrons       =        46.00
     number of Kohn-Sham states=           43
     kinetic-energy cutoff     =      58.7989  Ry
     charge density cutoff     =     587.9892  Ry
     convergence threshold     =      1.0E-06
     mixing beta               =       0.1000
     number of iterations used =           10  plain     mixing
     Exchange-correlation      = BEEF-VDW ( 1  4 27 13 2)

     celldm(1)=   1.889726  celldm(2)=   0.000000  celldm(3)=   0.000000
     celldm(4)=   0.000000  celldm(5)=   0.000000  celldm(6)=   0.000000

     crystal axes: (cart. coord. in units of alat)
               a(1) = (   5.035848   0.000000   0.000000 )
               a(2) = (   0.000000   5.035848   0.000000 )
               a(3) = (   0.000000   0.000000   3.554033 )

     reciprocal axes: (cart. coord. in units 2 pi/alat)
               b(1) = (  0.198576  0.000000  0.000000 )
               b(2) = (  0.000000  0.198576  0.000000 )
               b(3) = (  0.000000  0.000000  0.281371 )

     PseudoPot. # 1 for Sc read from file:
     /home/users/vossj/suncat/psp/gbrv1.5pbe/Sc.UPF
     MD5 check sum: db30a2753ba66ef00f23801d899b7e7f
     Pseudo is Ultrasoft + core correction, Zval = 11.0
     Generated by new atomic code, or converted to UPF format
     Using radial grid of  849 points,  6 beta functions with:
                l(1) =   0
                l(2) =   0
                l(3) =   1
                l(4) =   1
                l(5) =   2
                l(6) =   2
     Q(r) pseudized with  6 coefficients,  rinner =    1.200   1.200   1.200
                                                       1.200   1.200

     PseudoPot. # 2 for Cd read from file:
     /home/users/vossj/suncat/psp/gbrv1.5pbe/Cd.UPF
     MD5 check sum: 17164a7926edb8e0dc231208abae86a6
     Pseudo is Ultrasoft + core correction, Zval = 12.0
     Generated by new atomic code, or converted to UPF format
     Using radial grid of  889 points,  6 beta functions with:
                l(1) =   0
                l(2) =   0
                l(3) =   1
                l(4) =   1
                l(5) =   2
                l(6) =   2
     Q(r) pseudized with  6 coefficients,  rinner =    1.000   1.000   1.000
                                                       1.000   1.000

     vdW kernel table read from file vdW_kernel_table
     MD5 check sum: 095c7af220d748ca6e76c0b4c6cfb241

     atomic species   valence    mass     pseudopotential
        Sc1           11.00    44.95590     Sc( 1.00)
        Cd1           12.00   112.41000     Cd( 1.00)

     16 Sym. Ops., with inversion, found

   Cartesian axes

     site n.     atom                  positions (alat units)
         1           Sc1 tau(   1) = (   0.0000000   0.0000000   0.0000000  )
         2           Sc1 tau(   2) = (   2.5179242   2.5179242   0.0000000  )
         3           Cd1 tau(   3) = (   2.5179242   0.0000000   1.7770163  )
         4           Cd1 tau(   4) = (   0.0000000   2.5179242   1.7770163  )

     number of k points=    75  Fermi-Dirac smearing, width (Ry)=  0.0073
                       cart. coord. in units 2pi/alat
        k(    1) = (   0.0000000   0.0000000   0.0000000), wk =   0.0027435
        k(    2) = (   0.0000000   0.0000000   0.0312634), wk =   0.0054870
        k(    3) = (   0.0000000   0.0000000   0.0625268), wk =   0.0054870
        k(    4) = (   0.0000000   0.0000000   0.0937902), wk =   0.0054870
        k(    5) = (   0.0000000   0.0000000   0.1250536), wk =   0.0054870
        k(    6) = (   0.0000000   0.0220640   0.0000000), wk =   0.0109739
        k(    7) = (   0.0000000   0.0220640   0.0312634), wk =   0.0219479
        k(    8) = (   0.0000000   0.0220640   0.0625268), wk =   0.0219479
        k(    9) = (   0.0000000   0.0220640   0.0937902), wk =   0.0219479
        k(   10) = (   0.0000000   0.0220640   0.1250536), wk =   0.0219479
        k(   11) = (   0.0000000   0.0441281   0.0000000), wk =   0.0109739
        k(   12) = (   0.0000000   0.0441281   0.0312634), wk =   0.0219479
        k(   13) = (   0.0000000   0.0441281   0.0625268), wk =   0.0219479
        k(   14) = (   0.0000000   0.0441281   0.0937902), wk =   0.0219479
        k(   15) = (   0.0000000   0.0441281   0.1250536), wk =   0.0219479
        k(   16) = (   0.0000000   0.0661921   0.0000000), wk =   0.0109739
        k(   17) = (   0.0000000   0.0661921   0.0312634), wk =   0.0219479
        k(   18) = (   0.0000000   0.0661921   0.0625268), wk =   0.0219479
        k(   19) = (   0.0000000   0.0661921   0.0937902), wk =   0.0219479
        k(   20) = (   0.0000000   0.0661921   0.1250536), wk =   0.0219479
        k(   21) = (   0.0000000   0.0882561   0.0000000), wk =   0.0109739
        k(   22) = (   0.0000000   0.0882561   0.0312634), wk =   0.0219479
        k(   23) = (   0.0000000   0.0882561   0.0625268), wk =   0.0219479
        k(   24) = (   0.0000000   0.0882561   0.0937902), wk =   0.0219479
        k(   25) = (   0.0000000   0.0882561   0.1250536), wk =   0.0219479
        k(   26) = (   0.0220640   0.0220640   0.0000000), wk =   0.0109739
        k(   27) = (   0.0220640   0.0220640   0.0312634), wk =   0.0219479
        k(   28) = (   0.0220640   0.0220640   0.0625268), wk =   0.0219479
        k(   29) = (   0.0220640   0.0220640   0.0937902), wk =   0.0219479
        k(   30) = (   0.0220640   0.0220640   0.1250536), wk =   0.0219479
        k(   31) = (   0.0220640   0.0441281   0.0000000), wk =   0.0219479
        k(   32) = (   0.0220640   0.0441281   0.0312634), wk =   0.0438957
        k(   33) = (   0.0220640   0.0441281   0.0625268), wk =   0.0438957
        k(   34) = (   0.0220640   0.0441281   0.0937902), wk =   0.0438957
        k(   35) = (   0.0220640   0.0441281   0.1250536), wk =   0.0438957
        k(   36) = (   0.0220640   0.0661921   0.0000000), wk =   0.0219479
        k(   37) = (   0.0220640   0.0661921   0.0312634), wk =   0.0438957
        k(   38) = (   0.0220640   0.0661921   0.0625268), wk =   0.0438957
        k(   39) = (   0.0220640   0.0661921   0.0937902), wk =   0.0438957
        k(   40) = (   0.0220640   0.0661921   0.1250536), wk =   0.0438957
        k(   41) = (   0.0220640   0.0882561   0.0000000), wk =   0.0219479
        k(   42) = (   0.0220640   0.0882561   0.0312634), wk =   0.0438957
        k(   43) = (   0.0220640   0.0882561   0.0625268), wk =   0.0438957
        k(   44) = (   0.0220640   0.0882561   0.0937902), wk =   0.0438957
        k(   45) = (   0.0220640   0.0882561   0.1250536), wk =   0.0438957
        k(   46) = (   0.0441281   0.0441281   0.0000000), wk =   0.0109739
        k(   47) = (   0.0441281   0.0441281   0.0312634), wk =   0.0219479
        k(   48) = (   0.0441281   0.0441281   0.0625268), wk =   0.0219479
        k(   49) = (   0.0441281   0.0441281   0.0937902), wk =   0.0219479
        k(   50) = (   0.0441281   0.0441281   0.1250536), wk =   0.0219479
        k(   51) = (   0.0441281   0.0661921   0.0000000), wk =   0.0219479
        k(   52) = (   0.0441281   0.0661921   0.0312634), wk =   0.0438957
        k(   53) = (   0.0441281   0.0661921   0.0625268), wk =   0.0438957
        k(   54) = (   0.0441281   0.0661921   0.0937902), wk =   0.0438957
        k(   55) = (   0.0441281   0.0661921   0.1250536), wk =   0.0438957
        k(   56) = (   0.0441281   0.0882561   0.0000000), wk =   0.0219479
        k(   57) = (   0.0441281   0.0882561   0.0312634), wk =   0.0438957
        k(   58) = (   0.0441281   0.0882561   0.0625268), wk =   0.0438957
        k(   59) = (   0.0441281   0.0882561   0.0937902), wk =   0.0438957
        k(   60) = (   0.0441281   0.0882561   0.1250536), wk =   0.0438957
        k(   61) = (   0.0661921   0.0661921   0.0000000), wk =   0.0109739
        k(   62) = (   0.0661921   0.0661921   0.0312634), wk =   0.0219479
        k(   63) = (   0.0661921   0.0661921   0.0625268), wk =   0.0219479
        k(   64) = (   0.0661921   0.0661921   0.0937902), wk =   0.0219479
        k(   65) = (   0.0661921   0.0661921   0.1250536), wk =   0.0219479
        k(   66) = (   0.0661921   0.0882561   0.0000000), wk =   0.0219479
        k(   67) = (   0.0661921   0.0882561   0.0312634), wk =   0.0438957
        k(   68) = (   0.0661921   0.0882561   0.0625268), wk =   0.0438957
        k(   69) = (   0.0661921   0.0882561   0.0937902), wk =   0.0438957
        k(   70) = (   0.0661921   0.0882561   0.1250536), wk =   0.0438957
        k(   71) = (   0.0882561   0.0882561   0.0000000), wk =   0.0109739
        k(   72) = (   0.0882561   0.0882561   0.0312634), wk =   0.0219479
        k(   73) = (   0.0882561   0.0882561   0.0625268), wk =   0.0219479
        k(   74) = (   0.0882561   0.0882561   0.0937902), wk =   0.0219479
        k(   75) = (   0.0882561   0.0882561   0.1250536), wk =   0.0219479

     Largest allocated arrays     est. size (Mb)     dimensions
     Largest temporary arrays     est. size (Mb)     dimensions

     Initial potential from superposition of free atoms
     Check: negative starting charge=   -0.042637

     starting charge   44.99511, renormalised to   46.00000

     negative rho (up, down):  4.359E-02 0.000E+00

     *
     * You are using vdW-DF for exchange-correlation in this calculation.
     * Please cite the following three references that made this development
     * possible:
     *
     *   M. Dion, H. Rydberg, E. Schroder, D. C. Langreth, and
     *   B. I. Lundqvist, Phys. Rev. Lett. 92, 246401 (2004).
     *
     *   T. Thonhauser, V. R. Cooper, S. Li, A. Puzder, P. Hyldgaard, and
     *   D. C. Langreth, Phys. Rev. B 76, 125112 (2007).
     *
     *   G. Roman-Perez and J. M. Soler, Phys. Rev. Lett. 103, 096102 (2009).
     *
     *
     * If you are using vdW-DF2, please also cite:
     *
     *   K. Lee, E. D. Murray, L. Kong, B. I. Lundqvist, and
     *   D. C. Langreth, Phys. Rev. B 82, 081101(R) (2010).
     *
     *
     * If you are calculating the stress with vdW-DF, please also cite:
     *
     *   R. Sabatini, E. Kucukbenli, B. Kolb, T. Thonhauser, and
     *   S. de Gironcoli, J. Phys.: Condens. Matter 24, 424209 (2012).
     *

     Carrying out vdW-DF run using the following parameters:

     Nqs =      20    Nr_points =    1024   r_max =   100.000
     q_mesh =
               0.00001000     0.04494208     0.09755937     0.15916263
               0.23128650     0.31572767     0.41458969     0.53033537
               0.66584808     0.82450364     1.01025438     1.22772762
               1.48234092     1.78043706     2.12944203     2.53805004
               3.01644009     3.57652955     4.23227104     5.00000000

     Gradients computed in reciprocal space

     Starting wfc are   44 randomized atomic wfcs

     Self-consistent Calculation

     iteration #  1     ecut=    58.80 Ry     beta=0.10
     Davidson diagonalization with overlap
     ethr =  1.00E-02,  avg # of iterations =  3.7

     Threshold (ethr) on eigenvalues was too large:
     Diagonalizing with lowered threshold

     Davidson diagonalization with overlap
     ethr =  5.54E-04,  avg # of iterations =  1.2

[...]

     total energy              =    -421.98620504 Ry
     Harris-Foulkes estimate   =    -422.02266477 Ry
     estimated scf accuracy    <       0.24676672 Ry

[...]

     total energy              =    -421.94838921 Ry
     Harris-Foulkes estimate   =    -421.94836652 Ry
     estimated scf accuracy    <       0.00000219 Ry

     iteration # 10     ecut=    58.80 Ry     beta=0.10
     Davidson diagonalization with overlap
     ethr =  4.76E-09,  avg # of iterations =  1.8

     negative rho (up, down):  4.478E-02 0.000E+00

     End of self-consistent calculation

          k = 0.0000 0.0000 0.0000 (  4621 PWs)   bands (ev):

   -39.8120 -39.7994 -18.4210 -18.4210 -18.3433 -18.3433 -18.3416 -18.3265
     1.4953   1.5198   1.5212   1.6918   1.7535   1.7535   1.9000   1.9018
     1.9018   2.1483   3.3621   7.4571   9.7621   9.7621  10.6295  10.6314
    10.6940  12.2319  12.2319  12.7483  12.7532  12.7532  13.2728  14.9682
    15.3712  15.3877  15.3877  15.4334  19.8339  20.2662  21.0530  21.0755
    21.2184  21.2184  24.1333

[...]

          k = 0.0883 0.0883 0.1251 (  4629 PWs)   bands (ev):

   -39.7996 -39.7992 -18.4209 -18.4189 -18.4185 -18.4181 -18.3308 -18.3285
     1.5061   1.5106   1.6924   1.7071   1.7478   1.7512   1.7553   1.7591
     2.1280   2.1392   7.3112   7.4216   9.5513   9.5575   9.8081   9.8380
    10.8664  10.9248  12.1835  12.2379  12.2596  12.2833  13.2975  13.3056
    14.9796  15.0394  15.4752  15.6069  19.5394  19.8197  21.0702  21.0817
    21.1358  21.3066  23.6930

     the Fermi energy is    10.4748 ev

!    total energy              =    -421.94848894 Ry
     Harris-Foulkes estimate   =    -421.94838951 Ry
     estimated scf accuracy    <       0.00000021 Ry

     The total energy is the sum of the following terms:

     one-electron contribution =    -110.22995541 Ry
     hartree contribution      =      84.28722023 Ry
     xc contribution           =    -109.41456706 Ry
     ewald contribution        =    -286.58054068 Ry
     smearing contrib. (-TS)   =      -0.01064602 Ry

     convergence has been achieved in  10 iterations

     Forces acting on atoms (Ry/au):

     negative rho (up, down):  4.478E-02 0.000E+00
     atom    1 type  1   force =     0.00000000    0.00000000    0.00000000
     atom    2 type  1   force =     0.00000000    0.00000000    0.00000000
     atom    3 type  2   force =     0.00000000    0.00000000    0.00000000
     atom    4 type  2   force =     0.00000000    0.00000000    0.00000000

     Total force =     0.000000     Total SCF correction =     0.000000

     General routines

     Parallel routines

   This run was terminated on:   3:11:25  15Nov2017

   JOB DONE.