     Program PWSCF v.5.1rc2 starts on 15Nov2017 at  5:40:56

     Current dimensions of program PWSCF are:
     Max number of different atomic species (ntypx) = 10
     Max number of k-points (npk) =  40000
     Max angular momentum in pseudopotentials (lmaxx) =  3

     IMPORTANT: XC functional enforced from input :
     Exchange-correlation      = BEEF-VDW ( 1  4 27 13 2)
     Any further DFT definition will be discarded
     Please, verify this is what you really want

     Found symmetry operation: I + ( -0.5000 -0.5000  0.0000)
     This is a supercell, fractional translations are disabled

     bravais-lattice index     =            0
     lattice parameter (alat)  =       1.8897  a.u.
     unit-cell volume          =     471.8391 (a.u.)^3
     number of atoms/cell      =            4
     number of atomic types    =            2
     number of electrons       =        62.00
     number of Kohn-Sham states=           51
     kinetic-energy cutoff     =      58.7989  Ry
     charge density cutoff     =     587.9892  Ry
     convergence threshold     =      1.0E-06
     mixing beta               =       0.1000
     number of iterations used =           10  plain     mixing
     Exchange-correlation      = BEEF-VDW ( 1  4 27 13 2)

     celldm(1)=   1.889726  celldm(2)=   0.000000  celldm(3)=   0.000000
     celldm(4)=   0.000000  celldm(5)=   0.000000  celldm(6)=   0.000000

     crystal axes: (cart. coord. in units of alat)
               a(1) = (   4.023323   0.000000   0.000000 )
               a(2) = (   0.000000   4.023323   0.000000 )
               a(3) = (   0.000000   0.000000   4.319441 )

     reciprocal axes: (cart. coord. in units 2 pi/alat)
               b(1) = (  0.248551  0.000000  0.000000 )
               b(2) = (  0.000000  0.248551  0.000000 )
               b(3) = (  0.000000  0.000000  0.231511 )

     PseudoPot. # 1 for Ti read from file:
     /home/users/vossj/suncat/psp/gbrv1.5pbe/Ti.UPF
     MD5 check sum: 88a00a6731bd790ddea75d31a80cb452
     Pseudo is Ultrasoft + core correction, Zval = 12.0
     Generated by new atomic code, or converted to UPF format
     Using radial grid of  851 points,  6 beta functions with:
                l(1) =   0
                l(2) =   0
                l(3) =   1
                l(4) =   1
                l(5) =   2
                l(6) =   2
     Q(r) pseudized with  6 coefficients,  rinner =    1.000   1.000   1.000
                                                       1.000   1.000

     PseudoPot. # 2 for Ag read from file:
     /home/users/vossj/suncat/psp/gbrv1.5pbe/Ag.UPF
     MD5 check sum: d66d668201baa78d5eb5b04ef7011058
     Pseudo is Ultrasoft + core correction, Zval = 19.0
     Generated by new atomic code, or converted to UPF format
     Using radial grid of  887 points,  6 beta functions with:
                l(1) =   0
                l(2) =   0
                l(3) =   1
                l(4) =   1
                l(5) =   2
                l(6) =   2
     Q(r) pseudized with  6 coefficients,  rinner =    1.300   1.300   1.300
                                                       1.300   1.300

     vdW kernel table read from file vdW_kernel_table
     MD5 check sum: 095c7af220d748ca6e76c0b4c6cfb241

     atomic species   valence    mass     pseudopotential
        Ti1           12.00    47.88000     Ti( 1.00)
        Ag1           19.00   107.86800     Ag( 1.00)

     16 Sym. Ops., with inversion, found

   Cartesian axes

     site n.     atom                  positions (alat units)
         1           Ti1 tau(   1) = (   0.0000000   0.0000000   0.0000000  )
         2           Ti1 tau(   2) = (   2.0116614   2.0116614   0.0000000  )
         3           Ag1 tau(   3) = (   2.0116614   0.0000000   2.1597206  )
         4           Ag1 tau(   4) = (   0.0000000   2.0116614   2.1597206  )

     number of k points=    75  Fermi-Dirac smearing, width (Ry)=  0.0073
                       cart. coord. in units 2pi/alat
        k(    1) = (   0.0000000   0.0000000   0.0000000), wk =   0.0027435
        k(    2) = (   0.0000000   0.0000000   0.0257235), wk =   0.0054870
        k(    3) = (   0.0000000   0.0000000   0.0514470), wk =   0.0054870
        k(    4) = (   0.0000000   0.0000000   0.0771705), wk =   0.0054870
        k(    5) = (   0.0000000   0.0000000   0.1028940), wk =   0.0054870
        k(    6) = (   0.0000000   0.0276168   0.0000000), wk =   0.0109739
        k(    7) = (   0.0000000   0.0276168   0.0257235), wk =   0.0219479
        k(    8) = (   0.0000000   0.0276168   0.0514470), wk =   0.0219479
        k(    9) = (   0.0000000   0.0276168   0.0771705), wk =   0.0219479
        k(   10) = (   0.0000000   0.0276168   0.1028940), wk =   0.0219479
        k(   11) = (   0.0000000   0.0552335   0.0000000), wk =   0.0109739
        k(   12) = (   0.0000000   0.0552335   0.0257235), wk =   0.0219479
        k(   13) = (   0.0000000   0.0552335   0.0514470), wk =   0.0219479
        k(   14) = (   0.0000000   0.0552335   0.0771705), wk =   0.0219479
        k(   15) = (   0.0000000   0.0552335   0.1028940), wk =   0.0219479
        k(   16) = (   0.0000000   0.0828503   0.0000000), wk =   0.0109739
        k(   17) = (   0.0000000   0.0828503   0.0257235), wk =   0.0219479
        k(   18) = (   0.0000000   0.0828503   0.0514470), wk =   0.0219479
        k(   19) = (   0.0000000   0.0828503   0.0771705), wk =   0.0219479
        k(   20) = (   0.0000000   0.0828503   0.1028940), wk =   0.0219479
        k(   21) = (   0.0000000   0.1104670   0.0000000), wk =   0.0109739
        k(   22) = (   0.0000000   0.1104670   0.0257235), wk =   0.0219479
        k(   23) = (   0.0000000   0.1104670   0.0514470), wk =   0.0219479
        k(   24) = (   0.0000000   0.1104670   0.0771705), wk =   0.0219479
        k(   25) = (   0.0000000   0.1104670   0.1028940), wk =   0.0219479
        k(   26) = (   0.0276168   0.0276168   0.0000000), wk =   0.0109739
        k(   27) = (   0.0276168   0.0276168   0.0257235), wk =   0.0219479
        k(   28) = (   0.0276168   0.0276168   0.0514470), wk =   0.0219479
        k(   29) = (   0.0276168   0.0276168   0.0771705), wk =   0.0219479
        k(   30) = (   0.0276168   0.0276168   0.1028940), wk =   0.0219479
        k(   31) = (   0.0276168   0.0552335   0.0000000), wk =   0.0219479
        k(   32) = (   0.0276168   0.0552335   0.0257235), wk =   0.0438957
        k(   33) = (   0.0276168   0.0552335   0.0514470), wk =   0.0438957
        k(   34) = (   0.0276168   0.0552335   0.0771705), wk =   0.0438957
        k(   35) = (   0.0276168   0.0552335   0.1028940), wk =   0.0438957
        k(   36) = (   0.0276168   0.0828503   0.0000000), wk =   0.0219479
        k(   37) = (   0.0276168   0.0828503   0.0257235), wk =   0.0438957
        k(   38) = (   0.0276168   0.0828503   0.0514470), wk =   0.0438957
        k(   39) = (   0.0276168   0.0828503   0.0771705), wk =   0.0438957
        k(   40) = (   0.0276168   0.0828503   0.1028940), wk =   0.0438957
        k(   41) = (   0.0276168   0.1104670   0.0000000), wk =   0.0219479
        k(   42) = (   0.0276168   0.1104670   0.0257235), wk =   0.0438957
        k(   43) = (   0.0276168   0.1104670   0.0514470), wk =   0.0438957
        k(   44) = (   0.0276168   0.1104670   0.0771705), wk =   0.0438957
        k(   45) = (   0.0276168   0.1104670   0.1028940), wk =   0.0438957
        k(   46) = (   0.0552335   0.0552335   0.0000000), wk =   0.0109739
        k(   47) = (   0.0552335   0.0552335   0.0257235), wk =   0.0219479
        k(   48) = (   0.0552335   0.0552335   0.0514470), wk =   0.0219479
        k(   49) = (   0.0552335   0.0552335   0.0771705), wk =   0.0219479
        k(   50) = (   0.0552335   0.0552335   0.1028940), wk =   0.0219479
        k(   51) = (   0.0552335   0.0828503   0.0000000), wk =   0.0219479
        k(   52) = (   0.0552335   0.0828503   0.0257235), wk =   0.0438957
        k(   53) = (   0.0552335   0.0828503   0.0514470), wk =   0.0438957
        k(   54) = (   0.0552335   0.0828503   0.0771705), wk =   0.0438957
        k(   55) = (   0.0552335   0.0828503   0.1028940), wk =   0.0438957
        k(   56) = (   0.0552335   0.1104670   0.0000000), wk =   0.0219479
        k(   57) = (   0.0552335   0.1104670   0.0257235), wk =   0.0438957
        k(   58) = (   0.0552335   0.1104670   0.0514470), wk =   0.0438957
        k(   59) = (   0.0552335   0.1104670   0.0771705), wk =   0.0438957
        k(   60) = (   0.0552335   0.1104670   0.1028940), wk =   0.0438957
        k(   61) = (   0.0828503   0.0828503   0.0000000), wk =   0.0109739
        k(   62) = (   0.0828503   0.0828503   0.0257235), wk =   0.0219479
        k(   63) = (   0.0828503   0.0828503   0.0514470), wk =   0.0219479
        k(   64) = (   0.0828503   0.0828503   0.0771705), wk =   0.0219479
        k(   65) = (   0.0828503   0.0828503   0.1028940), wk =   0.0219479
        k(   66) = (   0.0828503   0.1104670   0.0000000), wk =   0.0219479
        k(   67) = (   0.0828503   0.1104670   0.0257235), wk =   0.0438957
        k(   68) = (   0.0828503   0.1104670   0.0514470), wk =   0.0438957
        k(   69) = (   0.0828503   0.1104670   0.0771705), wk =   0.0438957
        k(   70) = (   0.0828503   0.1104670   0.1028940), wk =   0.0438957
        k(   71) = (   0.1104670   0.1104670   0.0000000), wk =   0.0109739
        k(   72) = (   0.1104670   0.1104670   0.0257235), wk =   0.0219479
        k(   73) = (   0.1104670   0.1104670   0.0514470), wk =   0.0219479
        k(   74) = (   0.1104670   0.1104670   0.0771705), wk =   0.0219479
        k(   75) = (   0.1104670   0.1104670   0.1028940), wk =   0.0219479

     Largest allocated arrays     est. size (Mb)     dimensions
     Largest temporary arrays     est. size (Mb)     dimensions

     Check: negative/imaginary core charge=   -0.000002    0.000000

     Initial potential from superposition of free atoms
     Check: negative starting charge=   -0.002698

     starting charge   58.99982, renormalised to   62.00000

     negative rho (up, down):  2.835E-03 0.000E+00

     *
     * You are using vdW-DF for exchange-correlation in this calculation.
     * Please cite the following three references that made this development
     * possible:
     *
     *   M. Dion, H. Rydberg, E. Schroder, D. C. Langreth, and
     *   B. I. Lundqvist, Phys. Rev. Lett. 92, 246401 (2004).
     *
     *   T. Thonhauser, V. R. Cooper, S. Li, A. Puzder, P. Hyldgaard, and
     *   D. C. Langreth, Phys. Rev. B 76, 125112 (2007).
     *
     *   G. Roman-Perez and J. M. Soler, Phys. Rev. Lett. 103, 096102 (2009).
     *
     *
     * If you are using vdW-DF2, please also cite:
     *
     *   K. Lee, E. D. Murray, L. Kong, B. I. Lundqvist, and
     *   D. C. Langreth, Phys. Rev. B 82, 081101(R) (2010).
     *
     *
     * If you are calculating the stress with vdW-DF, please also cite:
     *
     *   R. Sabatini, E. Kucukbenli, B. Kolb, T. Thonhauser, and
     *   S. de Gironcoli, J. Phys.: Condens. Matter 24, 424209 (2012).
     *

     Carrying out vdW-DF run using the following parameters:

     Nqs =      20    Nr_points =    1024   r_max =   100.000
     q_mesh =
               0.00001000     0.04494208     0.09755937     0.15916263
               0.23128650     0.31572767     0.41458969     0.53033537
               0.66584808     0.82450364     1.01025438     1.22772762
               1.48234092     1.78043706     2.12944203     2.53805004
               3.01644009     3.57652955     4.23227104     5.00000000

     Gradients computed in reciprocal space

     Starting wfc are   46 randomized atomic wfcs +    5 random wfc

     Self-consistent Calculation

     iteration #  1     ecut=    58.80 Ry     beta=0.10
     Davidson diagonalization with overlap
     ethr =  1.00E-02,  avg # of iterations =  4.3

[...]

     total energy              =    -822.43149762 Ry
     Harris-Foulkes estimate   =    -840.59295659 Ry
     estimated scf accuracy    <     100.17914676 Ry

[...]

     total energy              =    -833.14681782 Ry
     Harris-Foulkes estimate   =    -833.14681455 Ry
     estimated scf accuracy    <       0.00000231 Ry

     iteration # 14     ecut=    58.80 Ry     beta=0.10
     Davidson diagonalization with overlap
     ethr =  3.72E-09,  avg # of iterations =  2.0

     negative rho (up, down):  1.129E-03 0.000E+00

     End of self-consistent calculation

          k = 0.0000 0.0000 0.0000 (  3591 PWs)   bands (ev):

   -77.6512 -77.6372 -42.1740 -42.0738 -41.1541 -41.1541 -41.1253 -41.1076
   -41.0643 -41.0643 -18.5179 -18.4601 -18.4601 -18.4257 -18.0962 -18.0962
     7.9123   8.6528   8.8542   9.0757   9.3391   9.3391   9.9313  10.5940
    10.5940  11.1824  11.8750  14.1633  14.3340  14.5766  16.1517  16.1517
    16.2342  16.9101  17.2113  17.2113  17.4404  17.4404  17.9221  18.6803
    22.6003  23.1938  24.4281  24.6335  25.9525  25.9525  26.4471  26.8007
    26.8007  31.3491  31.4894

[...]

          k = 0.1105 0.1105 0.1029 (  3599 PWs)   bands (ev):

   -77.6444 -77.6439 -42.1247 -42.1215 -41.1631 -41.1604 -41.1170 -41.1166
   -41.0594 -41.0566 -18.5138 -18.5031 -18.4760 -18.4731 -18.0719 -18.0606
     8.9953   9.0063   9.1561   9.2302  10.2968  10.3088  10.3256  10.3826
    10.6785  10.7184  13.3424  13.8511  14.4141  14.5419  14.8305  15.0316
    15.0701  15.2627  16.8210  16.9824  17.1706  17.1788  17.2713  17.3882
    20.3476  20.5214  21.8158  22.0517  29.2514  29.3670  29.7519  29.7670
    32.2758  32.5599  32.6253

     the Fermi energy is    15.0088 ev

!    total energy              =    -833.14682854 Ry
     Harris-Foulkes estimate   =    -833.14681814 Ry
     estimated scf accuracy    <       0.00000009 Ry

     The total energy is the sum of the following terms:

     one-electron contribution =    -365.84847473 Ry
     hartree contribution      =     209.54045158 Ry
     xc contribution           =     -97.68189671 Ry
     ewald contribution        =    -579.14368534 Ry
     smearing contrib. (-TS)   =      -0.01322335 Ry

     convergence has been achieved in  14 iterations

     Forces acting on atoms (Ry/au):

     negative rho (up, down):  1.129E-03 0.000E+00
     atom    1 type  1   force =     0.00000000    0.00000000    0.00000000
     atom    2 type  1   force =     0.00000000    0.00000000    0.00000000
     atom    3 type  2   force =     0.00000000    0.00000000    0.00000000
     atom    4 type  2   force =     0.00000000    0.00000000    0.00000000

     Total force =     0.000000     Total SCF correction =     0.000000

     General routines

     Parallel routines

   This run was terminated on:   5:41:46  15Nov2017

   JOB DONE.