     Program PWSCF v.5.1rc2 (svn rev. ) starts on 23Feb2018 at 15:33: 4

     Current dimensions of program PWSCF are:
     Max number of different atomic species (ntypx) = 10
     Max number of k-points (npk) =  40000
     Max angular momentum in pseudopotentials (lmaxx) =  3

     IMPORTANT: XC functional enforced from input :
     Exchange-correlation      = BEEF-VDW ( 1  4 27 13 2)
     Any further DFT definition will be discarded
     Please, verify this is what you really want

     Subspace diagonalization in iterative solution of the eigenvalue problem:
     a serial algorithm will be used

     Found symmetry operation: I + (  0.5000  0.5000  0.0000)
     This is a supercell, fractional translations are disabled

     bravais-lattice index     =            0
     lattice parameter (alat)  =       1.8897  a.u.
     unit-cell volume          =     508.8952 (a.u.)^3
     number of atoms/cell      =            4
     number of atomic types    =            2
     number of electrons       =        64.00
     number of Kohn-Sham states=           52
     kinetic-energy cutoff     =      58.7989  Ry
     charge density cutoff     =     587.9892  Ry
     convergence threshold     =      1.0E-06
     mixing beta               =       0.1000
     number of iterations used =           10  plain     mixing
     Exchange-correlation      = BEEF-VDW ( 1  4 27 13 2)

     celldm(1)=   1.889726  celldm(2)=   0.000000  celldm(3)=   0.000000
     celldm(4)=   0.000000  celldm(5)=   0.000000  celldm(6)=   0.000000

     crystal axes: (cart. coord. in units of alat)
               a(1) = (   4.744681   0.000000   0.000000 )
               a(2) = (   0.000000   4.744681   0.000000 )
               a(3) = (   0.000000   0.000000   3.349792 )

     reciprocal axes: (cart. coord. in units 2 pi/alat)
               b(1) = (  0.210762  0.000000  0.000000 )
               b(2) = (  0.000000  0.210762  0.000000 )
               b(3) = (  0.000000  0.000000  0.298526 )

     PseudoPot. # 1 for Co read from file:
     /home/mamunm/src/pseudo/gbrv1.5pbe/Co.UPF
     MD5 check sum: 5f91765df6ddd3222702df6e7b74a16d
     Pseudo is Ultrasoft + core correction, Zval = 17.0
     Generated by new atomic code, or converted to UPF format
     Using radial grid of  863 points,  6 beta functions with:
                l(1) =   0
                l(2) =   0
                l(3) =   1
                l(4) =   1
                l(5) =   2
                l(6) =   2
     Q(r) pseudized with  8 coefficients,  rinner =    1.200   1.200   1.200
                                                       1.200   1.200

     PseudoPot. # 2 for Bi read from file:
     /home/mamunm/src/pseudo/gbrv1.5pbe/Bi.UPF
     MD5 check sum: 81103212dc04adf40945787f699eab19
     Pseudo is Ultrasoft + core correction, Zval = 15.0
     Generated by new atomic code, or converted to UPF format
     Using radial grid of  899 points,  6 beta functions with:
                l(1) =   0
                l(2) =   0
                l(3) =   1
                l(4) =   1
                l(5) =   2
                l(6) =   2
     Q(r) pseudized with  6 coefficients,  rinner =    1.000   1.000   1.000
                                                       1.000   1.000

     vdW kernel table read from file vdW_kernel_table
     MD5 check sum: 095c7af220d748ca6e76c0b4c6cfb241

     atomic species   valence    mass     pseudopotential
        Co1           17.00    58.93319     Co( 1.00)
        Bi1           15.00   208.98040     Bi( 1.00)

     16 Sym. Ops., with inversion, found

   Cartesian axes

     site n.     atom                  positions (alat units)
         1           Co1 tau(   1) = (   0.0000000   0.0000000   0.0000000  )
         2           Co1 tau(   2) = (   2.3723403   2.3723403   0.0000000  )
         3           Bi1 tau(   3) = (   2.3723403   0.0000000   1.6748958  )
         4           Bi1 tau(   4) = (   0.0000000   2.3723403   1.6748958  )

     number of k points=    75  Fermi-Dirac smearing, width (Ry)=  0.0073
                       cart. coord. in units 2pi/alat
        k(    1) = (   0.0000000   0.0000000   0.0000000), wk =   0.0027435
        k(    2) = (   0.0000000   0.0000000   0.0331696), wk =   0.0054870
        k(    3) = (   0.0000000   0.0000000   0.0663391), wk =   0.0054870
        k(    4) = (   0.0000000   0.0000000   0.0995087), wk =   0.0054870
        k(    5) = (   0.0000000   0.0000000   0.1326782), wk =   0.0054870
        k(    6) = (   0.0000000   0.0234180   0.0000000), wk =   0.0109739
        k(    7) = (   0.0000000   0.0234180   0.0331696), wk =   0.0219479
        k(    8) = (   0.0000000   0.0234180   0.0663391), wk =   0.0219479
        k(    9) = (   0.0000000   0.0234180   0.0995087), wk =   0.0219479
        k(   10) = (   0.0000000   0.0234180   0.1326782), wk =   0.0219479
        k(   11) = (   0.0000000   0.0468361   0.0000000), wk =   0.0109739
        k(   12) = (   0.0000000   0.0468361   0.0331696), wk =   0.0219479
        k(   13) = (   0.0000000   0.0468361   0.0663391), wk =   0.0219479
        k(   14) = (   0.0000000   0.0468361   0.0995087), wk =   0.0219479
        k(   15) = (   0.0000000   0.0468361   0.1326782), wk =   0.0219479
        k(   16) = (   0.0000000   0.0702541   0.0000000), wk =   0.0109739
        k(   17) = (   0.0000000   0.0702541   0.0331696), wk =   0.0219479
        k(   18) = (   0.0000000   0.0702541   0.0663391), wk =   0.0219479
        k(   19) = (   0.0000000   0.0702541   0.0995087), wk =   0.0219479
        k(   20) = (   0.0000000   0.0702541   0.1326782), wk =   0.0219479
        k(   21) = (   0.0000000   0.0936722   0.0000000), wk =   0.0109739
        k(   22) = (   0.0000000   0.0936722   0.0331696), wk =   0.0219479
        k(   23) = (   0.0000000   0.0936722   0.0663391), wk =   0.0219479
        k(   24) = (   0.0000000   0.0936722   0.0995087), wk =   0.0219479
        k(   25) = (   0.0000000   0.0936722   0.1326782), wk =   0.0219479
        k(   26) = (   0.0234180   0.0234180   0.0000000), wk =   0.0109739
        k(   27) = (   0.0234180   0.0234180   0.0331696), wk =   0.0219479
        k(   28) = (   0.0234180   0.0234180   0.0663391), wk =   0.0219479
        k(   29) = (   0.0234180   0.0234180   0.0995087), wk =   0.0219479
        k(   30) = (   0.0234180   0.0234180   0.1326782), wk =   0.0219479
        k(   31) = (   0.0234180   0.0468361   0.0000000), wk =   0.0219479
        k(   32) = (   0.0234180   0.0468361   0.0331696), wk =   0.0438957
        k(   33) = (   0.0234180   0.0468361   0.0663391), wk =   0.0438957
        k(   34) = (   0.0234180   0.0468361   0.0995087), wk =   0.0438957
        k(   35) = (   0.0234180   0.0468361   0.1326782), wk =   0.0438957
        k(   36) = (   0.0234180   0.0702541   0.0000000), wk =   0.0219479
        k(   37) = (   0.0234180   0.0702541   0.0331696), wk =   0.0438957
        k(   38) = (   0.0234180   0.0702541   0.0663391), wk =   0.0438957
        k(   39) = (   0.0234180   0.0702541   0.0995087), wk =   0.0438957
        k(   40) = (   0.0234180   0.0702541   0.1326782), wk =   0.0438957
        k(   41) = (   0.0234180   0.0936722   0.0000000), wk =   0.0219479
        k(   42) = (   0.0234180   0.0936722   0.0331696), wk =   0.0438957
        k(   43) = (   0.0234180   0.0936722   0.0663391), wk =   0.0438957
        k(   44) = (   0.0234180   0.0936722   0.0995087), wk =   0.0438957
        k(   45) = (   0.0234180   0.0936722   0.1326782), wk =   0.0438957
        k(   46) = (   0.0468361   0.0468361   0.0000000), wk =   0.0109739
        k(   47) = (   0.0468361   0.0468361   0.0331696), wk =   0.0219479
        k(   48) = (   0.0468361   0.0468361   0.0663391), wk =   0.0219479
        k(   49) = (   0.0468361   0.0468361   0.0995087), wk =   0.0219479
        k(   50) = (   0.0468361   0.0468361   0.1326782), wk =   0.0219479
        k(   51) = (   0.0468361   0.0702541   0.0000000), wk =   0.0219479
        k(   52) = (   0.0468361   0.0702541   0.0331696), wk =   0.0438957
        k(   53) = (   0.0468361   0.0702541   0.0663391), wk =   0.0438957
        k(   54) = (   0.0468361   0.0702541   0.0995087), wk =   0.0438957
        k(   55) = (   0.0468361   0.0702541   0.1326782), wk =   0.0438957
        k(   56) = (   0.0468361   0.0936722   0.0000000), wk =   0.0219479
        k(   57) = (   0.0468361   0.0936722   0.0331696), wk =   0.0438957
        k(   58) = (   0.0468361   0.0936722   0.0663391), wk =   0.0438957
        k(   59) = (   0.0468361   0.0936722   0.0995087), wk =   0.0438957
        k(   60) = (   0.0468361   0.0936722   0.1326782), wk =   0.0438957
        k(   61) = (   0.0702541   0.0702541   0.0000000), wk =   0.0109739
        k(   62) = (   0.0702541   0.0702541   0.0331696), wk =   0.0219479
        k(   63) = (   0.0702541   0.0702541   0.0663391), wk =   0.0219479
        k(   64) = (   0.0702541   0.0702541   0.0995087), wk =   0.0219479
        k(   65) = (   0.0702541   0.0702541   0.1326782), wk =   0.0219479
        k(   66) = (   0.0702541   0.0936722   0.0000000), wk =   0.0219479
        k(   67) = (   0.0702541   0.0936722   0.0331696), wk =   0.0438957
        k(   68) = (   0.0702541   0.0936722   0.0663391), wk =   0.0438957
        k(   69) = (   0.0702541   0.0936722   0.0995087), wk =   0.0438957
        k(   70) = (   0.0702541   0.0936722   0.1326782), wk =   0.0438957
        k(   71) = (   0.0936722   0.0936722   0.0000000), wk =   0.0109739
        k(   72) = (   0.0936722   0.0936722   0.0331696), wk =   0.0219479
        k(   73) = (   0.0936722   0.0936722   0.0663391), wk =   0.0219479
        k(   74) = (   0.0936722   0.0936722   0.0995087), wk =   0.0219479
        k(   75) = (   0.0936722   0.0936722   0.1326782), wk =   0.0219479

     Largest allocated arrays     est. size (Mb)     dimensions
     Largest temporary arrays     est. size (Mb)     dimensions

     Check: negative/imaginary core charge=   -0.000016    0.000000

     Initial potential from superposition of free atoms
     Check: negative starting charge=   -0.085587

     starting charge   59.99990, renormalised to   64.00000

     negative rho (up, down):  9.129E-02 0.000E+00

     *
     * You are using vdW-DF for exchange-correlation in this calculation.
     * Please cite the following three references that made this development
     * possible:
     *
     *   M. Dion, H. Rydberg, E. Schroder, D. C. Langreth, and
     *   B. I. Lundqvist, Phys. Rev. Lett. 92, 246401 (2004).
     *
     *   T. Thonhauser, V. R. Cooper, S. Li, A. Puzder, P. Hyldgaard, and
     *   D. C. Langreth, Phys. Rev. B 76, 125112 (2007).
     *
     *   G. Roman-Perez and J. M. Soler, Phys. Rev. Lett. 103, 096102 (2009).
     *
     *
     * If you are using vdW-DF2, please also cite:
     *
     *   K. Lee, E. D. Murray, L. Kong, B. I. Lundqvist, and
     *   D. C. Langreth, Phys. Rev. B 82, 081101(R) (2010).
     *
     *
     * If you are calculating the stress with vdW-DF, please also cite:
     *
     *   R. Sabatini, E. Kucukbenli, B. Kolb, T. Thonhauser, and
     *   S. de Gironcoli, J. Phys.: Condens. Matter 24, 424209 (2012).
     *

     Carrying out vdW-DF run using the following parameters:

     Nqs =      20    Nr_points =    1024   r_max =   100.000
     q_mesh =
               0.00001000     0.04494208     0.09755937     0.15916263
               0.23128650     0.31572767     0.41458969     0.53033537
               0.66584808     0.82450364     1.01025438     1.22772762
               1.48234092     1.78043706     2.12944203     2.53805004
               3.01644009     3.57652955     4.23227104     5.00000000

     Gradients computed in reciprocal space

     Starting wfc are   44 randomized atomic wfcs +    8 random wfc

     Self-consistent Calculation

     iteration #  1     ecut=    58.80 Ry     beta=0.10
     Davidson diagonalization with overlap
     ethr =  1.00E-02,  avg # of iterations =  5.2

[...]

     total energy              =    -971.27092627 Ry
     Harris-Foulkes estimate   =    -978.94961867 Ry
     estimated scf accuracy    <      43.87462235 Ry

[...]

     total energy              =    -973.28937528 Ry
     Harris-Foulkes estimate   =    -973.28935950 Ry
     estimated scf accuracy    <       0.00000362 Ry

     iteration # 13     ecut=    58.80 Ry     beta=0.10
     Davidson diagonalization with overlap
     ethr =  5.66E-09,  avg # of iterations =  2.0

     negative rho (up, down):  9.132E-02 0.000E+00

     End of self-consistent calculation

          k = 0.0000 0.0000 0.0000 (  3891 PWs)   bands (ev):

   -78.9635 -78.9631 -42.3152 -42.3152 -42.3112 -42.3104 -42.3104 -42.3104
    -8.2159  -8.2133  -8.1305  -8.1080  -8.0387  -8.0387  -7.9796  -7.9796
    -7.9795  -7.8877   1.5206   4.9782  10.8402  10.8402  13.3500  13.6436
    13.6439  14.3923  14.3923  14.6752  14.6770  14.6770  15.0013  15.0410
    16.3080  16.5042  16.5042  16.5430  18.4981  20.5421  22.9017  22.9187
    24.6056  24.6056  25.9035  26.8382  28.7832  28.7832  30.1144  30.1144
    30.1408  30.8148  30.8148  30.8390

[...]

          k = 0.0937 0.0937 0.1327 (  3909 PWs)   bands (ev):

   -78.9631 -78.9630 -42.3160 -42.3159 -42.3152 -42.3151 -42.3097 -42.3096
    -8.1286  -8.1265  -8.1080  -8.1000  -8.0409  -8.0401  -8.0379  -8.0366
    -7.8978  -7.8925   4.8471   4.9564  10.7276  10.7749  10.9250  10.9984
    13.4884  13.5388  14.3580  14.3950  14.3969  14.4178  15.0081  15.0089
    15.0137  15.0917  16.4269  16.5302  20.1789  20.4825  24.1637  24.2236
    24.2586  24.6818  25.5748  25.6568  27.1662  27.2997  28.7775  29.2068
    29.2460  29.2635  31.6392  31.9817

     the Fermi energy is    15.2105 ev

!    total energy              =    -973.28942950 Ry
     Harris-Foulkes estimate   =    -973.28937561 Ry
     estimated scf accuracy    <       0.00000012 Ry

     The total energy is the sum of the following terms:

     one-electron contribution =    -454.98095803 Ry
     hartree contribution      =     272.15166678 Ry
     xc contribution           =    -201.06784722 Ry
     ewald contribution        =    -589.37471328 Ry
     smearing contrib. (-TS)   =      -0.01757776 Ry

     convergence has been achieved in  13 iterations

     Forces acting on atoms (Ry/au):

     negative rho (up, down):  9.132E-02 0.000E+00
     atom    1 type  1   force =     0.00000000    0.00000000    0.00000000
     atom    2 type  1   force =     0.00000000    0.00000000    0.00000000
     atom    3 type  2   force =     0.00000000    0.00000000    0.00000000
     atom    4 type  2   force =     0.00000000    0.00000000    0.00000000

     Total force =     0.000000     Total SCF correction =     0.000000

     General routines

     Parallel routines

   This run was terminated on:  15:34: 5  23Feb2018

   JOB DONE.