     Program PWSCF v.5.1rc2 starts on 14Nov2017 at 14:27:49

     Current dimensions of program PWSCF are:
     Max number of different atomic species (ntypx) = 10
     Max number of k-points (npk) =  40000
     Max angular momentum in pseudopotentials (lmaxx) =  3

     IMPORTANT: XC functional enforced from input :
     Exchange-correlation      = BEEF-VDW ( 1  4 27 13 2)
     Any further DFT definition will be discarded
     Please, verify this is what you really want

     Found symmetry operation: I + ( -0.5000 -0.5000  0.0000)
     This is a supercell, fractional translations are disabled

     bravais-lattice index     =            0
     lattice parameter (alat)  =       1.8897  a.u.
     unit-cell volume          =     829.5332 (a.u.)^3
     number of atoms/cell      =            4
     number of atomic types    =            2
     number of electrons       =        50.00
     number of Kohn-Sham states=           45
     kinetic-energy cutoff     =      58.7989  Ry
     charge density cutoff     =     587.9892  Ry
     convergence threshold     =      1.0E-06
     mixing beta               =       0.1000
     number of iterations used =           10  plain     mixing
     Exchange-correlation      = BEEF-VDW ( 1  4 27 13 2)

     celldm(1)=   1.889726  celldm(2)=   0.000000  celldm(3)=   0.000000
     celldm(4)=   0.000000  celldm(5)=   0.000000  celldm(6)=   0.000000

     crystal axes: (cart. coord. in units of alat)
               a(1) = (   5.170472   0.000000   0.000000 )
               a(2) = (   0.000000   5.170472   0.000000 )
               a(3) = (   0.000000   0.000000   4.598084 )

     reciprocal axes: (cart. coord. in units 2 pi/alat)
               b(1) = (  0.193406  0.000000  0.000000 )
               b(2) = (  0.000000  0.193406  0.000000 )
               b(3) = (  0.000000  0.000000  0.217482 )

     PseudoPot. # 1 for La read from file:
     /home/users/vossj/suncat/psp/gbrv1.5pbe/La.UPF
     MD5 check sum: 5937b0c7494ba0601a847275249473aa
     Pseudo is Ultrasoft + core correction, Zval = 11.0
     Generated by new atomic code, or converted to UPF format
     Using radial grid of  995 points,  8 beta functions with:
                l(1) =   0
                l(2) =   0
                l(3) =   1
                l(4) =   1
                l(5) =   2
                l(6) =   2
                l(7) =   3
                l(8) =   3
     Q(r) pseudized with  8 coefficients,  rinner =    1.700   1.700   1.700
                                                       1.700   1.700   1.700
                                                       1.700

     PseudoPot. # 2 for Sn read from file:
     /home/users/vossj/suncat/psp/gbrv1.5pbe/Sn.UPF
     MD5 check sum: 469debedee59599fedebd795477fea03
     Pseudo is Ultrasoft + core correction, Zval = 14.0
     Generated by new atomic code, or converted to UPF format
     Using radial grid of  891 points,  6 beta functions with:
                l(1) =   0
                l(2) =   0
                l(3) =   1
                l(4) =   1
                l(5) =   2
                l(6) =   2
     Q(r) pseudized with  8 coefficients,  rinner =    1.350   1.350   1.350
                                                       1.350   1.350

     vdW kernel table read from file vdW_kernel_table
     MD5 check sum: 095c7af220d748ca6e76c0b4c6cfb241

     atomic species   valence    mass     pseudopotential
        La1           11.00   138.90550     La( 1.00)
        Sn1           14.00   118.71000     Sn( 1.00)

     16 Sym. Ops., with inversion, found

   Cartesian axes

     site n.     atom                  positions (alat units)
         1           La1 tau(   1) = (   0.0000000   0.0000000   0.0000000  )
         2           La1 tau(   2) = (   2.5852358   2.5852358   0.0000000  )
         3           Sn1 tau(   3) = (   2.5852358   0.0000000   2.2990418  )
         4           Sn1 tau(   4) = (   0.0000000   2.5852358   2.2990418  )

     number of k points=    75  Fermi-Dirac smearing, width (Ry)=  0.0073
                       cart. coord. in units 2pi/alat
        k(    1) = (   0.0000000   0.0000000   0.0000000), wk =   0.0027435
        k(    2) = (   0.0000000   0.0000000   0.0241647), wk =   0.0054870
        k(    3) = (   0.0000000   0.0000000   0.0483293), wk =   0.0054870
        k(    4) = (   0.0000000   0.0000000   0.0724940), wk =   0.0054870
        k(    5) = (   0.0000000   0.0000000   0.0966586), wk =   0.0054870
        k(    6) = (   0.0000000   0.0214896   0.0000000), wk =   0.0109739
        k(    7) = (   0.0000000   0.0214896   0.0241647), wk =   0.0219479
        k(    8) = (   0.0000000   0.0214896   0.0483293), wk =   0.0219479
        k(    9) = (   0.0000000   0.0214896   0.0724940), wk =   0.0219479
        k(   10) = (   0.0000000   0.0214896   0.0966586), wk =   0.0219479
        k(   11) = (   0.0000000   0.0429791   0.0000000), wk =   0.0109739
        k(   12) = (   0.0000000   0.0429791   0.0241647), wk =   0.0219479
        k(   13) = (   0.0000000   0.0429791   0.0483293), wk =   0.0219479
        k(   14) = (   0.0000000   0.0429791   0.0724940), wk =   0.0219479
        k(   15) = (   0.0000000   0.0429791   0.0966586), wk =   0.0219479
        k(   16) = (   0.0000000   0.0644687   0.0000000), wk =   0.0109739
        k(   17) = (   0.0000000   0.0644687   0.0241647), wk =   0.0219479
        k(   18) = (   0.0000000   0.0644687   0.0483293), wk =   0.0219479
        k(   19) = (   0.0000000   0.0644687   0.0724940), wk =   0.0219479
        k(   20) = (   0.0000000   0.0644687   0.0966586), wk =   0.0219479
        k(   21) = (   0.0000000   0.0859582   0.0000000), wk =   0.0109739
        k(   22) = (   0.0000000   0.0859582   0.0241647), wk =   0.0219479
        k(   23) = (   0.0000000   0.0859582   0.0483293), wk =   0.0219479
        k(   24) = (   0.0000000   0.0859582   0.0724940), wk =   0.0219479
        k(   25) = (   0.0000000   0.0859582   0.0966586), wk =   0.0219479
        k(   26) = (   0.0214896   0.0214896   0.0000000), wk =   0.0109739
        k(   27) = (   0.0214896   0.0214896   0.0241647), wk =   0.0219479
        k(   28) = (   0.0214896   0.0214896   0.0483293), wk =   0.0219479
        k(   29) = (   0.0214896   0.0214896   0.0724940), wk =   0.0219479
        k(   30) = (   0.0214896   0.0214896   0.0966586), wk =   0.0219479
        k(   31) = (   0.0214896   0.0429791   0.0000000), wk =   0.0219479
        k(   32) = (   0.0214896   0.0429791   0.0241647), wk =   0.0438957
        k(   33) = (   0.0214896   0.0429791   0.0483293), wk =   0.0438957
        k(   34) = (   0.0214896   0.0429791   0.0724940), wk =   0.0438957
        k(   35) = (   0.0214896   0.0429791   0.0966586), wk =   0.0438957
        k(   36) = (   0.0214896   0.0644687   0.0000000), wk =   0.0219479
        k(   37) = (   0.0214896   0.0644687   0.0241647), wk =   0.0438957
        k(   38) = (   0.0214896   0.0644687   0.0483293), wk =   0.0438957
        k(   39) = (   0.0214896   0.0644687   0.0724940), wk =   0.0438957
        k(   40) = (   0.0214896   0.0644687   0.0966586), wk =   0.0438957
        k(   41) = (   0.0214896   0.0859582   0.0000000), wk =   0.0219479
        k(   42) = (   0.0214896   0.0859582   0.0241647), wk =   0.0438957
        k(   43) = (   0.0214896   0.0859582   0.0483293), wk =   0.0438957
        k(   44) = (   0.0214896   0.0859582   0.0724940), wk =   0.0438957
        k(   45) = (   0.0214896   0.0859582   0.0966586), wk =   0.0438957
        k(   46) = (   0.0429791   0.0429791   0.0000000), wk =   0.0109739
        k(   47) = (   0.0429791   0.0429791   0.0241647), wk =   0.0219479
        k(   48) = (   0.0429791   0.0429791   0.0483293), wk =   0.0219479
        k(   49) = (   0.0429791   0.0429791   0.0724940), wk =   0.0219479
        k(   50) = (   0.0429791   0.0429791   0.0966586), wk =   0.0219479
        k(   51) = (   0.0429791   0.0644687   0.0000000), wk =   0.0219479
        k(   52) = (   0.0429791   0.0644687   0.0241647), wk =   0.0438957
        k(   53) = (   0.0429791   0.0644687   0.0483293), wk =   0.0438957
        k(   54) = (   0.0429791   0.0644687   0.0724940), wk =   0.0438957
        k(   55) = (   0.0429791   0.0644687   0.0966586), wk =   0.0438957
        k(   56) = (   0.0429791   0.0859582   0.0000000), wk =   0.0219479
        k(   57) = (   0.0429791   0.0859582   0.0241647), wk =   0.0438957
        k(   58) = (   0.0429791   0.0859582   0.0483293), wk =   0.0438957
        k(   59) = (   0.0429791   0.0859582   0.0724940), wk =   0.0438957
        k(   60) = (   0.0429791   0.0859582   0.0966586), wk =   0.0438957
        k(   61) = (   0.0644687   0.0644687   0.0000000), wk =   0.0109739
        k(   62) = (   0.0644687   0.0644687   0.0241647), wk =   0.0219479
        k(   63) = (   0.0644687   0.0644687   0.0483293), wk =   0.0219479
        k(   64) = (   0.0644687   0.0644687   0.0724940), wk =   0.0219479
        k(   65) = (   0.0644687   0.0644687   0.0966586), wk =   0.0219479
        k(   66) = (   0.0644687   0.0859582   0.0000000), wk =   0.0219479
        k(   67) = (   0.0644687   0.0859582   0.0241647), wk =   0.0438957
        k(   68) = (   0.0644687   0.0859582   0.0483293), wk =   0.0438957
        k(   69) = (   0.0644687   0.0859582   0.0724940), wk =   0.0438957
        k(   70) = (   0.0644687   0.0859582   0.0966586), wk =   0.0438957
        k(   71) = (   0.0859582   0.0859582   0.0000000), wk =   0.0109739
        k(   72) = (   0.0859582   0.0859582   0.0241647), wk =   0.0219479
        k(   73) = (   0.0859582   0.0859582   0.0483293), wk =   0.0219479
        k(   74) = (   0.0859582   0.0859582   0.0724940), wk =   0.0219479
        k(   75) = (   0.0859582   0.0859582   0.0966586), wk =   0.0219479

     Largest allocated arrays     est. size (Mb)     dimensions
     Largest temporary arrays     est. size (Mb)     dimensions

     Initial potential from superposition of free atoms
     Check: negative starting charge=   -0.140600

     starting charge   47.93577, renormalised to   50.00000

     negative rho (up, down):  1.467E-01 0.000E+00

     *
     * You are using vdW-DF for exchange-correlation in this calculation.
     * Please cite the following three references that made this development
     * possible:
     *
     *   M. Dion, H. Rydberg, E. Schroder, D. C. Langreth, and
     *   B. I. Lundqvist, Phys. Rev. Lett. 92, 246401 (2004).
     *
     *   T. Thonhauser, V. R. Cooper, S. Li, A. Puzder, P. Hyldgaard, and
     *   D. C. Langreth, Phys. Rev. B 76, 125112 (2007).
     *
     *   G. Roman-Perez and J. M. Soler, Phys. Rev. Lett. 103, 096102 (2009).
     *
     *
     * If you are using vdW-DF2, please also cite:
     *
     *   K. Lee, E. D. Murray, L. Kong, B. I. Lundqvist, and
     *   D. C. Langreth, Phys. Rev. B 82, 081101(R) (2010).
     *
     *
     * If you are calculating the stress with vdW-DF, please also cite:
     *
     *   R. Sabatini, E. Kucukbenli, B. Kolb, T. Thonhauser, and
     *   S. de Gironcoli, J. Phys.: Condens. Matter 24, 424209 (2012).
     *

     Carrying out vdW-DF run using the following parameters:

     Nqs =      20    Nr_points =    1024   r_max =   100.000
     q_mesh =
               0.00001000     0.04494208     0.09755937     0.15916263
               0.23128650     0.31572767     0.41458969     0.53033537
               0.66584808     0.82450364     1.01025438     1.22772762
               1.48234092     1.78043706     2.12944203     2.53805004
               3.01644009     3.57652955     4.23227104     5.00000000

     Gradients computed in reciprocal space

     Starting wfc are   58 randomized atomic wfcs

     Self-consistent Calculation

     iteration #  1     ecut=    58.80 Ry     beta=0.10
     Davidson diagonalization with overlap
     ethr =  1.00E-02,  avg # of iterations =  2.3

[...]

     total energy              =    -529.92815405 Ry
     Harris-Foulkes estimate   =    -530.07604393 Ry
     estimated scf accuracy    <       0.88542959 Ry

[...]

     total energy              =    -529.72123183 Ry
     Harris-Foulkes estimate   =    -529.72117573 Ry
     estimated scf accuracy    <       0.00000687 Ry

     iteration # 12     ecut=    58.80 Ry     beta=0.10
     Davidson diagonalization with overlap
     ethr =  1.37E-08,  avg # of iterations =  2.8

     negative rho (up, down):  9.226E-02 0.000E+00

     End of self-consistent calculation

          k = 0.0000 0.0000 0.0000 (  6281 PWs)   bands (ev):

   -21.7353 -21.5679  -9.9727  -9.9665  -9.9258  -9.8958  -9.8958  -9.8747
    -9.8747  -9.8719  -9.8571  -9.8213  -5.6865  -5.6865  -5.3240  -5.0839
    -4.9083  -4.9083   2.9789   5.4384  10.0606  10.0606  10.5449  10.8426
    11.3403  11.8668  11.9972  12.2836  12.2836  12.9588  12.9701  12.9701
    13.0561  13.2150  13.2150  13.2688  13.2688  13.4412  13.5214  13.5501
    13.6377  13.6377  13.7933  14.8917  14.9471

[...]

          k = 0.0860 0.0860 0.0967 (  6315 PWs)   bands (ev):

   -21.6478 -21.6427  -9.9467  -9.9450  -9.9322  -9.9293  -9.8953  -9.8945
    -9.8751  -9.8742  -9.8248  -9.8236  -5.8084  -5.7882  -5.3345  -5.3234
    -4.8346  -4.8097   4.4205   4.4636   9.3033   9.3726  10.4293  10.5498
    11.3016  11.4039  12.9615  13.0164  13.0980  13.0998  13.1334  13.1581
    13.2029  13.2066  13.4705  13.4715  13.5475  13.5481  13.5521  13.6100
    13.8939  13.8944  14.5507  14.6309  15.0387

     the Fermi energy is    11.5006 ev

!    total energy              =    -529.72148676 Ry
     Harris-Foulkes estimate   =    -529.72123354 Ry
     estimated scf accuracy    <       0.00000028 Ry

     The total energy is the sum of the following terms:

     one-electron contribution =    -126.87319731 Ry
     hartree contribution      =      95.13825313 Ry
     xc contribution           =    -190.70003896 Ry
     ewald contribution        =    -307.27799757 Ry
     smearing contrib. (-TS)   =      -0.00850604 Ry

     convergence has been achieved in  12 iterations

     Forces acting on atoms (Ry/au):

     negative rho (up, down):  9.226E-02 0.000E+00
     atom    1 type  1   force =     0.00000000    0.00000000    0.00000000
     atom    2 type  1   force =     0.00000000    0.00000000    0.00000000
     atom    3 type  2   force =     0.00000000    0.00000000    0.00000000
     atom    4 type  2   force =     0.00000000    0.00000000    0.00000000

     Total force =     0.000000     Total SCF correction =     0.000000

     General routines

     Parallel routines

   This run was terminated on:  14:28:52  14Nov2017

   JOB DONE.