     Program PWSCF v.5.1rc2 starts on 13Nov2017 at 17:16:28

     Current dimensions of program PWSCF are:
     Max number of different atomic species (ntypx) = 10
     Max number of k-points (npk) =  40000
     Max angular momentum in pseudopotentials (lmaxx) =  3

     IMPORTANT: XC functional enforced from input :
     Exchange-correlation      = BEEF-VDW ( 1  4 27 13 2)
     Any further DFT definition will be discarded
     Please, verify this is what you really want

     Found symmetry operation: I + (  0.5000  0.5000  0.0000)
     This is a supercell, fractional translations are disabled

     bravais-lattice index     =            0
     lattice parameter (alat)  =       1.8897  a.u.
     unit-cell volume          =     555.5857 (a.u.)^3
     number of atoms/cell      =            4
     number of atomic types    =            2
     number of electrons       =        30.00
     number of Kohn-Sham states=           35
     kinetic-energy cutoff     =      58.7989  Ry
     charge density cutoff     =     587.9892  Ry
     convergence threshold     =      1.0E-06
     mixing beta               =       0.1000
     number of iterations used =           10  plain     mixing
     Exchange-correlation      = BEEF-VDW ( 1  4 27 13 2)

     celldm(1)=   1.889726  celldm(2)=   0.000000  celldm(3)=   0.000000
     celldm(4)=   0.000000  celldm(5)=   0.000000  celldm(6)=   0.000000

     crystal axes: (cart. coord. in units of alat)
               a(1) = (   4.287611   0.000000   0.000000 )
               a(2) = (   0.000000   4.287611   0.000000 )
               a(3) = (   0.000000   0.000000   4.478408 )

     reciprocal axes: (cart. coord. in units 2 pi/alat)
               b(1) = (  0.233230  0.000000  0.000000 )
               b(2) = (  0.000000  0.233230  0.000000 )
               b(3) = (  0.000000  0.000000  0.223294 )

     PseudoPot. # 1 for Al read from file:
     /home/users/vossj/suncat/psp/gbrv1.5pbe/Al.UPF
     MD5 check sum: 0a6289f5291fc8f409219462bc851e1f
     Pseudo is Ultrasoft + core correction, Zval =  3.0
     Generated by new atomic code, or converted to UPF format
     Using radial grid of  893 points,  3 beta functions with:
                l(1) =   0
                l(2) =   1
                l(3) =   2
     Q(r) pseudized with  8 coefficients,  rinner =    0.900   0.900   0.900
                                                       0.900   0.900

     PseudoPot. # 2 for Cd read from file:
     /home/users/vossj/suncat/psp/gbrv1.5pbe/Cd.UPF
     MD5 check sum: 17164a7926edb8e0dc231208abae86a6
     Pseudo is Ultrasoft + core correction, Zval = 12.0
     Generated by new atomic code, or converted to UPF format
     Using radial grid of  889 points,  6 beta functions with:
                l(1) =   0
                l(2) =   0
                l(3) =   1
                l(4) =   1
                l(5) =   2
                l(6) =   2
     Q(r) pseudized with  6 coefficients,  rinner =    1.000   1.000   1.000
                                                       1.000   1.000

     vdW kernel table read from file vdW_kernel_table
     MD5 check sum: 095c7af220d748ca6e76c0b4c6cfb241

     atomic species   valence    mass     pseudopotential
        Al1            3.00    26.98154     Al( 1.00)
        Cd1           12.00   112.41000     Cd( 1.00)

     16 Sym. Ops., with inversion, found

   Cartesian axes

     site n.     atom                  positions (alat units)
         1           Al1 tau(   1) = (   0.0000000   0.0000000   0.0000000  )
         2           Al1 tau(   2) = (   2.1438055   2.1438055   0.0000000  )
         3           Cd1 tau(   3) = (   2.1438055   0.0000000   2.2392042  )
         4           Cd1 tau(   4) = (   0.0000000   2.1438055   2.2392042  )

     number of k points=    75  Fermi-Dirac smearing, width (Ry)=  0.0073
                       cart. coord. in units 2pi/alat
        k(    1) = (   0.0000000   0.0000000   0.0000000), wk =   0.0027435
        k(    2) = (   0.0000000   0.0000000   0.0248104), wk =   0.0054870
        k(    3) = (   0.0000000   0.0000000   0.0496208), wk =   0.0054870
        k(    4) = (   0.0000000   0.0000000   0.0744312), wk =   0.0054870
        k(    5) = (   0.0000000   0.0000000   0.0992416), wk =   0.0054870
        k(    6) = (   0.0000000   0.0259145   0.0000000), wk =   0.0109739
        k(    7) = (   0.0000000   0.0259145   0.0248104), wk =   0.0219479
        k(    8) = (   0.0000000   0.0259145   0.0496208), wk =   0.0219479
        k(    9) = (   0.0000000   0.0259145   0.0744312), wk =   0.0219479
        k(   10) = (   0.0000000   0.0259145   0.0992416), wk =   0.0219479
        k(   11) = (   0.0000000   0.0518289   0.0000000), wk =   0.0109739
        k(   12) = (   0.0000000   0.0518289   0.0248104), wk =   0.0219479
        k(   13) = (   0.0000000   0.0518289   0.0496208), wk =   0.0219479
        k(   14) = (   0.0000000   0.0518289   0.0744312), wk =   0.0219479
        k(   15) = (   0.0000000   0.0518289   0.0992416), wk =   0.0219479
        k(   16) = (   0.0000000   0.0777434   0.0000000), wk =   0.0109739
        k(   17) = (   0.0000000   0.0777434   0.0248104), wk =   0.0219479
        k(   18) = (   0.0000000   0.0777434   0.0496208), wk =   0.0219479
        k(   19) = (   0.0000000   0.0777434   0.0744312), wk =   0.0219479
        k(   20) = (   0.0000000   0.0777434   0.0992416), wk =   0.0219479
        k(   21) = (   0.0000000   0.1036578   0.0000000), wk =   0.0109739
        k(   22) = (   0.0000000   0.1036578   0.0248104), wk =   0.0219479
        k(   23) = (   0.0000000   0.1036578   0.0496208), wk =   0.0219479
        k(   24) = (   0.0000000   0.1036578   0.0744312), wk =   0.0219479
        k(   25) = (   0.0000000   0.1036578   0.0992416), wk =   0.0219479
        k(   26) = (   0.0259145   0.0259145   0.0000000), wk =   0.0109739
        k(   27) = (   0.0259145   0.0259145   0.0248104), wk =   0.0219479
        k(   28) = (   0.0259145   0.0259145   0.0496208), wk =   0.0219479
        k(   29) = (   0.0259145   0.0259145   0.0744312), wk =   0.0219479
        k(   30) = (   0.0259145   0.0259145   0.0992416), wk =   0.0219479
        k(   31) = (   0.0259145   0.0518289   0.0000000), wk =   0.0219479
        k(   32) = (   0.0259145   0.0518289   0.0248104), wk =   0.0438957
        k(   33) = (   0.0259145   0.0518289   0.0496208), wk =   0.0438957
        k(   34) = (   0.0259145   0.0518289   0.0744312), wk =   0.0438957
        k(   35) = (   0.0259145   0.0518289   0.0992416), wk =   0.0438957
        k(   36) = (   0.0259145   0.0777434   0.0000000), wk =   0.0219479
        k(   37) = (   0.0259145   0.0777434   0.0248104), wk =   0.0438957
        k(   38) = (   0.0259145   0.0777434   0.0496208), wk =   0.0438957
        k(   39) = (   0.0259145   0.0777434   0.0744312), wk =   0.0438957
        k(   40) = (   0.0259145   0.0777434   0.0992416), wk =   0.0438957
        k(   41) = (   0.0259145   0.1036578   0.0000000), wk =   0.0219479
        k(   42) = (   0.0259145   0.1036578   0.0248104), wk =   0.0438957
        k(   43) = (   0.0259145   0.1036578   0.0496208), wk =   0.0438957
        k(   44) = (   0.0259145   0.1036578   0.0744312), wk =   0.0438957
        k(   45) = (   0.0259145   0.1036578   0.0992416), wk =   0.0438957
        k(   46) = (   0.0518289   0.0518289   0.0000000), wk =   0.0109739
        k(   47) = (   0.0518289   0.0518289   0.0248104), wk =   0.0219479
        k(   48) = (   0.0518289   0.0518289   0.0496208), wk =   0.0219479
        k(   49) = (   0.0518289   0.0518289   0.0744312), wk =   0.0219479
        k(   50) = (   0.0518289   0.0518289   0.0992416), wk =   0.0219479
        k(   51) = (   0.0518289   0.0777434   0.0000000), wk =   0.0219479
        k(   52) = (   0.0518289   0.0777434   0.0248104), wk =   0.0438957
        k(   53) = (   0.0518289   0.0777434   0.0496208), wk =   0.0438957
        k(   54) = (   0.0518289   0.0777434   0.0744312), wk =   0.0438957
        k(   55) = (   0.0518289   0.0777434   0.0992416), wk =   0.0438957
        k(   56) = (   0.0518289   0.1036578   0.0000000), wk =   0.0219479
        k(   57) = (   0.0518289   0.1036578   0.0248104), wk =   0.0438957
        k(   58) = (   0.0518289   0.1036578   0.0496208), wk =   0.0438957
        k(   59) = (   0.0518289   0.1036578   0.0744312), wk =   0.0438957
        k(   60) = (   0.0518289   0.1036578   0.0992416), wk =   0.0438957
        k(   61) = (   0.0777434   0.0777434   0.0000000), wk =   0.0109739
        k(   62) = (   0.0777434   0.0777434   0.0248104), wk =   0.0219479
        k(   63) = (   0.0777434   0.0777434   0.0496208), wk =   0.0219479
        k(   64) = (   0.0777434   0.0777434   0.0744312), wk =   0.0219479
        k(   65) = (   0.0777434   0.0777434   0.0992416), wk =   0.0219479
        k(   66) = (   0.0777434   0.1036578   0.0000000), wk =   0.0219479
        k(   67) = (   0.0777434   0.1036578   0.0248104), wk =   0.0438957
        k(   68) = (   0.0777434   0.1036578   0.0496208), wk =   0.0438957
        k(   69) = (   0.0777434   0.1036578   0.0744312), wk =   0.0438957
        k(   70) = (   0.0777434   0.1036578   0.0992416), wk =   0.0438957
        k(   71) = (   0.1036578   0.1036578   0.0000000), wk =   0.0109739
        k(   72) = (   0.1036578   0.1036578   0.0248104), wk =   0.0219479
        k(   73) = (   0.1036578   0.1036578   0.0496208), wk =   0.0219479
        k(   74) = (   0.1036578   0.1036578   0.0744312), wk =   0.0219479
        k(   75) = (   0.1036578   0.1036578   0.0992416), wk =   0.0219479

     Largest allocated arrays     est. size (Mb)     dimensions
     Largest temporary arrays     est. size (Mb)     dimensions

     Initial potential from superposition of free atoms
     Check: negative starting charge=   -0.041156

     starting charge   28.99499, renormalised to   30.00000

     negative rho (up, down):  4.258E-02 0.000E+00

     *
     * You are using vdW-DF for exchange-correlation in this calculation.
     * Please cite the following three references that made this development
     * possible:
     *
     *   M. Dion, H. Rydberg, E. Schroder, D. C. Langreth, and
     *   B. I. Lundqvist, Phys. Rev. Lett. 92, 246401 (2004).
     *
     *   T. Thonhauser, V. R. Cooper, S. Li, A. Puzder, P. Hyldgaard, and
     *   D. C. Langreth, Phys. Rev. B 76, 125112 (2007).
     *
     *   G. Roman-Perez and J. M. Soler, Phys. Rev. Lett. 103, 096102 (2009).
     *
     *
     * If you are using vdW-DF2, please also cite:
     *
     *   K. Lee, E. D. Murray, L. Kong, B. I. Lundqvist, and
     *   D. C. Langreth, Phys. Rev. B 82, 081101(R) (2010).
     *
     *
     * If you are calculating the stress with vdW-DF, please also cite:
     *
     *   R. Sabatini, E. Kucukbenli, B. Kolb, T. Thonhauser, and
     *   S. de Gironcoli, J. Phys.: Condens. Matter 24, 424209 (2012).
     *

     Carrying out vdW-DF run using the following parameters:

     Nqs =      20    Nr_points =    1024   r_max =   100.000
     q_mesh =
               0.00001000     0.04494208     0.09755937     0.15916263
               0.23128650     0.31572767     0.41458969     0.53033537
               0.66584808     0.82450364     1.01025438     1.22772762
               1.48234092     1.78043706     2.12944203     2.53805004
               3.01644009     3.57652955     4.23227104     5.00000000

     Gradients computed in reciprocal space

     Starting wfc are   26 randomized atomic wfcs +    9 random wfc

     Self-consistent Calculation

     iteration #  1     ecut=    58.80 Ry     beta=0.10
     Davidson diagonalization with overlap
     ethr =  1.00E-02,  avg # of iterations =  5.1

     Threshold (ethr) on eigenvalues was too large:
     Diagonalizing with lowered threshold

     Davidson diagonalization with overlap
     ethr =  7.87E-04,  avg # of iterations =  1.0

[...]

     total energy              =    -245.93801647 Ry
     Harris-Foulkes estimate   =    -245.97560512 Ry
     estimated scf accuracy    <       0.23439151 Ry

[...]

     total energy              =    -245.90834090 Ry
     Harris-Foulkes estimate   =    -245.90831694 Ry
     estimated scf accuracy    <       0.00000223 Ry

     iteration #  9     ecut=    58.80 Ry     beta=0.10
     Davidson diagonalization with overlap
     ethr =  7.44E-09,  avg # of iterations =  2.0

     negative rho (up, down):  4.301E-02 0.000E+00

     End of self-consistent calculation

          k = 0.0000 0.0000 0.0000 (  4201 PWs)   bands (ev):

    -0.8598  -0.8034  -0.5995  -0.5176  -0.3552  -0.3552   0.0651   0.0932
     0.0932   0.2845   0.6365   6.8058   7.2810   7.2810   8.3138   8.6462
     9.4205  13.1648  14.5865  14.5865  14.8257  14.8257  16.0595  16.1591
    16.6960  16.6960  18.1671  18.2776  18.3419  22.5244  22.6890  22.6890
    23.0490  23.0491  23.2270

[...]

          k = 0.1037 0.1037 0.0992 (  4247 PWs)   bands (ev):

    -0.7003  -0.6931  -0.5946  -0.5590  -0.1001  -0.0645   0.1148   0.1334
     0.1727   0.1973   4.5433   5.4335   5.4548   5.5588   6.4251   6.4453
     6.9122   7.6938  17.4558  17.9479  18.1855  18.2280  19.3712  19.4538
    19.8690  20.2111  20.5625  21.2600  21.5315  22.0357  22.1382  22.2710
    22.5264  23.1590  23.2562

     the Fermi energy is     8.9433 ev

!    total energy              =    -245.90844746 Ry
     Harris-Foulkes estimate   =    -245.90834129 Ry
     estimated scf accuracy    <       0.00000004 Ry

     The total energy is the sum of the following terms:

     one-electron contribution =     -69.33977338 Ry
     hartree contribution      =      60.71234210 Ry
     xc contribution           =     -90.44666278 Ry
     ewald contribution        =    -146.83044584 Ry
     smearing contrib. (-TS)   =      -0.00390755 Ry

     convergence has been achieved in   9 iterations

     Forces acting on atoms (Ry/au):

     negative rho (up, down):  4.301E-02 0.000E+00
     atom    1 type  1   force =     0.00000000    0.00000000    0.00000000
     atom    2 type  1   force =     0.00000000    0.00000000    0.00000000
     atom    3 type  2   force =     0.00000000    0.00000000    0.00000000
     atom    4 type  2   force =     0.00000000    0.00000000    0.00000000

     Total force =     0.000000     Total SCF correction =     0.000000

     General routines

     Parallel routines

   This run was terminated on:  17:16:54  13Nov2017

   JOB DONE.