     Program PWSCF v.5.1rc2 starts on 14Nov2017 at 14: 4:43

     Current dimensions of program PWSCF are:
     Max number of different atomic species (ntypx) = 10
     Max number of k-points (npk) =  40000
     Max angular momentum in pseudopotentials (lmaxx) =  3

     IMPORTANT: XC functional enforced from input :
     Exchange-correlation      = BEEF-VDW ( 1  4 27 13 2)
     Any further DFT definition will be discarded
     Please, verify this is what you really want

     Found symmetry operation: I + ( -0.5000 -0.5000  0.0000)
     This is a supercell, fractional translations are disabled

     bravais-lattice index     =            0
     lattice parameter (alat)  =       1.8897  a.u.
     unit-cell volume          =     410.5416 (a.u.)^3
     number of atoms/cell      =            4
     number of atomic types    =            2
     number of electrons       =        62.00
     number of Kohn-Sham states=           51
     kinetic-energy cutoff     =      58.7989  Ry
     charge density cutoff     =     587.9892  Ry
     convergence threshold     =      1.0E-06
     mixing beta               =       0.1000
     number of iterations used =           10  plain     mixing
     Exchange-correlation      = BEEF-VDW ( 1  4 27 13 2)

     celldm(1)=   1.889726  celldm(2)=   0.000000  celldm(3)=   0.000000
     celldm(4)=   0.000000  celldm(5)=   0.000000  celldm(6)=   0.000000

     crystal axes: (cart. coord. in units of alat)
               a(1) = (   3.946656   0.000000   0.000000 )
               a(2) = (   0.000000   3.946656   0.000000 )
               a(3) = (   0.000000   0.000000   3.905728 )

     reciprocal axes: (cart. coord. in units 2 pi/alat)
               b(1) = (  0.253379  0.000000  0.000000 )
               b(2) = (  0.000000  0.253379  0.000000 )
               b(3) = (  0.000000  0.000000  0.256034 )

     PseudoPot. # 1 for Ir read from file:
     /home/users/vossj/suncat/psp/gbrv1.5pbe/Ir.UPF
     MD5 check sum: 8836f839c3459d2b385c504ce6d91f2c
     Pseudo is Ultrasoft + core correction, Zval = 15.0
     Generated by new atomic code, or converted to UPF format
     Using radial grid of  983 points,  7 beta functions with:
                l(1) =   0
                l(2) =   0
                l(3) =   1
                l(4) =   1
                l(5) =   1
                l(6) =   2
                l(7) =   2
     Q(r) pseudized with  8 coefficients,  rinner =    1.400   1.400   1.400
                                                       1.400   1.400

     PseudoPot. # 2 for Pt read from file:
     /home/users/vossj/suncat/psp/gbrv1.5pbe/Pt.UPF
     MD5 check sum: f09d6de1a584b5a045c4fc126da2d0c4
     Pseudo is Ultrasoft + core correction, Zval = 16.0
     Generated by new atomic code, or converted to UPF format
     Using radial grid of  985 points,  6 beta functions with:
                l(1) =   0
                l(2) =   0
                l(3) =   1
                l(4) =   1
                l(5) =   2
                l(6) =   2
     Q(r) pseudized with  8 coefficients,  rinner =    1.300   1.300   1.300
                                                       1.300   1.300

     vdW kernel table read from file vdW_kernel_table
     MD5 check sum: 095c7af220d748ca6e76c0b4c6cfb241

     atomic species   valence    mass     pseudopotential
        Ir1           15.00   192.22000     Ir( 1.00)
        Pt1           16.00   195.08000     Pt( 1.00)

     16 Sym. Ops., with inversion, found

   Cartesian axes

     site n.     atom                  positions (alat units)
         1           Ir1 tau(   1) = (   0.0000000   0.0000000   0.0000000  )
         2           Ir1 tau(   2) = (   1.9733281   1.9733281   0.0000000  )
         3           Pt1 tau(   3) = (   1.9733281   0.0000000   1.9528638  )
         4           Pt1 tau(   4) = (   0.0000000   1.9733281   1.9528638  )

     number of k points=    75  Fermi-Dirac smearing, width (Ry)=  0.0073
                       cart. coord. in units 2pi/alat
        k(    1) = (   0.0000000   0.0000000   0.0000000), wk =   0.0027435
        k(    2) = (   0.0000000   0.0000000   0.0284482), wk =   0.0054870
        k(    3) = (   0.0000000   0.0000000   0.0568965), wk =   0.0054870
        k(    4) = (   0.0000000   0.0000000   0.0853447), wk =   0.0054870
        k(    5) = (   0.0000000   0.0000000   0.1137930), wk =   0.0054870
        k(    6) = (   0.0000000   0.0281532   0.0000000), wk =   0.0109739
        k(    7) = (   0.0000000   0.0281532   0.0284482), wk =   0.0219479
        k(    8) = (   0.0000000   0.0281532   0.0568965), wk =   0.0219479
        k(    9) = (   0.0000000   0.0281532   0.0853447), wk =   0.0219479
        k(   10) = (   0.0000000   0.0281532   0.1137930), wk =   0.0219479
        k(   11) = (   0.0000000   0.0563065   0.0000000), wk =   0.0109739
        k(   12) = (   0.0000000   0.0563065   0.0284482), wk =   0.0219479
        k(   13) = (   0.0000000   0.0563065   0.0568965), wk =   0.0219479
        k(   14) = (   0.0000000   0.0563065   0.0853447), wk =   0.0219479
        k(   15) = (   0.0000000   0.0563065   0.1137930), wk =   0.0219479
        k(   16) = (   0.0000000   0.0844597   0.0000000), wk =   0.0109739
        k(   17) = (   0.0000000   0.0844597   0.0284482), wk =   0.0219479
        k(   18) = (   0.0000000   0.0844597   0.0568965), wk =   0.0219479
        k(   19) = (   0.0000000   0.0844597   0.0853447), wk =   0.0219479
        k(   20) = (   0.0000000   0.0844597   0.1137930), wk =   0.0219479
        k(   21) = (   0.0000000   0.1126129   0.0000000), wk =   0.0109739
        k(   22) = (   0.0000000   0.1126129   0.0284482), wk =   0.0219479
        k(   23) = (   0.0000000   0.1126129   0.0568965), wk =   0.0219479
        k(   24) = (   0.0000000   0.1126129   0.0853447), wk =   0.0219479
        k(   25) = (   0.0000000   0.1126129   0.1137930), wk =   0.0219479
        k(   26) = (   0.0281532   0.0281532   0.0000000), wk =   0.0109739
        k(   27) = (   0.0281532   0.0281532   0.0284482), wk =   0.0219479
        k(   28) = (   0.0281532   0.0281532   0.0568965), wk =   0.0219479
        k(   29) = (   0.0281532   0.0281532   0.0853447), wk =   0.0219479
        k(   30) = (   0.0281532   0.0281532   0.1137930), wk =   0.0219479
        k(   31) = (   0.0281532   0.0563065   0.0000000), wk =   0.0219479
        k(   32) = (   0.0281532   0.0563065   0.0284482), wk =   0.0438957
        k(   33) = (   0.0281532   0.0563065   0.0568965), wk =   0.0438957
        k(   34) = (   0.0281532   0.0563065   0.0853447), wk =   0.0438957
        k(   35) = (   0.0281532   0.0563065   0.1137930), wk =   0.0438957
        k(   36) = (   0.0281532   0.0844597   0.0000000), wk =   0.0219479
        k(   37) = (   0.0281532   0.0844597   0.0284482), wk =   0.0438957
        k(   38) = (   0.0281532   0.0844597   0.0568965), wk =   0.0438957
        k(   39) = (   0.0281532   0.0844597   0.0853447), wk =   0.0438957
        k(   40) = (   0.0281532   0.0844597   0.1137930), wk =   0.0438957
        k(   41) = (   0.0281532   0.1126129   0.0000000), wk =   0.0219479
        k(   42) = (   0.0281532   0.1126129   0.0284482), wk =   0.0438957
        k(   43) = (   0.0281532   0.1126129   0.0568965), wk =   0.0438957
        k(   44) = (   0.0281532   0.1126129   0.0853447), wk =   0.0438957
        k(   45) = (   0.0281532   0.1126129   0.1137930), wk =   0.0438957
        k(   46) = (   0.0563065   0.0563065   0.0000000), wk =   0.0109739
        k(   47) = (   0.0563065   0.0563065   0.0284482), wk =   0.0219479
        k(   48) = (   0.0563065   0.0563065   0.0568965), wk =   0.0219479
        k(   49) = (   0.0563065   0.0563065   0.0853447), wk =   0.0219479
        k(   50) = (   0.0563065   0.0563065   0.1137930), wk =   0.0219479
        k(   51) = (   0.0563065   0.0844597   0.0000000), wk =   0.0219479
        k(   52) = (   0.0563065   0.0844597   0.0284482), wk =   0.0438957
        k(   53) = (   0.0563065   0.0844597   0.0568965), wk =   0.0438957
        k(   54) = (   0.0563065   0.0844597   0.0853447), wk =   0.0438957
        k(   55) = (   0.0563065   0.0844597   0.1137930), wk =   0.0438957
        k(   56) = (   0.0563065   0.1126129   0.0000000), wk =   0.0219479
        k(   57) = (   0.0563065   0.1126129   0.0284482), wk =   0.0438957
        k(   58) = (   0.0563065   0.1126129   0.0568965), wk =   0.0438957
        k(   59) = (   0.0563065   0.1126129   0.0853447), wk =   0.0438957
        k(   60) = (   0.0563065   0.1126129   0.1137930), wk =   0.0438957
        k(   61) = (   0.0844597   0.0844597   0.0000000), wk =   0.0109739
        k(   62) = (   0.0844597   0.0844597   0.0284482), wk =   0.0219479
        k(   63) = (   0.0844597   0.0844597   0.0568965), wk =   0.0219479
        k(   64) = (   0.0844597   0.0844597   0.0853447), wk =   0.0219479
        k(   65) = (   0.0844597   0.0844597   0.1137930), wk =   0.0219479
        k(   66) = (   0.0844597   0.1126129   0.0000000), wk =   0.0219479
        k(   67) = (   0.0844597   0.1126129   0.0284482), wk =   0.0438957
        k(   68) = (   0.0844597   0.1126129   0.0568965), wk =   0.0438957
        k(   69) = (   0.0844597   0.1126129   0.0853447), wk =   0.0438957
        k(   70) = (   0.0844597   0.1126129   0.1137930), wk =   0.0438957
        k(   71) = (   0.1126129   0.1126129   0.0000000), wk =   0.0109739
        k(   72) = (   0.1126129   0.1126129   0.0284482), wk =   0.0219479
        k(   73) = (   0.1126129   0.1126129   0.0568965), wk =   0.0219479
        k(   74) = (   0.1126129   0.1126129   0.0853447), wk =   0.0219479
        k(   75) = (   0.1126129   0.1126129   0.1137930), wk =   0.0219479

     Largest allocated arrays     est. size (Mb)     dimensions
     Largest temporary arrays     est. size (Mb)     dimensions

     Initial potential from superposition of free atoms
     Check: negative starting charge=   -1.100304

     starting charge   59.99991, renormalised to   62.00000

     negative rho (up, down):  1.137E+00 0.000E+00

     *
     * You are using vdW-DF for exchange-correlation in this calculation.
     * Please cite the following three references that made this development
     * possible:
     *
     *   M. Dion, H. Rydberg, E. Schroder, D. C. Langreth, and
     *   B. I. Lundqvist, Phys. Rev. Lett. 92, 246401 (2004).
     *
     *   T. Thonhauser, V. R. Cooper, S. Li, A. Puzder, P. Hyldgaard, and
     *   D. C. Langreth, Phys. Rev. B 76, 125112 (2007).
     *
     *   G. Roman-Perez and J. M. Soler, Phys. Rev. Lett. 103, 096102 (2009).
     *
     *
     * If you are using vdW-DF2, please also cite:
     *
     *   K. Lee, E. D. Murray, L. Kong, B. I. Lundqvist, and
     *   D. C. Langreth, Phys. Rev. B 82, 081101(R) (2010).
     *
     *
     * If you are calculating the stress with vdW-DF, please also cite:
     *
     *   R. Sabatini, E. Kucukbenli, B. Kolb, T. Thonhauser, and
     *   S. de Gironcoli, J. Phys.: Condens. Matter 24, 424209 (2012).
     *

     Carrying out vdW-DF run using the following parameters:

     Nqs =      20    Nr_points =    1024   r_max =   100.000
     q_mesh =
               0.00001000     0.04494208     0.09755937     0.15916263
               0.23128650     0.31572767     0.41458969     0.53033537
               0.66584808     0.82450364     1.01025438     1.22772762
               1.48234092     1.78043706     2.12944203     2.53805004
               3.01644009     3.57652955     4.23227104     5.00000000

     Gradients computed in reciprocal space

     Starting wfc are   48 randomized atomic wfcs +    3 random wfc

     Self-consistent Calculation

     iteration #  1     ecut=    58.80 Ry     beta=0.10
     Davidson diagonalization with overlap
     ethr =  1.00E-02,  avg # of iterations =  4.8

[...]

     total energy              =    -791.90469584 Ry
     Harris-Foulkes estimate   =    -792.24778765 Ry
     estimated scf accuracy    <       2.49861243 Ry

[...]

     total energy              =    -791.43773374 Ry
     Harris-Foulkes estimate   =    -791.43772978 Ry
     estimated scf accuracy    <       0.00000543 Ry

     iteration # 10     ecut=    58.80 Ry     beta=0.10
     Davidson diagonalization with overlap
     ethr =  8.76E-09,  avg # of iterations =  2.0

     negative rho (up, down):  1.008E+00 0.000E+00

     End of self-consistent calculation

          k = 0.0000 0.0000 0.0000 (  3103 PWs)   bands (ev):

   -31.2078 -31.2078 -31.1725 -31.1175 -31.0026 -31.0026 -27.2860 -27.2860
   -27.1609 -27.1193 -27.0178 -27.0178  12.1767  15.1289  15.2119  15.2688
    15.6688  15.6688  15.6696  18.4899  18.4899  18.7233  20.5334  20.8659
    22.1403  22.2759  22.6695  22.8065  23.0649  23.0649  23.0723  23.0723
    23.6466  24.0547  24.0547  24.2527  31.1562  31.7056  31.7102  33.2867
    33.2913  33.4758  33.5577  33.5577  33.7262  33.7262  34.0992  36.6149
    41.5500  41.5500  41.8296

[...]

          k = 0.1126 0.1126 0.1138 (  3125 PWs)   bands (ev):

   -31.2335 -31.2275 -31.1514 -31.1501 -30.9888 -30.9826 -27.3112 -27.3032
   -27.1421 -27.1403 -27.0044 -26.9961  15.0028  15.0954  15.1010  15.1048
    18.2431  18.2709  18.2722  18.3859  18.4625  18.5193  18.8445  18.9316
    20.9655  21.0517  21.1287  21.3595  22.1703  22.3365  22.4177  22.7088
    22.8494  23.2327  23.3544  23.4538  28.4023  28.5017  28.6665  29.2214
    33.2827  33.2828  36.3515  36.3989  36.4119  36.4183  40.6495  40.8300
    40.9700  41.0511  41.1668

     the Fermi energy is    22.2011 ev

!    total energy              =    -791.43775577 Ry
     Harris-Foulkes estimate   =    -791.43773459 Ry
     estimated scf accuracy    <       0.00000071 Ry

     The total energy is the sum of the following terms:

     one-electron contribution =     -65.93543245 Ry
     hartree contribution      =      89.03657986 Ry
     xc contribution           =    -221.38904800 Ry
     ewald contribution        =    -593.13565588 Ry
     smearing contrib. (-TS)   =      -0.01419930 Ry

     convergence has been achieved in  10 iterations

     Forces acting on atoms (Ry/au):

     negative rho (up, down):  1.008E+00 0.000E+00
     atom    1 type  1   force =     0.00000000    0.00000000    0.00000000
     atom    2 type  1   force =     0.00000000    0.00000000    0.00000000
     atom    3 type  2   force =     0.00000000    0.00000000    0.00000000
     atom    4 type  2   force =     0.00000000    0.00000000    0.00000000

     Total force =     0.000000     Total SCF correction =     0.000000

     General routines

     Parallel routines

   This run was terminated on:  14: 5:19  14Nov2017

   JOB DONE.