     Program PWSCF v.5.1rc2 starts on 14Nov2017 at  8:43:55

     Current dimensions of program PWSCF are:
     Max number of different atomic species (ntypx) = 10
     Max number of k-points (npk) =  40000
     Max angular momentum in pseudopotentials (lmaxx) =  3

     IMPORTANT: XC functional enforced from input :
     Exchange-correlation      = BEEF-VDW ( 1  4 27 13 2)
     Any further DFT definition will be discarded
     Please, verify this is what you really want

     Found symmetry operation: I + ( -0.5000 -0.5000  0.0000)
     This is a supercell, fractional translations are disabled

     bravais-lattice index     =            0
     lattice parameter (alat)  =       1.8897  a.u.
     unit-cell volume          =     410.7589 (a.u.)^3
     number of atoms/cell      =            4
     number of atomic types    =            2
     number of electrons       =        64.00
     number of Kohn-Sham states=           52
     kinetic-energy cutoff     =      58.7989  Ry
     charge density cutoff     =     587.9892  Ry
     convergence threshold     =      1.0E-06
     mixing beta               =       0.1000
     number of iterations used =           10  plain     mixing
     Exchange-correlation      = BEEF-VDW ( 1  4 27 13 2)

     celldm(1)=   1.889726  celldm(2)=   0.000000  celldm(3)=   0.000000
     celldm(4)=   0.000000  celldm(5)=   0.000000  celldm(6)=   0.000000

     crystal axes: (cart. coord. in units of alat)
               a(1) = (   3.925617   0.000000   0.000000 )
               a(2) = (   0.000000   3.925617   0.000000 )
               a(3) = (   0.000000   0.000000   3.949795 )

     reciprocal axes: (cart. coord. in units 2 pi/alat)
               b(1) = (  0.254737  0.000000  0.000000 )
               b(2) = (  0.000000  0.254737  0.000000 )
               b(3) = (  0.000000  0.000000  0.253178 )

     PseudoPot. # 1 for Cu read from file:
     /home/users/vossj/suncat/psp/gbrv1.5pbe/Cu.UPF
     MD5 check sum: 6e991ff952a84172a2a52a1c1e996048
     Pseudo is Ultrasoft + core correction, Zval = 19.0
     Generated by new atomic code, or converted to UPF format
     Using radial grid of  867 points,  6 beta functions with:
                l(1) =   0
                l(2) =   0
                l(3) =   1
                l(4) =   1
                l(5) =   2
                l(6) =   2
     Q(r) pseudized with  8 coefficients,  rinner =    1.150   1.150   1.150
                                                       1.150   1.150

     PseudoPot. # 2 for Nb read from file:
     /home/users/vossj/suncat/psp/gbrv1.5pbe/Nb.UPF
     MD5 check sum: 573aab8a2fa660278ed4a62cd769473f
     Pseudo is Ultrasoft + core correction, Zval = 13.0
     Generated by new atomic code, or converted to UPF format
     Using radial grid of  887 points,  6 beta functions with:
                l(1) =   0
                l(2) =   0
                l(3) =   1
                l(4) =   1
                l(5) =   2
                l(6) =   2
     Q(r) pseudized with  6 coefficients,  rinner =    1.000   1.000   1.000
                                                       1.000   1.000

     vdW kernel table read from file vdW_kernel_table
     MD5 check sum: 095c7af220d748ca6e76c0b4c6cfb241

     atomic species   valence    mass     pseudopotential
        Cu1           19.00    63.54600     Cu( 1.00)
        Nb1           13.00    92.90640     Nb( 1.00)

     16 Sym. Ops., with inversion, found

   Cartesian axes

     site n.     atom                  positions (alat units)
         1           Cu1 tau(   1) = (   0.0000000   0.0000000   0.0000000  )
         2           Cu1 tau(   2) = (   1.9628086   1.9628086   0.0000000  )
         3           Nb1 tau(   3) = (   1.9628086   0.0000000   1.9748973  )
         4           Nb1 tau(   4) = (   0.0000000   1.9628086   1.9748973  )

     number of k points=    75  Fermi-Dirac smearing, width (Ry)=  0.0073
                       cart. coord. in units 2pi/alat
        k(    1) = (   0.0000000   0.0000000   0.0000000), wk =   0.0027435
        k(    2) = (   0.0000000   0.0000000   0.0281309), wk =   0.0054870
        k(    3) = (   0.0000000   0.0000000   0.0562617), wk =   0.0054870
        k(    4) = (   0.0000000   0.0000000   0.0843926), wk =   0.0054870
        k(    5) = (   0.0000000   0.0000000   0.1125234), wk =   0.0054870
        k(    6) = (   0.0000000   0.0283041   0.0000000), wk =   0.0109739
        k(    7) = (   0.0000000   0.0283041   0.0281309), wk =   0.0219479
        k(    8) = (   0.0000000   0.0283041   0.0562617), wk =   0.0219479
        k(    9) = (   0.0000000   0.0283041   0.0843926), wk =   0.0219479
        k(   10) = (   0.0000000   0.0283041   0.1125234), wk =   0.0219479
        k(   11) = (   0.0000000   0.0566082   0.0000000), wk =   0.0109739
        k(   12) = (   0.0000000   0.0566082   0.0281309), wk =   0.0219479
        k(   13) = (   0.0000000   0.0566082   0.0562617), wk =   0.0219479
        k(   14) = (   0.0000000   0.0566082   0.0843926), wk =   0.0219479
        k(   15) = (   0.0000000   0.0566082   0.1125234), wk =   0.0219479
        k(   16) = (   0.0000000   0.0849123   0.0000000), wk =   0.0109739
        k(   17) = (   0.0000000   0.0849123   0.0281309), wk =   0.0219479
        k(   18) = (   0.0000000   0.0849123   0.0562617), wk =   0.0219479
        k(   19) = (   0.0000000   0.0849123   0.0843926), wk =   0.0219479
        k(   20) = (   0.0000000   0.0849123   0.1125234), wk =   0.0219479
        k(   21) = (   0.0000000   0.1132165   0.0000000), wk =   0.0109739
        k(   22) = (   0.0000000   0.1132165   0.0281309), wk =   0.0219479
        k(   23) = (   0.0000000   0.1132165   0.0562617), wk =   0.0219479
        k(   24) = (   0.0000000   0.1132165   0.0843926), wk =   0.0219479
        k(   25) = (   0.0000000   0.1132165   0.1125234), wk =   0.0219479
        k(   26) = (   0.0283041   0.0283041   0.0000000), wk =   0.0109739
        k(   27) = (   0.0283041   0.0283041   0.0281309), wk =   0.0219479
        k(   28) = (   0.0283041   0.0283041   0.0562617), wk =   0.0219479
        k(   29) = (   0.0283041   0.0283041   0.0843926), wk =   0.0219479
        k(   30) = (   0.0283041   0.0283041   0.1125234), wk =   0.0219479
        k(   31) = (   0.0283041   0.0566082   0.0000000), wk =   0.0219479
        k(   32) = (   0.0283041   0.0566082   0.0281309), wk =   0.0438957
        k(   33) = (   0.0283041   0.0566082   0.0562617), wk =   0.0438957
        k(   34) = (   0.0283041   0.0566082   0.0843926), wk =   0.0438957
        k(   35) = (   0.0283041   0.0566082   0.1125234), wk =   0.0438957
        k(   36) = (   0.0283041   0.0849123   0.0000000), wk =   0.0219479
        k(   37) = (   0.0283041   0.0849123   0.0281309), wk =   0.0438957
        k(   38) = (   0.0283041   0.0849123   0.0562617), wk =   0.0438957
        k(   39) = (   0.0283041   0.0849123   0.0843926), wk =   0.0438957
        k(   40) = (   0.0283041   0.0849123   0.1125234), wk =   0.0438957
        k(   41) = (   0.0283041   0.1132165   0.0000000), wk =   0.0219479
        k(   42) = (   0.0283041   0.1132165   0.0281309), wk =   0.0438957
        k(   43) = (   0.0283041   0.1132165   0.0562617), wk =   0.0438957
        k(   44) = (   0.0283041   0.1132165   0.0843926), wk =   0.0438957
        k(   45) = (   0.0283041   0.1132165   0.1125234), wk =   0.0438957
        k(   46) = (   0.0566082   0.0566082   0.0000000), wk =   0.0109739
        k(   47) = (   0.0566082   0.0566082   0.0281309), wk =   0.0219479
        k(   48) = (   0.0566082   0.0566082   0.0562617), wk =   0.0219479
        k(   49) = (   0.0566082   0.0566082   0.0843926), wk =   0.0219479
        k(   50) = (   0.0566082   0.0566082   0.1125234), wk =   0.0219479
        k(   51) = (   0.0566082   0.0849123   0.0000000), wk =   0.0219479
        k(   52) = (   0.0566082   0.0849123   0.0281309), wk =   0.0438957
        k(   53) = (   0.0566082   0.0849123   0.0562617), wk =   0.0438957
        k(   54) = (   0.0566082   0.0849123   0.0843926), wk =   0.0438957
        k(   55) = (   0.0566082   0.0849123   0.1125234), wk =   0.0438957
        k(   56) = (   0.0566082   0.1132165   0.0000000), wk =   0.0219479
        k(   57) = (   0.0566082   0.1132165   0.0281309), wk =   0.0438957
        k(   58) = (   0.0566082   0.1132165   0.0562617), wk =   0.0438957
        k(   59) = (   0.0566082   0.1132165   0.0843926), wk =   0.0438957
        k(   60) = (   0.0566082   0.1132165   0.1125234), wk =   0.0438957
        k(   61) = (   0.0849123   0.0849123   0.0000000), wk =   0.0109739
        k(   62) = (   0.0849123   0.0849123   0.0281309), wk =   0.0219479
        k(   63) = (   0.0849123   0.0849123   0.0562617), wk =   0.0219479
        k(   64) = (   0.0849123   0.0849123   0.0843926), wk =   0.0219479
        k(   65) = (   0.0849123   0.0849123   0.1125234), wk =   0.0219479
        k(   66) = (   0.0849123   0.1132165   0.0000000), wk =   0.0219479
        k(   67) = (   0.0849123   0.1132165   0.0281309), wk =   0.0438957
        k(   68) = (   0.0849123   0.1132165   0.0562617), wk =   0.0438957
        k(   69) = (   0.0849123   0.1132165   0.0843926), wk =   0.0438957
        k(   70) = (   0.0849123   0.1132165   0.1125234), wk =   0.0438957
        k(   71) = (   0.1132165   0.1132165   0.0000000), wk =   0.0109739
        k(   72) = (   0.1132165   0.1132165   0.0281309), wk =   0.0219479
        k(   73) = (   0.1132165   0.1132165   0.0562617), wk =   0.0219479
        k(   74) = (   0.1132165   0.1132165   0.0843926), wk =   0.0219479
        k(   75) = (   0.1132165   0.1132165   0.1125234), wk =   0.0219479

     Largest allocated arrays     est. size (Mb)     dimensions
     Largest temporary arrays     est. size (Mb)     dimensions

     Initial potential from superposition of free atoms

     starting charge   61.99453, renormalised to   64.00000

     *
     * You are using vdW-DF for exchange-correlation in this calculation.
     * Please cite the following three references that made this development
     * possible:
     *
     *   M. Dion, H. Rydberg, E. Schroder, D. C. Langreth, and
     *   B. I. Lundqvist, Phys. Rev. Lett. 92, 246401 (2004).
     *
     *   T. Thonhauser, V. R. Cooper, S. Li, A. Puzder, P. Hyldgaard, and
     *   D. C. Langreth, Phys. Rev. B 76, 125112 (2007).
     *
     *   G. Roman-Perez and J. M. Soler, Phys. Rev. Lett. 103, 096102 (2009).
     *
     *
     * If you are using vdW-DF2, please also cite:
     *
     *   K. Lee, E. D. Murray, L. Kong, B. I. Lundqvist, and
     *   D. C. Langreth, Phys. Rev. B 82, 081101(R) (2010).
     *
     *
     * If you are calculating the stress with vdW-DF, please also cite:
     *
     *   R. Sabatini, E. Kucukbenli, B. Kolb, T. Thonhauser, and
     *   S. de Gironcoli, J. Phys.: Condens. Matter 24, 424209 (2012).
     *

     Carrying out vdW-DF run using the following parameters:

     Nqs =      20    Nr_points =    1024   r_max =   100.000
     q_mesh =
               0.00001000     0.04494208     0.09755937     0.15916263
               0.23128650     0.31572767     0.41458969     0.53033537
               0.66584808     0.82450364     1.01025438     1.22772762
               1.48234092     1.78043706     2.12944203     2.53805004
               3.01644009     3.57652955     4.23227104     5.00000000

     Gradients computed in reciprocal space

     Starting wfc are   52 randomized atomic wfcs

     Self-consistent Calculation

     iteration #  1     ecut=    58.80 Ry     beta=0.10
     Davidson diagonalization with overlap
     ethr =  1.00E-02,  avg # of iterations =  4.5

     total energy              =   -1047.36280770 Ry
     Harris-Foulkes estimate   =   -1047.68653770 Ry
     estimated scf accuracy    <       2.02652289 Ry

[...]

     total energy              =   -1047.05231068 Ry
     Harris-Foulkes estimate   =   -1047.05230737 Ry
     estimated scf accuracy    <       0.00000111 Ry

     iteration # 13     ecut=    58.80 Ry     beta=0.10
     Davidson diagonalization with overlap
     ethr =  1.73E-09,  avg # of iterations =  1.0

     End of self-consistent calculation

          k = 0.0000 0.0000 0.0000 (  3103 PWs)   bands (ev):

   -96.2705 -96.2679 -53.6776 -53.6741 -53.6327 -53.6327 -53.6142 -53.6142
   -38.3278 -38.0465 -14.6803 -14.6803 -14.4200 -14.1463 -13.6895 -13.6895
     9.1970  11.6662  12.1488  12.3712  12.5249  12.5249  12.5979  13.7623
    13.7623  14.2451  14.6110  14.9603  15.3123  15.8522  17.8244  17.8244
    18.7650  19.1699  19.1699  19.2359  20.0020  20.0020  21.4124  23.2922
    25.0811  25.6639  27.9538  28.2813  28.2813  28.5167  29.7858  29.7858
    32.3367  33.1199  34.1855  35.9546

[...]

          k = 0.1132 0.1132 0.1125 (  3129 PWs)   bands (ev):

   -96.2692 -96.2692 -53.6760 -53.6759 -53.6344 -53.6339 -53.6133 -53.6127
   -38.1876 -38.1791 -14.8380 -14.8102 -14.3180 -14.3091 -13.6162 -13.5842
    11.6120  11.6445  12.5141  12.5413  13.5296  13.5435  13.6901  13.7344
    13.7882  13.8096  14.8857  15.1020  15.5540  15.7398  16.4036  16.6078
    17.2650  17.7059  18.9376  19.4247  19.8295  19.8331  20.1413  20.3120
    24.0620  24.2147  26.7033  26.7344  31.3404  31.4220  31.9174  32.0909
    32.2829  32.8552  34.0529  34.4184

     the Fermi energy is    16.7837 ev

!    total energy              =   -1047.05232510 Ry
     Harris-Foulkes estimate   =   -1047.05231070 Ry
     estimated scf accuracy    <       0.00000042 Ry

     The total energy is the sum of the following terms:

     one-electron contribution =    -647.37370427 Ry
     hartree contribution      =     360.98735756 Ry
     xc contribution           =    -118.21098347 Ry
     ewald contribution        =    -642.44601567 Ry
     smearing contrib. (-TS)   =      -0.00897924 Ry

     convergence has been achieved in  13 iterations

     Forces acting on atoms (Ry/au):

     atom    1 type  1   force =     0.00000000    0.00000000    0.00000000
     atom    2 type  1   force =     0.00000000    0.00000000    0.00000000
     atom    3 type  2   force =     0.00000000    0.00000000    0.00000000
     atom    4 type  2   force =     0.00000000    0.00000000    0.00000000

     Total force =     0.000000     Total SCF correction =     0.000000

     General routines

     Parallel routines

   This run was terminated on:   8:44:37  14Nov2017

   JOB DONE.