     Program PWSCF v.5.1rc2 (svn rev. ) starts on 15Nov2017 at  0:19:22

     Current dimensions of program PWSCF are:
     Max number of different atomic species (ntypx) = 10
     Max number of k-points (npk) =  40000
     Max angular momentum in pseudopotentials (lmaxx) =  3

     IMPORTANT: XC functional enforced from input :
     Exchange-correlation      = BEEF-VDW ( 1  4 27 13 2)
     Any further DFT definition will be discarded
     Please, verify this is what you really want

     Subspace diagonalization in iterative solution of the eigenvalue problem:
     a serial algorithm will be used

     Found symmetry operation: I + (  0.5000  0.5000  0.0000)
     This is a supercell, fractional translations are disabled

     bravais-lattice index     =            0
     lattice parameter (alat)  =       1.8897  a.u.
     unit-cell volume          =     389.8229 (a.u.)^3
     number of atoms/cell      =            4
     number of atomic types    =            2
     number of electrons       =        70.00
     number of Kohn-Sham states=           55
     kinetic-energy cutoff     =      58.7989  Ry
     charge density cutoff     =     587.9892  Ry
     convergence threshold     =      1.0E-06
     mixing beta               =       0.1000
     number of iterations used =           10  plain     mixing
     Exchange-correlation      = BEEF-VDW ( 1  4 27 13 2)

     celldm(1)=   1.889726  celldm(2)=   0.000000  celldm(3)=   0.000000
     celldm(4)=   0.000000  celldm(5)=   0.000000  celldm(6)=   0.000000

     crystal axes: (cart. coord. in units of alat)
               a(1) = (   3.715087   0.000000   0.000000 )
               a(2) = (   0.000000   3.715087   0.000000 )
               a(3) = (   0.000000   0.000000   4.185359 )

     reciprocal axes: (cart. coord. in units 2 pi/alat)
               b(1) = (  0.269173  0.000000  0.000000 )
               b(2) = (  0.000000  0.269173  0.000000 )
               b(3) = (  0.000000  0.000000  0.238928 )

     PseudoPot. # 1 for Zn read from file:
     /home/vossj/suncat/psp/gbrv1.5pbe/Zn.UPF
     MD5 check sum: df62231357ef9e81f77b2b3087fa5675
     Pseudo is Ultrasoft, Zval = 20.0
     Generated by new atomic code, or converted to UPF format
     Using radial grid of  943 points,  6 beta functions with:
                l(1) =   0
                l(2) =   0
                l(3) =   1
                l(4) =   1
                l(5) =   2
                l(6) =   2
     Q(r) pseudized with  8 coefficients,  rinner =    1.100   1.100   1.100
                                                       1.100   1.100

     PseudoPot. # 2 for Tc read from file:
     /home/vossj/suncat/psp/gbrv1.5pbe/Tc.UPF
     MD5 check sum: 9eb49e5b028550b2339a02317eb7b844
     Pseudo is Ultrasoft + core correction, Zval = 15.0
     Generated by new atomic code, or converted to UPF format
     Using radial grid of  965 points,  6 beta functions with:
                l(1) =   0
                l(2) =   0
                l(3) =   1
                l(4) =   1
                l(5) =   2
                l(6) =   2
     Q(r) pseudized with  8 coefficients,  rinner =    1.300   1.300   1.300
                                                       1.300   1.300

     vdW kernel table read from file vdW_kernel_table
     MD5 check sum: 095c7af220d748ca6e76c0b4c6cfb241

     atomic species   valence    mass     pseudopotential
        Zn1           20.00    65.38000     Zn( 1.00)
        Tc1           15.00    97.90721     Tc( 1.00)

     16 Sym. Ops., with inversion, found

   Cartesian axes

     site n.     atom                  positions (alat units)
         1           Zn1 tau(   1) = (   0.0000000   0.0000000   0.0000000  )
         2           Zn1 tau(   2) = (   1.8575436   1.8575436   0.0000000  )
         3           Tc1 tau(   3) = (   1.8575436   0.0000000   2.0926797  )
         4           Tc1 tau(   4) = (   0.0000000   1.8575436   2.0926797  )

     number of k points=    75  Fermi-Dirac smearing, width (Ry)=  0.0073
                       cart. coord. in units 2pi/alat
        k(    1) = (   0.0000000   0.0000000   0.0000000), wk =   0.0027435
        k(    2) = (   0.0000000   0.0000000   0.0265476), wk =   0.0054870
        k(    3) = (   0.0000000   0.0000000   0.0530951), wk =   0.0054870
        k(    4) = (   0.0000000   0.0000000   0.0796427), wk =   0.0054870
        k(    5) = (   0.0000000   0.0000000   0.1061903), wk =   0.0054870
        k(    6) = (   0.0000000   0.0299081   0.0000000), wk =   0.0109739
        k(    7) = (   0.0000000   0.0299081   0.0265476), wk =   0.0219479
        k(    8) = (   0.0000000   0.0299081   0.0530951), wk =   0.0219479
        k(    9) = (   0.0000000   0.0299081   0.0796427), wk =   0.0219479
        k(   10) = (   0.0000000   0.0299081   0.1061903), wk =   0.0219479
        k(   11) = (   0.0000000   0.0598162   0.0000000), wk =   0.0109739
        k(   12) = (   0.0000000   0.0598162   0.0265476), wk =   0.0219479
        k(   13) = (   0.0000000   0.0598162   0.0530951), wk =   0.0219479
        k(   14) = (   0.0000000   0.0598162   0.0796427), wk =   0.0219479
        k(   15) = (   0.0000000   0.0598162   0.1061903), wk =   0.0219479
        k(   16) = (   0.0000000   0.0897242   0.0000000), wk =   0.0109739
        k(   17) = (   0.0000000   0.0897242   0.0265476), wk =   0.0219479
        k(   18) = (   0.0000000   0.0897242   0.0530951), wk =   0.0219479
        k(   19) = (   0.0000000   0.0897242   0.0796427), wk =   0.0219479
        k(   20) = (   0.0000000   0.0897242   0.1061903), wk =   0.0219479
        k(   21) = (   0.0000000   0.1196323   0.0000000), wk =   0.0109739
        k(   22) = (   0.0000000   0.1196323   0.0265476), wk =   0.0219479
        k(   23) = (   0.0000000   0.1196323   0.0530951), wk =   0.0219479
        k(   24) = (   0.0000000   0.1196323   0.0796427), wk =   0.0219479
        k(   25) = (   0.0000000   0.1196323   0.1061903), wk =   0.0219479
        k(   26) = (   0.0299081   0.0299081   0.0000000), wk =   0.0109739
        k(   27) = (   0.0299081   0.0299081   0.0265476), wk =   0.0219479
        k(   28) = (   0.0299081   0.0299081   0.0530951), wk =   0.0219479
        k(   29) = (   0.0299081   0.0299081   0.0796427), wk =   0.0219479
        k(   30) = (   0.0299081   0.0299081   0.1061903), wk =   0.0219479
        k(   31) = (   0.0299081   0.0598162   0.0000000), wk =   0.0219479
        k(   32) = (   0.0299081   0.0598162   0.0265476), wk =   0.0438957
        k(   33) = (   0.0299081   0.0598162   0.0530951), wk =   0.0438957
        k(   34) = (   0.0299081   0.0598162   0.0796427), wk =   0.0438957
        k(   35) = (   0.0299081   0.0598162   0.1061903), wk =   0.0438957
        k(   36) = (   0.0299081   0.0897242   0.0000000), wk =   0.0219479
        k(   37) = (   0.0299081   0.0897242   0.0265476), wk =   0.0438957
        k(   38) = (   0.0299081   0.0897242   0.0530951), wk =   0.0438957
        k(   39) = (   0.0299081   0.0897242   0.0796427), wk =   0.0438957
        k(   40) = (   0.0299081   0.0897242   0.1061903), wk =   0.0438957
        k(   41) = (   0.0299081   0.1196323   0.0000000), wk =   0.0219479
        k(   42) = (   0.0299081   0.1196323   0.0265476), wk =   0.0438957
        k(   43) = (   0.0299081   0.1196323   0.0530951), wk =   0.0438957
        k(   44) = (   0.0299081   0.1196323   0.0796427), wk =   0.0438957
        k(   45) = (   0.0299081   0.1196323   0.1061903), wk =   0.0438957
        k(   46) = (   0.0598162   0.0598162   0.0000000), wk =   0.0109739
        k(   47) = (   0.0598162   0.0598162   0.0265476), wk =   0.0219479
        k(   48) = (   0.0598162   0.0598162   0.0530951), wk =   0.0219479
        k(   49) = (   0.0598162   0.0598162   0.0796427), wk =   0.0219479
        k(   50) = (   0.0598162   0.0598162   0.1061903), wk =   0.0219479
        k(   51) = (   0.0598162   0.0897242   0.0000000), wk =   0.0219479
        k(   52) = (   0.0598162   0.0897242   0.0265476), wk =   0.0438957
        k(   53) = (   0.0598162   0.0897242   0.0530951), wk =   0.0438957
        k(   54) = (   0.0598162   0.0897242   0.0796427), wk =   0.0438957
        k(   55) = (   0.0598162   0.0897242   0.1061903), wk =   0.0438957
        k(   56) = (   0.0598162   0.1196323   0.0000000), wk =   0.0219479
        k(   57) = (   0.0598162   0.1196323   0.0265476), wk =   0.0438957
        k(   58) = (   0.0598162   0.1196323   0.0530951), wk =   0.0438957
        k(   59) = (   0.0598162   0.1196323   0.0796427), wk =   0.0438957
        k(   60) = (   0.0598162   0.1196323   0.1061903), wk =   0.0438957
        k(   61) = (   0.0897242   0.0897242   0.0000000), wk =   0.0109739
        k(   62) = (   0.0897242   0.0897242   0.0265476), wk =   0.0219479
        k(   63) = (   0.0897242   0.0897242   0.0530951), wk =   0.0219479
        k(   64) = (   0.0897242   0.0897242   0.0796427), wk =   0.0219479
        k(   65) = (   0.0897242   0.0897242   0.1061903), wk =   0.0219479
        k(   66) = (   0.0897242   0.1196323   0.0000000), wk =   0.0219479
        k(   67) = (   0.0897242   0.1196323   0.0265476), wk =   0.0438957
        k(   68) = (   0.0897242   0.1196323   0.0530951), wk =   0.0438957
        k(   69) = (   0.0897242   0.1196323   0.0796427), wk =   0.0438957
        k(   70) = (   0.0897242   0.1196323   0.1061903), wk =   0.0438957
        k(   71) = (   0.1196323   0.1196323   0.0000000), wk =   0.0109739
        k(   72) = (   0.1196323   0.1196323   0.0265476), wk =   0.0219479
        k(   73) = (   0.1196323   0.1196323   0.0530951), wk =   0.0219479
        k(   74) = (   0.1196323   0.1196323   0.0796427), wk =   0.0219479
        k(   75) = (   0.1196323   0.1196323   0.1061903), wk =   0.0219479

     Largest allocated arrays     est. size (Mb)     dimensions
     Largest temporary arrays     est. size (Mb)     dimensions

     Check: negative/imaginary core charge=   -0.000008    0.000000

     Initial potential from superposition of free atoms
     Check: negative starting charge=   -0.249335

     starting charge   67.99966, renormalised to   70.00000

     negative rho (up, down):  2.567E-01 0.000E+00

     *
     * You are using vdW-DF for exchange-correlation in this calculation.
     * Please cite the following three references that made this development
     * possible:
     *
     *   M. Dion, H. Rydberg, E. Schroder, D. C. Langreth, and
     *   B. I. Lundqvist, Phys. Rev. Lett. 92, 246401 (2004).
     *
     *   T. Thonhauser, V. R. Cooper, S. Li, A. Puzder, P. Hyldgaard, and
     *   D. C. Langreth, Phys. Rev. B 76, 125112 (2007).
     *
     *   G. Roman-Perez and J. M. Soler, Phys. Rev. Lett. 103, 096102 (2009).
     *
     *
     * If you are using vdW-DF2, please also cite:
     *
     *   K. Lee, E. D. Murray, L. Kong, B. I. Lundqvist, and
     *   D. C. Langreth, Phys. Rev. B 82, 081101(R) (2010).
     *
     *
     * If you are calculating the stress with vdW-DF, please also cite:
     *
     *   R. Sabatini, E. Kucukbenli, B. Kolb, T. Thonhauser, and
     *   S. de Gironcoli, J. Phys.: Condens. Matter 24, 424209 (2012).
     *

     Carrying out vdW-DF run using the following parameters:

     Nqs =      20    Nr_points =    1024   r_max =   100.000
     q_mesh =
               0.00001000     0.04494208     0.09755937     0.15916263
               0.23128650     0.31572767     0.41458969     0.53033537
               0.66584808     0.82450364     1.01025438     1.22772762
               1.48234092     1.78043706     2.12944203     2.53805004
               3.01644009     3.57652955     4.23227104     5.00000000

     Gradients computed in reciprocal space

     Starting wfc are   52 randomized atomic wfcs +    3 random wfc

     Self-consistent Calculation

     iteration #  1     ecut=    58.80 Ry     beta=0.10
     Davidson diagonalization with overlap
     ethr =  1.00E-02,  avg # of iterations =  4.4

[...]

     total energy              =   -1268.87118627 Ry
     Harris-Foulkes estimate   =   -1280.42197555 Ry
     estimated scf accuracy    <      63.25743834 Ry

[...]

     total energy              =   -1276.17043550 Ry
     Harris-Foulkes estimate   =   -1276.17043851 Ry
     estimated scf accuracy    <       0.00000803 Ry

     iteration # 13     ecut=    58.80 Ry     beta=0.10
     Davidson diagonalization with overlap
     ethr =  1.15E-08,  avg # of iterations =  2.0

     negative rho (up, down):  2.577E-01 0.000E+00

     End of self-consistent calculation

          k = 0.0000 0.0000 0.0000 (  2979 PWs)   bands (ev):

  -108.2858-108.2825 -62.4858 -62.4858 -62.4645 -62.4645 -62.4349 -62.4311
   -49.0473 -48.8251 -21.3982 -21.3982 -20.9868 -20.7742 -20.5931 -20.5931
     8.7907   9.9871  10.0678  10.2546  10.3090  10.3090  10.5406  10.9974
    10.9974  11.2304  11.5227  13.5264  14.1045  14.4851  16.4133  16.4133
    17.9122  18.0479  19.0571  19.0571  19.5900  19.5900  20.3807  22.1506
    24.6091  24.8113  25.4959  27.7956  30.0001  30.0001  30.0766  30.0766
    31.8151  34.5530  34.8514  36.0659  36.0659  36.8397  37.1248

[...]

          k = 0.1196 0.1196 0.1062 (  2940 PWs)   bands (ev):

  -108.2842-108.2841 -62.4877 -62.4870 -62.4635 -62.4629 -62.4331 -62.4330
   -48.9378 -48.9311 -21.5175 -21.4944 -20.8857 -20.8792 -20.5377 -20.5122
    10.1383  10.1808  10.2212  10.2264  10.7558  10.7611  10.8388  10.8758
    11.0456  11.0615  13.1929  13.3827  14.8356  15.0327  16.0898  16.1634
    17.0926  17.7277  18.0767  18.4833  18.5128  18.8210  19.3423  19.4031
    21.9211  22.1075  25.9327  26.0912  31.4834  31.5158  33.5768  33.9071
    34.1807  35.0793  35.8535  36.1943  37.3438  38.0147  38.2237

     the Fermi energy is    18.2564 ev

!    total energy              =   -1276.17043837 Ry
     Harris-Foulkes estimate   =   -1276.17043734 Ry
     estimated scf accuracy    <       0.00000048 Ry

     The total energy is the sum of the following terms:

     one-electron contribution =    -774.50665051 Ry
     hartree contribution      =     426.98070705 Ry
     xc contribution           =    -153.30417396 Ry
     ewald contribution        =    -775.32963561 Ry
     smearing contrib. (-TS)   =      -0.01068534 Ry

     convergence has been achieved in  13 iterations

     Forces acting on atoms (Ry/au):

     negative rho (up, down):  2.577E-01 0.000E+00
     atom    1 type  1   force =     0.00000000    0.00000000    0.00000000
     atom    2 type  1   force =     0.00000000    0.00000000    0.00000000
     atom    3 type  2   force =     0.00000000    0.00000000    0.00000000
     atom    4 type  2   force =     0.00000000    0.00000000    0.00000000

     Total force =     0.000000     Total SCF correction =     0.000000

     General routines

     Parallel routines

   This run was terminated on:   0:20:16  15Nov2017

   JOB DONE.