     Program PWSCF v.5.1rc2 starts on 14Nov2017 at  9:15:56

     Current dimensions of program PWSCF are:
     Max number of different atomic species (ntypx) = 10
     Max number of k-points (npk) =  40000
     Max angular momentum in pseudopotentials (lmaxx) =  3

     IMPORTANT: XC functional enforced from input :
     Exchange-correlation      = BEEF-VDW ( 1  4 27 13 2)
     Any further DFT definition will be discarded
     Please, verify this is what you really want

     Found symmetry operation: I + (  0.5000  0.5000  0.0000)
     This is a supercell, fractional translations are disabled

     bravais-lattice index     =            0
     lattice parameter (alat)  =       1.8897  a.u.
     unit-cell volume          =     497.9842 (a.u.)^3
     number of atoms/cell      =            4
     number of atomic types    =            2
     number of electrons       =        64.00
     number of Kohn-Sham states=           52
     kinetic-energy cutoff     =      58.7989  Ry
     charge density cutoff     =     587.9892  Ry
     convergence threshold     =      1.0E-06
     mixing beta               =       0.1000
     number of iterations used =           10  plain     mixing
     Exchange-correlation      = BEEF-VDW ( 1  4 27 13 2)

     celldm(1)=   1.889726  celldm(2)=   0.000000  celldm(3)=   0.000000
     celldm(4)=   0.000000  celldm(5)=   0.000000  celldm(6)=   0.000000

     crystal axes: (cart. coord. in units of alat)
               a(1) = (   4.464539   0.000000   0.000000 )
               a(2) = (   0.000000   4.464539   0.000000 )
               a(3) = (   0.000000   0.000000   3.702250 )

     reciprocal axes: (cart. coord. in units 2 pi/alat)
               b(1) = (  0.223987  0.000000  0.000000 )
               b(2) = (  0.000000  0.223987  0.000000 )
               b(3) = (  0.000000  0.000000  0.270106 )

     PseudoPot. # 1 for Cu read from file:
     /home/users/vossj/suncat/psp/gbrv1.5pbe/Cu.UPF
     MD5 check sum: 6e991ff952a84172a2a52a1c1e996048
     Pseudo is Ultrasoft + core correction, Zval = 19.0
     Generated by new atomic code, or converted to UPF format
     Using radial grid of  867 points,  6 beta functions with:
                l(1) =   0
                l(2) =   0
                l(3) =   1
                l(4) =   1
                l(5) =   2
                l(6) =   2
     Q(r) pseudized with  8 coefficients,  rinner =    1.150   1.150   1.150
                                                       1.150   1.150

     PseudoPot. # 2 for In read from file:
     /home/users/vossj/suncat/psp/gbrv1.5pbe/In.UPF
     MD5 check sum: 90777abd96fbb83f2e67db2a40c566b9
     Pseudo is Ultrasoft + core correction, Zval = 13.0
     Generated by new atomic code, or converted to UPF format
     Using radial grid of  889 points,  6 beta functions with:
                l(1) =   0
                l(2) =   0
                l(3) =   1
                l(4) =   1
                l(5) =   2
                l(6) =   2
     Q(r) pseudized with  6 coefficients,  rinner =    1.400   1.400   1.400
                                                       1.400   1.400

     vdW kernel table read from file vdW_kernel_table
     MD5 check sum: 095c7af220d748ca6e76c0b4c6cfb241

     atomic species   valence    mass     pseudopotential
        Cu1           19.00    63.54600     Cu( 1.00)
        In1           13.00   114.82000     In( 1.00)

     16 Sym. Ops., with inversion, found

   Cartesian axes

     site n.     atom                  positions (alat units)
         1           Cu1 tau(   1) = (   0.0000000   0.0000000   0.0000000  )
         2           Cu1 tau(   2) = (   2.2322695   2.2322695   0.0000000  )
         3           In1 tau(   3) = (   2.2322695   0.0000000   1.8511249  )
         4           In1 tau(   4) = (   0.0000000   2.2322695   1.8511249  )

     number of k points=    75  Fermi-Dirac smearing, width (Ry)=  0.0073
                       cart. coord. in units 2pi/alat
        k(    1) = (   0.0000000   0.0000000   0.0000000), wk =   0.0027435
        k(    2) = (   0.0000000   0.0000000   0.0300118), wk =   0.0054870
        k(    3) = (   0.0000000   0.0000000   0.0600236), wk =   0.0054870
        k(    4) = (   0.0000000   0.0000000   0.0900353), wk =   0.0054870
        k(    5) = (   0.0000000   0.0000000   0.1200471), wk =   0.0054870
        k(    6) = (   0.0000000   0.0248875   0.0000000), wk =   0.0109739
        k(    7) = (   0.0000000   0.0248875   0.0300118), wk =   0.0219479
        k(    8) = (   0.0000000   0.0248875   0.0600236), wk =   0.0219479
        k(    9) = (   0.0000000   0.0248875   0.0900353), wk =   0.0219479
        k(   10) = (   0.0000000   0.0248875   0.1200471), wk =   0.0219479
        k(   11) = (   0.0000000   0.0497750   0.0000000), wk =   0.0109739
        k(   12) = (   0.0000000   0.0497750   0.0300118), wk =   0.0219479
        k(   13) = (   0.0000000   0.0497750   0.0600236), wk =   0.0219479
        k(   14) = (   0.0000000   0.0497750   0.0900353), wk =   0.0219479
        k(   15) = (   0.0000000   0.0497750   0.1200471), wk =   0.0219479
        k(   16) = (   0.0000000   0.0746624   0.0000000), wk =   0.0109739
        k(   17) = (   0.0000000   0.0746624   0.0300118), wk =   0.0219479
        k(   18) = (   0.0000000   0.0746624   0.0600236), wk =   0.0219479
        k(   19) = (   0.0000000   0.0746624   0.0900353), wk =   0.0219479
        k(   20) = (   0.0000000   0.0746624   0.1200471), wk =   0.0219479
        k(   21) = (   0.0000000   0.0995499   0.0000000), wk =   0.0109739
        k(   22) = (   0.0000000   0.0995499   0.0300118), wk =   0.0219479
        k(   23) = (   0.0000000   0.0995499   0.0600236), wk =   0.0219479
        k(   24) = (   0.0000000   0.0995499   0.0900353), wk =   0.0219479
        k(   25) = (   0.0000000   0.0995499   0.1200471), wk =   0.0219479
        k(   26) = (   0.0248875   0.0248875   0.0000000), wk =   0.0109739
        k(   27) = (   0.0248875   0.0248875   0.0300118), wk =   0.0219479
        k(   28) = (   0.0248875   0.0248875   0.0600236), wk =   0.0219479
        k(   29) = (   0.0248875   0.0248875   0.0900353), wk =   0.0219479
        k(   30) = (   0.0248875   0.0248875   0.1200471), wk =   0.0219479
        k(   31) = (   0.0248875   0.0497750   0.0000000), wk =   0.0219479
        k(   32) = (   0.0248875   0.0497750   0.0300118), wk =   0.0438957
        k(   33) = (   0.0248875   0.0497750   0.0600236), wk =   0.0438957
        k(   34) = (   0.0248875   0.0497750   0.0900353), wk =   0.0438957
        k(   35) = (   0.0248875   0.0497750   0.1200471), wk =   0.0438957
        k(   36) = (   0.0248875   0.0746624   0.0000000), wk =   0.0219479
        k(   37) = (   0.0248875   0.0746624   0.0300118), wk =   0.0438957
        k(   38) = (   0.0248875   0.0746624   0.0600236), wk =   0.0438957
        k(   39) = (   0.0248875   0.0746624   0.0900353), wk =   0.0438957
        k(   40) = (   0.0248875   0.0746624   0.1200471), wk =   0.0438957
        k(   41) = (   0.0248875   0.0995499   0.0000000), wk =   0.0219479
        k(   42) = (   0.0248875   0.0995499   0.0300118), wk =   0.0438957
        k(   43) = (   0.0248875   0.0995499   0.0600236), wk =   0.0438957
        k(   44) = (   0.0248875   0.0995499   0.0900353), wk =   0.0438957
        k(   45) = (   0.0248875   0.0995499   0.1200471), wk =   0.0438957
        k(   46) = (   0.0497750   0.0497750   0.0000000), wk =   0.0109739
        k(   47) = (   0.0497750   0.0497750   0.0300118), wk =   0.0219479
        k(   48) = (   0.0497750   0.0497750   0.0600236), wk =   0.0219479
        k(   49) = (   0.0497750   0.0497750   0.0900353), wk =   0.0219479
        k(   50) = (   0.0497750   0.0497750   0.1200471), wk =   0.0219479
        k(   51) = (   0.0497750   0.0746624   0.0000000), wk =   0.0219479
        k(   52) = (   0.0497750   0.0746624   0.0300118), wk =   0.0438957
        k(   53) = (   0.0497750   0.0746624   0.0600236), wk =   0.0438957
        k(   54) = (   0.0497750   0.0746624   0.0900353), wk =   0.0438957
        k(   55) = (   0.0497750   0.0746624   0.1200471), wk =   0.0438957
        k(   56) = (   0.0497750   0.0995499   0.0000000), wk =   0.0219479
        k(   57) = (   0.0497750   0.0995499   0.0300118), wk =   0.0438957
        k(   58) = (   0.0497750   0.0995499   0.0600236), wk =   0.0438957
        k(   59) = (   0.0497750   0.0995499   0.0900353), wk =   0.0438957
        k(   60) = (   0.0497750   0.0995499   0.1200471), wk =   0.0438957
        k(   61) = (   0.0746624   0.0746624   0.0000000), wk =   0.0109739
        k(   62) = (   0.0746624   0.0746624   0.0300118), wk =   0.0219479
        k(   63) = (   0.0746624   0.0746624   0.0600236), wk =   0.0219479
        k(   64) = (   0.0746624   0.0746624   0.0900353), wk =   0.0219479
        k(   65) = (   0.0746624   0.0746624   0.1200471), wk =   0.0219479
        k(   66) = (   0.0746624   0.0995499   0.0000000), wk =   0.0219479
        k(   67) = (   0.0746624   0.0995499   0.0300118), wk =   0.0438957
        k(   68) = (   0.0746624   0.0995499   0.0600236), wk =   0.0438957
        k(   69) = (   0.0746624   0.0995499   0.0900353), wk =   0.0438957
        k(   70) = (   0.0746624   0.0995499   0.1200471), wk =   0.0438957
        k(   71) = (   0.0995499   0.0995499   0.0000000), wk =   0.0109739
        k(   72) = (   0.0995499   0.0995499   0.0300118), wk =   0.0219479
        k(   73) = (   0.0995499   0.0995499   0.0600236), wk =   0.0219479
        k(   74) = (   0.0995499   0.0995499   0.0900353), wk =   0.0219479
        k(   75) = (   0.0995499   0.0995499   0.1200471), wk =   0.0219479

     Largest allocated arrays     est. size (Mb)     dimensions
     Largest temporary arrays     est. size (Mb)     dimensions

     Initial potential from superposition of free atoms

     starting charge   59.00000, renormalised to   64.00000

     *
     * You are using vdW-DF for exchange-correlation in this calculation.
     * Please cite the following three references that made this development
     * possible:
     *
     *   M. Dion, H. Rydberg, E. Schroder, D. C. Langreth, and
     *   B. I. Lundqvist, Phys. Rev. Lett. 92, 246401 (2004).
     *
     *   T. Thonhauser, V. R. Cooper, S. Li, A. Puzder, P. Hyldgaard, and
     *   D. C. Langreth, Phys. Rev. B 76, 125112 (2007).
     *
     *   G. Roman-Perez and J. M. Soler, Phys. Rev. Lett. 103, 096102 (2009).
     *
     *
     * If you are using vdW-DF2, please also cite:
     *
     *   K. Lee, E. D. Murray, L. Kong, B. I. Lundqvist, and
     *   D. C. Langreth, Phys. Rev. B 82, 081101(R) (2010).
     *
     *
     * If you are calculating the stress with vdW-DF, please also cite:
     *
     *   R. Sabatini, E. Kucukbenli, B. Kolb, T. Thonhauser, and
     *   S. de Gironcoli, J. Phys.: Condens. Matter 24, 424209 (2012).
     *

     Carrying out vdW-DF run using the following parameters:

     Nqs =      20    Nr_points =    1024   r_max =   100.000
     q_mesh =
               0.00001000     0.04494208     0.09755937     0.15916263
               0.23128650     0.31572767     0.41458969     0.53033537
               0.66584808     0.82450364     1.01025438     1.22772762
               1.48234092     1.78043706     2.12944203     2.53805004
               3.01644009     3.57652955     4.23227104     5.00000000

     Gradients computed in reciprocal space

     Starting wfc are   44 randomized atomic wfcs +    8 random wfc

     Self-consistent Calculation

     iteration #  1     ecut=    58.80 Ry     beta=0.10
     Davidson diagonalization with overlap
     ethr =  1.00E-02,  avg # of iterations =  4.8

     total energy              =   -1073.89747423 Ry
     Harris-Foulkes estimate   =   -1089.79106974 Ry
     estimated scf accuracy    <      90.03619674 Ry

[...]

     total energy              =   -1079.45465591 Ry
     Harris-Foulkes estimate   =   -1079.45466417 Ry
     estimated scf accuracy    <       0.00004638 Ry

     iteration # 13     ecut=    58.80 Ry     beta=0.10
     Davidson diagonalization with overlap
     ethr =  7.25E-08,  avg # of iterations =  1.3

     End of self-consistent calculation

          k = 0.0000 0.0000 0.0000 (  3837 PWs)   bands (ev):

  -100.3674-100.3671 -57.7861 -57.7855 -57.7661 -57.7661 -57.7627 -57.7627
    -2.8491  -2.7473  -2.6843  -2.5553  -2.5553  -2.4259  -2.3880  -2.3880
    -2.3282  -2.1425   2.6143   8.0313   9.0924   9.0977   9.3384   9.4351
     9.4351   9.6621   9.6621   9.7795   9.9899  10.4429  10.4429  12.2994
    13.3770  13.4877  16.9130  17.5161  17.5161  20.2878  21.1427  21.3874
    21.3874  21.8438  21.9493  25.0524  25.0524  25.5503  26.0938  27.6420
    27.7193  27.9779  28.6465  28.7607

[...]

          k = 0.0995 0.0995 0.1200 (  3807 PWs)   bands (ev):

  -100.3672-100.3672 -57.7861 -57.7861 -57.7664 -57.7663 -57.7625 -57.7624
    -2.6762  -2.6702  -2.6647  -2.6596  -2.4914  -2.4792  -2.4112  -2.4051
    -2.2687  -2.2559   7.0641   7.2661   8.8903   8.9512   9.2943   9.3539
     9.4423   9.5821   9.6238   9.6797   9.6852   9.9820  10.0509  10.0808
    11.6336  11.6485  12.3844  12.8043  22.5434  22.9173  23.3752  24.0753
    24.0960  24.1598  24.3531  24.7714  27.5335  27.5595  27.9148  28.2898
    28.5517  28.5843  28.7434  29.3404

     the Fermi energy is    12.5463 ev

!    total energy              =   -1079.45468500 Ry
     Harris-Foulkes estimate   =   -1079.45466207 Ry
     estimated scf accuracy    <       0.00000050 Ry

     The total energy is the sum of the following terms:

     one-electron contribution =    -721.11702021 Ry
     hartree contribution      =     403.74687000 Ry
     xc contribution           =    -158.45149678 Ry
     ewald contribution        =    -603.62901626 Ry
     smearing contrib. (-TS)   =      -0.00402174 Ry

     convergence has been achieved in  13 iterations

     Forces acting on atoms (Ry/au):

     atom    1 type  1   force =     0.00000000    0.00000000    0.00000000
     atom    2 type  1   force =     0.00000000    0.00000000    0.00000000
     atom    3 type  2   force =     0.00000000    0.00000000    0.00000000
     atom    4 type  2   force =     0.00000000    0.00000000    0.00000000

     Total force =     0.000000     Total SCF correction =     0.000000

     General routines

     Parallel routines

   This run was terminated on:   9:17: 1  14Nov2017

   JOB DONE.