     Program PWSCF v.5.1rc2 starts on 14Nov2017 at 13:16:42

     Current dimensions of program PWSCF are:
     Max number of different atomic species (ntypx) = 10
     Max number of k-points (npk) =  40000
     Max angular momentum in pseudopotentials (lmaxx) =  3

     IMPORTANT: XC functional enforced from input :
     Exchange-correlation      = BEEF-VDW ( 1  4 27 13 2)
     Any further DFT definition will be discarded
     Please, verify this is what you really want

     Found symmetry operation: I + ( -0.5000 -0.5000  0.0000)
     This is a supercell, fractional translations are disabled

     bravais-lattice index     =            0
     lattice parameter (alat)  =       1.8897  a.u.
     unit-cell volume          =     416.9339 (a.u.)^3
     number of atoms/cell      =            4
     number of atomic types    =            2
     number of electrons       =        70.00
     number of Kohn-Sham states=           55
     kinetic-energy cutoff     =      58.7989  Ry
     charge density cutoff     =     587.9892  Ry
     convergence threshold     =      1.0E-06
     mixing beta               =       0.1000
     number of iterations used =           10  plain     mixing
     Exchange-correlation      = BEEF-VDW ( 1  4 27 13 2)

     celldm(1)=   1.889726  celldm(2)=   0.000000  celldm(3)=   0.000000
     celldm(4)=   0.000000  celldm(5)=   0.000000  celldm(6)=   0.000000

     crystal axes: (cart. coord. in units of alat)
               a(1) = (   4.426022   0.000000   0.000000 )
               a(2) = (   0.000000   4.426022   0.000000 )
               a(3) = (   0.000000   0.000000   3.153868 )

     reciprocal axes: (cart. coord. in units 2 pi/alat)
               b(1) = (  0.225937  0.000000  0.000000 )
               b(2) = (  0.000000  0.225937  0.000000 )
               b(3) = (  0.000000  0.000000  0.317071 )

     PseudoPot. # 1 for Ga read from file:
     /home/users/vossj/suncat/psp/gbrv1.5pbe/Ga.UPF
     MD5 check sum: ccd671392a58a050fbb373893b4fcd66
     Pseudo is Ultrasoft + core correction, Zval = 19.0
     Generated by new atomic code, or converted to UPF format
     Using radial grid of  871 points,  6 beta functions with:
                l(1) =   0
                l(2) =   0
                l(3) =   1
                l(4) =   1
                l(5) =   2
                l(6) =   2
     Q(r) pseudized with  8 coefficients,  rinner =    1.250   1.250   1.250
                                                       1.250   1.250

     PseudoPot. # 2 for Pd read from file:
     /home/users/vossj/suncat/psp/gbrv1.5pbe/Pd.UPF
     MD5 check sum: 2d733d2bc2cbfd217af676df1668a4bc
     Pseudo is Ultrasoft + core correction, Zval = 16.0
     Generated by new atomic code, or converted to UPF format
     Using radial grid of  887 points,  6 beta functions with:
                l(1) =   0
                l(2) =   0
                l(3) =   1
                l(4) =   1
                l(5) =   2
                l(6) =   2
     Q(r) pseudized with  8 coefficients,  rinner =    1.130   1.130   1.130
                                                       1.130   1.130

     vdW kernel table read from file vdW_kernel_table
     MD5 check sum: 095c7af220d748ca6e76c0b4c6cfb241

     atomic species   valence    mass     pseudopotential
        Ga1           19.00    69.72300     Ga( 1.00)
        Pd1           16.00   106.42000     Pd( 1.00)

     16 Sym. Ops., with inversion, found

   Cartesian axes

     site n.     atom                  positions (alat units)
         1           Ga1 tau(   1) = (   0.0000000   0.0000000   0.0000000  )
         2           Ga1 tau(   2) = (   2.2130109   2.2130109   0.0000000  )
         3           Pd1 tau(   3) = (   2.2130109   0.0000000   1.5769339  )
         4           Pd1 tau(   4) = (   0.0000000   2.2130109   1.5769339  )

     number of k points=    75  Fermi-Dirac smearing, width (Ry)=  0.0073
                       cart. coord. in units 2pi/alat
        k(    1) = (   0.0000000   0.0000000   0.0000000), wk =   0.0027435
        k(    2) = (   0.0000000   0.0000000   0.0352301), wk =   0.0054870
        k(    3) = (   0.0000000   0.0000000   0.0704602), wk =   0.0054870
        k(    4) = (   0.0000000   0.0000000   0.1056903), wk =   0.0054870
        k(    5) = (   0.0000000   0.0000000   0.1409204), wk =   0.0054870
        k(    6) = (   0.0000000   0.0251041   0.0000000), wk =   0.0109739
        k(    7) = (   0.0000000   0.0251041   0.0352301), wk =   0.0219479
        k(    8) = (   0.0000000   0.0251041   0.0704602), wk =   0.0219479
        k(    9) = (   0.0000000   0.0251041   0.1056903), wk =   0.0219479
        k(   10) = (   0.0000000   0.0251041   0.1409204), wk =   0.0219479
        k(   11) = (   0.0000000   0.0502081   0.0000000), wk =   0.0109739
        k(   12) = (   0.0000000   0.0502081   0.0352301), wk =   0.0219479
        k(   13) = (   0.0000000   0.0502081   0.0704602), wk =   0.0219479
        k(   14) = (   0.0000000   0.0502081   0.1056903), wk =   0.0219479
        k(   15) = (   0.0000000   0.0502081   0.1409204), wk =   0.0219479
        k(   16) = (   0.0000000   0.0753122   0.0000000), wk =   0.0109739
        k(   17) = (   0.0000000   0.0753122   0.0352301), wk =   0.0219479
        k(   18) = (   0.0000000   0.0753122   0.0704602), wk =   0.0219479
        k(   19) = (   0.0000000   0.0753122   0.1056903), wk =   0.0219479
        k(   20) = (   0.0000000   0.0753122   0.1409204), wk =   0.0219479
        k(   21) = (   0.0000000   0.1004162   0.0000000), wk =   0.0109739
        k(   22) = (   0.0000000   0.1004162   0.0352301), wk =   0.0219479
        k(   23) = (   0.0000000   0.1004162   0.0704602), wk =   0.0219479
        k(   24) = (   0.0000000   0.1004162   0.1056903), wk =   0.0219479
        k(   25) = (   0.0000000   0.1004162   0.1409204), wk =   0.0219479
        k(   26) = (   0.0251041   0.0251041   0.0000000), wk =   0.0109739
        k(   27) = (   0.0251041   0.0251041   0.0352301), wk =   0.0219479
        k(   28) = (   0.0251041   0.0251041   0.0704602), wk =   0.0219479
        k(   29) = (   0.0251041   0.0251041   0.1056903), wk =   0.0219479
        k(   30) = (   0.0251041   0.0251041   0.1409204), wk =   0.0219479
        k(   31) = (   0.0251041   0.0502081   0.0000000), wk =   0.0219479
        k(   32) = (   0.0251041   0.0502081   0.0352301), wk =   0.0438957
        k(   33) = (   0.0251041   0.0502081   0.0704602), wk =   0.0438957
        k(   34) = (   0.0251041   0.0502081   0.1056903), wk =   0.0438957
        k(   35) = (   0.0251041   0.0502081   0.1409204), wk =   0.0438957
        k(   36) = (   0.0251041   0.0753122   0.0000000), wk =   0.0219479
        k(   37) = (   0.0251041   0.0753122   0.0352301), wk =   0.0438957
        k(   38) = (   0.0251041   0.0753122   0.0704602), wk =   0.0438957
        k(   39) = (   0.0251041   0.0753122   0.1056903), wk =   0.0438957
        k(   40) = (   0.0251041   0.0753122   0.1409204), wk =   0.0438957
        k(   41) = (   0.0251041   0.1004162   0.0000000), wk =   0.0219479
        k(   42) = (   0.0251041   0.1004162   0.0352301), wk =   0.0438957
        k(   43) = (   0.0251041   0.1004162   0.0704602), wk =   0.0438957
        k(   44) = (   0.0251041   0.1004162   0.1056903), wk =   0.0438957
        k(   45) = (   0.0251041   0.1004162   0.1409204), wk =   0.0438957
        k(   46) = (   0.0502081   0.0502081   0.0000000), wk =   0.0109739
        k(   47) = (   0.0502081   0.0502081   0.0352301), wk =   0.0219479
        k(   48) = (   0.0502081   0.0502081   0.0704602), wk =   0.0219479
        k(   49) = (   0.0502081   0.0502081   0.1056903), wk =   0.0219479
        k(   50) = (   0.0502081   0.0502081   0.1409204), wk =   0.0219479
        k(   51) = (   0.0502081   0.0753122   0.0000000), wk =   0.0219479
        k(   52) = (   0.0502081   0.0753122   0.0352301), wk =   0.0438957
        k(   53) = (   0.0502081   0.0753122   0.0704602), wk =   0.0438957
        k(   54) = (   0.0502081   0.0753122   0.1056903), wk =   0.0438957
        k(   55) = (   0.0502081   0.0753122   0.1409204), wk =   0.0438957
        k(   56) = (   0.0502081   0.1004162   0.0000000), wk =   0.0219479
        k(   57) = (   0.0502081   0.1004162   0.0352301), wk =   0.0438957
        k(   58) = (   0.0502081   0.1004162   0.0704602), wk =   0.0438957
        k(   59) = (   0.0502081   0.1004162   0.1056903), wk =   0.0438957
        k(   60) = (   0.0502081   0.1004162   0.1409204), wk =   0.0438957
        k(   61) = (   0.0753122   0.0753122   0.0000000), wk =   0.0109739
        k(   62) = (   0.0753122   0.0753122   0.0352301), wk =   0.0219479
        k(   63) = (   0.0753122   0.0753122   0.0704602), wk =   0.0219479
        k(   64) = (   0.0753122   0.0753122   0.1056903), wk =   0.0219479
        k(   65) = (   0.0753122   0.0753122   0.1409204), wk =   0.0219479
        k(   66) = (   0.0753122   0.1004162   0.0000000), wk =   0.0219479
        k(   67) = (   0.0753122   0.1004162   0.0352301), wk =   0.0438957
        k(   68) = (   0.0753122   0.1004162   0.0704602), wk =   0.0438957
        k(   69) = (   0.0753122   0.1004162   0.1056903), wk =   0.0438957
        k(   70) = (   0.0753122   0.1004162   0.1409204), wk =   0.0438957
        k(   71) = (   0.1004162   0.1004162   0.0000000), wk =   0.0109739
        k(   72) = (   0.1004162   0.1004162   0.0352301), wk =   0.0219479
        k(   73) = (   0.1004162   0.1004162   0.0704602), wk =   0.0219479
        k(   74) = (   0.1004162   0.1004162   0.1056903), wk =   0.0219479
        k(   75) = (   0.1004162   0.1004162   0.1409204), wk =   0.0219479

     Largest allocated arrays     est. size (Mb)     dimensions
     Largest temporary arrays     est. size (Mb)     dimensions

     Initial potential from superposition of free atoms
     Check: negative starting charge=   -0.154311

     starting charge   66.99998, renormalised to   70.00000

     negative rho (up, down):  1.612E-01 0.000E+00

     *
     * You are using vdW-DF for exchange-correlation in this calculation.
     * Please cite the following three references that made this development
     * possible:
     *
     *   M. Dion, H. Rydberg, E. Schroder, D. C. Langreth, and
     *   B. I. Lundqvist, Phys. Rev. Lett. 92, 246401 (2004).
     *
     *   T. Thonhauser, V. R. Cooper, S. Li, A. Puzder, P. Hyldgaard, and
     *   D. C. Langreth, Phys. Rev. B 76, 125112 (2007).
     *
     *   G. Roman-Perez and J. M. Soler, Phys. Rev. Lett. 103, 096102 (2009).
     *
     *
     * If you are using vdW-DF2, please also cite:
     *
     *   K. Lee, E. D. Murray, L. Kong, B. I. Lundqvist, and
     *   D. C. Langreth, Phys. Rev. B 82, 081101(R) (2010).
     *
     *
     * If you are calculating the stress with vdW-DF, please also cite:
     *
     *   R. Sabatini, E. Kucukbenli, B. Kolb, T. Thonhauser, and
     *   S. de Gironcoli, J. Phys.: Condens. Matter 24, 424209 (2012).
     *

     Carrying out vdW-DF run using the following parameters:

     Nqs =      20    Nr_points =    1024   r_max =   100.000
     q_mesh =
               0.00001000     0.04494208     0.09755937     0.15916263
               0.23128650     0.31572767     0.41458969     0.53033537
               0.66584808     0.82450364     1.01025438     1.22772762
               1.48234092     1.78043706     2.12944203     2.53805004
               3.01644009     3.57652955     4.23227104     5.00000000

     Gradients computed in reciprocal space

     Starting wfc are   48 randomized atomic wfcs +    7 random wfc

     Self-consistent Calculation

     iteration #  1     ecut=    58.80 Ry     beta=0.10
     Davidson diagonalization with overlap
     ethr =  1.00E-02,  avg # of iterations =  4.4

[...]

     total energy              =   -1234.05101334 Ry
     Harris-Foulkes estimate   =   -1235.86165080 Ry
     estimated scf accuracy    <      10.77355930 Ry

[...]

     total energy              =   -1232.96890862 Ry
     Harris-Foulkes estimate   =   -1232.96891378 Ry
     estimated scf accuracy    <       0.00000943 Ry

     iteration # 10     ecut=    58.80 Ry     beta=0.10
     Davidson diagonalization with overlap
     ethr =  1.35E-08,  avg # of iterations =  2.9

     negative rho (up, down):  1.612E-01 0.000E+00

     End of self-consistent calculation

          k = 0.0000 0.0000 0.0000 (  3171 PWs)   bands (ev):

   -78.7966 -78.7966 -78.7958 -78.7958 -78.7953 -78.7952 -34.4968 -34.4968
   -34.4552 -34.4499 -34.4499 -34.4468   0.7349   0.7394   0.7536   0.8228
     0.8428   0.8428   0.9045   0.9045   0.9067   0.9966   5.6113   9.2437
    11.9511  11.9591  12.3664  13.2543  13.2543  13.8452  13.8452  13.8586
    13.8586  13.8696  14.5597  17.2283  19.2335  20.3061  20.5235  20.5235
    24.5596  25.3019  26.8447  26.9065  29.1741  29.1741  31.2114  33.0498
    33.7068  33.7068  35.3089  35.4528  35.4528  37.9663  38.1126

[...]

          k = 0.1004 0.1004 0.1409 (  3202 PWs)   bands (ev):

   -78.7966 -78.7965 -78.7960 -78.7959 -78.7957 -78.7957 -34.4972 -34.4964
   -34.4961 -34.4958 -34.4436 -34.4422   0.7602   0.7621   0.8151   0.8213
     0.8443   0.8478   0.8481   0.8505   0.9858   0.9901   9.1717   9.2233
    12.1891  12.3005  12.9491  12.9835  13.2740  13.3055  13.5394  13.5807
    13.9200  14.1328  14.7457  14.8560  17.3435  17.4731  19.3473  19.5492
    24.4372  24.7391  28.8581  28.8842  28.9398  29.4660  31.8180  31.8224
    32.0757  32.3929  33.8575  34.4096  34.6975  35.2522  39.7488

     the Fermi energy is    16.1919 ev

!    total energy              =   -1232.96893250 Ry
     Harris-Foulkes estimate   =   -1232.96891106 Ry
     estimated scf accuracy    <       0.00000046 Ry

     The total energy is the sum of the following terms:

     one-electron contribution =    -721.47931079 Ry
     hartree contribution      =     408.34494184 Ry
     xc contribution           =    -164.88859870 Ry
     ewald contribution        =    -754.94260016 Ry
     smearing contrib. (-TS)   =      -0.00336468 Ry

     convergence has been achieved in  10 iterations

     Forces acting on atoms (Ry/au):

     negative rho (up, down):  1.612E-01 0.000E+00
     atom    1 type  1   force =     0.00000000    0.00000000    0.00000000
     atom    2 type  1   force =     0.00000000    0.00000000    0.00000000
     atom    3 type  2   force =     0.00000000    0.00000000    0.00000000
     atom    4 type  2   force =     0.00000000    0.00000000    0.00000000

     Total force =     0.000000     Total SCF correction =     0.000000

     General routines

     Parallel routines

   This run was terminated on:  13:17:22  14Nov2017

   JOB DONE.