     Program PWSCF v.5.1rc2 (svn rev. ) starts on 14Nov2017 at 19:23:16

     Current dimensions of program PWSCF are:
     Max number of different atomic species (ntypx) = 10
     Max number of k-points (npk) =  40000
     Max angular momentum in pseudopotentials (lmaxx) =  3

     IMPORTANT: XC functional enforced from input :
     Exchange-correlation      = BEEF-VDW ( 1  4 27 13 2)
     Any further DFT definition will be discarded
     Please, verify this is what you really want

     Subspace diagonalization in iterative solution of the eigenvalue problem:
     a serial algorithm will be used

     Found symmetry operation: I + ( -0.5000 -0.5000  0.0000)
     This is a supercell, fractional translations are disabled

     bravais-lattice index     =            0
     lattice parameter (alat)  =       1.8897  a.u.
     unit-cell volume          =     387.7088 (a.u.)^3
     number of atoms/cell      =            4
     number of atomic types    =            2
     number of electrons       =        76.00
     number of Kohn-Sham states=           58
     kinetic-energy cutoff     =      58.7989  Ry
     charge density cutoff     =     587.9892  Ry
     convergence threshold     =      1.0E-06
     mixing beta               =       0.1000
     number of iterations used =           10  plain     mixing
     Exchange-correlation      = BEEF-VDW ( 1  4 27 13 2)

     celldm(1)=   1.889726  celldm(2)=   0.000000  celldm(3)=   0.000000
     celldm(4)=   0.000000  celldm(5)=   0.000000  celldm(6)=   0.000000

     crystal axes: (cart. coord. in units of alat)
               a(1) = (   3.876821   0.000000   0.000000 )
               a(2) = (   0.000000   3.876821   0.000000 )
               a(3) = (   0.000000   0.000000   3.822589 )

     reciprocal axes: (cart. coord. in units 2 pi/alat)
               b(1) = (  0.257943  0.000000  0.000000 )
               b(2) = (  0.000000  0.257943  0.000000 )
               b(3) = (  0.000000  0.000000  0.261603 )

     PseudoPot. # 1 for Cu read from file:
     /home/vossj/suncat/psp/gbrv1.5pbe/Cu.UPF
     MD5 check sum: 6e991ff952a84172a2a52a1c1e996048
     Pseudo is Ultrasoft + core correction, Zval = 19.0
     Generated by new atomic code, or converted to UPF format
     Using radial grid of  867 points,  6 beta functions with:
                l(1) =   0
                l(2) =   0
                l(3) =   1
                l(4) =   1
                l(5) =   2
                l(6) =   2
     Q(r) pseudized with  8 coefficients,  rinner =    1.150   1.150   1.150
                                                       1.150   1.150

     PseudoPot. # 2 for Ga read from file:
     /home/vossj/suncat/psp/gbrv1.5pbe/Ga.UPF
     MD5 check sum: ccd671392a58a050fbb373893b4fcd66
     Pseudo is Ultrasoft + core correction, Zval = 19.0
     Generated by new atomic code, or converted to UPF format
     Using radial grid of  871 points,  6 beta functions with:
                l(1) =   0
                l(2) =   0
                l(3) =   1
                l(4) =   1
                l(5) =   2
                l(6) =   2
     Q(r) pseudized with  8 coefficients,  rinner =    1.250   1.250   1.250
                                                       1.250   1.250

     vdW kernel table read from file vdW_kernel_table
     MD5 check sum: 095c7af220d748ca6e76c0b4c6cfb241

     atomic species   valence    mass     pseudopotential
        Cu1           19.00    63.54600     Cu( 1.00)
        Ga1           19.00    69.72300     Ga( 1.00)

     16 Sym. Ops., with inversion, found

   Cartesian axes

     site n.     atom                  positions (alat units)
         1           Cu1 tau(   1) = (   0.0000000   0.0000000   0.0000000  )
         2           Cu1 tau(   2) = (   1.9384104   1.9384104   0.0000000  )
         3           Ga1 tau(   3) = (   1.9384104   0.0000000   1.9112947  )
         4           Ga1 tau(   4) = (   0.0000000   1.9384104   1.9112947  )

     number of k points=    75  Fermi-Dirac smearing, width (Ry)=  0.0073
                       cart. coord. in units 2pi/alat
        k(    1) = (   0.0000000   0.0000000   0.0000000), wk =   0.0027435
        k(    2) = (   0.0000000   0.0000000   0.0290670), wk =   0.0054870
        k(    3) = (   0.0000000   0.0000000   0.0581340), wk =   0.0054870
        k(    4) = (   0.0000000   0.0000000   0.0872009), wk =   0.0054870
        k(    5) = (   0.0000000   0.0000000   0.1162679), wk =   0.0054870
        k(    6) = (   0.0000000   0.0286604   0.0000000), wk =   0.0109739
        k(    7) = (   0.0000000   0.0286604   0.0290670), wk =   0.0219479
        k(    8) = (   0.0000000   0.0286604   0.0581340), wk =   0.0219479
        k(    9) = (   0.0000000   0.0286604   0.0872009), wk =   0.0219479
        k(   10) = (   0.0000000   0.0286604   0.1162679), wk =   0.0219479
        k(   11) = (   0.0000000   0.0573207   0.0000000), wk =   0.0109739
        k(   12) = (   0.0000000   0.0573207   0.0290670), wk =   0.0219479
        k(   13) = (   0.0000000   0.0573207   0.0581340), wk =   0.0219479
        k(   14) = (   0.0000000   0.0573207   0.0872009), wk =   0.0219479
        k(   15) = (   0.0000000   0.0573207   0.1162679), wk =   0.0219479
        k(   16) = (   0.0000000   0.0859811   0.0000000), wk =   0.0109739
        k(   17) = (   0.0000000   0.0859811   0.0290670), wk =   0.0219479
        k(   18) = (   0.0000000   0.0859811   0.0581340), wk =   0.0219479
        k(   19) = (   0.0000000   0.0859811   0.0872009), wk =   0.0219479
        k(   20) = (   0.0000000   0.0859811   0.1162679), wk =   0.0219479
        k(   21) = (   0.0000000   0.1146415   0.0000000), wk =   0.0109739
        k(   22) = (   0.0000000   0.1146415   0.0290670), wk =   0.0219479
        k(   23) = (   0.0000000   0.1146415   0.0581340), wk =   0.0219479
        k(   24) = (   0.0000000   0.1146415   0.0872009), wk =   0.0219479
        k(   25) = (   0.0000000   0.1146415   0.1162679), wk =   0.0219479
        k(   26) = (   0.0286604   0.0286604   0.0000000), wk =   0.0109739
        k(   27) = (   0.0286604   0.0286604   0.0290670), wk =   0.0219479
        k(   28) = (   0.0286604   0.0286604   0.0581340), wk =   0.0219479
        k(   29) = (   0.0286604   0.0286604   0.0872009), wk =   0.0219479
        k(   30) = (   0.0286604   0.0286604   0.1162679), wk =   0.0219479
        k(   31) = (   0.0286604   0.0573207   0.0000000), wk =   0.0219479
        k(   32) = (   0.0286604   0.0573207   0.0290670), wk =   0.0438957
        k(   33) = (   0.0286604   0.0573207   0.0581340), wk =   0.0438957
        k(   34) = (   0.0286604   0.0573207   0.0872009), wk =   0.0438957
        k(   35) = (   0.0286604   0.0573207   0.1162679), wk =   0.0438957
        k(   36) = (   0.0286604   0.0859811   0.0000000), wk =   0.0219479
        k(   37) = (   0.0286604   0.0859811   0.0290670), wk =   0.0438957
        k(   38) = (   0.0286604   0.0859811   0.0581340), wk =   0.0438957
        k(   39) = (   0.0286604   0.0859811   0.0872009), wk =   0.0438957
        k(   40) = (   0.0286604   0.0859811   0.1162679), wk =   0.0438957
        k(   41) = (   0.0286604   0.1146415   0.0000000), wk =   0.0219479
        k(   42) = (   0.0286604   0.1146415   0.0290670), wk =   0.0438957
        k(   43) = (   0.0286604   0.1146415   0.0581340), wk =   0.0438957
        k(   44) = (   0.0286604   0.1146415   0.0872009), wk =   0.0438957
        k(   45) = (   0.0286604   0.1146415   0.1162679), wk =   0.0438957
        k(   46) = (   0.0573207   0.0573207   0.0000000), wk =   0.0109739
        k(   47) = (   0.0573207   0.0573207   0.0290670), wk =   0.0219479
        k(   48) = (   0.0573207   0.0573207   0.0581340), wk =   0.0219479
        k(   49) = (   0.0573207   0.0573207   0.0872009), wk =   0.0219479
        k(   50) = (   0.0573207   0.0573207   0.1162679), wk =   0.0219479
        k(   51) = (   0.0573207   0.0859811   0.0000000), wk =   0.0219479
        k(   52) = (   0.0573207   0.0859811   0.0290670), wk =   0.0438957
        k(   53) = (   0.0573207   0.0859811   0.0581340), wk =   0.0438957
        k(   54) = (   0.0573207   0.0859811   0.0872009), wk =   0.0438957
        k(   55) = (   0.0573207   0.0859811   0.1162679), wk =   0.0438957
        k(   56) = (   0.0573207   0.1146415   0.0000000), wk =   0.0219479
        k(   57) = (   0.0573207   0.1146415   0.0290670), wk =   0.0438957
        k(   58) = (   0.0573207   0.1146415   0.0581340), wk =   0.0438957
        k(   59) = (   0.0573207   0.1146415   0.0872009), wk =   0.0438957
        k(   60) = (   0.0573207   0.1146415   0.1162679), wk =   0.0438957
        k(   61) = (   0.0859811   0.0859811   0.0000000), wk =   0.0109739
        k(   62) = (   0.0859811   0.0859811   0.0290670), wk =   0.0219479
        k(   63) = (   0.0859811   0.0859811   0.0581340), wk =   0.0219479
        k(   64) = (   0.0859811   0.0859811   0.0872009), wk =   0.0219479
        k(   65) = (   0.0859811   0.0859811   0.1162679), wk =   0.0219479
        k(   66) = (   0.0859811   0.1146415   0.0000000), wk =   0.0219479
        k(   67) = (   0.0859811   0.1146415   0.0290670), wk =   0.0438957
        k(   68) = (   0.0859811   0.1146415   0.0581340), wk =   0.0438957
        k(   69) = (   0.0859811   0.1146415   0.0872009), wk =   0.0438957
        k(   70) = (   0.0859811   0.1146415   0.1162679), wk =   0.0438957
        k(   71) = (   0.1146415   0.1146415   0.0000000), wk =   0.0109739
        k(   72) = (   0.1146415   0.1146415   0.0290670), wk =   0.0219479
        k(   73) = (   0.1146415   0.1146415   0.0581340), wk =   0.0219479
        k(   74) = (   0.1146415   0.1146415   0.0872009), wk =   0.0219479
        k(   75) = (   0.1146415   0.1146415   0.1162679), wk =   0.0219479

     Largest allocated arrays     est. size (Mb)     dimensions
     Largest temporary arrays     est. size (Mb)     dimensions

     Initial potential from superposition of free atoms

     starting charge   71.99999, renormalised to   76.00000

     *
     * You are using vdW-DF for exchange-correlation in this calculation.
     * Please cite the following three references that made this development
     * possible:
     *
     *   M. Dion, H. Rydberg, E. Schroder, D. C. Langreth, and
     *   B. I. Lundqvist, Phys. Rev. Lett. 92, 246401 (2004).
     *
     *   T. Thonhauser, V. R. Cooper, S. Li, A. Puzder, P. Hyldgaard, and
     *   D. C. Langreth, Phys. Rev. B 76, 125112 (2007).
     *
     *   G. Roman-Perez and J. M. Soler, Phys. Rev. Lett. 103, 096102 (2009).
     *
     *
     * If you are using vdW-DF2, please also cite:
     *
     *   K. Lee, E. D. Murray, L. Kong, B. I. Lundqvist, and
     *   D. C. Langreth, Phys. Rev. B 82, 081101(R) (2010).
     *
     *
     * If you are calculating the stress with vdW-DF, please also cite:
     *
     *   R. Sabatini, E. Kucukbenli, B. Kolb, T. Thonhauser, and
     *   S. de Gironcoli, J. Phys.: Condens. Matter 24, 424209 (2012).
     *

     Carrying out vdW-DF run using the following parameters:

     Nqs =      20    Nr_points =    1024   r_max =   100.000
     q_mesh =
               0.00001000     0.04494208     0.09755937     0.15916263
               0.23128650     0.31572767     0.41458969     0.53033537
               0.66584808     0.82450364     1.01025438     1.22772762
               1.48234092     1.78043706     2.12944203     2.53805004
               3.01644009     3.57652955     4.23227104     5.00000000

     Gradients computed in reciprocal space

     Starting wfc are   50 randomized atomic wfcs +    8 random wfc

     Self-consistent Calculation

     iteration #  1     ecut=    58.80 Ry     beta=0.10
     Davidson diagonalization with overlap
     ethr =  1.00E-02,  avg # of iterations =  4.4

     total energy              =   -1643.82617233 Ry
     Harris-Foulkes estimate   =   -1648.44394005 Ry
     estimated scf accuracy    <      26.35153057 Ry

[...]

     total energy              =   -1643.11332267 Ry
     Harris-Foulkes estimate   =   -1643.11332047 Ry
     estimated scf accuracy    <       0.00000545 Ry

     iteration # 15     ecut=    58.80 Ry     beta=0.10
     Davidson diagonalization with overlap
     ethr =  7.17E-09,  avg # of iterations =  1.7

     End of self-consistent calculation

          k = 0.0000 0.0000 0.0000 (  2945 PWs)   bands (ev):

   -98.9283 -98.9250 -80.7729 -80.7729 -80.7669 -80.7669 -80.7554 -80.7545
   -56.3371 -56.3331 -56.3298 -56.3298 -56.3077 -56.3077  -1.4199  -1.3383
    -1.2561  -1.1851  -1.1851  -1.0184  -1.0184  -1.0132  -0.9516  -0.8110
     2.8590   9.2952  10.0888  10.2102  10.6858  10.6858  10.8860  11.2660
    11.2660  11.5391  11.8849  12.5051  12.5051  12.9119  14.7025  16.5181
    16.9523  21.0347  21.9910  21.9910  23.0494  23.0494  24.2356  25.8366
    26.5565  26.5565  27.1860  27.3085  29.1840  32.8074  33.0542  33.1726
    33.1726  35.3981

[...]

          k = 0.1146 0.1146 0.1163 (  2974 PWs)   bands (ev):

   -98.9267 -98.9266 -80.7734 -80.7732 -80.7667 -80.7665 -80.7550 -80.7550
   -56.3353 -56.3352 -56.3318 -56.3312 -56.3067 -56.3060  -1.2886  -1.2739
    -1.2487  -1.2440  -1.0965  -1.0849  -1.0114  -1.0060  -0.9596  -0.9490
     7.6201   7.9329   9.9164   9.9281  10.3825  10.4031  10.8667  11.1312
    11.1396  11.2445  11.2927  11.3227  11.4450  11.5857  13.0459  13.1491
    14.6358  15.0814  26.3651  26.9379  28.7587  28.7855  28.8365  29.7923
    30.7238  30.7885  30.8603  31.1423  31.4747  31.9100  32.8363  32.8745
    32.8976  33.8375

     the Fermi energy is    14.1826 ev

!    total energy              =   -1643.11333559 Ry
     Harris-Foulkes estimate   =   -1643.11332362 Ry
     estimated scf accuracy    <       0.00000015 Ry

     The total energy is the sum of the following terms:

     one-electron contribution =   -1192.27172890 Ry
     hartree contribution      =     636.82196919 Ry
     xc contribution           =    -179.72027221 Ry
     ewald contribution        =    -907.93973804 Ry
     smearing contrib. (-TS)   =      -0.00356563 Ry

     convergence has been achieved in  15 iterations

     Forces acting on atoms (Ry/au):

     atom    1 type  1   force =     0.00000000    0.00000000    0.00000000
     atom    2 type  1   force =     0.00000000    0.00000000    0.00000000
     atom    3 type  2   force =     0.00000000    0.00000000    0.00000000
     atom    4 type  2   force =     0.00000000    0.00000000    0.00000000

     Total force =     0.000000     Total SCF correction =     0.000000

     General routines

     Parallel routines

   This run was terminated on:  19:24:24  14Nov2017

   JOB DONE.