     Program PWSCF v.5.1rc2 starts on 14Nov2017 at 15:44:10

     Current dimensions of program PWSCF are:
     Max number of different atomic species (ntypx) = 10
     Max number of k-points (npk) =  40000
     Max angular momentum in pseudopotentials (lmaxx) =  3

     IMPORTANT: XC functional enforced from input :
     Exchange-correlation      = BEEF-VDW ( 1  4 27 13 2)
     Any further DFT definition will be discarded
     Please, verify this is what you really want

     Found symmetry operation: I + ( -0.5000 -0.5000  0.0000)
     This is a supercell, fractional translations are disabled

     bravais-lattice index     =            0
     lattice parameter (alat)  =       1.8897  a.u.
     unit-cell volume          =     445.5594 (a.u.)^3
     number of atoms/cell      =            4
     number of atomic types    =            2
     number of electrons       =        58.00
     number of Kohn-Sham states=           49
     kinetic-energy cutoff     =      58.7989  Ry
     charge density cutoff     =     587.9892  Ry
     convergence threshold     =      1.0E-06
     mixing beta               =       0.1000
     number of iterations used =           10  plain     mixing
     Exchange-correlation      = BEEF-VDW ( 1  4 27 13 2)

     celldm(1)=   1.889726  celldm(2)=   0.000000  celldm(3)=   0.000000
     celldm(4)=   0.000000  celldm(5)=   0.000000  celldm(6)=   0.000000

     crystal axes: (cart. coord. in units of alat)
               a(1) = (   4.002823   0.000000   0.000000 )
               a(2) = (   0.000000   4.002823   0.000000 )
               a(3) = (   0.000000   0.000000   4.120749 )

     reciprocal axes: (cart. coord. in units 2 pi/alat)
               b(1) = (  0.249824  0.000000  0.000000 )
               b(2) = (  0.000000  0.249824  0.000000 )
               b(3) = (  0.000000  0.000000  0.242674 )

     PseudoPot. # 1 for Ta read from file:
     /home/users/vossj/suncat/psp/gbrv1.5pbe/Ta.UPF
     MD5 check sum: f8bbe9446314a3b8ea5d9f3e3836c939
     Pseudo is Ultrasoft + core correction, Zval = 13.0
     Generated by new atomic code, or converted to UPF format
     Using radial grid of  921 points,  7 beta functions with:
                l(1) =   0
                l(2) =   0
                l(3) =   1
                l(4) =   1
                l(5) =   2
                l(6) =   2
                l(7) =   3
     Q(r) pseudized with  6 coefficients,  rinner =    1.300   1.300   1.300
                                                       1.300   1.300   1.300
                                                       1.300

     PseudoPot. # 2 for Pt read from file:
     /home/users/vossj/suncat/psp/gbrv1.5pbe/Pt.UPF
     MD5 check sum: f09d6de1a584b5a045c4fc126da2d0c4
     Pseudo is Ultrasoft + core correction, Zval = 16.0
     Generated by new atomic code, or converted to UPF format
     Using radial grid of  985 points,  6 beta functions with:
                l(1) =   0
                l(2) =   0
                l(3) =   1
                l(4) =   1
                l(5) =   2
                l(6) =   2
     Q(r) pseudized with  8 coefficients,  rinner =    1.300   1.300   1.300
                                                       1.300   1.300

     vdW kernel table read from file vdW_kernel_table
     MD5 check sum: 095c7af220d748ca6e76c0b4c6cfb241

     atomic species   valence    mass     pseudopotential
        Ta1           13.00   180.94790     Ta( 1.00)
        Pt1           16.00   195.08000     Pt( 1.00)

     16 Sym. Ops., with inversion, found

   Cartesian axes

     site n.     atom                  positions (alat units)
         1           Ta1 tau(   1) = (   0.0000000   0.0000000   0.0000000  )
         2           Ta1 tau(   2) = (   2.0014116   2.0014116   0.0000000  )
         3           Pt1 tau(   3) = (   2.0014116   0.0000000   2.0603747  )
         4           Pt1 tau(   4) = (   0.0000000   2.0014116   2.0603747  )

     number of k points=    75  Fermi-Dirac smearing, width (Ry)=  0.0073
                       cart. coord. in units 2pi/alat
        k(    1) = (   0.0000000   0.0000000   0.0000000), wk =   0.0027435
        k(    2) = (   0.0000000   0.0000000   0.0269638), wk =   0.0054870
        k(    3) = (   0.0000000   0.0000000   0.0539276), wk =   0.0054870
        k(    4) = (   0.0000000   0.0000000   0.0808914), wk =   0.0054870
        k(    5) = (   0.0000000   0.0000000   0.1078552), wk =   0.0054870
        k(    6) = (   0.0000000   0.0277582   0.0000000), wk =   0.0109739
        k(    7) = (   0.0000000   0.0277582   0.0269638), wk =   0.0219479
        k(    8) = (   0.0000000   0.0277582   0.0539276), wk =   0.0219479
        k(    9) = (   0.0000000   0.0277582   0.0808914), wk =   0.0219479
        k(   10) = (   0.0000000   0.0277582   0.1078552), wk =   0.0219479
        k(   11) = (   0.0000000   0.0555164   0.0000000), wk =   0.0109739
        k(   12) = (   0.0000000   0.0555164   0.0269638), wk =   0.0219479
        k(   13) = (   0.0000000   0.0555164   0.0539276), wk =   0.0219479
        k(   14) = (   0.0000000   0.0555164   0.0808914), wk =   0.0219479
        k(   15) = (   0.0000000   0.0555164   0.1078552), wk =   0.0219479
        k(   16) = (   0.0000000   0.0832746   0.0000000), wk =   0.0109739
        k(   17) = (   0.0000000   0.0832746   0.0269638), wk =   0.0219479
        k(   18) = (   0.0000000   0.0832746   0.0539276), wk =   0.0219479
        k(   19) = (   0.0000000   0.0832746   0.0808914), wk =   0.0219479
        k(   20) = (   0.0000000   0.0832746   0.1078552), wk =   0.0219479
        k(   21) = (   0.0000000   0.1110327   0.0000000), wk =   0.0109739
        k(   22) = (   0.0000000   0.1110327   0.0269638), wk =   0.0219479
        k(   23) = (   0.0000000   0.1110327   0.0539276), wk =   0.0219479
        k(   24) = (   0.0000000   0.1110327   0.0808914), wk =   0.0219479
        k(   25) = (   0.0000000   0.1110327   0.1078552), wk =   0.0219479
        k(   26) = (   0.0277582   0.0277582   0.0000000), wk =   0.0109739
        k(   27) = (   0.0277582   0.0277582   0.0269638), wk =   0.0219479
        k(   28) = (   0.0277582   0.0277582   0.0539276), wk =   0.0219479
        k(   29) = (   0.0277582   0.0277582   0.0808914), wk =   0.0219479
        k(   30) = (   0.0277582   0.0277582   0.1078552), wk =   0.0219479
        k(   31) = (   0.0277582   0.0555164   0.0000000), wk =   0.0219479
        k(   32) = (   0.0277582   0.0555164   0.0269638), wk =   0.0438957
        k(   33) = (   0.0277582   0.0555164   0.0539276), wk =   0.0438957
        k(   34) = (   0.0277582   0.0555164   0.0808914), wk =   0.0438957
        k(   35) = (   0.0277582   0.0555164   0.1078552), wk =   0.0438957
        k(   36) = (   0.0277582   0.0832746   0.0000000), wk =   0.0219479
        k(   37) = (   0.0277582   0.0832746   0.0269638), wk =   0.0438957
        k(   38) = (   0.0277582   0.0832746   0.0539276), wk =   0.0438957
        k(   39) = (   0.0277582   0.0832746   0.0808914), wk =   0.0438957
        k(   40) = (   0.0277582   0.0832746   0.1078552), wk =   0.0438957
        k(   41) = (   0.0277582   0.1110327   0.0000000), wk =   0.0219479
        k(   42) = (   0.0277582   0.1110327   0.0269638), wk =   0.0438957
        k(   43) = (   0.0277582   0.1110327   0.0539276), wk =   0.0438957
        k(   44) = (   0.0277582   0.1110327   0.0808914), wk =   0.0438957
        k(   45) = (   0.0277582   0.1110327   0.1078552), wk =   0.0438957
        k(   46) = (   0.0555164   0.0555164   0.0000000), wk =   0.0109739
        k(   47) = (   0.0555164   0.0555164   0.0269638), wk =   0.0219479
        k(   48) = (   0.0555164   0.0555164   0.0539276), wk =   0.0219479
        k(   49) = (   0.0555164   0.0555164   0.0808914), wk =   0.0219479
        k(   50) = (   0.0555164   0.0555164   0.1078552), wk =   0.0219479
        k(   51) = (   0.0555164   0.0832746   0.0000000), wk =   0.0219479
        k(   52) = (   0.0555164   0.0832746   0.0269638), wk =   0.0438957
        k(   53) = (   0.0555164   0.0832746   0.0539276), wk =   0.0438957
        k(   54) = (   0.0555164   0.0832746   0.0808914), wk =   0.0438957
        k(   55) = (   0.0555164   0.0832746   0.1078552), wk =   0.0438957
        k(   56) = (   0.0555164   0.1110327   0.0000000), wk =   0.0219479
        k(   57) = (   0.0555164   0.1110327   0.0269638), wk =   0.0438957
        k(   58) = (   0.0555164   0.1110327   0.0539276), wk =   0.0438957
        k(   59) = (   0.0555164   0.1110327   0.0808914), wk =   0.0438957
        k(   60) = (   0.0555164   0.1110327   0.1078552), wk =   0.0438957
        k(   61) = (   0.0832746   0.0832746   0.0000000), wk =   0.0109739
        k(   62) = (   0.0832746   0.0832746   0.0269638), wk =   0.0219479
        k(   63) = (   0.0832746   0.0832746   0.0539276), wk =   0.0219479
        k(   64) = (   0.0832746   0.0832746   0.0808914), wk =   0.0219479
        k(   65) = (   0.0832746   0.0832746   0.1078552), wk =   0.0219479
        k(   66) = (   0.0832746   0.1110327   0.0000000), wk =   0.0219479
        k(   67) = (   0.0832746   0.1110327   0.0269638), wk =   0.0438957
        k(   68) = (   0.0832746   0.1110327   0.0539276), wk =   0.0438957
        k(   69) = (   0.0832746   0.1110327   0.0808914), wk =   0.0438957
        k(   70) = (   0.0832746   0.1110327   0.1078552), wk =   0.0438957
        k(   71) = (   0.1110327   0.1110327   0.0000000), wk =   0.0109739
        k(   72) = (   0.1110327   0.1110327   0.0269638), wk =   0.0219479
        k(   73) = (   0.1110327   0.1110327   0.0539276), wk =   0.0219479
        k(   74) = (   0.1110327   0.1110327   0.0808914), wk =   0.0219479
        k(   75) = (   0.1110327   0.1110327   0.1078552), wk =   0.0219479

     Largest allocated arrays     est. size (Mb)     dimensions
     Largest temporary arrays     est. size (Mb)     dimensions

     Initial potential from superposition of free atoms
     Check: negative starting charge=   -0.556144

     starting charge   56.99775, renormalised to   58.00000

     negative rho (up, down):  5.659E-01 0.000E+00

     *
     * You are using vdW-DF for exchange-correlation in this calculation.
     * Please cite the following three references that made this development
     * possible:
     *
     *   M. Dion, H. Rydberg, E. Schroder, D. C. Langreth, and
     *   B. I. Lundqvist, Phys. Rev. Lett. 92, 246401 (2004).
     *
     *   T. Thonhauser, V. R. Cooper, S. Li, A. Puzder, P. Hyldgaard, and
     *   D. C. Langreth, Phys. Rev. B 76, 125112 (2007).
     *
     *   G. Roman-Perez and J. M. Soler, Phys. Rev. Lett. 103, 096102 (2009).
     *
     *
     * If you are using vdW-DF2, please also cite:
     *
     *   K. Lee, E. D. Murray, L. Kong, B. I. Lundqvist, and
     *   D. C. Langreth, Phys. Rev. B 82, 081101(R) (2010).
     *
     *
     * If you are calculating the stress with vdW-DF, please also cite:
     *
     *   R. Sabatini, E. Kucukbenli, B. Kolb, T. Thonhauser, and
     *   S. de Gironcoli, J. Phys.: Condens. Matter 24, 424209 (2012).
     *

     Carrying out vdW-DF run using the following parameters:

     Nqs =      20    Nr_points =    1024   r_max =   100.000
     q_mesh =
               0.00001000     0.04494208     0.09755937     0.15916263
               0.23128650     0.31572767     0.41458969     0.53033537
               0.66584808     0.82450364     1.01025438     1.22772762
               1.48234092     1.78043706     2.12944203     2.53805004
               3.01644009     3.57652955     4.23227104     5.00000000

     Gradients computed in reciprocal space

     Starting wfc are   50 randomized atomic wfcs

     Self-consistent Calculation

     iteration #  1     ecut=    58.80 Ry     beta=0.10
     Davidson diagonalization with overlap
     ethr =  1.00E-02,  avg # of iterations =  4.5

[...]

     total energy              =    -711.45104000 Ry
     Harris-Foulkes estimate   =    -712.10785088 Ry
     estimated scf accuracy    <       3.95466634 Ry

[...]

     total energy              =    -711.45426064 Ry
     Harris-Foulkes estimate   =    -711.45425773 Ry
     estimated scf accuracy    <       0.00000172 Ry

     iteration # 10     ecut=    58.80 Ry     beta=0.10
     Davidson diagonalization with overlap
     ethr =  2.96E-09,  avg # of iterations =  2.6

     negative rho (up, down):  5.548E-01 0.000E+00

     End of self-consistent calculation

          k = 0.0000 0.0000 0.0000 (  3367 PWs)   bands (ev):

   -47.7451 -47.6357 -32.9035 -32.9035 -32.8474 -32.8089 -32.7303 -32.7303
   -14.3533 -14.3533 -14.2471 -14.0668 -13.6157 -13.6157  11.2395  14.0771
    14.2794  14.6040  14.7090  14.8559  14.8559  17.5557  17.5557  19.0452
    19.0851  20.3740  20.8337  21.2607  22.5291  23.0150  23.0150  23.8437
    23.8437  24.5786  25.0620  25.0620  25.9603  28.0100  30.0152  30.0327
    31.2251  32.0626  32.0626  32.1586  32.1586  33.0726  33.2754  33.9188
    38.3509

[...]

          k = 0.1110 0.1110 0.1079 (  3381 PWs)   bands (ev):

   -47.6913 -47.6880 -32.9229 -32.9177 -32.8302 -32.8292 -32.7201 -32.7148
   -14.4577 -14.4367 -14.1710 -14.1649 -13.5661 -13.5424  14.0527  14.1411
    14.2902  14.3063  16.6828  16.7186  17.1602  17.3139  17.6835  17.7558
    19.4603  19.5799  19.7285  20.1786  20.5606  20.7809  21.1405  21.6250
    23.7840  24.0641  24.8657  24.8849  24.9755  25.1427  28.4576  28.6854
    30.4374  30.4965  33.6092  33.6123  33.7350  33.8548  37.8234  38.1079
    38.2228

     the Fermi energy is    20.7856 ev

!    total energy              =    -711.45427158 Ry
     Harris-Foulkes estimate   =    -711.45426091 Ry
     estimated scf accuracy    <       0.00000068 Ry

     The total energy is the sum of the following terms:

     one-electron contribution =     -82.39244622 Ry
     hartree contribution      =      83.08774782 Ry
     xc contribution           =    -204.72173738 Ry
     ewald contribution        =    -507.42165783 Ry
     smearing contrib. (-TS)   =      -0.00617797 Ry

     convergence has been achieved in  10 iterations

     Forces acting on atoms (Ry/au):

     negative rho (up, down):  5.548E-01 0.000E+00
     atom    1 type  1   force =     0.00000000    0.00000000    0.00000000
     atom    2 type  1   force =     0.00000000    0.00000000    0.00000000
     atom    3 type  2   force =     0.00000000    0.00000000    0.00000000
     atom    4 type  2   force =     0.00000000    0.00000000    0.00000000

     Total force =     0.000000     Total SCF correction =     0.000000

     General routines

     Parallel routines

   This run was terminated on:  15:44:43  14Nov2017

   JOB DONE.