     Program PWSCF v.5.1rc2 starts on 15Nov2017 at  1:52:33

     Current dimensions of program PWSCF are:
     Max number of different atomic species (ntypx) = 10
     Max number of k-points (npk) =  40000
     Max angular momentum in pseudopotentials (lmaxx) =  3

     IMPORTANT: XC functional enforced from input :
     Exchange-correlation      = BEEF-VDW ( 1  4 27 13 2)
     Any further DFT definition will be discarded
     Please, verify this is what you really want

     Found symmetry operation: I + (  0.5000  0.5000  0.0000)
     This is a supercell, fractional translations are disabled

     bravais-lattice index     =            0
     lattice parameter (alat)  =       1.8897  a.u.
     unit-cell volume          =     401.4550 (a.u.)^3
     number of atoms/cell      =            4
     number of atomic types    =            2
     number of electrons       =        64.00
     number of Kohn-Sham states=           52
     kinetic-energy cutoff     =      58.7989  Ry
     charge density cutoff     =     587.9892  Ry
     convergence threshold     =      1.0E-06
     mixing beta               =       0.1000
     number of iterations used =           10  plain     mixing
     Exchange-correlation      = BEEF-VDW ( 1  4 27 13 2)

     celldm(1)=   1.889726  celldm(2)=   0.000000  celldm(3)=   0.000000
     celldm(4)=   0.000000  celldm(5)=   0.000000  celldm(6)=   0.000000

     crystal axes: (cart. coord. in units of alat)
               a(1) = (   3.833377   0.000000   0.000000 )
               a(2) = (   0.000000   3.833377   0.000000 )
               a(3) = (   0.000000   0.000000   4.048342 )

     reciprocal axes: (cart. coord. in units 2 pi/alat)
               b(1) = (  0.260867  0.000000  0.000000 )
               b(2) = (  0.000000  0.260867  0.000000 )
               b(3) = (  0.000000  0.000000  0.247015 )

     PseudoPot. # 1 for Pd read from file:
     /home/users/vossj/suncat/psp/gbrv1.5pbe/Pd.UPF
     MD5 check sum: 2d733d2bc2cbfd217af676df1668a4bc
     Pseudo is Ultrasoft + core correction, Zval = 16.0
     Generated by new atomic code, or converted to UPF format
     Using radial grid of  887 points,  6 beta functions with:
                l(1) =   0
                l(2) =   0
                l(3) =   1
                l(4) =   1
                l(5) =   2
                l(6) =   2
     Q(r) pseudized with  8 coefficients,  rinner =    1.130   1.130   1.130
                                                       1.130   1.130

     PseudoPot. # 2 for Os read from file:
     /home/users/vossj/suncat/psp/gbrv1.5pbe/Os.UPF
     MD5 check sum: a3fb40a04f0c37c25c34bbc47164c9a8
     Pseudo is Ultrasoft + core correction, Zval = 16.0
     Generated by new atomic code, or converted to UPF format
     Using radial grid of  983 points,  8 beta functions with:
                l(1) =   0
                l(2) =   0
                l(3) =   1
                l(4) =   1
                l(5) =   2
                l(6) =   2
                l(7) =   3
                l(8) =   3
     Q(r) pseudized with  8 coefficients,  rinner =    1.150   1.150   1.150
                                                       1.150   1.150   1.150
                                                       1.150

     vdW kernel table read from file vdW_kernel_table
     MD5 check sum: 095c7af220d748ca6e76c0b4c6cfb241

     atomic species   valence    mass     pseudopotential
        Pd1           16.00   106.42000     Pd( 1.00)
        Os1           16.00   190.20000     Os( 1.00)

     16 Sym. Ops., with inversion, found

   Cartesian axes

     site n.     atom                  positions (alat units)
         1           Pd1 tau(   1) = (   0.0000000   0.0000000   0.0000000  )
         2           Pd1 tau(   2) = (   1.9166885   1.9166885   0.0000000  )
         3           Os1 tau(   3) = (   1.9166885   0.0000000   2.0241710  )
         4           Os1 tau(   4) = (   0.0000000   1.9166885   2.0241710  )

     number of k points=    75  Fermi-Dirac smearing, width (Ry)=  0.0073
                       cart. coord. in units 2pi/alat
        k(    1) = (   0.0000000   0.0000000   0.0000000), wk =   0.0027435
        k(    2) = (   0.0000000   0.0000000   0.0274461), wk =   0.0054870
        k(    3) = (   0.0000000   0.0000000   0.0548922), wk =   0.0054870
        k(    4) = (   0.0000000   0.0000000   0.0823382), wk =   0.0054870
        k(    5) = (   0.0000000   0.0000000   0.1097843), wk =   0.0054870
        k(    6) = (   0.0000000   0.0289852   0.0000000), wk =   0.0109739
        k(    7) = (   0.0000000   0.0289852   0.0274461), wk =   0.0219479
        k(    8) = (   0.0000000   0.0289852   0.0548922), wk =   0.0219479
        k(    9) = (   0.0000000   0.0289852   0.0823382), wk =   0.0219479
        k(   10) = (   0.0000000   0.0289852   0.1097843), wk =   0.0219479
        k(   11) = (   0.0000000   0.0579704   0.0000000), wk =   0.0109739
        k(   12) = (   0.0000000   0.0579704   0.0274461), wk =   0.0219479
        k(   13) = (   0.0000000   0.0579704   0.0548922), wk =   0.0219479
        k(   14) = (   0.0000000   0.0579704   0.0823382), wk =   0.0219479
        k(   15) = (   0.0000000   0.0579704   0.1097843), wk =   0.0219479
        k(   16) = (   0.0000000   0.0869555   0.0000000), wk =   0.0109739
        k(   17) = (   0.0000000   0.0869555   0.0274461), wk =   0.0219479
        k(   18) = (   0.0000000   0.0869555   0.0548922), wk =   0.0219479
        k(   19) = (   0.0000000   0.0869555   0.0823382), wk =   0.0219479
        k(   20) = (   0.0000000   0.0869555   0.1097843), wk =   0.0219479
        k(   21) = (   0.0000000   0.1159407   0.0000000), wk =   0.0109739
        k(   22) = (   0.0000000   0.1159407   0.0274461), wk =   0.0219479
        k(   23) = (   0.0000000   0.1159407   0.0548922), wk =   0.0219479
        k(   24) = (   0.0000000   0.1159407   0.0823382), wk =   0.0219479
        k(   25) = (   0.0000000   0.1159407   0.1097843), wk =   0.0219479
        k(   26) = (   0.0289852   0.0289852   0.0000000), wk =   0.0109739
        k(   27) = (   0.0289852   0.0289852   0.0274461), wk =   0.0219479
        k(   28) = (   0.0289852   0.0289852   0.0548922), wk =   0.0219479
        k(   29) = (   0.0289852   0.0289852   0.0823382), wk =   0.0219479
        k(   30) = (   0.0289852   0.0289852   0.1097843), wk =   0.0219479
        k(   31) = (   0.0289852   0.0579704   0.0000000), wk =   0.0219479
        k(   32) = (   0.0289852   0.0579704   0.0274461), wk =   0.0438957
        k(   33) = (   0.0289852   0.0579704   0.0548922), wk =   0.0438957
        k(   34) = (   0.0289852   0.0579704   0.0823382), wk =   0.0438957
        k(   35) = (   0.0289852   0.0579704   0.1097843), wk =   0.0438957
        k(   36) = (   0.0289852   0.0869555   0.0000000), wk =   0.0219479
        k(   37) = (   0.0289852   0.0869555   0.0274461), wk =   0.0438957
        k(   38) = (   0.0289852   0.0869555   0.0548922), wk =   0.0438957
        k(   39) = (   0.0289852   0.0869555   0.0823382), wk =   0.0438957
        k(   40) = (   0.0289852   0.0869555   0.1097843), wk =   0.0438957
        k(   41) = (   0.0289852   0.1159407   0.0000000), wk =   0.0219479
        k(   42) = (   0.0289852   0.1159407   0.0274461), wk =   0.0438957
        k(   43) = (   0.0289852   0.1159407   0.0548922), wk =   0.0438957
        k(   44) = (   0.0289852   0.1159407   0.0823382), wk =   0.0438957
        k(   45) = (   0.0289852   0.1159407   0.1097843), wk =   0.0438957
        k(   46) = (   0.0579704   0.0579704   0.0000000), wk =   0.0109739
        k(   47) = (   0.0579704   0.0579704   0.0274461), wk =   0.0219479
        k(   48) = (   0.0579704   0.0579704   0.0548922), wk =   0.0219479
        k(   49) = (   0.0579704   0.0579704   0.0823382), wk =   0.0219479
        k(   50) = (   0.0579704   0.0579704   0.1097843), wk =   0.0219479
        k(   51) = (   0.0579704   0.0869555   0.0000000), wk =   0.0219479
        k(   52) = (   0.0579704   0.0869555   0.0274461), wk =   0.0438957
        k(   53) = (   0.0579704   0.0869555   0.0548922), wk =   0.0438957
        k(   54) = (   0.0579704   0.0869555   0.0823382), wk =   0.0438957
        k(   55) = (   0.0579704   0.0869555   0.1097843), wk =   0.0438957
        k(   56) = (   0.0579704   0.1159407   0.0000000), wk =   0.0219479
        k(   57) = (   0.0579704   0.1159407   0.0274461), wk =   0.0438957
        k(   58) = (   0.0579704   0.1159407   0.0548922), wk =   0.0438957
        k(   59) = (   0.0579704   0.1159407   0.0823382), wk =   0.0438957
        k(   60) = (   0.0579704   0.1159407   0.1097843), wk =   0.0438957
        k(   61) = (   0.0869555   0.0869555   0.0000000), wk =   0.0109739
        k(   62) = (   0.0869555   0.0869555   0.0274461), wk =   0.0219479
        k(   63) = (   0.0869555   0.0869555   0.0548922), wk =   0.0219479
        k(   64) = (   0.0869555   0.0869555   0.0823382), wk =   0.0219479
        k(   65) = (   0.0869555   0.0869555   0.1097843), wk =   0.0219479
        k(   66) = (   0.0869555   0.1159407   0.0000000), wk =   0.0219479
        k(   67) = (   0.0869555   0.1159407   0.0274461), wk =   0.0438957
        k(   68) = (   0.0869555   0.1159407   0.0548922), wk =   0.0438957
        k(   69) = (   0.0869555   0.1159407   0.0823382), wk =   0.0438957
        k(   70) = (   0.0869555   0.1159407   0.1097843), wk =   0.0438957
        k(   71) = (   0.1159407   0.1159407   0.0000000), wk =   0.0109739
        k(   72) = (   0.1159407   0.1159407   0.0274461), wk =   0.0219479
        k(   73) = (   0.1159407   0.1159407   0.0548922), wk =   0.0219479
        k(   74) = (   0.1159407   0.1159407   0.0823382), wk =   0.0219479
        k(   75) = (   0.1159407   0.1159407   0.1097843), wk =   0.0219479

     Largest allocated arrays     est. size (Mb)     dimensions
     Largest temporary arrays     est. size (Mb)     dimensions

     Initial potential from superposition of free atoms
     Check: negative starting charge=   -0.403734

     starting charge   61.99991, renormalised to   64.00000

     negative rho (up, down):  4.168E-01 0.000E+00

     *
     * You are using vdW-DF for exchange-correlation in this calculation.
     * Please cite the following three references that made this development
     * possible:
     *
     *   M. Dion, H. Rydberg, E. Schroder, D. C. Langreth, and
     *   B. I. Lundqvist, Phys. Rev. Lett. 92, 246401 (2004).
     *
     *   T. Thonhauser, V. R. Cooper, S. Li, A. Puzder, P. Hyldgaard, and
     *   D. C. Langreth, Phys. Rev. B 76, 125112 (2007).
     *
     *   G. Roman-Perez and J. M. Soler, Phys. Rev. Lett. 103, 096102 (2009).
     *
     *
     * If you are using vdW-DF2, please also cite:
     *
     *   K. Lee, E. D. Murray, L. Kong, B. I. Lundqvist, and
     *   D. C. Langreth, Phys. Rev. B 82, 081101(R) (2010).
     *
     *
     * If you are calculating the stress with vdW-DF, please also cite:
     *
     *   R. Sabatini, E. Kucukbenli, B. Kolb, T. Thonhauser, and
     *   S. de Gironcoli, J. Phys.: Condens. Matter 24, 424209 (2012).
     *

     Carrying out vdW-DF run using the following parameters:

     Nqs =      20    Nr_points =    1024   r_max =   100.000
     q_mesh =
               0.00001000     0.04494208     0.09755937     0.15916263
               0.23128650     0.31572767     0.41458969     0.53033537
               0.66584808     0.82450364     1.01025438     1.22772762
               1.48234092     1.78043706     2.12944203     2.53805004
               3.01644009     3.57652955     4.23227104     5.00000000

     Gradients computed in reciprocal space

     Starting wfc are   50 randomized atomic wfcs +    2 random wfc

     Self-consistent Calculation

     iteration #  1     ecut=    58.80 Ry     beta=0.10
     Davidson diagonalization with overlap
     ethr =  1.00E-02,  avg # of iterations =  4.2

[...]

     total energy              =    -798.52042047 Ry
     Harris-Foulkes estimate   =    -800.76688304 Ry
     estimated scf accuracy    <      12.75195728 Ry

[...]

     total energy              =    -799.16008552 Ry
     Harris-Foulkes estimate   =    -799.16008663 Ry
     estimated scf accuracy    <       0.00000689 Ry

     iteration # 10     ecut=    58.80 Ry     beta=0.10
     Davidson diagonalization with overlap
     ethr =  1.08E-08,  avg # of iterations =  2.0

     negative rho (up, down):  4.097E-01 0.000E+00

     End of self-consistent calculation

          k = 0.0000 0.0000 0.0000 (  3075 PWs)   bands (ev):

   -65.2418 -65.1796 -29.4542 -29.4150 -29.4150 -29.3938 -29.1911 -29.1911
   -24.7077 -24.7077 -24.4833 -24.3900 -24.2341 -24.2341  12.4929  14.9738
    15.1443  15.1980  15.5204  15.5204  15.5804  17.9764  18.3322  18.3322
    19.9354  20.0129  21.0381  21.1771  22.1747  22.1747  22.7074  22.7978
    22.7978  23.0699  23.2910  24.4213  24.4213  24.7709  31.4925  32.1195
    32.4094  33.7514  33.7514  33.7761  34.1026  34.4498  34.4498  36.8442
    40.9859  41.7672  42.8970  42.9065

[...]

          k = 0.1159 0.1159 0.1098 (  3059 PWs)   bands (ev):

   -65.2114 -65.2095 -29.4444 -29.4378 -29.4276 -29.4261 -29.1764 -29.1696
   -24.7620 -24.7481 -24.4397 -24.4364 -24.2062 -24.1913  14.8705  14.9336
    15.3965  15.4195  17.6042  17.6621  18.2071  18.2215  18.3519  18.3538
    18.3846  18.4696  20.5475  20.6180  21.1022  21.1478  21.3436  21.7806
    21.8933  22.6040  22.7143  22.7873  23.2463  23.4778  28.5678  28.8156
    29.8482  30.1706  36.1601  36.1875  36.4897  36.6183  39.9992  40.2709
    41.1747  41.5788  42.0599  42.5760

     the Fermi energy is    21.4984 ev

!    total energy              =    -799.16009661 Ry
     Harris-Foulkes estimate   =    -799.16008656 Ry
     estimated scf accuracy    <       0.00000026 Ry

     The total energy is the sum of the following terms:

     one-electron contribution =    -139.93071013 Ry
     hartree contribution      =     119.71295837 Ry
     xc contribution           =    -142.54524411 Ry
     ewald contribution        =    -636.38557463 Ry
     smearing contrib. (-TS)   =      -0.01152611 Ry

     convergence has been achieved in  10 iterations

     Forces acting on atoms (Ry/au):

     negative rho (up, down):  4.097E-01 0.000E+00
     atom    1 type  1   force =     0.00000000    0.00000000    0.00000000
     atom    2 type  1   force =     0.00000000    0.00000000    0.00000000
     atom    3 type  2   force =     0.00000000    0.00000000    0.00000000
     atom    4 type  2   force =     0.00000000    0.00000000    0.00000000

     Total force =     0.000000     Total SCF correction =     0.000000

     General routines

     Parallel routines

   This run was terminated on:   1:53: 9  15Nov2017

   JOB DONE.