     Program PWSCF v.5.1rc2 starts on 14Nov2017 at  1: 8:39

     Current dimensions of program PWSCF are:
     Max number of different atomic species (ntypx) = 10
     Max number of k-points (npk) =  40000
     Max angular momentum in pseudopotentials (lmaxx) =  3

     IMPORTANT: XC functional enforced from input :
     Exchange-correlation      = BEEF-VDW ( 1  4 27 13 2)
     Any further DFT definition will be discarded
     Please, verify this is what you really want

     Found symmetry operation: I + ( -0.5000 -0.5000  0.0000)
     This is a supercell, fractional translations are disabled

     bravais-lattice index     =            0
     lattice parameter (alat)  =       1.8897  a.u.
     unit-cell volume          =     371.0525 (a.u.)^3
     number of atoms/cell      =            4
     number of atomic types    =            2
     number of electrons       =        38.00
     number of Kohn-Sham states=           39
     kinetic-energy cutoff     =      58.7989  Ry
     charge density cutoff     =     587.9892  Ry
     convergence threshold     =      1.0E-06
     mixing beta               =       0.1000
     number of iterations used =           10  plain     mixing
     Exchange-correlation      = BEEF-VDW ( 1  4 27 13 2)

     celldm(1)=   1.889726  celldm(2)=   0.000000  celldm(3)=   0.000000
     celldm(4)=   0.000000  celldm(5)=   0.000000  celldm(6)=   0.000000

     crystal axes: (cart. coord. in units of alat)
               a(1) = (   4.264764   0.000000   0.000000 )
               a(2) = (   0.000000   4.264764   0.000000 )
               a(3) = (   0.000000   0.000000   3.023074 )

     reciprocal axes: (cart. coord. in units 2 pi/alat)
               b(1) = (  0.234480  0.000000  0.000000 )
               b(2) = (  0.000000  0.234480  0.000000 )
               b(3) = (  0.000000  0.000000  0.330789 )

     PseudoPot. # 1 for Al read from file:
     /home/users/vossj/suncat/psp/gbrv1.5pbe/Al.UPF
     MD5 check sum: 0a6289f5291fc8f409219462bc851e1f
     Pseudo is Ultrasoft + core correction, Zval =  3.0
     Generated by new atomic code, or converted to UPF format
     Using radial grid of  893 points,  3 beta functions with:
                l(1) =   0
                l(2) =   1
                l(3) =   2
     Q(r) pseudized with  8 coefficients,  rinner =    0.900   0.900   0.900
                                                       0.900   0.900

     PseudoPot. # 2 for Os read from file:
     /home/users/vossj/suncat/psp/gbrv1.5pbe/Os.UPF
     MD5 check sum: a3fb40a04f0c37c25c34bbc47164c9a8
     Pseudo is Ultrasoft + core correction, Zval = 16.0
     Generated by new atomic code, or converted to UPF format
     Using radial grid of  983 points,  8 beta functions with:
                l(1) =   0
                l(2) =   0
                l(3) =   1
                l(4) =   1
                l(5) =   2
                l(6) =   2
                l(7) =   3
                l(8) =   3
     Q(r) pseudized with  8 coefficients,  rinner =    1.150   1.150   1.150
                                                       1.150   1.150   1.150
                                                       1.150

     vdW kernel table read from file vdW_kernel_table
     MD5 check sum: 095c7af220d748ca6e76c0b4c6cfb241

     atomic species   valence    mass     pseudopotential
        Al1            3.00    26.98154     Al( 1.00)
        Os1           16.00   190.20000     Os( 1.00)

     16 Sym. Ops., with inversion, found

   Cartesian axes

     site n.     atom                  positions (alat units)
         1           Al1 tau(   1) = (   0.0000000   0.0000000   0.0000000  )
         2           Al1 tau(   2) = (   2.1323819   2.1323819   0.0000000  )
         3           Os1 tau(   3) = (   2.1323819   0.0000000   1.5115368  )
         4           Os1 tau(   4) = (   0.0000000   2.1323819   1.5115368  )

     number of k points=    75  Fermi-Dirac smearing, width (Ry)=  0.0073
                       cart. coord. in units 2pi/alat
        k(    1) = (   0.0000000   0.0000000   0.0000000), wk =   0.0027435
        k(    2) = (   0.0000000   0.0000000   0.0367544), wk =   0.0054870
        k(    3) = (   0.0000000   0.0000000   0.0735087), wk =   0.0054870
        k(    4) = (   0.0000000   0.0000000   0.1102631), wk =   0.0054870
        k(    5) = (   0.0000000   0.0000000   0.1470174), wk =   0.0054870
        k(    6) = (   0.0000000   0.0260533   0.0000000), wk =   0.0109739
        k(    7) = (   0.0000000   0.0260533   0.0367544), wk =   0.0219479
        k(    8) = (   0.0000000   0.0260533   0.0735087), wk =   0.0219479
        k(    9) = (   0.0000000   0.0260533   0.1102631), wk =   0.0219479
        k(   10) = (   0.0000000   0.0260533   0.1470174), wk =   0.0219479
        k(   11) = (   0.0000000   0.0521066   0.0000000), wk =   0.0109739
        k(   12) = (   0.0000000   0.0521066   0.0367544), wk =   0.0219479
        k(   13) = (   0.0000000   0.0521066   0.0735087), wk =   0.0219479
        k(   14) = (   0.0000000   0.0521066   0.1102631), wk =   0.0219479
        k(   15) = (   0.0000000   0.0521066   0.1470174), wk =   0.0219479
        k(   16) = (   0.0000000   0.0781599   0.0000000), wk =   0.0109739
        k(   17) = (   0.0000000   0.0781599   0.0367544), wk =   0.0219479
        k(   18) = (   0.0000000   0.0781599   0.0735087), wk =   0.0219479
        k(   19) = (   0.0000000   0.0781599   0.1102631), wk =   0.0219479
        k(   20) = (   0.0000000   0.0781599   0.1470174), wk =   0.0219479
        k(   21) = (   0.0000000   0.1042131   0.0000000), wk =   0.0109739
        k(   22) = (   0.0000000   0.1042131   0.0367544), wk =   0.0219479
        k(   23) = (   0.0000000   0.1042131   0.0735087), wk =   0.0219479
        k(   24) = (   0.0000000   0.1042131   0.1102631), wk =   0.0219479
        k(   25) = (   0.0000000   0.1042131   0.1470174), wk =   0.0219479
        k(   26) = (   0.0260533   0.0260533   0.0000000), wk =   0.0109739
        k(   27) = (   0.0260533   0.0260533   0.0367544), wk =   0.0219479
        k(   28) = (   0.0260533   0.0260533   0.0735087), wk =   0.0219479
        k(   29) = (   0.0260533   0.0260533   0.1102631), wk =   0.0219479
        k(   30) = (   0.0260533   0.0260533   0.1470174), wk =   0.0219479
        k(   31) = (   0.0260533   0.0521066   0.0000000), wk =   0.0219479
        k(   32) = (   0.0260533   0.0521066   0.0367544), wk =   0.0438957
        k(   33) = (   0.0260533   0.0521066   0.0735087), wk =   0.0438957
        k(   34) = (   0.0260533   0.0521066   0.1102631), wk =   0.0438957
        k(   35) = (   0.0260533   0.0521066   0.1470174), wk =   0.0438957
        k(   36) = (   0.0260533   0.0781599   0.0000000), wk =   0.0219479
        k(   37) = (   0.0260533   0.0781599   0.0367544), wk =   0.0438957
        k(   38) = (   0.0260533   0.0781599   0.0735087), wk =   0.0438957
        k(   39) = (   0.0260533   0.0781599   0.1102631), wk =   0.0438957
        k(   40) = (   0.0260533   0.0781599   0.1470174), wk =   0.0438957
        k(   41) = (   0.0260533   0.1042131   0.0000000), wk =   0.0219479
        k(   42) = (   0.0260533   0.1042131   0.0367544), wk =   0.0438957
        k(   43) = (   0.0260533   0.1042131   0.0735087), wk =   0.0438957
        k(   44) = (   0.0260533   0.1042131   0.1102631), wk =   0.0438957
        k(   45) = (   0.0260533   0.1042131   0.1470174), wk =   0.0438957
        k(   46) = (   0.0521066   0.0521066   0.0000000), wk =   0.0109739
        k(   47) = (   0.0521066   0.0521066   0.0367544), wk =   0.0219479
        k(   48) = (   0.0521066   0.0521066   0.0735087), wk =   0.0219479
        k(   49) = (   0.0521066   0.0521066   0.1102631), wk =   0.0219479
        k(   50) = (   0.0521066   0.0521066   0.1470174), wk =   0.0219479
        k(   51) = (   0.0521066   0.0781599   0.0000000), wk =   0.0219479
        k(   52) = (   0.0521066   0.0781599   0.0367544), wk =   0.0438957
        k(   53) = (   0.0521066   0.0781599   0.0735087), wk =   0.0438957
        k(   54) = (   0.0521066   0.0781599   0.1102631), wk =   0.0438957
        k(   55) = (   0.0521066   0.0781599   0.1470174), wk =   0.0438957
        k(   56) = (   0.0521066   0.1042131   0.0000000), wk =   0.0219479
        k(   57) = (   0.0521066   0.1042131   0.0367544), wk =   0.0438957
        k(   58) = (   0.0521066   0.1042131   0.0735087), wk =   0.0438957
        k(   59) = (   0.0521066   0.1042131   0.1102631), wk =   0.0438957
        k(   60) = (   0.0521066   0.1042131   0.1470174), wk =   0.0438957
        k(   61) = (   0.0781599   0.0781599   0.0000000), wk =   0.0109739
        k(   62) = (   0.0781599   0.0781599   0.0367544), wk =   0.0219479
        k(   63) = (   0.0781599   0.0781599   0.0735087), wk =   0.0219479
        k(   64) = (   0.0781599   0.0781599   0.1102631), wk =   0.0219479
        k(   65) = (   0.0781599   0.0781599   0.1470174), wk =   0.0219479
        k(   66) = (   0.0781599   0.1042131   0.0000000), wk =   0.0219479
        k(   67) = (   0.0781599   0.1042131   0.0367544), wk =   0.0438957
        k(   68) = (   0.0781599   0.1042131   0.0735087), wk =   0.0438957
        k(   69) = (   0.0781599   0.1042131   0.1102631), wk =   0.0438957
        k(   70) = (   0.0781599   0.1042131   0.1470174), wk =   0.0438957
        k(   71) = (   0.1042131   0.1042131   0.0000000), wk =   0.0109739
        k(   72) = (   0.1042131   0.1042131   0.0367544), wk =   0.0219479
        k(   73) = (   0.1042131   0.1042131   0.0735087), wk =   0.0219479
        k(   74) = (   0.1042131   0.1042131   0.1102631), wk =   0.0219479
        k(   75) = (   0.1042131   0.1042131   0.1470174), wk =   0.0219479

     Largest allocated arrays     est. size (Mb)     dimensions
     Largest temporary arrays     est. size (Mb)     dimensions

     Initial potential from superposition of free atoms
     Check: negative starting charge=   -0.246816

     starting charge   36.99500, renormalised to   38.00000

     negative rho (up, down):  2.535E-01 0.000E+00

     *
     * You are using vdW-DF for exchange-correlation in this calculation.
     * Please cite the following three references that made this development
     * possible:
     *
     *   M. Dion, H. Rydberg, E. Schroder, D. C. Langreth, and
     *   B. I. Lundqvist, Phys. Rev. Lett. 92, 246401 (2004).
     *
     *   T. Thonhauser, V. R. Cooper, S. Li, A. Puzder, P. Hyldgaard, and
     *   D. C. Langreth, Phys. Rev. B 76, 125112 (2007).
     *
     *   G. Roman-Perez and J. M. Soler, Phys. Rev. Lett. 103, 096102 (2009).
     *
     *
     * If you are using vdW-DF2, please also cite:
     *
     *   K. Lee, E. D. Murray, L. Kong, B. I. Lundqvist, and
     *   D. C. Langreth, Phys. Rev. B 82, 081101(R) (2010).
     *
     *
     * If you are calculating the stress with vdW-DF, please also cite:
     *
     *   R. Sabatini, E. Kucukbenli, B. Kolb, T. Thonhauser, and
     *   S. de Gironcoli, J. Phys.: Condens. Matter 24, 424209 (2012).
     *

     Carrying out vdW-DF run using the following parameters:

     Nqs =      20    Nr_points =    1024   r_max =   100.000
     q_mesh =
               0.00001000     0.04494208     0.09755937     0.15916263
               0.23128650     0.31572767     0.41458969     0.53033537
               0.66584808     0.82450364     1.01025438     1.22772762
               1.48234092     1.78043706     2.12944203     2.53805004
               3.01644009     3.57652955     4.23227104     5.00000000

     Gradients computed in reciprocal space

     Starting wfc are   34 randomized atomic wfcs +    5 random wfc

     Self-consistent Calculation

     iteration #  1     ecut=    58.80 Ry     beta=0.10
     Davidson diagonalization with overlap
     ethr =  1.00E-02,  avg # of iterations =  4.5

     Threshold (ethr) on eigenvalues was too large:
     Diagonalizing with lowered threshold

     Davidson diagonalization with overlap
     ethr =  9.05E-04,  avg # of iterations =  1.1

[...]

     total energy              =    -413.60078921 Ry
     Harris-Foulkes estimate   =    -413.65288676 Ry
     estimated scf accuracy    <       0.34445999 Ry

[...]

     total energy              =    -413.55589732 Ry
     Harris-Foulkes estimate   =    -413.55589587 Ry
     estimated scf accuracy    <       0.00000124 Ry

     iteration #  9     ecut=    58.80 Ry     beta=0.10
     Davidson diagonalization with overlap
     ethr =  3.25E-09,  avg # of iterations =  2.2

     negative rho (up, down):  2.399E-01 0.000E+00

     End of self-consistent calculation

          k = 0.0000 0.0000 0.0000 (  2761 PWs)   bands (ev):

   -68.5918 -68.5772 -28.0106 -28.0106 -27.8386 -27.8386 -27.8363 -27.8030
     6.3217  10.5366  13.0983  13.1049  13.2060  15.2240  15.2240  15.8148
    15.8148  17.4574  17.4574  17.4725  19.2055  21.4912  22.4805  22.5568
    22.5568  23.9907  26.8972  28.4324  28.4512  29.8035  30.6818  30.6818
    31.6695  35.8526  35.9061  35.9061  35.9208  35.9208  37.6862

[...]

          k = 0.1042 0.1042 0.1470 (  2818 PWs)   bands (ev):

   -68.5780 -68.5775 -28.0112 -28.0063 -27.9986 -27.9973 -27.8120 -27.8069
    10.5651  10.5862  12.9049  13.1182  14.7809  14.8550  15.1173  15.2450
    15.8501  15.8847  16.2558  16.2635  19.2483  19.2775  21.5574  21.6012
    23.8757  24.1253  26.8965  27.0995  29.9781  30.2070  30.7294  30.9380
    32.3986  32.6478  34.5684  35.1801  35.9001  36.1532  38.0840

     the Fermi energy is    17.0866 ev

!    total energy              =    -413.55590362 Ry
     Harris-Foulkes estimate   =    -413.55589755 Ry
     estimated scf accuracy    <       0.00000008 Ry

     The total energy is the sum of the following terms:

     one-electron contribution =    -111.81276906 Ry
     hartree contribution      =      75.79953963 Ry
     xc contribution           =     -86.87976186 Ry
     ewald contribution        =    -290.65688316 Ry
     smearing contrib. (-TS)   =      -0.00602918 Ry

     convergence has been achieved in   9 iterations

     Forces acting on atoms (Ry/au):

     negative rho (up, down):  2.399E-01 0.000E+00
     atom    1 type  1   force =     0.00000000    0.00000000    0.00000000
     atom    2 type  1   force =     0.00000000    0.00000000    0.00000000
     atom    3 type  2   force =     0.00000000    0.00000000    0.00000000
     atom    4 type  2   force =     0.00000000    0.00000000    0.00000000

     Total force =     0.000000     Total SCF correction =     0.000000

     General routines

     Parallel routines

   This run was terminated on:   1: 9: 3  14Nov2017

   JOB DONE.