     Program PWSCF v.5.1rc2 starts on 13Nov2017 at 17:38:29

     Current dimensions of program PWSCF are:
     Max number of different atomic species (ntypx) = 10
     Max number of k-points (npk) =  40000
     Max angular momentum in pseudopotentials (lmaxx) =  3

     IMPORTANT: XC functional enforced from input :
     Exchange-correlation      = BEEF-VDW ( 1  4 27 13 2)
     Any further DFT definition will be discarded
     Please, verify this is what you really want

     Found symmetry operation: I + ( -0.5000 -0.5000  0.0000)
     This is a supercell, fractional translations are disabled

     bravais-lattice index     =            0
     lattice parameter (alat)  =       1.8897  a.u.
     unit-cell volume          =     319.2574 (a.u.)^3
     number of atoms/cell      =            4
     number of atomic types    =            2
     number of electrons       =        38.00
     number of Kohn-Sham states=           39
     kinetic-energy cutoff     =      58.7989  Ry
     charge density cutoff     =     587.9892  Ry
     convergence threshold     =      1.0E-06
     mixing beta               =       0.1000
     number of iterations used =           10  plain     mixing
     Exchange-correlation      = BEEF-VDW ( 1  4 27 13 2)

     celldm(1)=   1.889726  celldm(2)=   0.000000  celldm(3)=   0.000000
     celldm(4)=   0.000000  celldm(5)=   0.000000  celldm(6)=   0.000000

     crystal axes: (cart. coord. in units of alat)
               a(1) = (   4.052943   0.000000   0.000000 )
               a(2) = (   0.000000   4.052943   0.000000 )
               a(3) = (   0.000000   0.000000   2.880073 )

     reciprocal axes: (cart. coord. in units 2 pi/alat)
               b(1) = (  0.246734  0.000000  0.000000 )
               b(2) = (  0.000000  0.246734  0.000000 )
               b(3) = (  0.000000  0.000000  0.347213 )

     PseudoPot. # 1 for Al read from file:
     /home/users/vossj/suncat/psp/gbrv1.5pbe/Al.UPF
     MD5 check sum: 0a6289f5291fc8f409219462bc851e1f
     Pseudo is Ultrasoft + core correction, Zval =  3.0
     Generated by new atomic code, or converted to UPF format
     Using radial grid of  893 points,  3 beta functions with:
                l(1) =   0
                l(2) =   1
                l(3) =   2
     Q(r) pseudized with  8 coefficients,  rinner =    0.900   0.900   0.900
                                                       0.900   0.900

     PseudoPot. # 2 for Fe read from file:
     /home/users/vossj/suncat/psp/gbrv1.5pbe/Fe.UPF
     MD5 check sum: a130daea23fe5165f5d574ae7f82ed95
     Pseudo is Ultrasoft + core correction, Zval = 16.0
     Generated by new atomic code, or converted to UPF format
     Using radial grid of  861 points,  6 beta functions with:
                l(1) =   0
                l(2) =   0
                l(3) =   1
                l(4) =   1
                l(5) =   2
                l(6) =   2
     Q(r) pseudized with  8 coefficients,  rinner =    1.000   1.000   1.000
                                                       1.000   1.000

     vdW kernel table read from file vdW_kernel_table
     MD5 check sum: 095c7af220d748ca6e76c0b4c6cfb241

     atomic species   valence    mass     pseudopotential
        Al1            3.00    26.98154     Al( 1.00)
        Fe1           16.00    55.84700     Fe( 1.00)

     16 Sym. Ops., with inversion, found

   Cartesian axes

     site n.     atom                  positions (alat units)
         1           Al1 tau(   1) = (   0.0000000   0.0000000   0.0000000  )
         2           Al1 tau(   2) = (   2.0264714   2.0264714   0.0000000  )
         3           Fe1 tau(   3) = (   2.0264714   0.0000000   1.4400363  )
         4           Fe1 tau(   4) = (   0.0000000   2.0264714   1.4400363  )

     number of k points=    75  Fermi-Dirac smearing, width (Ry)=  0.0073
                       cart. coord. in units 2pi/alat
        k(    1) = (   0.0000000   0.0000000   0.0000000), wk =   0.0027435
        k(    2) = (   0.0000000   0.0000000   0.0385793), wk =   0.0054870
        k(    3) = (   0.0000000   0.0000000   0.0771585), wk =   0.0054870
        k(    4) = (   0.0000000   0.0000000   0.1157378), wk =   0.0054870
        k(    5) = (   0.0000000   0.0000000   0.1543171), wk =   0.0054870
        k(    6) = (   0.0000000   0.0274149   0.0000000), wk =   0.0109739
        k(    7) = (   0.0000000   0.0274149   0.0385793), wk =   0.0219479
        k(    8) = (   0.0000000   0.0274149   0.0771585), wk =   0.0219479
        k(    9) = (   0.0000000   0.0274149   0.1157378), wk =   0.0219479
        k(   10) = (   0.0000000   0.0274149   0.1543171), wk =   0.0219479
        k(   11) = (   0.0000000   0.0548298   0.0000000), wk =   0.0109739
        k(   12) = (   0.0000000   0.0548298   0.0385793), wk =   0.0219479
        k(   13) = (   0.0000000   0.0548298   0.0771585), wk =   0.0219479
        k(   14) = (   0.0000000   0.0548298   0.1157378), wk =   0.0219479
        k(   15) = (   0.0000000   0.0548298   0.1543171), wk =   0.0219479
        k(   16) = (   0.0000000   0.0822448   0.0000000), wk =   0.0109739
        k(   17) = (   0.0000000   0.0822448   0.0385793), wk =   0.0219479
        k(   18) = (   0.0000000   0.0822448   0.0771585), wk =   0.0219479
        k(   19) = (   0.0000000   0.0822448   0.1157378), wk =   0.0219479
        k(   20) = (   0.0000000   0.0822448   0.1543171), wk =   0.0219479
        k(   21) = (   0.0000000   0.1096597   0.0000000), wk =   0.0109739
        k(   22) = (   0.0000000   0.1096597   0.0385793), wk =   0.0219479
        k(   23) = (   0.0000000   0.1096597   0.0771585), wk =   0.0219479
        k(   24) = (   0.0000000   0.1096597   0.1157378), wk =   0.0219479
        k(   25) = (   0.0000000   0.1096597   0.1543171), wk =   0.0219479
        k(   26) = (   0.0274149   0.0274149   0.0000000), wk =   0.0109739
        k(   27) = (   0.0274149   0.0274149   0.0385793), wk =   0.0219479
        k(   28) = (   0.0274149   0.0274149   0.0771585), wk =   0.0219479
        k(   29) = (   0.0274149   0.0274149   0.1157378), wk =   0.0219479
        k(   30) = (   0.0274149   0.0274149   0.1543171), wk =   0.0219479
        k(   31) = (   0.0274149   0.0548298   0.0000000), wk =   0.0219479
        k(   32) = (   0.0274149   0.0548298   0.0385793), wk =   0.0438957
        k(   33) = (   0.0274149   0.0548298   0.0771585), wk =   0.0438957
        k(   34) = (   0.0274149   0.0548298   0.1157378), wk =   0.0438957
        k(   35) = (   0.0274149   0.0548298   0.1543171), wk =   0.0438957
        k(   36) = (   0.0274149   0.0822448   0.0000000), wk =   0.0219479
        k(   37) = (   0.0274149   0.0822448   0.0385793), wk =   0.0438957
        k(   38) = (   0.0274149   0.0822448   0.0771585), wk =   0.0438957
        k(   39) = (   0.0274149   0.0822448   0.1157378), wk =   0.0438957
        k(   40) = (   0.0274149   0.0822448   0.1543171), wk =   0.0438957
        k(   41) = (   0.0274149   0.1096597   0.0000000), wk =   0.0219479
        k(   42) = (   0.0274149   0.1096597   0.0385793), wk =   0.0438957
        k(   43) = (   0.0274149   0.1096597   0.0771585), wk =   0.0438957
        k(   44) = (   0.0274149   0.1096597   0.1157378), wk =   0.0438957
        k(   45) = (   0.0274149   0.1096597   0.1543171), wk =   0.0438957
        k(   46) = (   0.0548298   0.0548298   0.0000000), wk =   0.0109739
        k(   47) = (   0.0548298   0.0548298   0.0385793), wk =   0.0219479
        k(   48) = (   0.0548298   0.0548298   0.0771585), wk =   0.0219479
        k(   49) = (   0.0548298   0.0548298   0.1157378), wk =   0.0219479
        k(   50) = (   0.0548298   0.0548298   0.1543171), wk =   0.0219479
        k(   51) = (   0.0548298   0.0822448   0.0000000), wk =   0.0219479
        k(   52) = (   0.0548298   0.0822448   0.0385793), wk =   0.0438957
        k(   53) = (   0.0548298   0.0822448   0.0771585), wk =   0.0438957
        k(   54) = (   0.0548298   0.0822448   0.1157378), wk =   0.0438957
        k(   55) = (   0.0548298   0.0822448   0.1543171), wk =   0.0438957
        k(   56) = (   0.0548298   0.1096597   0.0000000), wk =   0.0219479
        k(   57) = (   0.0548298   0.1096597   0.0385793), wk =   0.0438957
        k(   58) = (   0.0548298   0.1096597   0.0771585), wk =   0.0438957
        k(   59) = (   0.0548298   0.1096597   0.1157378), wk =   0.0438957
        k(   60) = (   0.0548298   0.1096597   0.1543171), wk =   0.0438957
        k(   61) = (   0.0822448   0.0822448   0.0000000), wk =   0.0109739
        k(   62) = (   0.0822448   0.0822448   0.0385793), wk =   0.0219479
        k(   63) = (   0.0822448   0.0822448   0.0771585), wk =   0.0219479
        k(   64) = (   0.0822448   0.0822448   0.1157378), wk =   0.0219479
        k(   65) = (   0.0822448   0.0822448   0.1543171), wk =   0.0219479
        k(   66) = (   0.0822448   0.1096597   0.0000000), wk =   0.0219479
        k(   67) = (   0.0822448   0.1096597   0.0385793), wk =   0.0438957
        k(   68) = (   0.0822448   0.1096597   0.0771585), wk =   0.0438957
        k(   69) = (   0.0822448   0.1096597   0.1157378), wk =   0.0438957
        k(   70) = (   0.0822448   0.1096597   0.1543171), wk =   0.0438957
        k(   71) = (   0.1096597   0.1096597   0.0000000), wk =   0.0109739
        k(   72) = (   0.1096597   0.1096597   0.0385793), wk =   0.0219479
        k(   73) = (   0.1096597   0.1096597   0.0771585), wk =   0.0219479
        k(   74) = (   0.1096597   0.1096597   0.1157378), wk =   0.0219479
        k(   75) = (   0.1096597   0.1096597   0.1543171), wk =   0.0219479

     Largest allocated arrays     est. size (Mb)     dimensions
     Largest temporary arrays     est. size (Mb)     dimensions

     Check: negative/imaginary core charge=   -0.000022    0.000000

     Initial potential from superposition of free atoms

     starting charge   35.99506, renormalised to   38.00000

     *
     * You are using vdW-DF for exchange-correlation in this calculation.
     * Please cite the following three references that made this development
     * possible:
     *
     *   M. Dion, H. Rydberg, E. Schroder, D. C. Langreth, and
     *   B. I. Lundqvist, Phys. Rev. Lett. 92, 246401 (2004).
     *
     *   T. Thonhauser, V. R. Cooper, S. Li, A. Puzder, P. Hyldgaard, and
     *   D. C. Langreth, Phys. Rev. B 76, 125112 (2007).
     *
     *   G. Roman-Perez and J. M. Soler, Phys. Rev. Lett. 103, 096102 (2009).
     *
     *
     * If you are using vdW-DF2, please also cite:
     *
     *   K. Lee, E. D. Murray, L. Kong, B. I. Lundqvist, and
     *   D. C. Langreth, Phys. Rev. B 82, 081101(R) (2010).
     *
     *
     * If you are calculating the stress with vdW-DF, please also cite:
     *
     *   R. Sabatini, E. Kucukbenli, B. Kolb, T. Thonhauser, and
     *   S. de Gironcoli, J. Phys.: Condens. Matter 24, 424209 (2012).
     *

     Carrying out vdW-DF run using the following parameters:

     Nqs =      20    Nr_points =    1024   r_max =   100.000
     q_mesh =
               0.00001000     0.04494208     0.09755937     0.15916263
               0.23128650     0.31572767     0.41458969     0.53033537
               0.66584808     0.82450364     1.01025438     1.22772762
               1.48234092     1.78043706     2.12944203     2.53805004
               3.01644009     3.57652955     4.23227104     5.00000000

     Gradients computed in reciprocal space

     Starting wfc are   34 randomized atomic wfcs +    5 random wfc

     Self-consistent Calculation

     iteration #  1     ecut=    58.80 Ry     beta=0.10
     Davidson diagonalization with overlap
     ethr =  1.00E-02,  avg # of iterations =  4.6

     total energy              =    -516.40272523 Ry
     Harris-Foulkes estimate   =    -517.44242672 Ry
     estimated scf accuracy    <       5.94215214 Ry

[...]

     total energy              =    -516.59999726 Ry
     Harris-Foulkes estimate   =    -516.59999485 Ry
     estimated scf accuracy    <       0.00000567 Ry

     iteration #  9     ecut=    58.80 Ry     beta=0.10
     Davidson diagonalization with overlap
     ethr =  1.44E-08,  avg # of iterations =  1.0

     End of self-consistent calculation

          k = 0.0000 0.0000 0.0000 (  2449 PWs)   bands (ev):

   -72.7626 -72.7529 -38.8620 -38.8620 -38.8058 -38.8058 -38.8028 -38.7922
     3.2226   8.8507  11.3473  11.3675  11.3704  11.5385  11.5385  12.9268
    12.9268  13.6835  13.6835  13.6971  14.4187  17.1974  17.9578  19.9062
    20.0823  20.0823  23.0120  23.0424  26.1968  29.1531  29.5815  29.5815
    29.8863  29.8863  30.0333  33.1053  35.4350  35.4350  35.5442

[...]

          k = 0.1097 0.1097 0.1543 (  2437 PWs)   bands (ev):

   -72.7535 -72.7532 -38.8624 -38.8607 -38.8543 -38.8539 -38.7974 -38.7958
     8.6649   8.7962  10.7003  10.8523  11.4794  11.4954  11.8357  12.0463
    12.9588  12.9767  13.0665  13.0848  14.4574  14.4943  17.3023  17.3656
    18.0213  18.1828  25.7205  26.2212  28.0441  28.2971  28.5480  29.4985
    29.8358  30.0440  30.3206  31.2501  31.2941  32.0596  33.2165

     the Fermi energy is    13.5573 ev

!    total energy              =    -516.60000974 Ry
     Harris-Foulkes estimate   =    -516.59999755 Ry
     estimated scf accuracy    <       0.00000068 Ry

     The total energy is the sum of the following terms:

     one-electron contribution =    -322.17988878 Ry
     hartree contribution      =     181.01032481 Ry
     xc contribution           =     -69.82413879 Ry
     ewald contribution        =    -305.59325226 Ry
     smearing contrib. (-TS)   =      -0.01305472 Ry

     convergence has been achieved in   9 iterations

     Forces acting on atoms (Ry/au):

     atom    1 type  1   force =     0.00000000    0.00000000    0.00000000
     atom    2 type  1   force =     0.00000000    0.00000000    0.00000000
     atom    3 type  2   force =     0.00000000    0.00000000    0.00000000
     atom    4 type  2   force =     0.00000000    0.00000000    0.00000000

     Total force =     0.000000     Total SCF correction =     0.000000

     General routines

     Parallel routines

   This run was terminated on:  17:38:47  13Nov2017

   JOB DONE.