     Program PWSCF v.5.1rc2 starts on 15Nov2017 at  7:16:35

     Current dimensions of program PWSCF are:
     Max number of different atomic species (ntypx) = 10
     Max number of k-points (npk) =  40000
     Max angular momentum in pseudopotentials (lmaxx) =  3

     IMPORTANT: XC functional enforced from input :
     Exchange-correlation      = BEEF-VDW ( 1  4 27 13 2)
     Any further DFT definition will be discarded
     Please, verify this is what you really want

     Found symmetry operation: I + ( -0.5000 -0.5000  0.0000)
     This is a supercell, fractional translations are disabled

     bravais-lattice index     =            0
     lattice parameter (alat)  =       1.8897  a.u.
     unit-cell volume          =     540.2431 (a.u.)^3
     number of atoms/cell      =            4
     number of atomic types    =            2
     number of electrons       =        46.00
     number of Kohn-Sham states=           43
     kinetic-energy cutoff     =      58.7989  Ry
     charge density cutoff     =     587.9892  Ry
     convergence threshold     =      1.0E-06
     mixing beta               =       0.1000
     number of iterations used =           10  plain     mixing
     Exchange-correlation      = BEEF-VDW ( 1  4 27 13 2)

     celldm(1)=   1.889726  celldm(2)=   0.000000  celldm(3)=   0.000000
     celldm(4)=   0.000000  celldm(5)=   0.000000  celldm(6)=   0.000000

     crystal axes: (cart. coord. in units of alat)
               a(1) = (   4.410386   0.000000   0.000000 )
               a(2) = (   0.000000   4.410386   0.000000 )
               a(3) = (   0.000000   0.000000   4.115658 )

     reciprocal axes: (cart. coord. in units 2 pi/alat)
               b(1) = (  0.226737  0.000000  0.000000 )
               b(2) = (  0.000000  0.226737  0.000000 )
               b(3) = (  0.000000  0.000000  0.242974 )

     PseudoPot. # 1 for Zr read from file:
     /home/users/vossj/suncat/psp/gbrv1.5pbe/Zr.UPF
     MD5 check sum: 5db81b1e868ab7776c4564c113de050b
     Pseudo is Ultrasoft + core correction, Zval = 12.0
     Generated by new atomic code, or converted to UPF format
     Using radial grid of  887 points,  6 beta functions with:
                l(1) =   0
                l(2) =   0
                l(3) =   1
                l(4) =   1
                l(5) =   2
                l(6) =   2
     Q(r) pseudized with  6 coefficients,  rinner =    1.200   1.200   1.200
                                                       1.200   1.200

     PseudoPot. # 2 for Au read from file:
     /home/users/vossj/suncat/psp/gbrv1.5pbe/Au.UPF
     MD5 check sum: 9d7f43293ad2c663164586bc4b293ffc
     Pseudo is Ultrasoft + core correction, Zval = 11.0
     Generated by new atomic code, or converted to UPF format
     Using radial grid of  985 points,  7 beta functions with:
                l(1) =   0
                l(2) =   0
                l(3) =   1
                l(4) =   1
                l(5) =   2
                l(6) =   2
                l(7) =   3
     Q(r) pseudized with  6 coefficients,  rinner =    1.900   1.900   1.900
                                                       1.900   1.900   1.900
                                                       1.900

     vdW kernel table read from file vdW_kernel_table
     MD5 check sum: 095c7af220d748ca6e76c0b4c6cfb241

     atomic species   valence    mass     pseudopotential
        Zr1           12.00    91.22400     Zr( 1.00)
        Au1           11.00   196.96650     Au( 1.00)

     16 Sym. Ops., with inversion, found

   Cartesian axes

     site n.     atom                  positions (alat units)
         1           Zr1 tau(   1) = (   0.0000000   0.0000000   0.0000000  )
         2           Zr1 tau(   2) = (   2.2051932   2.2051932   0.0000000  )
         3           Au1 tau(   3) = (   2.2051932   0.0000000   2.0578292  )
         4           Au1 tau(   4) = (   0.0000000   2.2051932   2.0578292  )

     number of k points=    75  Fermi-Dirac smearing, width (Ry)=  0.0073
                       cart. coord. in units 2pi/alat
        k(    1) = (   0.0000000   0.0000000   0.0000000), wk =   0.0027435
        k(    2) = (   0.0000000   0.0000000   0.0269972), wk =   0.0054870
        k(    3) = (   0.0000000   0.0000000   0.0539943), wk =   0.0054870
        k(    4) = (   0.0000000   0.0000000   0.0809915), wk =   0.0054870
        k(    5) = (   0.0000000   0.0000000   0.1079887), wk =   0.0054870
        k(    6) = (   0.0000000   0.0251931   0.0000000), wk =   0.0109739
        k(    7) = (   0.0000000   0.0251931   0.0269972), wk =   0.0219479
        k(    8) = (   0.0000000   0.0251931   0.0539943), wk =   0.0219479
        k(    9) = (   0.0000000   0.0251931   0.0809915), wk =   0.0219479
        k(   10) = (   0.0000000   0.0251931   0.1079887), wk =   0.0219479
        k(   11) = (   0.0000000   0.0503861   0.0000000), wk =   0.0109739
        k(   12) = (   0.0000000   0.0503861   0.0269972), wk =   0.0219479
        k(   13) = (   0.0000000   0.0503861   0.0539943), wk =   0.0219479
        k(   14) = (   0.0000000   0.0503861   0.0809915), wk =   0.0219479
        k(   15) = (   0.0000000   0.0503861   0.1079887), wk =   0.0219479
        k(   16) = (   0.0000000   0.0755792   0.0000000), wk =   0.0109739
        k(   17) = (   0.0000000   0.0755792   0.0269972), wk =   0.0219479
        k(   18) = (   0.0000000   0.0755792   0.0539943), wk =   0.0219479
        k(   19) = (   0.0000000   0.0755792   0.0809915), wk =   0.0219479
        k(   20) = (   0.0000000   0.0755792   0.1079887), wk =   0.0219479
        k(   21) = (   0.0000000   0.1007722   0.0000000), wk =   0.0109739
        k(   22) = (   0.0000000   0.1007722   0.0269972), wk =   0.0219479
        k(   23) = (   0.0000000   0.1007722   0.0539943), wk =   0.0219479
        k(   24) = (   0.0000000   0.1007722   0.0809915), wk =   0.0219479
        k(   25) = (   0.0000000   0.1007722   0.1079887), wk =   0.0219479
        k(   26) = (   0.0251931   0.0251931   0.0000000), wk =   0.0109739
        k(   27) = (   0.0251931   0.0251931   0.0269972), wk =   0.0219479
        k(   28) = (   0.0251931   0.0251931   0.0539943), wk =   0.0219479
        k(   29) = (   0.0251931   0.0251931   0.0809915), wk =   0.0219479
        k(   30) = (   0.0251931   0.0251931   0.1079887), wk =   0.0219479
        k(   31) = (   0.0251931   0.0503861   0.0000000), wk =   0.0219479
        k(   32) = (   0.0251931   0.0503861   0.0269972), wk =   0.0438957
        k(   33) = (   0.0251931   0.0503861   0.0539943), wk =   0.0438957
        k(   34) = (   0.0251931   0.0503861   0.0809915), wk =   0.0438957
        k(   35) = (   0.0251931   0.0503861   0.1079887), wk =   0.0438957
        k(   36) = (   0.0251931   0.0755792   0.0000000), wk =   0.0219479
        k(   37) = (   0.0251931   0.0755792   0.0269972), wk =   0.0438957
        k(   38) = (   0.0251931   0.0755792   0.0539943), wk =   0.0438957
        k(   39) = (   0.0251931   0.0755792   0.0809915), wk =   0.0438957
        k(   40) = (   0.0251931   0.0755792   0.1079887), wk =   0.0438957
        k(   41) = (   0.0251931   0.1007722   0.0000000), wk =   0.0219479
        k(   42) = (   0.0251931   0.1007722   0.0269972), wk =   0.0438957
        k(   43) = (   0.0251931   0.1007722   0.0539943), wk =   0.0438957
        k(   44) = (   0.0251931   0.1007722   0.0809915), wk =   0.0438957
        k(   45) = (   0.0251931   0.1007722   0.1079887), wk =   0.0438957
        k(   46) = (   0.0503861   0.0503861   0.0000000), wk =   0.0109739
        k(   47) = (   0.0503861   0.0503861   0.0269972), wk =   0.0219479
        k(   48) = (   0.0503861   0.0503861   0.0539943), wk =   0.0219479
        k(   49) = (   0.0503861   0.0503861   0.0809915), wk =   0.0219479
        k(   50) = (   0.0503861   0.0503861   0.1079887), wk =   0.0219479
        k(   51) = (   0.0503861   0.0755792   0.0000000), wk =   0.0219479
        k(   52) = (   0.0503861   0.0755792   0.0269972), wk =   0.0438957
        k(   53) = (   0.0503861   0.0755792   0.0539943), wk =   0.0438957
        k(   54) = (   0.0503861   0.0755792   0.0809915), wk =   0.0438957
        k(   55) = (   0.0503861   0.0755792   0.1079887), wk =   0.0438957
        k(   56) = (   0.0503861   0.1007722   0.0000000), wk =   0.0219479
        k(   57) = (   0.0503861   0.1007722   0.0269972), wk =   0.0438957
        k(   58) = (   0.0503861   0.1007722   0.0539943), wk =   0.0438957
        k(   59) = (   0.0503861   0.1007722   0.0809915), wk =   0.0438957
        k(   60) = (   0.0503861   0.1007722   0.1079887), wk =   0.0438957
        k(   61) = (   0.0755792   0.0755792   0.0000000), wk =   0.0109739
        k(   62) = (   0.0755792   0.0755792   0.0269972), wk =   0.0219479
        k(   63) = (   0.0755792   0.0755792   0.0539943), wk =   0.0219479
        k(   64) = (   0.0755792   0.0755792   0.0809915), wk =   0.0219479
        k(   65) = (   0.0755792   0.0755792   0.1079887), wk =   0.0219479
        k(   66) = (   0.0755792   0.1007722   0.0000000), wk =   0.0219479
        k(   67) = (   0.0755792   0.1007722   0.0269972), wk =   0.0438957
        k(   68) = (   0.0755792   0.1007722   0.0539943), wk =   0.0438957
        k(   69) = (   0.0755792   0.1007722   0.0809915), wk =   0.0438957
        k(   70) = (   0.0755792   0.1007722   0.1079887), wk =   0.0438957
        k(   71) = (   0.1007722   0.1007722   0.0000000), wk =   0.0109739
        k(   72) = (   0.1007722   0.1007722   0.0269972), wk =   0.0219479
        k(   73) = (   0.1007722   0.1007722   0.0539943), wk =   0.0219479
        k(   74) = (   0.1007722   0.1007722   0.0809915), wk =   0.0219479
        k(   75) = (   0.1007722   0.1007722   0.1079887), wk =   0.0219479

     Largest allocated arrays     est. size (Mb)     dimensions
     Largest temporary arrays     est. size (Mb)     dimensions

     Initial potential from superposition of free atoms
     Check: negative starting charge=   -0.122109

     starting charge   45.99546, renormalised to   46.00000

     negative rho (up, down):  1.221E-01 0.000E+00

     *
     * You are using vdW-DF for exchange-correlation in this calculation.
     * Please cite the following three references that made this development
     * possible:
     *
     *   M. Dion, H. Rydberg, E. Schroder, D. C. Langreth, and
     *   B. I. Lundqvist, Phys. Rev. Lett. 92, 246401 (2004).
     *
     *   T. Thonhauser, V. R. Cooper, S. Li, A. Puzder, P. Hyldgaard, and
     *   D. C. Langreth, Phys. Rev. B 76, 125112 (2007).
     *
     *   G. Roman-Perez and J. M. Soler, Phys. Rev. Lett. 103, 096102 (2009).
     *
     *
     * If you are using vdW-DF2, please also cite:
     *
     *   K. Lee, E. D. Murray, L. Kong, B. I. Lundqvist, and
     *   D. C. Langreth, Phys. Rev. B 82, 081101(R) (2010).
     *
     *
     * If you are calculating the stress with vdW-DF, please also cite:
     *
     *   R. Sabatini, E. Kucukbenli, B. Kolb, T. Thonhauser, and
     *   S. de Gironcoli, J. Phys.: Condens. Matter 24, 424209 (2012).
     *

     Carrying out vdW-DF run using the following parameters:

     Nqs =      20    Nr_points =    1024   r_max =   100.000
     q_mesh =
               0.00001000     0.04494208     0.09755937     0.15916263
               0.23128650     0.31572767     0.41458969     0.53033537
               0.66584808     0.82450364     1.01025438     1.22772762
               1.48234092     1.78043706     2.12944203     2.53805004
               3.01644009     3.57652955     4.23227104     5.00000000

     Gradients computed in reciprocal space

     Starting wfc are   44 randomized atomic wfcs

     Self-consistent Calculation

     iteration #  1     ecut=    58.80 Ry     beta=0.10
     Davidson diagonalization with overlap
     ethr =  1.00E-02,  avg # of iterations =  5.1

[...]

     total energy              =    -433.13429903 Ry
     Harris-Foulkes estimate   =    -433.28488298 Ry
     estimated scf accuracy    <       0.88756296 Ry

[...]

     total energy              =    -433.13755496 Ry
     Harris-Foulkes estimate   =    -433.13755611 Ry
     estimated scf accuracy    <       0.00000676 Ry

     iteration # 11     ecut=    58.80 Ry     beta=0.10
     Davidson diagonalization with overlap
     ethr =  1.38E-08,  avg # of iterations =  2.0

     negative rho (up, down):  1.250E-01 0.000E+00

     End of self-consistent calculation

          k = 0.0000 0.0000 0.0000 (  4151 PWs)   bands (ev):

   -34.5809 -34.4581 -12.7187 -12.7187 -12.6227 -12.4821 -12.1736 -12.1736
     6.9213   8.6246   8.8484   8.8730   9.0532   9.0887   9.0887  10.3974
    10.3974  11.0928  11.8927  13.6185  14.1734  15.0703  16.3195  16.3195
    17.2944  17.2944  17.5021  17.5173  18.4204  18.4204  19.1480  20.4827
    21.1111  22.9129  23.7094  23.7094  24.8764  25.1525  25.1525  25.3346
    27.1349  27.8856  30.7171

[...]

          k = 0.1008 0.1008 0.1080 (  4101 PWs)   bands (ev):

   -34.5189 -34.5152 -12.7977 -12.7820 -12.5918 -12.5870 -12.1339 -12.1165
     8.5987   8.6599   8.9228   8.9266  10.1502  10.2118  10.3381  10.3455
    10.3951  10.4092  12.4391  12.7926  14.3410  14.4043  14.8136  14.8160
    15.0812  15.3153  17.5941  17.7970  18.3908  18.3919  18.4736  18.6550
    20.9603  21.1413  23.3838  23.4536  26.6746  26.7302  26.7844  26.8987
    28.0487  28.3073  30.2461

     the Fermi energy is    14.8353 ev

!    total energy              =    -433.13756346 Ry
     Harris-Foulkes estimate   =    -433.13755624 Ry
     estimated scf accuracy    <       0.00000003 Ry

     The total energy is the sum of the following terms:

     one-electron contribution =     -14.36553820 Ry
     hartree contribution      =      44.22793145 Ry
     xc contribution           =    -164.91546772 Ry
     ewald contribution        =    -298.07341433 Ry
     smearing contrib. (-TS)   =      -0.01107467 Ry

     convergence has been achieved in  11 iterations

     Forces acting on atoms (Ry/au):

     negative rho (up, down):  1.250E-01 0.000E+00
     atom    1 type  1   force =     0.00000000    0.00000000    0.00000000
     atom    2 type  1   force =     0.00000000    0.00000000    0.00000000
     atom    3 type  2   force =     0.00000000    0.00000000    0.00000000
     atom    4 type  2   force =     0.00000000    0.00000000    0.00000000

     Total force =     0.000000     Total SCF correction =     0.000000

     General routines

     Parallel routines

   This run was terminated on:   7:17:15  15Nov2017

   JOB DONE.