     Program PWSCF v.5.1rc2 starts on 13Nov2017 at 16:12:31

     Current dimensions of program PWSCF are:
     Max number of different atomic species (ntypx) = 10
     Max number of k-points (npk) =  40000
     Max angular momentum in pseudopotentials (lmaxx) =  3

     IMPORTANT: XC functional enforced from input :
     Exchange-correlation      = BEEF-VDW ( 1  4 27 13 2)
     Any further DFT definition will be discarded
     Please, verify this is what you really want

     Found symmetry operation: I + ( -0.5000 -0.5000  0.0000)
     This is a supercell, fractional translations are disabled

     bravais-lattice index     =            0
     lattice parameter (alat)  =       1.8897  a.u.
     unit-cell volume          =     439.3192 (a.u.)^3
     number of atoms/cell      =            4
     number of atomic types    =            2
     number of electrons       =        68.00
     number of Kohn-Sham states=           54
     kinetic-energy cutoff     =      58.7989  Ry
     charge density cutoff     =     587.9892  Ry
     convergence threshold     =      1.0E-06
     mixing beta               =       0.1000
     number of iterations used =           10  plain     mixing
     Exchange-correlation      = BEEF-VDW ( 1  4 27 13 2)

     celldm(1)=   1.889726  celldm(2)=   0.000000  celldm(3)=   0.000000
     celldm(4)=   0.000000  celldm(5)=   0.000000  celldm(6)=   0.000000

     crystal axes: (cart. coord. in units of alat)
               a(1) = (   3.753513   0.000000   0.000000 )
               a(2) = (   0.000000   3.753513   0.000000 )
               a(3) = (   0.000000   0.000000   4.620700 )

     reciprocal axes: (cart. coord. in units 2 pi/alat)
               b(1) = (  0.266417  0.000000  0.000000 )
               b(2) = (  0.000000  0.266417  0.000000 )
               b(3) = (  0.000000  0.000000  0.216417 )

     PseudoPot. # 1 for Ag read from file:
     /home/users/vossj/suncat/psp/gbrv1.5pbe/Ag.UPF
     MD5 check sum: d66d668201baa78d5eb5b04ef7011058
     Pseudo is Ultrasoft + core correction, Zval = 19.0
     Generated by new atomic code, or converted to UPF format
     Using radial grid of  887 points,  6 beta functions with:
                l(1) =   0
                l(2) =   0
                l(3) =   1
                l(4) =   1
                l(5) =   2
                l(6) =   2
     Q(r) pseudized with  6 coefficients,  rinner =    1.300   1.300   1.300
                                                       1.300   1.300

     PseudoPot. # 2 for Re read from file:
     /home/users/vossj/suncat/psp/gbrv1.5pbe/Re.UPF
     MD5 check sum: 85f993410f3e006da9d71c142b4ad953
     Pseudo is Ultrasoft + core correction, Zval = 15.0
     Generated by new atomic code, or converted to UPF format
     Using radial grid of  981 points,  8 beta functions with:
                l(1) =   0
                l(2) =   0
                l(3) =   1
                l(4) =   1
                l(5) =   2
                l(6) =   2
                l(7) =   3
                l(8) =   3
     Q(r) pseudized with  8 coefficients,  rinner =    1.150   1.150   1.150
                                                       1.150   1.150   1.150
                                                       1.150

     vdW kernel table read from file vdW_kernel_table
     MD5 check sum: 095c7af220d748ca6e76c0b4c6cfb241

     atomic species   valence    mass     pseudopotential
        Ag1           19.00   107.86800     Ag( 1.00)
        Re1           15.00   186.20700     Re( 1.00)

     16 Sym. Ops., with inversion, found

   Cartesian axes

     site n.     atom                  positions (alat units)
         1           Ag1 tau(   1) = (   0.0000000   0.0000000   0.0000000  )
         2           Ag1 tau(   2) = (   1.8767565   1.8767565   0.0000000  )
         3           Re1 tau(   3) = (   1.8767565   0.0000000   2.3103499  )
         4           Re1 tau(   4) = (   0.0000000   1.8767565   2.3103499  )

     number of k points=    75  Fermi-Dirac smearing, width (Ry)=  0.0073
                       cart. coord. in units 2pi/alat
        k(    1) = (   0.0000000   0.0000000   0.0000000), wk =   0.0027435
        k(    2) = (   0.0000000   0.0000000   0.0240464), wk =   0.0054870
        k(    3) = (   0.0000000   0.0000000   0.0480928), wk =   0.0054870
        k(    4) = (   0.0000000   0.0000000   0.0721391), wk =   0.0054870
        k(    5) = (   0.0000000   0.0000000   0.0961855), wk =   0.0054870
        k(    6) = (   0.0000000   0.0296019   0.0000000), wk =   0.0109739
        k(    7) = (   0.0000000   0.0296019   0.0240464), wk =   0.0219479
        k(    8) = (   0.0000000   0.0296019   0.0480928), wk =   0.0219479
        k(    9) = (   0.0000000   0.0296019   0.0721391), wk =   0.0219479
        k(   10) = (   0.0000000   0.0296019   0.0961855), wk =   0.0219479
        k(   11) = (   0.0000000   0.0592038   0.0000000), wk =   0.0109739
        k(   12) = (   0.0000000   0.0592038   0.0240464), wk =   0.0219479
        k(   13) = (   0.0000000   0.0592038   0.0480928), wk =   0.0219479
        k(   14) = (   0.0000000   0.0592038   0.0721391), wk =   0.0219479
        k(   15) = (   0.0000000   0.0592038   0.0961855), wk =   0.0219479
        k(   16) = (   0.0000000   0.0888057   0.0000000), wk =   0.0109739
        k(   17) = (   0.0000000   0.0888057   0.0240464), wk =   0.0219479
        k(   18) = (   0.0000000   0.0888057   0.0480928), wk =   0.0219479
        k(   19) = (   0.0000000   0.0888057   0.0721391), wk =   0.0219479
        k(   20) = (   0.0000000   0.0888057   0.0961855), wk =   0.0219479
        k(   21) = (   0.0000000   0.1184076   0.0000000), wk =   0.0109739
        k(   22) = (   0.0000000   0.1184076   0.0240464), wk =   0.0219479
        k(   23) = (   0.0000000   0.1184076   0.0480928), wk =   0.0219479
        k(   24) = (   0.0000000   0.1184076   0.0721391), wk =   0.0219479
        k(   25) = (   0.0000000   0.1184076   0.0961855), wk =   0.0219479
        k(   26) = (   0.0296019   0.0296019   0.0000000), wk =   0.0109739
        k(   27) = (   0.0296019   0.0296019   0.0240464), wk =   0.0219479
        k(   28) = (   0.0296019   0.0296019   0.0480928), wk =   0.0219479
        k(   29) = (   0.0296019   0.0296019   0.0721391), wk =   0.0219479
        k(   30) = (   0.0296019   0.0296019   0.0961855), wk =   0.0219479
        k(   31) = (   0.0296019   0.0592038   0.0000000), wk =   0.0219479
        k(   32) = (   0.0296019   0.0592038   0.0240464), wk =   0.0438957
        k(   33) = (   0.0296019   0.0592038   0.0480928), wk =   0.0438957
        k(   34) = (   0.0296019   0.0592038   0.0721391), wk =   0.0438957
        k(   35) = (   0.0296019   0.0592038   0.0961855), wk =   0.0438957
        k(   36) = (   0.0296019   0.0888057   0.0000000), wk =   0.0219479
        k(   37) = (   0.0296019   0.0888057   0.0240464), wk =   0.0438957
        k(   38) = (   0.0296019   0.0888057   0.0480928), wk =   0.0438957
        k(   39) = (   0.0296019   0.0888057   0.0721391), wk =   0.0438957
        k(   40) = (   0.0296019   0.0888057   0.0961855), wk =   0.0438957
        k(   41) = (   0.0296019   0.1184076   0.0000000), wk =   0.0219479
        k(   42) = (   0.0296019   0.1184076   0.0240464), wk =   0.0438957
        k(   43) = (   0.0296019   0.1184076   0.0480928), wk =   0.0438957
        k(   44) = (   0.0296019   0.1184076   0.0721391), wk =   0.0438957
        k(   45) = (   0.0296019   0.1184076   0.0961855), wk =   0.0438957
        k(   46) = (   0.0592038   0.0592038   0.0000000), wk =   0.0109739
        k(   47) = (   0.0592038   0.0592038   0.0240464), wk =   0.0219479
        k(   48) = (   0.0592038   0.0592038   0.0480928), wk =   0.0219479
        k(   49) = (   0.0592038   0.0592038   0.0721391), wk =   0.0219479
        k(   50) = (   0.0592038   0.0592038   0.0961855), wk =   0.0219479
        k(   51) = (   0.0592038   0.0888057   0.0000000), wk =   0.0219479
        k(   52) = (   0.0592038   0.0888057   0.0240464), wk =   0.0438957
        k(   53) = (   0.0592038   0.0888057   0.0480928), wk =   0.0438957
        k(   54) = (   0.0592038   0.0888057   0.0721391), wk =   0.0438957
        k(   55) = (   0.0592038   0.0888057   0.0961855), wk =   0.0438957
        k(   56) = (   0.0592038   0.1184076   0.0000000), wk =   0.0219479
        k(   57) = (   0.0592038   0.1184076   0.0240464), wk =   0.0438957
        k(   58) = (   0.0592038   0.1184076   0.0480928), wk =   0.0438957
        k(   59) = (   0.0592038   0.1184076   0.0721391), wk =   0.0438957
        k(   60) = (   0.0592038   0.1184076   0.0961855), wk =   0.0438957
        k(   61) = (   0.0888057   0.0888057   0.0000000), wk =   0.0109739
        k(   62) = (   0.0888057   0.0888057   0.0240464), wk =   0.0219479
        k(   63) = (   0.0888057   0.0888057   0.0480928), wk =   0.0219479
        k(   64) = (   0.0888057   0.0888057   0.0721391), wk =   0.0219479
        k(   65) = (   0.0888057   0.0888057   0.0961855), wk =   0.0219479
        k(   66) = (   0.0888057   0.1184076   0.0000000), wk =   0.0219479
        k(   67) = (   0.0888057   0.1184076   0.0240464), wk =   0.0438957
        k(   68) = (   0.0888057   0.1184076   0.0480928), wk =   0.0438957
        k(   69) = (   0.0888057   0.1184076   0.0721391), wk =   0.0438957
        k(   70) = (   0.0888057   0.1184076   0.0961855), wk =   0.0438957
        k(   71) = (   0.1184076   0.1184076   0.0000000), wk =   0.0109739
        k(   72) = (   0.1184076   0.1184076   0.0240464), wk =   0.0219479
        k(   73) = (   0.1184076   0.1184076   0.0480928), wk =   0.0219479
        k(   74) = (   0.1184076   0.1184076   0.0721391), wk =   0.0219479
        k(   75) = (   0.1184076   0.1184076   0.0961855), wk =   0.0219479

     Largest allocated arrays     est. size (Mb)     dimensions
     Largest temporary arrays     est. size (Mb)     dimensions

     Initial potential from superposition of free atoms
     Check: negative starting charge=   -0.259312

     starting charge   65.99982, renormalised to   68.00000

     negative rho (up, down):  2.672E-01 0.000E+00

     *
     * You are using vdW-DF for exchange-correlation in this calculation.
     * Please cite the following three references that made this development
     * possible:
     *
     *   M. Dion, H. Rydberg, E. Schroder, D. C. Langreth, and
     *   B. I. Lundqvist, Phys. Rev. Lett. 92, 246401 (2004).
     *
     *   T. Thonhauser, V. R. Cooper, S. Li, A. Puzder, P. Hyldgaard, and
     *   D. C. Langreth, Phys. Rev. B 76, 125112 (2007).
     *
     *   G. Roman-Perez and J. M. Soler, Phys. Rev. Lett. 103, 096102 (2009).
     *
     *
     * If you are using vdW-DF2, please also cite:
     *
     *   K. Lee, E. D. Murray, L. Kong, B. I. Lundqvist, and
     *   D. C. Langreth, Phys. Rev. B 82, 081101(R) (2010).
     *
     *
     * If you are calculating the stress with vdW-DF, please also cite:
     *
     *   R. Sabatini, E. Kucukbenli, B. Kolb, T. Thonhauser, and
     *   S. de Gironcoli, J. Phys.: Condens. Matter 24, 424209 (2012).
     *

     Carrying out vdW-DF run using the following parameters:

     Nqs =      20    Nr_points =    1024   r_max =   100.000
     q_mesh =
               0.00001000     0.04494208     0.09755937     0.15916263
               0.23128650     0.31572767     0.41458969     0.53033537
               0.66584808     0.82450364     1.01025438     1.22772762
               1.48234092     1.78043706     2.12944203     2.53805004
               3.01644009     3.57652955     4.23227104     5.00000000

     Gradients computed in reciprocal space

     Starting wfc are   52 randomized atomic wfcs +    2 random wfc

     Self-consistent Calculation

     iteration #  1     ecut=    58.80 Ry     beta=0.10
     Davidson diagonalization with overlap
     ethr =  1.00E-02,  avg # of iterations =  4.3

[...]

     total energy              =    -975.80076391 Ry
     Harris-Foulkes estimate   =    -979.19938354 Ry
     estimated scf accuracy    <      18.93390255 Ry

[...]

     total energy              =    -977.53174213 Ry
     Harris-Foulkes estimate   =    -977.53174074 Ry
     estimated scf accuracy    <       0.00000207 Ry

     iteration # 13     ecut=    58.80 Ry     beta=0.10
     Davidson diagonalization with overlap
     ethr =  3.05E-09,  avg # of iterations =  1.1

     negative rho (up, down):  2.709E-01 0.000E+00

     End of self-consistent calculation

          k = 0.0000 0.0000 0.0000 (  3365 PWs)   bands (ev):

   -72.4899 -72.4522 -60.6907 -60.5740 -36.0632 -36.0632 -35.9633 -35.9212
   -35.8677 -35.8677 -22.6977 -22.6977 -22.3798 -22.1975 -21.9427 -21.9427
    11.1922  13.0561  13.2624  13.3476  13.7533  13.8029  13.8029  15.7992
    15.8843  15.8843  16.7266  16.7635  17.4460  17.6442  19.2874  19.2874
    19.6861  21.0482  21.6969  21.6969  23.1801  23.3132  23.3132  25.3699
    26.1997  28.7411  30.8660  30.9422  31.0987  31.0987  31.4531  33.6992
    33.6992  35.1790  36.1964  38.2030  40.0180  40.0180

[...]

          k = 0.1184 0.1184 0.0962 (  3327 PWs)   bands (ev):

   -72.4715 -72.4704 -60.6336 -60.6301 -36.0854 -36.0795 -35.9426 -35.9413
   -35.8561 -35.8502 -22.8005 -22.7789 -22.2900 -22.2844 -21.8935 -21.8696
    13.1822  13.2057  13.6414  13.7164  14.4862  14.5115  15.4632  15.5966
    16.0567  16.1156  16.3453  16.5405  17.9282  18.1977  19.2659  19.3140
    19.4263  20.0042  20.4331  21.1570  21.1733  21.1777  21.9545  22.0727
    26.2990  26.5618  27.9878  28.1080  32.2658  32.3332  33.2528  33.4990
    37.6179  37.9355  38.9316  39.1639  39.3475  40.0460

     the Fermi energy is    20.1848 ev

!    total energy              =    -977.53175133 Ry
     Harris-Foulkes estimate   =    -977.53174247 Ry
     estimated scf accuracy    <       0.00000003 Ry

     The total energy is the sum of the following terms:

     one-electron contribution =    -299.10249848 Ry
     hartree contribution      =     189.64766877 Ry
     xc contribution           =    -168.45141195 Ry
     ewald contribution        =    -699.61888767 Ry
     smearing contrib. (-TS)   =      -0.00662200 Ry

     convergence has been achieved in  13 iterations

     Forces acting on atoms (Ry/au):

     negative rho (up, down):  2.709E-01 0.000E+00
     atom    1 type  1   force =     0.00000000    0.00000000    0.00000000
     atom    2 type  1   force =     0.00000000    0.00000000    0.00000000
     atom    3 type  2   force =     0.00000000    0.00000000    0.00000000
     atom    4 type  2   force =     0.00000000    0.00000000    0.00000000

     Total force =     0.000000     Total SCF correction =     0.000000

     General routines

     Parallel routines

   This run was terminated on:  16:13:19  13Nov2017

   JOB DONE.