     Program PWSCF v.5.1rc2 starts on 14Nov2017 at 10: 4: 4

     Current dimensions of program PWSCF are:
     Max number of different atomic species (ntypx) = 10
     Max number of k-points (npk) =  40000
     Max angular momentum in pseudopotentials (lmaxx) =  3

     IMPORTANT: XC functional enforced from input :
     Exchange-correlation      = BEEF-VDW ( 1  4 27 13 2)
     Any further DFT definition will be discarded
     Please, verify this is what you really want

     Found symmetry operation: I + ( -0.5000 -0.5000  0.0000)
     This is a supercell, fractional translations are disabled

     bravais-lattice index     =            0
     lattice parameter (alat)  =       1.8897  a.u.
     unit-cell volume          =     550.6860 (a.u.)^3
     number of atoms/cell      =            4
     number of atomic types    =            2
     number of electrons       =        64.00
     number of Kohn-Sham states=           52
     kinetic-energy cutoff     =      58.7989  Ry
     charge density cutoff     =     587.9892  Ry
     convergence threshold     =      1.0E-06
     mixing beta               =       0.1000
     number of iterations used =           10  plain     mixing
     Exchange-correlation      = BEEF-VDW ( 1  4 27 13 2)

     celldm(1)=   1.889726  celldm(2)=   0.000000  celldm(3)=   0.000000
     celldm(4)=   0.000000  celldm(5)=   0.000000  celldm(6)=   0.000000

     crystal axes: (cart. coord. in units of alat)
               a(1) = (   4.387954   0.000000   0.000000 )
               a(2) = (   0.000000   4.387954   0.000000 )
               a(3) = (   0.000000   0.000000   4.238217 )

     reciprocal axes: (cart. coord. in units 2 pi/alat)
               b(1) = (  0.227897  0.000000  0.000000 )
               b(2) = (  0.000000  0.227897  0.000000 )
               b(3) = (  0.000000  0.000000  0.235948 )

     PseudoPot. # 1 for Zn read from file:
     /home/users/vossj/suncat/psp/gbrv1.5pbe/Zn.UPF
     MD5 check sum: df62231357ef9e81f77b2b3087fa5675
     Pseudo is Ultrasoft, Zval = 20.0
     Generated by new atomic code, or converted to UPF format
     Using radial grid of  943 points,  6 beta functions with:
                l(1) =   0
                l(2) =   0
                l(3) =   1
                l(4) =   1
                l(5) =   2
                l(6) =   2
     Q(r) pseudized with  8 coefficients,  rinner =    1.100   1.100   1.100
                                                       1.100   1.100

     PseudoPot. # 2 for Cd read from file:
     /home/users/vossj/suncat/psp/gbrv1.5pbe/Cd.UPF
     MD5 check sum: 17164a7926edb8e0dc231208abae86a6
     Pseudo is Ultrasoft + core correction, Zval = 12.0
     Generated by new atomic code, or converted to UPF format
     Using radial grid of  889 points,  6 beta functions with:
                l(1) =   0
                l(2) =   0
                l(3) =   1
                l(4) =   1
                l(5) =   2
                l(6) =   2
     Q(r) pseudized with  6 coefficients,  rinner =    1.000   1.000   1.000
                                                       1.000   1.000

     vdW kernel table read from file vdW_kernel_table
     MD5 check sum: 095c7af220d748ca6e76c0b4c6cfb241

     atomic species   valence    mass     pseudopotential
        Zn1           20.00    65.39000     Zn( 1.00)
        Cd1           12.00   112.41000     Cd( 1.00)

     16 Sym. Ops., with inversion, found

   Cartesian axes

     site n.     atom                  positions (alat units)
         1           Zn1 tau(   1) = (   0.0000000   0.0000000   0.0000000  )
         2           Zn1 tau(   2) = (   2.1939772   2.1939772   0.0000000  )
         3           Cd1 tau(   3) = (   2.1939772   0.0000000   2.1191085  )
         4           Cd1 tau(   4) = (   0.0000000   2.1939772   2.1191085  )

     number of k points=    75  Fermi-Dirac smearing, width (Ry)=  0.0073
                       cart. coord. in units 2pi/alat
        k(    1) = (   0.0000000   0.0000000   0.0000000), wk =   0.0027435
        k(    2) = (   0.0000000   0.0000000   0.0262165), wk =   0.0054870
        k(    3) = (   0.0000000   0.0000000   0.0524330), wk =   0.0054870
        k(    4) = (   0.0000000   0.0000000   0.0786494), wk =   0.0054870
        k(    5) = (   0.0000000   0.0000000   0.1048659), wk =   0.0054870
        k(    6) = (   0.0000000   0.0253218   0.0000000), wk =   0.0109739
        k(    7) = (   0.0000000   0.0253218   0.0262165), wk =   0.0219479
        k(    8) = (   0.0000000   0.0253218   0.0524330), wk =   0.0219479
        k(    9) = (   0.0000000   0.0253218   0.0786494), wk =   0.0219479
        k(   10) = (   0.0000000   0.0253218   0.1048659), wk =   0.0219479
        k(   11) = (   0.0000000   0.0506437   0.0000000), wk =   0.0109739
        k(   12) = (   0.0000000   0.0506437   0.0262165), wk =   0.0219479
        k(   13) = (   0.0000000   0.0506437   0.0524330), wk =   0.0219479
        k(   14) = (   0.0000000   0.0506437   0.0786494), wk =   0.0219479
        k(   15) = (   0.0000000   0.0506437   0.1048659), wk =   0.0219479
        k(   16) = (   0.0000000   0.0759655   0.0000000), wk =   0.0109739
        k(   17) = (   0.0000000   0.0759655   0.0262165), wk =   0.0219479
        k(   18) = (   0.0000000   0.0759655   0.0524330), wk =   0.0219479
        k(   19) = (   0.0000000   0.0759655   0.0786494), wk =   0.0219479
        k(   20) = (   0.0000000   0.0759655   0.1048659), wk =   0.0219479
        k(   21) = (   0.0000000   0.1012874   0.0000000), wk =   0.0109739
        k(   22) = (   0.0000000   0.1012874   0.0262165), wk =   0.0219479
        k(   23) = (   0.0000000   0.1012874   0.0524330), wk =   0.0219479
        k(   24) = (   0.0000000   0.1012874   0.0786494), wk =   0.0219479
        k(   25) = (   0.0000000   0.1012874   0.1048659), wk =   0.0219479
        k(   26) = (   0.0253218   0.0253218   0.0000000), wk =   0.0109739
        k(   27) = (   0.0253218   0.0253218   0.0262165), wk =   0.0219479
        k(   28) = (   0.0253218   0.0253218   0.0524330), wk =   0.0219479
        k(   29) = (   0.0253218   0.0253218   0.0786494), wk =   0.0219479
        k(   30) = (   0.0253218   0.0253218   0.1048659), wk =   0.0219479
        k(   31) = (   0.0253218   0.0506437   0.0000000), wk =   0.0219479
        k(   32) = (   0.0253218   0.0506437   0.0262165), wk =   0.0438957
        k(   33) = (   0.0253218   0.0506437   0.0524330), wk =   0.0438957
        k(   34) = (   0.0253218   0.0506437   0.0786494), wk =   0.0438957
        k(   35) = (   0.0253218   0.0506437   0.1048659), wk =   0.0438957
        k(   36) = (   0.0253218   0.0759655   0.0000000), wk =   0.0219479
        k(   37) = (   0.0253218   0.0759655   0.0262165), wk =   0.0438957
        k(   38) = (   0.0253218   0.0759655   0.0524330), wk =   0.0438957
        k(   39) = (   0.0253218   0.0759655   0.0786494), wk =   0.0438957
        k(   40) = (   0.0253218   0.0759655   0.1048659), wk =   0.0438957
        k(   41) = (   0.0253218   0.1012874   0.0000000), wk =   0.0219479
        k(   42) = (   0.0253218   0.1012874   0.0262165), wk =   0.0438957
        k(   43) = (   0.0253218   0.1012874   0.0524330), wk =   0.0438957
        k(   44) = (   0.0253218   0.1012874   0.0786494), wk =   0.0438957
        k(   45) = (   0.0253218   0.1012874   0.1048659), wk =   0.0438957
        k(   46) = (   0.0506437   0.0506437   0.0000000), wk =   0.0109739
        k(   47) = (   0.0506437   0.0506437   0.0262165), wk =   0.0219479
        k(   48) = (   0.0506437   0.0506437   0.0524330), wk =   0.0219479
        k(   49) = (   0.0506437   0.0506437   0.0786494), wk =   0.0219479
        k(   50) = (   0.0506437   0.0506437   0.1048659), wk =   0.0219479
        k(   51) = (   0.0506437   0.0759655   0.0000000), wk =   0.0219479
        k(   52) = (   0.0506437   0.0759655   0.0262165), wk =   0.0438957
        k(   53) = (   0.0506437   0.0759655   0.0524330), wk =   0.0438957
        k(   54) = (   0.0506437   0.0759655   0.0786494), wk =   0.0438957
        k(   55) = (   0.0506437   0.0759655   0.1048659), wk =   0.0438957
        k(   56) = (   0.0506437   0.1012874   0.0000000), wk =   0.0219479
        k(   57) = (   0.0506437   0.1012874   0.0262165), wk =   0.0438957
        k(   58) = (   0.0506437   0.1012874   0.0524330), wk =   0.0438957
        k(   59) = (   0.0506437   0.1012874   0.0786494), wk =   0.0438957
        k(   60) = (   0.0506437   0.1012874   0.1048659), wk =   0.0438957
        k(   61) = (   0.0759655   0.0759655   0.0000000), wk =   0.0109739
        k(   62) = (   0.0759655   0.0759655   0.0262165), wk =   0.0219479
        k(   63) = (   0.0759655   0.0759655   0.0524330), wk =   0.0219479
        k(   64) = (   0.0759655   0.0759655   0.0786494), wk =   0.0219479
        k(   65) = (   0.0759655   0.0759655   0.1048659), wk =   0.0219479
        k(   66) = (   0.0759655   0.1012874   0.0000000), wk =   0.0219479
        k(   67) = (   0.0759655   0.1012874   0.0262165), wk =   0.0438957
        k(   68) = (   0.0759655   0.1012874   0.0524330), wk =   0.0438957
        k(   69) = (   0.0759655   0.1012874   0.0786494), wk =   0.0438957
        k(   70) = (   0.0759655   0.1012874   0.1048659), wk =   0.0438957
        k(   71) = (   0.1012874   0.1012874   0.0000000), wk =   0.0109739
        k(   72) = (   0.1012874   0.1012874   0.0262165), wk =   0.0219479
        k(   73) = (   0.1012874   0.1012874   0.0524330), wk =   0.0219479
        k(   74) = (   0.1012874   0.1012874   0.0786494), wk =   0.0219479
        k(   75) = (   0.1012874   0.1012874   0.1048659), wk =   0.0219479

     Largest allocated arrays     est. size (Mb)     dimensions
     Largest temporary arrays     est. size (Mb)     dimensions

     Initial potential from superposition of free atoms
     Check: negative starting charge=   -0.042016

     starting charge   62.99964, renormalised to   64.00000

     negative rho (up, down):  4.268E-02 0.000E+00

     *
     * You are using vdW-DF for exchange-correlation in this calculation.
     * Please cite the following three references that made this development
     * possible:
     *
     *   M. Dion, H. Rydberg, E. Schroder, D. C. Langreth, and
     *   B. I. Lundqvist, Phys. Rev. Lett. 92, 246401 (2004).
     *
     *   T. Thonhauser, V. R. Cooper, S. Li, A. Puzder, P. Hyldgaard, and
     *   D. C. Langreth, Phys. Rev. B 76, 125112 (2007).
     *
     *   G. Roman-Perez and J. M. Soler, Phys. Rev. Lett. 103, 096102 (2009).
     *
     *
     * If you are using vdW-DF2, please also cite:
     *
     *   K. Lee, E. D. Murray, L. Kong, B. I. Lundqvist, and
     *   D. C. Langreth, Phys. Rev. B 82, 081101(R) (2010).
     *
     *
     * If you are calculating the stress with vdW-DF, please also cite:
     *
     *   R. Sabatini, E. Kucukbenli, B. Kolb, T. Thonhauser, and
     *   S. de Gironcoli, J. Phys.: Condens. Matter 24, 424209 (2012).
     *

     Carrying out vdW-DF run using the following parameters:

     Nqs =      20    Nr_points =    1024   r_max =   100.000
     q_mesh =
               0.00001000     0.04494208     0.09755937     0.15916263
               0.23128650     0.31572767     0.41458969     0.53033537
               0.66584808     0.82450364     1.01025438     1.22772762
               1.48234092     1.78043706     2.12944203     2.53805004
               3.01644009     3.57652955     4.23227104     5.00000000

     Gradients computed in reciprocal space

     Starting wfc are   44 randomized atomic wfcs +    8 random wfc

     Self-consistent Calculation

     iteration #  1     ecut=    58.80 Ry     beta=0.10
     Davidson diagonalization with overlap
     ethr =  1.00E-02,  avg # of iterations =  4.4

[...]

     total energy              =   -1157.72702536 Ry
     Harris-Foulkes estimate   =   -1158.36206045 Ry
     estimated scf accuracy    <       3.53197987 Ry

[...]

     total energy              =   -1157.74630398 Ry
     Harris-Foulkes estimate   =   -1157.74630836 Ry
     estimated scf accuracy    <       0.00003883 Ry

     iteration # 12     ecut=    58.80 Ry     beta=0.10
     Davidson diagonalization with overlap
     ethr =  6.07E-08,  avg # of iterations =  2.2

     negative rho (up, down):  4.361E-02 0.000E+00

     End of self-consistent calculation

          k = 0.0000 0.0000 0.0000 (  4183 PWs)   bands (ev):

  -115.8856-115.8854 -70.0734 -70.0731 -70.0649 -70.0649 -70.0628 -70.0628
     1.0051   1.0262   1.2295   1.3470   1.3470   1.6912   1.7924   1.7924
     1.9225   2.0067   2.3242   3.0266   3.1496   3.1665   3.3607   3.3607
     3.3901   3.3949   3.3949   3.4154   3.5276   9.8993   9.8993  10.3551
    11.0840  12.0017  12.2801  16.9906  17.2637  17.2637  17.9777  17.9777
    18.7018  21.2559  21.2769  21.5362  21.8753  21.8753  22.6508  25.7115
    25.7900  25.7915  25.7915  29.0174

[...]

          k = 0.1013 0.1013 0.1049 (  4193 PWs)   bands (ev):

  -115.8855-115.8855 -70.0733 -70.0733 -70.0650 -70.0650 -70.0627 -70.0626
     1.1466   1.1544   1.2486   1.2797   1.6471   1.6746   1.8103   1.8241
     1.8968   1.9140   3.0950   3.0972   3.1000   3.1088   3.3320   3.3470
     3.3715   3.3830   3.4125   3.4245   7.3698   8.2022   8.3791   8.4280
     9.3037   9.4071   9.7045  10.4651  21.1982  21.6311  22.4656  22.6492
    22.9767  23.6411  23.7349  23.7721  24.2276  24.3402  24.9902  25.0988
    26.7138  26.8531  26.8914  27.6051

     the Fermi energy is    10.5974 ev

!    total energy              =   -1157.74637810 Ry
     Harris-Foulkes estimate   =   -1157.74631014 Ry
     estimated scf accuracy    <       0.00000097 Ry

     The total energy is the sum of the following terms:

     one-electron contribution =    -868.71293751 Ry
     hartree contribution      =     470.27856602 Ry
     xc contribution           =    -168.44606627 Ry
     ewald contribution        =    -590.86239967 Ry
     smearing contrib. (-TS)   =      -0.00354067 Ry

     convergence has been achieved in  12 iterations

     Forces acting on atoms (Ry/au):

     negative rho (up, down):  4.361E-02 0.000E+00
     atom    1 type  1   force =     0.00000000    0.00000000    0.00000000
     atom    2 type  1   force =     0.00000000    0.00000000    0.00000000
     atom    3 type  2   force =     0.00000000    0.00000000    0.00000000
     atom    4 type  2   force =     0.00000000    0.00000000    0.00000000

     Total force =     0.000000     Total SCF correction =     0.000000

     General routines

     Parallel routines

   This run was terminated on:  10: 4:54  14Nov2017

   JOB DONE.