     Program PWSCF v.5.1rc2 starts on 14Nov2017 at 15:49:27

     Current dimensions of program PWSCF are:
     Max number of different atomic species (ntypx) = 10
     Max number of k-points (npk) =  40000
     Max angular momentum in pseudopotentials (lmaxx) =  3

     IMPORTANT: XC functional enforced from input :
     Exchange-correlation      = BEEF-VDW ( 1  4 27 13 2)
     Any further DFT definition will be discarded
     Please, verify this is what you really want

     Found symmetry operation: I + ( -0.5000 -0.5000  0.0000)
     This is a supercell, fractional translations are disabled

     bravais-lattice index     =            0
     lattice parameter (alat)  =       1.8897  a.u.
     unit-cell volume          =     483.9882 (a.u.)^3
     number of atoms/cell      =            4
     number of atomic types    =            2
     number of electrons       =        64.00
     number of Kohn-Sham states=           52
     kinetic-energy cutoff     =      58.7989  Ry
     charge density cutoff     =     587.9892  Ry
     convergence threshold     =      1.0E-06
     mixing beta               =       0.1000
     number of iterations used =           10  plain     mixing
     Exchange-correlation      = BEEF-VDW ( 1  4 27 13 2)

     celldm(1)=   1.889726  celldm(2)=   0.000000  celldm(3)=   0.000000
     celldm(4)=   0.000000  celldm(5)=   0.000000  celldm(6)=   0.000000

     crystal axes: (cart. coord. in units of alat)
               a(1) = (   3.949897   0.000000   0.000000 )
               a(2) = (   0.000000   3.949897   0.000000 )
               a(3) = (   0.000000   0.000000   4.596916 )

     reciprocal axes: (cart. coord. in units 2 pi/alat)
               b(1) = (  0.253171  0.000000  0.000000 )
               b(2) = (  0.000000  0.253171  0.000000 )
               b(3) = (  0.000000  0.000000  0.217537 )

     PseudoPot. # 1 for Nb read from file:
     /home/users/vossj/suncat/psp/gbrv1.5pbe/Nb.UPF
     MD5 check sum: 573aab8a2fa660278ed4a62cd769473f
     Pseudo is Ultrasoft + core correction, Zval = 13.0
     Generated by new atomic code, or converted to UPF format
     Using radial grid of  887 points,  6 beta functions with:
                l(1) =   0
                l(2) =   0
                l(3) =   1
                l(4) =   1
                l(5) =   2
                l(6) =   2
     Q(r) pseudized with  6 coefficients,  rinner =    1.000   1.000   1.000
                                                       1.000   1.000

     PseudoPot. # 2 for Ag read from file:
     /home/users/vossj/suncat/psp/gbrv1.5pbe/Ag.UPF
     MD5 check sum: d66d668201baa78d5eb5b04ef7011058
     Pseudo is Ultrasoft + core correction, Zval = 19.0
     Generated by new atomic code, or converted to UPF format
     Using radial grid of  887 points,  6 beta functions with:
                l(1) =   0
                l(2) =   0
                l(3) =   1
                l(4) =   1
                l(5) =   2
                l(6) =   2
     Q(r) pseudized with  6 coefficients,  rinner =    1.300   1.300   1.300
                                                       1.300   1.300

     vdW kernel table read from file vdW_kernel_table
     MD5 check sum: 095c7af220d748ca6e76c0b4c6cfb241

     atomic species   valence    mass     pseudopotential
        Nb1           13.00    92.90640     Nb( 1.00)
        Ag1           19.00   107.86800     Ag( 1.00)

     16 Sym. Ops., with inversion, found

   Cartesian axes

     site n.     atom                  positions (alat units)
         1           Nb1 tau(   1) = (   0.0000000   0.0000000   0.0000000  )
         2           Nb1 tau(   2) = (   1.9749486   1.9749486   0.0000000  )
         3           Ag1 tau(   3) = (   1.9749486   0.0000000   2.2984582  )
         4           Ag1 tau(   4) = (   0.0000000   1.9749486   2.2984582  )

     number of k points=    75  Fermi-Dirac smearing, width (Ry)=  0.0073
                       cart. coord. in units 2pi/alat
        k(    1) = (   0.0000000   0.0000000   0.0000000), wk =   0.0027435
        k(    2) = (   0.0000000   0.0000000   0.0241708), wk =   0.0054870
        k(    3) = (   0.0000000   0.0000000   0.0483416), wk =   0.0054870
        k(    4) = (   0.0000000   0.0000000   0.0725124), wk =   0.0054870
        k(    5) = (   0.0000000   0.0000000   0.0966832), wk =   0.0054870
        k(    6) = (   0.0000000   0.0281301   0.0000000), wk =   0.0109739
        k(    7) = (   0.0000000   0.0281301   0.0241708), wk =   0.0219479
        k(    8) = (   0.0000000   0.0281301   0.0483416), wk =   0.0219479
        k(    9) = (   0.0000000   0.0281301   0.0725124), wk =   0.0219479
        k(   10) = (   0.0000000   0.0281301   0.0966832), wk =   0.0219479
        k(   11) = (   0.0000000   0.0562603   0.0000000), wk =   0.0109739
        k(   12) = (   0.0000000   0.0562603   0.0241708), wk =   0.0219479
        k(   13) = (   0.0000000   0.0562603   0.0483416), wk =   0.0219479
        k(   14) = (   0.0000000   0.0562603   0.0725124), wk =   0.0219479
        k(   15) = (   0.0000000   0.0562603   0.0966832), wk =   0.0219479
        k(   16) = (   0.0000000   0.0843904   0.0000000), wk =   0.0109739
        k(   17) = (   0.0000000   0.0843904   0.0241708), wk =   0.0219479
        k(   18) = (   0.0000000   0.0843904   0.0483416), wk =   0.0219479
        k(   19) = (   0.0000000   0.0843904   0.0725124), wk =   0.0219479
        k(   20) = (   0.0000000   0.0843904   0.0966832), wk =   0.0219479
        k(   21) = (   0.0000000   0.1125205   0.0000000), wk =   0.0109739
        k(   22) = (   0.0000000   0.1125205   0.0241708), wk =   0.0219479
        k(   23) = (   0.0000000   0.1125205   0.0483416), wk =   0.0219479
        k(   24) = (   0.0000000   0.1125205   0.0725124), wk =   0.0219479
        k(   25) = (   0.0000000   0.1125205   0.0966832), wk =   0.0219479
        k(   26) = (   0.0281301   0.0281301   0.0000000), wk =   0.0109739
        k(   27) = (   0.0281301   0.0281301   0.0241708), wk =   0.0219479
        k(   28) = (   0.0281301   0.0281301   0.0483416), wk =   0.0219479
        k(   29) = (   0.0281301   0.0281301   0.0725124), wk =   0.0219479
        k(   30) = (   0.0281301   0.0281301   0.0966832), wk =   0.0219479
        k(   31) = (   0.0281301   0.0562603   0.0000000), wk =   0.0219479
        k(   32) = (   0.0281301   0.0562603   0.0241708), wk =   0.0438957
        k(   33) = (   0.0281301   0.0562603   0.0483416), wk =   0.0438957
        k(   34) = (   0.0281301   0.0562603   0.0725124), wk =   0.0438957
        k(   35) = (   0.0281301   0.0562603   0.0966832), wk =   0.0438957
        k(   36) = (   0.0281301   0.0843904   0.0000000), wk =   0.0219479
        k(   37) = (   0.0281301   0.0843904   0.0241708), wk =   0.0438957
        k(   38) = (   0.0281301   0.0843904   0.0483416), wk =   0.0438957
        k(   39) = (   0.0281301   0.0843904   0.0725124), wk =   0.0438957
        k(   40) = (   0.0281301   0.0843904   0.0966832), wk =   0.0438957
        k(   41) = (   0.0281301   0.1125205   0.0000000), wk =   0.0219479
        k(   42) = (   0.0281301   0.1125205   0.0241708), wk =   0.0438957
        k(   43) = (   0.0281301   0.1125205   0.0483416), wk =   0.0438957
        k(   44) = (   0.0281301   0.1125205   0.0725124), wk =   0.0438957
        k(   45) = (   0.0281301   0.1125205   0.0966832), wk =   0.0438957
        k(   46) = (   0.0562603   0.0562603   0.0000000), wk =   0.0109739
        k(   47) = (   0.0562603   0.0562603   0.0241708), wk =   0.0219479
        k(   48) = (   0.0562603   0.0562603   0.0483416), wk =   0.0219479
        k(   49) = (   0.0562603   0.0562603   0.0725124), wk =   0.0219479
        k(   50) = (   0.0562603   0.0562603   0.0966832), wk =   0.0219479
        k(   51) = (   0.0562603   0.0843904   0.0000000), wk =   0.0219479
        k(   52) = (   0.0562603   0.0843904   0.0241708), wk =   0.0438957
        k(   53) = (   0.0562603   0.0843904   0.0483416), wk =   0.0438957
        k(   54) = (   0.0562603   0.0843904   0.0725124), wk =   0.0438957
        k(   55) = (   0.0562603   0.0843904   0.0966832), wk =   0.0438957
        k(   56) = (   0.0562603   0.1125205   0.0000000), wk =   0.0219479
        k(   57) = (   0.0562603   0.1125205   0.0241708), wk =   0.0438957
        k(   58) = (   0.0562603   0.1125205   0.0483416), wk =   0.0438957
        k(   59) = (   0.0562603   0.1125205   0.0725124), wk =   0.0438957
        k(   60) = (   0.0562603   0.1125205   0.0966832), wk =   0.0438957
        k(   61) = (   0.0843904   0.0843904   0.0000000), wk =   0.0109739
        k(   62) = (   0.0843904   0.0843904   0.0241708), wk =   0.0219479
        k(   63) = (   0.0843904   0.0843904   0.0483416), wk =   0.0219479
        k(   64) = (   0.0843904   0.0843904   0.0725124), wk =   0.0219479
        k(   65) = (   0.0843904   0.0843904   0.0966832), wk =   0.0219479
        k(   66) = (   0.0843904   0.1125205   0.0000000), wk =   0.0219479
        k(   67) = (   0.0843904   0.1125205   0.0241708), wk =   0.0438957
        k(   68) = (   0.0843904   0.1125205   0.0483416), wk =   0.0438957
        k(   69) = (   0.0843904   0.1125205   0.0725124), wk =   0.0438957
        k(   70) = (   0.0843904   0.1125205   0.0966832), wk =   0.0438957
        k(   71) = (   0.1125205   0.1125205   0.0000000), wk =   0.0109739
        k(   72) = (   0.1125205   0.1125205   0.0241708), wk =   0.0219479
        k(   73) = (   0.1125205   0.1125205   0.0483416), wk =   0.0219479
        k(   74) = (   0.1125205   0.1125205   0.0725124), wk =   0.0219479
        k(   75) = (   0.1125205   0.1125205   0.0966832), wk =   0.0219479

     Largest allocated arrays     est. size (Mb)     dimensions
     Largest temporary arrays     est. size (Mb)     dimensions

     Initial potential from superposition of free atoms

     starting charge   62.99444, renormalised to   64.00000

     *
     * You are using vdW-DF for exchange-correlation in this calculation.
     * Please cite the following three references that made this development
     * possible:
     *
     *   M. Dion, H. Rydberg, E. Schroder, D. C. Langreth, and
     *   B. I. Lundqvist, Phys. Rev. Lett. 92, 246401 (2004).
     *
     *   T. Thonhauser, V. R. Cooper, S. Li, A. Puzder, P. Hyldgaard, and
     *   D. C. Langreth, Phys. Rev. B 76, 125112 (2007).
     *
     *   G. Roman-Perez and J. M. Soler, Phys. Rev. Lett. 103, 096102 (2009).
     *
     *
     * If you are using vdW-DF2, please also cite:
     *
     *   K. Lee, E. D. Murray, L. Kong, B. I. Lundqvist, and
     *   D. C. Langreth, Phys. Rev. B 82, 081101(R) (2010).
     *
     *
     * If you are calculating the stress with vdW-DF, please also cite:
     *
     *   R. Sabatini, E. Kucukbenli, B. Kolb, T. Thonhauser, and
     *   S. de Gironcoli, J. Phys.: Condens. Matter 24, 424209 (2012).
     *

     Carrying out vdW-DF run using the following parameters:

     Nqs =      20    Nr_points =    1024   r_max =   100.000
     q_mesh =
               0.00001000     0.04494208     0.09755937     0.15916263
               0.23128650     0.31572767     0.41458969     0.53033537
               0.66584808     0.82450364     1.01025438     1.22772762
               1.48234092     1.78043706     2.12944203     2.53805004
               3.01644009     3.57652955     4.23227104     5.00000000

     Gradients computed in reciprocal space

     Starting wfc are   52 randomized atomic wfcs

     Self-consistent Calculation

     iteration #  1     ecut=    58.80 Ry     beta=0.10
     Davidson diagonalization with overlap
     ethr =  1.00E-02,  avg # of iterations =  4.8

     total energy              =    -830.52589903 Ry
     Harris-Foulkes estimate   =    -830.87405529 Ry
     estimated scf accuracy    <       2.19055540 Ry

[...]

     total energy              =    -830.41420025 Ry
     Harris-Foulkes estimate   =    -830.41419872 Ry
     estimated scf accuracy    <       0.00000655 Ry

     iteration # 11     ecut=    58.80 Ry     beta=0.10
     Davidson diagonalization with overlap
     ethr =  1.02E-08,  avg # of iterations =  2.0

     End of self-consistent calculation

          k = 0.0000 0.0000 0.0000 (  3657 PWs)   bands (ev):

   -75.3033 -75.2849 -38.8123 -38.8123 -38.7827 -38.7602 -38.7021 -38.7021
   -37.9234 -37.6628 -14.2463 -14.2463 -14.0199 -13.7664 -13.3132 -13.3132
    10.1766  10.8687  11.0699  11.2444  11.4501  11.4501  11.8232  12.9740
    12.9740  13.6496  14.3832  15.0803  15.4204  15.6283  17.9415  17.9415
    18.1423  19.6148  20.2799  20.2799  20.5107  20.5107  21.7379  23.5502
    25.3341  25.3973  26.8291  28.7612  28.7612  28.9477  29.0000  29.7930
    29.7930  31.3261  33.3027  36.1969

[...]

          k = 0.1125 0.1125 0.0967 (  3673 PWs)   bands (ev):

   -75.2943 -75.2938 -38.8242 -38.8209 -38.7720 -38.7711 -38.6959 -38.6926
   -37.7947 -37.7870 -14.3935 -14.3672 -13.8974 -13.8895 -13.2471 -13.2170
    11.2155  11.2228  11.3543  11.4279  12.2192  12.2292  12.6876  12.7811
    13.0981  13.1395  15.4181  15.7251  15.7579  15.9219  17.1310  17.2675
    17.7429  18.1504  19.2531  19.6864  19.7656  19.8206  20.5218  20.5629
    23.5399  23.7557  26.6374  26.6824  29.3834  29.4347  30.5780  30.8085
    33.8273  34.1517  34.4207  35.0752

     the Fermi energy is    17.2803 ev

!    total energy              =    -830.41421794 Ry
     Harris-Foulkes estimate   =    -830.41420130 Ry
     estimated scf accuracy    <       0.00000076 Ry

     The total energy is the sum of the following terms:

     one-electron contribution =    -318.23371452 Ry
     hartree contribution      =     192.39456018 Ry
     xc contribution           =     -98.35370099 Ry
     ewald contribution        =    -606.21152411 Ry
     smearing contrib. (-TS)   =      -0.00983851 Ry

     convergence has been achieved in  11 iterations

     Forces acting on atoms (Ry/au):

     atom    1 type  1   force =     0.00000000    0.00000000    0.00000000
     atom    2 type  1   force =     0.00000000    0.00000000    0.00000000
     atom    3 type  2   force =     0.00000000    0.00000000    0.00000000
     atom    4 type  2   force =     0.00000000    0.00000000    0.00000000

     Total force =     0.000000     Total SCF correction =     0.000000

     General routines

     Parallel routines

   This run was terminated on:  15:50: 6  14Nov2017

   JOB DONE.