     Program PWSCF v.5.1rc2 starts on 14Nov2017 at 14:25:16

     Current dimensions of program PWSCF are:
     Max number of different atomic species (ntypx) = 10
     Max number of k-points (npk) =  40000
     Max angular momentum in pseudopotentials (lmaxx) =  3

     IMPORTANT: XC functional enforced from input :
     Exchange-correlation      = BEEF-VDW ( 1  4 27 13 2)
     Any further DFT definition will be discarded
     Please, verify this is what you really want

     Found symmetry operation: I + ( -0.5000 -0.5000  0.0000)
     This is a supercell, fractional translations are disabled

     bravais-lattice index     =            0
     lattice parameter (alat)  =       1.8897  a.u.
     unit-cell volume          =     500.0408 (a.u.)^3
     number of atoms/cell      =            4
     number of atomic types    =            2
     number of electrons       =        56.00
     number of Kohn-Sham states=           48
     kinetic-energy cutoff     =      58.7989  Ry
     charge density cutoff     =     587.9892  Ry
     convergence threshold     =      1.0E-06
     mixing beta               =       0.1000
     number of iterations used =           10  plain     mixing
     Exchange-correlation      = BEEF-VDW ( 1  4 27 13 2)

     celldm(1)=   1.889726  celldm(2)=   0.000000  celldm(3)=   0.000000
     celldm(4)=   0.000000  celldm(5)=   0.000000  celldm(6)=   0.000000

     crystal axes: (cart. coord. in units of alat)
               a(1) = (   4.649223   0.000000   0.000000 )
               a(2) = (   0.000000   4.649223   0.000000 )
               a(3) = (   0.000000   0.000000   3.428058 )

     reciprocal axes: (cart. coord. in units 2 pi/alat)
               b(1) = (  0.215090  0.000000  0.000000 )
               b(2) = (  0.000000  0.215090  0.000000 )
               b(3) = (  0.000000  0.000000  0.291710 )

     PseudoPot. # 1 for Hf read from file:
     /home/users/vossj/suncat/psp/gbrv1.5pbe/Hf.UPF
     MD5 check sum: 8ee9378dfe14276e333edf04c5e4aa26
     Pseudo is Ultrasoft + core correction, Zval = 12.0
     Generated by new atomic code, or converted to UPF format
     Using radial grid of  921 points,  8 beta functions with:
                l(1) =   0
                l(2) =   0
                l(3) =   0
                l(4) =   1
                l(5) =   1
                l(6) =   2
                l(7) =   2
                l(8) =   3
     Q(r) pseudized with  6 coefficients,  rinner =    1.200   1.200   1.200
                                                       1.200   1.200   1.200
                                                       1.200

     PseudoPot. # 2 for Pt read from file:
     /home/users/vossj/suncat/psp/gbrv1.5pbe/Pt.UPF
     MD5 check sum: f09d6de1a584b5a045c4fc126da2d0c4
     Pseudo is Ultrasoft + core correction, Zval = 16.0
     Generated by new atomic code, or converted to UPF format
     Using radial grid of  985 points,  6 beta functions with:
                l(1) =   0
                l(2) =   0
                l(3) =   1
                l(4) =   1
                l(5) =   2
                l(6) =   2
     Q(r) pseudized with  8 coefficients,  rinner =    1.300   1.300   1.300
                                                       1.300   1.300

     vdW kernel table read from file vdW_kernel_table
     MD5 check sum: 095c7af220d748ca6e76c0b4c6cfb241

     atomic species   valence    mass     pseudopotential
        Hf1           12.00   178.49000     Hf( 1.00)
        Pt1           16.00   195.08000     Pt( 1.00)

     16 Sym. Ops., with inversion, found

   Cartesian axes

     site n.     atom                  positions (alat units)
         1           Hf1 tau(   1) = (   0.0000000   0.0000000   0.0000000  )
         2           Hf1 tau(   2) = (   2.3246114   2.3246114   0.0000000  )
         3           Pt1 tau(   3) = (   2.3246114   0.0000000   1.7140289  )
         4           Pt1 tau(   4) = (   0.0000000   2.3246114   1.7140289  )

     number of k points=    75  Fermi-Dirac smearing, width (Ry)=  0.0073
                       cart. coord. in units 2pi/alat
        k(    1) = (   0.0000000   0.0000000   0.0000000), wk =   0.0027435
        k(    2) = (   0.0000000   0.0000000   0.0324123), wk =   0.0054870
        k(    3) = (   0.0000000   0.0000000   0.0648245), wk =   0.0054870
        k(    4) = (   0.0000000   0.0000000   0.0972368), wk =   0.0054870
        k(    5) = (   0.0000000   0.0000000   0.1296490), wk =   0.0054870
        k(    6) = (   0.0000000   0.0238989   0.0000000), wk =   0.0109739
        k(    7) = (   0.0000000   0.0238989   0.0324123), wk =   0.0219479
        k(    8) = (   0.0000000   0.0238989   0.0648245), wk =   0.0219479
        k(    9) = (   0.0000000   0.0238989   0.0972368), wk =   0.0219479
        k(   10) = (   0.0000000   0.0238989   0.1296490), wk =   0.0219479
        k(   11) = (   0.0000000   0.0477977   0.0000000), wk =   0.0109739
        k(   12) = (   0.0000000   0.0477977   0.0324123), wk =   0.0219479
        k(   13) = (   0.0000000   0.0477977   0.0648245), wk =   0.0219479
        k(   14) = (   0.0000000   0.0477977   0.0972368), wk =   0.0219479
        k(   15) = (   0.0000000   0.0477977   0.1296490), wk =   0.0219479
        k(   16) = (   0.0000000   0.0716966   0.0000000), wk =   0.0109739
        k(   17) = (   0.0000000   0.0716966   0.0324123), wk =   0.0219479
        k(   18) = (   0.0000000   0.0716966   0.0648245), wk =   0.0219479
        k(   19) = (   0.0000000   0.0716966   0.0972368), wk =   0.0219479
        k(   20) = (   0.0000000   0.0716966   0.1296490), wk =   0.0219479
        k(   21) = (   0.0000000   0.0955954   0.0000000), wk =   0.0109739
        k(   22) = (   0.0000000   0.0955954   0.0324123), wk =   0.0219479
        k(   23) = (   0.0000000   0.0955954   0.0648245), wk =   0.0219479
        k(   24) = (   0.0000000   0.0955954   0.0972368), wk =   0.0219479
        k(   25) = (   0.0000000   0.0955954   0.1296490), wk =   0.0219479
        k(   26) = (   0.0238989   0.0238989   0.0000000), wk =   0.0109739
        k(   27) = (   0.0238989   0.0238989   0.0324123), wk =   0.0219479
        k(   28) = (   0.0238989   0.0238989   0.0648245), wk =   0.0219479
        k(   29) = (   0.0238989   0.0238989   0.0972368), wk =   0.0219479
        k(   30) = (   0.0238989   0.0238989   0.1296490), wk =   0.0219479
        k(   31) = (   0.0238989   0.0477977   0.0000000), wk =   0.0219479
        k(   32) = (   0.0238989   0.0477977   0.0324123), wk =   0.0438957
        k(   33) = (   0.0238989   0.0477977   0.0648245), wk =   0.0438957
        k(   34) = (   0.0238989   0.0477977   0.0972368), wk =   0.0438957
        k(   35) = (   0.0238989   0.0477977   0.1296490), wk =   0.0438957
        k(   36) = (   0.0238989   0.0716966   0.0000000), wk =   0.0219479
        k(   37) = (   0.0238989   0.0716966   0.0324123), wk =   0.0438957
        k(   38) = (   0.0238989   0.0716966   0.0648245), wk =   0.0438957
        k(   39) = (   0.0238989   0.0716966   0.0972368), wk =   0.0438957
        k(   40) = (   0.0238989   0.0716966   0.1296490), wk =   0.0438957
        k(   41) = (   0.0238989   0.0955954   0.0000000), wk =   0.0219479
        k(   42) = (   0.0238989   0.0955954   0.0324123), wk =   0.0438957
        k(   43) = (   0.0238989   0.0955954   0.0648245), wk =   0.0438957
        k(   44) = (   0.0238989   0.0955954   0.0972368), wk =   0.0438957
        k(   45) = (   0.0238989   0.0955954   0.1296490), wk =   0.0438957
        k(   46) = (   0.0477977   0.0477977   0.0000000), wk =   0.0109739
        k(   47) = (   0.0477977   0.0477977   0.0324123), wk =   0.0219479
        k(   48) = (   0.0477977   0.0477977   0.0648245), wk =   0.0219479
        k(   49) = (   0.0477977   0.0477977   0.0972368), wk =   0.0219479
        k(   50) = (   0.0477977   0.0477977   0.1296490), wk =   0.0219479
        k(   51) = (   0.0477977   0.0716966   0.0000000), wk =   0.0219479
        k(   52) = (   0.0477977   0.0716966   0.0324123), wk =   0.0438957
        k(   53) = (   0.0477977   0.0716966   0.0648245), wk =   0.0438957
        k(   54) = (   0.0477977   0.0716966   0.0972368), wk =   0.0438957
        k(   55) = (   0.0477977   0.0716966   0.1296490), wk =   0.0438957
        k(   56) = (   0.0477977   0.0955954   0.0000000), wk =   0.0219479
        k(   57) = (   0.0477977   0.0955954   0.0324123), wk =   0.0438957
        k(   58) = (   0.0477977   0.0955954   0.0648245), wk =   0.0438957
        k(   59) = (   0.0477977   0.0955954   0.0972368), wk =   0.0438957
        k(   60) = (   0.0477977   0.0955954   0.1296490), wk =   0.0438957
        k(   61) = (   0.0716966   0.0716966   0.0000000), wk =   0.0109739
        k(   62) = (   0.0716966   0.0716966   0.0324123), wk =   0.0219479
        k(   63) = (   0.0716966   0.0716966   0.0648245), wk =   0.0219479
        k(   64) = (   0.0716966   0.0716966   0.0972368), wk =   0.0219479
        k(   65) = (   0.0716966   0.0716966   0.1296490), wk =   0.0219479
        k(   66) = (   0.0716966   0.0955954   0.0000000), wk =   0.0219479
        k(   67) = (   0.0716966   0.0955954   0.0324123), wk =   0.0438957
        k(   68) = (   0.0716966   0.0955954   0.0648245), wk =   0.0438957
        k(   69) = (   0.0716966   0.0955954   0.0972368), wk =   0.0438957
        k(   70) = (   0.0716966   0.0955954   0.1296490), wk =   0.0438957
        k(   71) = (   0.0955954   0.0955954   0.0000000), wk =   0.0109739
        k(   72) = (   0.0955954   0.0955954   0.0324123), wk =   0.0219479
        k(   73) = (   0.0955954   0.0955954   0.0648245), wk =   0.0219479
        k(   74) = (   0.0955954   0.0955954   0.0972368), wk =   0.0219479
        k(   75) = (   0.0955954   0.0955954   0.1296490), wk =   0.0219479

     Largest allocated arrays     est. size (Mb)     dimensions
     Largest temporary arrays     est. size (Mb)     dimensions

     Initial potential from superposition of free atoms
     Check: negative starting charge=   -0.585544

     starting charge   50.99997, renormalised to   56.00000

     negative rho (up, down):  6.430E-01 0.000E+00

     *
     * You are using vdW-DF for exchange-correlation in this calculation.
     * Please cite the following three references that made this development
     * possible:
     *
     *   M. Dion, H. Rydberg, E. Schroder, D. C. Langreth, and
     *   B. I. Lundqvist, Phys. Rev. Lett. 92, 246401 (2004).
     *
     *   T. Thonhauser, V. R. Cooper, S. Li, A. Puzder, P. Hyldgaard, and
     *   D. C. Langreth, Phys. Rev. B 76, 125112 (2007).
     *
     *   G. Roman-Perez and J. M. Soler, Phys. Rev. Lett. 103, 096102 (2009).
     *
     *
     * If you are using vdW-DF2, please also cite:
     *
     *   K. Lee, E. D. Murray, L. Kong, B. I. Lundqvist, and
     *   D. C. Langreth, Phys. Rev. B 82, 081101(R) (2010).
     *
     *
     * If you are calculating the stress with vdW-DF, please also cite:
     *
     *   R. Sabatini, E. Kucukbenli, B. Kolb, T. Thonhauser, and
     *   S. de Gironcoli, J. Phys.: Condens. Matter 24, 424209 (2012).
     *

     Carrying out vdW-DF run using the following parameters:

     Nqs =      20    Nr_points =    1024   r_max =   100.000
     q_mesh =
               0.00001000     0.04494208     0.09755937     0.15916263
               0.23128650     0.31572767     0.41458969     0.53033537
               0.66584808     0.82450364     1.01025438     1.22772762
               1.48234092     1.78043706     2.12944203     2.53805004
               3.01644009     3.57652955     4.23227104     5.00000000

     Gradients computed in reciprocal space

     Starting wfc are   50 randomized atomic wfcs

     Self-consistent Calculation

     iteration #  1     ecut=    58.80 Ry     beta=0.10
     Davidson diagonalization with overlap
     ethr =  1.00E-02,  avg # of iterations =  4.3

[...]

     total energy              =    -747.12486514 Ry
     Harris-Foulkes estimate   =    -750.39267047 Ry
     estimated scf accuracy    <      20.51968424 Ry

[...]

     total energy              =    -746.22349283 Ry
     Harris-Foulkes estimate   =    -746.22349132 Ry
     estimated scf accuracy    <       0.00000190 Ry

     iteration # 12     ecut=    58.80 Ry     beta=0.10
     Davidson diagonalization with overlap
     ethr =  3.38E-09,  avg # of iterations =  1.0

     negative rho (up, down):  5.880E-01 0.000E+00

     End of self-consistent calculation

          k = 0.0000 0.0000 0.0000 (  3787 PWs)   bands (ev):

   -44.8625 -44.8388 -35.0819 -35.0819 -35.0632 -35.0571 -35.0511 -35.0511
   -13.4859 -13.4859 -13.2981 -13.2497 -13.2328 -13.2328   9.3092  12.2765
    12.2846  12.6395  12.6919  13.7151  13.7151  14.9509  14.9509  15.1802
    16.4405  17.1923  18.5181  18.5181  19.0587  19.4656  20.3166  22.4351
    22.4351  22.7018  22.7018  22.7633  23.4834  24.3207  25.4046  25.4046
    26.5847  27.1330  29.2815  29.2815  30.1486  30.4332  32.2651  32.9679

[...]

          k = 0.0956 0.0956 0.1296 (  3829 PWs)   bands (ev):

   -44.8446 -44.8439 -35.0831 -35.0822 -35.0798 -35.0797 -35.0475 -35.0466
   -13.4982 -13.4907 -13.4518 -13.4498 -13.2046 -13.1967  12.2301  12.2933
    12.3632  12.3649  14.0192  14.0517  14.0692  14.1130  15.9798  16.0237
    16.5654  16.8620  17.9377  18.1482  18.3469  18.4324  19.6730  19.7373
    22.2305  22.4435  22.5291  22.6341  23.1500  23.2249  26.2019  26.2779
    26.9072  27.2373  29.7445  29.7709  29.8220  29.9929  31.2143  31.3014

     the Fermi energy is    18.2544 ev

!    total energy              =    -746.22350634 Ry
     Harris-Foulkes estimate   =    -746.22349293 Ry
     estimated scf accuracy    <       0.00000051 Ry

     The total energy is the sum of the following terms:

     one-electron contribution =    -103.82726994 Ry
     hartree contribution      =      87.82878118 Ry
     xc contribution           =    -272.16874824 Ry
     ewald contribution        =    -458.04802080 Ry
     smearing contrib. (-TS)   =      -0.00824854 Ry

     convergence has been achieved in  12 iterations

     Forces acting on atoms (Ry/au):

     negative rho (up, down):  5.880E-01 0.000E+00
     atom    1 type  1   force =     0.00000000    0.00000000    0.00000000
     atom    2 type  1   force =     0.00000000    0.00000000    0.00000000
     atom    3 type  2   force =     0.00000000    0.00000000    0.00000000
     atom    4 type  2   force =     0.00000000    0.00000000    0.00000000

     Total force =     0.000000     Total SCF correction =     0.000000

     General routines

     Parallel routines

   This run was terminated on:  14:25:58  14Nov2017

   JOB DONE.