     Program PWSCF v.5.1rc2 starts on 14Nov2017 at 10: 7:15

     Current dimensions of program PWSCF are:
     Max number of different atomic species (ntypx) = 10
     Max number of k-points (npk) =  40000
     Max angular momentum in pseudopotentials (lmaxx) =  3

     IMPORTANT: XC functional enforced from input :
     Exchange-correlation      = BEEF-VDW ( 1  4 27 13 2)
     Any further DFT definition will be discarded
     Please, verify this is what you really want

     Found symmetry operation: I + ( -0.5000 -0.5000  0.0000)
     This is a supercell, fractional translations are disabled

     bravais-lattice index     =            0
     lattice parameter (alat)  =       1.8897  a.u.
     unit-cell volume          =     616.5828 (a.u.)^3
     number of atoms/cell      =            4
     number of atomic types    =            2
     number of electrons       =        68.00
     number of Kohn-Sham states=           54
     kinetic-energy cutoff     =      58.7989  Ry
     charge density cutoff     =     587.9892  Ry
     convergence threshold     =      1.0E-06
     mixing beta               =       0.1000
     number of iterations used =           10  plain     mixing
     Exchange-correlation      = BEEF-VDW ( 1  4 27 13 2)

     celldm(1)=   1.889726  celldm(2)=   0.000000  celldm(3)=   0.000000
     celldm(4)=   0.000000  celldm(5)=   0.000000  celldm(6)=   0.000000

     crystal axes: (cart. coord. in units of alat)
               a(1) = (   4.712252   0.000000   0.000000 )
               a(2) = (   0.000000   4.712252   0.000000 )
               a(3) = (   0.000000   0.000000   4.114697 )

     reciprocal axes: (cart. coord. in units 2 pi/alat)
               b(1) = (  0.212213  0.000000  0.000000 )
               b(2) = (  0.000000  0.212213  0.000000 )
               b(3) = (  0.000000  0.000000  0.243031 )

     PseudoPot. # 1 for Zn read from file:
     /home/users/vossj/suncat/psp/gbrv1.5pbe/Zn.UPF
     MD5 check sum: df62231357ef9e81f77b2b3087fa5675
     Pseudo is Ultrasoft, Zval = 20.0
     Generated by new atomic code, or converted to UPF format
     Using radial grid of  943 points,  6 beta functions with:
                l(1) =   0
                l(2) =   0
                l(3) =   1
                l(4) =   1
                l(5) =   2
                l(6) =   2
     Q(r) pseudized with  8 coefficients,  rinner =    1.100   1.100   1.100
                                                       1.100   1.100

     PseudoPot. # 2 for Sn read from file:
     /home/users/vossj/suncat/psp/gbrv1.5pbe/Sn.UPF
     MD5 check sum: 469debedee59599fedebd795477fea03
     Pseudo is Ultrasoft + core correction, Zval = 14.0
     Generated by new atomic code, or converted to UPF format
     Using radial grid of  891 points,  6 beta functions with:
                l(1) =   0
                l(2) =   0
                l(3) =   1
                l(4) =   1
                l(5) =   2
                l(6) =   2
     Q(r) pseudized with  8 coefficients,  rinner =    1.350   1.350   1.350
                                                       1.350   1.350

     vdW kernel table read from file vdW_kernel_table
     MD5 check sum: 095c7af220d748ca6e76c0b4c6cfb241

     atomic species   valence    mass     pseudopotential
        Zn1           20.00    65.39000     Zn( 1.00)
        Sn1           14.00   118.71000     Sn( 1.00)

     16 Sym. Ops., with inversion, found

   Cartesian axes

     site n.     atom                  positions (alat units)
         1           Zn1 tau(   1) = (   0.0000000   0.0000000   0.0000000  )
         2           Zn1 tau(   2) = (   2.3561258   2.3561258   0.0000000  )
         3           Sn1 tau(   3) = (   2.3561258   0.0000000   2.0573483  )
         4           Sn1 tau(   4) = (   0.0000000   2.3561258   2.0573483  )

     number of k points=    75  Fermi-Dirac smearing, width (Ry)=  0.0073
                       cart. coord. in units 2pi/alat
        k(    1) = (   0.0000000   0.0000000   0.0000000), wk =   0.0027435
        k(    2) = (   0.0000000   0.0000000   0.0270035), wk =   0.0054870
        k(    3) = (   0.0000000   0.0000000   0.0540070), wk =   0.0054870
        k(    4) = (   0.0000000   0.0000000   0.0810104), wk =   0.0054870
        k(    5) = (   0.0000000   0.0000000   0.1080139), wk =   0.0054870
        k(    6) = (   0.0000000   0.0235792   0.0000000), wk =   0.0109739
        k(    7) = (   0.0000000   0.0235792   0.0270035), wk =   0.0219479
        k(    8) = (   0.0000000   0.0235792   0.0540070), wk =   0.0219479
        k(    9) = (   0.0000000   0.0235792   0.0810104), wk =   0.0219479
        k(   10) = (   0.0000000   0.0235792   0.1080139), wk =   0.0219479
        k(   11) = (   0.0000000   0.0471584   0.0000000), wk =   0.0109739
        k(   12) = (   0.0000000   0.0471584   0.0270035), wk =   0.0219479
        k(   13) = (   0.0000000   0.0471584   0.0540070), wk =   0.0219479
        k(   14) = (   0.0000000   0.0471584   0.0810104), wk =   0.0219479
        k(   15) = (   0.0000000   0.0471584   0.1080139), wk =   0.0219479
        k(   16) = (   0.0000000   0.0707376   0.0000000), wk =   0.0109739
        k(   17) = (   0.0000000   0.0707376   0.0270035), wk =   0.0219479
        k(   18) = (   0.0000000   0.0707376   0.0540070), wk =   0.0219479
        k(   19) = (   0.0000000   0.0707376   0.0810104), wk =   0.0219479
        k(   20) = (   0.0000000   0.0707376   0.1080139), wk =   0.0219479
        k(   21) = (   0.0000000   0.0943168   0.0000000), wk =   0.0109739
        k(   22) = (   0.0000000   0.0943168   0.0270035), wk =   0.0219479
        k(   23) = (   0.0000000   0.0943168   0.0540070), wk =   0.0219479
        k(   24) = (   0.0000000   0.0943168   0.0810104), wk =   0.0219479
        k(   25) = (   0.0000000   0.0943168   0.1080139), wk =   0.0219479
        k(   26) = (   0.0235792   0.0235792   0.0000000), wk =   0.0109739
        k(   27) = (   0.0235792   0.0235792   0.0270035), wk =   0.0219479
        k(   28) = (   0.0235792   0.0235792   0.0540070), wk =   0.0219479
        k(   29) = (   0.0235792   0.0235792   0.0810104), wk =   0.0219479
        k(   30) = (   0.0235792   0.0235792   0.1080139), wk =   0.0219479
        k(   31) = (   0.0235792   0.0471584   0.0000000), wk =   0.0219479
        k(   32) = (   0.0235792   0.0471584   0.0270035), wk =   0.0438957
        k(   33) = (   0.0235792   0.0471584   0.0540070), wk =   0.0438957
        k(   34) = (   0.0235792   0.0471584   0.0810104), wk =   0.0438957
        k(   35) = (   0.0235792   0.0471584   0.1080139), wk =   0.0438957
        k(   36) = (   0.0235792   0.0707376   0.0000000), wk =   0.0219479
        k(   37) = (   0.0235792   0.0707376   0.0270035), wk =   0.0438957
        k(   38) = (   0.0235792   0.0707376   0.0540070), wk =   0.0438957
        k(   39) = (   0.0235792   0.0707376   0.0810104), wk =   0.0438957
        k(   40) = (   0.0235792   0.0707376   0.1080139), wk =   0.0438957
        k(   41) = (   0.0235792   0.0943168   0.0000000), wk =   0.0219479
        k(   42) = (   0.0235792   0.0943168   0.0270035), wk =   0.0438957
        k(   43) = (   0.0235792   0.0943168   0.0540070), wk =   0.0438957
        k(   44) = (   0.0235792   0.0943168   0.0810104), wk =   0.0438957
        k(   45) = (   0.0235792   0.0943168   0.1080139), wk =   0.0438957
        k(   46) = (   0.0471584   0.0471584   0.0000000), wk =   0.0109739
        k(   47) = (   0.0471584   0.0471584   0.0270035), wk =   0.0219479
        k(   48) = (   0.0471584   0.0471584   0.0540070), wk =   0.0219479
        k(   49) = (   0.0471584   0.0471584   0.0810104), wk =   0.0219479
        k(   50) = (   0.0471584   0.0471584   0.1080139), wk =   0.0219479
        k(   51) = (   0.0471584   0.0707376   0.0000000), wk =   0.0219479
        k(   52) = (   0.0471584   0.0707376   0.0270035), wk =   0.0438957
        k(   53) = (   0.0471584   0.0707376   0.0540070), wk =   0.0438957
        k(   54) = (   0.0471584   0.0707376   0.0810104), wk =   0.0438957
        k(   55) = (   0.0471584   0.0707376   0.1080139), wk =   0.0438957
        k(   56) = (   0.0471584   0.0943168   0.0000000), wk =   0.0219479
        k(   57) = (   0.0471584   0.0943168   0.0270035), wk =   0.0438957
        k(   58) = (   0.0471584   0.0943168   0.0540070), wk =   0.0438957
        k(   59) = (   0.0471584   0.0943168   0.0810104), wk =   0.0438957
        k(   60) = (   0.0471584   0.0943168   0.1080139), wk =   0.0438957
        k(   61) = (   0.0707376   0.0707376   0.0000000), wk =   0.0109739
        k(   62) = (   0.0707376   0.0707376   0.0270035), wk =   0.0219479
        k(   63) = (   0.0707376   0.0707376   0.0540070), wk =   0.0219479
        k(   64) = (   0.0707376   0.0707376   0.0810104), wk =   0.0219479
        k(   65) = (   0.0707376   0.0707376   0.1080139), wk =   0.0219479
        k(   66) = (   0.0707376   0.0943168   0.0000000), wk =   0.0219479
        k(   67) = (   0.0707376   0.0943168   0.0270035), wk =   0.0438957
        k(   68) = (   0.0707376   0.0943168   0.0540070), wk =   0.0438957
        k(   69) = (   0.0707376   0.0943168   0.0810104), wk =   0.0438957
        k(   70) = (   0.0707376   0.0943168   0.1080139), wk =   0.0438957
        k(   71) = (   0.0943168   0.0943168   0.0000000), wk =   0.0109739
        k(   72) = (   0.0943168   0.0943168   0.0270035), wk =   0.0219479
        k(   73) = (   0.0943168   0.0943168   0.0540070), wk =   0.0219479
        k(   74) = (   0.0943168   0.0943168   0.0810104), wk =   0.0219479
        k(   75) = (   0.0943168   0.0943168   0.1080139), wk =   0.0219479

     Largest allocated arrays     est. size (Mb)     dimensions
     Largest temporary arrays     est. size (Mb)     dimensions

     Initial potential from superposition of free atoms

     starting charge   65.99963, renormalised to   68.00000

     *
     * You are using vdW-DF for exchange-correlation in this calculation.
     * Please cite the following three references that made this development
     * possible:
     *
     *   M. Dion, H. Rydberg, E. Schroder, D. C. Langreth, and
     *   B. I. Lundqvist, Phys. Rev. Lett. 92, 246401 (2004).
     *
     *   T. Thonhauser, V. R. Cooper, S. Li, A. Puzder, P. Hyldgaard, and
     *   D. C. Langreth, Phys. Rev. B 76, 125112 (2007).
     *
     *   G. Roman-Perez and J. M. Soler, Phys. Rev. Lett. 103, 096102 (2009).
     *
     *
     * If you are using vdW-DF2, please also cite:
     *
     *   K. Lee, E. D. Murray, L. Kong, B. I. Lundqvist, and
     *   D. C. Langreth, Phys. Rev. B 82, 081101(R) (2010).
     *
     *
     * If you are calculating the stress with vdW-DF, please also cite:
     *
     *   R. Sabatini, E. Kucukbenli, B. Kolb, T. Thonhauser, and
     *   S. de Gironcoli, J. Phys.: Condens. Matter 24, 424209 (2012).
     *

     Carrying out vdW-DF run using the following parameters:

     Nqs =      20    Nr_points =    1024   r_max =   100.000
     q_mesh =
               0.00001000     0.04494208     0.09755937     0.15916263
               0.23128650     0.31572767     0.41458969     0.53033537
               0.66584808     0.82450364     1.01025438     1.22772762
               1.48234092     1.78043706     2.12944203     2.53805004
               3.01644009     3.57652955     4.23227104     5.00000000

     Gradients computed in reciprocal space

     Starting wfc are   44 randomized atomic wfcs +   10 random wfc

     Self-consistent Calculation

     iteration #  1     ecut=    58.80 Ry     beta=0.10
     Davidson diagonalization with overlap
     ethr =  1.00E-02,  avg # of iterations =  5.2

     total energy              =   -1243.90930367 Ry
     Harris-Foulkes estimate   =   -1249.75993335 Ry
     estimated scf accuracy    <      32.59406773 Ry

[...]

     total energy              =   -1246.96548057 Ry
     Harris-Foulkes estimate   =   -1246.96546009 Ry
     estimated scf accuracy    <       0.00001037 Ry

     iteration # 10     ecut=    58.80 Ry     beta=0.10
     Davidson diagonalization with overlap
     ethr =  1.53E-08,  avg # of iterations =  2.0

     End of self-consistent calculation

          k = 0.0000 0.0000 0.0000 (  4727 PWs)   bands (ev):

  -115.8546-115.8546 -70.0378 -70.0377 -70.0374 -70.0374 -70.0367 -70.0367
   -11.5149 -11.4538 -11.4411 -11.4120 -11.4120 -11.3653 -11.3653 -11.3563
   -11.3473 -11.2812   0.1341   2.8665   3.0920   3.1382   3.2056   3.2056
     3.2684   3.3053   3.3053   3.3582   3.4539   6.1150   7.6200   7.6200
     9.0445   9.3122  10.2940  13.4915  13.4915  14.3076  16.3755  16.3755
    16.3917  16.9248  17.3614  19.1774  19.2350  19.2350  19.6145  21.6250
    22.0906  22.0906  24.1145  25.3455  25.3455  25.9172

[...]

          k = 0.0943 0.0943 0.1080 (  4717 PWs)   bands (ev):

  -115.8546-115.8546 -70.0378 -70.0378 -70.0375 -70.0374 -70.0367 -70.0367
   -11.4561 -11.4509 -11.4276 -11.4261 -11.3943 -11.3911 -11.3664 -11.3649
   -11.3277 -11.3234   2.5291   2.5677   3.1543   3.1645   3.2654   3.2766
     3.2925   3.3005   3.3549   3.3612   4.5661   4.8240   6.4764   6.6827
     7.0015   7.5078   7.9606   8.5538  16.5519  16.9036  18.7544  19.3214
    19.3945  19.4748  19.5004  19.9793  22.1211  22.4999  22.5918  22.9062
    23.2085  23.2786  23.3113  23.9986  24.1148  24.2982

     the Fermi energy is    10.5551 ev

!    total energy              =   -1246.96558425 Ry
     Harris-Foulkes estimate   =   -1246.96548245 Ry
     estimated scf accuracy    <       0.00000074 Ry

     The total energy is the sum of the following terms:

     one-electron contribution =    -940.60453439 Ry
     hartree contribution      =     502.50903484 Ry
     xc contribution           =    -175.83315875 Ry
     ewald contribution        =    -633.03294649 Ry
     smearing contrib. (-TS)   =      -0.00397946 Ry

     convergence has been achieved in  10 iterations

     Forces acting on atoms (Ry/au):

     atom    1 type  1   force =     0.00000000    0.00000000    0.00000000
     atom    2 type  1   force =     0.00000000    0.00000000    0.00000000
     atom    3 type  2   force =     0.00000000    0.00000000    0.00000000
     atom    4 type  2   force =     0.00000000    0.00000000    0.00000000

     Total force =     0.000000     Total SCF correction =     0.000000

     General routines

     Parallel routines

   This run was terminated on:  10: 8:11  14Nov2017

   JOB DONE.