     Program PWSCF v.5.1rc2 starts on 15Nov2017 at  3: 9:43

     Current dimensions of program PWSCF are:
     Max number of different atomic species (ntypx) = 10
     Max number of k-points (npk) =  40000
     Max angular momentum in pseudopotentials (lmaxx) =  3

     IMPORTANT: XC functional enforced from input :
     Exchange-correlation      = BEEF-VDW ( 1  4 27 13 2)
     Any further DFT definition will be discarded
     Please, verify this is what you really want

     Found symmetry operation: I + ( -0.5000 -0.5000  0.0000)
     This is a supercell, fractional translations are disabled

     bravais-lattice index     =            0
     lattice parameter (alat)  =       1.8897  a.u.
     unit-cell volume          =     425.7982 (a.u.)^3
     number of atoms/cell      =            4
     number of atomic types    =            2
     number of electrons       =        52.00
     number of Kohn-Sham states=           46
     kinetic-energy cutoff     =      58.7989  Ry
     charge density cutoff     =     587.9892  Ry
     convergence threshold     =      1.0E-06
     mixing beta               =       0.1000
     number of iterations used =           10  plain     mixing
     Exchange-correlation      = BEEF-VDW ( 1  4 27 13 2)

     celldm(1)=   1.889726  celldm(2)=   0.000000  celldm(3)=   0.000000
     celldm(4)=   0.000000  celldm(5)=   0.000000  celldm(6)=   0.000000

     crystal axes: (cart. coord. in units of alat)
               a(1) = (   4.475296   0.000000   0.000000 )
               a(2) = (   0.000000   4.475296   0.000000 )
               a(3) = (   0.000000   0.000000   3.150386 )

     reciprocal axes: (cart. coord. in units 2 pi/alat)
               b(1) = (  0.223449  0.000000  0.000000 )
               b(2) = (  0.000000  0.223449  0.000000 )
               b(3) = (  0.000000  0.000000  0.317421 )

     PseudoPot. # 1 for Sc read from file:
     /home/users/vossj/suncat/psp/gbrv1.5pbe/Sc.UPF
     MD5 check sum: db30a2753ba66ef00f23801d899b7e7f
     Pseudo is Ultrasoft + core correction, Zval = 11.0
     Generated by new atomic code, or converted to UPF format
     Using radial grid of  849 points,  6 beta functions with:
                l(1) =   0
                l(2) =   0
                l(3) =   1
                l(4) =   1
                l(5) =   2
                l(6) =   2
     Q(r) pseudized with  6 coefficients,  rinner =    1.200   1.200   1.200
                                                       1.200   1.200

     PseudoPot. # 2 for Mn read from file:
     /home/users/vossj/suncat/psp/gbrv1.5pbe/Mn.UPF
     MD5 check sum: 82ef2b46521d7a7d9e736dc3972e4928
     Pseudo is Ultrasoft + core correction, Zval = 15.0
     Generated by new atomic code, or converted to UPF format
     Using radial grid of  859 points,  6 beta functions with:
                l(1) =   0
                l(2) =   0
                l(3) =   1
                l(4) =   1
                l(5) =   2
                l(6) =   2
     Q(r) pseudized with  8 coefficients,  rinner =    0.950   0.950   0.950
                                                       0.950   0.950

     vdW kernel table read from file vdW_kernel_table
     MD5 check sum: 095c7af220d748ca6e76c0b4c6cfb241

     atomic species   valence    mass     pseudopotential
        Sc1           11.00    44.95590     Sc( 1.00)
        Mn1           15.00    54.93800     Mn( 1.00)

     16 Sym. Ops., with inversion, found

   Cartesian axes

     site n.     atom                  positions (alat units)
         1           Sc1 tau(   1) = (   0.0000000   0.0000000   0.0000000  )
         2           Sc1 tau(   2) = (   2.2376478   2.2376478   0.0000000  )
         3           Mn1 tau(   3) = (   2.2376478   0.0000000   1.5751930  )
         4           Mn1 tau(   4) = (   0.0000000   2.2376478   1.5751930  )

     number of k points=    75  Fermi-Dirac smearing, width (Ry)=  0.0073
                       cart. coord. in units 2pi/alat
        k(    1) = (   0.0000000   0.0000000   0.0000000), wk =   0.0027435
        k(    2) = (   0.0000000   0.0000000   0.0352690), wk =   0.0054870
        k(    3) = (   0.0000000   0.0000000   0.0705381), wk =   0.0054870
        k(    4) = (   0.0000000   0.0000000   0.1058071), wk =   0.0054870
        k(    5) = (   0.0000000   0.0000000   0.1410762), wk =   0.0054870
        k(    6) = (   0.0000000   0.0248277   0.0000000), wk =   0.0109739
        k(    7) = (   0.0000000   0.0248277   0.0352690), wk =   0.0219479
        k(    8) = (   0.0000000   0.0248277   0.0705381), wk =   0.0219479
        k(    9) = (   0.0000000   0.0248277   0.1058071), wk =   0.0219479
        k(   10) = (   0.0000000   0.0248277   0.1410762), wk =   0.0219479
        k(   11) = (   0.0000000   0.0496553   0.0000000), wk =   0.0109739
        k(   12) = (   0.0000000   0.0496553   0.0352690), wk =   0.0219479
        k(   13) = (   0.0000000   0.0496553   0.0705381), wk =   0.0219479
        k(   14) = (   0.0000000   0.0496553   0.1058071), wk =   0.0219479
        k(   15) = (   0.0000000   0.0496553   0.1410762), wk =   0.0219479
        k(   16) = (   0.0000000   0.0744830   0.0000000), wk =   0.0109739
        k(   17) = (   0.0000000   0.0744830   0.0352690), wk =   0.0219479
        k(   18) = (   0.0000000   0.0744830   0.0705381), wk =   0.0219479
        k(   19) = (   0.0000000   0.0744830   0.1058071), wk =   0.0219479
        k(   20) = (   0.0000000   0.0744830   0.1410762), wk =   0.0219479
        k(   21) = (   0.0000000   0.0993106   0.0000000), wk =   0.0109739
        k(   22) = (   0.0000000   0.0993106   0.0352690), wk =   0.0219479
        k(   23) = (   0.0000000   0.0993106   0.0705381), wk =   0.0219479
        k(   24) = (   0.0000000   0.0993106   0.1058071), wk =   0.0219479
        k(   25) = (   0.0000000   0.0993106   0.1410762), wk =   0.0219479
        k(   26) = (   0.0248277   0.0248277   0.0000000), wk =   0.0109739
        k(   27) = (   0.0248277   0.0248277   0.0352690), wk =   0.0219479
        k(   28) = (   0.0248277   0.0248277   0.0705381), wk =   0.0219479
        k(   29) = (   0.0248277   0.0248277   0.1058071), wk =   0.0219479
        k(   30) = (   0.0248277   0.0248277   0.1410762), wk =   0.0219479
        k(   31) = (   0.0248277   0.0496553   0.0000000), wk =   0.0219479
        k(   32) = (   0.0248277   0.0496553   0.0352690), wk =   0.0438957
        k(   33) = (   0.0248277   0.0496553   0.0705381), wk =   0.0438957
        k(   34) = (   0.0248277   0.0496553   0.1058071), wk =   0.0438957
        k(   35) = (   0.0248277   0.0496553   0.1410762), wk =   0.0438957
        k(   36) = (   0.0248277   0.0744830   0.0000000), wk =   0.0219479
        k(   37) = (   0.0248277   0.0744830   0.0352690), wk =   0.0438957
        k(   38) = (   0.0248277   0.0744830   0.0705381), wk =   0.0438957
        k(   39) = (   0.0248277   0.0744830   0.1058071), wk =   0.0438957
        k(   40) = (   0.0248277   0.0744830   0.1410762), wk =   0.0438957
        k(   41) = (   0.0248277   0.0993106   0.0000000), wk =   0.0219479
        k(   42) = (   0.0248277   0.0993106   0.0352690), wk =   0.0438957
        k(   43) = (   0.0248277   0.0993106   0.0705381), wk =   0.0438957
        k(   44) = (   0.0248277   0.0993106   0.1058071), wk =   0.0438957
        k(   45) = (   0.0248277   0.0993106   0.1410762), wk =   0.0438957
        k(   46) = (   0.0496553   0.0496553   0.0000000), wk =   0.0109739
        k(   47) = (   0.0496553   0.0496553   0.0352690), wk =   0.0219479
        k(   48) = (   0.0496553   0.0496553   0.0705381), wk =   0.0219479
        k(   49) = (   0.0496553   0.0496553   0.1058071), wk =   0.0219479
        k(   50) = (   0.0496553   0.0496553   0.1410762), wk =   0.0219479
        k(   51) = (   0.0496553   0.0744830   0.0000000), wk =   0.0219479
        k(   52) = (   0.0496553   0.0744830   0.0352690), wk =   0.0438957
        k(   53) = (   0.0496553   0.0744830   0.0705381), wk =   0.0438957
        k(   54) = (   0.0496553   0.0744830   0.1058071), wk =   0.0438957
        k(   55) = (   0.0496553   0.0744830   0.1410762), wk =   0.0438957
        k(   56) = (   0.0496553   0.0993106   0.0000000), wk =   0.0219479
        k(   57) = (   0.0496553   0.0993106   0.0352690), wk =   0.0438957
        k(   58) = (   0.0496553   0.0993106   0.0705381), wk =   0.0438957
        k(   59) = (   0.0496553   0.0993106   0.1058071), wk =   0.0438957
        k(   60) = (   0.0496553   0.0993106   0.1410762), wk =   0.0438957
        k(   61) = (   0.0744830   0.0744830   0.0000000), wk =   0.0109739
        k(   62) = (   0.0744830   0.0744830   0.0352690), wk =   0.0219479
        k(   63) = (   0.0744830   0.0744830   0.0705381), wk =   0.0219479
        k(   64) = (   0.0744830   0.0744830   0.1058071), wk =   0.0219479
        k(   65) = (   0.0744830   0.0744830   0.1410762), wk =   0.0219479
        k(   66) = (   0.0744830   0.0993106   0.0000000), wk =   0.0219479
        k(   67) = (   0.0744830   0.0993106   0.0352690), wk =   0.0438957
        k(   68) = (   0.0744830   0.0993106   0.0705381), wk =   0.0438957
        k(   69) = (   0.0744830   0.0993106   0.1058071), wk =   0.0438957
        k(   70) = (   0.0744830   0.0993106   0.1410762), wk =   0.0438957
        k(   71) = (   0.0993106   0.0993106   0.0000000), wk =   0.0109739
        k(   72) = (   0.0993106   0.0993106   0.0352690), wk =   0.0219479
        k(   73) = (   0.0993106   0.0993106   0.0705381), wk =   0.0219479
        k(   74) = (   0.0993106   0.0993106   0.1058071), wk =   0.0219479
        k(   75) = (   0.0993106   0.0993106   0.1410762), wk =   0.0219479

     Largest allocated arrays     est. size (Mb)     dimensions
     Largest temporary arrays     est. size (Mb)     dimensions

     Check: negative/imaginary core charge=   -0.000034    0.000000

     Initial potential from superposition of free atoms

     starting charge   50.99502, renormalised to   52.00000

     *
     * You are using vdW-DF for exchange-correlation in this calculation.
     * Please cite the following three references that made this development
     * possible:
     *
     *   M. Dion, H. Rydberg, E. Schroder, D. C. Langreth, and
     *   B. I. Lundqvist, Phys. Rev. Lett. 92, 246401 (2004).
     *
     *   T. Thonhauser, V. R. Cooper, S. Li, A. Puzder, P. Hyldgaard, and
     *   D. C. Langreth, Phys. Rev. B 76, 125112 (2007).
     *
     *   G. Roman-Perez and J. M. Soler, Phys. Rev. Lett. 103, 096102 (2009).
     *
     *
     * If you are using vdW-DF2, please also cite:
     *
     *   K. Lee, E. D. Murray, L. Kong, B. I. Lundqvist, and
     *   D. C. Langreth, Phys. Rev. B 82, 081101(R) (2010).
     *
     *
     * If you are calculating the stress with vdW-DF, please also cite:
     *
     *   R. Sabatini, E. Kucukbenli, B. Kolb, T. Thonhauser, and
     *   S. de Gironcoli, J. Phys.: Condens. Matter 24, 424209 (2012).
     *

     Carrying out vdW-DF run using the following parameters:

     Nqs =      20    Nr_points =    1024   r_max =   100.000
     q_mesh =
               0.00001000     0.04494208     0.09755937     0.15916263
               0.23128650     0.31572767     0.41458969     0.53033537
               0.66584808     0.82450364     1.01025438     1.22772762
               1.48234092     1.78043706     2.12944203     2.53805004
               3.01644009     3.57652955     4.23227104     5.00000000

     Gradients computed in reciprocal space

     Starting wfc are   52 randomized atomic wfcs

     Self-consistent Calculation

     iteration #  1     ecut=    58.80 Ry     beta=0.10
     Davidson diagonalization with overlap
     ethr =  1.00E-02,  avg # of iterations =  3.8

     total energy              =    -613.71127894 Ry
     Harris-Foulkes estimate   =    -614.20919579 Ry
     estimated scf accuracy    <       2.90456536 Ry

[...]

     total energy              =    -613.90162893 Ry
     Harris-Foulkes estimate   =    -613.90162679 Ry
     estimated scf accuracy    <       0.00000154 Ry

     iteration # 13     ecut=    58.80 Ry     beta=0.10
     Davidson diagonalization with overlap
     ethr =  2.95E-09,  avg # of iterations =  1.0

     End of self-consistent calculation

          k = 0.0000 0.0000 0.0000 (  3251 PWs)   bands (ev):

   -65.0439 -65.0398 -34.9687 -34.9080 -33.8033 -33.8033 -33.7748 -33.7737
   -33.7737 -33.7690 -13.7187 -13.7187 -13.4541 -13.4541 -13.4498 -13.3981
     7.5984  10.7701  11.3050  11.3232  11.3332  12.7430  12.7430  13.6461
    13.6653  13.6653  14.5464  15.0494  15.0991  15.0991  16.2066  16.2379
    16.6475  18.1426  18.1426  18.3661  18.3695  18.3695  18.7782  22.6143
    22.6143  22.7474  23.2230  23.3186  28.3926  28.3926

[...]

          k = 0.0993 0.0993 0.1411 (  3254 PWs)   bands (ev):

   -65.0397 -65.0396 -34.9096 -34.9071 -33.8048 -33.8044 -33.8023 -33.8012
   -33.7688 -33.7679 -13.7193 -13.7180 -13.7167 -13.7102 -13.4107 -13.4027
    10.7988  10.8357  11.3290  11.3535  12.7263  12.7301  12.7415  12.7799
    14.1969  14.3014  14.5549  14.8991  14.9127  15.3953  15.4309  15.4344
    16.6515  16.7040  18.0220  18.1386  18.2190  18.2266  18.8619  18.8796
    23.2624  23.2848  23.4502  23.6626  28.1156  28.3525

     the Fermi energy is    13.4891 ev

!    total energy              =    -613.90163831 Ry
     Harris-Foulkes estimate   =    -613.90162896 Ry
     estimated scf accuracy    <       0.00000028 Ry

     The total energy is the sum of the following terms:

     one-electron contribution =    -271.04905249 Ry
     hartree contribution      =     157.66230982 Ry
     xc contribution           =     -83.03434978 Ry
     ewald contribution        =    -417.45498747 Ry
     smearing contrib. (-TS)   =      -0.02555839 Ry

     convergence has been achieved in  13 iterations

     Forces acting on atoms (Ry/au):

     atom    1 type  1   force =     0.00000000    0.00000000    0.00000000
     atom    2 type  1   force =     0.00000000    0.00000000    0.00000000
     atom    3 type  2   force =     0.00000000    0.00000000    0.00000000
     atom    4 type  2   force =     0.00000000    0.00000000    0.00000000

     Total force =     0.000000     Total SCF correction =     0.000000

     General routines

     Parallel routines

   This run was terminated on:   3:10:19  15Nov2017

   JOB DONE.