     Program PWSCF v.5.1rc2 starts on 14Nov2017 at  8:57:11

     Current dimensions of program PWSCF are:
     Max number of different atomic species (ntypx) = 10
     Max number of k-points (npk) =  40000
     Max angular momentum in pseudopotentials (lmaxx) =  3

     IMPORTANT: XC functional enforced from input :
     Exchange-correlation      = BEEF-VDW ( 1  4 27 13 2)
     Any further DFT definition will be discarded
     Please, verify this is what you really want

     Found symmetry operation: I + ( -0.5000 -0.5000  0.0000)
     This is a supercell, fractional translations are disabled

     bravais-lattice index     =            0
     lattice parameter (alat)  =       1.8897  a.u.
     unit-cell volume          =     422.8078 (a.u.)^3
     number of atoms/cell      =            4
     number of atomic types    =            2
     number of electrons       =        60.00
     number of Kohn-Sham states=           50
     kinetic-energy cutoff     =      58.7989  Ry
     charge density cutoff     =     587.9892  Ry
     convergence threshold     =      1.0E-06
     mixing beta               =       0.1000
     number of iterations used =           10  plain     mixing
     Exchange-correlation      = BEEF-VDW ( 1  4 27 13 2)

     celldm(1)=   1.889726  celldm(2)=   0.000000  celldm(3)=   0.000000
     celldm(4)=   0.000000  celldm(5)=   0.000000  celldm(6)=   0.000000

     crystal axes: (cart. coord. in units of alat)
               a(1) = (   4.113649   0.000000   0.000000 )
               a(2) = (   0.000000   4.113649   0.000000 )
               a(3) = (   0.000000   0.000000   3.702474 )

     reciprocal axes: (cart. coord. in units 2 pi/alat)
               b(1) = (  0.243093  0.000000  0.000000 )
               b(2) = (  0.000000  0.243093  0.000000 )
               b(3) = (  0.000000  0.000000  0.270090 )

     PseudoPot. # 1 for Cu read from file:
     /home/users/vossj/suncat/psp/gbrv1.5pbe/Cu.UPF
     MD5 check sum: 6e991ff952a84172a2a52a1c1e996048
     Pseudo is Ultrasoft + core correction, Zval = 19.0
     Generated by new atomic code, or converted to UPF format
     Using radial grid of  867 points,  6 beta functions with:
                l(1) =   0
                l(2) =   0
                l(3) =   1
                l(4) =   1
                l(5) =   2
                l(6) =   2
     Q(r) pseudized with  8 coefficients,  rinner =    1.150   1.150   1.150
                                                       1.150   1.150

     PseudoPot. # 2 for Au read from file:
     /home/users/vossj/suncat/psp/gbrv1.5pbe/Au.UPF
     MD5 check sum: 9d7f43293ad2c663164586bc4b293ffc
     Pseudo is Ultrasoft + core correction, Zval = 11.0
     Generated by new atomic code, or converted to UPF format
     Using radial grid of  985 points,  7 beta functions with:
                l(1) =   0
                l(2) =   0
                l(3) =   1
                l(4) =   1
                l(5) =   2
                l(6) =   2
                l(7) =   3
     Q(r) pseudized with  6 coefficients,  rinner =    1.900   1.900   1.900
                                                       1.900   1.900   1.900
                                                       1.900

     vdW kernel table read from file vdW_kernel_table
     MD5 check sum: 095c7af220d748ca6e76c0b4c6cfb241

     atomic species   valence    mass     pseudopotential
        Cu1           19.00    63.54600     Cu( 1.00)
        Au1           11.00   196.96650     Au( 1.00)

     16 Sym. Ops., with inversion, found

   Cartesian axes

     site n.     atom                  positions (alat units)
         1           Cu1 tau(   1) = (   0.0000000   0.0000000   0.0000000  )
         2           Cu1 tau(   2) = (   2.0568243   2.0568243   0.0000000  )
         3           Au1 tau(   3) = (   2.0568243   0.0000000   1.8512369  )
         4           Au1 tau(   4) = (   0.0000000   2.0568243   1.8512369  )

     number of k points=    75  Fermi-Dirac smearing, width (Ry)=  0.0073
                       cart. coord. in units 2pi/alat
        k(    1) = (   0.0000000   0.0000000   0.0000000), wk =   0.0027435
        k(    2) = (   0.0000000   0.0000000   0.0300100), wk =   0.0054870
        k(    3) = (   0.0000000   0.0000000   0.0600199), wk =   0.0054870
        k(    4) = (   0.0000000   0.0000000   0.0900299), wk =   0.0054870
        k(    5) = (   0.0000000   0.0000000   0.1200399), wk =   0.0054870
        k(    6) = (   0.0000000   0.0270104   0.0000000), wk =   0.0109739
        k(    7) = (   0.0000000   0.0270104   0.0300100), wk =   0.0219479
        k(    8) = (   0.0000000   0.0270104   0.0600199), wk =   0.0219479
        k(    9) = (   0.0000000   0.0270104   0.0900299), wk =   0.0219479
        k(   10) = (   0.0000000   0.0270104   0.1200399), wk =   0.0219479
        k(   11) = (   0.0000000   0.0540207   0.0000000), wk =   0.0109739
        k(   12) = (   0.0000000   0.0540207   0.0300100), wk =   0.0219479
        k(   13) = (   0.0000000   0.0540207   0.0600199), wk =   0.0219479
        k(   14) = (   0.0000000   0.0540207   0.0900299), wk =   0.0219479
        k(   15) = (   0.0000000   0.0540207   0.1200399), wk =   0.0219479
        k(   16) = (   0.0000000   0.0810311   0.0000000), wk =   0.0109739
        k(   17) = (   0.0000000   0.0810311   0.0300100), wk =   0.0219479
        k(   18) = (   0.0000000   0.0810311   0.0600199), wk =   0.0219479
        k(   19) = (   0.0000000   0.0810311   0.0900299), wk =   0.0219479
        k(   20) = (   0.0000000   0.0810311   0.1200399), wk =   0.0219479
        k(   21) = (   0.0000000   0.1080414   0.0000000), wk =   0.0109739
        k(   22) = (   0.0000000   0.1080414   0.0300100), wk =   0.0219479
        k(   23) = (   0.0000000   0.1080414   0.0600199), wk =   0.0219479
        k(   24) = (   0.0000000   0.1080414   0.0900299), wk =   0.0219479
        k(   25) = (   0.0000000   0.1080414   0.1200399), wk =   0.0219479
        k(   26) = (   0.0270104   0.0270104   0.0000000), wk =   0.0109739
        k(   27) = (   0.0270104   0.0270104   0.0300100), wk =   0.0219479
        k(   28) = (   0.0270104   0.0270104   0.0600199), wk =   0.0219479
        k(   29) = (   0.0270104   0.0270104   0.0900299), wk =   0.0219479
        k(   30) = (   0.0270104   0.0270104   0.1200399), wk =   0.0219479
        k(   31) = (   0.0270104   0.0540207   0.0000000), wk =   0.0219479
        k(   32) = (   0.0270104   0.0540207   0.0300100), wk =   0.0438957
        k(   33) = (   0.0270104   0.0540207   0.0600199), wk =   0.0438957
        k(   34) = (   0.0270104   0.0540207   0.0900299), wk =   0.0438957
        k(   35) = (   0.0270104   0.0540207   0.1200399), wk =   0.0438957
        k(   36) = (   0.0270104   0.0810311   0.0000000), wk =   0.0219479
        k(   37) = (   0.0270104   0.0810311   0.0300100), wk =   0.0438957
        k(   38) = (   0.0270104   0.0810311   0.0600199), wk =   0.0438957
        k(   39) = (   0.0270104   0.0810311   0.0900299), wk =   0.0438957
        k(   40) = (   0.0270104   0.0810311   0.1200399), wk =   0.0438957
        k(   41) = (   0.0270104   0.1080414   0.0000000), wk =   0.0219479
        k(   42) = (   0.0270104   0.1080414   0.0300100), wk =   0.0438957
        k(   43) = (   0.0270104   0.1080414   0.0600199), wk =   0.0438957
        k(   44) = (   0.0270104   0.1080414   0.0900299), wk =   0.0438957
        k(   45) = (   0.0270104   0.1080414   0.1200399), wk =   0.0438957
        k(   46) = (   0.0540207   0.0540207   0.0000000), wk =   0.0109739
        k(   47) = (   0.0540207   0.0540207   0.0300100), wk =   0.0219479
        k(   48) = (   0.0540207   0.0540207   0.0600199), wk =   0.0219479
        k(   49) = (   0.0540207   0.0540207   0.0900299), wk =   0.0219479
        k(   50) = (   0.0540207   0.0540207   0.1200399), wk =   0.0219479
        k(   51) = (   0.0540207   0.0810311   0.0000000), wk =   0.0219479
        k(   52) = (   0.0540207   0.0810311   0.0300100), wk =   0.0438957
        k(   53) = (   0.0540207   0.0810311   0.0600199), wk =   0.0438957
        k(   54) = (   0.0540207   0.0810311   0.0900299), wk =   0.0438957
        k(   55) = (   0.0540207   0.0810311   0.1200399), wk =   0.0438957
        k(   56) = (   0.0540207   0.1080414   0.0000000), wk =   0.0219479
        k(   57) = (   0.0540207   0.1080414   0.0300100), wk =   0.0438957
        k(   58) = (   0.0540207   0.1080414   0.0600199), wk =   0.0438957
        k(   59) = (   0.0540207   0.1080414   0.0900299), wk =   0.0438957
        k(   60) = (   0.0540207   0.1080414   0.1200399), wk =   0.0438957
        k(   61) = (   0.0810311   0.0810311   0.0000000), wk =   0.0109739
        k(   62) = (   0.0810311   0.0810311   0.0300100), wk =   0.0219479
        k(   63) = (   0.0810311   0.0810311   0.0600199), wk =   0.0219479
        k(   64) = (   0.0810311   0.0810311   0.0900299), wk =   0.0219479
        k(   65) = (   0.0810311   0.0810311   0.1200399), wk =   0.0219479
        k(   66) = (   0.0810311   0.1080414   0.0000000), wk =   0.0219479
        k(   67) = (   0.0810311   0.1080414   0.0300100), wk =   0.0438957
        k(   68) = (   0.0810311   0.1080414   0.0600199), wk =   0.0438957
        k(   69) = (   0.0810311   0.1080414   0.0900299), wk =   0.0438957
        k(   70) = (   0.0810311   0.1080414   0.1200399), wk =   0.0438957
        k(   71) = (   0.1080414   0.1080414   0.0000000), wk =   0.0109739
        k(   72) = (   0.1080414   0.1080414   0.0300100), wk =   0.0219479
        k(   73) = (   0.1080414   0.1080414   0.0600199), wk =   0.0219479
        k(   74) = (   0.1080414   0.1080414   0.0900299), wk =   0.0219479
        k(   75) = (   0.1080414   0.1080414   0.1200399), wk =   0.0219479

     Largest allocated arrays     est. size (Mb)     dimensions
     Largest temporary arrays     est. size (Mb)     dimensions

     Initial potential from superposition of free atoms

     starting charge   57.99975, renormalised to   60.00000

     *
     * You are using vdW-DF for exchange-correlation in this calculation.
     * Please cite the following three references that made this development
     * possible:
     *
     *   M. Dion, H. Rydberg, E. Schroder, D. C. Langreth, and
     *   B. I. Lundqvist, Phys. Rev. Lett. 92, 246401 (2004).
     *
     *   T. Thonhauser, V. R. Cooper, S. Li, A. Puzder, P. Hyldgaard, and
     *   D. C. Langreth, Phys. Rev. B 76, 125112 (2007).
     *
     *   G. Roman-Perez and J. M. Soler, Phys. Rev. Lett. 103, 096102 (2009).
     *
     *
     * If you are using vdW-DF2, please also cite:
     *
     *   K. Lee, E. D. Murray, L. Kong, B. I. Lundqvist, and
     *   D. C. Langreth, Phys. Rev. B 82, 081101(R) (2010).
     *
     *
     * If you are calculating the stress with vdW-DF, please also cite:
     *
     *   R. Sabatini, E. Kucukbenli, B. Kolb, T. Thonhauser, and
     *   S. de Gironcoli, J. Phys.: Condens. Matter 24, 424209 (2012).
     *

     Carrying out vdW-DF run using the following parameters:

     Nqs =      20    Nr_points =    1024   r_max =   100.000
     q_mesh =
               0.00001000     0.04494208     0.09755937     0.15916263
               0.23128650     0.31572767     0.41458969     0.53033537
               0.66584808     0.82450364     1.01025438     1.22772762
               1.48234092     1.78043706     2.12944203     2.53805004
               3.01644009     3.57652955     4.23227104     5.00000000

     Gradients computed in reciprocal space

     Starting wfc are   44 randomized atomic wfcs +    6 random wfc

     Self-consistent Calculation

     iteration #  1     ecut=    58.80 Ry     beta=0.10
     Davidson diagonalization with overlap
     ethr =  1.00E-02,  avg # of iterations =  4.6

     total energy              =   -1043.56544039 Ry
     Harris-Foulkes estimate   =   -1043.90485755 Ry
     estimated scf accuracy    <       2.03384320 Ry

[...]

     total energy              =   -1043.37125655 Ry
     Harris-Foulkes estimate   =   -1043.37125486 Ry
     estimated scf accuracy    <       0.00000121 Ry

     iteration # 15     ecut=    58.80 Ry     beta=0.10
     Davidson diagonalization with overlap
     ethr =  2.02E-09,  avg # of iterations =  1.1

     End of self-consistent calculation

          k = 0.0000 0.0000 0.0000 (  3253 PWs)   bands (ev):

   -98.2022 -98.2010 -55.6142 -55.6142 -55.6111 -55.6093 -55.6037 -55.6037
     5.0432   7.5128   7.9877   8.1134   8.6692   8.6692   8.7865  10.1143
    10.1143  10.9481  11.3829  11.9422  12.0954  12.1890  12.2902  12.3056
    12.3470  12.4982  12.4982  12.6103  12.6103  14.8282  14.8282  16.7447
    18.4672  20.0704  21.9123  23.5022  23.5022  24.1957  25.6582  25.6582
    27.3681  29.7203  29.9602  31.6108  31.8105  32.5276  32.7167  32.7167
    33.8615  33.8616

[...]

          k = 0.1080 0.1080 0.1200 (  3212 PWs)   bands (ev):

   -98.2016 -98.2016 -55.6150 -55.6147 -55.6106 -55.6105 -55.6032 -55.6029
     7.6720   7.6736   7.9638   8.0541   9.6530   9.7497  10.0103  10.0635
    10.2222  10.2370  11.4763  11.5021  11.7749  11.9335  12.1159  12.1992
    12.2632  12.3184  12.3885  12.4372  12.7661  13.6843  13.7047  13.7397
    16.5256  16.8453  18.1278  18.4462  28.7879  29.3116  29.5861  29.7679
    29.7995  30.0364  32.2249  32.4727  32.9460  33.0125  33.8971  33.9067
    33.9787  33.9806

     the Fermi energy is    14.0031 ev

!    total energy              =   -1043.37126514 Ry
     Harris-Foulkes estimate   =   -1043.37125664 Ry
     estimated scf accuracy    <       0.00000043 Ry

     The total energy is the sum of the following terms:

     one-electron contribution =    -626.45574416 Ry
     hartree contribution      =     361.61069486 Ry
     xc contribution           =    -208.16079409 Ry
     ewald contribution        =    -570.36262430 Ry
     smearing contrib. (-TS)   =      -0.00279745 Ry

     convergence has been achieved in  15 iterations

     Forces acting on atoms (Ry/au):

     atom    1 type  1   force =     0.00000000    0.00000000    0.00000000
     atom    2 type  1   force =     0.00000000    0.00000000    0.00000000
     atom    3 type  2   force =     0.00000000    0.00000000    0.00000000
     atom    4 type  2   force =     0.00000000    0.00000000    0.00000000

     Total force =     0.000000     Total SCF correction =     0.000000

     General routines

     Parallel routines

   This run was terminated on:   8:58: 4  14Nov2017

   JOB DONE.