     Program PWSCF v.5.1rc2 starts on 13Nov2017 at 14: 5: 4

     Current dimensions of program PWSCF are:
     Max number of different atomic species (ntypx) = 10
     Max number of k-points (npk) =  40000
     Max angular momentum in pseudopotentials (lmaxx) =  3

     IMPORTANT: XC functional enforced from input :
     Exchange-correlation      = BEEF-VDW ( 1  4 27 13 2)
     Any further DFT definition will be discarded
     Please, verify this is what you really want

     Found symmetry operation: I + ( -0.5000 -0.5000  0.0000)
     This is a supercell, fractional translations are disabled

     bravais-lattice index     =            0
     lattice parameter (alat)  =       1.8897  a.u.
     unit-cell volume          =     589.3521 (a.u.)^3
     number of atoms/cell      =            4
     number of atomic types    =            2
     number of electrons       =        62.00
     number of Kohn-Sham states=           51
     kinetic-energy cutoff     =      58.7989  Ry
     charge density cutoff     =     587.9892  Ry
     convergence threshold     =      1.0E-06
     mixing beta               =       0.1000
     number of iterations used =           10  plain     mixing
     Exchange-correlation      = BEEF-VDW ( 1  4 27 13 2)

     celldm(1)=   1.889726  celldm(2)=   0.000000  celldm(3)=   0.000000
     celldm(4)=   0.000000  celldm(5)=   0.000000  celldm(6)=   0.000000

     crystal axes: (cart. coord. in units of alat)
               a(1) = (   4.600556   0.000000   0.000000 )
               a(2) = (   0.000000   4.600556   0.000000 )
               a(3) = (   0.000000   0.000000   4.126269 )

     reciprocal axes: (cart. coord. in units 2 pi/alat)
               b(1) = (  0.217365  0.000000  0.000000 )
               b(2) = (  0.000000  0.217365  0.000000 )
               b(3) = (  0.000000  0.000000  0.242350 )

     PseudoPot. # 1 for Ag read from file:
     /home/users/vossj/suncat/psp/gbrv1.5pbe/Ag.UPF
     MD5 check sum: d66d668201baa78d5eb5b04ef7011058
     Pseudo is Ultrasoft + core correction, Zval = 19.0
     Generated by new atomic code, or converted to UPF format
     Using radial grid of  887 points,  6 beta functions with:
                l(1) =   0
                l(2) =   0
                l(3) =   1
                l(4) =   1
                l(5) =   2
                l(6) =   2
     Q(r) pseudized with  6 coefficients,  rinner =    1.300   1.300   1.300
                                                       1.300   1.300

     PseudoPot. # 2 for Hg read from file:
     /home/users/vossj/suncat/psp/gbrv1.5pbe/Hg.UPF
     MD5 check sum: 8f42caffe07f7fd9c0a564347f8c5498
     Pseudo is Ultrasoft + core correction, Zval = 12.0
     Generated by new atomic code, or converted to UPF format
     Using radial grid of  985 points,  6 beta functions with:
                l(1) =   0
                l(2) =   0
                l(3) =   1
                l(4) =   1
                l(5) =   2
                l(6) =   2
     Q(r) pseudized with  8 coefficients,  rinner =    2.000   2.000   2.000
                                                       2.000   2.000

     vdW kernel table read from file vdW_kernel_table
     MD5 check sum: 095c7af220d748ca6e76c0b4c6cfb241

     atomic species   valence    mass     pseudopotential
        Ag1           19.00   107.86800     Ag( 1.00)
        Hg1           12.00   200.59000     Hg( 1.00)

     16 Sym. Ops., with inversion, found

   Cartesian axes

     site n.     atom                  positions (alat units)
         1           Ag1 tau(   1) = (   0.0000000   0.0000000   0.0000000  )
         2           Ag1 tau(   2) = (   2.3002781   2.3002781   0.0000000  )
         3           Hg1 tau(   3) = (   2.3002781   0.0000000   2.0631346  )
         4           Hg1 tau(   4) = (   0.0000000   2.3002781   2.0631346  )

     number of k points=    75  Fermi-Dirac smearing, width (Ry)=  0.0073
                       cart. coord. in units 2pi/alat
        k(    1) = (   0.0000000   0.0000000   0.0000000), wk =   0.0027435
        k(    2) = (   0.0000000   0.0000000   0.0269277), wk =   0.0054870
        k(    3) = (   0.0000000   0.0000000   0.0538555), wk =   0.0054870
        k(    4) = (   0.0000000   0.0000000   0.0807832), wk =   0.0054870
        k(    5) = (   0.0000000   0.0000000   0.1077110), wk =   0.0054870
        k(    6) = (   0.0000000   0.0241517   0.0000000), wk =   0.0109739
        k(    7) = (   0.0000000   0.0241517   0.0269277), wk =   0.0219479
        k(    8) = (   0.0000000   0.0241517   0.0538555), wk =   0.0219479
        k(    9) = (   0.0000000   0.0241517   0.0807832), wk =   0.0219479
        k(   10) = (   0.0000000   0.0241517   0.1077110), wk =   0.0219479
        k(   11) = (   0.0000000   0.0483033   0.0000000), wk =   0.0109739
        k(   12) = (   0.0000000   0.0483033   0.0269277), wk =   0.0219479
        k(   13) = (   0.0000000   0.0483033   0.0538555), wk =   0.0219479
        k(   14) = (   0.0000000   0.0483033   0.0807832), wk =   0.0219479
        k(   15) = (   0.0000000   0.0483033   0.1077110), wk =   0.0219479
        k(   16) = (   0.0000000   0.0724550   0.0000000), wk =   0.0109739
        k(   17) = (   0.0000000   0.0724550   0.0269277), wk =   0.0219479
        k(   18) = (   0.0000000   0.0724550   0.0538555), wk =   0.0219479
        k(   19) = (   0.0000000   0.0724550   0.0807832), wk =   0.0219479
        k(   20) = (   0.0000000   0.0724550   0.1077110), wk =   0.0219479
        k(   21) = (   0.0000000   0.0966067   0.0000000), wk =   0.0109739
        k(   22) = (   0.0000000   0.0966067   0.0269277), wk =   0.0219479
        k(   23) = (   0.0000000   0.0966067   0.0538555), wk =   0.0219479
        k(   24) = (   0.0000000   0.0966067   0.0807832), wk =   0.0219479
        k(   25) = (   0.0000000   0.0966067   0.1077110), wk =   0.0219479
        k(   26) = (   0.0241517   0.0241517   0.0000000), wk =   0.0109739
        k(   27) = (   0.0241517   0.0241517   0.0269277), wk =   0.0219479
        k(   28) = (   0.0241517   0.0241517   0.0538555), wk =   0.0219479
        k(   29) = (   0.0241517   0.0241517   0.0807832), wk =   0.0219479
        k(   30) = (   0.0241517   0.0241517   0.1077110), wk =   0.0219479
        k(   31) = (   0.0241517   0.0483033   0.0000000), wk =   0.0219479
        k(   32) = (   0.0241517   0.0483033   0.0269277), wk =   0.0438957
        k(   33) = (   0.0241517   0.0483033   0.0538555), wk =   0.0438957
        k(   34) = (   0.0241517   0.0483033   0.0807832), wk =   0.0438957
        k(   35) = (   0.0241517   0.0483033   0.1077110), wk =   0.0438957
        k(   36) = (   0.0241517   0.0724550   0.0000000), wk =   0.0219479
        k(   37) = (   0.0241517   0.0724550   0.0269277), wk =   0.0438957
        k(   38) = (   0.0241517   0.0724550   0.0538555), wk =   0.0438957
        k(   39) = (   0.0241517   0.0724550   0.0807832), wk =   0.0438957
        k(   40) = (   0.0241517   0.0724550   0.1077110), wk =   0.0438957
        k(   41) = (   0.0241517   0.0966067   0.0000000), wk =   0.0219479
        k(   42) = (   0.0241517   0.0966067   0.0269277), wk =   0.0438957
        k(   43) = (   0.0241517   0.0966067   0.0538555), wk =   0.0438957
        k(   44) = (   0.0241517   0.0966067   0.0807832), wk =   0.0438957
        k(   45) = (   0.0241517   0.0966067   0.1077110), wk =   0.0438957
        k(   46) = (   0.0483033   0.0483033   0.0000000), wk =   0.0109739
        k(   47) = (   0.0483033   0.0483033   0.0269277), wk =   0.0219479
        k(   48) = (   0.0483033   0.0483033   0.0538555), wk =   0.0219479
        k(   49) = (   0.0483033   0.0483033   0.0807832), wk =   0.0219479
        k(   50) = (   0.0483033   0.0483033   0.1077110), wk =   0.0219479
        k(   51) = (   0.0483033   0.0724550   0.0000000), wk =   0.0219479
        k(   52) = (   0.0483033   0.0724550   0.0269277), wk =   0.0438957
        k(   53) = (   0.0483033   0.0724550   0.0538555), wk =   0.0438957
        k(   54) = (   0.0483033   0.0724550   0.0807832), wk =   0.0438957
        k(   55) = (   0.0483033   0.0724550   0.1077110), wk =   0.0438957
        k(   56) = (   0.0483033   0.0966067   0.0000000), wk =   0.0219479
        k(   57) = (   0.0483033   0.0966067   0.0269277), wk =   0.0438957
        k(   58) = (   0.0483033   0.0966067   0.0538555), wk =   0.0438957
        k(   59) = (   0.0483033   0.0966067   0.0807832), wk =   0.0438957
        k(   60) = (   0.0483033   0.0966067   0.1077110), wk =   0.0438957
        k(   61) = (   0.0724550   0.0724550   0.0000000), wk =   0.0109739
        k(   62) = (   0.0724550   0.0724550   0.0269277), wk =   0.0219479
        k(   63) = (   0.0724550   0.0724550   0.0538555), wk =   0.0219479
        k(   64) = (   0.0724550   0.0724550   0.0807832), wk =   0.0219479
        k(   65) = (   0.0724550   0.0724550   0.1077110), wk =   0.0219479
        k(   66) = (   0.0724550   0.0966067   0.0000000), wk =   0.0219479
        k(   67) = (   0.0724550   0.0966067   0.0269277), wk =   0.0438957
        k(   68) = (   0.0724550   0.0966067   0.0538555), wk =   0.0438957
        k(   69) = (   0.0724550   0.0966067   0.0807832), wk =   0.0438957
        k(   70) = (   0.0724550   0.0966067   0.1077110), wk =   0.0438957
        k(   71) = (   0.0966067   0.0966067   0.0000000), wk =   0.0109739
        k(   72) = (   0.0966067   0.0966067   0.0269277), wk =   0.0219479
        k(   73) = (   0.0966067   0.0966067   0.0538555), wk =   0.0219479
        k(   74) = (   0.0966067   0.0966067   0.0807832), wk =   0.0219479
        k(   75) = (   0.0966067   0.0966067   0.1077110), wk =   0.0219479

     Largest allocated arrays     est. size (Mb)     dimensions
     Largest temporary arrays     est. size (Mb)     dimensions

     Initial potential from superposition of free atoms

     starting charge   60.99979, renormalised to   62.00000

     *
     * You are using vdW-DF for exchange-correlation in this calculation.
     * Please cite the following three references that made this development
     * possible:
     *
     *   M. Dion, H. Rydberg, E. Schroder, D. C. Langreth, and
     *   B. I. Lundqvist, Phys. Rev. Lett. 92, 246401 (2004).
     *
     *   T. Thonhauser, V. R. Cooper, S. Li, A. Puzder, P. Hyldgaard, and
     *   D. C. Langreth, Phys. Rev. B 76, 125112 (2007).
     *
     *   G. Roman-Perez and J. M. Soler, Phys. Rev. Lett. 103, 096102 (2009).
     *
     *
     * If you are using vdW-DF2, please also cite:
     *
     *   K. Lee, E. D. Murray, L. Kong, B. I. Lundqvist, and
     *   D. C. Langreth, Phys. Rev. B 82, 081101(R) (2010).
     *
     *
     * If you are calculating the stress with vdW-DF, please also cite:
     *
     *   R. Sabatini, E. Kucukbenli, B. Kolb, T. Thonhauser, and
     *   S. de Gironcoli, J. Phys.: Condens. Matter 24, 424209 (2012).
     *

     Carrying out vdW-DF run using the following parameters:

     Nqs =      20    Nr_points =    1024   r_max =   100.000
     q_mesh =
               0.00001000     0.04494208     0.09755937     0.15916263
               0.23128650     0.31572767     0.41458969     0.53033537
               0.66584808     0.82450364     1.01025438     1.22772762
               1.48234092     1.78043706     2.12944203     2.53805004
               3.01644009     3.57652955     4.23227104     5.00000000

     Gradients computed in reciprocal space

     Starting wfc are   44 randomized atomic wfcs +    7 random wfc

     Self-consistent Calculation

     iteration #  1     ecut=    58.80 Ry     beta=0.10
     Davidson diagonalization with overlap
     ethr =  1.00E-02,  avg # of iterations =  4.9

     total energy              =    -811.62728567 Ry
     Harris-Foulkes estimate   =    -811.77510852 Ry
     estimated scf accuracy    <       0.92667495 Ry

[...]

     total energy              =    -811.54146372 Ry
     Harris-Foulkes estimate   =    -811.54145325 Ry
     estimated scf accuracy    <       0.00000222 Ry

     iteration # 10     ecut=    58.80 Ry     beta=0.10
     Davidson diagonalization with overlap
     ethr =  3.58E-09,  avg # of iterations =  2.0

     End of self-consistent calculation

          k = 0.0000 0.0000 0.0000 (  4495 PWs)   bands (ev):

   -79.4895 -79.4878 -42.9936 -42.9923 -42.9923 -42.9906 -42.9750 -42.9750
     4.3193   4.7042   4.7438   4.9687   5.0392   5.0392   5.3030   5.6800
     5.6800   6.0116   6.4709   7.7568   7.7833   8.1285   8.6676   8.6676
     8.6780   8.7437   8.7437   8.7865   9.0798  12.7253  12.7253  13.1489
    14.2942  16.2786  17.0245  19.6461  19.6461  20.8993  21.5729  21.5729
    21.7939  24.4116  25.6927  25.7650  26.9925  27.0861  27.3386  27.3386
    28.7512  28.7512  29.0885

[...]

          k = 0.0966 0.0966 0.1077 (  4480 PWs)   bands (ev):

   -79.4887 -79.4886 -42.9938 -42.9933 -42.9927 -42.9926 -42.9742 -42.9736
     4.8603   4.8676   4.8907   4.9309   5.4937   5.5265   5.6561   5.6745
     5.8495   5.8610   7.3719   7.4311   7.9373   7.9703   8.5542   8.6156
     8.6663   8.7300   8.7541   8.8011  10.5339  11.2961  11.5668  11.8171
    12.5161  12.6374  14.5341  14.9016  24.4163  24.8005  24.9305  25.2291
    25.3617  25.5532  25.6976  25.9955  28.1219  28.3751  28.5512  28.8139
    30.8223  31.0055  31.0810

     the Fermi energy is    12.6534 ev

!    total energy              =    -811.54149920 Ry
     Harris-Foulkes estimate   =    -811.54146430 Ry
     estimated scf accuracy    <       0.00000017 Ry

     The total energy is the sum of the following terms:

     one-electron contribution =    -341.28196617 Ry
     hartree contribution      =     210.51402224 Ry
     xc contribution           =    -141.12774059 Ry
     ewald contribution        =    -539.64311100 Ry
     smearing contrib. (-TS)   =      -0.00270368 Ry

     convergence has been achieved in  10 iterations

     Forces acting on atoms (Ry/au):

     atom    1 type  1   force =     0.00000000    0.00000000    0.00000000
     atom    2 type  1   force =     0.00000000    0.00000000    0.00000000
     atom    3 type  2   force =     0.00000000    0.00000000    0.00000000
     atom    4 type  2   force =     0.00000000    0.00000000    0.00000000

     Total force =     0.000000     Total SCF correction =     0.000000

     General routines

     Parallel routines

   This run was terminated on:  14: 5:49  13Nov2017

   JOB DONE.