     Program PWSCF v.5.1rc2 starts on 15Nov2017 at  2:21:35

     Current dimensions of program PWSCF are:
     Max number of different atomic species (ntypx) = 10
     Max number of k-points (npk) =  40000
     Max angular momentum in pseudopotentials (lmaxx) =  3

     IMPORTANT: XC functional enforced from input :
     Exchange-correlation      = BEEF-VDW ( 1  4 27 13 2)
     Any further DFT definition will be discarded
     Please, verify this is what you really want

     Found symmetry operation: I + ( -0.5000 -0.5000  0.0000)
     This is a supercell, fractional translations are disabled

     bravais-lattice index     =            0
     lattice parameter (alat)  =       1.8897  a.u.
     unit-cell volume          =     530.6897 (a.u.)^3
     number of atoms/cell      =            4
     number of atomic types    =            2
     number of electrons       =        60.00
     number of Kohn-Sham states=           50
     kinetic-energy cutoff     =      58.7989  Ry
     charge density cutoff     =     587.9892  Ry
     convergence threshold     =      1.0E-06
     mixing beta               =       0.1000
     number of iterations used =           10  plain     mixing
     Exchange-correlation      = BEEF-VDW ( 1  4 27 13 2)

     celldm(1)=   1.889726  celldm(2)=   0.000000  celldm(3)=   0.000000
     celldm(4)=   0.000000  celldm(5)=   0.000000  celldm(6)=   0.000000

     crystal axes: (cart. coord. in units of alat)
               a(1) = (   4.789577   0.000000   0.000000 )
               a(2) = (   0.000000   4.789577   0.000000 )
               a(3) = (   0.000000   0.000000   3.428070 )

     reciprocal axes: (cart. coord. in units 2 pi/alat)
               b(1) = (  0.208787  0.000000  0.000000 )
               b(2) = (  0.000000  0.208787  0.000000 )
               b(3) = (  0.000000  0.000000  0.291709 )

     PseudoPot. # 1 for Pd read from file:
     /home/users/vossj/suncat/psp/gbrv1.5pbe/Pd.UPF
     MD5 check sum: 2d733d2bc2cbfd217af676df1668a4bc
     Pseudo is Ultrasoft + core correction, Zval = 16.0
     Generated by new atomic code, or converted to UPF format
     Using radial grid of  887 points,  6 beta functions with:
                l(1) =   0
                l(2) =   0
                l(3) =   1
                l(4) =   1
                l(5) =   2
                l(6) =   2
     Q(r) pseudized with  8 coefficients,  rinner =    1.130   1.130   1.130
                                                       1.130   1.130

     PseudoPot. # 2 for Sn read from file:
     /home/users/vossj/suncat/psp/gbrv1.5pbe/Sn.UPF
     MD5 check sum: 469debedee59599fedebd795477fea03
     Pseudo is Ultrasoft + core correction, Zval = 14.0
     Generated by new atomic code, or converted to UPF format
     Using radial grid of  891 points,  6 beta functions with:
                l(1) =   0
                l(2) =   0
                l(3) =   1
                l(4) =   1
                l(5) =   2
                l(6) =   2
     Q(r) pseudized with  8 coefficients,  rinner =    1.350   1.350   1.350
                                                       1.350   1.350

     vdW kernel table read from file vdW_kernel_table
     MD5 check sum: 095c7af220d748ca6e76c0b4c6cfb241

     atomic species   valence    mass     pseudopotential
        Pd1           16.00   106.42000     Pd( 1.00)
        Sn1           14.00   118.71000     Sn( 1.00)

     16 Sym. Ops., with inversion, found

   Cartesian axes

     site n.     atom                  positions (alat units)
         1           Pd1 tau(   1) = (   0.0000000   0.0000000   0.0000000  )
         2           Pd1 tau(   2) = (   2.3947887   2.3947887   0.0000000  )
         3           Sn1 tau(   3) = (   2.3947887   0.0000000   1.7140349  )
         4           Sn1 tau(   4) = (   0.0000000   2.3947887   1.7140349  )

     number of k points=    75  Fermi-Dirac smearing, width (Ry)=  0.0073
                       cart. coord. in units 2pi/alat
        k(    1) = (   0.0000000   0.0000000   0.0000000), wk =   0.0027435
        k(    2) = (   0.0000000   0.0000000   0.0324122), wk =   0.0054870
        k(    3) = (   0.0000000   0.0000000   0.0648243), wk =   0.0054870
        k(    4) = (   0.0000000   0.0000000   0.0972365), wk =   0.0054870
        k(    5) = (   0.0000000   0.0000000   0.1296486), wk =   0.0054870
        k(    6) = (   0.0000000   0.0231985   0.0000000), wk =   0.0109739
        k(    7) = (   0.0000000   0.0231985   0.0324122), wk =   0.0219479
        k(    8) = (   0.0000000   0.0231985   0.0648243), wk =   0.0219479
        k(    9) = (   0.0000000   0.0231985   0.0972365), wk =   0.0219479
        k(   10) = (   0.0000000   0.0231985   0.1296486), wk =   0.0219479
        k(   11) = (   0.0000000   0.0463970   0.0000000), wk =   0.0109739
        k(   12) = (   0.0000000   0.0463970   0.0324122), wk =   0.0219479
        k(   13) = (   0.0000000   0.0463970   0.0648243), wk =   0.0219479
        k(   14) = (   0.0000000   0.0463970   0.0972365), wk =   0.0219479
        k(   15) = (   0.0000000   0.0463970   0.1296486), wk =   0.0219479
        k(   16) = (   0.0000000   0.0695956   0.0000000), wk =   0.0109739
        k(   17) = (   0.0000000   0.0695956   0.0324122), wk =   0.0219479
        k(   18) = (   0.0000000   0.0695956   0.0648243), wk =   0.0219479
        k(   19) = (   0.0000000   0.0695956   0.0972365), wk =   0.0219479
        k(   20) = (   0.0000000   0.0695956   0.1296486), wk =   0.0219479
        k(   21) = (   0.0000000   0.0927941   0.0000000), wk =   0.0109739
        k(   22) = (   0.0000000   0.0927941   0.0324122), wk =   0.0219479
        k(   23) = (   0.0000000   0.0927941   0.0648243), wk =   0.0219479
        k(   24) = (   0.0000000   0.0927941   0.0972365), wk =   0.0219479
        k(   25) = (   0.0000000   0.0927941   0.1296486), wk =   0.0219479
        k(   26) = (   0.0231985   0.0231985   0.0000000), wk =   0.0109739
        k(   27) = (   0.0231985   0.0231985   0.0324122), wk =   0.0219479
        k(   28) = (   0.0231985   0.0231985   0.0648243), wk =   0.0219479
        k(   29) = (   0.0231985   0.0231985   0.0972365), wk =   0.0219479
        k(   30) = (   0.0231985   0.0231985   0.1296486), wk =   0.0219479
        k(   31) = (   0.0231985   0.0463970   0.0000000), wk =   0.0219479
        k(   32) = (   0.0231985   0.0463970   0.0324122), wk =   0.0438957
        k(   33) = (   0.0231985   0.0463970   0.0648243), wk =   0.0438957
        k(   34) = (   0.0231985   0.0463970   0.0972365), wk =   0.0438957
        k(   35) = (   0.0231985   0.0463970   0.1296486), wk =   0.0438957
        k(   36) = (   0.0231985   0.0695956   0.0000000), wk =   0.0219479
        k(   37) = (   0.0231985   0.0695956   0.0324122), wk =   0.0438957
        k(   38) = (   0.0231985   0.0695956   0.0648243), wk =   0.0438957
        k(   39) = (   0.0231985   0.0695956   0.0972365), wk =   0.0438957
        k(   40) = (   0.0231985   0.0695956   0.1296486), wk =   0.0438957
        k(   41) = (   0.0231985   0.0927941   0.0000000), wk =   0.0219479
        k(   42) = (   0.0231985   0.0927941   0.0324122), wk =   0.0438957
        k(   43) = (   0.0231985   0.0927941   0.0648243), wk =   0.0438957
        k(   44) = (   0.0231985   0.0927941   0.0972365), wk =   0.0438957
        k(   45) = (   0.0231985   0.0927941   0.1296486), wk =   0.0438957
        k(   46) = (   0.0463970   0.0463970   0.0000000), wk =   0.0109739
        k(   47) = (   0.0463970   0.0463970   0.0324122), wk =   0.0219479
        k(   48) = (   0.0463970   0.0463970   0.0648243), wk =   0.0219479
        k(   49) = (   0.0463970   0.0463970   0.0972365), wk =   0.0219479
        k(   50) = (   0.0463970   0.0463970   0.1296486), wk =   0.0219479
        k(   51) = (   0.0463970   0.0695956   0.0000000), wk =   0.0219479
        k(   52) = (   0.0463970   0.0695956   0.0324122), wk =   0.0438957
        k(   53) = (   0.0463970   0.0695956   0.0648243), wk =   0.0438957
        k(   54) = (   0.0463970   0.0695956   0.0972365), wk =   0.0438957
        k(   55) = (   0.0463970   0.0695956   0.1296486), wk =   0.0438957
        k(   56) = (   0.0463970   0.0927941   0.0000000), wk =   0.0219479
        k(   57) = (   0.0463970   0.0927941   0.0324122), wk =   0.0438957
        k(   58) = (   0.0463970   0.0927941   0.0648243), wk =   0.0438957
        k(   59) = (   0.0463970   0.0927941   0.0972365), wk =   0.0438957
        k(   60) = (   0.0463970   0.0927941   0.1296486), wk =   0.0438957
        k(   61) = (   0.0695956   0.0695956   0.0000000), wk =   0.0109739
        k(   62) = (   0.0695956   0.0695956   0.0324122), wk =   0.0219479
        k(   63) = (   0.0695956   0.0695956   0.0648243), wk =   0.0219479
        k(   64) = (   0.0695956   0.0695956   0.0972365), wk =   0.0219479
        k(   65) = (   0.0695956   0.0695956   0.1296486), wk =   0.0219479
        k(   66) = (   0.0695956   0.0927941   0.0000000), wk =   0.0219479
        k(   67) = (   0.0695956   0.0927941   0.0324122), wk =   0.0438957
        k(   68) = (   0.0695956   0.0927941   0.0648243), wk =   0.0438957
        k(   69) = (   0.0695956   0.0927941   0.0972365), wk =   0.0438957
        k(   70) = (   0.0695956   0.0927941   0.1296486), wk =   0.0438957
        k(   71) = (   0.0927941   0.0927941   0.0000000), wk =   0.0109739
        k(   72) = (   0.0927941   0.0927941   0.0324122), wk =   0.0219479
        k(   73) = (   0.0927941   0.0927941   0.0648243), wk =   0.0219479
        k(   74) = (   0.0927941   0.0927941   0.0972365), wk =   0.0219479
        k(   75) = (   0.0927941   0.0927941   0.1296486), wk =   0.0219479

     Largest allocated arrays     est. size (Mb)     dimensions
     Largest temporary arrays     est. size (Mb)     dimensions

     Initial potential from superposition of free atoms
     Check: negative starting charge=   -0.155554

     starting charge   56.99990, renormalised to   60.00000

     negative rho (up, down):  1.637E-01 0.000E+00

     *
     * You are using vdW-DF for exchange-correlation in this calculation.
     * Please cite the following three references that made this development
     * possible:
     *
     *   M. Dion, H. Rydberg, E. Schroder, D. C. Langreth, and
     *   B. I. Lundqvist, Phys. Rev. Lett. 92, 246401 (2004).
     *
     *   T. Thonhauser, V. R. Cooper, S. Li, A. Puzder, P. Hyldgaard, and
     *   D. C. Langreth, Phys. Rev. B 76, 125112 (2007).
     *
     *   G. Roman-Perez and J. M. Soler, Phys. Rev. Lett. 103, 096102 (2009).
     *
     *
     * If you are using vdW-DF2, please also cite:
     *
     *   K. Lee, E. D. Murray, L. Kong, B. I. Lundqvist, and
     *   D. C. Langreth, Phys. Rev. B 82, 081101(R) (2010).
     *
     *
     * If you are calculating the stress with vdW-DF, please also cite:
     *
     *   R. Sabatini, E. Kucukbenli, B. Kolb, T. Thonhauser, and
     *   S. de Gironcoli, J. Phys.: Condens. Matter 24, 424209 (2012).
     *

     Carrying out vdW-DF run using the following parameters:

     Nqs =      20    Nr_points =    1024   r_max =   100.000
     q_mesh =
               0.00001000     0.04494208     0.09755937     0.15916263
               0.23128650     0.31572767     0.41458969     0.53033537
               0.66584808     0.82450364     1.01025438     1.22772762
               1.48234092     1.78043706     2.12944203     2.53805004
               3.01644009     3.57652955     4.23227104     5.00000000

     Gradients computed in reciprocal space

     Starting wfc are   42 randomized atomic wfcs +    8 random wfc

     Self-consistent Calculation

     iteration #  1     ecut=    58.80 Ry     beta=0.10
     Davidson diagonalization with overlap
     ethr =  1.00E-02,  avg # of iterations =  5.3

[...]

     total energy              =    -721.48282165 Ry
     Harris-Foulkes estimate   =    -723.15159148 Ry
     estimated scf accuracy    <      10.10250819 Ry

[...]

     total energy              =    -721.15029466 Ry
     Harris-Foulkes estimate   =    -721.15028493 Ry
     estimated scf accuracy    <       0.00000367 Ry

     iteration # 13     ecut=    58.80 Ry     beta=0.10
     Davidson diagonalization with overlap
     ethr =  6.12E-09,  avg # of iterations =  2.0

     negative rho (up, down):  1.618E-01 0.000E+00

     End of self-consistent calculation

          k = 0.0000 0.0000 0.0000 (  4063 PWs)   bands (ev):

   -35.5628 -35.5628 -35.5521 -35.5490 -35.5450 -35.5450  -7.3281  -7.3198
    -7.2836  -7.2482  -7.2291  -7.2291  -7.1890  -7.1890  -7.1867  -7.1195
     4.0594   7.5747  11.1288  11.1318  11.3706  11.6606  11.6606  12.0109
    12.0109  12.4448  12.4448  12.4748  13.0145  14.2926  16.3443  17.0234
    17.3177  17.3177  20.7805  20.8089  23.1890  23.2770  24.9222  24.9222
    27.0484  27.2813  29.1283  29.1283  30.0698  30.2604  30.2604  31.8956
    32.1051  32.1051

[...]

          k = 0.0928 0.0928 0.1296 (  4048 PWs)   bands (ev):

   -35.5666 -35.5665 -35.5630 -35.5625 -35.5428 -35.5423  -7.2786  -7.2773
    -7.2604  -7.2554  -7.2280  -7.2253  -7.2237  -7.2223  -7.1299  -7.1266
     7.4011   7.4845  10.9687  11.0621  11.4106  11.5722  11.5777  11.7462
    12.0339  12.0636  12.2722  12.3054  13.0487  13.0878  14.3770  14.4941
    16.4013  16.5642  20.7273  20.9936  24.7681  24.7852  24.8121  25.2403
    27.0323  27.0613  27.5431  27.6050  29.3331  29.8054  29.8169  30.0616
    33.5787  33.9587

     the Fermi energy is    14.8364 ev

!    total energy              =    -721.15032984 Ry
     Harris-Foulkes estimate   =    -721.15029537 Ry
     estimated scf accuracy    <       0.00000006 Ry

     The total energy is the sum of the following terms:

     one-electron contribution =    -208.56536244 Ry
     hartree contribution      =     152.77079411 Ry
     xc contribution           =    -154.38466026 Ry
     ewald contribution        =    -510.96657688 Ry
     smearing contrib. (-TS)   =      -0.00452435 Ry

     convergence has been achieved in  13 iterations

     Forces acting on atoms (Ry/au):

     negative rho (up, down):  1.618E-01 0.000E+00
     atom    1 type  1   force =     0.00000000    0.00000000    0.00000000
     atom    2 type  1   force =     0.00000000    0.00000000    0.00000000
     atom    3 type  2   force =     0.00000000    0.00000000    0.00000000
     atom    4 type  2   force =     0.00000000    0.00000000    0.00000000

     Total force =     0.000000     Total SCF correction =     0.000000

     General routines

     Parallel routines

   This run was terminated on:   2:22:23  15Nov2017

   JOB DONE.