     Program PWSCF v.5.1rc2 starts on 14Nov2017 at  9:45: 6

     Current dimensions of program PWSCF are:
     Max number of different atomic species (ntypx) = 10
     Max number of k-points (npk) =  40000
     Max angular momentum in pseudopotentials (lmaxx) =  3

     IMPORTANT: XC functional enforced from input :
     Exchange-correlation      = BEEF-VDW ( 1  4 27 13 2)
     Any further DFT definition will be discarded
     Please, verify this is what you really want

     Found symmetry operation: I + ( -0.5000 -0.5000  0.0000)
     This is a supercell, fractional translations are disabled

     bravais-lattice index     =            0
     lattice parameter (alat)  =       1.8897  a.u.
     unit-cell volume          =     447.8616 (a.u.)^3
     number of atoms/cell      =            4
     number of atomic types    =            2
     number of electrons       =        62.00
     number of Kohn-Sham states=           51
     kinetic-energy cutoff     =      58.7989  Ry
     charge density cutoff     =     587.9892  Ry
     convergence threshold     =      1.0E-06
     mixing beta               =       0.1000
     number of iterations used =           10  plain     mixing
     Exchange-correlation      = BEEF-VDW ( 1  4 27 13 2)

     celldm(1)=   1.889726  celldm(2)=   0.000000  celldm(3)=   0.000000
     celldm(4)=   0.000000  celldm(5)=   0.000000  celldm(6)=   0.000000

     crystal axes: (cart. coord. in units of alat)
               a(1) = (   4.474654   0.000000   0.000000 )
               a(2) = (   0.000000   4.474654   0.000000 )
               a(3) = (   0.000000   0.000000   3.314579 )

     reciprocal axes: (cart. coord. in units 2 pi/alat)
               b(1) = (  0.223481  0.000000  0.000000 )
               b(2) = (  0.000000  0.223481  0.000000 )
               b(3) = (  0.000000  0.000000  0.301697 )

     PseudoPot. # 1 for Zn read from file:
     /home/users/vossj/suncat/psp/gbrv1.5pbe/Zn.UPF
     MD5 check sum: df62231357ef9e81f77b2b3087fa5675
     Pseudo is Ultrasoft, Zval = 20.0
     Generated by new atomic code, or converted to UPF format
     Using radial grid of  943 points,  6 beta functions with:
                l(1) =   0
                l(2) =   0
                l(3) =   1
                l(4) =   1
                l(5) =   2
                l(6) =   2
     Q(r) pseudized with  8 coefficients,  rinner =    1.100   1.100   1.100
                                                       1.100   1.100

     PseudoPot. # 2 for Au read from file:
     /home/users/vossj/suncat/psp/gbrv1.5pbe/Au.UPF
     MD5 check sum: 9d7f43293ad2c663164586bc4b293ffc
     Pseudo is Ultrasoft + core correction, Zval = 11.0
     Generated by new atomic code, or converted to UPF format
     Using radial grid of  985 points,  7 beta functions with:
                l(1) =   0
                l(2) =   0
                l(3) =   1
                l(4) =   1
                l(5) =   2
                l(6) =   2
                l(7) =   3
     Q(r) pseudized with  6 coefficients,  rinner =    1.900   1.900   1.900
                                                       1.900   1.900   1.900
                                                       1.900

     vdW kernel table read from file vdW_kernel_table
     MD5 check sum: 095c7af220d748ca6e76c0b4c6cfb241

     atomic species   valence    mass     pseudopotential
        Zn1           20.00    65.39000     Zn( 1.00)
        Au1           11.00   196.96650     Au( 1.00)

     16 Sym. Ops., with inversion, found

   Cartesian axes

     site n.     atom                  positions (alat units)
         1           Zn1 tau(   1) = (   0.0000000   0.0000000   0.0000000  )
         2           Zn1 tau(   2) = (   2.2373268   2.2373268   0.0000000  )
         3           Au1 tau(   3) = (   2.2373268   0.0000000   1.6572895  )
         4           Au1 tau(   4) = (   0.0000000   2.2373268   1.6572895  )

     number of k points=    75  Fermi-Dirac smearing, width (Ry)=  0.0073
                       cart. coord. in units 2pi/alat
        k(    1) = (   0.0000000   0.0000000   0.0000000), wk =   0.0027435
        k(    2) = (   0.0000000   0.0000000   0.0335219), wk =   0.0054870
        k(    3) = (   0.0000000   0.0000000   0.0670439), wk =   0.0054870
        k(    4) = (   0.0000000   0.0000000   0.1005658), wk =   0.0054870
        k(    5) = (   0.0000000   0.0000000   0.1340878), wk =   0.0054870
        k(    6) = (   0.0000000   0.0248312   0.0000000), wk =   0.0109739
        k(    7) = (   0.0000000   0.0248312   0.0335219), wk =   0.0219479
        k(    8) = (   0.0000000   0.0248312   0.0670439), wk =   0.0219479
        k(    9) = (   0.0000000   0.0248312   0.1005658), wk =   0.0219479
        k(   10) = (   0.0000000   0.0248312   0.1340878), wk =   0.0219479
        k(   11) = (   0.0000000   0.0496624   0.0000000), wk =   0.0109739
        k(   12) = (   0.0000000   0.0496624   0.0335219), wk =   0.0219479
        k(   13) = (   0.0000000   0.0496624   0.0670439), wk =   0.0219479
        k(   14) = (   0.0000000   0.0496624   0.1005658), wk =   0.0219479
        k(   15) = (   0.0000000   0.0496624   0.1340878), wk =   0.0219479
        k(   16) = (   0.0000000   0.0744937   0.0000000), wk =   0.0109739
        k(   17) = (   0.0000000   0.0744937   0.0335219), wk =   0.0219479
        k(   18) = (   0.0000000   0.0744937   0.0670439), wk =   0.0219479
        k(   19) = (   0.0000000   0.0744937   0.1005658), wk =   0.0219479
        k(   20) = (   0.0000000   0.0744937   0.1340878), wk =   0.0219479
        k(   21) = (   0.0000000   0.0993249   0.0000000), wk =   0.0109739
        k(   22) = (   0.0000000   0.0993249   0.0335219), wk =   0.0219479
        k(   23) = (   0.0000000   0.0993249   0.0670439), wk =   0.0219479
        k(   24) = (   0.0000000   0.0993249   0.1005658), wk =   0.0219479
        k(   25) = (   0.0000000   0.0993249   0.1340878), wk =   0.0219479
        k(   26) = (   0.0248312   0.0248312   0.0000000), wk =   0.0109739
        k(   27) = (   0.0248312   0.0248312   0.0335219), wk =   0.0219479
        k(   28) = (   0.0248312   0.0248312   0.0670439), wk =   0.0219479
        k(   29) = (   0.0248312   0.0248312   0.1005658), wk =   0.0219479
        k(   30) = (   0.0248312   0.0248312   0.1340878), wk =   0.0219479
        k(   31) = (   0.0248312   0.0496624   0.0000000), wk =   0.0219479
        k(   32) = (   0.0248312   0.0496624   0.0335219), wk =   0.0438957
        k(   33) = (   0.0248312   0.0496624   0.0670439), wk =   0.0438957
        k(   34) = (   0.0248312   0.0496624   0.1005658), wk =   0.0438957
        k(   35) = (   0.0248312   0.0496624   0.1340878), wk =   0.0438957
        k(   36) = (   0.0248312   0.0744937   0.0000000), wk =   0.0219479
        k(   37) = (   0.0248312   0.0744937   0.0335219), wk =   0.0438957
        k(   38) = (   0.0248312   0.0744937   0.0670439), wk =   0.0438957
        k(   39) = (   0.0248312   0.0744937   0.1005658), wk =   0.0438957
        k(   40) = (   0.0248312   0.0744937   0.1340878), wk =   0.0438957
        k(   41) = (   0.0248312   0.0993249   0.0000000), wk =   0.0219479
        k(   42) = (   0.0248312   0.0993249   0.0335219), wk =   0.0438957
        k(   43) = (   0.0248312   0.0993249   0.0670439), wk =   0.0438957
        k(   44) = (   0.0248312   0.0993249   0.1005658), wk =   0.0438957
        k(   45) = (   0.0248312   0.0993249   0.1340878), wk =   0.0438957
        k(   46) = (   0.0496624   0.0496624   0.0000000), wk =   0.0109739
        k(   47) = (   0.0496624   0.0496624   0.0335219), wk =   0.0219479
        k(   48) = (   0.0496624   0.0496624   0.0670439), wk =   0.0219479
        k(   49) = (   0.0496624   0.0496624   0.1005658), wk =   0.0219479
        k(   50) = (   0.0496624   0.0496624   0.1340878), wk =   0.0219479
        k(   51) = (   0.0496624   0.0744937   0.0000000), wk =   0.0219479
        k(   52) = (   0.0496624   0.0744937   0.0335219), wk =   0.0438957
        k(   53) = (   0.0496624   0.0744937   0.0670439), wk =   0.0438957
        k(   54) = (   0.0496624   0.0744937   0.1005658), wk =   0.0438957
        k(   55) = (   0.0496624   0.0744937   0.1340878), wk =   0.0438957
        k(   56) = (   0.0496624   0.0993249   0.0000000), wk =   0.0219479
        k(   57) = (   0.0496624   0.0993249   0.0335219), wk =   0.0438957
        k(   58) = (   0.0496624   0.0993249   0.0670439), wk =   0.0438957
        k(   59) = (   0.0496624   0.0993249   0.1005658), wk =   0.0438957
        k(   60) = (   0.0496624   0.0993249   0.1340878), wk =   0.0438957
        k(   61) = (   0.0744937   0.0744937   0.0000000), wk =   0.0109739
        k(   62) = (   0.0744937   0.0744937   0.0335219), wk =   0.0219479
        k(   63) = (   0.0744937   0.0744937   0.0670439), wk =   0.0219479
        k(   64) = (   0.0744937   0.0744937   0.1005658), wk =   0.0219479
        k(   65) = (   0.0744937   0.0744937   0.1340878), wk =   0.0219479
        k(   66) = (   0.0744937   0.0993249   0.0000000), wk =   0.0219479
        k(   67) = (   0.0744937   0.0993249   0.0335219), wk =   0.0438957
        k(   68) = (   0.0744937   0.0993249   0.0670439), wk =   0.0438957
        k(   69) = (   0.0744937   0.0993249   0.1005658), wk =   0.0438957
        k(   70) = (   0.0744937   0.0993249   0.1340878), wk =   0.0438957
        k(   71) = (   0.0993249   0.0993249   0.0000000), wk =   0.0109739
        k(   72) = (   0.0993249   0.0993249   0.0335219), wk =   0.0219479
        k(   73) = (   0.0993249   0.0993249   0.0670439), wk =   0.0219479
        k(   74) = (   0.0993249   0.0993249   0.1005658), wk =   0.0219479
        k(   75) = (   0.0993249   0.0993249   0.1340878), wk =   0.0219479

     Largest allocated arrays     est. size (Mb)     dimensions
     Largest temporary arrays     est. size (Mb)     dimensions

     Initial potential from superposition of free atoms

     starting charge   61.99947, renormalised to   62.00000

     *
     * You are using vdW-DF for exchange-correlation in this calculation.
     * Please cite the following three references that made this development
     * possible:
     *
     *   M. Dion, H. Rydberg, E. Schroder, D. C. Langreth, and
     *   B. I. Lundqvist, Phys. Rev. Lett. 92, 246401 (2004).
     *
     *   T. Thonhauser, V. R. Cooper, S. Li, A. Puzder, P. Hyldgaard, and
     *   D. C. Langreth, Phys. Rev. B 76, 125112 (2007).
     *
     *   G. Roman-Perez and J. M. Soler, Phys. Rev. Lett. 103, 096102 (2009).
     *
     *
     * If you are using vdW-DF2, please also cite:
     *
     *   K. Lee, E. D. Murray, L. Kong, B. I. Lundqvist, and
     *   D. C. Langreth, Phys. Rev. B 82, 081101(R) (2010).
     *
     *
     * If you are calculating the stress with vdW-DF, please also cite:
     *
     *   R. Sabatini, E. Kucukbenli, B. Kolb, T. Thonhauser, and
     *   S. de Gironcoli, J. Phys.: Condens. Matter 24, 424209 (2012).
     *

     Carrying out vdW-DF run using the following parameters:

     Nqs =      20    Nr_points =    1024   r_max =   100.000
     q_mesh =
               0.00001000     0.04494208     0.09755937     0.15916263
               0.23128650     0.31572767     0.41458969     0.53033537
               0.66584808     0.82450364     1.01025438     1.22772762
               1.48234092     1.78043706     2.12944203     2.53805004
               3.01644009     3.57652955     4.23227104     5.00000000

     Gradients computed in reciprocal space

     Starting wfc are   44 randomized atomic wfcs +    7 random wfc

     Self-consistent Calculation

     iteration #  1     ecut=    58.80 Ry     beta=0.10
     Davidson diagonalization with overlap
     ethr =  1.00E-02,  avg # of iterations =  5.7

     Threshold (ethr) on eigenvalues was too large:
     Diagonalizing with lowered threshold

     Davidson diagonalization with overlap
     ethr =  1.58E-04,  avg # of iterations =  3.5

     total energy              =   -1159.07688524 Ry
     Harris-Foulkes estimate   =   -1159.08910870 Ry
     estimated scf accuracy    <       0.09881336 Ry

[...]

     total energy              =   -1159.06603865 Ry
     Harris-Foulkes estimate   =   -1159.06603855 Ry
     estimated scf accuracy    <       0.00000113 Ry

     iteration # 10     ecut=    58.80 Ry     beta=0.10
     Davidson diagonalization with overlap
     ethr =  1.83E-09,  avg # of iterations =  2.0

     End of self-consistent calculation

          k = 0.0000 0.0000 0.0000 (  3427 PWs)   bands (ev):

  -112.5655-112.5654 -66.7539 -66.7539 -66.7523 -66.7523 -66.7522 -66.7520
     4.1248   5.8566   5.9965   5.9988   6.0028   6.2041   6.2041   6.4995
     6.4995   6.5544   6.7902   7.8351   8.6873   8.8270   9.2960   9.9107
     9.9107  10.2981  10.2981  10.3831  10.9650  12.6339  12.6339  15.1097
    16.3112  18.2179  19.5206  19.5206  21.9791  23.5755  25.6545  26.0363
    26.0363  26.0537  28.4082  30.1075  31.7436  31.9995  31.9995  32.4708
    32.4709  33.5069  33.5554

[...]

          k = 0.0993 0.0993 0.1341 (  3388 PWs)   bands (ev):

  -112.5654-112.5654 -66.7540 -66.7539 -66.7529 -66.7529 -66.7522 -66.7521
     5.8737   5.8804   6.0069   6.0182   6.2964   6.3033   6.3101   6.3218
     6.7330   6.7427   7.7203   7.7283   8.9575   9.0296   9.8361   9.9299
     9.9657  10.0543  10.5547  10.6557  11.6215  12.3941  12.4726  12.6993
    14.9814  15.0906  16.1731  16.5111  24.1941  24.5330  26.6584  26.6646
    26.7562  27.0529  28.8796  29.0322  30.9480  31.1394  32.6962  32.9890
    33.2938  33.4031  33.6095

     the Fermi energy is    14.1164 ev

!    total energy              =   -1159.06604003 Ry
     Harris-Foulkes estimate   =   -1159.06603878 Ry
     estimated scf accuracy    <       0.00000008 Ry

     The total energy is the sum of the following terms:

     one-electron contribution =    -767.85384368 Ry
     hartree contribution      =     426.79893490 Ry
     xc contribution           =    -215.01157467 Ry
     ewald contribution        =    -602.99742120 Ry
     smearing contrib. (-TS)   =      -0.00213537 Ry

     convergence has been achieved in  10 iterations

     Forces acting on atoms (Ry/au):

     atom    1 type  1   force =     0.00000000    0.00000000    0.00000000
     atom    2 type  1   force =     0.00000000    0.00000000    0.00000000
     atom    3 type  2   force =     0.00000000    0.00000000    0.00000000
     atom    4 type  2   force =     0.00000000    0.00000000    0.00000000

     Total force =     0.000000     Total SCF correction =     0.000000

     General routines

     Parallel routines

   This run was terminated on:   9:45:52  14Nov2017

   JOB DONE.