     Program PWSCF v.5.1rc2 starts on 15Nov2017 at  7: 9:25

     Current dimensions of program PWSCF are:
     Max number of different atomic species (ntypx) = 10
     Max number of k-points (npk) =  40000
     Max angular momentum in pseudopotentials (lmaxx) =  3

     IMPORTANT: XC functional enforced from input :
     Exchange-correlation      = BEEF-VDW ( 1  4 27 13 2)
     Any further DFT definition will be discarded
     Please, verify this is what you really want

     Found symmetry operation: I + ( -0.5000 -0.5000  0.0000)
     This is a supercell, fractional translations are disabled

     bravais-lattice index     =            0
     lattice parameter (alat)  =       1.8897  a.u.
     unit-cell volume          =     591.1166 (a.u.)^3
     number of atoms/cell      =            4
     number of atomic types    =            2
     number of electrons       =        48.00
     number of Kohn-Sham states=           44
     kinetic-energy cutoff     =      58.7989  Ry
     charge density cutoff     =     587.9892  Ry
     convergence threshold     =      1.0E-06
     mixing beta               =       0.1000
     number of iterations used =           10  plain     mixing
     Exchange-correlation      = BEEF-VDW ( 1  4 27 13 2)

     celldm(1)=   1.889726  celldm(2)=   0.000000  celldm(3)=   0.000000
     celldm(4)=   0.000000  celldm(5)=   0.000000  celldm(6)=   0.000000

     crystal axes: (cart. coord. in units of alat)
               a(1) = (   4.502097   0.000000   0.000000 )
               a(2) = (   0.000000   4.502097   0.000000 )
               a(3) = (   0.000000   0.000000   4.321622 )

     reciprocal axes: (cart. coord. in units 2 pi/alat)
               b(1) = (  0.222119  0.000000  0.000000 )
               b(2) = (  0.000000  0.222119  0.000000 )
               b(3) = (  0.000000  0.000000  0.231395 )

     PseudoPot. # 1 for Zr read from file:
     /home/users/vossj/suncat/psp/gbrv1.5pbe/Zr.UPF
     MD5 check sum: 5db81b1e868ab7776c4564c113de050b
     Pseudo is Ultrasoft + core correction, Zval = 12.0
     Generated by new atomic code, or converted to UPF format
     Using radial grid of  887 points,  6 beta functions with:
                l(1) =   0
                l(2) =   0
                l(3) =   1
                l(4) =   1
                l(5) =   2
                l(6) =   2
     Q(r) pseudized with  6 coefficients,  rinner =    1.200   1.200   1.200
                                                       1.200   1.200

     PseudoPot. # 2 for Hg read from file:
     /home/users/vossj/suncat/psp/gbrv1.5pbe/Hg.UPF
     MD5 check sum: 8f42caffe07f7fd9c0a564347f8c5498
     Pseudo is Ultrasoft + core correction, Zval = 12.0
     Generated by new atomic code, or converted to UPF format
     Using radial grid of  985 points,  6 beta functions with:
                l(1) =   0
                l(2) =   0
                l(3) =   1
                l(4) =   1
                l(5) =   2
                l(6) =   2
     Q(r) pseudized with  8 coefficients,  rinner =    2.000   2.000   2.000
                                                       2.000   2.000

     vdW kernel table read from file vdW_kernel_table
     MD5 check sum: 095c7af220d748ca6e76c0b4c6cfb241

     atomic species   valence    mass     pseudopotential
        Zr1           12.00    91.22400     Zr( 1.00)
        Hg1           12.00   200.59000     Hg( 1.00)

     16 Sym. Ops., with inversion, found

   Cartesian axes

     site n.     atom                  positions (alat units)
         1           Zr1 tau(   1) = (   0.0000000   0.0000000   0.0000000  )
         2           Zr1 tau(   2) = (   2.2510487   2.2510487   0.0000000  )
         3           Hg1 tau(   3) = (   2.2510487   0.0000000   2.1608111  )
         4           Hg1 tau(   4) = (   0.0000000   2.2510487   2.1608111  )

     number of k points=    75  Fermi-Dirac smearing, width (Ry)=  0.0073
                       cart. coord. in units 2pi/alat
        k(    1) = (   0.0000000   0.0000000   0.0000000), wk =   0.0027435
        k(    2) = (   0.0000000   0.0000000   0.0257105), wk =   0.0054870
        k(    3) = (   0.0000000   0.0000000   0.0514210), wk =   0.0054870
        k(    4) = (   0.0000000   0.0000000   0.0771315), wk =   0.0054870
        k(    5) = (   0.0000000   0.0000000   0.1028420), wk =   0.0054870
        k(    6) = (   0.0000000   0.0246799   0.0000000), wk =   0.0109739
        k(    7) = (   0.0000000   0.0246799   0.0257105), wk =   0.0219479
        k(    8) = (   0.0000000   0.0246799   0.0514210), wk =   0.0219479
        k(    9) = (   0.0000000   0.0246799   0.0771315), wk =   0.0219479
        k(   10) = (   0.0000000   0.0246799   0.1028420), wk =   0.0219479
        k(   11) = (   0.0000000   0.0493597   0.0000000), wk =   0.0109739
        k(   12) = (   0.0000000   0.0493597   0.0257105), wk =   0.0219479
        k(   13) = (   0.0000000   0.0493597   0.0514210), wk =   0.0219479
        k(   14) = (   0.0000000   0.0493597   0.0771315), wk =   0.0219479
        k(   15) = (   0.0000000   0.0493597   0.1028420), wk =   0.0219479
        k(   16) = (   0.0000000   0.0740396   0.0000000), wk =   0.0109739
        k(   17) = (   0.0000000   0.0740396   0.0257105), wk =   0.0219479
        k(   18) = (   0.0000000   0.0740396   0.0514210), wk =   0.0219479
        k(   19) = (   0.0000000   0.0740396   0.0771315), wk =   0.0219479
        k(   20) = (   0.0000000   0.0740396   0.1028420), wk =   0.0219479
        k(   21) = (   0.0000000   0.0987194   0.0000000), wk =   0.0109739
        k(   22) = (   0.0000000   0.0987194   0.0257105), wk =   0.0219479
        k(   23) = (   0.0000000   0.0987194   0.0514210), wk =   0.0219479
        k(   24) = (   0.0000000   0.0987194   0.0771315), wk =   0.0219479
        k(   25) = (   0.0000000   0.0987194   0.1028420), wk =   0.0219479
        k(   26) = (   0.0246799   0.0246799   0.0000000), wk =   0.0109739
        k(   27) = (   0.0246799   0.0246799   0.0257105), wk =   0.0219479
        k(   28) = (   0.0246799   0.0246799   0.0514210), wk =   0.0219479
        k(   29) = (   0.0246799   0.0246799   0.0771315), wk =   0.0219479
        k(   30) = (   0.0246799   0.0246799   0.1028420), wk =   0.0219479
        k(   31) = (   0.0246799   0.0493597   0.0000000), wk =   0.0219479
        k(   32) = (   0.0246799   0.0493597   0.0257105), wk =   0.0438957
        k(   33) = (   0.0246799   0.0493597   0.0514210), wk =   0.0438957
        k(   34) = (   0.0246799   0.0493597   0.0771315), wk =   0.0438957
        k(   35) = (   0.0246799   0.0493597   0.1028420), wk =   0.0438957
        k(   36) = (   0.0246799   0.0740396   0.0000000), wk =   0.0219479
        k(   37) = (   0.0246799   0.0740396   0.0257105), wk =   0.0438957
        k(   38) = (   0.0246799   0.0740396   0.0514210), wk =   0.0438957
        k(   39) = (   0.0246799   0.0740396   0.0771315), wk =   0.0438957
        k(   40) = (   0.0246799   0.0740396   0.1028420), wk =   0.0438957
        k(   41) = (   0.0246799   0.0987194   0.0000000), wk =   0.0219479
        k(   42) = (   0.0246799   0.0987194   0.0257105), wk =   0.0438957
        k(   43) = (   0.0246799   0.0987194   0.0514210), wk =   0.0438957
        k(   44) = (   0.0246799   0.0987194   0.0771315), wk =   0.0438957
        k(   45) = (   0.0246799   0.0987194   0.1028420), wk =   0.0438957
        k(   46) = (   0.0493597   0.0493597   0.0000000), wk =   0.0109739
        k(   47) = (   0.0493597   0.0493597   0.0257105), wk =   0.0219479
        k(   48) = (   0.0493597   0.0493597   0.0514210), wk =   0.0219479
        k(   49) = (   0.0493597   0.0493597   0.0771315), wk =   0.0219479
        k(   50) = (   0.0493597   0.0493597   0.1028420), wk =   0.0219479
        k(   51) = (   0.0493597   0.0740396   0.0000000), wk =   0.0219479
        k(   52) = (   0.0493597   0.0740396   0.0257105), wk =   0.0438957
        k(   53) = (   0.0493597   0.0740396   0.0514210), wk =   0.0438957
        k(   54) = (   0.0493597   0.0740396   0.0771315), wk =   0.0438957
        k(   55) = (   0.0493597   0.0740396   0.1028420), wk =   0.0438957
        k(   56) = (   0.0493597   0.0987194   0.0000000), wk =   0.0219479
        k(   57) = (   0.0493597   0.0987194   0.0257105), wk =   0.0438957
        k(   58) = (   0.0493597   0.0987194   0.0514210), wk =   0.0438957
        k(   59) = (   0.0493597   0.0987194   0.0771315), wk =   0.0438957
        k(   60) = (   0.0493597   0.0987194   0.1028420), wk =   0.0438957
        k(   61) = (   0.0740396   0.0740396   0.0000000), wk =   0.0109739
        k(   62) = (   0.0740396   0.0740396   0.0257105), wk =   0.0219479
        k(   63) = (   0.0740396   0.0740396   0.0514210), wk =   0.0219479
        k(   64) = (   0.0740396   0.0740396   0.0771315), wk =   0.0219479
        k(   65) = (   0.0740396   0.0740396   0.1028420), wk =   0.0219479
        k(   66) = (   0.0740396   0.0987194   0.0000000), wk =   0.0219479
        k(   67) = (   0.0740396   0.0987194   0.0257105), wk =   0.0438957
        k(   68) = (   0.0740396   0.0987194   0.0514210), wk =   0.0438957
        k(   69) = (   0.0740396   0.0987194   0.0771315), wk =   0.0438957
        k(   70) = (   0.0740396   0.0987194   0.1028420), wk =   0.0438957
        k(   71) = (   0.0987194   0.0987194   0.0000000), wk =   0.0109739
        k(   72) = (   0.0987194   0.0987194   0.0257105), wk =   0.0219479
        k(   73) = (   0.0987194   0.0987194   0.0514210), wk =   0.0219479
        k(   74) = (   0.0987194   0.0987194   0.0771315), wk =   0.0219479
        k(   75) = (   0.0987194   0.0987194   0.1028420), wk =   0.0219479

     Largest allocated arrays     est. size (Mb)     dimensions
     Largest temporary arrays     est. size (Mb)     dimensions

     Initial potential from superposition of free atoms
     Check: negative starting charge=   -0.122288

     starting charge   47.99559, renormalised to   48.00000

     negative rho (up, down):  1.223E-01 0.000E+00

     *
     * You are using vdW-DF for exchange-correlation in this calculation.
     * Please cite the following three references that made this development
     * possible:
     *
     *   M. Dion, H. Rydberg, E. Schroder, D. C. Langreth, and
     *   B. I. Lundqvist, Phys. Rev. Lett. 92, 246401 (2004).
     *
     *   T. Thonhauser, V. R. Cooper, S. Li, A. Puzder, P. Hyldgaard, and
     *   D. C. Langreth, Phys. Rev. B 76, 125112 (2007).
     *
     *   G. Roman-Perez and J. M. Soler, Phys. Rev. Lett. 103, 096102 (2009).
     *
     *
     * If you are using vdW-DF2, please also cite:
     *
     *   K. Lee, E. D. Murray, L. Kong, B. I. Lundqvist, and
     *   D. C. Langreth, Phys. Rev. B 82, 081101(R) (2010).
     *
     *
     * If you are calculating the stress with vdW-DF, please also cite:
     *
     *   R. Sabatini, E. Kucukbenli, B. Kolb, T. Thonhauser, and
     *   S. de Gironcoli, J. Phys.: Condens. Matter 24, 424209 (2012).
     *

     Carrying out vdW-DF run using the following parameters:

     Nqs =      20    Nr_points =    1024   r_max =   100.000
     q_mesh =
               0.00001000     0.04494208     0.09755937     0.15916263
               0.23128650     0.31572767     0.41458969     0.53033537
               0.66584808     0.82450364     1.01025438     1.22772762
               1.48234092     1.78043706     2.12944203     2.53805004
               3.01644009     3.57652955     4.23227104     5.00000000

     Gradients computed in reciprocal space

     Starting wfc are   44 randomized atomic wfcs

     Self-consistent Calculation

     iteration #  1     ecut=    58.80 Ry     beta=0.10
     Davidson diagonalization with overlap
     ethr =  1.00E-02,  avg # of iterations =  5.2

     Threshold (ethr) on eigenvalues was too large:
     Diagonalizing with lowered threshold

     Davidson diagonalization with overlap
     ethr =  7.23E-04,  avg # of iterations =  1.2

[...]

     total energy              =    -417.83575419 Ry
     Harris-Foulkes estimate   =    -417.89160918 Ry
     estimated scf accuracy    <       0.34822439 Ry

[...]

     total energy              =    -417.80885385 Ry
     Harris-Foulkes estimate   =    -417.80885348 Ry
     estimated scf accuracy    <       0.00000405 Ry

     iteration # 10     ecut=    58.80 Ry     beta=0.10
     Davidson diagonalization with overlap
     ethr =  8.43E-09,  avg # of iterations =  2.0

     negative rho (up, down):  1.241E-01 0.000E+00

     End of self-consistent calculation

          k = 0.0000 0.0000 0.0000 (  4527 PWs)   bands (ev):

   -35.5629 -35.4671 -13.6480 -13.6480 -13.6436 -13.5272 -13.1949 -13.1949
     5.2998   5.6035   5.6341   5.9589   5.9589   6.0266   6.3641   6.6902
     6.6902   7.0591   7.5893  10.9775  12.9997  13.1650  14.4784  14.4784
    15.2331  15.2629  15.2629  15.5410  16.8781  16.8781  17.8660  17.8890
    19.1614  20.3240  21.4567  21.5938  21.5938  22.9532  23.1229  23.1229
    25.3421  25.5668  28.2137  29.0649

[...]

          k = 0.0987 0.0987 0.1028 (  4514 PWs)   bands (ev):

   -35.5150 -35.5121 -13.7129 -13.6998 -13.6086 -13.6047 -13.1630 -13.1487
     5.7888   5.8389   5.8462   5.8563   6.5064   6.5455   6.7102   6.7304
     6.7755   6.7894   9.4366   9.6631  12.5276  12.6614  13.1680  13.4508
    13.5571  13.8213  16.1860  16.2952  16.6429  16.6530  16.8933  16.9920
    18.3911  18.5454  21.2209  21.2741  25.0789  25.1262  25.1263  25.2882
    25.4292  25.6234  27.5882  27.7928

     the Fermi energy is    13.8071 ev

!    total energy              =    -417.80886515 Ry
     Harris-Foulkes estimate   =    -417.80885457 Ry
     estimated scf accuracy    <       0.00000038 Ry

     The total energy is the sum of the following terms:

     one-electron contribution =     -42.27238502 Ry
     hartree contribution      =      56.96545519 Ry
     xc contribution           =    -117.82616294 Ry
     ewald contribution        =    -314.66550537 Ry
     smearing contrib. (-TS)   =      -0.01026701 Ry

     convergence has been achieved in  10 iterations

     Forces acting on atoms (Ry/au):

     negative rho (up, down):  1.241E-01 0.000E+00
     atom    1 type  1   force =     0.00000000    0.00000000    0.00000000
     atom    2 type  1   force =     0.00000000    0.00000000    0.00000000
     atom    3 type  2   force =     0.00000000    0.00000000    0.00000000
     atom    4 type  2   force =     0.00000000    0.00000000    0.00000000

     Total force =     0.000000     Total SCF correction =     0.000000

     General routines

     Parallel routines

   This run was terminated on:   7:10: 4  15Nov2017

   JOB DONE.