     Program PWSCF v.5.1rc2 (svn rev. ) starts on 18Feb2018 at 17:55: 4

     Current dimensions of program PWSCF are:
     Max number of different atomic species (ntypx) = 10
     Max number of k-points (npk) =  40000
     Max angular momentum in pseudopotentials (lmaxx) =  3

     IMPORTANT: XC functional enforced from input :
     Exchange-correlation      = BEEF-VDW ( 1  4 27 13 2)
     Any further DFT definition will be discarded
     Please, verify this is what you really want

     Subspace diagonalization in iterative solution of the eigenvalue problem:
     a serial algorithm will be used

     Found symmetry operation: I + ( -0.5000 -0.5000  0.0000)
     This is a supercell, fractional translations are disabled

     bravais-lattice index     =            0
     lattice parameter (alat)  =       1.8897  a.u.
     unit-cell volume          =     909.8928 (a.u.)^3
     number of atoms/cell      =            4
     number of atomic types    =            2
     number of electrons       =        56.00
     number of Kohn-Sham states=           48
     kinetic-energy cutoff     =      58.7989  Ry
     charge density cutoff     =     587.9892  Ry
     convergence threshold     =      1.0E-06
     mixing beta               =       0.1000
     number of iterations used =           10  plain     mixing
     Exchange-correlation      = BEEF-VDW ( 1  4 27 13 2)

     celldm(1)=   1.889726  celldm(2)=   0.000000  celldm(3)=   0.000000
     celldm(4)=   0.000000  celldm(5)=   0.000000  celldm(6)=   0.000000

     crystal axes: (cart. coord. in units of alat)
               a(1) = (   4.936459   0.000000   0.000000 )
               a(2) = (   0.000000   4.936459   0.000000 )
               a(3) = (   0.000000   0.000000   5.533024 )

     reciprocal axes: (cart. coord. in units 2 pi/alat)
               b(1) = (  0.202574  0.000000  0.000000 )
               b(2) = (  0.000000  0.202574  0.000000 )
               b(3) = (  0.000000  0.000000  0.180733 )

     PseudoPot. # 1 for Tl read from file:
     /home/mamunm/src/pseudo/gbrv1.5pbe/Tl.UPF
     MD5 check sum: b76cf1f7e72655a2b2c53cf6385d7059
     Pseudo is Ultrasoft + core correction, Zval = 13.0
     Generated by new atomic code, or converted to UPF format
     Using radial grid of  899 points,  6 beta functions with:
                l(1) =   0
                l(2) =   0
                l(3) =   1
                l(4) =   1
                l(5) =   2
                l(6) =   2
     Q(r) pseudized with  6 coefficients,  rinner =    1.100   1.100   1.100
                                                       1.100   1.100

     PseudoPot. # 2 for Bi read from file:
     /home/mamunm/src/pseudo/gbrv1.5pbe/Bi.UPF
     MD5 check sum: 81103212dc04adf40945787f699eab19
     Pseudo is Ultrasoft + core correction, Zval = 15.0
     Generated by new atomic code, or converted to UPF format
     Using radial grid of  899 points,  6 beta functions with:
                l(1) =   0
                l(2) =   0
                l(3) =   1
                l(4) =   1
                l(5) =   2
                l(6) =   2
     Q(r) pseudized with  6 coefficients,  rinner =    1.000   1.000   1.000
                                                       1.000   1.000

     vdW kernel table read from file vdW_kernel_table
     MD5 check sum: 095c7af220d748ca6e76c0b4c6cfb241

     atomic species   valence    mass     pseudopotential
        Tl1           13.00   204.38000     Tl( 1.00)
        Bi1           15.00   208.98040     Bi( 1.00)

     16 Sym. Ops., with inversion, found

   Cartesian axes

     site n.     atom                  positions (alat units)
         1           Tl1 tau(   1) = (   0.0000000   0.0000000   0.0000000  )
         2           Tl1 tau(   2) = (   2.4682295   2.4682295   0.0000000  )
         3           Bi1 tau(   3) = (   2.4682295   0.0000000   2.7665121  )
         4           Bi1 tau(   4) = (   0.0000000   2.4682295   2.7665121  )

     number of k points=    75  Fermi-Dirac smearing, width (Ry)=  0.0073
                       cart. coord. in units 2pi/alat
        k(    1) = (   0.0000000   0.0000000   0.0000000), wk =   0.0027435
        k(    2) = (   0.0000000   0.0000000   0.0200814), wk =   0.0054870
        k(    3) = (   0.0000000   0.0000000   0.0401629), wk =   0.0054870
        k(    4) = (   0.0000000   0.0000000   0.0602443), wk =   0.0054870
        k(    5) = (   0.0000000   0.0000000   0.0803258), wk =   0.0054870
        k(    6) = (   0.0000000   0.0225083   0.0000000), wk =   0.0109739
        k(    7) = (   0.0000000   0.0225083   0.0200814), wk =   0.0219479
        k(    8) = (   0.0000000   0.0225083   0.0401629), wk =   0.0219479
        k(    9) = (   0.0000000   0.0225083   0.0602443), wk =   0.0219479
        k(   10) = (   0.0000000   0.0225083   0.0803258), wk =   0.0219479
        k(   11) = (   0.0000000   0.0450165   0.0000000), wk =   0.0109739
        k(   12) = (   0.0000000   0.0450165   0.0200814), wk =   0.0219479
        k(   13) = (   0.0000000   0.0450165   0.0401629), wk =   0.0219479
        k(   14) = (   0.0000000   0.0450165   0.0602443), wk =   0.0219479
        k(   15) = (   0.0000000   0.0450165   0.0803258), wk =   0.0219479
        k(   16) = (   0.0000000   0.0675248   0.0000000), wk =   0.0109739
        k(   17) = (   0.0000000   0.0675248   0.0200814), wk =   0.0219479
        k(   18) = (   0.0000000   0.0675248   0.0401629), wk =   0.0219479
        k(   19) = (   0.0000000   0.0675248   0.0602443), wk =   0.0219479
        k(   20) = (   0.0000000   0.0675248   0.0803258), wk =   0.0219479
        k(   21) = (   0.0000000   0.0900330   0.0000000), wk =   0.0109739
        k(   22) = (   0.0000000   0.0900330   0.0200814), wk =   0.0219479
        k(   23) = (   0.0000000   0.0900330   0.0401629), wk =   0.0219479
        k(   24) = (   0.0000000   0.0900330   0.0602443), wk =   0.0219479
        k(   25) = (   0.0000000   0.0900330   0.0803258), wk =   0.0219479
        k(   26) = (   0.0225083   0.0225083   0.0000000), wk =   0.0109739
        k(   27) = (   0.0225083   0.0225083   0.0200814), wk =   0.0219479
        k(   28) = (   0.0225083   0.0225083   0.0401629), wk =   0.0219479
        k(   29) = (   0.0225083   0.0225083   0.0602443), wk =   0.0219479
        k(   30) = (   0.0225083   0.0225083   0.0803258), wk =   0.0219479
        k(   31) = (   0.0225083   0.0450165   0.0000000), wk =   0.0219479
        k(   32) = (   0.0225083   0.0450165   0.0200814), wk =   0.0438957
        k(   33) = (   0.0225083   0.0450165   0.0401629), wk =   0.0438957
        k(   34) = (   0.0225083   0.0450165   0.0602443), wk =   0.0438957
        k(   35) = (   0.0225083   0.0450165   0.0803258), wk =   0.0438957
        k(   36) = (   0.0225083   0.0675248   0.0000000), wk =   0.0219479
        k(   37) = (   0.0225083   0.0675248   0.0200814), wk =   0.0438957
        k(   38) = (   0.0225083   0.0675248   0.0401629), wk =   0.0438957
        k(   39) = (   0.0225083   0.0675248   0.0602443), wk =   0.0438957
        k(   40) = (   0.0225083   0.0675248   0.0803258), wk =   0.0438957
        k(   41) = (   0.0225083   0.0900330   0.0000000), wk =   0.0219479
        k(   42) = (   0.0225083   0.0900330   0.0200814), wk =   0.0438957
        k(   43) = (   0.0225083   0.0900330   0.0401629), wk =   0.0438957
        k(   44) = (   0.0225083   0.0900330   0.0602443), wk =   0.0438957
        k(   45) = (   0.0225083   0.0900330   0.0803258), wk =   0.0438957
        k(   46) = (   0.0450165   0.0450165   0.0000000), wk =   0.0109739
        k(   47) = (   0.0450165   0.0450165   0.0200814), wk =   0.0219479
        k(   48) = (   0.0450165   0.0450165   0.0401629), wk =   0.0219479
        k(   49) = (   0.0450165   0.0450165   0.0602443), wk =   0.0219479
        k(   50) = (   0.0450165   0.0450165   0.0803258), wk =   0.0219479
        k(   51) = (   0.0450165   0.0675248   0.0000000), wk =   0.0219479
        k(   52) = (   0.0450165   0.0675248   0.0200814), wk =   0.0438957
        k(   53) = (   0.0450165   0.0675248   0.0401629), wk =   0.0438957
        k(   54) = (   0.0450165   0.0675248   0.0602443), wk =   0.0438957
        k(   55) = (   0.0450165   0.0675248   0.0803258), wk =   0.0438957
        k(   56) = (   0.0450165   0.0900330   0.0000000), wk =   0.0219479
        k(   57) = (   0.0450165   0.0900330   0.0200814), wk =   0.0438957
        k(   58) = (   0.0450165   0.0900330   0.0401629), wk =   0.0438957
        k(   59) = (   0.0450165   0.0900330   0.0602443), wk =   0.0438957
        k(   60) = (   0.0450165   0.0900330   0.0803258), wk =   0.0438957
        k(   61) = (   0.0675248   0.0675248   0.0000000), wk =   0.0109739
        k(   62) = (   0.0675248   0.0675248   0.0200814), wk =   0.0219479
        k(   63) = (   0.0675248   0.0675248   0.0401629), wk =   0.0219479
        k(   64) = (   0.0675248   0.0675248   0.0602443), wk =   0.0219479
        k(   65) = (   0.0675248   0.0675248   0.0803258), wk =   0.0219479
        k(   66) = (   0.0675248   0.0900330   0.0000000), wk =   0.0219479
        k(   67) = (   0.0675248   0.0900330   0.0200814), wk =   0.0438957
        k(   68) = (   0.0675248   0.0900330   0.0401629), wk =   0.0438957
        k(   69) = (   0.0675248   0.0900330   0.0602443), wk =   0.0438957
        k(   70) = (   0.0675248   0.0900330   0.0803258), wk =   0.0438957
        k(   71) = (   0.0900330   0.0900330   0.0000000), wk =   0.0109739
        k(   72) = (   0.0900330   0.0900330   0.0200814), wk =   0.0219479
        k(   73) = (   0.0900330   0.0900330   0.0401629), wk =   0.0219479
        k(   74) = (   0.0900330   0.0900330   0.0602443), wk =   0.0219479
        k(   75) = (   0.0900330   0.0900330   0.0803258), wk =   0.0219479

     Largest allocated arrays     est. size (Mb)     dimensions
     Largest temporary arrays     est. size (Mb)     dimensions

     Initial potential from superposition of free atoms
     Check: negative starting charge=   -0.182950

     starting charge   53.99018, renormalised to   56.00000

     negative rho (up, down):  1.898E-01 0.000E+00

     *
     * You are using vdW-DF for exchange-correlation in this calculation.
     * Please cite the following three references that made this development
     * possible:
     *
     *   M. Dion, H. Rydberg, E. Schroder, D. C. Langreth, and
     *   B. I. Lundqvist, Phys. Rev. Lett. 92, 246401 (2004).
     *
     *   T. Thonhauser, V. R. Cooper, S. Li, A. Puzder, P. Hyldgaard, and
     *   D. C. Langreth, Phys. Rev. B 76, 125112 (2007).
     *
     *   G. Roman-Perez and J. M. Soler, Phys. Rev. Lett. 103, 096102 (2009).
     *
     *
     * If you are using vdW-DF2, please also cite:
     *
     *   K. Lee, E. D. Murray, L. Kong, B. I. Lundqvist, and
     *   D. C. Langreth, Phys. Rev. B 82, 081101(R) (2010).
     *
     *
     * If you are calculating the stress with vdW-DF, please also cite:
     *
     *   R. Sabatini, E. Kucukbenli, B. Kolb, T. Thonhauser, and
     *   S. de Gironcoli, J. Phys.: Condens. Matter 24, 424209 (2012).
     *

     Carrying out vdW-DF run using the following parameters:

     Nqs =      20    Nr_points =    1024   r_max =   100.000
     q_mesh =
               0.00001000     0.04494208     0.09755937     0.15916263
               0.23128650     0.31572767     0.41458969     0.53033537
               0.66584808     0.82450364     1.01025438     1.22772762
               1.48234092     1.78043706     2.12944203     2.53805004
               3.01644009     3.57652955     4.23227104     5.00000000

     Gradients computed in reciprocal space

     Starting wfc are   36 randomized atomic wfcs +   12 random wfc

     Self-consistent Calculation

     iteration #  1     ecut=    58.80 Ry     beta=0.10
     Davidson diagonalization with overlap
     ethr =  1.00E-02,  avg # of iterations =  5.8

[...]

     total energy              =    -668.18775488 Ry
     Harris-Foulkes estimate   =    -668.32405742 Ry
     estimated scf accuracy    <       0.86786280 Ry

[...]

     total energy              =    -667.98891482 Ry
     Harris-Foulkes estimate   =    -667.98844389 Ry
     estimated scf accuracy    <       0.00000243 Ry

     iteration # 11     ecut=    58.80 Ry     beta=0.10
     Davidson diagonalization with overlap
     ethr =  4.33E-09,  avg # of iterations =  2.0

     negative rho (up, down):  1.912E-01 0.000E+00

     End of self-consistent calculation

          k = 0.0000 0.0000 0.0000 (  6957 PWs)   bands (ev):

   -13.8506 -13.7908 -13.7427 -13.7344 -13.7344 -13.7057 -13.6952 -13.6952
   -13.6662 -13.6398  -2.6382  -2.5957  -2.4859  -2.3242  -2.3242  -2.2925
    -2.1742  -2.1742  -2.1460  -2.1157  -1.9607   0.3348   2.8388   5.6285
     6.2077   6.6896   6.6896  10.2282  11.2253  11.2253  11.7600  11.7600
    12.8988  14.4079  14.9993  15.5179  15.8960  15.8960  16.1042  16.5994
    16.7123  16.7123  19.6991  20.0563  21.6155  21.6447  21.6447  21.8528

[...]

          k = 0.0900 0.0900 0.0803 (  6895 PWs)   bands (ev):

   -13.7895 -13.7844 -13.7453 -13.7427 -13.7395 -13.7384 -13.6929 -13.6917
   -13.6654 -13.6618  -2.4928  -2.4914  -2.4625  -2.4476  -2.2574  -2.2468
    -2.1650  -2.1599  -2.1187  -2.1073  -0.8103  -0.7276   3.6241   3.8217
     5.4897   5.5692   6.4108   6.6223  12.8530  12.9119  13.1729  13.4808
    14.1210  14.1365  16.7428  17.1938  17.6579  17.7984  18.0726  18.2869
    18.5453  18.7799  19.0472  19.5004  19.5821  19.8301  20.8288  21.3266

     the Fermi energy is     9.3690 ev

!    total energy              =    -667.99086621 Ry
     Harris-Foulkes estimate   =    -667.98891561 Ry
     estimated scf accuracy    <       0.00000041 Ry

     The total energy is the sum of the following terms:

     one-electron contribution =    -150.45579019 Ry
     hartree contribution      =     115.23524386 Ry
     xc contribution           =    -261.12661433 Ry
     ewald contribution        =    -371.63872202 Ry
     smearing contrib. (-TS)   =      -0.00498353 Ry

     convergence has been achieved in  11 iterations

     Forces acting on atoms (Ry/au):

     negative rho (up, down):  1.912E-01 0.000E+00
     atom    1 type  1   force =     0.00000000    0.00000000    0.00000000
     atom    2 type  1   force =     0.00000000    0.00000000    0.00000000
     atom    3 type  2   force =     0.00000000    0.00000000    0.00000000
     atom    4 type  2   force =     0.00000000    0.00000000    0.00000000

     Total force =     0.000000     Total SCF correction =     0.000000

     General routines

     Parallel routines

   This run was terminated on:  17:56:19  18Feb2018

   JOB DONE.