     Program PWSCF v.5.1rc2 (svn rev. ) starts on 14Nov2017 at 22:51:47

     Current dimensions of program PWSCF are:
     Max number of different atomic species (ntypx) = 10
     Max number of k-points (npk) =  40000
     Max angular momentum in pseudopotentials (lmaxx) =  3

     IMPORTANT: XC functional enforced from input :
     Exchange-correlation      = BEEF-VDW ( 1  4 27 13 2)
     Any further DFT definition will be discarded
     Please, verify this is what you really want

     Subspace diagonalization in iterative solution of the eigenvalue problem:
     a serial algorithm will be used

     Found symmetry operation: I + ( -0.5000 -0.5000  0.0000)
     This is a supercell, fractional translations are disabled

     bravais-lattice index     =            0
     lattice parameter (alat)  =       1.8897  a.u.
     unit-cell volume          =     384.0125 (a.u.)^3
     number of atoms/cell      =            4
     number of atomic types    =            2
     number of electrons       =        62.00
     number of Kohn-Sham states=           51
     kinetic-energy cutoff     =      58.7989  Ry
     charge density cutoff     =     587.9892  Ry
     convergence threshold     =      1.0E-06
     mixing beta               =       0.1000
     number of iterations used =           10  plain     mixing
     Exchange-correlation      = BEEF-VDW ( 1  4 27 13 2)

     celldm(1)=   1.889726  celldm(2)=   0.000000  celldm(3)=   0.000000
     celldm(4)=   0.000000  celldm(5)=   0.000000  celldm(6)=   0.000000

     crystal axes: (cart. coord. in units of alat)
               a(1) = (   3.845462   0.000000   0.000000 )
               a(2) = (   0.000000   3.845462   0.000000 )
               a(3) = (   0.000000   0.000000   3.848147 )

     reciprocal axes: (cart. coord. in units 2 pi/alat)
               b(1) = (  0.260047  0.000000  0.000000 )
               b(2) = (  0.000000  0.260047  0.000000 )
               b(3) = (  0.000000  0.000000  0.259865 )

     PseudoPot. # 1 for Tc read from file:
     /home/vossj/suncat/psp/gbrv1.5pbe/Tc.UPF
     MD5 check sum: 9eb49e5b028550b2339a02317eb7b844
     Pseudo is Ultrasoft + core correction, Zval = 15.0
     Generated by new atomic code, or converted to UPF format
     Using radial grid of  965 points,  6 beta functions with:
                l(1) =   0
                l(2) =   0
                l(3) =   1
                l(4) =   1
                l(5) =   2
                l(6) =   2
     Q(r) pseudized with  8 coefficients,  rinner =    1.300   1.300   1.300
                                                       1.300   1.300

     PseudoPot. # 2 for Ru read from file:
     /home/vossj/suncat/psp/gbrv1.5pbe/Ru.UPF
     MD5 check sum: 7158a806dd851261a58e6920c40ebe78
     Pseudo is Ultrasoft + core correction, Zval = 16.0
     Generated by new atomic code, or converted to UPF format
     Using radial grid of  967 points,  6 beta functions with:
                l(1) =   0
                l(2) =   0
                l(3) =   1
                l(4) =   1
                l(5) =   2
                l(6) =   2
     Q(r) pseudized with  8 coefficients,  rinner =    1.300   1.300   1.300
                                                       1.300   1.300

     vdW kernel table read from file vdW_kernel_table
     MD5 check sum: 095c7af220d748ca6e76c0b4c6cfb241

     atomic species   valence    mass     pseudopotential
        Tc1           15.00    97.90721     Tc( 1.00)
        Ru1           16.00   101.07000     Ru( 1.00)

     16 Sym. Ops., with inversion, found

   Cartesian axes

     site n.     atom                  positions (alat units)
         1           Tc1 tau(   1) = (   0.0000000   0.0000000   0.0000000  )
         2           Tc1 tau(   2) = (   1.9227310   1.9227310   0.0000000  )
         3           Ru1 tau(   3) = (   1.9227310   0.0000000   1.9240735  )
         4           Ru1 tau(   4) = (   0.0000000   1.9227310   1.9240735  )

     number of k points=    75  Fermi-Dirac smearing, width (Ry)=  0.0073
                       cart. coord. in units 2pi/alat
        k(    1) = (   0.0000000   0.0000000   0.0000000), wk =   0.0027435
        k(    2) = (   0.0000000   0.0000000   0.0288739), wk =   0.0054870
        k(    3) = (   0.0000000   0.0000000   0.0577479), wk =   0.0054870
        k(    4) = (   0.0000000   0.0000000   0.0866218), wk =   0.0054870
        k(    5) = (   0.0000000   0.0000000   0.1154957), wk =   0.0054870
        k(    6) = (   0.0000000   0.0288941   0.0000000), wk =   0.0109739
        k(    7) = (   0.0000000   0.0288941   0.0288739), wk =   0.0219479
        k(    8) = (   0.0000000   0.0288941   0.0577479), wk =   0.0219479
        k(    9) = (   0.0000000   0.0288941   0.0866218), wk =   0.0219479
        k(   10) = (   0.0000000   0.0288941   0.1154957), wk =   0.0219479
        k(   11) = (   0.0000000   0.0577882   0.0000000), wk =   0.0109739
        k(   12) = (   0.0000000   0.0577882   0.0288739), wk =   0.0219479
        k(   13) = (   0.0000000   0.0577882   0.0577479), wk =   0.0219479
        k(   14) = (   0.0000000   0.0577882   0.0866218), wk =   0.0219479
        k(   15) = (   0.0000000   0.0577882   0.1154957), wk =   0.0219479
        k(   16) = (   0.0000000   0.0866823   0.0000000), wk =   0.0109739
        k(   17) = (   0.0000000   0.0866823   0.0288739), wk =   0.0219479
        k(   18) = (   0.0000000   0.0866823   0.0577479), wk =   0.0219479
        k(   19) = (   0.0000000   0.0866823   0.0866218), wk =   0.0219479
        k(   20) = (   0.0000000   0.0866823   0.1154957), wk =   0.0219479
        k(   21) = (   0.0000000   0.1155763   0.0000000), wk =   0.0109739
        k(   22) = (   0.0000000   0.1155763   0.0288739), wk =   0.0219479
        k(   23) = (   0.0000000   0.1155763   0.0577479), wk =   0.0219479
        k(   24) = (   0.0000000   0.1155763   0.0866218), wk =   0.0219479
        k(   25) = (   0.0000000   0.1155763   0.1154957), wk =   0.0219479
        k(   26) = (   0.0288941   0.0288941   0.0000000), wk =   0.0109739
        k(   27) = (   0.0288941   0.0288941   0.0288739), wk =   0.0219479
        k(   28) = (   0.0288941   0.0288941   0.0577479), wk =   0.0219479
        k(   29) = (   0.0288941   0.0288941   0.0866218), wk =   0.0219479
        k(   30) = (   0.0288941   0.0288941   0.1154957), wk =   0.0219479
        k(   31) = (   0.0288941   0.0577882   0.0000000), wk =   0.0219479
        k(   32) = (   0.0288941   0.0577882   0.0288739), wk =   0.0438957
        k(   33) = (   0.0288941   0.0577882   0.0577479), wk =   0.0438957
        k(   34) = (   0.0288941   0.0577882   0.0866218), wk =   0.0438957
        k(   35) = (   0.0288941   0.0577882   0.1154957), wk =   0.0438957
        k(   36) = (   0.0288941   0.0866823   0.0000000), wk =   0.0219479
        k(   37) = (   0.0288941   0.0866823   0.0288739), wk =   0.0438957
        k(   38) = (   0.0288941   0.0866823   0.0577479), wk =   0.0438957
        k(   39) = (   0.0288941   0.0866823   0.0866218), wk =   0.0438957
        k(   40) = (   0.0288941   0.0866823   0.1154957), wk =   0.0438957
        k(   41) = (   0.0288941   0.1155763   0.0000000), wk =   0.0219479
        k(   42) = (   0.0288941   0.1155763   0.0288739), wk =   0.0438957
        k(   43) = (   0.0288941   0.1155763   0.0577479), wk =   0.0438957
        k(   44) = (   0.0288941   0.1155763   0.0866218), wk =   0.0438957
        k(   45) = (   0.0288941   0.1155763   0.1154957), wk =   0.0438957
        k(   46) = (   0.0577882   0.0577882   0.0000000), wk =   0.0109739
        k(   47) = (   0.0577882   0.0577882   0.0288739), wk =   0.0219479
        k(   48) = (   0.0577882   0.0577882   0.0577479), wk =   0.0219479
        k(   49) = (   0.0577882   0.0577882   0.0866218), wk =   0.0219479
        k(   50) = (   0.0577882   0.0577882   0.1154957), wk =   0.0219479
        k(   51) = (   0.0577882   0.0866823   0.0000000), wk =   0.0219479
        k(   52) = (   0.0577882   0.0866823   0.0288739), wk =   0.0438957
        k(   53) = (   0.0577882   0.0866823   0.0577479), wk =   0.0438957
        k(   54) = (   0.0577882   0.0866823   0.0866218), wk =   0.0438957
        k(   55) = (   0.0577882   0.0866823   0.1154957), wk =   0.0438957
        k(   56) = (   0.0577882   0.1155763   0.0000000), wk =   0.0219479
        k(   57) = (   0.0577882   0.1155763   0.0288739), wk =   0.0438957
        k(   58) = (   0.0577882   0.1155763   0.0577479), wk =   0.0438957
        k(   59) = (   0.0577882   0.1155763   0.0866218), wk =   0.0438957
        k(   60) = (   0.0577882   0.1155763   0.1154957), wk =   0.0438957
        k(   61) = (   0.0866823   0.0866823   0.0000000), wk =   0.0109739
        k(   62) = (   0.0866823   0.0866823   0.0288739), wk =   0.0219479
        k(   63) = (   0.0866823   0.0866823   0.0577479), wk =   0.0219479
        k(   64) = (   0.0866823   0.0866823   0.0866218), wk =   0.0219479
        k(   65) = (   0.0866823   0.0866823   0.1154957), wk =   0.0219479
        k(   66) = (   0.0866823   0.1155763   0.0000000), wk =   0.0219479
        k(   67) = (   0.0866823   0.1155763   0.0288739), wk =   0.0438957
        k(   68) = (   0.0866823   0.1155763   0.0577479), wk =   0.0438957
        k(   69) = (   0.0866823   0.1155763   0.0866218), wk =   0.0438957
        k(   70) = (   0.0866823   0.1155763   0.1154957), wk =   0.0438957
        k(   71) = (   0.1155763   0.1155763   0.0000000), wk =   0.0109739
        k(   72) = (   0.1155763   0.1155763   0.0288739), wk =   0.0219479
        k(   73) = (   0.1155763   0.1155763   0.0577479), wk =   0.0219479
        k(   74) = (   0.1155763   0.1155763   0.0866218), wk =   0.0219479
        k(   75) = (   0.1155763   0.1155763   0.1154957), wk =   0.0219479

     Largest allocated arrays     est. size (Mb)     dimensions
     Largest temporary arrays     est. size (Mb)     dimensions

     Check: negative/imaginary core charge=   -0.000008    0.000000

     Initial potential from superposition of free atoms
     Check: negative starting charge=   -0.396869

     starting charge   57.99991, renormalised to   62.00000

     negative rho (up, down):  4.242E-01 0.000E+00

     *
     * You are using vdW-DF for exchange-correlation in this calculation.
     * Please cite the following three references that made this development
     * possible:
     *
     *   M. Dion, H. Rydberg, E. Schroder, D. C. Langreth, and
     *   B. I. Lundqvist, Phys. Rev. Lett. 92, 246401 (2004).
     *
     *   T. Thonhauser, V. R. Cooper, S. Li, A. Puzder, P. Hyldgaard, and
     *   D. C. Langreth, Phys. Rev. B 76, 125112 (2007).
     *
     *   G. Roman-Perez and J. M. Soler, Phys. Rev. Lett. 103, 096102 (2009).
     *
     *
     * If you are using vdW-DF2, please also cite:
     *
     *   K. Lee, E. D. Murray, L. Kong, B. I. Lundqvist, and
     *   D. C. Langreth, Phys. Rev. B 82, 081101(R) (2010).
     *
     *
     * If you are calculating the stress with vdW-DF, please also cite:
     *
     *   R. Sabatini, E. Kucukbenli, B. Kolb, T. Thonhauser, and
     *   S. de Gironcoli, J. Phys.: Condens. Matter 24, 424209 (2012).
     *

     Carrying out vdW-DF run using the following parameters:

     Nqs =      20    Nr_points =    1024   r_max =   100.000
     q_mesh =
               0.00001000     0.04494208     0.09755937     0.15916263
               0.23128650     0.31572767     0.41458969     0.53033537
               0.66584808     0.82450364     1.01025438     1.22772762
               1.48234092     1.78043706     2.12944203     2.53805004
               3.01644009     3.57652955     4.23227104     5.00000000

     Gradients computed in reciprocal space

     Starting wfc are   52 randomized atomic wfcs

     Self-consistent Calculation

     iteration #  1     ecut=    58.80 Ry     beta=0.10
     Davidson diagonalization with overlap
     ethr =  1.00E-02,  avg # of iterations =  4.6

[...]

     total energy              =    -741.82073040 Ry
     Harris-Foulkes estimate   =    -742.44787180 Ry
     estimated scf accuracy    <       4.23632680 Ry

[...]

     total energy              =    -740.95885028 Ry
     Harris-Foulkes estimate   =    -740.95885154 Ry
     estimated scf accuracy    <       0.00001120 Ry

     iteration # 11     ecut=    58.80 Ry     beta=0.10
     Davidson diagonalization with overlap
     ethr =  1.81E-08,  avg # of iterations =  1.0

     negative rho (up, down):  4.151E-01 0.000E+00

     End of self-consistent calculation

          k = 0.0000 0.0000 0.0000 (  2945 PWs)   bands (ev):

   -50.5708 -50.4712 -44.9379 -44.7928 -20.7089 -20.7089 -20.5993 -20.4376
   -20.2692 -20.2692 -17.1252 -17.1252 -16.8630 -16.7914 -16.5520 -16.5520
    14.9346  16.3857  16.4363  16.4893  16.9473  16.9473  16.9531  20.2349
    20.2349  20.2583  22.5852  22.6669  24.2140  24.5060  24.6269  24.7626
    25.0567  25.0567  25.0963  25.0963  25.6501  26.1737  26.1920  26.1920
    35.1423  35.6213  35.6213  35.6264  35.6264  36.0687  36.0755  36.1128
    36.1762  36.8780  42.3669

[...]

          k = 0.1156 0.1156 0.1155 (  2944 PWs)   bands (ev):

   -50.5206 -50.5177 -44.8677 -44.8632 -20.7808 -20.7685 -20.5457 -20.5429
   -20.2324 -20.2192 -17.1773 -17.1604 -16.8290 -16.8249 -16.5228 -16.5042
    16.8033  16.8568  16.8892  16.9062  19.8979  19.9330  19.9933  20.1344
    20.1360  20.2147  20.2566  20.3574  22.8186  22.8226  22.8979  23.1919
    24.2777  24.3621  24.3712  24.6537  24.8139  25.1865  25.3237  25.3958
    32.5254  32.6168  32.7565  33.1040  36.7018  36.7019  36.7629  36.7945
    42.3820  42.4288  42.6017

     the Fermi energy is    22.3715 ev

!    total energy              =    -740.95885182 Ry
     Harris-Foulkes estimate   =    -740.95885143 Ry
     estimated scf accuracy    <       0.00000067 Ry

     The total energy is the sum of the following terms:

     one-electron contribution =    -118.50676530 Ry
     hartree contribution      =     104.16358499 Ry
     xc contribution           =    -120.11580542 Ry
     ewald contribution        =    -606.48949747 Ry
     smearing contrib. (-TS)   =      -0.01036863 Ry

     convergence has been achieved in  11 iterations

     Forces acting on atoms (Ry/au):

     negative rho (up, down):  4.151E-01 0.000E+00
     atom    1 type  1   force =     0.00000000    0.00000000    0.00000000
     atom    2 type  1   force =     0.00000000    0.00000000    0.00000000
     atom    3 type  2   force =     0.00000000    0.00000000    0.00000000
     atom    4 type  2   force =     0.00000000    0.00000000    0.00000000

     Total force =     0.000000     Total SCF correction =     0.000000

     General routines

     Parallel routines

   This run was terminated on:  22:52:28  14Nov2017

   JOB DONE.