     Program PWSCF v.5.1rc2 starts on 14Nov2017 at 10:13:57

     Current dimensions of program PWSCF are:
     Max number of different atomic species (ntypx) = 10
     Max number of k-points (npk) =  40000
     Max angular momentum in pseudopotentials (lmaxx) =  3

     IMPORTANT: XC functional enforced from input :
     Exchange-correlation      = BEEF-VDW ( 1  4 27 13 2)
     Any further DFT definition will be discarded
     Please, verify this is what you really want

     Found symmetry operation: I + ( -0.5000 -0.5000  0.0000)
     This is a supercell, fractional translations are disabled

     bravais-lattice index     =            0
     lattice parameter (alat)  =       1.8897  a.u.
     unit-cell volume          =     474.4186 (a.u.)^3
     number of atoms/cell      =            4
     number of atomic types    =            2
     number of electrons       =        78.00
     number of Kohn-Sham states=           59
     kinetic-energy cutoff     =      58.7989  Ry
     charge density cutoff     =     587.9892  Ry
     convergence threshold     =      1.0E-06
     mixing beta               =       0.1000
     number of iterations used =           10  plain     mixing
     Exchange-correlation      = BEEF-VDW ( 1  4 27 13 2)

     celldm(1)=   1.889726  celldm(2)=   0.000000  celldm(3)=   0.000000
     celldm(4)=   0.000000  celldm(5)=   0.000000  celldm(6)=   0.000000

     crystal axes: (cart. coord. in units of alat)
               a(1) = (   4.134027   0.000000   0.000000 )
               a(2) = (   0.000000   4.134027   0.000000 )
               a(3) = (   0.000000   0.000000   4.113566 )

     reciprocal axes: (cart. coord. in units 2 pi/alat)
               b(1) = (  0.241895  0.000000  0.000000 )
               b(2) = (  0.000000  0.241895  0.000000 )
               b(3) = (  0.000000  0.000000  0.243098 )

     PseudoPot. # 1 for Zn read from file:
     /home/users/vossj/suncat/psp/gbrv1.5pbe/Zn.UPF
     MD5 check sum: df62231357ef9e81f77b2b3087fa5675
     Pseudo is Ultrasoft, Zval = 20.0
     Generated by new atomic code, or converted to UPF format
     Using radial grid of  943 points,  6 beta functions with:
                l(1) =   0
                l(2) =   0
                l(3) =   1
                l(4) =   1
                l(5) =   2
                l(6) =   2
     Q(r) pseudized with  8 coefficients,  rinner =    1.100   1.100   1.100
                                                       1.100   1.100

     PseudoPot. # 2 for Ga read from file:
     /home/users/vossj/suncat/psp/gbrv1.5pbe/Ga.UPF
     MD5 check sum: ccd671392a58a050fbb373893b4fcd66
     Pseudo is Ultrasoft + core correction, Zval = 19.0
     Generated by new atomic code, or converted to UPF format
     Using radial grid of  871 points,  6 beta functions with:
                l(1) =   0
                l(2) =   0
                l(3) =   1
                l(4) =   1
                l(5) =   2
                l(6) =   2
     Q(r) pseudized with  8 coefficients,  rinner =    1.250   1.250   1.250
                                                       1.250   1.250

     vdW kernel table read from file vdW_kernel_table
     MD5 check sum: 095c7af220d748ca6e76c0b4c6cfb241

     atomic species   valence    mass     pseudopotential
        Zn1           20.00    65.39000     Zn( 1.00)
        Ga1           19.00    69.72300     Ga( 1.00)

     16 Sym. Ops., with inversion, found

   Cartesian axes

     site n.     atom                  positions (alat units)
         1           Zn1 tau(   1) = (   0.0000000   0.0000000   0.0000000  )
         2           Zn1 tau(   2) = (   2.0670136   2.0670136   0.0000000  )
         3           Ga1 tau(   3) = (   2.0670136   0.0000000   2.0567829  )
         4           Ga1 tau(   4) = (   0.0000000   2.0670136   2.0567829  )

     number of k points=    75  Fermi-Dirac smearing, width (Ry)=  0.0073
                       cart. coord. in units 2pi/alat
        k(    1) = (   0.0000000   0.0000000   0.0000000), wk =   0.0027435
        k(    2) = (   0.0000000   0.0000000   0.0270109), wk =   0.0054870
        k(    3) = (   0.0000000   0.0000000   0.0540218), wk =   0.0054870
        k(    4) = (   0.0000000   0.0000000   0.0810327), wk =   0.0054870
        k(    5) = (   0.0000000   0.0000000   0.1080436), wk =   0.0054870
        k(    6) = (   0.0000000   0.0268772   0.0000000), wk =   0.0109739
        k(    7) = (   0.0000000   0.0268772   0.0270109), wk =   0.0219479
        k(    8) = (   0.0000000   0.0268772   0.0540218), wk =   0.0219479
        k(    9) = (   0.0000000   0.0268772   0.0810327), wk =   0.0219479
        k(   10) = (   0.0000000   0.0268772   0.1080436), wk =   0.0219479
        k(   11) = (   0.0000000   0.0537544   0.0000000), wk =   0.0109739
        k(   12) = (   0.0000000   0.0537544   0.0270109), wk =   0.0219479
        k(   13) = (   0.0000000   0.0537544   0.0540218), wk =   0.0219479
        k(   14) = (   0.0000000   0.0537544   0.0810327), wk =   0.0219479
        k(   15) = (   0.0000000   0.0537544   0.1080436), wk =   0.0219479
        k(   16) = (   0.0000000   0.0806316   0.0000000), wk =   0.0109739
        k(   17) = (   0.0000000   0.0806316   0.0270109), wk =   0.0219479
        k(   18) = (   0.0000000   0.0806316   0.0540218), wk =   0.0219479
        k(   19) = (   0.0000000   0.0806316   0.0810327), wk =   0.0219479
        k(   20) = (   0.0000000   0.0806316   0.1080436), wk =   0.0219479
        k(   21) = (   0.0000000   0.1075088   0.0000000), wk =   0.0109739
        k(   22) = (   0.0000000   0.1075088   0.0270109), wk =   0.0219479
        k(   23) = (   0.0000000   0.1075088   0.0540218), wk =   0.0219479
        k(   24) = (   0.0000000   0.1075088   0.0810327), wk =   0.0219479
        k(   25) = (   0.0000000   0.1075088   0.1080436), wk =   0.0219479
        k(   26) = (   0.0268772   0.0268772   0.0000000), wk =   0.0109739
        k(   27) = (   0.0268772   0.0268772   0.0270109), wk =   0.0219479
        k(   28) = (   0.0268772   0.0268772   0.0540218), wk =   0.0219479
        k(   29) = (   0.0268772   0.0268772   0.0810327), wk =   0.0219479
        k(   30) = (   0.0268772   0.0268772   0.1080436), wk =   0.0219479
        k(   31) = (   0.0268772   0.0537544   0.0000000), wk =   0.0219479
        k(   32) = (   0.0268772   0.0537544   0.0270109), wk =   0.0438957
        k(   33) = (   0.0268772   0.0537544   0.0540218), wk =   0.0438957
        k(   34) = (   0.0268772   0.0537544   0.0810327), wk =   0.0438957
        k(   35) = (   0.0268772   0.0537544   0.1080436), wk =   0.0438957
        k(   36) = (   0.0268772   0.0806316   0.0000000), wk =   0.0219479
        k(   37) = (   0.0268772   0.0806316   0.0270109), wk =   0.0438957
        k(   38) = (   0.0268772   0.0806316   0.0540218), wk =   0.0438957
        k(   39) = (   0.0268772   0.0806316   0.0810327), wk =   0.0438957
        k(   40) = (   0.0268772   0.0806316   0.1080436), wk =   0.0438957
        k(   41) = (   0.0268772   0.1075088   0.0000000), wk =   0.0219479
        k(   42) = (   0.0268772   0.1075088   0.0270109), wk =   0.0438957
        k(   43) = (   0.0268772   0.1075088   0.0540218), wk =   0.0438957
        k(   44) = (   0.0268772   0.1075088   0.0810327), wk =   0.0438957
        k(   45) = (   0.0268772   0.1075088   0.1080436), wk =   0.0438957
        k(   46) = (   0.0537544   0.0537544   0.0000000), wk =   0.0109739
        k(   47) = (   0.0537544   0.0537544   0.0270109), wk =   0.0219479
        k(   48) = (   0.0537544   0.0537544   0.0540218), wk =   0.0219479
        k(   49) = (   0.0537544   0.0537544   0.0810327), wk =   0.0219479
        k(   50) = (   0.0537544   0.0537544   0.1080436), wk =   0.0219479
        k(   51) = (   0.0537544   0.0806316   0.0000000), wk =   0.0219479
        k(   52) = (   0.0537544   0.0806316   0.0270109), wk =   0.0438957
        k(   53) = (   0.0537544   0.0806316   0.0540218), wk =   0.0438957
        k(   54) = (   0.0537544   0.0806316   0.0810327), wk =   0.0438957
        k(   55) = (   0.0537544   0.0806316   0.1080436), wk =   0.0438957
        k(   56) = (   0.0537544   0.1075088   0.0000000), wk =   0.0219479
        k(   57) = (   0.0537544   0.1075088   0.0270109), wk =   0.0438957
        k(   58) = (   0.0537544   0.1075088   0.0540218), wk =   0.0438957
        k(   59) = (   0.0537544   0.1075088   0.0810327), wk =   0.0438957
        k(   60) = (   0.0537544   0.1075088   0.1080436), wk =   0.0438957
        k(   61) = (   0.0806316   0.0806316   0.0000000), wk =   0.0109739
        k(   62) = (   0.0806316   0.0806316   0.0270109), wk =   0.0219479
        k(   63) = (   0.0806316   0.0806316   0.0540218), wk =   0.0219479
        k(   64) = (   0.0806316   0.0806316   0.0810327), wk =   0.0219479
        k(   65) = (   0.0806316   0.0806316   0.1080436), wk =   0.0219479
        k(   66) = (   0.0806316   0.1075088   0.0000000), wk =   0.0219479
        k(   67) = (   0.0806316   0.1075088   0.0270109), wk =   0.0438957
        k(   68) = (   0.0806316   0.1075088   0.0540218), wk =   0.0438957
        k(   69) = (   0.0806316   0.1075088   0.0810327), wk =   0.0438957
        k(   70) = (   0.0806316   0.1075088   0.1080436), wk =   0.0438957
        k(   71) = (   0.1075088   0.1075088   0.0000000), wk =   0.0109739
        k(   72) = (   0.1075088   0.1075088   0.0270109), wk =   0.0219479
        k(   73) = (   0.1075088   0.1075088   0.0540218), wk =   0.0219479
        k(   74) = (   0.1075088   0.1075088   0.0810327), wk =   0.0219479
        k(   75) = (   0.1075088   0.1075088   0.1080436), wk =   0.0219479

     Largest allocated arrays     est. size (Mb)     dimensions
     Largest temporary arrays     est. size (Mb)     dimensions

     Initial potential from superposition of free atoms

     starting charge   75.99972, renormalised to   78.00000

     *
     * You are using vdW-DF for exchange-correlation in this calculation.
     * Please cite the following three references that made this development
     * possible:
     *
     *   M. Dion, H. Rydberg, E. Schroder, D. C. Langreth, and
     *   B. I. Lundqvist, Phys. Rev. Lett. 92, 246401 (2004).
     *
     *   T. Thonhauser, V. R. Cooper, S. Li, A. Puzder, P. Hyldgaard, and
     *   D. C. Langreth, Phys. Rev. B 76, 125112 (2007).
     *
     *   G. Roman-Perez and J. M. Soler, Phys. Rev. Lett. 103, 096102 (2009).
     *
     *
     * If you are using vdW-DF2, please also cite:
     *
     *   K. Lee, E. D. Murray, L. Kong, B. I. Lundqvist, and
     *   D. C. Langreth, Phys. Rev. B 82, 081101(R) (2010).
     *
     *
     * If you are calculating the stress with vdW-DF, please also cite:
     *
     *   R. Sabatini, E. Kucukbenli, B. Kolb, T. Thonhauser, and
     *   S. de Gironcoli, J. Phys.: Condens. Matter 24, 424209 (2012).
     *

     Carrying out vdW-DF run using the following parameters:

     Nqs =      20    Nr_points =    1024   r_max =   100.000
     q_mesh =
               0.00001000     0.04494208     0.09755937     0.15916263
               0.23128650     0.31572767     0.41458969     0.53033537
               0.66584808     0.82450364     1.01025438     1.22772762
               1.48234092     1.78043706     2.12944203     2.53805004
               3.01644009     3.57652955     4.23227104     5.00000000

     Gradients computed in reciprocal space

     Starting wfc are   50 randomized atomic wfcs +    9 random wfc

     Self-consistent Calculation

     iteration #  1     ecut=    58.80 Ry     beta=0.10
     Davidson diagonalization with overlap
     ethr =  1.00E-02,  avg # of iterations =  4.6

     total energy              =   -1758.51323094 Ry
     Harris-Foulkes estimate   =   -1761.01505196 Ry
     estimated scf accuracy    <      14.21298017 Ry

[...]

     total energy              =   -1758.75206512 Ry
     Harris-Foulkes estimate   =   -1758.75206411 Ry
     estimated scf accuracy    <       0.00000169 Ry

     iteration # 13     ecut=    58.80 Ry     beta=0.10
     Davidson diagonalization with overlap
     ethr =  2.17E-09,  avg # of iterations =  1.1

     End of self-consistent calculation

          k = 0.0000 0.0000 0.0000 (  3695 PWs)   bands (ev):

  -115.0406-115.0401 -83.2805 -83.2805 -83.2781 -83.2781 -83.2757 -83.2754
   -69.2249 -69.2241 -69.2231 -69.2231 -69.2180 -69.2180  -3.7979  -3.7385
    -3.6957  -3.6569  -3.6569  -3.5557  -3.5557  -3.5478  -3.5081  -3.4145
     0.9711   3.6216   3.7077   3.8043   3.9709   3.9709   4.1468   4.1948
     4.1948   4.3056   4.4766   9.7113   9.7113   9.8284   9.8904  11.1485
    11.8811  17.0508  17.7316  17.7316  18.0973  18.0973  18.8574  21.2620
    21.4476  21.4476  21.6026  21.7119  22.3476  26.1507  26.2959  26.2959
    28.4759  29.3622  29.3622

[...]

          k = 0.1075 0.1075 0.1080 (  3588 PWs)   bands (ev):

  -115.0404-115.0403 -83.2806 -83.2805 -83.2780 -83.2779 -83.2756 -83.2756
   -69.2245 -69.2245 -69.2234 -69.2233 -69.2178 -69.2177  -3.7141  -3.7052
    -3.6946  -3.6916  -3.5969  -3.5901  -3.5509  -3.5477  -3.5131  -3.5061
     3.4502   3.4706   3.8128   3.8348   4.1090   4.1316   4.1944   4.2086
     4.2249   4.2375   6.4963   7.1818   7.8558   8.0317   8.5558   8.8021
     9.4317  10.1982  21.5234  22.0018  22.7135  22.7914  23.2048  23.7210
    24.0597  24.4719  25.8136  26.0175  26.0208  27.2528  27.5609  27.6759
    27.7108  28.4313  28.5194

     the Fermi energy is    11.5056 ev

!    total energy              =   -1758.75207017 Ry
     Harris-Foulkes estimate   =   -1758.75206517 Ry
     estimated scf accuracy    <       0.00000082 Ry

     The total energy is the sum of the following terms:

     one-electron contribution =   -1414.51575500 Ry
     hartree contribution      =     736.56883374 Ry
     xc contribution           =    -186.37975744 Ry
     ewald contribution        =    -894.42184796 Ry
     smearing contrib. (-TS)   =      -0.00354350 Ry

     convergence has been achieved in  13 iterations

     Forces acting on atoms (Ry/au):

     atom    1 type  1   force =     0.00000000    0.00000000    0.00000000
     atom    2 type  1   force =     0.00000000    0.00000000    0.00000000
     atom    3 type  2   force =     0.00000000    0.00000000    0.00000000
     atom    4 type  2   force =     0.00000000    0.00000000    0.00000000

     Total force =     0.000000     Total SCF correction =     0.000000

     General routines

     Parallel routines

   This run was terminated on:  10:14:53  14Nov2017

   JOB DONE.