     Program PWSCF v.5.1rc2 starts on 15Nov2017 at 11:49: 1

     Current dimensions of program PWSCF are:
     Max number of different atomic species (ntypx) = 10
     Max number of k-points (npk) =  40000
     Max angular momentum in pseudopotentials (lmaxx) =  3

     IMPORTANT: XC functional enforced from input :
     Exchange-correlation      = BEEF-VDW ( 1  4 27 13 2)
     Any further DFT definition will be discarded
     Please, verify this is what you really want

     Found symmetry operation: I + ( -0.5000 -0.5000  0.0000)
     This is a supercell, fractional translations are disabled

     bravais-lattice index     =            0
     lattice parameter (alat)  =       1.8897  a.u.
     unit-cell volume          =     851.6193 (a.u.)^3
     number of atoms/cell      =            4
     number of atomic types    =            2
     number of electrons       =        46.00
     number of Kohn-Sham states=           33
     kinetic-energy cutoff     =      44.0992  Ry
     charge density cutoff     =     440.9919  Ry
     convergence threshold     =      1.0E-05
     mixing beta               =       0.1500
     number of iterations used =           10  plain     mixing
     Exchange-correlation      = BEEF-VDW ( 1  4 27 13 2)

     celldm(1)=   1.889726  celldm(2)=   0.000000  celldm(3)=   0.000000
     celldm(4)=   0.000000  celldm(5)=   0.000000  celldm(6)=   0.000000

     crystal axes: (cart. coord. in units of alat)
               a(1) = (   5.700072   0.000000   0.000000 )
               a(2) = (   0.000000   5.700072   0.000000 )
               a(3) = (   0.000000   0.000000   3.884080 )

     reciprocal axes: (cart. coord. in units 2 pi/alat)
               b(1) = (  0.175436  0.000000  0.000000 )
               b(2) = (  0.000000  0.175436  0.000000 )
               b(3) = (  0.000000  0.000000  0.257461 )

     PseudoPot. # 1 for La read from file:
     /home/users/vossj/suncat/psp/gbrv1.5pbe/La.UPF
     MD5 check sum: 5937b0c7494ba0601a847275249473aa
     Pseudo is Ultrasoft + core correction, Zval = 11.0
     Generated by new atomic code, or converted to UPF format
     Using radial grid of  995 points,  8 beta functions with:
                l(1) =   0
                l(2) =   0
                l(3) =   1
                l(4) =   1
                l(5) =   2
                l(6) =   2
                l(7) =   3
                l(8) =   3
     Q(r) pseudized with  8 coefficients,  rinner =    1.700   1.700   1.700
                                                       1.700   1.700   1.700
                                                       1.700

     PseudoPot. # 2 for Cd read from file:
     /home/users/vossj/suncat/psp/gbrv1.5pbe/Cd.UPF
     MD5 check sum: 17164a7926edb8e0dc231208abae86a6
     Pseudo is Ultrasoft + core correction, Zval = 12.0
     Generated by new atomic code, or converted to UPF format
     Using radial grid of  889 points,  6 beta functions with:
                l(1) =   0
                l(2) =   0
                l(3) =   1
                l(4) =   1
                l(5) =   2
                l(6) =   2
     Q(r) pseudized with  6 coefficients,  rinner =    1.000   1.000   1.000
                                                       1.000   1.000

     vdW kernel table read from file vdW_kernel_table
     MD5 check sum: 095c7af220d748ca6e76c0b4c6cfb241

     atomic species   valence    mass     pseudopotential
        La1           11.00   138.90550     La( 1.00)
        Cd1           12.00   112.41000     Cd( 1.00)

     16 Sym. Ops., with inversion, found

   Cartesian axes

     site n.     atom                  positions (alat units)
         1           La1 tau(   1) = (   0.0000000   0.0000000   0.0000000  )
         2           La1 tau(   2) = (   2.8500361   2.8500361   0.0000000  )
         3           Cd1 tau(   3) = (   2.8500361   0.0000000   1.9420401  )
         4           Cd1 tau(   4) = (   0.0000000   2.8500361   1.9420401  )

     number of k points=    75  Fermi-Dirac smearing, width (Ry)=  0.0110
                       cart. coord. in units 2pi/alat
        k(    1) = (   0.0000000   0.0000000   0.0000000), wk =   0.0027435
        k(    2) = (   0.0000000   0.0000000   0.0286068), wk =   0.0054870
        k(    3) = (   0.0000000   0.0000000   0.0572136), wk =   0.0054870
        k(    4) = (   0.0000000   0.0000000   0.0858204), wk =   0.0054870
        k(    5) = (   0.0000000   0.0000000   0.1144272), wk =   0.0054870
        k(    6) = (   0.0000000   0.0194929   0.0000000), wk =   0.0109739
        k(    7) = (   0.0000000   0.0194929   0.0286068), wk =   0.0219479
        k(    8) = (   0.0000000   0.0194929   0.0572136), wk =   0.0219479
        k(    9) = (   0.0000000   0.0194929   0.0858204), wk =   0.0219479
        k(   10) = (   0.0000000   0.0194929   0.1144272), wk =   0.0219479
        k(   11) = (   0.0000000   0.0389859   0.0000000), wk =   0.0109739
        k(   12) = (   0.0000000   0.0389859   0.0286068), wk =   0.0219479
        k(   13) = (   0.0000000   0.0389859   0.0572136), wk =   0.0219479
        k(   14) = (   0.0000000   0.0389859   0.0858204), wk =   0.0219479
        k(   15) = (   0.0000000   0.0389859   0.1144272), wk =   0.0219479
        k(   16) = (   0.0000000   0.0584788   0.0000000), wk =   0.0109739
        k(   17) = (   0.0000000   0.0584788   0.0286068), wk =   0.0219479
        k(   18) = (   0.0000000   0.0584788   0.0572136), wk =   0.0219479
        k(   19) = (   0.0000000   0.0584788   0.0858204), wk =   0.0219479
        k(   20) = (   0.0000000   0.0584788   0.1144272), wk =   0.0219479
        k(   21) = (   0.0000000   0.0779717   0.0000000), wk =   0.0109739
        k(   22) = (   0.0000000   0.0779717   0.0286068), wk =   0.0219479
        k(   23) = (   0.0000000   0.0779717   0.0572136), wk =   0.0219479
        k(   24) = (   0.0000000   0.0779717   0.0858204), wk =   0.0219479
        k(   25) = (   0.0000000   0.0779717   0.1144272), wk =   0.0219479
        k(   26) = (   0.0194929   0.0194929   0.0000000), wk =   0.0109739
        k(   27) = (   0.0194929   0.0194929   0.0286068), wk =   0.0219479
        k(   28) = (   0.0194929   0.0194929   0.0572136), wk =   0.0219479
        k(   29) = (   0.0194929   0.0194929   0.0858204), wk =   0.0219479
        k(   30) = (   0.0194929   0.0194929   0.1144272), wk =   0.0219479
        k(   31) = (   0.0194929   0.0389859   0.0000000), wk =   0.0219479
        k(   32) = (   0.0194929   0.0389859   0.0286068), wk =   0.0438957
        k(   33) = (   0.0194929   0.0389859   0.0572136), wk =   0.0438957
        k(   34) = (   0.0194929   0.0389859   0.0858204), wk =   0.0438957
        k(   35) = (   0.0194929   0.0389859   0.1144272), wk =   0.0438957
        k(   36) = (   0.0194929   0.0584788   0.0000000), wk =   0.0219479
        k(   37) = (   0.0194929   0.0584788   0.0286068), wk =   0.0438957
        k(   38) = (   0.0194929   0.0584788   0.0572136), wk =   0.0438957
        k(   39) = (   0.0194929   0.0584788   0.0858204), wk =   0.0438957
        k(   40) = (   0.0194929   0.0584788   0.1144272), wk =   0.0438957
        k(   41) = (   0.0194929   0.0779717   0.0000000), wk =   0.0219479
        k(   42) = (   0.0194929   0.0779717   0.0286068), wk =   0.0438957
        k(   43) = (   0.0194929   0.0779717   0.0572136), wk =   0.0438957
        k(   44) = (   0.0194929   0.0779717   0.0858204), wk =   0.0438957
        k(   45) = (   0.0194929   0.0779717   0.1144272), wk =   0.0438957
        k(   46) = (   0.0389859   0.0389859   0.0000000), wk =   0.0109739
        k(   47) = (   0.0389859   0.0389859   0.0286068), wk =   0.0219479
        k(   48) = (   0.0389859   0.0389859   0.0572136), wk =   0.0219479
        k(   49) = (   0.0389859   0.0389859   0.0858204), wk =   0.0219479
        k(   50) = (   0.0389859   0.0389859   0.1144272), wk =   0.0219479
        k(   51) = (   0.0389859   0.0584788   0.0000000), wk =   0.0219479
        k(   52) = (   0.0389859   0.0584788   0.0286068), wk =   0.0438957
        k(   53) = (   0.0389859   0.0584788   0.0572136), wk =   0.0438957
        k(   54) = (   0.0389859   0.0584788   0.0858204), wk =   0.0438957
        k(   55) = (   0.0389859   0.0584788   0.1144272), wk =   0.0438957
        k(   56) = (   0.0389859   0.0779717   0.0000000), wk =   0.0219479
        k(   57) = (   0.0389859   0.0779717   0.0286068), wk =   0.0438957
        k(   58) = (   0.0389859   0.0779717   0.0572136), wk =   0.0438957
        k(   59) = (   0.0389859   0.0779717   0.0858204), wk =   0.0438957
        k(   60) = (   0.0389859   0.0779717   0.1144272), wk =   0.0438957
        k(   61) = (   0.0584788   0.0584788   0.0000000), wk =   0.0109739
        k(   62) = (   0.0584788   0.0584788   0.0286068), wk =   0.0219479
        k(   63) = (   0.0584788   0.0584788   0.0572136), wk =   0.0219479
        k(   64) = (   0.0584788   0.0584788   0.0858204), wk =   0.0219479
        k(   65) = (   0.0584788   0.0584788   0.1144272), wk =   0.0219479
        k(   66) = (   0.0584788   0.0779717   0.0000000), wk =   0.0219479
        k(   67) = (   0.0584788   0.0779717   0.0286068), wk =   0.0438957
        k(   68) = (   0.0584788   0.0779717   0.0572136), wk =   0.0438957
        k(   69) = (   0.0584788   0.0779717   0.0858204), wk =   0.0438957
        k(   70) = (   0.0584788   0.0779717   0.1144272), wk =   0.0438957
        k(   71) = (   0.0779717   0.0779717   0.0000000), wk =   0.0109739
        k(   72) = (   0.0779717   0.0779717   0.0286068), wk =   0.0219479
        k(   73) = (   0.0779717   0.0779717   0.0572136), wk =   0.0219479
        k(   74) = (   0.0779717   0.0779717   0.0858204), wk =   0.0219479
        k(   75) = (   0.0779717   0.0779717   0.1144272), wk =   0.0219479

     Largest allocated arrays     est. size (Mb)     dimensions
     Largest temporary arrays     est. size (Mb)     dimensions

     Initial potential from superposition of free atoms
     Check: negative starting charge=   -0.184754

     starting charge   44.93578, renormalised to   46.00000

     negative rho (up, down):  1.891E-01 0.000E+00

     *
     * You are using vdW-DF for exchange-correlation in this calculation.
     * Please cite the following three references that made this development
     * possible:
     *
     *   M. Dion, H. Rydberg, E. Schroder, D. C. Langreth, and
     *   B. I. Lundqvist, Phys. Rev. Lett. 92, 246401 (2004).
     *
     *   T. Thonhauser, V. R. Cooper, S. Li, A. Puzder, P. Hyldgaard, and
     *   D. C. Langreth, Phys. Rev. B 76, 125112 (2007).
     *
     *   G. Roman-Perez and J. M. Soler, Phys. Rev. Lett. 103, 096102 (2009).
     *
     *
     * If you are using vdW-DF2, please also cite:
     *
     *   K. Lee, E. D. Murray, L. Kong, B. I. Lundqvist, and
     *   D. C. Langreth, Phys. Rev. B 82, 081101(R) (2010).
     *
     *
     * If you are calculating the stress with vdW-DF, please also cite:
     *
     *   R. Sabatini, E. Kucukbenli, B. Kolb, T. Thonhauser, and
     *   S. de Gironcoli, J. Phys.: Condens. Matter 24, 424209 (2012).
     *

     Carrying out vdW-DF run using the following parameters:

     Nqs =      20    Nr_points =    1024   r_max =   100.000
     q_mesh =
               0.00001000     0.04494208     0.09755937     0.15916263
               0.23128650     0.31572767     0.41458969     0.53033537
               0.66584808     0.82450364     1.01025438     1.22772762
               1.48234092     1.78043706     2.12944203     2.53805004
               3.01644009     3.57652955     4.23227104     5.00000000

     Gradients computed in reciprocal space

     Starting wfc are   58 randomized atomic wfcs

     Self-consistent Calculation

     iteration #  1     ecut=    44.10 Ry     beta=0.15
     Davidson diagonalization with overlap
     ethr =  1.00E-02,  avg # of iterations =  1.0

     Threshold (ethr) on eigenvalues was too large:
     Diagonalizing with lowered threshold

     Davidson diagonalization with overlap
     ethr =  1.51E-04,  avg # of iterations =  3.0

[...]

     total energy              =    -440.38582370 Ry
     Harris-Foulkes estimate   =    -440.40146961 Ry
     estimated scf accuracy    <       0.07836442 Ry

[...]

     total energy              =    -440.37734249 Ry
     Harris-Foulkes estimate   =    -440.37732959 Ry
     estimated scf accuracy    <       0.00001214 Ry

     iteration #  7     ecut=    44.10 Ry     beta=0.15
     Davidson diagonalization with overlap
     ethr =  2.64E-08,  avg # of iterations =  5.1

     negative rho (up, down):  1.474E-01 0.000E+00

     End of self-consistent calculation

          k = 0.0000 0.0000 0.0000 (  4195 PWs)   bands (ev):

   -23.1657 -23.1127  -6.9023  -6.9023  -6.5554  -6.5554  -6.4812  -6.4093
     1.4699   1.4842   1.4869   1.5530   1.5685   1.5685   1.6135   1.6335
     1.6335   1.7655   4.5832   6.5236  10.0356  10.0728  10.3996  10.4882
    10.4882  11.5662  11.5662  11.6273  11.6273  11.6306  11.6441  11.6599
    11.6599

[...]

          k = 0.0780 0.0780 0.1144 (  4218 PWs)   bands (ev):

   -23.1005 -23.0985  -6.9579  -6.9543  -6.8826  -6.8730  -6.4769  -6.4663
     1.4856   1.4857   1.5446   1.5448   1.5500   1.5517   1.5766   1.5828
     1.7752   1.7791   6.7030   6.7165  10.0455  10.1944  10.3887  10.5475
    10.9042  11.0045  11.5575  11.5677  11.6281  11.6298  11.6314  11.6428
    11.8934

     the Fermi energy is    10.2599 ev

!    total energy              =    -440.37738256 Ry
     Harris-Foulkes estimate   =    -440.37734750 Ry
     estimated scf accuracy    <       0.00000745 Ry

     The total energy is the sum of the following terms:

     one-electron contribution =     -67.78103163 Ry
     hartree contribution      =      66.60175866 Ry
     xc contribution           =    -183.01537255 Ry
     ewald contribution        =    -256.15669744 Ry
     smearing contrib. (-TS)   =      -0.02603960 Ry

     convergence has been achieved in   7 iterations

     Forces acting on atoms (Ry/au):

     negative rho (up, down):  1.474E-01 0.000E+00
     atom    1 type  1   force =     0.00000000    0.00000000    0.00000000
     atom    2 type  1   force =     0.00000000    0.00000000    0.00000000
     atom    3 type  2   force =     0.00000000    0.00000000    0.00000000
     atom    4 type  2   force =     0.00000000    0.00000000    0.00000000

     Total force =     0.000000     Total SCF correction =     0.000000

     General routines

     Parallel routines

   This run was terminated on:  11:49:29  15Nov2017

   JOB DONE.