     Program PWSCF v.5.1rc2 starts on 14Nov2017 at  7:34:46

     Current dimensions of program PWSCF are:
     Max number of different atomic species (ntypx) = 10
     Max number of k-points (npk) =  40000
     Max angular momentum in pseudopotentials (lmaxx) =  3

     IMPORTANT: XC functional enforced from input :
     Exchange-correlation      = BEEF-VDW ( 1  4 27 13 2)
     Any further DFT definition will be discarded
     Please, verify this is what you really want

     Found symmetry operation: I + ( -0.5000 -0.5000  0.0000)
     This is a supercell, fractional translations are disabled

     bravais-lattice index     =            0
     lattice parameter (alat)  =       1.8897  a.u.
     unit-cell volume          =     321.9872 (a.u.)^3
     number of atoms/cell      =            4
     number of atomic types    =            2
     number of electrons       =        66.00
     number of Kohn-Sham states=           53
     kinetic-energy cutoff     =      58.7989  Ry
     charge density cutoff     =     587.9892  Ry
     convergence threshold     =      1.0E-06
     mixing beta               =       0.1000
     number of iterations used =           10  plain     mixing
     Exchange-correlation      = BEEF-VDW ( 1  4 27 13 2)

     celldm(1)=   1.889726  celldm(2)=   0.000000  celldm(3)=   0.000000
     celldm(4)=   0.000000  celldm(5)=   0.000000  celldm(6)=   0.000000

     crystal axes: (cart. coord. in units of alat)
               a(1) = (   3.427971   0.000000   0.000000 )
               a(2) = (   0.000000   3.427971   0.000000 )
               a(3) = (   0.000000   0.000000   4.060390 )

     reciprocal axes: (cart. coord. in units 2 pi/alat)
               b(1) = (  0.291718  0.000000  0.000000 )
               b(2) = (  0.000000  0.291718  0.000000 )
               b(3) = (  0.000000  0.000000  0.246282 )

     PseudoPot. # 1 for Cr read from file:
     /home/users/vossj/suncat/psp/gbrv1.5pbe/Cr.UPF
     MD5 check sum: 0d52af634a40206e4dee301ad30da4bf
     Pseudo is Ultrasoft + core correction, Zval = 14.0
     Generated by new atomic code, or converted to UPF format
     Using radial grid of  857 points,  6 beta functions with:
                l(1) =   0
                l(2) =   0
                l(3) =   1
                l(4) =   1
                l(5) =   2
                l(6) =   2
     Q(r) pseudized with  8 coefficients,  rinner =    0.950   0.950   0.950
                                                       0.950   0.950

     PseudoPot. # 2 for Cu read from file:
     /home/users/vossj/suncat/psp/gbrv1.5pbe/Cu.UPF
     MD5 check sum: 6e991ff952a84172a2a52a1c1e996048
     Pseudo is Ultrasoft + core correction, Zval = 19.0
     Generated by new atomic code, or converted to UPF format
     Using radial grid of  867 points,  6 beta functions with:
                l(1) =   0
                l(2) =   0
                l(3) =   1
                l(4) =   1
                l(5) =   2
                l(6) =   2
     Q(r) pseudized with  8 coefficients,  rinner =    1.150   1.150   1.150
                                                       1.150   1.150

     vdW kernel table read from file vdW_kernel_table
     MD5 check sum: 095c7af220d748ca6e76c0b4c6cfb241

     atomic species   valence    mass     pseudopotential
        Cr1           14.00    51.99600     Cr( 1.00)
        Cu1           19.00    63.54600     Cu( 1.00)

     16 Sym. Ops., with inversion, found

   Cartesian axes

     site n.     atom                  positions (alat units)
         1           Cr1 tau(   1) = (   0.0000000   0.0000000   0.0000000  )
         2           Cr1 tau(   2) = (   1.7139855   1.7139855   0.0000000  )
         3           Cu1 tau(   3) = (   1.7139855   0.0000000   2.0301952  )
         4           Cu1 tau(   4) = (   0.0000000   1.7139855   2.0301952  )

     number of k points=    75  Fermi-Dirac smearing, width (Ry)=  0.0073
                       cart. coord. in units 2pi/alat
        k(    1) = (   0.0000000   0.0000000   0.0000000), wk =   0.0027435
        k(    2) = (   0.0000000   0.0000000   0.0273646), wk =   0.0054870
        k(    3) = (   0.0000000   0.0000000   0.0547293), wk =   0.0054870
        k(    4) = (   0.0000000   0.0000000   0.0820939), wk =   0.0054870
        k(    5) = (   0.0000000   0.0000000   0.1094586), wk =   0.0054870
        k(    6) = (   0.0000000   0.0324131   0.0000000), wk =   0.0109739
        k(    7) = (   0.0000000   0.0324131   0.0273646), wk =   0.0219479
        k(    8) = (   0.0000000   0.0324131   0.0547293), wk =   0.0219479
        k(    9) = (   0.0000000   0.0324131   0.0820939), wk =   0.0219479
        k(   10) = (   0.0000000   0.0324131   0.1094586), wk =   0.0219479
        k(   11) = (   0.0000000   0.0648262   0.0000000), wk =   0.0109739
        k(   12) = (   0.0000000   0.0648262   0.0273646), wk =   0.0219479
        k(   13) = (   0.0000000   0.0648262   0.0547293), wk =   0.0219479
        k(   14) = (   0.0000000   0.0648262   0.0820939), wk =   0.0219479
        k(   15) = (   0.0000000   0.0648262   0.1094586), wk =   0.0219479
        k(   16) = (   0.0000000   0.0972393   0.0000000), wk =   0.0109739
        k(   17) = (   0.0000000   0.0972393   0.0273646), wk =   0.0219479
        k(   18) = (   0.0000000   0.0972393   0.0547293), wk =   0.0219479
        k(   19) = (   0.0000000   0.0972393   0.0820939), wk =   0.0219479
        k(   20) = (   0.0000000   0.0972393   0.1094586), wk =   0.0219479
        k(   21) = (   0.0000000   0.1296523   0.0000000), wk =   0.0109739
        k(   22) = (   0.0000000   0.1296523   0.0273646), wk =   0.0219479
        k(   23) = (   0.0000000   0.1296523   0.0547293), wk =   0.0219479
        k(   24) = (   0.0000000   0.1296523   0.0820939), wk =   0.0219479
        k(   25) = (   0.0000000   0.1296523   0.1094586), wk =   0.0219479
        k(   26) = (   0.0324131   0.0324131   0.0000000), wk =   0.0109739
        k(   27) = (   0.0324131   0.0324131   0.0273646), wk =   0.0219479
        k(   28) = (   0.0324131   0.0324131   0.0547293), wk =   0.0219479
        k(   29) = (   0.0324131   0.0324131   0.0820939), wk =   0.0219479
        k(   30) = (   0.0324131   0.0324131   0.1094586), wk =   0.0219479
        k(   31) = (   0.0324131   0.0648262   0.0000000), wk =   0.0219479
        k(   32) = (   0.0324131   0.0648262   0.0273646), wk =   0.0438957
        k(   33) = (   0.0324131   0.0648262   0.0547293), wk =   0.0438957
        k(   34) = (   0.0324131   0.0648262   0.0820939), wk =   0.0438957
        k(   35) = (   0.0324131   0.0648262   0.1094586), wk =   0.0438957
        k(   36) = (   0.0324131   0.0972393   0.0000000), wk =   0.0219479
        k(   37) = (   0.0324131   0.0972393   0.0273646), wk =   0.0438957
        k(   38) = (   0.0324131   0.0972393   0.0547293), wk =   0.0438957
        k(   39) = (   0.0324131   0.0972393   0.0820939), wk =   0.0438957
        k(   40) = (   0.0324131   0.0972393   0.1094586), wk =   0.0438957
        k(   41) = (   0.0324131   0.1296523   0.0000000), wk =   0.0219479
        k(   42) = (   0.0324131   0.1296523   0.0273646), wk =   0.0438957
        k(   43) = (   0.0324131   0.1296523   0.0547293), wk =   0.0438957
        k(   44) = (   0.0324131   0.1296523   0.0820939), wk =   0.0438957
        k(   45) = (   0.0324131   0.1296523   0.1094586), wk =   0.0438957
        k(   46) = (   0.0648262   0.0648262   0.0000000), wk =   0.0109739
        k(   47) = (   0.0648262   0.0648262   0.0273646), wk =   0.0219479
        k(   48) = (   0.0648262   0.0648262   0.0547293), wk =   0.0219479
        k(   49) = (   0.0648262   0.0648262   0.0820939), wk =   0.0219479
        k(   50) = (   0.0648262   0.0648262   0.1094586), wk =   0.0219479
        k(   51) = (   0.0648262   0.0972393   0.0000000), wk =   0.0219479
        k(   52) = (   0.0648262   0.0972393   0.0273646), wk =   0.0438957
        k(   53) = (   0.0648262   0.0972393   0.0547293), wk =   0.0438957
        k(   54) = (   0.0648262   0.0972393   0.0820939), wk =   0.0438957
        k(   55) = (   0.0648262   0.0972393   0.1094586), wk =   0.0438957
        k(   56) = (   0.0648262   0.1296523   0.0000000), wk =   0.0219479
        k(   57) = (   0.0648262   0.1296523   0.0273646), wk =   0.0438957
        k(   58) = (   0.0648262   0.1296523   0.0547293), wk =   0.0438957
        k(   59) = (   0.0648262   0.1296523   0.0820939), wk =   0.0438957
        k(   60) = (   0.0648262   0.1296523   0.1094586), wk =   0.0438957
        k(   61) = (   0.0972393   0.0972393   0.0000000), wk =   0.0109739
        k(   62) = (   0.0972393   0.0972393   0.0273646), wk =   0.0219479
        k(   63) = (   0.0972393   0.0972393   0.0547293), wk =   0.0219479
        k(   64) = (   0.0972393   0.0972393   0.0820939), wk =   0.0219479
        k(   65) = (   0.0972393   0.0972393   0.1094586), wk =   0.0219479
        k(   66) = (   0.0972393   0.1296523   0.0000000), wk =   0.0219479
        k(   67) = (   0.0972393   0.1296523   0.0273646), wk =   0.0438957
        k(   68) = (   0.0972393   0.1296523   0.0547293), wk =   0.0438957
        k(   69) = (   0.0972393   0.1296523   0.0820939), wk =   0.0438957
        k(   70) = (   0.0972393   0.1296523   0.1094586), wk =   0.0438957
        k(   71) = (   0.1296523   0.1296523   0.0000000), wk =   0.0109739
        k(   72) = (   0.1296523   0.1296523   0.0273646), wk =   0.0219479
        k(   73) = (   0.1296523   0.1296523   0.0547293), wk =   0.0219479
        k(   74) = (   0.1296523   0.1296523   0.0820939), wk =   0.0219479
        k(   75) = (   0.1296523   0.1296523   0.1094586), wk =   0.0219479

     Largest allocated arrays     est. size (Mb)     dimensions
     Largest temporary arrays     est. size (Mb)     dimensions

     Check: negative/imaginary core charge=   -0.000007    0.000000

     Initial potential from superposition of free atoms
     Check: negative starting charge=   -0.001167

     starting charge   61.99997, renormalised to   66.00000

     negative rho (up, down):  1.242E-03 0.000E+00

     *
     * You are using vdW-DF for exchange-correlation in this calculation.
     * Please cite the following three references that made this development
     * possible:
     *
     *   M. Dion, H. Rydberg, E. Schroder, D. C. Langreth, and
     *   B. I. Lundqvist, Phys. Rev. Lett. 92, 246401 (2004).
     *
     *   T. Thonhauser, V. R. Cooper, S. Li, A. Puzder, P. Hyldgaard, and
     *   D. C. Langreth, Phys. Rev. B 76, 125112 (2007).
     *
     *   G. Roman-Perez and J. M. Soler, Phys. Rev. Lett. 103, 096102 (2009).
     *
     *
     * If you are using vdW-DF2, please also cite:
     *
     *   K. Lee, E. D. Murray, L. Kong, B. I. Lundqvist, and
     *   D. C. Langreth, Phys. Rev. B 82, 081101(R) (2010).
     *
     *
     * If you are calculating the stress with vdW-DF, please also cite:
     *
     *   R. Sabatini, E. Kucukbenli, B. Kolb, T. Thonhauser, and
     *   S. de Gironcoli, J. Phys.: Condens. Matter 24, 424209 (2012).
     *

     Carrying out vdW-DF run using the following parameters:

     Nqs =      20    Nr_points =    1024   r_max =   100.000
     q_mesh =
               0.00001000     0.04494208     0.09755937     0.15916263
               0.23128650     0.31572767     0.41458969     0.53033537
               0.66584808     0.82450364     1.01025438     1.22772762
               1.48234092     1.78043706     2.12944203     2.53805004
               3.01644009     3.57652955     4.23227104     5.00000000

     Gradients computed in reciprocal space

     Starting wfc are   46 randomized atomic wfcs +    7 random wfc

     Self-consistent Calculation

     iteration #  1     ecut=    58.80 Ry     beta=0.10
     Davidson diagonalization with overlap
     ethr =  1.00E-02,  avg # of iterations =  4.4

[...]

     total energy              =   -1154.18623494 Ry
     Harris-Foulkes estimate   =   -1168.27322348 Ry
     estimated scf accuracy    <      77.66571292 Ry

[...]

     total energy              =   -1162.45005055 Ry
     Harris-Foulkes estimate   =   -1162.45006078 Ry
     estimated scf accuracy    <       0.00003779 Ry

     iteration # 22     ecut=    58.80 Ry     beta=0.10
     Davidson diagonalization with overlap
     ethr =  5.73E-08,  avg # of iterations =  2.0

     negative rho (up, down):  1.158E-03 0.000E+00

     End of self-consistent calculation

          k = 0.0000 0.0000 0.0000 (  2427 PWs)   bands (ev):

   -96.0160 -95.9966 -54.7808 -54.5714 -53.4233 -53.4233 -53.3990 -53.3802
   -53.3317 -53.3317 -26.2844 -26.2844 -26.0734 -25.9080 -25.6625 -25.6625
     8.4347  12.0946  12.1754  12.4392  12.5963  12.7602  12.7602  14.3886
    14.3886  14.7813  14.9691  15.4650  15.5213  15.6798  17.1004  17.1004
    17.2314  18.2550  18.4787  18.4787  19.2582  20.2669  20.6877  20.6877
    24.2420  27.2855  28.1729  28.2676  30.7024  30.7024  31.5802  33.5444
    33.5444  35.3288  35.3288  37.0196  38.0800

[...]

          k = 0.1297 0.1297 0.1095 (  2438 PWs)   bands (ev):

   -96.0065 -96.0059 -54.6773 -54.6709 -53.4332 -53.4304 -53.3898 -53.3893
   -53.3266 -53.3239 -26.3815 -26.3633 -25.9923 -25.9872 -25.6200 -25.6006
    12.0041  12.0984  12.3298  12.3501  13.4461  13.4752  14.0954  14.2217
    14.4992  14.5435  15.3021  15.4585  15.4957  16.0130  16.3749  16.6009
    16.8249  17.2925  17.8316  18.3998  18.4406  18.4444  18.6078  18.7557
    22.6482  22.9241  24.9887  25.3194  33.4340  33.6760  35.2281  35.4425
    39.0458  39.7526  39.9722  40.0005  40.5168

     the Fermi energy is    17.0150 ev

!    total energy              =   -1162.45006138 Ry
     Harris-Foulkes estimate   =   -1162.45005484 Ry
     estimated scf accuracy    <       0.00000027 Ry

     The total energy is the sum of the following terms:

     one-electron contribution =    -681.56149855 Ry
     hartree contribution      =     380.23422774 Ry
     xc contribution           =    -126.65465569 Ry
     ewald contribution        =    -734.45833330 Ry
     smearing contrib. (-TS)   =      -0.00980158 Ry

     convergence has been achieved in  22 iterations

     Forces acting on atoms (Ry/au):

     negative rho (up, down):  1.158E-03 0.000E+00
     atom    1 type  1   force =     0.00000000    0.00000000    0.00000000
     atom    2 type  1   force =     0.00000000    0.00000000    0.00000000
     atom    3 type  2   force =     0.00000000    0.00000000    0.00000000
     atom    4 type  2   force =     0.00000000    0.00000000    0.00000000

     Total force =     0.000000     Total SCF correction =     0.000000

     General routines

     Parallel routines

   This run was terminated on:   7:35:42  14Nov2017

   JOB DONE.