     Program PWSCF v.5.1rc2 starts on 15Nov2017 at  6:29: 2

     Current dimensions of program PWSCF are:
     Max number of different atomic species (ntypx) = 10
     Max number of k-points (npk) =  40000
     Max angular momentum in pseudopotentials (lmaxx) =  3

     IMPORTANT: XC functional enforced from input :
     Exchange-correlation      = BEEF-VDW ( 1  4 27 13 2)
     Any further DFT definition will be discarded
     Please, verify this is what you really want

     Found symmetry operation: I + ( -0.5000 -0.5000  0.0000)
     This is a supercell, fractional translations are disabled

     bravais-lattice index     =            0
     lattice parameter (alat)  =       1.8897  a.u.
     unit-cell volume          =     849.9781 (a.u.)^3
     number of atoms/cell      =            4
     number of atomic types    =            2
     number of electrons       =        54.00
     number of Kohn-Sham states=           47
     kinetic-energy cutoff     =      58.7989  Ry
     charge density cutoff     =     587.9892  Ry
     convergence threshold     =      1.0E-06
     mixing beta               =       0.1000
     number of iterations used =           10  plain     mixing
     Exchange-correlation      = BEEF-VDW ( 1  4 27 13 2)

     celldm(1)=   1.889726  celldm(2)=   0.000000  celldm(3)=   0.000000
     celldm(4)=   0.000000  celldm(5)=   0.000000  celldm(6)=   0.000000

     crystal axes: (cart. coord. in units of alat)
               a(1) = (   4.936280   0.000000   0.000000 )
               a(2) = (   0.000000   4.936280   0.000000 )
               a(3) = (   0.000000   0.000000   5.169061 )

     reciprocal axes: (cart. coord. in units 2 pi/alat)
               b(1) = (  0.202582  0.000000  0.000000 )
               b(2) = (  0.000000  0.202582  0.000000 )
               b(3) = (  0.000000  0.000000  0.193459 )

     PseudoPot. # 1 for Sn read from file:
     /home/users/vossj/suncat/psp/gbrv1.5pbe/Sn.UPF
     MD5 check sum: 469debedee59599fedebd795477fea03
     Pseudo is Ultrasoft + core correction, Zval = 14.0
     Generated by new atomic code, or converted to UPF format
     Using radial grid of  891 points,  6 beta functions with:
                l(1) =   0
                l(2) =   0
                l(3) =   1
                l(4) =   1
                l(5) =   2
                l(6) =   2
     Q(r) pseudized with  8 coefficients,  rinner =    1.350   1.350   1.350
                                                       1.350   1.350

     PseudoPot. # 2 for Tl read from file:
     /home/users/vossj/suncat/psp/gbrv1.5pbe/Tl.UPF
     MD5 check sum: b76cf1f7e72655a2b2c53cf6385d7059
     Pseudo is Ultrasoft + core correction, Zval = 13.0
     Generated by new atomic code, or converted to UPF format
     Using radial grid of  899 points,  6 beta functions with:
                l(1) =   0
                l(2) =   0
                l(3) =   1
                l(4) =   1
                l(5) =   2
                l(6) =   2
     Q(r) pseudized with  6 coefficients,  rinner =    1.100   1.100   1.100
                                                       1.100   1.100

     vdW kernel table read from file vdW_kernel_table
     MD5 check sum: 095c7af220d748ca6e76c0b4c6cfb241

     atomic species   valence    mass     pseudopotential
        Sn1           14.00   118.71000     Sn( 1.00)
        Tl1           13.00   204.38300     Tl( 1.00)

     16 Sym. Ops., with inversion, found

   Cartesian axes

     site n.     atom                  positions (alat units)
         1           Sn1 tau(   1) = (   0.0000000   0.0000000   0.0000000  )
         2           Sn1 tau(   2) = (   2.4681398   2.4681398   0.0000000  )
         3           Tl1 tau(   3) = (   2.4681398   0.0000000   2.5845304  )
         4           Tl1 tau(   4) = (   0.0000000   2.4681398   2.5845304  )

     number of k points=    75  Fermi-Dirac smearing, width (Ry)=  0.0073
                       cart. coord. in units 2pi/alat
        k(    1) = (   0.0000000   0.0000000   0.0000000), wk =   0.0027435
        k(    2) = (   0.0000000   0.0000000   0.0214954), wk =   0.0054870
        k(    3) = (   0.0000000   0.0000000   0.0429908), wk =   0.0054870
        k(    4) = (   0.0000000   0.0000000   0.0644862), wk =   0.0054870
        k(    5) = (   0.0000000   0.0000000   0.0859817), wk =   0.0054870
        k(    6) = (   0.0000000   0.0225091   0.0000000), wk =   0.0109739
        k(    7) = (   0.0000000   0.0225091   0.0214954), wk =   0.0219479
        k(    8) = (   0.0000000   0.0225091   0.0429908), wk =   0.0219479
        k(    9) = (   0.0000000   0.0225091   0.0644862), wk =   0.0219479
        k(   10) = (   0.0000000   0.0225091   0.0859817), wk =   0.0219479
        k(   11) = (   0.0000000   0.0450182   0.0000000), wk =   0.0109739
        k(   12) = (   0.0000000   0.0450182   0.0214954), wk =   0.0219479
        k(   13) = (   0.0000000   0.0450182   0.0429908), wk =   0.0219479
        k(   14) = (   0.0000000   0.0450182   0.0644862), wk =   0.0219479
        k(   15) = (   0.0000000   0.0450182   0.0859817), wk =   0.0219479
        k(   16) = (   0.0000000   0.0675272   0.0000000), wk =   0.0109739
        k(   17) = (   0.0000000   0.0675272   0.0214954), wk =   0.0219479
        k(   18) = (   0.0000000   0.0675272   0.0429908), wk =   0.0219479
        k(   19) = (   0.0000000   0.0675272   0.0644862), wk =   0.0219479
        k(   20) = (   0.0000000   0.0675272   0.0859817), wk =   0.0219479
        k(   21) = (   0.0000000   0.0900363   0.0000000), wk =   0.0109739
        k(   22) = (   0.0000000   0.0900363   0.0214954), wk =   0.0219479
        k(   23) = (   0.0000000   0.0900363   0.0429908), wk =   0.0219479
        k(   24) = (   0.0000000   0.0900363   0.0644862), wk =   0.0219479
        k(   25) = (   0.0000000   0.0900363   0.0859817), wk =   0.0219479
        k(   26) = (   0.0225091   0.0225091   0.0000000), wk =   0.0109739
        k(   27) = (   0.0225091   0.0225091   0.0214954), wk =   0.0219479
        k(   28) = (   0.0225091   0.0225091   0.0429908), wk =   0.0219479
        k(   29) = (   0.0225091   0.0225091   0.0644862), wk =   0.0219479
        k(   30) = (   0.0225091   0.0225091   0.0859817), wk =   0.0219479
        k(   31) = (   0.0225091   0.0450182   0.0000000), wk =   0.0219479
        k(   32) = (   0.0225091   0.0450182   0.0214954), wk =   0.0438957
        k(   33) = (   0.0225091   0.0450182   0.0429908), wk =   0.0438957
        k(   34) = (   0.0225091   0.0450182   0.0644862), wk =   0.0438957
        k(   35) = (   0.0225091   0.0450182   0.0859817), wk =   0.0438957
        k(   36) = (   0.0225091   0.0675272   0.0000000), wk =   0.0219479
        k(   37) = (   0.0225091   0.0675272   0.0214954), wk =   0.0438957
        k(   38) = (   0.0225091   0.0675272   0.0429908), wk =   0.0438957
        k(   39) = (   0.0225091   0.0675272   0.0644862), wk =   0.0438957
        k(   40) = (   0.0225091   0.0675272   0.0859817), wk =   0.0438957
        k(   41) = (   0.0225091   0.0900363   0.0000000), wk =   0.0219479
        k(   42) = (   0.0225091   0.0900363   0.0214954), wk =   0.0438957
        k(   43) = (   0.0225091   0.0900363   0.0429908), wk =   0.0438957
        k(   44) = (   0.0225091   0.0900363   0.0644862), wk =   0.0438957
        k(   45) = (   0.0225091   0.0900363   0.0859817), wk =   0.0438957
        k(   46) = (   0.0450182   0.0450182   0.0000000), wk =   0.0109739
        k(   47) = (   0.0450182   0.0450182   0.0214954), wk =   0.0219479
        k(   48) = (   0.0450182   0.0450182   0.0429908), wk =   0.0219479
        k(   49) = (   0.0450182   0.0450182   0.0644862), wk =   0.0219479
        k(   50) = (   0.0450182   0.0450182   0.0859817), wk =   0.0219479
        k(   51) = (   0.0450182   0.0675272   0.0000000), wk =   0.0219479
        k(   52) = (   0.0450182   0.0675272   0.0214954), wk =   0.0438957
        k(   53) = (   0.0450182   0.0675272   0.0429908), wk =   0.0438957
        k(   54) = (   0.0450182   0.0675272   0.0644862), wk =   0.0438957
        k(   55) = (   0.0450182   0.0675272   0.0859817), wk =   0.0438957
        k(   56) = (   0.0450182   0.0900363   0.0000000), wk =   0.0219479
        k(   57) = (   0.0450182   0.0900363   0.0214954), wk =   0.0438957
        k(   58) = (   0.0450182   0.0900363   0.0429908), wk =   0.0438957
        k(   59) = (   0.0450182   0.0900363   0.0644862), wk =   0.0438957
        k(   60) = (   0.0450182   0.0900363   0.0859817), wk =   0.0438957
        k(   61) = (   0.0675272   0.0675272   0.0000000), wk =   0.0109739
        k(   62) = (   0.0675272   0.0675272   0.0214954), wk =   0.0219479
        k(   63) = (   0.0675272   0.0675272   0.0429908), wk =   0.0219479
        k(   64) = (   0.0675272   0.0675272   0.0644862), wk =   0.0219479
        k(   65) = (   0.0675272   0.0675272   0.0859817), wk =   0.0219479
        k(   66) = (   0.0675272   0.0900363   0.0000000), wk =   0.0219479
        k(   67) = (   0.0675272   0.0900363   0.0214954), wk =   0.0438957
        k(   68) = (   0.0675272   0.0900363   0.0429908), wk =   0.0438957
        k(   69) = (   0.0675272   0.0900363   0.0644862), wk =   0.0438957
        k(   70) = (   0.0675272   0.0900363   0.0859817), wk =   0.0438957
        k(   71) = (   0.0900363   0.0900363   0.0000000), wk =   0.0109739
        k(   72) = (   0.0900363   0.0900363   0.0214954), wk =   0.0219479
        k(   73) = (   0.0900363   0.0900363   0.0429908), wk =   0.0219479
        k(   74) = (   0.0900363   0.0900363   0.0644862), wk =   0.0219479
        k(   75) = (   0.0900363   0.0900363   0.0859817), wk =   0.0219479

     Largest allocated arrays     est. size (Mb)     dimensions
     Largest temporary arrays     est. size (Mb)     dimensions

     Initial potential from superposition of free atoms
     Check: negative starting charge=   -0.100291

     starting charge   51.99018, renormalised to   54.00000

     negative rho (up, down):  1.042E-01 0.000E+00

     *
     * You are using vdW-DF for exchange-correlation in this calculation.
     * Please cite the following three references that made this development
     * possible:
     *
     *   M. Dion, H. Rydberg, E. Schroder, D. C. Langreth, and
     *   B. I. Lundqvist, Phys. Rev. Lett. 92, 246401 (2004).
     *
     *   T. Thonhauser, V. R. Cooper, S. Li, A. Puzder, P. Hyldgaard, and
     *   D. C. Langreth, Phys. Rev. B 76, 125112 (2007).
     *
     *   G. Roman-Perez and J. M. Soler, Phys. Rev. Lett. 103, 096102 (2009).
     *
     *
     * If you are using vdW-DF2, please also cite:
     *
     *   K. Lee, E. D. Murray, L. Kong, B. I. Lundqvist, and
     *   D. C. Langreth, Phys. Rev. B 82, 081101(R) (2010).
     *
     *
     * If you are calculating the stress with vdW-DF, please also cite:
     *
     *   R. Sabatini, E. Kucukbenli, B. Kolb, T. Thonhauser, and
     *   S. de Gironcoli, J. Phys.: Condens. Matter 24, 424209 (2012).
     *

     Carrying out vdW-DF run using the following parameters:

     Nqs =      20    Nr_points =    1024   r_max =   100.000
     q_mesh =
               0.00001000     0.04494208     0.09755937     0.15916263
               0.23128650     0.31572767     0.41458969     0.53033537
               0.66584808     0.82450364     1.01025438     1.22772762
               1.48234092     1.78043706     2.12944203     2.53805004
               3.01644009     3.57652955     4.23227104     5.00000000

     Gradients computed in reciprocal space

     Starting wfc are   36 randomized atomic wfcs +   11 random wfc

     Self-consistent Calculation

     iteration #  1     ecut=    58.80 Ry     beta=0.10
     Davidson diagonalization with overlap
     ethr =  1.00E-02,  avg # of iterations =  6.1

[...]

     total energy              =    -615.28443866 Ry
     Harris-Foulkes estimate   =    -615.43575644 Ry
     estimated scf accuracy    <       0.96729419 Ry

[...]

     total energy              =    -615.05033958 Ry
     Harris-Foulkes estimate   =    -615.05002401 Ry
     estimated scf accuracy    <       0.00000102 Ry

     iteration # 12     ecut=    58.80 Ry     beta=0.10
     Davidson diagonalization with overlap
     ethr =  1.90E-09,  avg # of iterations =  2.0

     negative rho (up, down):  1.045E-01 0.000E+00

     End of self-consistent calculation

          k = 0.0000 0.0000 0.0000 (  6435 PWs)   bands (ev):

   -12.9594 -12.9331 -12.9187 -12.9162 -12.9162 -12.8878 -12.8878 -12.8807
   -12.8570 -12.8121  -2.9253  -2.8150  -2.7417  -2.6672  -2.6672  -2.5143
    -2.5143  -2.4856  -2.4488  -2.2856  -0.7480   4.2057   4.2477   5.1922
     6.4943   6.7854   6.7854  10.9440  11.7465  11.7465  12.0327  12.0327
    12.8456  14.6098  15.3588  15.4461  15.8823  15.8823  16.0230  17.0197
    17.1931  17.1931  19.8894  21.5272  21.5272  21.7881  21.9969

[...]

          k = 0.0900 0.0900 0.0860 (  6469 PWs)   bands (ev):

   -12.9374 -12.9347 -12.9206 -12.9198 -12.8861 -12.8854 -12.8853 -12.8835
   -12.8578 -12.8545  -2.7927  -2.7777  -2.7610  -2.7569  -2.5933  -2.5823
    -2.5063  -2.5010  -2.4482  -2.4367   2.4591   2.6511   3.2855   3.4511
     5.7078   5.8179   6.1732   6.4224  13.9603  14.1632  14.2652  14.2813
    15.0469  15.1580  16.4313  16.8309  18.4444  18.4911  18.7354  18.8332
    19.3310  19.4602  19.5745  19.6533  19.6564  19.9695  20.3860

     the Fermi energy is     9.0184 ev

!    total energy              =    -615.05164884 Ry
     Harris-Foulkes estimate   =    -615.05033984 Ry
     estimated scf accuracy    <       0.00000052 Ry

     The total energy is the sum of the following terms:

     one-electron contribution =    -171.14134594 Ry
     hartree contribution      =     126.08743407 Ry
     xc contribution           =    -216.93347415 Ry
     ewald contribution        =    -353.05869758 Ry
     smearing contrib. (-TS)   =      -0.00556524 Ry

     convergence has been achieved in  12 iterations

     Forces acting on atoms (Ry/au):

     negative rho (up, down):  1.045E-01 0.000E+00
     atom    1 type  1   force =     0.00000000    0.00000000    0.00000000
     atom    2 type  1   force =     0.00000000    0.00000000    0.00000000
     atom    3 type  2   force =     0.00000000    0.00000000    0.00000000
     atom    4 type  2   force =     0.00000000    0.00000000    0.00000000

     Total force =     0.000000     Total SCF correction =     0.000000

     General routines

     Parallel routines

   This run was terminated on:   6:30: 5  15Nov2017

   JOB DONE.