     Program PWSCF v.5.1rc2 (svn rev. ) starts on 18Feb2018 at 17:14:51

     Current dimensions of program PWSCF are:
     Max number of different atomic species (ntypx) = 10
     Max number of k-points (npk) =  40000
     Max angular momentum in pseudopotentials (lmaxx) =  3

     IMPORTANT: XC functional enforced from input :
     Exchange-correlation      = BEEF-VDW ( 1  4 27 13 2)
     Any further DFT definition will be discarded
     Please, verify this is what you really want

     Subspace diagonalization in iterative solution of the eigenvalue problem:
     a serial algorithm will be used

     Found symmetry operation: I + ( -0.5000 -0.5000  0.0000)
     This is a supercell, fractional translations are disabled

     bravais-lattice index     =            0
     lattice parameter (alat)  =       1.8897  a.u.
     unit-cell volume          =     561.5162 (a.u.)^3
     number of atoms/cell      =            4
     number of atomic types    =            2
     number of electrons       =        60.00
     number of Kohn-Sham states=           50
     kinetic-energy cutoff     =      58.7989  Ry
     charge density cutoff     =     587.9892  Ry
     convergence threshold     =      1.0E-06
     mixing beta               =       0.1000
     number of iterations used =           10  plain     mixing
     Exchange-correlation      = BEEF-VDW ( 1  4 27 13 2)

     celldm(1)=   1.889726  celldm(2)=   0.000000  celldm(3)=   0.000000
     celldm(4)=   0.000000  celldm(5)=   0.000000  celldm(6)=   0.000000

     crystal axes: (cart. coord. in units of alat)
               a(1) = (   4.936361   0.000000   0.000000 )
               a(2) = (   0.000000   4.936361   0.000000 )
               a(3) = (   0.000000   0.000000   3.414694 )

     reciprocal axes: (cart. coord. in units 2 pi/alat)
               b(1) = (  0.202578  0.000000  0.000000 )
               b(2) = (  0.000000  0.202578  0.000000 )
               b(3) = (  0.000000  0.000000  0.292852 )

     PseudoPot. # 1 for Rh read from file:
     /home/mamunm/src/pseudo/gbrv1.5pbe/Rh.UPF
     MD5 check sum: 761627e959a2e3a1f56b0b5fe687810e
     Pseudo is Ultrasoft + core correction, Zval = 15.0
     Generated by new atomic code, or converted to UPF format
     Using radial grid of  969 points,  7 beta functions with:
                l(1) =   0
                l(2) =   0
                l(3) =   1
                l(4) =   1
                l(5) =   2
                l(6) =   2
                l(7) =   2
     Q(r) pseudized with  8 coefficients,  rinner =    1.200   1.200   1.200
                                                       1.200   1.200

     PseudoPot. # 2 for Bi read from file:
     /home/mamunm/src/pseudo/gbrv1.5pbe/Bi.UPF
     MD5 check sum: 81103212dc04adf40945787f699eab19
     Pseudo is Ultrasoft + core correction, Zval = 15.0
     Generated by new atomic code, or converted to UPF format
     Using radial grid of  899 points,  6 beta functions with:
                l(1) =   0
                l(2) =   0
                l(3) =   1
                l(4) =   1
                l(5) =   2
                l(6) =   2
     Q(r) pseudized with  6 coefficients,  rinner =    1.000   1.000   1.000
                                                       1.000   1.000

     vdW kernel table read from file vdW_kernel_table
     MD5 check sum: 095c7af220d748ca6e76c0b4c6cfb241

     atomic species   valence    mass     pseudopotential
        Rh1           15.00   102.90550     Rh( 1.00)
        Bi1           15.00   208.98040     Bi( 1.00)

     16 Sym. Ops., with inversion, found

   Cartesian axes

     site n.     atom                  positions (alat units)
         1           Rh1 tau(   1) = (   0.0000000   0.0000000   0.0000000  )
         2           Rh1 tau(   2) = (   2.4681807   2.4681807   0.0000000  )
         3           Bi1 tau(   3) = (   2.4681807   0.0000000   1.7073472  )
         4           Bi1 tau(   4) = (   0.0000000   2.4681807   1.7073472  )

     number of k points=    75  Fermi-Dirac smearing, width (Ry)=  0.0073
                       cart. coord. in units 2pi/alat
        k(    1) = (   0.0000000   0.0000000   0.0000000), wk =   0.0027435
        k(    2) = (   0.0000000   0.0000000   0.0325391), wk =   0.0054870
        k(    3) = (   0.0000000   0.0000000   0.0650782), wk =   0.0054870
        k(    4) = (   0.0000000   0.0000000   0.0976173), wk =   0.0054870
        k(    5) = (   0.0000000   0.0000000   0.1301564), wk =   0.0054870
        k(    6) = (   0.0000000   0.0225087   0.0000000), wk =   0.0109739
        k(    7) = (   0.0000000   0.0225087   0.0325391), wk =   0.0219479
        k(    8) = (   0.0000000   0.0225087   0.0650782), wk =   0.0219479
        k(    9) = (   0.0000000   0.0225087   0.0976173), wk =   0.0219479
        k(   10) = (   0.0000000   0.0225087   0.1301564), wk =   0.0219479
        k(   11) = (   0.0000000   0.0450174   0.0000000), wk =   0.0109739
        k(   12) = (   0.0000000   0.0450174   0.0325391), wk =   0.0219479
        k(   13) = (   0.0000000   0.0450174   0.0650782), wk =   0.0219479
        k(   14) = (   0.0000000   0.0450174   0.0976173), wk =   0.0219479
        k(   15) = (   0.0000000   0.0450174   0.1301564), wk =   0.0219479
        k(   16) = (   0.0000000   0.0675261   0.0000000), wk =   0.0109739
        k(   17) = (   0.0000000   0.0675261   0.0325391), wk =   0.0219479
        k(   18) = (   0.0000000   0.0675261   0.0650782), wk =   0.0219479
        k(   19) = (   0.0000000   0.0675261   0.0976173), wk =   0.0219479
        k(   20) = (   0.0000000   0.0675261   0.1301564), wk =   0.0219479
        k(   21) = (   0.0000000   0.0900348   0.0000000), wk =   0.0109739
        k(   22) = (   0.0000000   0.0900348   0.0325391), wk =   0.0219479
        k(   23) = (   0.0000000   0.0900348   0.0650782), wk =   0.0219479
        k(   24) = (   0.0000000   0.0900348   0.0976173), wk =   0.0219479
        k(   25) = (   0.0000000   0.0900348   0.1301564), wk =   0.0219479
        k(   26) = (   0.0225087   0.0225087   0.0000000), wk =   0.0109739
        k(   27) = (   0.0225087   0.0225087   0.0325391), wk =   0.0219479
        k(   28) = (   0.0225087   0.0225087   0.0650782), wk =   0.0219479
        k(   29) = (   0.0225087   0.0225087   0.0976173), wk =   0.0219479
        k(   30) = (   0.0225087   0.0225087   0.1301564), wk =   0.0219479
        k(   31) = (   0.0225087   0.0450174   0.0000000), wk =   0.0219479
        k(   32) = (   0.0225087   0.0450174   0.0325391), wk =   0.0438957
        k(   33) = (   0.0225087   0.0450174   0.0650782), wk =   0.0438957
        k(   34) = (   0.0225087   0.0450174   0.0976173), wk =   0.0438957
        k(   35) = (   0.0225087   0.0450174   0.1301564), wk =   0.0438957
        k(   36) = (   0.0225087   0.0675261   0.0000000), wk =   0.0219479
        k(   37) = (   0.0225087   0.0675261   0.0325391), wk =   0.0438957
        k(   38) = (   0.0225087   0.0675261   0.0650782), wk =   0.0438957
        k(   39) = (   0.0225087   0.0675261   0.0976173), wk =   0.0438957
        k(   40) = (   0.0225087   0.0675261   0.1301564), wk =   0.0438957
        k(   41) = (   0.0225087   0.0900348   0.0000000), wk =   0.0219479
        k(   42) = (   0.0225087   0.0900348   0.0325391), wk =   0.0438957
        k(   43) = (   0.0225087   0.0900348   0.0650782), wk =   0.0438957
        k(   44) = (   0.0225087   0.0900348   0.0976173), wk =   0.0438957
        k(   45) = (   0.0225087   0.0900348   0.1301564), wk =   0.0438957
        k(   46) = (   0.0450174   0.0450174   0.0000000), wk =   0.0109739
        k(   47) = (   0.0450174   0.0450174   0.0325391), wk =   0.0219479
        k(   48) = (   0.0450174   0.0450174   0.0650782), wk =   0.0219479
        k(   49) = (   0.0450174   0.0450174   0.0976173), wk =   0.0219479
        k(   50) = (   0.0450174   0.0450174   0.1301564), wk =   0.0219479
        k(   51) = (   0.0450174   0.0675261   0.0000000), wk =   0.0219479
        k(   52) = (   0.0450174   0.0675261   0.0325391), wk =   0.0438957
        k(   53) = (   0.0450174   0.0675261   0.0650782), wk =   0.0438957
        k(   54) = (   0.0450174   0.0675261   0.0976173), wk =   0.0438957
        k(   55) = (   0.0450174   0.0675261   0.1301564), wk =   0.0438957
        k(   56) = (   0.0450174   0.0900348   0.0000000), wk =   0.0219479
        k(   57) = (   0.0450174   0.0900348   0.0325391), wk =   0.0438957
        k(   58) = (   0.0450174   0.0900348   0.0650782), wk =   0.0438957
        k(   59) = (   0.0450174   0.0900348   0.0976173), wk =   0.0438957
        k(   60) = (   0.0450174   0.0900348   0.1301564), wk =   0.0438957
        k(   61) = (   0.0675261   0.0675261   0.0000000), wk =   0.0109739
        k(   62) = (   0.0675261   0.0675261   0.0325391), wk =   0.0219479
        k(   63) = (   0.0675261   0.0675261   0.0650782), wk =   0.0219479
        k(   64) = (   0.0675261   0.0675261   0.0976173), wk =   0.0219479
        k(   65) = (   0.0675261   0.0675261   0.1301564), wk =   0.0219479
        k(   66) = (   0.0675261   0.0900348   0.0000000), wk =   0.0219479
        k(   67) = (   0.0675261   0.0900348   0.0325391), wk =   0.0438957
        k(   68) = (   0.0675261   0.0900348   0.0650782), wk =   0.0438957
        k(   69) = (   0.0675261   0.0900348   0.0976173), wk =   0.0438957
        k(   70) = (   0.0675261   0.0900348   0.1301564), wk =   0.0438957
        k(   71) = (   0.0900348   0.0900348   0.0000000), wk =   0.0109739
        k(   72) = (   0.0900348   0.0900348   0.0325391), wk =   0.0219479
        k(   73) = (   0.0900348   0.0900348   0.0650782), wk =   0.0219479
        k(   74) = (   0.0900348   0.0900348   0.0976173), wk =   0.0219479
        k(   75) = (   0.0900348   0.0900348   0.1301564), wk =   0.0219479

     Largest allocated arrays     est. size (Mb)     dimensions
     Largest temporary arrays     est. size (Mb)     dimensions

     Initial potential from superposition of free atoms
     Check: negative starting charge=   -0.193420

     starting charge   56.99972, renormalised to   60.00000

     negative rho (up, down):  2.036E-01 0.000E+00

     *
     * You are using vdW-DF for exchange-correlation in this calculation.
     * Please cite the following three references that made this development
     * possible:
     *
     *   M. Dion, H. Rydberg, E. Schroder, D. C. Langreth, and
     *   B. I. Lundqvist, Phys. Rev. Lett. 92, 246401 (2004).
     *
     *   T. Thonhauser, V. R. Cooper, S. Li, A. Puzder, P. Hyldgaard, and
     *   D. C. Langreth, Phys. Rev. B 76, 125112 (2007).
     *
     *   G. Roman-Perez and J. M. Soler, Phys. Rev. Lett. 103, 096102 (2009).
     *
     *
     * If you are using vdW-DF2, please also cite:
     *
     *   K. Lee, E. D. Murray, L. Kong, B. I. Lundqvist, and
     *   D. C. Langreth, Phys. Rev. B 82, 081101(R) (2010).
     *
     *
     * If you are calculating the stress with vdW-DF, please also cite:
     *
     *   R. Sabatini, E. Kucukbenli, B. Kolb, T. Thonhauser, and
     *   S. de Gironcoli, J. Phys.: Condens. Matter 24, 424209 (2012).
     *

     Carrying out vdW-DF run using the following parameters:

     Nqs =      20    Nr_points =    1024   r_max =   100.000
     q_mesh =
               0.00001000     0.04494208     0.09755937     0.15916263
               0.23128650     0.31572767     0.41458969     0.53033537
               0.66584808     0.82450364     1.01025438     1.22772762
               1.48234092     1.78043706     2.12944203     2.53805004
               3.01644009     3.57652955     4.23227104     5.00000000

     Gradients computed in reciprocal space

     Starting wfc are   42 randomized atomic wfcs +    8 random wfc

     Self-consistent Calculation

     iteration #  1     ecut=    58.80 Ry     beta=0.10
     Davidson diagonalization with overlap
     ethr =  1.00E-02,  avg # of iterations =  5.3

[...]

     total energy              =    -719.14143396 Ry
     Harris-Foulkes estimate   =    -719.54887277 Ry
     estimated scf accuracy    <       2.55690181 Ry

[...]

     total energy              =    -718.82373596 Ry
     Harris-Foulkes estimate   =    -718.82371766 Ry
     estimated scf accuracy    <       0.00000428 Ry

     iteration # 10     ecut=    58.80 Ry     beta=0.10
     Davidson diagonalization with overlap
     ethr =  7.13E-09,  avg # of iterations =  1.0

     negative rho (up, down):  1.974E-01 0.000E+00

     End of self-consistent calculation

          k = 0.0000 0.0000 0.0000 (  4259 PWs)   bands (ev):

   -30.0150 -30.0150 -29.9971 -29.9952 -29.9952 -29.9936  -7.6801  -7.6514
    -7.6066  -7.5935  -7.5371  -7.5371  -7.4970  -7.4970  -7.4959  -7.4290
     2.5854   5.1340  11.8911  11.8911  13.0876  13.0987  13.1958  14.2242
    14.2242  14.6202  14.6787  14.6787  15.2077  15.2273  16.8822  16.8822
    17.3753  17.7143  19.1218  20.3096  24.3885  24.5495  25.2891  25.2891
    27.1912  28.0990  29.4973  29.4973  29.8632  30.5373  30.5373  31.5342
    31.5342  31.8776

[...]

          k = 0.0900 0.0900 0.1302 (  4281 PWs)   bands (ev):

   -30.0228 -30.0222 -30.0144 -30.0138 -29.9918 -29.9912  -7.6037  -7.6024
    -7.5768  -7.5713  -7.5489  -7.5476  -7.5369  -7.5342  -7.4330  -7.4295
     5.2277   5.2986  11.7118  11.8194  11.8898  12.0065  13.3941  13.4311
    14.0928  14.1576  14.2086  14.2249  15.1001  15.2590  15.2919  15.3001
    18.0391  18.1344  19.8843  20.0413  24.6336  24.6804  24.8459  25.0938
    27.2524  27.3025  27.3868  27.4305  30.1675  30.3496  30.6431  30.7314
    33.4945  34.0455

     the Fermi energy is    15.6429 ev

!    total energy              =    -718.82382687 Ry
     Harris-Foulkes estimate   =    -718.82373636 Ry
     estimated scf accuracy    <       0.00000052 Ry

     The total energy is the sum of the following terms:

     one-electron contribution =    -142.25976735 Ry
     hartree contribution      =     119.27090076 Ry
     xc contribution           =    -195.63154384 Ry
     ewald contribution        =    -500.19273186 Ry
     smearing contrib. (-TS)   =      -0.01068458 Ry

     convergence has been achieved in  10 iterations

     Forces acting on atoms (Ry/au):

     negative rho (up, down):  1.974E-01 0.000E+00
     atom    1 type  1   force =     0.00000000    0.00000000    0.00000000
     atom    2 type  1   force =     0.00000000    0.00000000    0.00000000
     atom    3 type  2   force =     0.00000000    0.00000000    0.00000000
     atom    4 type  2   force =     0.00000000    0.00000000    0.00000000

     Total force =     0.000000     Total SCF correction =     0.000000

     General routines

     Parallel routines

   This run was terminated on:  17:15:40  18Feb2018

   JOB DONE.