     Program PWSCF v.5.1rc2 (svn rev. ) starts on 18Feb2018 at 19:16:10

     Current dimensions of program PWSCF are:
     Max number of different atomic species (ntypx) = 10
     Max number of k-points (npk) =  40000
     Max angular momentum in pseudopotentials (lmaxx) =  3

     IMPORTANT: XC functional enforced from input :
     Exchange-correlation      = BEEF-VDW ( 1  4 27 13 2)
     Any further DFT definition will be discarded
     Please, verify this is what you really want

     Subspace diagonalization in iterative solution of the eigenvalue problem:
     a serial algorithm will be used

     Found symmetry operation: I + ( -0.5000 -0.5000  0.0000)
     This is a supercell, fractional translations are disabled

     bravais-lattice index     =            0
     lattice parameter (alat)  =       1.8897  a.u.
     unit-cell volume          =     861.3679 (a.u.)^3
     number of atoms/cell      =            4
     number of atomic types    =            2
     number of electrons       =        56.00
     number of Kohn-Sham states=           48
     kinetic-energy cutoff     =      58.7989  Ry
     charge density cutoff     =     587.9892  Ry
     convergence threshold     =      1.0E-06
     mixing beta               =       0.1000
     number of iterations used =           10  plain     mixing
     Exchange-correlation      = BEEF-VDW ( 1  4 27 13 2)

     celldm(1)=   1.889726  celldm(2)=   0.000000  celldm(3)=   0.000000
     celldm(4)=   0.000000  celldm(5)=   0.000000  celldm(6)=   0.000000

     crystal axes: (cart. coord. in units of alat)
               a(1) = (   4.936447   0.000000   0.000000 )
               a(2) = (   0.000000   4.936447   0.000000 )
               a(3) = (   0.000000   0.000000   5.237971 )

     reciprocal axes: (cart. coord. in units 2 pi/alat)
               b(1) = (  0.202575  0.000000  0.000000 )
               b(2) = (  0.000000  0.202575  0.000000 )
               b(3) = (  0.000000  0.000000  0.190914 )

     PseudoPot. # 1 for In read from file:
     /home/mamunm/src/pseudo/gbrv1.5pbe/In.UPF
     MD5 check sum: 90777abd96fbb83f2e67db2a40c566b9
     Pseudo is Ultrasoft + core correction, Zval = 13.0
     Generated by new atomic code, or converted to UPF format
     Using radial grid of  889 points,  6 beta functions with:
                l(1) =   0
                l(2) =   0
                l(3) =   1
                l(4) =   1
                l(5) =   2
                l(6) =   2
     Q(r) pseudized with  6 coefficients,  rinner =    1.400   1.400   1.400
                                                       1.400   1.400

     PseudoPot. # 2 for Bi read from file:
     /home/mamunm/src/pseudo/gbrv1.5pbe/Bi.UPF
     MD5 check sum: 81103212dc04adf40945787f699eab19
     Pseudo is Ultrasoft + core correction, Zval = 15.0
     Generated by new atomic code, or converted to UPF format
     Using radial grid of  899 points,  6 beta functions with:
                l(1) =   0
                l(2) =   0
                l(3) =   1
                l(4) =   1
                l(5) =   2
                l(6) =   2
     Q(r) pseudized with  6 coefficients,  rinner =    1.000   1.000   1.000
                                                       1.000   1.000

     vdW kernel table read from file vdW_kernel_table
     MD5 check sum: 095c7af220d748ca6e76c0b4c6cfb241

     atomic species   valence    mass     pseudopotential
        In1           13.00   114.81800     In( 1.00)
        Bi1           15.00   208.98040     Bi( 1.00)

     16 Sym. Ops., with inversion, found

   Cartesian axes

     site n.     atom                  positions (alat units)
         1           In1 tau(   1) = (   0.0000000   0.0000000   0.0000000  )
         2           In1 tau(   2) = (   2.4682236   2.4682236   0.0000000  )
         3           Bi1 tau(   3) = (   2.4682236   0.0000000   2.6189855  )
         4           Bi1 tau(   4) = (   0.0000000   2.4682236   2.6189855  )

     number of k points=    75  Fermi-Dirac smearing, width (Ry)=  0.0073
                       cart. coord. in units 2pi/alat
        k(    1) = (   0.0000000   0.0000000   0.0000000), wk =   0.0027435
        k(    2) = (   0.0000000   0.0000000   0.0212126), wk =   0.0054870
        k(    3) = (   0.0000000   0.0000000   0.0424252), wk =   0.0054870
        k(    4) = (   0.0000000   0.0000000   0.0636379), wk =   0.0054870
        k(    5) = (   0.0000000   0.0000000   0.0848505), wk =   0.0054870
        k(    6) = (   0.0000000   0.0225083   0.0000000), wk =   0.0109739
        k(    7) = (   0.0000000   0.0225083   0.0212126), wk =   0.0219479
        k(    8) = (   0.0000000   0.0225083   0.0424252), wk =   0.0219479
        k(    9) = (   0.0000000   0.0225083   0.0636379), wk =   0.0219479
        k(   10) = (   0.0000000   0.0225083   0.0848505), wk =   0.0219479
        k(   11) = (   0.0000000   0.0450166   0.0000000), wk =   0.0109739
        k(   12) = (   0.0000000   0.0450166   0.0212126), wk =   0.0219479
        k(   13) = (   0.0000000   0.0450166   0.0424252), wk =   0.0219479
        k(   14) = (   0.0000000   0.0450166   0.0636379), wk =   0.0219479
        k(   15) = (   0.0000000   0.0450166   0.0848505), wk =   0.0219479
        k(   16) = (   0.0000000   0.0675249   0.0000000), wk =   0.0109739
        k(   17) = (   0.0000000   0.0675249   0.0212126), wk =   0.0219479
        k(   18) = (   0.0000000   0.0675249   0.0424252), wk =   0.0219479
        k(   19) = (   0.0000000   0.0675249   0.0636379), wk =   0.0219479
        k(   20) = (   0.0000000   0.0675249   0.0848505), wk =   0.0219479
        k(   21) = (   0.0000000   0.0900333   0.0000000), wk =   0.0109739
        k(   22) = (   0.0000000   0.0900333   0.0212126), wk =   0.0219479
        k(   23) = (   0.0000000   0.0900333   0.0424252), wk =   0.0219479
        k(   24) = (   0.0000000   0.0900333   0.0636379), wk =   0.0219479
        k(   25) = (   0.0000000   0.0900333   0.0848505), wk =   0.0219479
        k(   26) = (   0.0225083   0.0225083   0.0000000), wk =   0.0109739
        k(   27) = (   0.0225083   0.0225083   0.0212126), wk =   0.0219479
        k(   28) = (   0.0225083   0.0225083   0.0424252), wk =   0.0219479
        k(   29) = (   0.0225083   0.0225083   0.0636379), wk =   0.0219479
        k(   30) = (   0.0225083   0.0225083   0.0848505), wk =   0.0219479
        k(   31) = (   0.0225083   0.0450166   0.0000000), wk =   0.0219479
        k(   32) = (   0.0225083   0.0450166   0.0212126), wk =   0.0438957
        k(   33) = (   0.0225083   0.0450166   0.0424252), wk =   0.0438957
        k(   34) = (   0.0225083   0.0450166   0.0636379), wk =   0.0438957
        k(   35) = (   0.0225083   0.0450166   0.0848505), wk =   0.0438957
        k(   36) = (   0.0225083   0.0675249   0.0000000), wk =   0.0219479
        k(   37) = (   0.0225083   0.0675249   0.0212126), wk =   0.0438957
        k(   38) = (   0.0225083   0.0675249   0.0424252), wk =   0.0438957
        k(   39) = (   0.0225083   0.0675249   0.0636379), wk =   0.0438957
        k(   40) = (   0.0225083   0.0675249   0.0848505), wk =   0.0438957
        k(   41) = (   0.0225083   0.0900333   0.0000000), wk =   0.0219479
        k(   42) = (   0.0225083   0.0900333   0.0212126), wk =   0.0438957
        k(   43) = (   0.0225083   0.0900333   0.0424252), wk =   0.0438957
        k(   44) = (   0.0225083   0.0900333   0.0636379), wk =   0.0438957
        k(   45) = (   0.0225083   0.0900333   0.0848505), wk =   0.0438957
        k(   46) = (   0.0450166   0.0450166   0.0000000), wk =   0.0109739
        k(   47) = (   0.0450166   0.0450166   0.0212126), wk =   0.0219479
        k(   48) = (   0.0450166   0.0450166   0.0424252), wk =   0.0219479
        k(   49) = (   0.0450166   0.0450166   0.0636379), wk =   0.0219479
        k(   50) = (   0.0450166   0.0450166   0.0848505), wk =   0.0219479
        k(   51) = (   0.0450166   0.0675249   0.0000000), wk =   0.0219479
        k(   52) = (   0.0450166   0.0675249   0.0212126), wk =   0.0438957
        k(   53) = (   0.0450166   0.0675249   0.0424252), wk =   0.0438957
        k(   54) = (   0.0450166   0.0675249   0.0636379), wk =   0.0438957
        k(   55) = (   0.0450166   0.0675249   0.0848505), wk =   0.0438957
        k(   56) = (   0.0450166   0.0900333   0.0000000), wk =   0.0219479
        k(   57) = (   0.0450166   0.0900333   0.0212126), wk =   0.0438957
        k(   58) = (   0.0450166   0.0900333   0.0424252), wk =   0.0438957
        k(   59) = (   0.0450166   0.0900333   0.0636379), wk =   0.0438957
        k(   60) = (   0.0450166   0.0900333   0.0848505), wk =   0.0438957
        k(   61) = (   0.0675249   0.0675249   0.0000000), wk =   0.0109739
        k(   62) = (   0.0675249   0.0675249   0.0212126), wk =   0.0219479
        k(   63) = (   0.0675249   0.0675249   0.0424252), wk =   0.0219479
        k(   64) = (   0.0675249   0.0675249   0.0636379), wk =   0.0219479
        k(   65) = (   0.0675249   0.0675249   0.0848505), wk =   0.0219479
        k(   66) = (   0.0675249   0.0900333   0.0000000), wk =   0.0219479
        k(   67) = (   0.0675249   0.0900333   0.0212126), wk =   0.0438957
        k(   68) = (   0.0675249   0.0900333   0.0424252), wk =   0.0438957
        k(   69) = (   0.0675249   0.0900333   0.0636379), wk =   0.0438957
        k(   70) = (   0.0675249   0.0900333   0.0848505), wk =   0.0438957
        k(   71) = (   0.0900333   0.0900333   0.0000000), wk =   0.0109739
        k(   72) = (   0.0900333   0.0900333   0.0212126), wk =   0.0219479
        k(   73) = (   0.0900333   0.0900333   0.0424252), wk =   0.0219479
        k(   74) = (   0.0900333   0.0900333   0.0636379), wk =   0.0219479
        k(   75) = (   0.0900333   0.0900333   0.0848505), wk =   0.0219479

     Largest allocated arrays     est. size (Mb)     dimensions
     Largest temporary arrays     est. size (Mb)     dimensions

     Initial potential from superposition of free atoms
     Check: negative starting charge=   -0.082723

     starting charge   50.99992, renormalised to   56.00000

     negative rho (up, down):  9.083E-02 0.000E+00

     *
     * You are using vdW-DF for exchange-correlation in this calculation.
     * Please cite the following three references that made this development
     * possible:
     *
     *   M. Dion, H. Rydberg, E. Schroder, D. C. Langreth, and
     *   B. I. Lundqvist, Phys. Rev. Lett. 92, 246401 (2004).
     *
     *   T. Thonhauser, V. R. Cooper, S. Li, A. Puzder, P. Hyldgaard, and
     *   D. C. Langreth, Phys. Rev. B 76, 125112 (2007).
     *
     *   G. Roman-Perez and J. M. Soler, Phys. Rev. Lett. 103, 096102 (2009).
     *
     *
     * If you are using vdW-DF2, please also cite:
     *
     *   K. Lee, E. D. Murray, L. Kong, B. I. Lundqvist, and
     *   D. C. Langreth, Phys. Rev. B 82, 081101(R) (2010).
     *
     *
     * If you are calculating the stress with vdW-DF, please also cite:
     *
     *   R. Sabatini, E. Kucukbenli, B. Kolb, T. Thonhauser, and
     *   S. de Gironcoli, J. Phys.: Condens. Matter 24, 424209 (2012).
     *

     Carrying out vdW-DF run using the following parameters:

     Nqs =      20    Nr_points =    1024   r_max =   100.000
     q_mesh =
               0.00001000     0.04494208     0.09755937     0.15916263
               0.23128650     0.31572767     0.41458969     0.53033537
               0.66584808     0.82450364     1.01025438     1.22772762
               1.48234092     1.78043706     2.12944203     2.53805004
               3.01644009     3.57652955     4.23227104     5.00000000

     Gradients computed in reciprocal space

     Starting wfc are   36 randomized atomic wfcs +   12 random wfc

     Self-consistent Calculation

     iteration #  1     ecut=    58.80 Ry     beta=0.10
     Davidson diagonalization with overlap
     ethr =  1.00E-02,  avg # of iterations =  5.4

[...]

     total energy              =    -645.48708531 Ry
     Harris-Foulkes estimate   =    -646.49965515 Ry
     estimated scf accuracy    <       6.47337659 Ry

[...]

     total energy              =    -643.93022069 Ry
     Harris-Foulkes estimate   =    -643.93017924 Ry
     estimated scf accuracy    <       0.00000174 Ry

     iteration # 13     ecut=    58.80 Ry     beta=0.10
     Davidson diagonalization with overlap
     ethr =  2.56E-09,  avg # of iterations =  1.6

     negative rho (up, down):  8.684E-02 0.000E+00

     End of self-consistent calculation

          k = 0.0000 0.0000 0.0000 (  6533 PWs)   bands (ev):

   -13.9136 -13.8543 -13.8168 -13.8058 -13.8058 -13.7679 -13.7661 -13.7661
   -13.7403 -13.7023  -5.5184  -5.4491  -5.4224  -5.3868  -5.3868  -5.3199
    -5.3199  -5.3018  -5.2898  -5.2125  -2.6542   0.1924   4.1850   6.1485
     6.3845   6.3845   6.9858  10.2422  11.4187  11.4187  11.4625  11.4625
    12.7079  14.4509  14.9030  14.9883  15.5108  15.5108  15.9771  16.3624
    16.7064  16.7064  19.7235  21.1306  21.2151  21.2528  21.2528  22.8826

[...]

          k = 0.0900 0.0900 0.0849 (  6558 PWs)   bands (ev):

   -13.8556 -13.8507 -13.8114 -13.8102 -13.8080 -13.8054 -13.7638 -13.7626
   -13.7354 -13.7317  -5.4475  -5.4407  -5.4268  -5.4250  -5.3546  -5.3499
    -5.3164  -5.3142  -5.2836  -5.2777  -1.0460  -0.9562   4.5820   4.8039
     5.3749   5.4538   6.0743   6.4748  13.0070  13.3657  13.4596  13.5596
    14.5348  14.5665  16.2953  16.6390  17.7181  17.8552  18.3797  18.5442
    18.8065  19.1717  19.3277  19.3587  19.6904  19.9458  20.3959  20.9585

     the Fermi energy is     9.4125 ev

!    total energy              =    -643.93039747 Ry
     Harris-Foulkes estimate   =    -643.93022086 Ry
     estimated scf accuracy    <       0.00000043 Ry

     The total energy is the sum of the following terms:

     one-electron contribution =    -187.62107027 Ry
     hartree contribution      =     133.70711357 Ry
     xc contribution           =    -211.35663784 Ry
     ewald contribution        =    -378.65416625 Ry
     smearing contrib. (-TS)   =      -0.00563668 Ry

     convergence has been achieved in  13 iterations

     Forces acting on atoms (Ry/au):

     negative rho (up, down):  8.684E-02 0.000E+00
     atom    1 type  1   force =     0.00000000    0.00000000    0.00000000
     atom    2 type  1   force =     0.00000000    0.00000000    0.00000000
     atom    3 type  2   force =     0.00000000    0.00000000    0.00000000
     atom    4 type  2   force =     0.00000000    0.00000000    0.00000000

     Total force =     0.000000     Total SCF correction =     0.000000

     General routines

     Parallel routines

   This run was terminated on:  19:17:34  18Feb2018

   JOB DONE.