     Program PWSCF v.5.1rc2 starts on 15Nov2017 at  6:55:35

     Current dimensions of program PWSCF are:
     Max number of different atomic species (ntypx) = 10
     Max number of k-points (npk) =  40000
     Max angular momentum in pseudopotentials (lmaxx) =  3

     IMPORTANT: XC functional enforced from input :
     Exchange-correlation      = BEEF-VDW ( 1  4 27 13 2)
     Any further DFT definition will be discarded
     Please, verify this is what you really want

     Found symmetry operation: I + ( -0.5000 -0.5000  0.0000)
     This is a supercell, fractional translations are disabled

     bravais-lattice index     =            0
     lattice parameter (alat)  =       1.8897  a.u.
     unit-cell volume          =     698.4041 (a.u.)^3
     number of atoms/cell      =            4
     number of atomic types    =            2
     number of electrons       =        46.00
     number of Kohn-Sham states=           43
     kinetic-energy cutoff     =      58.7989  Ry
     charge density cutoff     =     587.9892  Ry
     convergence threshold     =      1.0E-06
     mixing beta               =       0.1000
     number of iterations used =           10  plain     mixing
     Exchange-correlation      = BEEF-VDW ( 1  4 27 13 2)

     celldm(1)=   1.889726  celldm(2)=   0.000000  celldm(3)=   0.000000
     celldm(4)=   0.000000  celldm(5)=   0.000000  celldm(6)=   0.000000

     crystal axes: (cart. coord. in units of alat)
               a(1) = (   5.210363   0.000000   0.000000 )
               a(2) = (   0.000000   5.210363   0.000000 )
               a(3) = (   0.000000   0.000000   3.812187 )

     reciprocal axes: (cart. coord. in units 2 pi/alat)
               b(1) = (  0.191925  0.000000  0.000000 )
               b(2) = (  0.000000  0.191925  0.000000 )
               b(3) = (  0.000000  0.000000  0.262317 )

     PseudoPot. # 1 for Ti read from file:
     /home/users/vossj/suncat/psp/gbrv1.5pbe/Ti.UPF
     MD5 check sum: 88a00a6731bd790ddea75d31a80cb452
     Pseudo is Ultrasoft + core correction, Zval = 12.0
     Generated by new atomic code, or converted to UPF format
     Using radial grid of  851 points,  6 beta functions with:
                l(1) =   0
                l(2) =   0
                l(3) =   1
                l(4) =   1
                l(5) =   2
                l(6) =   2
     Q(r) pseudized with  6 coefficients,  rinner =    1.000   1.000   1.000
                                                       1.000   1.000

     PseudoPot. # 2 for La read from file:
     /home/users/vossj/suncat/psp/gbrv1.5pbe/La.UPF
     MD5 check sum: 5937b0c7494ba0601a847275249473aa
     Pseudo is Ultrasoft + core correction, Zval = 11.0
     Generated by new atomic code, or converted to UPF format
     Using radial grid of  995 points,  8 beta functions with:
                l(1) =   0
                l(2) =   0
                l(3) =   1
                l(4) =   1
                l(5) =   2
                l(6) =   2
                l(7) =   3
                l(8) =   3
     Q(r) pseudized with  8 coefficients,  rinner =    1.700   1.700   1.700
                                                       1.700   1.700   1.700
                                                       1.700

     vdW kernel table read from file vdW_kernel_table
     MD5 check sum: 095c7af220d748ca6e76c0b4c6cfb241

     atomic species   valence    mass     pseudopotential
        Ti1           12.00    47.88000     Ti( 1.00)
        La1           11.00   138.90550     La( 1.00)

     16 Sym. Ops., with inversion, found

   Cartesian axes

     site n.     atom                  positions (alat units)
         1           Ti1 tau(   1) = (   0.0000000   0.0000000   0.0000000  )
         2           Ti1 tau(   2) = (   2.6051815   2.6051815   0.0000000  )
         3           La1 tau(   3) = (   2.6051815   0.0000000   1.9060937  )
         4           La1 tau(   4) = (   0.0000000   2.6051815   1.9060937  )

     number of k points=    75  Fermi-Dirac smearing, width (Ry)=  0.0073
                       cart. coord. in units 2pi/alat
        k(    1) = (   0.0000000   0.0000000   0.0000000), wk =   0.0027435
        k(    2) = (   0.0000000   0.0000000   0.0291463), wk =   0.0054870
        k(    3) = (   0.0000000   0.0000000   0.0582926), wk =   0.0054870
        k(    4) = (   0.0000000   0.0000000   0.0874389), wk =   0.0054870
        k(    5) = (   0.0000000   0.0000000   0.1165851), wk =   0.0054870
        k(    6) = (   0.0000000   0.0213250   0.0000000), wk =   0.0109739
        k(    7) = (   0.0000000   0.0213250   0.0291463), wk =   0.0219479
        k(    8) = (   0.0000000   0.0213250   0.0582926), wk =   0.0219479
        k(    9) = (   0.0000000   0.0213250   0.0874389), wk =   0.0219479
        k(   10) = (   0.0000000   0.0213250   0.1165851), wk =   0.0219479
        k(   11) = (   0.0000000   0.0426500   0.0000000), wk =   0.0109739
        k(   12) = (   0.0000000   0.0426500   0.0291463), wk =   0.0219479
        k(   13) = (   0.0000000   0.0426500   0.0582926), wk =   0.0219479
        k(   14) = (   0.0000000   0.0426500   0.0874389), wk =   0.0219479
        k(   15) = (   0.0000000   0.0426500   0.1165851), wk =   0.0219479
        k(   16) = (   0.0000000   0.0639751   0.0000000), wk =   0.0109739
        k(   17) = (   0.0000000   0.0639751   0.0291463), wk =   0.0219479
        k(   18) = (   0.0000000   0.0639751   0.0582926), wk =   0.0219479
        k(   19) = (   0.0000000   0.0639751   0.0874389), wk =   0.0219479
        k(   20) = (   0.0000000   0.0639751   0.1165851), wk =   0.0219479
        k(   21) = (   0.0000000   0.0853001   0.0000000), wk =   0.0109739
        k(   22) = (   0.0000000   0.0853001   0.0291463), wk =   0.0219479
        k(   23) = (   0.0000000   0.0853001   0.0582926), wk =   0.0219479
        k(   24) = (   0.0000000   0.0853001   0.0874389), wk =   0.0219479
        k(   25) = (   0.0000000   0.0853001   0.1165851), wk =   0.0219479
        k(   26) = (   0.0213250   0.0213250   0.0000000), wk =   0.0109739
        k(   27) = (   0.0213250   0.0213250   0.0291463), wk =   0.0219479
        k(   28) = (   0.0213250   0.0213250   0.0582926), wk =   0.0219479
        k(   29) = (   0.0213250   0.0213250   0.0874389), wk =   0.0219479
        k(   30) = (   0.0213250   0.0213250   0.1165851), wk =   0.0219479
        k(   31) = (   0.0213250   0.0426500   0.0000000), wk =   0.0219479
        k(   32) = (   0.0213250   0.0426500   0.0291463), wk =   0.0438957
        k(   33) = (   0.0213250   0.0426500   0.0582926), wk =   0.0438957
        k(   34) = (   0.0213250   0.0426500   0.0874389), wk =   0.0438957
        k(   35) = (   0.0213250   0.0426500   0.1165851), wk =   0.0438957
        k(   36) = (   0.0213250   0.0639751   0.0000000), wk =   0.0219479
        k(   37) = (   0.0213250   0.0639751   0.0291463), wk =   0.0438957
        k(   38) = (   0.0213250   0.0639751   0.0582926), wk =   0.0438957
        k(   39) = (   0.0213250   0.0639751   0.0874389), wk =   0.0438957
        k(   40) = (   0.0213250   0.0639751   0.1165851), wk =   0.0438957
        k(   41) = (   0.0213250   0.0853001   0.0000000), wk =   0.0219479
        k(   42) = (   0.0213250   0.0853001   0.0291463), wk =   0.0438957
        k(   43) = (   0.0213250   0.0853001   0.0582926), wk =   0.0438957
        k(   44) = (   0.0213250   0.0853001   0.0874389), wk =   0.0438957
        k(   45) = (   0.0213250   0.0853001   0.1165851), wk =   0.0438957
        k(   46) = (   0.0426500   0.0426500   0.0000000), wk =   0.0109739
        k(   47) = (   0.0426500   0.0426500   0.0291463), wk =   0.0219479
        k(   48) = (   0.0426500   0.0426500   0.0582926), wk =   0.0219479
        k(   49) = (   0.0426500   0.0426500   0.0874389), wk =   0.0219479
        k(   50) = (   0.0426500   0.0426500   0.1165851), wk =   0.0219479
        k(   51) = (   0.0426500   0.0639751   0.0000000), wk =   0.0219479
        k(   52) = (   0.0426500   0.0639751   0.0291463), wk =   0.0438957
        k(   53) = (   0.0426500   0.0639751   0.0582926), wk =   0.0438957
        k(   54) = (   0.0426500   0.0639751   0.0874389), wk =   0.0438957
        k(   55) = (   0.0426500   0.0639751   0.1165851), wk =   0.0438957
        k(   56) = (   0.0426500   0.0853001   0.0000000), wk =   0.0219479
        k(   57) = (   0.0426500   0.0853001   0.0291463), wk =   0.0438957
        k(   58) = (   0.0426500   0.0853001   0.0582926), wk =   0.0438957
        k(   59) = (   0.0426500   0.0853001   0.0874389), wk =   0.0438957
        k(   60) = (   0.0426500   0.0853001   0.1165851), wk =   0.0438957
        k(   61) = (   0.0639751   0.0639751   0.0000000), wk =   0.0109739
        k(   62) = (   0.0639751   0.0639751   0.0291463), wk =   0.0219479
        k(   63) = (   0.0639751   0.0639751   0.0582926), wk =   0.0219479
        k(   64) = (   0.0639751   0.0639751   0.0874389), wk =   0.0219479
        k(   65) = (   0.0639751   0.0639751   0.1165851), wk =   0.0219479
        k(   66) = (   0.0639751   0.0853001   0.0000000), wk =   0.0219479
        k(   67) = (   0.0639751   0.0853001   0.0291463), wk =   0.0438957
        k(   68) = (   0.0639751   0.0853001   0.0582926), wk =   0.0438957
        k(   69) = (   0.0639751   0.0853001   0.0874389), wk =   0.0438957
        k(   70) = (   0.0639751   0.0853001   0.1165851), wk =   0.0438957
        k(   71) = (   0.0853001   0.0853001   0.0000000), wk =   0.0109739
        k(   72) = (   0.0853001   0.0853001   0.0291463), wk =   0.0219479
        k(   73) = (   0.0853001   0.0853001   0.0582926), wk =   0.0219479
        k(   74) = (   0.0853001   0.0853001   0.0874389), wk =   0.0219479
        k(   75) = (   0.0853001   0.0853001   0.1165851), wk =   0.0219479

     Largest allocated arrays     est. size (Mb)     dimensions
     Largest temporary arrays     est. size (Mb)     dimensions

     Check: negative/imaginary core charge=   -0.000001    0.000000

     Initial potential from superposition of free atoms
     Check: negative starting charge=   -0.142124

     starting charge   43.93577, renormalised to   46.00000

     negative rho (up, down):  1.488E-01 0.000E+00

     *
     * You are using vdW-DF for exchange-correlation in this calculation.
     * Please cite the following three references that made this development
     * possible:
     *
     *   M. Dion, H. Rydberg, E. Schroder, D. C. Langreth, and
     *   B. I. Lundqvist, Phys. Rev. Lett. 92, 246401 (2004).
     *
     *   T. Thonhauser, V. R. Cooper, S. Li, A. Puzder, P. Hyldgaard, and
     *   D. C. Langreth, Phys. Rev. B 76, 125112 (2007).
     *
     *   G. Roman-Perez and J. M. Soler, Phys. Rev. Lett. 103, 096102 (2009).
     *
     *
     * If you are using vdW-DF2, please also cite:
     *
     *   K. Lee, E. D. Murray, L. Kong, B. I. Lundqvist, and
     *   D. C. Langreth, Phys. Rev. B 82, 081101(R) (2010).
     *
     *
     * If you are calculating the stress with vdW-DF, please also cite:
     *
     *   R. Sabatini, E. Kucukbenli, B. Kolb, T. Thonhauser, and
     *   S. de Gironcoli, J. Phys.: Condens. Matter 24, 424209 (2012).
     *

     Carrying out vdW-DF run using the following parameters:

     Nqs =      20    Nr_points =    1024   r_max =   100.000
     q_mesh =
               0.00001000     0.04494208     0.09755937     0.15916263
               0.23128650     0.31572767     0.41458969     0.53033537
               0.66584808     0.82450364     1.01025438     1.22772762
               1.48234092     1.78043706     2.12944203     2.53805004
               3.01644009     3.57652955     4.23227104     5.00000000

     Gradients computed in reciprocal space

     Starting wfc are   60 randomized atomic wfcs

     Self-consistent Calculation

     iteration #  1     ecut=    58.80 Ry     beta=0.10
     Davidson diagonalization with overlap
     ethr =  1.00E-02,  avg # of iterations =  2.5

     Threshold (ethr) on eigenvalues was too large:
     Diagonalizing with lowered threshold

     Davidson diagonalization with overlap
     ethr =  5.11E-04,  avg # of iterations =  1.7

[...]

     total energy              =    -447.86903954 Ry
     Harris-Foulkes estimate   =    -447.90399419 Ry
     estimated scf accuracy    <       0.24091127 Ry

[...]

     total energy              =    -447.80784170 Ry
     Harris-Foulkes estimate   =    -447.80782365 Ry
     estimated scf accuracy    <       0.00001036 Ry

     iteration # 13     ecut=    58.80 Ry     beta=0.10
     Davidson diagonalization with overlap
     ethr =  2.25E-08,  avg # of iterations =  3.5

     negative rho (up, down):  9.437E-02 0.000E+00

     End of self-consistent calculation

          k = 0.0000 0.0000 0.0000 (  5249 PWs)   bands (ev):

   -44.9005 -44.8967 -21.1438 -21.1438 -21.1200 -21.1137 -21.1137 -21.1133
   -20.0588 -19.8975  -4.0841  -4.0841  -3.4117  -3.3160  -3.3160  -3.2314
     8.1457   9.4589  10.2581  10.3363  10.8272  11.7518  11.7518  12.9984
    12.9984  13.1727  14.0407  14.0408  14.0789  14.2681  14.7945  14.8142
    14.8356  14.8470  14.8471  14.8655  14.8655  14.9094  14.9094  14.9829
    15.1191  15.2592  15.8907

[...]

          k = 0.0853 0.0853 0.1166 (  5323 PWs)   bands (ev):

   -44.8978 -44.8972 -21.1459 -21.1453 -21.1403 -21.1391 -21.1093 -21.1085
   -19.9242 -19.9208  -4.1201  -4.0994  -3.9641  -3.9558  -3.1988  -3.1733
     9.5441   9.5507  10.8872  10.9512  11.9919  12.0222  12.0357  12.0847
    13.5654  13.5885  13.6256  13.9064  14.1250  14.2763  14.2909  14.3993
    14.7954  14.7986  14.8589  14.8604  14.8684  14.8756  15.2120  15.2279
    15.2363  15.3005  15.4584

     the Fermi energy is    12.3426 ev

!    total energy              =    -447.80794404 Ry
     Harris-Foulkes estimate   =    -447.80784327 Ry
     estimated scf accuracy    <       0.00000061 Ry

     The total energy is the sum of the following terms:

     one-electron contribution =    -106.80271425 Ry
     hartree contribution      =      71.84722227 Ry
     xc contribution           =    -139.16772736 Ry
     ewald contribution        =    -273.66806659 Ry
     smearing contrib. (-TS)   =      -0.01665811 Ry

     convergence has been achieved in  13 iterations

     Forces acting on atoms (Ry/au):

     negative rho (up, down):  9.437E-02 0.000E+00
     atom    1 type  1   force =     0.00000000    0.00000000    0.00000000
     atom    2 type  1   force =     0.00000000    0.00000000    0.00000000
     atom    3 type  2   force =     0.00000000    0.00000000    0.00000000
     atom    4 type  2   force =     0.00000000    0.00000000    0.00000000

     Total force =     0.000000     Total SCF correction =     0.000000

     General routines

     Parallel routines

   This run was terminated on:   6:56:52  15Nov2017

   JOB DONE.