     Program PWSCF v.5.1rc2 starts on 14Nov2017 at 10:15:53

     Current dimensions of program PWSCF are:
     Max number of different atomic species (ntypx) = 10
     Max number of k-points (npk) =  40000
     Max angular momentum in pseudopotentials (lmaxx) =  3

     IMPORTANT: XC functional enforced from input :
     Exchange-correlation      = BEEF-VDW ( 1  4 27 13 2)
     Any further DFT definition will be discarded
     Please, verify this is what you really want

     Found symmetry operation: I + ( -0.5000 -0.5000  0.0000)
     This is a supercell, fractional translations are disabled

     bravais-lattice index     =            0
     lattice parameter (alat)  =       1.8897  a.u.
     unit-cell volume          =     685.4807 (a.u.)^3
     number of atoms/cell      =            4
     number of atomic types    =            2
     number of electrons       =        68.00
     number of Kohn-Sham states=           54
     kinetic-energy cutoff     =      58.7989  Ry
     charge density cutoff     =     587.9892  Ry
     convergence threshold     =      1.0E-06
     mixing beta               =       0.1000
     number of iterations used =           10  plain     mixing
     Exchange-correlation      = BEEF-VDW ( 1  4 27 13 2)

     celldm(1)=   1.889726  celldm(2)=   0.000000  celldm(3)=   0.000000
     celldm(4)=   0.000000  celldm(5)=   0.000000  celldm(6)=   0.000000

     crystal axes: (cart. coord. in units of alat)
               a(1) = (   5.210480   0.000000   0.000000 )
               a(2) = (   0.000000   5.210480   0.000000 )
               a(3) = (   0.000000   0.000000   3.741478 )

     reciprocal axes: (cart. coord. in units 2 pi/alat)
               b(1) = (  0.191921  0.000000  0.000000 )
               b(2) = (  0.000000  0.191921  0.000000 )
               b(3) = (  0.000000  0.000000  0.267274 )

     PseudoPot. # 1 for Zn read from file:
     /home/users/vossj/suncat/psp/gbrv1.5pbe/Zn.UPF
     MD5 check sum: df62231357ef9e81f77b2b3087fa5675
     Pseudo is Ultrasoft, Zval = 20.0
     Generated by new atomic code, or converted to UPF format
     Using radial grid of  943 points,  6 beta functions with:
                l(1) =   0
                l(2) =   0
                l(3) =   1
                l(4) =   1
                l(5) =   2
                l(6) =   2
     Q(r) pseudized with  8 coefficients,  rinner =    1.100   1.100   1.100
                                                       1.100   1.100

     PseudoPot. # 2 for Pb read from file:
     /home/users/vossj/suncat/psp/gbrv1.5pbe/Pb.UPF
     MD5 check sum: 3d1c1779aa92214d1e8f3a7db79003e2
     Pseudo is Ultrasoft + core correction, Zval = 14.0
     Generated by new atomic code, or converted to UPF format
     Using radial grid of  899 points,  6 beta functions with:
                l(1) =   0
                l(2) =   0
                l(3) =   1
                l(4) =   1
                l(5) =   2
                l(6) =   2
     Q(r) pseudized with  6 coefficients,  rinner =    1.000   1.000   1.000
                                                       1.000   1.000

     vdW kernel table read from file vdW_kernel_table
     MD5 check sum: 095c7af220d748ca6e76c0b4c6cfb241

     atomic species   valence    mass     pseudopotential
        Zn1           20.00    65.39000     Zn( 1.00)
        Pb1           14.00   207.20000     Pb( 1.00)

     16 Sym. Ops., with inversion, found

   Cartesian axes

     site n.     atom                  positions (alat units)
         1           Zn1 tau(   1) = (   0.0000000   0.0000000   0.0000000  )
         2           Zn1 tau(   2) = (   2.6052399   2.6052399   0.0000000  )
         3           Pb1 tau(   3) = (   2.6052399   0.0000000   1.8707389  )
         4           Pb1 tau(   4) = (   0.0000000   2.6052399   1.8707389  )

     number of k points=    75  Fermi-Dirac smearing, width (Ry)=  0.0073
                       cart. coord. in units 2pi/alat
        k(    1) = (   0.0000000   0.0000000   0.0000000), wk =   0.0027435
        k(    2) = (   0.0000000   0.0000000   0.0296971), wk =   0.0054870
        k(    3) = (   0.0000000   0.0000000   0.0593942), wk =   0.0054870
        k(    4) = (   0.0000000   0.0000000   0.0890914), wk =   0.0054870
        k(    5) = (   0.0000000   0.0000000   0.1187885), wk =   0.0054870
        k(    6) = (   0.0000000   0.0213245   0.0000000), wk =   0.0109739
        k(    7) = (   0.0000000   0.0213245   0.0296971), wk =   0.0219479
        k(    8) = (   0.0000000   0.0213245   0.0593942), wk =   0.0219479
        k(    9) = (   0.0000000   0.0213245   0.0890914), wk =   0.0219479
        k(   10) = (   0.0000000   0.0213245   0.1187885), wk =   0.0219479
        k(   11) = (   0.0000000   0.0426491   0.0000000), wk =   0.0109739
        k(   12) = (   0.0000000   0.0426491   0.0296971), wk =   0.0219479
        k(   13) = (   0.0000000   0.0426491   0.0593942), wk =   0.0219479
        k(   14) = (   0.0000000   0.0426491   0.0890914), wk =   0.0219479
        k(   15) = (   0.0000000   0.0426491   0.1187885), wk =   0.0219479
        k(   16) = (   0.0000000   0.0639736   0.0000000), wk =   0.0109739
        k(   17) = (   0.0000000   0.0639736   0.0296971), wk =   0.0219479
        k(   18) = (   0.0000000   0.0639736   0.0593942), wk =   0.0219479
        k(   19) = (   0.0000000   0.0639736   0.0890914), wk =   0.0219479
        k(   20) = (   0.0000000   0.0639736   0.1187885), wk =   0.0219479
        k(   21) = (   0.0000000   0.0852982   0.0000000), wk =   0.0109739
        k(   22) = (   0.0000000   0.0852982   0.0296971), wk =   0.0219479
        k(   23) = (   0.0000000   0.0852982   0.0593942), wk =   0.0219479
        k(   24) = (   0.0000000   0.0852982   0.0890914), wk =   0.0219479
        k(   25) = (   0.0000000   0.0852982   0.1187885), wk =   0.0219479
        k(   26) = (   0.0213245   0.0213245   0.0000000), wk =   0.0109739
        k(   27) = (   0.0213245   0.0213245   0.0296971), wk =   0.0219479
        k(   28) = (   0.0213245   0.0213245   0.0593942), wk =   0.0219479
        k(   29) = (   0.0213245   0.0213245   0.0890914), wk =   0.0219479
        k(   30) = (   0.0213245   0.0213245   0.1187885), wk =   0.0219479
        k(   31) = (   0.0213245   0.0426491   0.0000000), wk =   0.0219479
        k(   32) = (   0.0213245   0.0426491   0.0296971), wk =   0.0438957
        k(   33) = (   0.0213245   0.0426491   0.0593942), wk =   0.0438957
        k(   34) = (   0.0213245   0.0426491   0.0890914), wk =   0.0438957
        k(   35) = (   0.0213245   0.0426491   0.1187885), wk =   0.0438957
        k(   36) = (   0.0213245   0.0639736   0.0000000), wk =   0.0219479
        k(   37) = (   0.0213245   0.0639736   0.0296971), wk =   0.0438957
        k(   38) = (   0.0213245   0.0639736   0.0593942), wk =   0.0438957
        k(   39) = (   0.0213245   0.0639736   0.0890914), wk =   0.0438957
        k(   40) = (   0.0213245   0.0639736   0.1187885), wk =   0.0438957
        k(   41) = (   0.0213245   0.0852982   0.0000000), wk =   0.0219479
        k(   42) = (   0.0213245   0.0852982   0.0296971), wk =   0.0438957
        k(   43) = (   0.0213245   0.0852982   0.0593942), wk =   0.0438957
        k(   44) = (   0.0213245   0.0852982   0.0890914), wk =   0.0438957
        k(   45) = (   0.0213245   0.0852982   0.1187885), wk =   0.0438957
        k(   46) = (   0.0426491   0.0426491   0.0000000), wk =   0.0109739
        k(   47) = (   0.0426491   0.0426491   0.0296971), wk =   0.0219479
        k(   48) = (   0.0426491   0.0426491   0.0593942), wk =   0.0219479
        k(   49) = (   0.0426491   0.0426491   0.0890914), wk =   0.0219479
        k(   50) = (   0.0426491   0.0426491   0.1187885), wk =   0.0219479
        k(   51) = (   0.0426491   0.0639736   0.0000000), wk =   0.0219479
        k(   52) = (   0.0426491   0.0639736   0.0296971), wk =   0.0438957
        k(   53) = (   0.0426491   0.0639736   0.0593942), wk =   0.0438957
        k(   54) = (   0.0426491   0.0639736   0.0890914), wk =   0.0438957
        k(   55) = (   0.0426491   0.0639736   0.1187885), wk =   0.0438957
        k(   56) = (   0.0426491   0.0852982   0.0000000), wk =   0.0219479
        k(   57) = (   0.0426491   0.0852982   0.0296971), wk =   0.0438957
        k(   58) = (   0.0426491   0.0852982   0.0593942), wk =   0.0438957
        k(   59) = (   0.0426491   0.0852982   0.0890914), wk =   0.0438957
        k(   60) = (   0.0426491   0.0852982   0.1187885), wk =   0.0438957
        k(   61) = (   0.0639736   0.0639736   0.0000000), wk =   0.0109739
        k(   62) = (   0.0639736   0.0639736   0.0296971), wk =   0.0219479
        k(   63) = (   0.0639736   0.0639736   0.0593942), wk =   0.0219479
        k(   64) = (   0.0639736   0.0639736   0.0890914), wk =   0.0219479
        k(   65) = (   0.0639736   0.0639736   0.1187885), wk =   0.0219479
        k(   66) = (   0.0639736   0.0852982   0.0000000), wk =   0.0219479
        k(   67) = (   0.0639736   0.0852982   0.0296971), wk =   0.0438957
        k(   68) = (   0.0639736   0.0852982   0.0593942), wk =   0.0438957
        k(   69) = (   0.0639736   0.0852982   0.0890914), wk =   0.0438957
        k(   70) = (   0.0639736   0.0852982   0.1187885), wk =   0.0438957
        k(   71) = (   0.0852982   0.0852982   0.0000000), wk =   0.0109739
        k(   72) = (   0.0852982   0.0852982   0.0296971), wk =   0.0219479
        k(   73) = (   0.0852982   0.0852982   0.0593942), wk =   0.0219479
        k(   74) = (   0.0852982   0.0852982   0.0890914), wk =   0.0219479
        k(   75) = (   0.0852982   0.0852982   0.1187885), wk =   0.0219479

     Largest allocated arrays     est. size (Mb)     dimensions
     Largest temporary arrays     est. size (Mb)     dimensions

     Check: negative/imaginary core charge=   -0.000001    0.000000

     Initial potential from superposition of free atoms
     Check: negative starting charge=   -0.031945

     starting charge   67.99501, renormalised to   68.00000

     negative rho (up, down):  3.195E-02 0.000E+00

     *
     * You are using vdW-DF for exchange-correlation in this calculation.
     * Please cite the following three references that made this development
     * possible:
     *
     *   M. Dion, H. Rydberg, E. Schroder, D. C. Langreth, and
     *   B. I. Lundqvist, Phys. Rev. Lett. 92, 246401 (2004).
     *
     *   T. Thonhauser, V. R. Cooper, S. Li, A. Puzder, P. Hyldgaard, and
     *   D. C. Langreth, Phys. Rev. B 76, 125112 (2007).
     *
     *   G. Roman-Perez and J. M. Soler, Phys. Rev. Lett. 103, 096102 (2009).
     *
     *
     * If you are using vdW-DF2, please also cite:
     *
     *   K. Lee, E. D. Murray, L. Kong, B. I. Lundqvist, and
     *   D. C. Langreth, Phys. Rev. B 82, 081101(R) (2010).
     *
     *
     * If you are calculating the stress with vdW-DF, please also cite:
     *
     *   R. Sabatini, E. Kucukbenli, B. Kolb, T. Thonhauser, and
     *   S. de Gironcoli, J. Phys.: Condens. Matter 24, 424209 (2012).
     *

     Carrying out vdW-DF run using the following parameters:

     Nqs =      20    Nr_points =    1024   r_max =   100.000
     q_mesh =
               0.00001000     0.04494208     0.09755937     0.15916263
               0.23128650     0.31572767     0.41458969     0.53033537
               0.66584808     0.82450364     1.01025438     1.22772762
               1.48234092     1.78043706     2.12944203     2.53805004
               3.01644009     3.57652955     4.23227104     5.00000000

     Gradients computed in reciprocal space

     Starting wfc are   44 randomized atomic wfcs +   10 random wfc

     Self-consistent Calculation

     iteration #  1     ecut=    58.80 Ry     beta=0.10
     Davidson diagonalization with overlap
     ethr =  1.00E-02,  avg # of iterations =  5.1

     Threshold (ethr) on eigenvalues was too large:
     Diagonalizing with lowered threshold

     Davidson diagonalization with overlap
     c_bands:  2 eigenvalues not converged
     ethr =  3.32E-05,  avg # of iterations =  9.8

[...]

     total energy              =   -1257.58030123 Ry
     Harris-Foulkes estimate   =   -1257.58067838 Ry
     estimated scf accuracy    <       0.02202387 Ry

[...]

     total energy              =   -1257.58657096 Ry
     Harris-Foulkes estimate   =   -1257.58602232 Ry
     estimated scf accuracy    <       0.00000432 Ry

     iteration #  8     ecut=    58.80 Ry     beta=0.10
     Davidson diagonalization with overlap
     ethr =  6.35E-09,  avg # of iterations =  2.0

     negative rho (up, down):  3.513E-02 0.000E+00

     End of self-consistent calculation

          k = 0.0000 0.0000 0.0000 (  5193 PWs)   bands (ev):

  -116.1174-116.1168 -70.3006 -70.3003 -70.2997 -70.2997 -70.2995 -70.2995
    -7.1859  -7.1754  -7.1437  -7.0954  -7.0715  -7.0715  -7.0266  -7.0266
    -7.0225  -6.9472  -0.5044   1.9636   2.9116   2.9148   2.9697   3.0017
     3.0017   3.0377   3.0377   3.0419   3.1038   3.7574   7.2493   7.2493
     7.9063   9.9524  11.3877  11.6944  11.6944  15.1865  16.1653  16.3304
    16.8959  17.6877  17.6877  19.6854  20.6492  20.7533  20.8506  20.9609
    20.9609  21.0222  21.1351  21.1351  24.0115  24.2228

[...]

          k = 0.0853 0.0853 0.1188 (  5234 PWs)   bands (ev):

  -116.1174-116.1168 -70.3007 -70.3004 -70.2997 -70.2997 -70.2995 -70.2995
    -7.1384  -7.1367  -7.1116  -7.1058  -7.0695  -7.0661  -7.0644  -7.0627
    -6.9614  -6.9574   1.8537   1.9012   2.9600   2.9657   2.9991   3.0027
     3.0050   3.0078   3.0896   3.0939   3.6061   3.6678   6.7783   6.8587
     7.2879   7.4258   8.2615   8.5958  14.9747  15.2782  16.6717  17.0457
    17.5770  17.6169  17.6663  18.0269  20.1272  20.2525  20.8077  20.8504
    21.2546  21.3058  21.3853  21.5797  21.8113  21.9489

     the Fermi energy is    10.2389 ev

!    total energy              =   -1257.58867929 Ry
     Harris-Foulkes estimate   =   -1257.58657249 Ry
     estimated scf accuracy    <       0.00000046 Ry

     The total energy is the sum of the following terms:

     one-electron contribution =    -921.42744149 Ry
     hartree contribution      =     492.87502723 Ry
     xc contribution           =    -217.42071310 Ry
     ewald contribution        =    -611.61070528 Ry
     smearing contrib. (-TS)   =      -0.00484665 Ry

     convergence has been achieved in   8 iterations

     Forces acting on atoms (Ry/au):

     negative rho (up, down):  3.513E-02 0.000E+00
     atom    1 type  1   force =     0.00000000    0.00000000    0.00000000
     atom    2 type  1   force =     0.00000000    0.00000000    0.00000000
     atom    3 type  2   force =     0.00000000    0.00000000    0.00000000
     atom    4 type  2   force =     0.00000000    0.00000000    0.00000000

     Total force =     0.000000     Total SCF correction =     0.000000

     General routines

     Parallel routines

   This run was terminated on:  10:16:50  14Nov2017

   JOB DONE.