     Program PWSCF v.5.1rc2 starts on 14Nov2017 at  8:27:49

     Current dimensions of program PWSCF are:
     Max number of different atomic species (ntypx) = 10
     Max number of k-points (npk) =  40000
     Max angular momentum in pseudopotentials (lmaxx) =  3

     IMPORTANT: XC functional enforced from input :
     Exchange-correlation      = BEEF-VDW ( 1  4 27 13 2)
     Any further DFT definition will be discarded
     Please, verify this is what you really want

     Found symmetry operation: I + (  0.5000  0.5000  0.0000)
     This is a supercell, fractional translations are disabled

     Generating pointlists ...
     new r_m :   0.4125 (alat units)  0.7795 (a.u.) for type    1
     new r_m :   0.4125 (alat units)  0.7795 (a.u.) for type    2

     bravais-lattice index     =            0
     lattice parameter (alat)  =       1.8897  a.u.
     unit-cell volume          =     383.3726 (a.u.)^3
     number of atoms/cell      =            4
     number of atomic types    =            2
     number of electrons       =        60.00
     number of Kohn-Sham states=           50
     kinetic-energy cutoff     =      58.7989  Ry
     charge density cutoff     =     587.9892  Ry
     convergence threshold     =      1.0E-06
     mixing beta               =       0.1000
     number of iterations used =           10  plain     mixing
     Exchange-correlation      = BEEF-VDW ( 1  4 27 13 2)

     celldm(1)=   1.889726  celldm(2)=   0.000000  celldm(3)=   0.000000
     celldm(4)=   0.000000  celldm(5)=   0.000000  celldm(6)=   0.000000

     crystal axes: (cart. coord. in units of alat)
               a(1) = (   3.987456   0.000000   0.000000 )
               a(2) = (   0.000000   3.987456   0.000000 )
               a(3) = (   0.000000   0.000000   3.572997 )

     reciprocal axes: (cart. coord. in units 2 pi/alat)
               b(1) = (  0.250786  0.000000  0.000000 )
               b(2) = (  0.000000  0.250786  0.000000 )
               b(3) = (  0.000000  0.000000  0.279877 )

     PseudoPot. # 1 for Co read from file:
     /home/users/vossj/suncat/psp/gbrv1.5pbe/Co.UPF
     MD5 check sum: 5f91765df6ddd3222702df6e7b74a16d
     Pseudo is Ultrasoft + core correction, Zval = 17.0
     Generated by new atomic code, or converted to UPF format
     Using radial grid of  863 points,  6 beta functions with:
                l(1) =   0
                l(2) =   0
                l(3) =   1
                l(4) =   1
                l(5) =   2
                l(6) =   2
     Q(r) pseudized with  8 coefficients,  rinner =    1.200   1.200   1.200
                                                       1.200   1.200

     PseudoPot. # 2 for Ta read from file:
     /home/users/vossj/suncat/psp/gbrv1.5pbe/Ta.UPF
     MD5 check sum: f8bbe9446314a3b8ea5d9f3e3836c939
     Pseudo is Ultrasoft + core correction, Zval = 13.0
     Generated by new atomic code, or converted to UPF format
     Using radial grid of  921 points,  7 beta functions with:
                l(1) =   0
                l(2) =   0
                l(3) =   1
                l(4) =   1
                l(5) =   2
                l(6) =   2
                l(7) =   3
     Q(r) pseudized with  6 coefficients,  rinner =    1.300   1.300   1.300
                                                       1.300   1.300   1.300
                                                       1.300

     vdW kernel table read from file vdW_kernel_table
     MD5 check sum: 095c7af220d748ca6e76c0b4c6cfb241

     atomic species   valence    mass     pseudopotential
        Co1           17.00    58.93320     Co( 1.00)
        Ta1           13.00   180.94790     Ta( 1.00)

     Starting magnetic structure
     atomic species   magnetization
        Co1          0.118
        Ta1          0.154

     16 Sym. Ops., with inversion, found

   Cartesian axes

     site n.     atom                  positions (alat units)
         1           Co1 tau(   1) = (   0.0000000   0.0000000   0.0000000  )
         2           Co1 tau(   2) = (   1.9937281   1.9937281   0.0000000  )
         3           Ta1 tau(   3) = (   1.9937281   0.0000000   1.7864986  )
         4           Ta1 tau(   4) = (   0.0000000   1.9937281   1.7864986  )

     number of k points=   150  Fermi-Dirac smearing, width (Ry)=  0.0073

     Number of k-points >= 100: set verbosity='high' to print them.

     Largest allocated arrays     est. size (Mb)     dimensions
     Largest temporary arrays     est. size (Mb)     dimensions

     Check: negative/imaginary core charge=   -0.000012    0.000000

     Initial potential from superposition of free atoms
     Check: negative starting charge=(component1):   -0.108751
     Check: negative starting charge=(component2):   -0.079732

     starting charge   57.99776, renormalised to   60.00000

     negative rho (up, down):  1.125E-01 8.248E-02

     *
     * You are using vdW-DF for exchange-correlation in this calculation.
     * Please cite the following three references that made this development
     * possible:
     *
     *   M. Dion, H. Rydberg, E. Schroder, D. C. Langreth, and
     *   B. I. Lundqvist, Phys. Rev. Lett. 92, 246401 (2004).
     *
     *   T. Thonhauser, V. R. Cooper, S. Li, A. Puzder, P. Hyldgaard, and
     *   D. C. Langreth, Phys. Rev. B 76, 125112 (2007).
     *
     *   G. Roman-Perez and J. M. Soler, Phys. Rev. Lett. 103, 096102 (2009).
     *
     *
     * If you are using vdW-DF2, please also cite:
     *
     *   K. Lee, E. D. Murray, L. Kong, B. I. Lundqvist, and
     *   D. C. Langreth, Phys. Rev. B 82, 081101(R) (2010).
     *
     *
     * If you are calculating the stress with vdW-DF, please also cite:
     *
     *   R. Sabatini, E. Kucukbenli, B. Kolb, T. Thonhauser, and
     *   S. de Gironcoli, J. Phys.: Condens. Matter 24, 424209 (2012).
     *

     Carrying out vdW-DF run using the following parameters:

     Nqs =      20    Nr_points =    1024   r_max =   100.000
     q_mesh =
               0.00001000     0.04494208     0.09755937     0.15916263
               0.23128650     0.31572767     0.41458969     0.53033537
               0.66584808     0.82450364     1.01025438     1.22772762
               1.48234092     1.78043706     2.12944203     2.53805004
               3.01644009     3.57652955     4.23227104     5.00000000

     Gradients computed in reciprocal space

     Starting wfc are   52 randomized atomic wfcs

     Self-consistent Calculation

     iteration #  1     ecut=    58.80 Ry     beta=0.10
     Davidson diagonalization with overlap
     ethr =  1.00E-02,  avg # of iterations =  4.0

[...]

     Magnetic moment per site:
     atom:    1    charge:    8.3509    magn:    0.9686    constr:    0.0000
     atom:    2    charge:    8.3509    magn:    0.9686    constr:    0.0000
     atom:    3    charge:    1.4021    magn:    0.1950    constr:    0.0000
     atom:    4    charge:    1.4021    magn:    0.1950    constr:    0.0000

     total energy              =    -883.92967007 Ry
     Harris-Foulkes estimate   =    -887.42304492 Ry
     estimated scf accuracy    <      19.88731269 Ry

     total magnetization       =     3.47 Bohr mag/cell
     absolute magnetization    =     3.49 Bohr mag/cell

[...]

     total energy              =    -885.67534140 Ry
     Harris-Foulkes estimate   =    -885.67535342 Ry
     estimated scf accuracy    <       0.00000120 Ry

[...]

     iteration # 27     ecut=    58.80 Ry     beta=0.10
     Davidson diagonalization with overlap
     ethr =  2.01E-09,  avg # of iterations =  2.7

     negative rho (up, down):  1.012E-01 1.012E-01

     Magnetic moment per site:
     atom:    1    charge:    8.2746    magn:    0.0070    constr:    0.0000
     atom:    2    charge:    8.2746    magn:    0.0070    constr:    0.0000
     atom:    3    charge:    1.3609    magn:    0.0000    constr:    0.0000
     atom:    4    charge:    1.3609    magn:    0.0000    constr:    0.0000

     End of self-consistent calculation

     Number of k-points >= 100: set verbosity='high' to print the bands.

     the Fermi energy is    18.8827 ev

!    total energy              =    -885.67535841 Ry
     Harris-Foulkes estimate   =    -885.67535757 Ry
     estimated scf accuracy    <       0.00000033 Ry

     The total energy is the sum of the following terms:

     one-electron contribution =    -388.58922232 Ry
     hartree contribution      =     231.20639429 Ry
     xc contribution           =    -154.96997305 Ry
     ewald contribution        =    -573.31141077 Ry
     smearing contrib. (-TS)   =      -0.01114655 Ry

     total magnetization       =     0.03 Bohr mag/cell
     absolute magnetization    =     0.03 Bohr mag/cell

     convergence has been achieved in  27 iterations

     Forces acting on atoms (Ry/au):

     negative rho (up, down):  1.012E-01 1.012E-01
     atom    1 type  1   force =     0.00000000    0.00000000    0.00000000
     atom    2 type  1   force =     0.00000000    0.00000000    0.00000000
     atom    3 type  2   force =     0.00000000    0.00000000    0.00000000
     atom    4 type  2   force =     0.00000000    0.00000000    0.00000000

     Total force =     0.000000     Total SCF correction =     0.000000

     General routines

     Parallel routines

   This run was terminated on:   8:30:35  14Nov2017

   JOB DONE.