     Program PWSCF v.5.1rc2 starts on 15Nov2017 at  5:32:24

     Current dimensions of program PWSCF are:
     Max number of different atomic species (ntypx) = 10
     Max number of k-points (npk) =  40000
     Max angular momentum in pseudopotentials (lmaxx) =  3

     IMPORTANT: XC functional enforced from input :
     Exchange-correlation      = BEEF-VDW ( 1  4 27 13 2)
     Any further DFT definition will be discarded
     Please, verify this is what you really want

     Found symmetry operation: I + ( -0.5000 -0.5000  0.0000)
     This is a supercell, fractional translations are disabled

     bravais-lattice index     =            0
     lattice parameter (alat)  =       1.8897  a.u.
     unit-cell volume          =     378.2115 (a.u.)^3
     number of atoms/cell      =            4
     number of atomic types    =            2
     number of electrons       =        52.00
     number of Kohn-Sham states=           46
     kinetic-energy cutoff     =      58.7989  Ry
     charge density cutoff     =     587.9892  Ry
     convergence threshold     =      1.0E-06
     mixing beta               =       0.1000
     number of iterations used =           10  plain     mixing
     Exchange-correlation      = BEEF-VDW ( 1  4 27 13 2)

     celldm(1)=   1.889726  celldm(2)=   0.000000  celldm(3)=   0.000000
     celldm(4)=   0.000000  celldm(5)=   0.000000  celldm(6)=   0.000000

     crystal axes: (cart. coord. in units of alat)
               a(1) = (   4.294790   0.000000   0.000000 )
               a(2) = (   0.000000   4.294790   0.000000 )
               a(3) = (   0.000000   0.000000   3.038466 )

     reciprocal axes: (cart. coord. in units 2 pi/alat)
               b(1) = (  0.232840  0.000000  0.000000 )
               b(2) = (  0.000000  0.232840  0.000000 )
               b(3) = (  0.000000  0.000000  0.329113 )

     PseudoPot. # 1 for Ti read from file:
     /home/users/vossj/suncat/psp/gbrv1.5pbe/Ti.UPF
     MD5 check sum: 88a00a6731bd790ddea75d31a80cb452
     Pseudo is Ultrasoft + core correction, Zval = 12.0
     Generated by new atomic code, or converted to UPF format
     Using radial grid of  851 points,  6 beta functions with:
                l(1) =   0
                l(2) =   0
                l(3) =   1
                l(4) =   1
                l(5) =   2
                l(6) =   2
     Q(r) pseudized with  6 coefficients,  rinner =    1.000   1.000   1.000
                                                       1.000   1.000

     PseudoPot. # 2 for Cr read from file:
     /home/users/vossj/suncat/psp/gbrv1.5pbe/Cr.UPF
     MD5 check sum: 0d52af634a40206e4dee301ad30da4bf
     Pseudo is Ultrasoft + core correction, Zval = 14.0
     Generated by new atomic code, or converted to UPF format
     Using radial grid of  857 points,  6 beta functions with:
                l(1) =   0
                l(2) =   0
                l(3) =   1
                l(4) =   1
                l(5) =   2
                l(6) =   2
     Q(r) pseudized with  8 coefficients,  rinner =    0.950   0.950   0.950
                                                       0.950   0.950

     vdW kernel table read from file vdW_kernel_table
     MD5 check sum: 095c7af220d748ca6e76c0b4c6cfb241

     atomic species   valence    mass     pseudopotential
        Ti1           12.00    47.88000     Ti( 1.00)
        Cr1           14.00    51.99600     Cr( 1.00)

     16 Sym. Ops., with inversion, found

   Cartesian axes

     site n.     atom                  positions (alat units)
         1           Ti1 tau(   1) = (   0.0000000   0.0000000   0.0000000  )
         2           Ti1 tau(   2) = (   2.1473948   2.1473948   0.0000000  )
         3           Cr1 tau(   3) = (   2.1473948   0.0000000   1.5192331  )
         4           Cr1 tau(   4) = (   0.0000000   2.1473948   1.5192331  )

     number of k points=    75  Fermi-Dirac smearing, width (Ry)=  0.0073
                       cart. coord. in units 2pi/alat
        k(    1) = (   0.0000000   0.0000000   0.0000000), wk =   0.0027435
        k(    2) = (   0.0000000   0.0000000   0.0365682), wk =   0.0054870
        k(    3) = (   0.0000000   0.0000000   0.0731363), wk =   0.0054870
        k(    4) = (   0.0000000   0.0000000   0.1097045), wk =   0.0054870
        k(    5) = (   0.0000000   0.0000000   0.1462726), wk =   0.0054870
        k(    6) = (   0.0000000   0.0258711   0.0000000), wk =   0.0109739
        k(    7) = (   0.0000000   0.0258711   0.0365682), wk =   0.0219479
        k(    8) = (   0.0000000   0.0258711   0.0731363), wk =   0.0219479
        k(    9) = (   0.0000000   0.0258711   0.1097045), wk =   0.0219479
        k(   10) = (   0.0000000   0.0258711   0.1462726), wk =   0.0219479
        k(   11) = (   0.0000000   0.0517423   0.0000000), wk =   0.0109739
        k(   12) = (   0.0000000   0.0517423   0.0365682), wk =   0.0219479
        k(   13) = (   0.0000000   0.0517423   0.0731363), wk =   0.0219479
        k(   14) = (   0.0000000   0.0517423   0.1097045), wk =   0.0219479
        k(   15) = (   0.0000000   0.0517423   0.1462726), wk =   0.0219479
        k(   16) = (   0.0000000   0.0776134   0.0000000), wk =   0.0109739
        k(   17) = (   0.0000000   0.0776134   0.0365682), wk =   0.0219479
        k(   18) = (   0.0000000   0.0776134   0.0731363), wk =   0.0219479
        k(   19) = (   0.0000000   0.0776134   0.1097045), wk =   0.0219479
        k(   20) = (   0.0000000   0.0776134   0.1462726), wk =   0.0219479
        k(   21) = (   0.0000000   0.1034846   0.0000000), wk =   0.0109739
        k(   22) = (   0.0000000   0.1034846   0.0365682), wk =   0.0219479
        k(   23) = (   0.0000000   0.1034846   0.0731363), wk =   0.0219479
        k(   24) = (   0.0000000   0.1034846   0.1097045), wk =   0.0219479
        k(   25) = (   0.0000000   0.1034846   0.1462726), wk =   0.0219479
        k(   26) = (   0.0258711   0.0258711   0.0000000), wk =   0.0109739
        k(   27) = (   0.0258711   0.0258711   0.0365682), wk =   0.0219479
        k(   28) = (   0.0258711   0.0258711   0.0731363), wk =   0.0219479
        k(   29) = (   0.0258711   0.0258711   0.1097045), wk =   0.0219479
        k(   30) = (   0.0258711   0.0258711   0.1462726), wk =   0.0219479
        k(   31) = (   0.0258711   0.0517423   0.0000000), wk =   0.0219479
        k(   32) = (   0.0258711   0.0517423   0.0365682), wk =   0.0438957
        k(   33) = (   0.0258711   0.0517423   0.0731363), wk =   0.0438957
        k(   34) = (   0.0258711   0.0517423   0.1097045), wk =   0.0438957
        k(   35) = (   0.0258711   0.0517423   0.1462726), wk =   0.0438957
        k(   36) = (   0.0258711   0.0776134   0.0000000), wk =   0.0219479
        k(   37) = (   0.0258711   0.0776134   0.0365682), wk =   0.0438957
        k(   38) = (   0.0258711   0.0776134   0.0731363), wk =   0.0438957
        k(   39) = (   0.0258711   0.0776134   0.1097045), wk =   0.0438957
        k(   40) = (   0.0258711   0.0776134   0.1462726), wk =   0.0438957
        k(   41) = (   0.0258711   0.1034846   0.0000000), wk =   0.0219479
        k(   42) = (   0.0258711   0.1034846   0.0365682), wk =   0.0438957
        k(   43) = (   0.0258711   0.1034846   0.0731363), wk =   0.0438957
        k(   44) = (   0.0258711   0.1034846   0.1097045), wk =   0.0438957
        k(   45) = (   0.0258711   0.1034846   0.1462726), wk =   0.0438957
        k(   46) = (   0.0517423   0.0517423   0.0000000), wk =   0.0109739
        k(   47) = (   0.0517423   0.0517423   0.0365682), wk =   0.0219479
        k(   48) = (   0.0517423   0.0517423   0.0731363), wk =   0.0219479
        k(   49) = (   0.0517423   0.0517423   0.1097045), wk =   0.0219479
        k(   50) = (   0.0517423   0.0517423   0.1462726), wk =   0.0219479
        k(   51) = (   0.0517423   0.0776134   0.0000000), wk =   0.0219479
        k(   52) = (   0.0517423   0.0776134   0.0365682), wk =   0.0438957
        k(   53) = (   0.0517423   0.0776134   0.0731363), wk =   0.0438957
        k(   54) = (   0.0517423   0.0776134   0.1097045), wk =   0.0438957
        k(   55) = (   0.0517423   0.0776134   0.1462726), wk =   0.0438957
        k(   56) = (   0.0517423   0.1034846   0.0000000), wk =   0.0219479
        k(   57) = (   0.0517423   0.1034846   0.0365682), wk =   0.0438957
        k(   58) = (   0.0517423   0.1034846   0.0731363), wk =   0.0438957
        k(   59) = (   0.0517423   0.1034846   0.1097045), wk =   0.0438957
        k(   60) = (   0.0517423   0.1034846   0.1462726), wk =   0.0438957
        k(   61) = (   0.0776134   0.0776134   0.0000000), wk =   0.0109739
        k(   62) = (   0.0776134   0.0776134   0.0365682), wk =   0.0219479
        k(   63) = (   0.0776134   0.0776134   0.0731363), wk =   0.0219479
        k(   64) = (   0.0776134   0.0776134   0.1097045), wk =   0.0219479
        k(   65) = (   0.0776134   0.0776134   0.1462726), wk =   0.0219479
        k(   66) = (   0.0776134   0.1034846   0.0000000), wk =   0.0219479
        k(   67) = (   0.0776134   0.1034846   0.0365682), wk =   0.0438957
        k(   68) = (   0.0776134   0.1034846   0.0731363), wk =   0.0438957
        k(   69) = (   0.0776134   0.1034846   0.1097045), wk =   0.0438957
        k(   70) = (   0.0776134   0.1034846   0.1462726), wk =   0.0438957
        k(   71) = (   0.1034846   0.1034846   0.0000000), wk =   0.0109739
        k(   72) = (   0.1034846   0.1034846   0.0365682), wk =   0.0219479
        k(   73) = (   0.1034846   0.1034846   0.0731363), wk =   0.0219479
        k(   74) = (   0.1034846   0.1034846   0.1097045), wk =   0.0219479
        k(   75) = (   0.1034846   0.1034846   0.1462726), wk =   0.0219479

     Largest allocated arrays     est. size (Mb)     dimensions
     Largest temporary arrays     est. size (Mb)     dimensions

     Check: negative/imaginary core charge=   -0.000007    0.000000

     Initial potential from superposition of free atoms
     Check: negative starting charge=   -0.004455

     starting charge   47.99988, renormalised to   52.00000

     negative rho (up, down):  4.826E-03 0.000E+00

     *
     * You are using vdW-DF for exchange-correlation in this calculation.
     * Please cite the following three references that made this development
     * possible:
     *
     *   M. Dion, H. Rydberg, E. Schroder, D. C. Langreth, and
     *   B. I. Lundqvist, Phys. Rev. Lett. 92, 246401 (2004).
     *
     *   T. Thonhauser, V. R. Cooper, S. Li, A. Puzder, P. Hyldgaard, and
     *   D. C. Langreth, Phys. Rev. B 76, 125112 (2007).
     *
     *   G. Roman-Perez and J. M. Soler, Phys. Rev. Lett. 103, 096102 (2009).
     *
     *
     * If you are using vdW-DF2, please also cite:
     *
     *   K. Lee, E. D. Murray, L. Kong, B. I. Lundqvist, and
     *   D. C. Langreth, Phys. Rev. B 82, 081101(R) (2010).
     *
     *
     * If you are calculating the stress with vdW-DF, please also cite:
     *
     *   R. Sabatini, E. Kucukbenli, B. Kolb, T. Thonhauser, and
     *   S. de Gironcoli, J. Phys.: Condens. Matter 24, 424209 (2012).
     *

     Carrying out vdW-DF run using the following parameters:

     Nqs =      20    Nr_points =    1024   r_max =   100.000
     q_mesh =
               0.00001000     0.04494208     0.09755937     0.15916263
               0.23128650     0.31572767     0.41458969     0.53033537
               0.66584808     0.82450364     1.01025438     1.22772762
               1.48234092     1.78043706     2.12944203     2.53805004
               3.01644009     3.57652955     4.23227104     5.00000000

     Gradients computed in reciprocal space

     Starting wfc are   40 randomized atomic wfcs +    6 random wfc

     Self-consistent Calculation

     iteration #  1     ecut=    58.80 Ry     beta=0.10
     Davidson diagonalization with overlap
     ethr =  1.00E-02,  avg # of iterations =  4.2

[...]

     total energy              =    -592.78523168 Ry
     Harris-Foulkes estimate   =    -594.95381945 Ry
     estimated scf accuracy    <      12.50834591 Ry

[...]

     total energy              =    -592.43957801 Ry
     Harris-Foulkes estimate   =    -592.43957790 Ry
     estimated scf accuracy    <       0.00000545 Ry

     iteration # 15     ecut=    58.80 Ry     beta=0.10
     Davidson diagonalization with overlap
     ethr =  1.05E-08,  avg # of iterations =  1.0

     negative rho (up, down):  3.251E-03 0.000E+00

     End of self-consistent calculation

          k = 0.0000 0.0000 0.0000 (  2871 PWs)   bands (ev):

   -55.5951 -55.5805 -40.6679 -40.6199 -26.9521 -26.9521 -26.8700 -26.8700
   -26.8682 -26.8489 -16.9866 -16.9866 -16.7792 -16.7779 -16.7779 -16.7450
     9.2101  12.4665  12.7628  12.8183  12.8189  14.5403  14.5403  15.8823
    15.8823  15.8848  17.2302  17.2302  17.3594  17.5653  18.0208  18.0255
    18.3252  19.4583  19.5234  19.5238  19.5238  19.7272  19.7272  25.5484
    25.5553  25.5721  25.5721  25.6524  31.2422  31.2422

[...]

          k = 0.1035 0.1035 0.1463 (  2888 PWs)   bands (ev):

   -55.5809 -55.5805 -40.6217 -40.6201 -26.9514 -26.9493 -26.9468 -26.9466
   -26.8535 -26.8512 -16.9883 -16.9833 -16.9807 -16.9803 -16.7520 -16.7453
    12.4988  12.5378  12.8074  12.8324  14.5623  14.5669  14.5813  14.6347
    16.5494  16.6844  16.8351  16.9294  17.5150  17.6320  17.7344  17.8536
    18.2394  18.3002  19.4816  19.5919  19.6742  19.7184  19.8683  19.9365
    25.5706  25.6284  25.7637  26.0428  31.1514  31.2123

     the Fermi energy is    15.5733 ev

!    total energy              =    -592.43957995 Ry
     Harris-Foulkes estimate   =    -592.43957823 Ry
     estimated scf accuracy    <       0.00000080 Ry

     The total energy is the sum of the following terms:

     one-electron contribution =    -205.80173287 Ry
     hartree contribution      =     127.70136404 Ry
     xc contribution           =     -84.29839964 Ry
     ewald contribution        =    -430.02121329 Ry
     smearing contrib. (-TS)   =      -0.01959819 Ry

     convergence has been achieved in  15 iterations

     Forces acting on atoms (Ry/au):

     negative rho (up, down):  3.251E-03 0.000E+00
     atom    1 type  1   force =     0.00000000    0.00000000    0.00000000
     atom    2 type  1   force =     0.00000000    0.00000000    0.00000000
     atom    3 type  2   force =     0.00000000    0.00000000    0.00000000
     atom    4 type  2   force =     0.00000000    0.00000000    0.00000000

     Total force =     0.000000     Total SCF correction =     0.000000

     General routines

     Parallel routines

   This run was terminated on:   5:33: 1  15Nov2017

   JOB DONE.