     Program PWSCF v.5.1rc2 (svn rev. ) starts on 14Nov2017 at 22: 7: 3

     Current dimensions of program PWSCF are:
     Max number of different atomic species (ntypx) = 10
     Max number of k-points (npk) =  40000
     Max angular momentum in pseudopotentials (lmaxx) =  3

     IMPORTANT: XC functional enforced from input :
     Exchange-correlation      = BEEF-VDW ( 1  4 27 13 2)
     Any further DFT definition will be discarded
     Please, verify this is what you really want

     Subspace diagonalization in iterative solution of the eigenvalue problem:
     a serial algorithm will be used

     Found symmetry operation: I + (  0.5000  0.5000  0.0000)
     This is a supercell, fractional translations are disabled

     bravais-lattice index     =            0
     lattice parameter (alat)  =       1.8897  a.u.
     unit-cell volume          =     480.6459 (a.u.)^3
     number of atoms/cell      =            4
     number of atomic types    =            2
     number of electrons       =        54.00
     number of Kohn-Sham states=           47
     kinetic-energy cutoff     =      58.7989  Ry
     charge density cutoff     =     587.9892  Ry
     convergence threshold     =      1.0E-06
     mixing beta               =       0.1000
     number of iterations used =           10  plain     mixing
     Exchange-correlation      = BEEF-VDW ( 1  4 27 13 2)

     celldm(1)=   1.889726  celldm(2)=   0.000000  celldm(3)=   0.000000
     celldm(4)=   0.000000  celldm(5)=   0.000000  celldm(6)=   0.000000

     crystal axes: (cart. coord. in units of alat)
               a(1) = (   4.012415   0.000000   0.000000 )
               a(2) = (   0.000000   4.012415   0.000000 )
               a(3) = (   0.000000   0.000000   4.424019 )

     reciprocal axes: (cart. coord. in units 2 pi/alat)
               b(1) = (  0.249226  0.000000  0.000000 )
               b(2) = (  0.000000  0.249226  0.000000 )
               b(3) = (  0.000000  0.000000  0.226039 )

     PseudoPot. # 1 for Tc read from file:
     /home/vossj/suncat/psp/gbrv1.5pbe/Tc.UPF
     MD5 check sum: 9eb49e5b028550b2339a02317eb7b844
     Pseudo is Ultrasoft + core correction, Zval = 15.0
     Generated by new atomic code, or converted to UPF format
     Using radial grid of  965 points,  6 beta functions with:
                l(1) =   0
                l(2) =   0
                l(3) =   1
                l(4) =   1
                l(5) =   2
                l(6) =   2
     Q(r) pseudized with  8 coefficients,  rinner =    1.300   1.300   1.300
                                                       1.300   1.300

     PseudoPot. # 2 for Hg read from file:
     /home/vossj/suncat/psp/gbrv1.5pbe/Hg.UPF
     MD5 check sum: 8f42caffe07f7fd9c0a564347f8c5498
     Pseudo is Ultrasoft + core correction, Zval = 12.0
     Generated by new atomic code, or converted to UPF format
     Using radial grid of  985 points,  6 beta functions with:
                l(1) =   0
                l(2) =   0
                l(3) =   1
                l(4) =   1
                l(5) =   2
                l(6) =   2
     Q(r) pseudized with  8 coefficients,  rinner =    2.000   2.000   2.000
                                                       2.000   2.000

     vdW kernel table read from file vdW_kernel_table
     MD5 check sum: 095c7af220d748ca6e76c0b4c6cfb241

     atomic species   valence    mass     pseudopotential
        Tc1           15.00    97.90721     Tc( 1.00)
        Hg1           12.00   200.59200     Hg( 1.00)

     16 Sym. Ops., with inversion, found

   Cartesian axes

     site n.     atom                  positions (alat units)
         1           Tc1 tau(   1) = (   0.0000000   0.0000000   0.0000000  )
         2           Tc1 tau(   2) = (   2.0062074   2.0062074   0.0000000  )
         3           Hg1 tau(   3) = (   2.0062074   0.0000000   2.2120096  )
         4           Hg1 tau(   4) = (   0.0000000   2.0062074   2.2120096  )

     number of k points=    75  Fermi-Dirac smearing, width (Ry)=  0.0073
                       cart. coord. in units 2pi/alat
        k(    1) = (   0.0000000   0.0000000   0.0000000), wk =   0.0027435
        k(    2) = (   0.0000000   0.0000000   0.0251154), wk =   0.0054870
        k(    3) = (   0.0000000   0.0000000   0.0502308), wk =   0.0054870
        k(    4) = (   0.0000000   0.0000000   0.0753463), wk =   0.0054870
        k(    5) = (   0.0000000   0.0000000   0.1004617), wk =   0.0054870
        k(    6) = (   0.0000000   0.0276918   0.0000000), wk =   0.0109739
        k(    7) = (   0.0000000   0.0276918   0.0251154), wk =   0.0219479
        k(    8) = (   0.0000000   0.0276918   0.0502308), wk =   0.0219479
        k(    9) = (   0.0000000   0.0276918   0.0753463), wk =   0.0219479
        k(   10) = (   0.0000000   0.0276918   0.1004617), wk =   0.0219479
        k(   11) = (   0.0000000   0.0553837   0.0000000), wk =   0.0109739
        k(   12) = (   0.0000000   0.0553837   0.0251154), wk =   0.0219479
        k(   13) = (   0.0000000   0.0553837   0.0502308), wk =   0.0219479
        k(   14) = (   0.0000000   0.0553837   0.0753463), wk =   0.0219479
        k(   15) = (   0.0000000   0.0553837   0.1004617), wk =   0.0219479
        k(   16) = (   0.0000000   0.0830755   0.0000000), wk =   0.0109739
        k(   17) = (   0.0000000   0.0830755   0.0251154), wk =   0.0219479
        k(   18) = (   0.0000000   0.0830755   0.0502308), wk =   0.0219479
        k(   19) = (   0.0000000   0.0830755   0.0753463), wk =   0.0219479
        k(   20) = (   0.0000000   0.0830755   0.1004617), wk =   0.0219479
        k(   21) = (   0.0000000   0.1107673   0.0000000), wk =   0.0109739
        k(   22) = (   0.0000000   0.1107673   0.0251154), wk =   0.0219479
        k(   23) = (   0.0000000   0.1107673   0.0502308), wk =   0.0219479
        k(   24) = (   0.0000000   0.1107673   0.0753463), wk =   0.0219479
        k(   25) = (   0.0000000   0.1107673   0.1004617), wk =   0.0219479
        k(   26) = (   0.0276918   0.0276918   0.0000000), wk =   0.0109739
        k(   27) = (   0.0276918   0.0276918   0.0251154), wk =   0.0219479
        k(   28) = (   0.0276918   0.0276918   0.0502308), wk =   0.0219479
        k(   29) = (   0.0276918   0.0276918   0.0753463), wk =   0.0219479
        k(   30) = (   0.0276918   0.0276918   0.1004617), wk =   0.0219479
        k(   31) = (   0.0276918   0.0553837   0.0000000), wk =   0.0219479
        k(   32) = (   0.0276918   0.0553837   0.0251154), wk =   0.0438957
        k(   33) = (   0.0276918   0.0553837   0.0502308), wk =   0.0438957
        k(   34) = (   0.0276918   0.0553837   0.0753463), wk =   0.0438957
        k(   35) = (   0.0276918   0.0553837   0.1004617), wk =   0.0438957
        k(   36) = (   0.0276918   0.0830755   0.0000000), wk =   0.0219479
        k(   37) = (   0.0276918   0.0830755   0.0251154), wk =   0.0438957
        k(   38) = (   0.0276918   0.0830755   0.0502308), wk =   0.0438957
        k(   39) = (   0.0276918   0.0830755   0.0753463), wk =   0.0438957
        k(   40) = (   0.0276918   0.0830755   0.1004617), wk =   0.0438957
        k(   41) = (   0.0276918   0.1107673   0.0000000), wk =   0.0219479
        k(   42) = (   0.0276918   0.1107673   0.0251154), wk =   0.0438957
        k(   43) = (   0.0276918   0.1107673   0.0502308), wk =   0.0438957
        k(   44) = (   0.0276918   0.1107673   0.0753463), wk =   0.0438957
        k(   45) = (   0.0276918   0.1107673   0.1004617), wk =   0.0438957
        k(   46) = (   0.0553837   0.0553837   0.0000000), wk =   0.0109739
        k(   47) = (   0.0553837   0.0553837   0.0251154), wk =   0.0219479
        k(   48) = (   0.0553837   0.0553837   0.0502308), wk =   0.0219479
        k(   49) = (   0.0553837   0.0553837   0.0753463), wk =   0.0219479
        k(   50) = (   0.0553837   0.0553837   0.1004617), wk =   0.0219479
        k(   51) = (   0.0553837   0.0830755   0.0000000), wk =   0.0219479
        k(   52) = (   0.0553837   0.0830755   0.0251154), wk =   0.0438957
        k(   53) = (   0.0553837   0.0830755   0.0502308), wk =   0.0438957
        k(   54) = (   0.0553837   0.0830755   0.0753463), wk =   0.0438957
        k(   55) = (   0.0553837   0.0830755   0.1004617), wk =   0.0438957
        k(   56) = (   0.0553837   0.1107673   0.0000000), wk =   0.0219479
        k(   57) = (   0.0553837   0.1107673   0.0251154), wk =   0.0438957
        k(   58) = (   0.0553837   0.1107673   0.0502308), wk =   0.0438957
        k(   59) = (   0.0553837   0.1107673   0.0753463), wk =   0.0438957
        k(   60) = (   0.0553837   0.1107673   0.1004617), wk =   0.0438957
        k(   61) = (   0.0830755   0.0830755   0.0000000), wk =   0.0109739
        k(   62) = (   0.0830755   0.0830755   0.0251154), wk =   0.0219479
        k(   63) = (   0.0830755   0.0830755   0.0502308), wk =   0.0219479
        k(   64) = (   0.0830755   0.0830755   0.0753463), wk =   0.0219479
        k(   65) = (   0.0830755   0.0830755   0.1004617), wk =   0.0219479
        k(   66) = (   0.0830755   0.1107673   0.0000000), wk =   0.0219479
        k(   67) = (   0.0830755   0.1107673   0.0251154), wk =   0.0438957
        k(   68) = (   0.0830755   0.1107673   0.0502308), wk =   0.0438957
        k(   69) = (   0.0830755   0.1107673   0.0753463), wk =   0.0438957
        k(   70) = (   0.0830755   0.1107673   0.1004617), wk =   0.0438957
        k(   71) = (   0.1107673   0.1107673   0.0000000), wk =   0.0109739
        k(   72) = (   0.1107673   0.1107673   0.0251154), wk =   0.0219479
        k(   73) = (   0.1107673   0.1107673   0.0502308), wk =   0.0219479
        k(   74) = (   0.1107673   0.1107673   0.0753463), wk =   0.0219479
        k(   75) = (   0.1107673   0.1107673   0.1004617), wk =   0.0219479

     Largest allocated arrays     est. size (Mb)     dimensions
     Largest temporary arrays     est. size (Mb)     dimensions

     Check: negative/imaginary core charge=   -0.000004    0.000000

     Initial potential from superposition of free atoms
     Check: negative starting charge=   -0.250118

     starting charge   51.99983, renormalised to   54.00000

     negative rho (up, down):  2.597E-01 0.000E+00

     *
     * You are using vdW-DF for exchange-correlation in this calculation.
     * Please cite the following three references that made this development
     * possible:
     *
     *   M. Dion, H. Rydberg, E. Schroder, D. C. Langreth, and
     *   B. I. Lundqvist, Phys. Rev. Lett. 92, 246401 (2004).
     *
     *   T. Thonhauser, V. R. Cooper, S. Li, A. Puzder, P. Hyldgaard, and
     *   D. C. Langreth, Phys. Rev. B 76, 125112 (2007).
     *
     *   G. Roman-Perez and J. M. Soler, Phys. Rev. Lett. 103, 096102 (2009).
     *
     *
     * If you are using vdW-DF2, please also cite:
     *
     *   K. Lee, E. D. Murray, L. Kong, B. I. Lundqvist, and
     *   D. C. Langreth, Phys. Rev. B 82, 081101(R) (2010).
     *
     *
     * If you are calculating the stress with vdW-DF, please also cite:
     *
     *   R. Sabatini, E. Kucukbenli, B. Kolb, T. Thonhauser, and
     *   S. de Gironcoli, J. Phys.: Condens. Matter 24, 424209 (2012).
     *

     Carrying out vdW-DF run using the following parameters:

     Nqs =      20    Nr_points =    1024   r_max =   100.000
     q_mesh =
               0.00001000     0.04494208     0.09755937     0.15916263
               0.23128650     0.31572767     0.41458969     0.53033537
               0.66584808     0.82450364     1.01025438     1.22772762
               1.48234092     1.78043706     2.12944203     2.53805004
               3.01644009     3.57652955     4.23227104     5.00000000

     Gradients computed in reciprocal space

     Starting wfc are   44 randomized atomic wfcs +    3 random wfc

     Self-consistent Calculation

     iteration #  1     ecut=    58.80 Ry     beta=0.10
     Davidson diagonalization with overlap
     ethr =  1.00E-02,  avg # of iterations =  4.9

[...]

     total energy              =    -568.83005149 Ry
     Harris-Foulkes estimate   =    -569.17710569 Ry
     estimated scf accuracy    <       2.11969733 Ry

[...]

     total energy              =    -568.62325505 Ry
     Harris-Foulkes estimate   =    -568.62325833 Ry
     estimated scf accuracy    <       0.00001011 Ry

     iteration # 13     ecut=    58.80 Ry     beta=0.10
     Davidson diagonalization with overlap
     ethr =  6.74E-09,  avg # of iterations =  2.0

     negative rho (up, down):  2.559E-01 0.000E+00

     End of self-consistent calculation

          k = 0.0000 0.0000 0.0000 (  3665 PWs)   bands (ev):

   -50.0285 -49.9403 -22.2083 -22.2083 -22.0093 -21.9134 -21.8127 -21.8127
     7.0814   7.7364   7.7698   8.5312   8.5312   8.5739   9.3243   9.9127
     9.9127  10.5316  11.3883  13.8878  13.9333  14.4241  16.2689  16.2689
    16.8841  17.3237  17.6693  17.6693  18.2207  18.2207  18.4545  19.7247
    21.4448  22.6955  24.7173  26.6246  26.7794  26.7794  27.2777  27.4716
    27.4716  30.5766  33.2769  33.3648  34.3476  35.0633  35.0633

[...]

          k = 0.1108 0.1108 0.1005 (  3646 PWs)   bands (ev):

   -49.9852 -49.9825 -22.2605 -22.2490 -21.9641 -21.9611 -21.7874 -21.7751
     7.9950   8.0847   8.2678   8.2861   9.4920   9.5357   9.5517   9.5821
    10.0275  10.0694  12.8500  13.3050  14.4076  14.5526  15.1612  15.3835
    16.0167  16.4333  16.9592  17.4751  17.6066  17.6082  17.7524  17.8952
    19.7192  19.9567  23.5341  23.7707  29.2703  29.3542  29.8621  29.9642
    32.6830  32.9105  32.9698  32.9928  33.0967  33.4248  35.3911

     the Fermi energy is    17.0569 ev

!    total energy              =    -568.62325672 Ry
     Harris-Foulkes estimate   =    -568.62325628 Ry
     estimated scf accuracy    <       0.00000021 Ry

     The total energy is the sum of the following terms:

     one-electron contribution =     -75.20934108 Ry
     hartree contribution      =      82.78874315 Ry
     xc contribution           =    -147.25830092 Ry
     ewald contribution        =    -428.92932291 Ry
     smearing contrib. (-TS)   =      -0.01503495 Ry

     convergence has been achieved in  13 iterations

     Forces acting on atoms (Ry/au):

     negative rho (up, down):  2.559E-01 0.000E+00
     atom    1 type  1   force =     0.00000000    0.00000000    0.00000000
     atom    2 type  1   force =     0.00000000    0.00000000    0.00000000
     atom    3 type  2   force =     0.00000000    0.00000000    0.00000000
     atom    4 type  2   force =     0.00000000    0.00000000    0.00000000

     Total force =     0.000000     Total SCF correction =     0.000000

     General routines

     Parallel routines

   This run was terminated on:  22: 7:51  14Nov2017

   JOB DONE.