     Program PWSCF v.5.1rc2 starts on 15Nov2017 at  8:10:38

     Current dimensions of program PWSCF are:
     Max number of different atomic species (ntypx) = 10
     Max number of k-points (npk) =  40000
     Max angular momentum in pseudopotentials (lmaxx) =  3

     IMPORTANT: XC functional enforced from input :
     Exchange-correlation      = BEEF-VDW ( 1  4 27 13 2)
     Any further DFT definition will be discarded
     Please, verify this is what you really want

     Found symmetry operation: I + ( -0.5000 -0.5000  0.0000)
     This is a supercell, fractional translations are disabled

     bravais-lattice index     =            0
     lattice parameter (alat)  =       1.8897  a.u.
     unit-cell volume          =     633.5205 (a.u.)^3
     number of atoms/cell      =            4
     number of atomic types    =            2
     number of electrons       =        52.00
     number of Kohn-Sham states=           46
     kinetic-energy cutoff     =      58.7989  Ry
     charge density cutoff     =     587.9892  Ry
     convergence threshold     =      1.0E-06
     mixing beta               =       0.1000
     number of iterations used =           10  plain     mixing
     Exchange-correlation      = BEEF-VDW ( 1  4 27 13 2)

     celldm(1)=   1.889726  celldm(2)=   0.000000  celldm(3)=   0.000000
     celldm(4)=   0.000000  celldm(5)=   0.000000  celldm(6)=   0.000000

     crystal axes: (cart. coord. in units of alat)
               a(1) = (   5.095888   0.000000   0.000000 )
               a(2) = (   0.000000   5.095888   0.000000 )
               a(3) = (   0.000000   0.000000   3.615133 )

     reciprocal axes: (cart. coord. in units 2 pi/alat)
               b(1) = (  0.196237  0.000000  0.000000 )
               b(2) = (  0.000000  0.196237  0.000000 )
               b(3) = (  0.000000  0.000000  0.276615 )

     PseudoPot. # 1 for La read from file:
     /home/users/vossj/suncat/psp/gbrv1.5pbe/La.UPF
     MD5 check sum: 5937b0c7494ba0601a847275249473aa
     Pseudo is Ultrasoft + core correction, Zval = 11.0
     Generated by new atomic code, or converted to UPF format
     Using radial grid of  995 points,  8 beta functions with:
                l(1) =   0
                l(2) =   0
                l(3) =   1
                l(4) =   1
                l(5) =   2
                l(6) =   2
                l(7) =   3
                l(8) =   3
     Q(r) pseudized with  8 coefficients,  rinner =    1.700   1.700   1.700
                                                       1.700   1.700   1.700
                                                       1.700

     PseudoPot. # 2 for Re read from file:
     /home/users/vossj/suncat/psp/gbrv1.5pbe/Re.UPF
     MD5 check sum: 85f993410f3e006da9d71c142b4ad953
     Pseudo is Ultrasoft + core correction, Zval = 15.0
     Generated by new atomic code, or converted to UPF format
     Using radial grid of  981 points,  8 beta functions with:
                l(1) =   0
                l(2) =   0
                l(3) =   1
                l(4) =   1
                l(5) =   2
                l(6) =   2
                l(7) =   3
                l(8) =   3
     Q(r) pseudized with  8 coefficients,  rinner =    1.150   1.150   1.150
                                                       1.150   1.150   1.150
                                                       1.150

     vdW kernel table read from file vdW_kernel_table
     MD5 check sum: 095c7af220d748ca6e76c0b4c6cfb241

     atomic species   valence    mass     pseudopotential
        La1           11.00   138.90550     La( 1.00)
        Re1           15.00   186.20700     Re( 1.00)

     16 Sym. Ops., with inversion, found

   Cartesian axes

     site n.     atom                  positions (alat units)
         1           La1 tau(   1) = (   0.0000000   0.0000000   0.0000000  )
         2           La1 tau(   2) = (   2.5479442   2.5479442   0.0000000  )
         3           Re1 tau(   3) = (   2.5479442   0.0000000   1.8075664  )
         4           Re1 tau(   4) = (   0.0000000   2.5479442   1.8075664  )

     number of k points=    75  Fermi-Dirac smearing, width (Ry)=  0.0073
                       cart. coord. in units 2pi/alat
        k(    1) = (   0.0000000   0.0000000   0.0000000), wk =   0.0027435
        k(    2) = (   0.0000000   0.0000000   0.0307350), wk =   0.0054870
        k(    3) = (   0.0000000   0.0000000   0.0614700), wk =   0.0054870
        k(    4) = (   0.0000000   0.0000000   0.0922050), wk =   0.0054870
        k(    5) = (   0.0000000   0.0000000   0.1229400), wk =   0.0054870
        k(    6) = (   0.0000000   0.0218041   0.0000000), wk =   0.0109739
        k(    7) = (   0.0000000   0.0218041   0.0307350), wk =   0.0219479
        k(    8) = (   0.0000000   0.0218041   0.0614700), wk =   0.0219479
        k(    9) = (   0.0000000   0.0218041   0.0922050), wk =   0.0219479
        k(   10) = (   0.0000000   0.0218041   0.1229400), wk =   0.0219479
        k(   11) = (   0.0000000   0.0436081   0.0000000), wk =   0.0109739
        k(   12) = (   0.0000000   0.0436081   0.0307350), wk =   0.0219479
        k(   13) = (   0.0000000   0.0436081   0.0614700), wk =   0.0219479
        k(   14) = (   0.0000000   0.0436081   0.0922050), wk =   0.0219479
        k(   15) = (   0.0000000   0.0436081   0.1229400), wk =   0.0219479
        k(   16) = (   0.0000000   0.0654122   0.0000000), wk =   0.0109739
        k(   17) = (   0.0000000   0.0654122   0.0307350), wk =   0.0219479
        k(   18) = (   0.0000000   0.0654122   0.0614700), wk =   0.0219479
        k(   19) = (   0.0000000   0.0654122   0.0922050), wk =   0.0219479
        k(   20) = (   0.0000000   0.0654122   0.1229400), wk =   0.0219479
        k(   21) = (   0.0000000   0.0872163   0.0000000), wk =   0.0109739
        k(   22) = (   0.0000000   0.0872163   0.0307350), wk =   0.0219479
        k(   23) = (   0.0000000   0.0872163   0.0614700), wk =   0.0219479
        k(   24) = (   0.0000000   0.0872163   0.0922050), wk =   0.0219479
        k(   25) = (   0.0000000   0.0872163   0.1229400), wk =   0.0219479
        k(   26) = (   0.0218041   0.0218041   0.0000000), wk =   0.0109739
        k(   27) = (   0.0218041   0.0218041   0.0307350), wk =   0.0219479
        k(   28) = (   0.0218041   0.0218041   0.0614700), wk =   0.0219479
        k(   29) = (   0.0218041   0.0218041   0.0922050), wk =   0.0219479
        k(   30) = (   0.0218041   0.0218041   0.1229400), wk =   0.0219479
        k(   31) = (   0.0218041   0.0436081   0.0000000), wk =   0.0219479
        k(   32) = (   0.0218041   0.0436081   0.0307350), wk =   0.0438957
        k(   33) = (   0.0218041   0.0436081   0.0614700), wk =   0.0438957
        k(   34) = (   0.0218041   0.0436081   0.0922050), wk =   0.0438957
        k(   35) = (   0.0218041   0.0436081   0.1229400), wk =   0.0438957
        k(   36) = (   0.0218041   0.0654122   0.0000000), wk =   0.0219479
        k(   37) = (   0.0218041   0.0654122   0.0307350), wk =   0.0438957
        k(   38) = (   0.0218041   0.0654122   0.0614700), wk =   0.0438957
        k(   39) = (   0.0218041   0.0654122   0.0922050), wk =   0.0438957
        k(   40) = (   0.0218041   0.0654122   0.1229400), wk =   0.0438957
        k(   41) = (   0.0218041   0.0872163   0.0000000), wk =   0.0219479
        k(   42) = (   0.0218041   0.0872163   0.0307350), wk =   0.0438957
        k(   43) = (   0.0218041   0.0872163   0.0614700), wk =   0.0438957
        k(   44) = (   0.0218041   0.0872163   0.0922050), wk =   0.0438957
        k(   45) = (   0.0218041   0.0872163   0.1229400), wk =   0.0438957
        k(   46) = (   0.0436081   0.0436081   0.0000000), wk =   0.0109739
        k(   47) = (   0.0436081   0.0436081   0.0307350), wk =   0.0219479
        k(   48) = (   0.0436081   0.0436081   0.0614700), wk =   0.0219479
        k(   49) = (   0.0436081   0.0436081   0.0922050), wk =   0.0219479
        k(   50) = (   0.0436081   0.0436081   0.1229400), wk =   0.0219479
        k(   51) = (   0.0436081   0.0654122   0.0000000), wk =   0.0219479
        k(   52) = (   0.0436081   0.0654122   0.0307350), wk =   0.0438957
        k(   53) = (   0.0436081   0.0654122   0.0614700), wk =   0.0438957
        k(   54) = (   0.0436081   0.0654122   0.0922050), wk =   0.0438957
        k(   55) = (   0.0436081   0.0654122   0.1229400), wk =   0.0438957
        k(   56) = (   0.0436081   0.0872163   0.0000000), wk =   0.0219479
        k(   57) = (   0.0436081   0.0872163   0.0307350), wk =   0.0438957
        k(   58) = (   0.0436081   0.0872163   0.0614700), wk =   0.0438957
        k(   59) = (   0.0436081   0.0872163   0.0922050), wk =   0.0438957
        k(   60) = (   0.0436081   0.0872163   0.1229400), wk =   0.0438957
        k(   61) = (   0.0654122   0.0654122   0.0000000), wk =   0.0109739
        k(   62) = (   0.0654122   0.0654122   0.0307350), wk =   0.0219479
        k(   63) = (   0.0654122   0.0654122   0.0614700), wk =   0.0219479
        k(   64) = (   0.0654122   0.0654122   0.0922050), wk =   0.0219479
        k(   65) = (   0.0654122   0.0654122   0.1229400), wk =   0.0219479
        k(   66) = (   0.0654122   0.0872163   0.0000000), wk =   0.0219479
        k(   67) = (   0.0654122   0.0872163   0.0307350), wk =   0.0438957
        k(   68) = (   0.0654122   0.0872163   0.0614700), wk =   0.0438957
        k(   69) = (   0.0654122   0.0872163   0.0922050), wk =   0.0438957
        k(   70) = (   0.0654122   0.0872163   0.1229400), wk =   0.0438957
        k(   71) = (   0.0872163   0.0872163   0.0000000), wk =   0.0109739
        k(   72) = (   0.0872163   0.0872163   0.0307350), wk =   0.0219479
        k(   73) = (   0.0872163   0.0872163   0.0614700), wk =   0.0219479
        k(   74) = (   0.0872163   0.0872163   0.0922050), wk =   0.0219479
        k(   75) = (   0.0872163   0.0872163   0.1229400), wk =   0.0219479

     Largest allocated arrays     est. size (Mb)     dimensions
     Largest temporary arrays     est. size (Mb)     dimensions

     Initial potential from superposition of free atoms
     Check: negative starting charge=   -0.392219

     starting charge   50.93577, renormalised to   52.00000

     negative rho (up, down):  4.004E-01 0.000E+00

     *
     * You are using vdW-DF for exchange-correlation in this calculation.
     * Please cite the following three references that made this development
     * possible:
     *
     *   M. Dion, H. Rydberg, E. Schroder, D. C. Langreth, and
     *   B. I. Lundqvist, Phys. Rev. Lett. 92, 246401 (2004).
     *
     *   T. Thonhauser, V. R. Cooper, S. Li, A. Puzder, P. Hyldgaard, and
     *   D. C. Langreth, Phys. Rev. B 76, 125112 (2007).
     *
     *   G. Roman-Perez and J. M. Soler, Phys. Rev. Lett. 103, 096102 (2009).
     *
     *
     * If you are using vdW-DF2, please also cite:
     *
     *   K. Lee, E. D. Murray, L. Kong, B. I. Lundqvist, and
     *   D. C. Langreth, Phys. Rev. B 82, 081101(R) (2010).
     *
     *
     * If you are calculating the stress with vdW-DF, please also cite:
     *
     *   R. Sabatini, E. Kucukbenli, B. Kolb, T. Thonhauser, and
     *   S. de Gironcoli, J. Phys.: Condens. Matter 24, 424209 (2012).
     *

     Carrying out vdW-DF run using the following parameters:

     Nqs =      20    Nr_points =    1024   r_max =   100.000
     q_mesh =
               0.00001000     0.04494208     0.09755937     0.15916263
               0.23128650     0.31572767     0.41458969     0.53033537
               0.66584808     0.82450364     1.01025438     1.22772762
               1.48234092     1.78043706     2.12944203     2.53805004
               3.01644009     3.57652955     4.23227104     5.00000000

     Gradients computed in reciprocal space

     Starting wfc are   66 randomized atomic wfcs

     Self-consistent Calculation

     iteration #  1     ecut=    58.80 Ry     beta=0.10
     Davidson diagonalization with overlap
     ethr =  1.00E-02,  avg # of iterations =  2.0

     Threshold (ethr) on eigenvalues was too large:
     Diagonalizing with lowered threshold

     Davidson diagonalization with overlap
     ethr =  3.50E-04,  avg # of iterations =  2.0

[...]

     total energy              =    -592.27742875 Ry
     Harris-Foulkes estimate   =    -592.30743429 Ry
     estimated scf accuracy    <       0.20970971 Ry

[...]

     total energy              =    -592.26009031 Ry
     Harris-Foulkes estimate   =    -592.26006875 Ry
     estimated scf accuracy    <       0.00000750 Ry

     iteration # 12     ecut=    58.80 Ry     beta=0.10
     Davidson diagonalization with overlap
     ethr =  1.25E-08,  avg # of iterations =  2.5

     negative rho (up, down):  3.413E-01 0.000E+00

     End of self-consistent calculation

          k = 0.0000 0.0000 0.0000 (  4877 PWs)   bands (ev):

   -63.7837 -63.7823 -25.5351 -25.5351 -25.5035 -25.5035 -25.5025 -25.4961
   -15.9276 -15.7108  -0.0770  -0.0770   0.8546   0.8653   0.8653   1.0714
    10.7644  11.7338  12.6990  12.7048  13.4055  14.2745  14.2745  15.6530
    15.6530  15.6753  17.1720  17.2412  18.1812  18.1812  19.1010  19.1082
    19.1082  19.1437  19.1722  19.1722  19.1812  19.1886  19.1886  19.3417
    19.3851  19.4687  19.6411  19.6913  20.1432  20.3449

[...]

          k = 0.0872 0.0872 0.1229 (  4838 PWs)   bands (ev):

   -63.7824 -63.7824 -25.5353 -25.5344 -25.5320 -25.5317 -25.4983 -25.4974
   -15.7197 -15.7138  -0.0902  -0.0673  -0.0431  -0.0341   1.0349   1.0680
    11.8321  11.8362  13.4660  13.5135  14.3332  14.3362  14.3392  14.4021
    16.8120  16.8532  16.8947  17.1959  18.0708  18.3345  18.3885  18.4236
    19.1140  19.1217  19.1365  19.1438  19.1817  19.1916  19.6108  19.6347
    19.6348  19.6961  20.0047  20.0914  20.2071  20.2457

     the Fermi energy is    15.7187 ev

!    total energy              =    -592.26019493 Ry
     Harris-Foulkes estimate   =    -592.26009153 Ry
     estimated scf accuracy    <       0.00000001 Ry

     The total energy is the sum of the following terms:

     one-electron contribution =     -86.97360903 Ry
     hartree contribution      =      70.49494309 Ry
     xc contribution           =    -210.09103363 Ry
     ewald contribution        =    -365.67125356 Ry
     smearing contrib. (-TS)   =      -0.01924180 Ry

     convergence has been achieved in  12 iterations

     Forces acting on atoms (Ry/au):

     negative rho (up, down):  3.413E-01 0.000E+00
     atom    1 type  1   force =     0.00000000    0.00000000    0.00000000
     atom    2 type  1   force =     0.00000000    0.00000000    0.00000000
     atom    3 type  2   force =     0.00000000    0.00000000    0.00000000
     atom    4 type  2   force =     0.00000000    0.00000000    0.00000000

     Total force =     0.000000     Total SCF correction =     0.000000

     General routines

     Parallel routines

   This run was terminated on:   8:11:43  15Nov2017

   JOB DONE.