     Program PWSCF v.5.1rc2 starts on 13Nov2017 at 18: 2:53

     Current dimensions of program PWSCF are:
     Max number of different atomic species (ntypx) = 10
     Max number of k-points (npk) =  40000
     Max angular momentum in pseudopotentials (lmaxx) =  3

     IMPORTANT: XC functional enforced from input :
     Exchange-correlation      = BEEF-VDW ( 1  4 27 13 2)
     Any further DFT definition will be discarded
     Please, verify this is what you really want

     Found symmetry operation: I + (  0.5000  0.5000  0.0000)
     This is a supercell, fractional translations are disabled

     bravais-lattice index     =            0
     lattice parameter (alat)  =       1.8897  a.u.
     unit-cell volume          =     586.3850 (a.u.)^3
     number of atoms/cell      =            4
     number of atomic types    =            2
     number of electrons       =        30.00
     number of Kohn-Sham states=           35
     kinetic-energy cutoff     =      58.7989  Ry
     charge density cutoff     =     587.9892  Ry
     convergence threshold     =      1.0E-06
     mixing beta               =       0.1000
     number of iterations used =           10  plain     mixing
     Exchange-correlation      = BEEF-VDW ( 1  4 27 13 2)

     celldm(1)=   1.889726  celldm(2)=   0.000000  celldm(3)=   0.000000
     celldm(4)=   0.000000  celldm(5)=   0.000000  celldm(6)=   0.000000

     crystal axes: (cart. coord. in units of alat)
               a(1) = (   4.533636   0.000000   0.000000 )
               a(2) = (   0.000000   4.533636   0.000000 )
               a(3) = (   0.000000   0.000000   4.227590 )

     reciprocal axes: (cart. coord. in units 2 pi/alat)
               b(1) = (  0.220573  0.000000  0.000000 )
               b(2) = (  0.000000  0.220573  0.000000 )
               b(3) = (  0.000000  0.000000  0.236541 )

     PseudoPot. # 1 for Al read from file:
     /home/users/vossj/suncat/psp/gbrv1.5pbe/Al.UPF
     MD5 check sum: 0a6289f5291fc8f409219462bc851e1f
     Pseudo is Ultrasoft + core correction, Zval =  3.0
     Generated by new atomic code, or converted to UPF format
     Using radial grid of  893 points,  3 beta functions with:
                l(1) =   0
                l(2) =   1
                l(3) =   2
     Q(r) pseudized with  8 coefficients,  rinner =    0.900   0.900   0.900
                                                       0.900   0.900

     PseudoPot. # 2 for Hg read from file:
     /home/users/vossj/suncat/psp/gbrv1.5pbe/Hg.UPF
     MD5 check sum: 8f42caffe07f7fd9c0a564347f8c5498
     Pseudo is Ultrasoft + core correction, Zval = 12.0
     Generated by new atomic code, or converted to UPF format
     Using radial grid of  985 points,  6 beta functions with:
                l(1) =   0
                l(2) =   0
                l(3) =   1
                l(4) =   1
                l(5) =   2
                l(6) =   2
     Q(r) pseudized with  8 coefficients,  rinner =    2.000   2.000   2.000
                                                       2.000   2.000

     vdW kernel table read from file vdW_kernel_table
     MD5 check sum: 095c7af220d748ca6e76c0b4c6cfb241

     atomic species   valence    mass     pseudopotential
        Al1            3.00    26.98154     Al( 1.00)
        Hg1           12.00   200.59000     Hg( 1.00)

     16 Sym. Ops., with inversion, found

   Cartesian axes

     site n.     atom                  positions (alat units)
         1           Al1 tau(   1) = (   0.0000000   0.0000000   0.0000000  )
         2           Al1 tau(   2) = (   2.2668182   2.2668182   0.0000000  )
         3           Hg1 tau(   3) = (   2.2668182   0.0000000   2.1137948  )
         4           Hg1 tau(   4) = (   0.0000000   2.2668182   2.1137948  )

     number of k points=    75  Fermi-Dirac smearing, width (Ry)=  0.0073
                       cart. coord. in units 2pi/alat
        k(    1) = (   0.0000000   0.0000000   0.0000000), wk =   0.0027435
        k(    2) = (   0.0000000   0.0000000   0.0262824), wk =   0.0054870
        k(    3) = (   0.0000000   0.0000000   0.0525648), wk =   0.0054870
        k(    4) = (   0.0000000   0.0000000   0.0788471), wk =   0.0054870
        k(    5) = (   0.0000000   0.0000000   0.1051295), wk =   0.0054870
        k(    6) = (   0.0000000   0.0245082   0.0000000), wk =   0.0109739
        k(    7) = (   0.0000000   0.0245082   0.0262824), wk =   0.0219479
        k(    8) = (   0.0000000   0.0245082   0.0525648), wk =   0.0219479
        k(    9) = (   0.0000000   0.0245082   0.0788471), wk =   0.0219479
        k(   10) = (   0.0000000   0.0245082   0.1051295), wk =   0.0219479
        k(   11) = (   0.0000000   0.0490163   0.0000000), wk =   0.0109739
        k(   12) = (   0.0000000   0.0490163   0.0262824), wk =   0.0219479
        k(   13) = (   0.0000000   0.0490163   0.0525648), wk =   0.0219479
        k(   14) = (   0.0000000   0.0490163   0.0788471), wk =   0.0219479
        k(   15) = (   0.0000000   0.0490163   0.1051295), wk =   0.0219479
        k(   16) = (   0.0000000   0.0735245   0.0000000), wk =   0.0109739
        k(   17) = (   0.0000000   0.0735245   0.0262824), wk =   0.0219479
        k(   18) = (   0.0000000   0.0735245   0.0525648), wk =   0.0219479
        k(   19) = (   0.0000000   0.0735245   0.0788471), wk =   0.0219479
        k(   20) = (   0.0000000   0.0735245   0.1051295), wk =   0.0219479
        k(   21) = (   0.0000000   0.0980327   0.0000000), wk =   0.0109739
        k(   22) = (   0.0000000   0.0980327   0.0262824), wk =   0.0219479
        k(   23) = (   0.0000000   0.0980327   0.0525648), wk =   0.0219479
        k(   24) = (   0.0000000   0.0980327   0.0788471), wk =   0.0219479
        k(   25) = (   0.0000000   0.0980327   0.1051295), wk =   0.0219479
        k(   26) = (   0.0245082   0.0245082   0.0000000), wk =   0.0109739
        k(   27) = (   0.0245082   0.0245082   0.0262824), wk =   0.0219479
        k(   28) = (   0.0245082   0.0245082   0.0525648), wk =   0.0219479
        k(   29) = (   0.0245082   0.0245082   0.0788471), wk =   0.0219479
        k(   30) = (   0.0245082   0.0245082   0.1051295), wk =   0.0219479
        k(   31) = (   0.0245082   0.0490163   0.0000000), wk =   0.0219479
        k(   32) = (   0.0245082   0.0490163   0.0262824), wk =   0.0438957
        k(   33) = (   0.0245082   0.0490163   0.0525648), wk =   0.0438957
        k(   34) = (   0.0245082   0.0490163   0.0788471), wk =   0.0438957
        k(   35) = (   0.0245082   0.0490163   0.1051295), wk =   0.0438957
        k(   36) = (   0.0245082   0.0735245   0.0000000), wk =   0.0219479
        k(   37) = (   0.0245082   0.0735245   0.0262824), wk =   0.0438957
        k(   38) = (   0.0245082   0.0735245   0.0525648), wk =   0.0438957
        k(   39) = (   0.0245082   0.0735245   0.0788471), wk =   0.0438957
        k(   40) = (   0.0245082   0.0735245   0.1051295), wk =   0.0438957
        k(   41) = (   0.0245082   0.0980327   0.0000000), wk =   0.0219479
        k(   42) = (   0.0245082   0.0980327   0.0262824), wk =   0.0438957
        k(   43) = (   0.0245082   0.0980327   0.0525648), wk =   0.0438957
        k(   44) = (   0.0245082   0.0980327   0.0788471), wk =   0.0438957
        k(   45) = (   0.0245082   0.0980327   0.1051295), wk =   0.0438957
        k(   46) = (   0.0490163   0.0490163   0.0000000), wk =   0.0109739
        k(   47) = (   0.0490163   0.0490163   0.0262824), wk =   0.0219479
        k(   48) = (   0.0490163   0.0490163   0.0525648), wk =   0.0219479
        k(   49) = (   0.0490163   0.0490163   0.0788471), wk =   0.0219479
        k(   50) = (   0.0490163   0.0490163   0.1051295), wk =   0.0219479
        k(   51) = (   0.0490163   0.0735245   0.0000000), wk =   0.0219479
        k(   52) = (   0.0490163   0.0735245   0.0262824), wk =   0.0438957
        k(   53) = (   0.0490163   0.0735245   0.0525648), wk =   0.0438957
        k(   54) = (   0.0490163   0.0735245   0.0788471), wk =   0.0438957
        k(   55) = (   0.0490163   0.0735245   0.1051295), wk =   0.0438957
        k(   56) = (   0.0490163   0.0980327   0.0000000), wk =   0.0219479
        k(   57) = (   0.0490163   0.0980327   0.0262824), wk =   0.0438957
        k(   58) = (   0.0490163   0.0980327   0.0525648), wk =   0.0438957
        k(   59) = (   0.0490163   0.0980327   0.0788471), wk =   0.0438957
        k(   60) = (   0.0490163   0.0980327   0.1051295), wk =   0.0438957
        k(   61) = (   0.0735245   0.0735245   0.0000000), wk =   0.0109739
        k(   62) = (   0.0735245   0.0735245   0.0262824), wk =   0.0219479
        k(   63) = (   0.0735245   0.0735245   0.0525648), wk =   0.0219479
        k(   64) = (   0.0735245   0.0735245   0.0788471), wk =   0.0219479
        k(   65) = (   0.0735245   0.0735245   0.1051295), wk =   0.0219479
        k(   66) = (   0.0735245   0.0980327   0.0000000), wk =   0.0219479
        k(   67) = (   0.0735245   0.0980327   0.0262824), wk =   0.0438957
        k(   68) = (   0.0735245   0.0980327   0.0525648), wk =   0.0438957
        k(   69) = (   0.0735245   0.0980327   0.0788471), wk =   0.0438957
        k(   70) = (   0.0735245   0.0980327   0.1051295), wk =   0.0438957
        k(   71) = (   0.0980327   0.0980327   0.0000000), wk =   0.0109739
        k(   72) = (   0.0980327   0.0980327   0.0262824), wk =   0.0219479
        k(   73) = (   0.0980327   0.0980327   0.0525648), wk =   0.0219479
        k(   74) = (   0.0980327   0.0980327   0.0788471), wk =   0.0219479
        k(   75) = (   0.0980327   0.0980327   0.1051295), wk =   0.0219479

     Largest allocated arrays     est. size (Mb)     dimensions
     Largest temporary arrays     est. size (Mb)     dimensions

     Initial potential from superposition of free atoms

     starting charge   29.99495, renormalised to   30.00000

     *
     * You are using vdW-DF for exchange-correlation in this calculation.
     * Please cite the following three references that made this development
     * possible:
     *
     *   M. Dion, H. Rydberg, E. Schroder, D. C. Langreth, and
     *   B. I. Lundqvist, Phys. Rev. Lett. 92, 246401 (2004).
     *
     *   T. Thonhauser, V. R. Cooper, S. Li, A. Puzder, P. Hyldgaard, and
     *   D. C. Langreth, Phys. Rev. B 76, 125112 (2007).
     *
     *   G. Roman-Perez and J. M. Soler, Phys. Rev. Lett. 103, 096102 (2009).
     *
     *
     * If you are using vdW-DF2, please also cite:
     *
     *   K. Lee, E. D. Murray, L. Kong, B. I. Lundqvist, and
     *   D. C. Langreth, Phys. Rev. B 82, 081101(R) (2010).
     *
     *
     * If you are calculating the stress with vdW-DF, please also cite:
     *
     *   R. Sabatini, E. Kucukbenli, B. Kolb, T. Thonhauser, and
     *   S. de Gironcoli, J. Phys.: Condens. Matter 24, 424209 (2012).
     *

     Carrying out vdW-DF run using the following parameters:

     Nqs =      20    Nr_points =    1024   r_max =   100.000
     q_mesh =
               0.00001000     0.04494208     0.09755937     0.15916263
               0.23128650     0.31572767     0.41458969     0.53033537
               0.66584808     0.82450364     1.01025438     1.22772762
               1.48234092     1.78043706     2.12944203     2.53805004
               3.01644009     3.57652955     4.23227104     5.00000000

     Gradients computed in reciprocal space

     Starting wfc are   26 randomized atomic wfcs +    9 random wfc

     Self-consistent Calculation

     iteration #  1     ecut=    58.80 Ry     beta=0.10
     Davidson diagonalization with overlap
     ethr =  1.00E-02,  avg # of iterations =  5.5

     Threshold (ethr) on eigenvalues was too large:
     Diagonalizing with lowered threshold

     Davidson diagonalization with overlap
     ethr =  1.74E-04,  avg # of iterations =  2.7

     total energy              =    -231.90815118 Ry
     Harris-Foulkes estimate   =    -231.91459349 Ry
     estimated scf accuracy    <       0.05248923 Ry

[...]

     total energy              =    -231.89970262 Ry
     Harris-Foulkes estimate   =    -231.89971152 Ry
     estimated scf accuracy    <       0.00002823 Ry

     iteration #  8     ecut=    58.80 Ry     beta=0.10
     Davidson diagonalization with overlap
     ethr =  4.48E-08,  avg # of iterations =  2.0

     End of self-consistent calculation

          k = 0.0000 0.0000 0.0000 (  4471 PWs)   bands (ev):

    -0.6206   0.8289   0.9690   1.1918   1.4975   1.4975   1.8502   2.0438
     2.0438   2.3086   2.7707   7.1498   7.1498   7.8012   8.0521   8.5146
     9.4770  13.2701  13.6447  13.6447  15.4757  15.4757  15.9928  16.7457
    16.9889  18.1739  18.1739  18.3242  18.7828  22.1040  22.4974  22.4974
    22.8650  23.1985  23.1985

[...]

          k = 0.0980 0.0980 0.1051 (  4465 PWs)   bands (ev):

     0.7820   0.7840   1.1621   1.2118   1.8207   1.8700   2.0297   2.0606
     2.1555   2.1775   4.8243   5.5316   5.8270   6.0314   6.4165   6.7119
     7.1554   7.7330  16.3202  16.7802  18.9354  19.0139  19.0371  19.2775
    19.7071  20.4420  20.4561  20.8064  21.4550  21.7635  21.8464  22.2861
    22.4224  22.7333  23.1990

     the Fermi energy is     9.1012 ev

!    total energy              =    -231.89971495 Ry
     Harris-Foulkes estimate   =    -231.89970942 Ry
     estimated scf accuracy    <       0.00000063 Ry

     The total energy is the sum of the following terms:

     one-electron contribution =     -43.56986615 Ry
     hartree contribution      =      47.49890126 Ry
     xc contribution           =     -89.63584244 Ry
     ewald contribution        =    -146.18917850 Ry
     smearing contrib. (-TS)   =      -0.00372912 Ry

     convergence has been achieved in   8 iterations

     Forces acting on atoms (Ry/au):

     atom    1 type  1   force =     0.00000000    0.00000000    0.00000000
     atom    2 type  1   force =     0.00000000    0.00000000    0.00000000
     atom    3 type  2   force =     0.00000000    0.00000000    0.00000000
     atom    4 type  2   force =     0.00000000    0.00000000    0.00000000

     Total force =     0.000000     Total SCF correction =     0.000000

     General routines

     Parallel routines

   This run was terminated on:  18: 3:20  13Nov2017

   JOB DONE.