     Program PWSCF v.5.1rc2 starts on 15Nov2017 at  7: 7:44

     Current dimensions of program PWSCF are:
     Max number of different atomic species (ntypx) = 10
     Max number of k-points (npk) =  40000
     Max angular momentum in pseudopotentials (lmaxx) =  3

     IMPORTANT: XC functional enforced from input :
     Exchange-correlation      = BEEF-VDW ( 1  4 27 13 2)
     Any further DFT definition will be discarded
     Please, verify this is what you really want

     Found symmetry operation: I + ( -0.5000 -0.5000  0.0000)
     This is a supercell, fractional translations are disabled

     bravais-lattice index     =            0
     lattice parameter (alat)  =       1.8897  a.u.
     unit-cell volume          =     604.1791 (a.u.)^3
     number of atoms/cell      =            4
     number of atomic types    =            2
     number of electrons       =        50.00
     number of Kohn-Sham states=           45
     kinetic-energy cutoff     =      58.7989  Ry
     charge density cutoff     =     587.9892  Ry
     convergence threshold     =      1.0E-06
     mixing beta               =       0.1000
     number of iterations used =           10  plain     mixing
     Exchange-correlation      = BEEF-VDW ( 1  4 27 13 2)

     celldm(1)=   1.889726  celldm(2)=   0.000000  celldm(3)=   0.000000
     celldm(4)=   0.000000  celldm(5)=   0.000000  celldm(6)=   0.000000

     crystal axes: (cart. coord. in units of alat)
               a(1) = (   4.483873   0.000000   0.000000 )
               a(2) = (   0.000000   4.483873   0.000000 )
               a(3) = (   0.000000   0.000000   4.453102 )

     reciprocal axes: (cart. coord. in units 2 pi/alat)
               b(1) = (  0.223022  0.000000  0.000000 )
               b(2) = (  0.000000  0.223022  0.000000 )
               b(3) = (  0.000000  0.000000  0.224563 )

     PseudoPot. # 1 for Zr read from file:
     /home/users/vossj/suncat/psp/gbrv1.5pbe/Zr.UPF
     MD5 check sum: 5db81b1e868ab7776c4564c113de050b
     Pseudo is Ultrasoft + core correction, Zval = 12.0
     Generated by new atomic code, or converted to UPF format
     Using radial grid of  887 points,  6 beta functions with:
                l(1) =   0
                l(2) =   0
                l(3) =   1
                l(4) =   1
                l(5) =   2
                l(6) =   2
     Q(r) pseudized with  6 coefficients,  rinner =    1.200   1.200   1.200
                                                       1.200   1.200

     PseudoPot. # 2 for In read from file:
     /home/users/vossj/suncat/psp/gbrv1.5pbe/In.UPF
     MD5 check sum: 90777abd96fbb83f2e67db2a40c566b9
     Pseudo is Ultrasoft + core correction, Zval = 13.0
     Generated by new atomic code, or converted to UPF format
     Using radial grid of  889 points,  6 beta functions with:
                l(1) =   0
                l(2) =   0
                l(3) =   1
                l(4) =   1
                l(5) =   2
                l(6) =   2
     Q(r) pseudized with  6 coefficients,  rinner =    1.400   1.400   1.400
                                                       1.400   1.400

     vdW kernel table read from file vdW_kernel_table
     MD5 check sum: 095c7af220d748ca6e76c0b4c6cfb241

     atomic species   valence    mass     pseudopotential
        Zr1           12.00    91.22400     Zr( 1.00)
        In1           13.00   114.82000     In( 1.00)

     16 Sym. Ops., with inversion, found

   Cartesian axes

     site n.     atom                  positions (alat units)
         1           Zr1 tau(   1) = (   0.0000000   0.0000000   0.0000000  )
         2           Zr1 tau(   2) = (   2.2419363   2.2419363   0.0000000  )
         3           In1 tau(   3) = (   2.2419363   0.0000000   2.2265508  )
         4           In1 tau(   4) = (   0.0000000   2.2419363   2.2265508  )

     number of k points=    75  Fermi-Dirac smearing, width (Ry)=  0.0073
                       cart. coord. in units 2pi/alat
        k(    1) = (   0.0000000   0.0000000   0.0000000), wk =   0.0027435
        k(    2) = (   0.0000000   0.0000000   0.0249514), wk =   0.0054870
        k(    3) = (   0.0000000   0.0000000   0.0499028), wk =   0.0054870
        k(    4) = (   0.0000000   0.0000000   0.0748542), wk =   0.0054870
        k(    5) = (   0.0000000   0.0000000   0.0998056), wk =   0.0054870
        k(    6) = (   0.0000000   0.0247802   0.0000000), wk =   0.0109739
        k(    7) = (   0.0000000   0.0247802   0.0249514), wk =   0.0219479
        k(    8) = (   0.0000000   0.0247802   0.0499028), wk =   0.0219479
        k(    9) = (   0.0000000   0.0247802   0.0748542), wk =   0.0219479
        k(   10) = (   0.0000000   0.0247802   0.0998056), wk =   0.0219479
        k(   11) = (   0.0000000   0.0495603   0.0000000), wk =   0.0109739
        k(   12) = (   0.0000000   0.0495603   0.0249514), wk =   0.0219479
        k(   13) = (   0.0000000   0.0495603   0.0499028), wk =   0.0219479
        k(   14) = (   0.0000000   0.0495603   0.0748542), wk =   0.0219479
        k(   15) = (   0.0000000   0.0495603   0.0998056), wk =   0.0219479
        k(   16) = (   0.0000000   0.0743405   0.0000000), wk =   0.0109739
        k(   17) = (   0.0000000   0.0743405   0.0249514), wk =   0.0219479
        k(   18) = (   0.0000000   0.0743405   0.0499028), wk =   0.0219479
        k(   19) = (   0.0000000   0.0743405   0.0748542), wk =   0.0219479
        k(   20) = (   0.0000000   0.0743405   0.0998056), wk =   0.0219479
        k(   21) = (   0.0000000   0.0991207   0.0000000), wk =   0.0109739
        k(   22) = (   0.0000000   0.0991207   0.0249514), wk =   0.0219479
        k(   23) = (   0.0000000   0.0991207   0.0499028), wk =   0.0219479
        k(   24) = (   0.0000000   0.0991207   0.0748542), wk =   0.0219479
        k(   25) = (   0.0000000   0.0991207   0.0998056), wk =   0.0219479
        k(   26) = (   0.0247802   0.0247802   0.0000000), wk =   0.0109739
        k(   27) = (   0.0247802   0.0247802   0.0249514), wk =   0.0219479
        k(   28) = (   0.0247802   0.0247802   0.0499028), wk =   0.0219479
        k(   29) = (   0.0247802   0.0247802   0.0748542), wk =   0.0219479
        k(   30) = (   0.0247802   0.0247802   0.0998056), wk =   0.0219479
        k(   31) = (   0.0247802   0.0495603   0.0000000), wk =   0.0219479
        k(   32) = (   0.0247802   0.0495603   0.0249514), wk =   0.0438957
        k(   33) = (   0.0247802   0.0495603   0.0499028), wk =   0.0438957
        k(   34) = (   0.0247802   0.0495603   0.0748542), wk =   0.0438957
        k(   35) = (   0.0247802   0.0495603   0.0998056), wk =   0.0438957
        k(   36) = (   0.0247802   0.0743405   0.0000000), wk =   0.0219479
        k(   37) = (   0.0247802   0.0743405   0.0249514), wk =   0.0438957
        k(   38) = (   0.0247802   0.0743405   0.0499028), wk =   0.0438957
        k(   39) = (   0.0247802   0.0743405   0.0748542), wk =   0.0438957
        k(   40) = (   0.0247802   0.0743405   0.0998056), wk =   0.0438957
        k(   41) = (   0.0247802   0.0991207   0.0000000), wk =   0.0219479
        k(   42) = (   0.0247802   0.0991207   0.0249514), wk =   0.0438957
        k(   43) = (   0.0247802   0.0991207   0.0499028), wk =   0.0438957
        k(   44) = (   0.0247802   0.0991207   0.0748542), wk =   0.0438957
        k(   45) = (   0.0247802   0.0991207   0.0998056), wk =   0.0438957
        k(   46) = (   0.0495603   0.0495603   0.0000000), wk =   0.0109739
        k(   47) = (   0.0495603   0.0495603   0.0249514), wk =   0.0219479
        k(   48) = (   0.0495603   0.0495603   0.0499028), wk =   0.0219479
        k(   49) = (   0.0495603   0.0495603   0.0748542), wk =   0.0219479
        k(   50) = (   0.0495603   0.0495603   0.0998056), wk =   0.0219479
        k(   51) = (   0.0495603   0.0743405   0.0000000), wk =   0.0219479
        k(   52) = (   0.0495603   0.0743405   0.0249514), wk =   0.0438957
        k(   53) = (   0.0495603   0.0743405   0.0499028), wk =   0.0438957
        k(   54) = (   0.0495603   0.0743405   0.0748542), wk =   0.0438957
        k(   55) = (   0.0495603   0.0743405   0.0998056), wk =   0.0438957
        k(   56) = (   0.0495603   0.0991207   0.0000000), wk =   0.0219479
        k(   57) = (   0.0495603   0.0991207   0.0249514), wk =   0.0438957
        k(   58) = (   0.0495603   0.0991207   0.0499028), wk =   0.0438957
        k(   59) = (   0.0495603   0.0991207   0.0748542), wk =   0.0438957
        k(   60) = (   0.0495603   0.0991207   0.0998056), wk =   0.0438957
        k(   61) = (   0.0743405   0.0743405   0.0000000), wk =   0.0109739
        k(   62) = (   0.0743405   0.0743405   0.0249514), wk =   0.0219479
        k(   63) = (   0.0743405   0.0743405   0.0499028), wk =   0.0219479
        k(   64) = (   0.0743405   0.0743405   0.0748542), wk =   0.0219479
        k(   65) = (   0.0743405   0.0743405   0.0998056), wk =   0.0219479
        k(   66) = (   0.0743405   0.0991207   0.0000000), wk =   0.0219479
        k(   67) = (   0.0743405   0.0991207   0.0249514), wk =   0.0438957
        k(   68) = (   0.0743405   0.0991207   0.0499028), wk =   0.0438957
        k(   69) = (   0.0743405   0.0991207   0.0748542), wk =   0.0438957
        k(   70) = (   0.0743405   0.0991207   0.0998056), wk =   0.0438957
        k(   71) = (   0.0991207   0.0991207   0.0000000), wk =   0.0109739
        k(   72) = (   0.0991207   0.0991207   0.0249514), wk =   0.0219479
        k(   73) = (   0.0991207   0.0991207   0.0499028), wk =   0.0219479
        k(   74) = (   0.0991207   0.0991207   0.0748542), wk =   0.0219479
        k(   75) = (   0.0991207   0.0991207   0.0998056), wk =   0.0219479

     Largest allocated arrays     est. size (Mb)     dimensions
     Largest temporary arrays     est. size (Mb)     dimensions

     Initial potential from superposition of free atoms
     Check: negative starting charge=   -0.122783

     starting charge   46.99570, renormalised to   50.00000

     negative rho (up, down):  1.306E-01 0.000E+00

     *
     * You are using vdW-DF for exchange-correlation in this calculation.
     * Please cite the following three references that made this development
     * possible:
     *
     *   M. Dion, H. Rydberg, E. Schroder, D. C. Langreth, and
     *   B. I. Lundqvist, Phys. Rev. Lett. 92, 246401 (2004).
     *
     *   T. Thonhauser, V. R. Cooper, S. Li, A. Puzder, P. Hyldgaard, and
     *   D. C. Langreth, Phys. Rev. B 76, 125112 (2007).
     *
     *   G. Roman-Perez and J. M. Soler, Phys. Rev. Lett. 103, 096102 (2009).
     *
     *
     * If you are using vdW-DF2, please also cite:
     *
     *   K. Lee, E. D. Murray, L. Kong, B. I. Lundqvist, and
     *   D. C. Langreth, Phys. Rev. B 82, 081101(R) (2010).
     *
     *
     * If you are calculating the stress with vdW-DF, please also cite:
     *
     *   R. Sabatini, E. Kucukbenli, B. Kolb, T. Thonhauser, and
     *   S. de Gironcoli, J. Phys.: Condens. Matter 24, 424209 (2012).
     *

     Carrying out vdW-DF run using the following parameters:

     Nqs =      20    Nr_points =    1024   r_max =   100.000
     q_mesh =
               0.00001000     0.04494208     0.09755937     0.15916263
               0.23128650     0.31572767     0.41458969     0.53033537
               0.66584808     0.82450364     1.01025438     1.22772762
               1.48234092     1.78043706     2.12944203     2.53805004
               3.01644009     3.57652955     4.23227104     5.00000000

     Gradients computed in reciprocal space

     Starting wfc are   44 randomized atomic wfcs +    1 random wfc

     Self-consistent Calculation

     iteration #  1     ecut=    58.80 Ry     beta=0.10
     Davidson diagonalization with overlap
     ethr =  1.00E-02,  avg # of iterations =  4.2

[...]

     total energy              =    -469.76299386 Ry
     Harris-Foulkes estimate   =    -470.13145122 Ry
     estimated scf accuracy    <       2.32461988 Ry

[...]

     total energy              =    -469.22684328 Ry
     Harris-Foulkes estimate   =    -469.22686655 Ry
     estimated scf accuracy    <       0.00005276 Ry

     iteration # 10     ecut=    58.80 Ry     beta=0.10
     Davidson diagonalization with overlap
     ethr =  1.06E-07,  avg # of iterations =  2.0

     negative rho (up, down):  1.238E-01 0.000E+00

     End of self-consistent calculation

          k = 0.0000 0.0000 0.0000 (  4601 PWs)   bands (ev):

   -35.8862 -35.7849 -14.0048 -13.9901 -13.9901 -13.8780 -13.5156 -13.5156
    -1.5859  -1.4897  -1.3411  -1.3338  -1.3338  -1.1431  -1.1431  -1.0908
    -1.0811  -0.8932   4.6111   9.5929  11.7066  12.2909  12.6688  12.6688
    13.1803  13.6315  13.6315  13.6524  16.0819  16.0819  16.6167  17.5195
    17.8067  18.8721  19.6912  19.6912  19.8693  21.4333  21.9188  21.9188
    23.9424  24.6137  24.9650  25.9266  27.7673

[...]

          k = 0.0991 0.0991 0.0998 (  4637 PWs)   bands (ev):

   -35.8358 -35.8328 -14.0603 -14.0467 -13.9594 -13.9553 -13.4822 -13.4673
    -1.4132  -1.3968  -1.3586  -1.3540  -1.2537  -1.2427  -1.1323  -1.1273
    -1.0350  -1.0231   7.7307   7.9037  10.6990  10.8525  11.8829  12.3217
    12.4338  12.7634  15.2820  15.2979  15.4926  15.5145  16.1655  16.1821
    17.3035  17.4189  20.2089  20.2539  22.5130  22.9956  23.9322  24.0668
    24.0870  24.1052  25.7016  25.9887  27.6181

     the Fermi energy is    13.3571 ev

!    total energy              =    -469.22687321 Ry
     Harris-Foulkes estimate   =    -469.22685207 Ry
     estimated scf accuracy    <       0.00000059 Ry

     The total energy is the sum of the following terms:

     one-electron contribution =     -98.39393782 Ry
     hartree contribution      =      83.76776367 Ry
     xc contribution           =    -115.36402678 Ry
     ewald contribution        =    -339.23002190 Ry
     smearing contrib. (-TS)   =      -0.00665038 Ry

     convergence has been achieved in  10 iterations

     Forces acting on atoms (Ry/au):

     negative rho (up, down):  1.238E-01 0.000E+00
     atom    1 type  1   force =     0.00000000    0.00000000    0.00000000
     atom    2 type  1   force =     0.00000000    0.00000000    0.00000000
     atom    3 type  2   force =     0.00000000    0.00000000    0.00000000
     atom    4 type  2   force =     0.00000000    0.00000000    0.00000000

     Total force =     0.000000     Total SCF correction =     0.000000

     General routines

     Parallel routines

   This run was terminated on:   7: 8:28  15Nov2017

   JOB DONE.