     Program PWSCF v.5.1rc2 starts on 14Nov2017 at  9:36:54

     Current dimensions of program PWSCF are:
     Max number of different atomic species (ntypx) = 10
     Max number of k-points (npk) =  40000
     Max angular momentum in pseudopotentials (lmaxx) =  3

     IMPORTANT: XC functional enforced from input :
     Exchange-correlation      = BEEF-VDW ( 1  4 27 13 2)
     Any further DFT definition will be discarded
     Please, verify this is what you really want

     Found symmetry operation: I + ( -0.5000 -0.5000  0.0000)
     This is a supercell, fractional translations are disabled

     bravais-lattice index     =            0
     lattice parameter (alat)  =       1.8897  a.u.
     unit-cell volume          =     397.7024 (a.u.)^3
     number of atoms/cell      =            4
     number of atomic types    =            2
     number of electrons       =        70.00
     number of Kohn-Sham states=           55
     kinetic-energy cutoff     =      58.7989  Ry
     charge density cutoff     =     587.9892  Ry
     convergence threshold     =      1.0E-06
     mixing beta               =       0.1000
     number of iterations used =           10  plain     mixing
     Exchange-correlation      = BEEF-VDW ( 1  4 27 13 2)

     celldm(1)=   1.889726  celldm(2)=   0.000000  celldm(3)=   0.000000
     celldm(4)=   0.000000  celldm(5)=   0.000000  celldm(6)=   0.000000

     crystal axes: (cart. coord. in units of alat)
               a(1) = (   3.719631   0.000000   0.000000 )
               a(2) = (   0.000000   3.719631   0.000000 )
               a(3) = (   0.000000   0.000000   4.259533 )

     reciprocal axes: (cart. coord. in units 2 pi/alat)
               b(1) = (  0.268844  0.000000  0.000000 )
               b(2) = (  0.000000  0.268844  0.000000 )
               b(3) = (  0.000000  0.000000  0.234768 )

     PseudoPot. # 1 for Zn read from file:
     /home/users/vossj/suncat/psp/gbrv1.5pbe/Zn.UPF
     MD5 check sum: df62231357ef9e81f77b2b3087fa5675
     Pseudo is Ultrasoft, Zval = 20.0
     Generated by new atomic code, or converted to UPF format
     Using radial grid of  943 points,  6 beta functions with:
                l(1) =   0
                l(2) =   0
                l(3) =   1
                l(4) =   1
                l(5) =   2
                l(6) =   2
     Q(r) pseudized with  8 coefficients,  rinner =    1.100   1.100   1.100
                                                       1.100   1.100

     PseudoPot. # 2 for Re read from file:
     /home/users/vossj/suncat/psp/gbrv1.5pbe/Re.UPF
     MD5 check sum: 85f993410f3e006da9d71c142b4ad953
     Pseudo is Ultrasoft + core correction, Zval = 15.0
     Generated by new atomic code, or converted to UPF format
     Using radial grid of  981 points,  8 beta functions with:
                l(1) =   0
                l(2) =   0
                l(3) =   1
                l(4) =   1
                l(5) =   2
                l(6) =   2
                l(7) =   3
                l(8) =   3
     Q(r) pseudized with  8 coefficients,  rinner =    1.150   1.150   1.150
                                                       1.150   1.150   1.150
                                                       1.150

     vdW kernel table read from file vdW_kernel_table
     MD5 check sum: 095c7af220d748ca6e76c0b4c6cfb241

     atomic species   valence    mass     pseudopotential
        Zn1           20.00    65.39000     Zn( 1.00)
        Re1           15.00   186.20700     Re( 1.00)

     16 Sym. Ops., with inversion, found

   Cartesian axes

     site n.     atom                  positions (alat units)
         1           Zn1 tau(   1) = (   0.0000000   0.0000000   0.0000000  )
         2           Zn1 tau(   2) = (   1.8598154   1.8598154   0.0000000  )
         3           Re1 tau(   3) = (   1.8598154   0.0000000   2.1297665  )
         4           Re1 tau(   4) = (   0.0000000   1.8598154   2.1297665  )

     number of k points=    75  Fermi-Dirac smearing, width (Ry)=  0.0073
                       cart. coord. in units 2pi/alat
        k(    1) = (   0.0000000   0.0000000   0.0000000), wk =   0.0027435
        k(    2) = (   0.0000000   0.0000000   0.0260853), wk =   0.0054870
        k(    3) = (   0.0000000   0.0000000   0.0521706), wk =   0.0054870
        k(    4) = (   0.0000000   0.0000000   0.0782558), wk =   0.0054870
        k(    5) = (   0.0000000   0.0000000   0.1043411), wk =   0.0054870
        k(    6) = (   0.0000000   0.0298715   0.0000000), wk =   0.0109739
        k(    7) = (   0.0000000   0.0298715   0.0260853), wk =   0.0219479
        k(    8) = (   0.0000000   0.0298715   0.0521706), wk =   0.0219479
        k(    9) = (   0.0000000   0.0298715   0.0782558), wk =   0.0219479
        k(   10) = (   0.0000000   0.0298715   0.1043411), wk =   0.0219479
        k(   11) = (   0.0000000   0.0597431   0.0000000), wk =   0.0109739
        k(   12) = (   0.0000000   0.0597431   0.0260853), wk =   0.0219479
        k(   13) = (   0.0000000   0.0597431   0.0521706), wk =   0.0219479
        k(   14) = (   0.0000000   0.0597431   0.0782558), wk =   0.0219479
        k(   15) = (   0.0000000   0.0597431   0.1043411), wk =   0.0219479
        k(   16) = (   0.0000000   0.0896146   0.0000000), wk =   0.0109739
        k(   17) = (   0.0000000   0.0896146   0.0260853), wk =   0.0219479
        k(   18) = (   0.0000000   0.0896146   0.0521706), wk =   0.0219479
        k(   19) = (   0.0000000   0.0896146   0.0782558), wk =   0.0219479
        k(   20) = (   0.0000000   0.0896146   0.1043411), wk =   0.0219479
        k(   21) = (   0.0000000   0.1194862   0.0000000), wk =   0.0109739
        k(   22) = (   0.0000000   0.1194862   0.0260853), wk =   0.0219479
        k(   23) = (   0.0000000   0.1194862   0.0521706), wk =   0.0219479
        k(   24) = (   0.0000000   0.1194862   0.0782558), wk =   0.0219479
        k(   25) = (   0.0000000   0.1194862   0.1043411), wk =   0.0219479
        k(   26) = (   0.0298715   0.0298715   0.0000000), wk =   0.0109739
        k(   27) = (   0.0298715   0.0298715   0.0260853), wk =   0.0219479
        k(   28) = (   0.0298715   0.0298715   0.0521706), wk =   0.0219479
        k(   29) = (   0.0298715   0.0298715   0.0782558), wk =   0.0219479
        k(   30) = (   0.0298715   0.0298715   0.1043411), wk =   0.0219479
        k(   31) = (   0.0298715   0.0597431   0.0000000), wk =   0.0219479
        k(   32) = (   0.0298715   0.0597431   0.0260853), wk =   0.0438957
        k(   33) = (   0.0298715   0.0597431   0.0521706), wk =   0.0438957
        k(   34) = (   0.0298715   0.0597431   0.0782558), wk =   0.0438957
        k(   35) = (   0.0298715   0.0597431   0.1043411), wk =   0.0438957
        k(   36) = (   0.0298715   0.0896146   0.0000000), wk =   0.0219479
        k(   37) = (   0.0298715   0.0896146   0.0260853), wk =   0.0438957
        k(   38) = (   0.0298715   0.0896146   0.0521706), wk =   0.0438957
        k(   39) = (   0.0298715   0.0896146   0.0782558), wk =   0.0438957
        k(   40) = (   0.0298715   0.0896146   0.1043411), wk =   0.0438957
        k(   41) = (   0.0298715   0.1194862   0.0000000), wk =   0.0219479
        k(   42) = (   0.0298715   0.1194862   0.0260853), wk =   0.0438957
        k(   43) = (   0.0298715   0.1194862   0.0521706), wk =   0.0438957
        k(   44) = (   0.0298715   0.1194862   0.0782558), wk =   0.0438957
        k(   45) = (   0.0298715   0.1194862   0.1043411), wk =   0.0438957
        k(   46) = (   0.0597431   0.0597431   0.0000000), wk =   0.0109739
        k(   47) = (   0.0597431   0.0597431   0.0260853), wk =   0.0219479
        k(   48) = (   0.0597431   0.0597431   0.0521706), wk =   0.0219479
        k(   49) = (   0.0597431   0.0597431   0.0782558), wk =   0.0219479
        k(   50) = (   0.0597431   0.0597431   0.1043411), wk =   0.0219479
        k(   51) = (   0.0597431   0.0896146   0.0000000), wk =   0.0219479
        k(   52) = (   0.0597431   0.0896146   0.0260853), wk =   0.0438957
        k(   53) = (   0.0597431   0.0896146   0.0521706), wk =   0.0438957
        k(   54) = (   0.0597431   0.0896146   0.0782558), wk =   0.0438957
        k(   55) = (   0.0597431   0.0896146   0.1043411), wk =   0.0438957
        k(   56) = (   0.0597431   0.1194862   0.0000000), wk =   0.0219479
        k(   57) = (   0.0597431   0.1194862   0.0260853), wk =   0.0438957
        k(   58) = (   0.0597431   0.1194862   0.0521706), wk =   0.0438957
        k(   59) = (   0.0597431   0.1194862   0.0782558), wk =   0.0438957
        k(   60) = (   0.0597431   0.1194862   0.1043411), wk =   0.0438957
        k(   61) = (   0.0896146   0.0896146   0.0000000), wk =   0.0109739
        k(   62) = (   0.0896146   0.0896146   0.0260853), wk =   0.0219479
        k(   63) = (   0.0896146   0.0896146   0.0521706), wk =   0.0219479
        k(   64) = (   0.0896146   0.0896146   0.0782558), wk =   0.0219479
        k(   65) = (   0.0896146   0.0896146   0.1043411), wk =   0.0219479
        k(   66) = (   0.0896146   0.1194862   0.0000000), wk =   0.0219479
        k(   67) = (   0.0896146   0.1194862   0.0260853), wk =   0.0438957
        k(   68) = (   0.0896146   0.1194862   0.0521706), wk =   0.0438957
        k(   69) = (   0.0896146   0.1194862   0.0782558), wk =   0.0438957
        k(   70) = (   0.0896146   0.1194862   0.1043411), wk =   0.0438957
        k(   71) = (   0.1194862   0.1194862   0.0000000), wk =   0.0109739
        k(   72) = (   0.1194862   0.1194862   0.0260853), wk =   0.0219479
        k(   73) = (   0.1194862   0.1194862   0.0521706), wk =   0.0219479
        k(   74) = (   0.1194862   0.1194862   0.0782558), wk =   0.0219479
        k(   75) = (   0.1194862   0.1194862   0.1043411), wk =   0.0219479

     Largest allocated arrays     est. size (Mb)     dimensions
     Largest temporary arrays     est. size (Mb)     dimensions

     Initial potential from superposition of free atoms
     Check: negative starting charge=   -0.258257

     starting charge   68.99963, renormalised to   70.00000

     negative rho (up, down):  2.620E-01 0.000E+00

     *
     * You are using vdW-DF for exchange-correlation in this calculation.
     * Please cite the following three references that made this development
     * possible:
     *
     *   M. Dion, H. Rydberg, E. Schroder, D. C. Langreth, and
     *   B. I. Lundqvist, Phys. Rev. Lett. 92, 246401 (2004).
     *
     *   T. Thonhauser, V. R. Cooper, S. Li, A. Puzder, P. Hyldgaard, and
     *   D. C. Langreth, Phys. Rev. B 76, 125112 (2007).
     *
     *   G. Roman-Perez and J. M. Soler, Phys. Rev. Lett. 103, 096102 (2009).
     *
     *
     * If you are using vdW-DF2, please also cite:
     *
     *   K. Lee, E. D. Murray, L. Kong, B. I. Lundqvist, and
     *   D. C. Langreth, Phys. Rev. B 82, 081101(R) (2010).
     *
     *
     * If you are calculating the stress with vdW-DF, please also cite:
     *
     *   R. Sabatini, E. Kucukbenli, B. Kolb, T. Thonhauser, and
     *   S. de Gironcoli, J. Phys.: Condens. Matter 24, 424209 (2012).
     *

     Carrying out vdW-DF run using the following parameters:

     Nqs =      20    Nr_points =    1024   r_max =   100.000
     q_mesh =
               0.00001000     0.04494208     0.09755937     0.15916263
               0.23128650     0.31572767     0.41458969     0.53033537
               0.66584808     0.82450364     1.01025438     1.22772762
               1.48234092     1.78043706     2.12944203     2.53805004
               3.01644009     3.57652955     4.23227104     5.00000000

     Gradients computed in reciprocal space

     Starting wfc are   52 randomized atomic wfcs +    3 random wfc

     Self-consistent Calculation

     iteration #  1     ecut=    58.80 Ry     beta=0.10
     Davidson diagonalization with overlap
     ethr =  1.00E-02,  avg # of iterations =  4.3

[...]

     total energy              =   -1308.66874138 Ry
     Harris-Foulkes estimate   =   -1310.92487497 Ry
     estimated scf accuracy    <      12.35453936 Ry

[...]

     total energy              =   -1309.86476439 Ry
     Harris-Foulkes estimate   =   -1309.86476171 Ry
     estimated scf accuracy    <       0.00000344 Ry

     iteration # 12     ecut=    58.80 Ry     beta=0.10
     Davidson diagonalization with overlap
     ethr =  4.92E-09,  avg # of iterations =  1.6

     negative rho (up, down):  2.709E-01 0.000E+00

     End of self-consistent calculation

          k = 0.0000 0.0000 0.0000 (  3019 PWs)   bands (ev):

  -107.4738-107.4706 -61.6769 -61.6769 -61.6560 -61.6560 -61.6488 -61.6239
   -61.6202 -61.5162 -23.7498 -23.7498 -23.3153 -23.1063 -22.9194 -22.9194
     8.6918  10.7533  10.8594  10.8629  11.0691  11.0691  11.1939  11.7950
    11.7950  12.0321  12.3218  13.9239  14.4328  14.5476  17.1275  17.1275
    18.0430  18.8488  20.1183  20.1183  20.4667  20.4667  22.2338  24.5593
    24.8749  25.4527  25.7965  28.9315  29.9377  29.9377  30.6102  30.6102
    31.7836  34.8460  35.6121  37.2314  37.4325  37.7158  37.7158

[...]

          k = 0.1195 0.1195 0.1043 (  3009 PWs)   bands (ev):

  -107.4723-107.4722 -61.6788 -61.6782 -61.6550 -61.6544 -61.6225 -61.6220
   -61.5834 -61.5798 -23.8665 -23.8429 -23.2145 -23.2081 -22.8643 -22.8378
    10.8597  10.8703  10.8973  10.9344  11.4828  11.4881  11.6413  11.6790
    11.8447  11.8612  13.7725  13.9660  14.7413  14.9938  16.6544  16.7253
    17.5459  17.8928  19.1266  19.1502  19.1954  19.6195  20.8669  20.8758
    22.9838  23.1698  26.8360  26.8525  31.4916  31.5024  33.6922  34.1059
    34.7125  35.7070  36.1599  36.5242  37.5965  38.3381  38.6294

     the Fermi energy is    19.1693 ev

!    total energy              =   -1309.86476805 Ry
     Harris-Foulkes estimate   =   -1309.86476501 Ry
     estimated scf accuracy    <       0.00000013 Ry

     The total energy is the sum of the following terms:

     one-electron contribution =    -767.24617188 Ry
     hartree contribution      =     422.60076423 Ry
     xc contribution           =    -195.30505791 Ry
     ewald contribution        =    -769.90532889 Ry
     smearing contrib. (-TS)   =      -0.00897360 Ry

     convergence has been achieved in  12 iterations

     Forces acting on atoms (Ry/au):

     negative rho (up, down):  2.709E-01 0.000E+00
     atom    1 type  1   force =     0.00000000    0.00000000    0.00000000
     atom    2 type  1   force =     0.00000000    0.00000000    0.00000000
     atom    3 type  2   force =     0.00000000    0.00000000    0.00000000
     atom    4 type  2   force =     0.00000000    0.00000000    0.00000000

     Total force =     0.000000     Total SCF correction =     0.000000

     General routines

     Parallel routines

   This run was terminated on:   9:37:38  14Nov2017

   JOB DONE.