     Program PWSCF v.5.1rc2 starts on 14Nov2017 at 15:48:19

     Current dimensions of program PWSCF are:
     Max number of different atomic species (ntypx) = 10
     Max number of k-points (npk) =  40000
     Max angular momentum in pseudopotentials (lmaxx) =  3

     IMPORTANT: XC functional enforced from input :
     Exchange-correlation      = BEEF-VDW ( 1  4 27 13 2)
     Any further DFT definition will be discarded
     Please, verify this is what you really want

     Found symmetry operation: I + ( -0.5000 -0.5000  0.0000)
     This is a supercell, fractional translations are disabled

     bravais-lattice index     =            0
     lattice parameter (alat)  =       1.8897  a.u.
     unit-cell volume          =     502.5545 (a.u.)^3
     number of atoms/cell      =            4
     number of atomic types    =            2
     number of electrons       =        54.00
     number of Kohn-Sham states=           47
     kinetic-energy cutoff     =      58.7989  Ry
     charge density cutoff     =     587.9892  Ry
     convergence threshold     =      1.0E-06
     mixing beta               =       0.1000
     number of iterations used =           10  plain     mixing
     Exchange-correlation      = BEEF-VDW ( 1  4 27 13 2)

     celldm(1)=   1.889726  celldm(2)=   0.000000  celldm(3)=   0.000000
     celldm(4)=   0.000000  celldm(5)=   0.000000  celldm(6)=   0.000000

     crystal axes: (cart. coord. in units of alat)
               a(1) = (   4.084467   0.000000   0.000000 )
               a(2) = (   0.000000   4.084467   0.000000 )
               a(3) = (   0.000000   0.000000   4.463914 )

     reciprocal axes: (cart. coord. in units 2 pi/alat)
               b(1) = (  0.244830  0.000000  0.000000 )
               b(2) = (  0.000000  0.244830  0.000000 )
               b(3) = (  0.000000  0.000000  0.224019 )

     PseudoPot. # 1 for Mo read from file:
     /home/users/vossj/suncat/psp/gbrv1.5pbe/Mo.UPF
     MD5 check sum: 30c4dcd161f5d35cd49bb5239c51a633
     Pseudo is Ultrasoft + core correction, Zval = 14.0
     Generated by new atomic code, or converted to UPF format
     Using radial grid of  889 points,  6 beta functions with:
                l(1) =   0
                l(2) =   0
                l(3) =   1
                l(4) =   1
                l(5) =   2
                l(6) =   2
     Q(r) pseudized with  6 coefficients,  rinner =    1.000   1.000   1.000
                                                       1.000   1.000

     PseudoPot. # 2 for In read from file:
     /home/users/vossj/suncat/psp/gbrv1.5pbe/In.UPF
     MD5 check sum: 90777abd96fbb83f2e67db2a40c566b9
     Pseudo is Ultrasoft + core correction, Zval = 13.0
     Generated by new atomic code, or converted to UPF format
     Using radial grid of  889 points,  6 beta functions with:
                l(1) =   0
                l(2) =   0
                l(3) =   1
                l(4) =   1
                l(5) =   2
                l(6) =   2
     Q(r) pseudized with  6 coefficients,  rinner =    1.400   1.400   1.400
                                                       1.400   1.400

     vdW kernel table read from file vdW_kernel_table
     MD5 check sum: 095c7af220d748ca6e76c0b4c6cfb241

     atomic species   valence    mass     pseudopotential
        Mo1           14.00    95.94000     Mo( 1.00)
        In1           13.00   114.82000     In( 1.00)

     16 Sym. Ops., with inversion, found

   Cartesian axes

     site n.     atom                  positions (alat units)
         1           Mo1 tau(   1) = (   0.0000000   0.0000000   0.0000000  )
         2           Mo1 tau(   2) = (   2.0422335   2.0422335   0.0000000  )
         3           In1 tau(   3) = (   2.0422335   0.0000000   2.2319570  )
         4           In1 tau(   4) = (   0.0000000   2.0422335   2.2319570  )

     number of k points=    75  Fermi-Dirac smearing, width (Ry)=  0.0073
                       cart. coord. in units 2pi/alat
        k(    1) = (   0.0000000   0.0000000   0.0000000), wk =   0.0027435
        k(    2) = (   0.0000000   0.0000000   0.0248910), wk =   0.0054870
        k(    3) = (   0.0000000   0.0000000   0.0497819), wk =   0.0054870
        k(    4) = (   0.0000000   0.0000000   0.0746729), wk =   0.0054870
        k(    5) = (   0.0000000   0.0000000   0.0995638), wk =   0.0054870
        k(    6) = (   0.0000000   0.0272033   0.0000000), wk =   0.0109739
        k(    7) = (   0.0000000   0.0272033   0.0248910), wk =   0.0219479
        k(    8) = (   0.0000000   0.0272033   0.0497819), wk =   0.0219479
        k(    9) = (   0.0000000   0.0272033   0.0746729), wk =   0.0219479
        k(   10) = (   0.0000000   0.0272033   0.0995638), wk =   0.0219479
        k(   11) = (   0.0000000   0.0544067   0.0000000), wk =   0.0109739
        k(   12) = (   0.0000000   0.0544067   0.0248910), wk =   0.0219479
        k(   13) = (   0.0000000   0.0544067   0.0497819), wk =   0.0219479
        k(   14) = (   0.0000000   0.0544067   0.0746729), wk =   0.0219479
        k(   15) = (   0.0000000   0.0544067   0.0995638), wk =   0.0219479
        k(   16) = (   0.0000000   0.0816100   0.0000000), wk =   0.0109739
        k(   17) = (   0.0000000   0.0816100   0.0248910), wk =   0.0219479
        k(   18) = (   0.0000000   0.0816100   0.0497819), wk =   0.0219479
        k(   19) = (   0.0000000   0.0816100   0.0746729), wk =   0.0219479
        k(   20) = (   0.0000000   0.0816100   0.0995638), wk =   0.0219479
        k(   21) = (   0.0000000   0.1088133   0.0000000), wk =   0.0109739
        k(   22) = (   0.0000000   0.1088133   0.0248910), wk =   0.0219479
        k(   23) = (   0.0000000   0.1088133   0.0497819), wk =   0.0219479
        k(   24) = (   0.0000000   0.1088133   0.0746729), wk =   0.0219479
        k(   25) = (   0.0000000   0.1088133   0.0995638), wk =   0.0219479
        k(   26) = (   0.0272033   0.0272033   0.0000000), wk =   0.0109739
        k(   27) = (   0.0272033   0.0272033   0.0248910), wk =   0.0219479
        k(   28) = (   0.0272033   0.0272033   0.0497819), wk =   0.0219479
        k(   29) = (   0.0272033   0.0272033   0.0746729), wk =   0.0219479
        k(   30) = (   0.0272033   0.0272033   0.0995638), wk =   0.0219479
        k(   31) = (   0.0272033   0.0544067   0.0000000), wk =   0.0219479
        k(   32) = (   0.0272033   0.0544067   0.0248910), wk =   0.0438957
        k(   33) = (   0.0272033   0.0544067   0.0497819), wk =   0.0438957
        k(   34) = (   0.0272033   0.0544067   0.0746729), wk =   0.0438957
        k(   35) = (   0.0272033   0.0544067   0.0995638), wk =   0.0438957
        k(   36) = (   0.0272033   0.0816100   0.0000000), wk =   0.0219479
        k(   37) = (   0.0272033   0.0816100   0.0248910), wk =   0.0438957
        k(   38) = (   0.0272033   0.0816100   0.0497819), wk =   0.0438957
        k(   39) = (   0.0272033   0.0816100   0.0746729), wk =   0.0438957
        k(   40) = (   0.0272033   0.0816100   0.0995638), wk =   0.0438957
        k(   41) = (   0.0272033   0.1088133   0.0000000), wk =   0.0219479
        k(   42) = (   0.0272033   0.1088133   0.0248910), wk =   0.0438957
        k(   43) = (   0.0272033   0.1088133   0.0497819), wk =   0.0438957
        k(   44) = (   0.0272033   0.1088133   0.0746729), wk =   0.0438957
        k(   45) = (   0.0272033   0.1088133   0.0995638), wk =   0.0438957
        k(   46) = (   0.0544067   0.0544067   0.0000000), wk =   0.0109739
        k(   47) = (   0.0544067   0.0544067   0.0248910), wk =   0.0219479
        k(   48) = (   0.0544067   0.0544067   0.0497819), wk =   0.0219479
        k(   49) = (   0.0544067   0.0544067   0.0746729), wk =   0.0219479
        k(   50) = (   0.0544067   0.0544067   0.0995638), wk =   0.0219479
        k(   51) = (   0.0544067   0.0816100   0.0000000), wk =   0.0219479
        k(   52) = (   0.0544067   0.0816100   0.0248910), wk =   0.0438957
        k(   53) = (   0.0544067   0.0816100   0.0497819), wk =   0.0438957
        k(   54) = (   0.0544067   0.0816100   0.0746729), wk =   0.0438957
        k(   55) = (   0.0544067   0.0816100   0.0995638), wk =   0.0438957
        k(   56) = (   0.0544067   0.1088133   0.0000000), wk =   0.0219479
        k(   57) = (   0.0544067   0.1088133   0.0248910), wk =   0.0438957
        k(   58) = (   0.0544067   0.1088133   0.0497819), wk =   0.0438957
        k(   59) = (   0.0544067   0.1088133   0.0746729), wk =   0.0438957
        k(   60) = (   0.0544067   0.1088133   0.0995638), wk =   0.0438957
        k(   61) = (   0.0816100   0.0816100   0.0000000), wk =   0.0109739
        k(   62) = (   0.0816100   0.0816100   0.0248910), wk =   0.0219479
        k(   63) = (   0.0816100   0.0816100   0.0497819), wk =   0.0219479
        k(   64) = (   0.0816100   0.0816100   0.0746729), wk =   0.0219479
        k(   65) = (   0.0816100   0.0816100   0.0995638), wk =   0.0219479
        k(   66) = (   0.0816100   0.1088133   0.0000000), wk =   0.0219479
        k(   67) = (   0.0816100   0.1088133   0.0248910), wk =   0.0438957
        k(   68) = (   0.0816100   0.1088133   0.0497819), wk =   0.0438957
        k(   69) = (   0.0816100   0.1088133   0.0746729), wk =   0.0438957
        k(   70) = (   0.0816100   0.1088133   0.0995638), wk =   0.0438957
        k(   71) = (   0.1088133   0.1088133   0.0000000), wk =   0.0109739
        k(   72) = (   0.1088133   0.1088133   0.0248910), wk =   0.0219479
        k(   73) = (   0.1088133   0.1088133   0.0497819), wk =   0.0219479
        k(   74) = (   0.1088133   0.1088133   0.0746729), wk =   0.0219479
        k(   75) = (   0.1088133   0.1088133   0.0995638), wk =   0.0219479

     Largest allocated arrays     est. size (Mb)     dimensions
     Largest temporary arrays     est. size (Mb)     dimensions

     Initial potential from superposition of free atoms

     starting charge   50.99787, renormalised to   54.00000

     *
     * You are using vdW-DF for exchange-correlation in this calculation.
     * Please cite the following three references that made this development
     * possible:
     *
     *   M. Dion, H. Rydberg, E. Schroder, D. C. Langreth, and
     *   B. I. Lundqvist, Phys. Rev. Lett. 92, 246401 (2004).
     *
     *   T. Thonhauser, V. R. Cooper, S. Li, A. Puzder, P. Hyldgaard, and
     *   D. C. Langreth, Phys. Rev. B 76, 125112 (2007).
     *
     *   G. Roman-Perez and J. M. Soler, Phys. Rev. Lett. 103, 096102 (2009).
     *
     *
     * If you are using vdW-DF2, please also cite:
     *
     *   K. Lee, E. D. Murray, L. Kong, B. I. Lundqvist, and
     *   D. C. Langreth, Phys. Rev. B 82, 081101(R) (2010).
     *
     *
     * If you are calculating the stress with vdW-DF, please also cite:
     *
     *   R. Sabatini, E. Kucukbenli, B. Kolb, T. Thonhauser, and
     *   S. de Gironcoli, J. Phys.: Condens. Matter 24, 424209 (2012).
     *

     Carrying out vdW-DF run using the following parameters:

     Nqs =      20    Nr_points =    1024   r_max =   100.000
     q_mesh =
               0.00001000     0.04494208     0.09755937     0.15916263
               0.23128650     0.31572767     0.41458969     0.53033537
               0.66584808     0.82450364     1.01025438     1.22772762
               1.48234092     1.78043706     2.12944203     2.53805004
               3.01644009     3.57652955     4.23227104     5.00000000

     Gradients computed in reciprocal space

     Starting wfc are   44 randomized atomic wfcs +    3 random wfc

     Self-consistent Calculation

     iteration #  1     ecut=    58.80 Ry     beta=0.10
     Davidson diagonalization with overlap
     ethr =  1.00E-02,  avg # of iterations =  4.6

     total energy              =    -549.96650563 Ry
     Harris-Foulkes estimate   =    -550.37300110 Ry
     estimated scf accuracy    <       2.62642738 Ry

[...]

     total energy              =    -549.44707850 Ry
     Harris-Foulkes estimate   =    -549.44710743 Ry
     estimated scf accuracy    <       0.00007369 Ry

     iteration # 10     ecut=    58.80 Ry     beta=0.10
     Davidson diagonalization with overlap
     ethr =  9.69E-08,  avg # of iterations =  2.0

     End of self-consistent calculation

          k = 0.0000 0.0000 0.0000 (  3857 PWs)   bands (ev):

   -44.9510 -44.8382 -19.1788 -19.1788 -18.9933 -18.8677 -18.6921 -18.6921
     0.6405   0.8525   1.0735   1.1737   1.1737   1.5541   1.5541   1.6038
     1.6666   1.9781   6.3377  12.0068  13.1787  13.4871  14.9309  14.9832
    14.9832  15.6415  15.6415  15.8595  17.3685  17.3685  18.6172  19.7551
    20.0164  21.3453  21.5190  23.8255  24.4856  24.4856  25.1457  25.1457
    26.1683  28.7602  29.7936  30.9010  31.3669  31.3669  31.3851

[...]

          k = 0.1088 0.1088 0.0996 (  3814 PWs)   bands (ev):

   -44.8955 -44.8921 -19.2474 -19.2333 -18.9353 -18.9314 -18.6598 -18.6446
     0.9392   0.9707   1.1077   1.1171   1.3458   1.3700   1.5823   1.5935
     1.6554   1.6783  10.1825  10.4591  12.8277  13.0226  13.7671  13.9942
    14.7660  14.8988  16.4764  16.4847  16.7296  16.8580  17.5829  17.5837
    18.7290  18.8488  22.3850  22.4738  27.0939  27.1197  28.0809  28.2088
    28.3857  28.9636  30.5780  30.5886  30.6820  31.1520  31.5733

     the Fermi energy is    16.4214 ev

!    total energy              =    -549.44709998 Ry
     Harris-Foulkes estimate   =    -549.44709115 Ry
     estimated scf accuracy    <       0.00000058 Ry

     The total energy is the sum of the following terms:

     one-electron contribution =    -103.18624568 Ry
     hartree contribution      =      92.94543047 Ry
     xc contribution           =    -118.62077522 Ry
     ewald contribution        =    -420.57442813 Ry
     smearing contrib. (-TS)   =      -0.01108142 Ry

     convergence has been achieved in  10 iterations

     Forces acting on atoms (Ry/au):

     atom    1 type  1   force =     0.00000000    0.00000000    0.00000000
     atom    2 type  1   force =     0.00000000    0.00000000    0.00000000
     atom    3 type  2   force =     0.00000000    0.00000000    0.00000000
     atom    4 type  2   force =     0.00000000    0.00000000    0.00000000

     Total force =     0.000000     Total SCF correction =     0.000000

     General routines

     Parallel routines

   This run was terminated on:  15:48:58  14Nov2017

   JOB DONE.