     Program PWSCF v.5.1rc2 starts on 15Nov2017 at  1:13:52

     Current dimensions of program PWSCF are:
     Max number of different atomic species (ntypx) = 10
     Max number of k-points (npk) =  40000
     Max angular momentum in pseudopotentials (lmaxx) =  3

     IMPORTANT: XC functional enforced from input :
     Exchange-correlation      = BEEF-VDW ( 1  4 27 13 2)
     Any further DFT definition will be discarded
     Please, verify this is what you really want

     Found symmetry operation: I + ( -0.5000 -0.5000  0.0000)
     This is a supercell, fractional translations are disabled

     bravais-lattice index     =            0
     lattice parameter (alat)  =       1.8897  a.u.
     unit-cell volume          =     499.9366 (a.u.)^3
     number of atoms/cell      =            4
     number of atomic types    =            2
     number of electrons       =        58.00
     number of Kohn-Sham states=           49
     kinetic-energy cutoff     =      58.7989  Ry
     charge density cutoff     =     587.9892  Ry
     convergence threshold     =      1.0E-06
     mixing beta               =       0.1000
     number of iterations used =           10  plain     mixing
     Exchange-correlation      = BEEF-VDW ( 1  4 27 13 2)

     celldm(1)=   1.889726  celldm(2)=   0.000000  celldm(3)=   0.000000
     celldm(4)=   0.000000  celldm(5)=   0.000000  celldm(6)=   0.000000

     crystal axes: (cart. coord. in units of alat)
               a(1) = (   4.711182   0.000000   0.000000 )
               a(2) = (   0.000000   4.711182   0.000000 )
               a(3) = (   0.000000   0.000000   3.337786 )

     reciprocal axes: (cart. coord. in units 2 pi/alat)
               b(1) = (  0.212261  0.000000  0.000000 )
               b(2) = (  0.000000  0.212261  0.000000 )
               b(3) = (  0.000000  0.000000  0.299600 )

     PseudoPot. # 1 for Os read from file:
     /home/users/vossj/suncat/psp/gbrv1.5pbe/Os.UPF
     MD5 check sum: a3fb40a04f0c37c25c34bbc47164c9a8
     Pseudo is Ultrasoft + core correction, Zval = 16.0
     Generated by new atomic code, or converted to UPF format
     Using radial grid of  983 points,  8 beta functions with:
                l(1) =   0
                l(2) =   0
                l(3) =   1
                l(4) =   1
                l(5) =   2
                l(6) =   2
                l(7) =   3
                l(8) =   3
     Q(r) pseudized with  8 coefficients,  rinner =    1.150   1.150   1.150
                                                       1.150   1.150   1.150
                                                       1.150

     PseudoPot. # 2 for Tl read from file:
     /home/users/vossj/suncat/psp/gbrv1.5pbe/Tl.UPF
     MD5 check sum: b76cf1f7e72655a2b2c53cf6385d7059
     Pseudo is Ultrasoft + core correction, Zval = 13.0
     Generated by new atomic code, or converted to UPF format
     Using radial grid of  899 points,  6 beta functions with:
                l(1) =   0
                l(2) =   0
                l(3) =   1
                l(4) =   1
                l(5) =   2
                l(6) =   2
     Q(r) pseudized with  6 coefficients,  rinner =    1.100   1.100   1.100
                                                       1.100   1.100

     vdW kernel table read from file vdW_kernel_table
     MD5 check sum: 095c7af220d748ca6e76c0b4c6cfb241

     atomic species   valence    mass     pseudopotential
        Os1           16.00   190.20000     Os( 1.00)
        Tl1           13.00   204.38300     Tl( 1.00)

     16 Sym. Ops., with inversion, found

   Cartesian axes

     site n.     atom                  positions (alat units)
         1           Os1 tau(   1) = (   0.0000000   0.0000000   0.0000000  )
         2           Os1 tau(   2) = (   2.3555911   2.3555911   0.0000000  )
         3           Tl1 tau(   3) = (   2.3555911   0.0000000   1.6688932  )
         4           Tl1 tau(   4) = (   0.0000000   2.3555911   1.6688932  )

     number of k points=    75  Fermi-Dirac smearing, width (Ry)=  0.0073
                       cart. coord. in units 2pi/alat
        k(    1) = (   0.0000000   0.0000000   0.0000000), wk =   0.0027435
        k(    2) = (   0.0000000   0.0000000   0.0332889), wk =   0.0054870
        k(    3) = (   0.0000000   0.0000000   0.0665777), wk =   0.0054870
        k(    4) = (   0.0000000   0.0000000   0.0998666), wk =   0.0054870
        k(    5) = (   0.0000000   0.0000000   0.1331554), wk =   0.0054870
        k(    6) = (   0.0000000   0.0235845   0.0000000), wk =   0.0109739
        k(    7) = (   0.0000000   0.0235845   0.0332889), wk =   0.0219479
        k(    8) = (   0.0000000   0.0235845   0.0665777), wk =   0.0219479
        k(    9) = (   0.0000000   0.0235845   0.0998666), wk =   0.0219479
        k(   10) = (   0.0000000   0.0235845   0.1331554), wk =   0.0219479
        k(   11) = (   0.0000000   0.0471691   0.0000000), wk =   0.0109739
        k(   12) = (   0.0000000   0.0471691   0.0332889), wk =   0.0219479
        k(   13) = (   0.0000000   0.0471691   0.0665777), wk =   0.0219479
        k(   14) = (   0.0000000   0.0471691   0.0998666), wk =   0.0219479
        k(   15) = (   0.0000000   0.0471691   0.1331554), wk =   0.0219479
        k(   16) = (   0.0000000   0.0707536   0.0000000), wk =   0.0109739
        k(   17) = (   0.0000000   0.0707536   0.0332889), wk =   0.0219479
        k(   18) = (   0.0000000   0.0707536   0.0665777), wk =   0.0219479
        k(   19) = (   0.0000000   0.0707536   0.0998666), wk =   0.0219479
        k(   20) = (   0.0000000   0.0707536   0.1331554), wk =   0.0219479
        k(   21) = (   0.0000000   0.0943382   0.0000000), wk =   0.0109739
        k(   22) = (   0.0000000   0.0943382   0.0332889), wk =   0.0219479
        k(   23) = (   0.0000000   0.0943382   0.0665777), wk =   0.0219479
        k(   24) = (   0.0000000   0.0943382   0.0998666), wk =   0.0219479
        k(   25) = (   0.0000000   0.0943382   0.1331554), wk =   0.0219479
        k(   26) = (   0.0235845   0.0235845   0.0000000), wk =   0.0109739
        k(   27) = (   0.0235845   0.0235845   0.0332889), wk =   0.0219479
        k(   28) = (   0.0235845   0.0235845   0.0665777), wk =   0.0219479
        k(   29) = (   0.0235845   0.0235845   0.0998666), wk =   0.0219479
        k(   30) = (   0.0235845   0.0235845   0.1331554), wk =   0.0219479
        k(   31) = (   0.0235845   0.0471691   0.0000000), wk =   0.0219479
        k(   32) = (   0.0235845   0.0471691   0.0332889), wk =   0.0438957
        k(   33) = (   0.0235845   0.0471691   0.0665777), wk =   0.0438957
        k(   34) = (   0.0235845   0.0471691   0.0998666), wk =   0.0438957
        k(   35) = (   0.0235845   0.0471691   0.1331554), wk =   0.0438957
        k(   36) = (   0.0235845   0.0707536   0.0000000), wk =   0.0219479
        k(   37) = (   0.0235845   0.0707536   0.0332889), wk =   0.0438957
        k(   38) = (   0.0235845   0.0707536   0.0665777), wk =   0.0438957
        k(   39) = (   0.0235845   0.0707536   0.0998666), wk =   0.0438957
        k(   40) = (   0.0235845   0.0707536   0.1331554), wk =   0.0438957
        k(   41) = (   0.0235845   0.0943382   0.0000000), wk =   0.0219479
        k(   42) = (   0.0235845   0.0943382   0.0332889), wk =   0.0438957
        k(   43) = (   0.0235845   0.0943382   0.0665777), wk =   0.0438957
        k(   44) = (   0.0235845   0.0943382   0.0998666), wk =   0.0438957
        k(   45) = (   0.0235845   0.0943382   0.1331554), wk =   0.0438957
        k(   46) = (   0.0471691   0.0471691   0.0000000), wk =   0.0109739
        k(   47) = (   0.0471691   0.0471691   0.0332889), wk =   0.0219479
        k(   48) = (   0.0471691   0.0471691   0.0665777), wk =   0.0219479
        k(   49) = (   0.0471691   0.0471691   0.0998666), wk =   0.0219479
        k(   50) = (   0.0471691   0.0471691   0.1331554), wk =   0.0219479
        k(   51) = (   0.0471691   0.0707536   0.0000000), wk =   0.0219479
        k(   52) = (   0.0471691   0.0707536   0.0332889), wk =   0.0438957
        k(   53) = (   0.0471691   0.0707536   0.0665777), wk =   0.0438957
        k(   54) = (   0.0471691   0.0707536   0.0998666), wk =   0.0438957
        k(   55) = (   0.0471691   0.0707536   0.1331554), wk =   0.0438957
        k(   56) = (   0.0471691   0.0943382   0.0000000), wk =   0.0219479
        k(   57) = (   0.0471691   0.0943382   0.0332889), wk =   0.0438957
        k(   58) = (   0.0471691   0.0943382   0.0665777), wk =   0.0438957
        k(   59) = (   0.0471691   0.0943382   0.0998666), wk =   0.0438957
        k(   60) = (   0.0471691   0.0943382   0.1331554), wk =   0.0438957
        k(   61) = (   0.0707536   0.0707536   0.0000000), wk =   0.0109739
        k(   62) = (   0.0707536   0.0707536   0.0332889), wk =   0.0219479
        k(   63) = (   0.0707536   0.0707536   0.0665777), wk =   0.0219479
        k(   64) = (   0.0707536   0.0707536   0.0998666), wk =   0.0219479
        k(   65) = (   0.0707536   0.0707536   0.1331554), wk =   0.0219479
        k(   66) = (   0.0707536   0.0943382   0.0000000), wk =   0.0219479
        k(   67) = (   0.0707536   0.0943382   0.0332889), wk =   0.0438957
        k(   68) = (   0.0707536   0.0943382   0.0665777), wk =   0.0438957
        k(   69) = (   0.0707536   0.0943382   0.0998666), wk =   0.0438957
        k(   70) = (   0.0707536   0.0943382   0.1331554), wk =   0.0438957
        k(   71) = (   0.0943382   0.0943382   0.0000000), wk =   0.0109739
        k(   72) = (   0.0943382   0.0943382   0.0332889), wk =   0.0219479
        k(   73) = (   0.0943382   0.0943382   0.0665777), wk =   0.0219479
        k(   74) = (   0.0943382   0.0943382   0.0998666), wk =   0.0219479
        k(   75) = (   0.0943382   0.0943382   0.1331554), wk =   0.0219479

     Largest allocated arrays     est. size (Mb)     dimensions
     Largest temporary arrays     est. size (Mb)     dimensions

     Initial potential from superposition of free atoms
     Check: negative starting charge=   -0.345909

     starting charge   56.99020, renormalised to   58.00000

     negative rho (up, down):  3.520E-01 0.000E+00

     *
     * You are using vdW-DF for exchange-correlation in this calculation.
     * Please cite the following three references that made this development
     * possible:
     *
     *   M. Dion, H. Rydberg, E. Schroder, D. C. Langreth, and
     *   B. I. Lundqvist, Phys. Rev. Lett. 92, 246401 (2004).
     *
     *   T. Thonhauser, V. R. Cooper, S. Li, A. Puzder, P. Hyldgaard, and
     *   D. C. Langreth, Phys. Rev. B 76, 125112 (2007).
     *
     *   G. Roman-Perez and J. M. Soler, Phys. Rev. Lett. 103, 096102 (2009).
     *
     *
     * If you are using vdW-DF2, please also cite:
     *
     *   K. Lee, E. D. Murray, L. Kong, B. I. Lundqvist, and
     *   D. C. Langreth, Phys. Rev. B 82, 081101(R) (2010).
     *
     *
     * If you are calculating the stress with vdW-DF, please also cite:
     *
     *   R. Sabatini, E. Kucukbenli, B. Kolb, T. Thonhauser, and
     *   S. de Gironcoli, J. Phys.: Condens. Matter 24, 424209 (2012).
     *

     Carrying out vdW-DF run using the following parameters:

     Nqs =      20    Nr_points =    1024   r_max =   100.000
     q_mesh =
               0.00001000     0.04494208     0.09755937     0.15916263
               0.23128650     0.31572767     0.41458969     0.53033537
               0.66584808     0.82450364     1.01025438     1.22772762
               1.48234092     1.78043706     2.12944203     2.53805004
               3.01644009     3.57652955     4.23227104     5.00000000

     Gradients computed in reciprocal space

     Starting wfc are   44 randomized atomic wfcs +    5 random wfc

     Self-consistent Calculation

     iteration #  1     ecut=    58.80 Ry     beta=0.10
     Davidson diagonalization with overlap
     ethr =  1.00E-02,  avg # of iterations =  4.8

     Threshold (ethr) on eigenvalues was too large:
     Diagonalizing with lowered threshold

     Davidson diagonalization with overlap
     ethr =  6.58E-04,  avg # of iterations =  1.3

[...]

     total energy              =    -692.96299581 Ry
     Harris-Foulkes estimate   =    -693.02533079 Ry
     estimated scf accuracy    <       0.37759355 Ry

[...]

     iteration #  5     ecut=    58.80 Ry     beta=0.10
     Davidson diagonalization with overlap
     c_bands:  1 eigenvalues not converged
     ethr =  5.68E-06,  avg # of iterations =  4.0

[...]

     total energy              =    -692.91260819 Ry
     Harris-Foulkes estimate   =    -692.91251857 Ry
     estimated scf accuracy    <       0.00000199 Ry

     iteration # 10     ecut=    58.80 Ry     beta=0.10
     Davidson diagonalization with overlap
     ethr =  3.42E-09,  avg # of iterations =  1.9

     negative rho (up, down):  3.396E-01 0.000E+00

     End of self-consistent calculation

          k = 0.0000 0.0000 0.0000 (  3859 PWs)   bands (ev):

   -67.7376 -67.7345 -27.1048 -27.1048 -27.0503 -27.0503 -27.0438 -27.0342
     5.8217   5.8436   5.8467   6.1068   6.2719   6.2719   6.5535   6.5535
     6.5575   6.9417   7.0701  11.5721  15.6044  15.6176  15.8428  16.0748
    16.0748  17.5262  17.5262  18.0854  18.0854  18.0861  18.8706  20.9672
    21.1662  22.3809  22.4338  22.4338  25.1336  27.4837  28.7353  28.7353
    31.5696  31.5912  32.0313  32.7430  32.7783  32.7783  34.7810  37.7756
    37.7756

[...]

          k = 0.0943 0.0943 0.1332 (  3831 PWs)   bands (ev):

   -67.7346 -67.7345 -27.1050 -27.1033 -27.0954 -27.0950 -27.0429 -27.0412
     5.8442   5.8504   6.1018   6.1267   6.2741   6.2813   6.2853   6.2953
     6.9000   6.9196  11.4676  11.5493  15.2116  15.3817  15.9120  16.0448
    16.2112  16.3727  17.4534  17.5445  17.7141  17.7191  18.9298  18.9667
    20.9818  21.0059  21.3123  21.6450  27.3837  27.6266  28.7572  28.8189
    28.8509  28.9125  31.7108  31.9279  34.8976  35.1246  37.6363  37.7526
    37.7617

     the Fermi energy is    17.8997 ev

!    total energy              =    -692.91299152 Ry
     Harris-Foulkes estimate   =    -692.91260841 Ry
     estimated scf accuracy    <       0.00000038 Ry

     The total energy is the sum of the following terms:

     one-electron contribution =     -88.58718605 Ry
     hartree contribution      =      90.27800848 Ry
     xc contribution           =    -205.82367106 Ry
     ewald contribution        =    -488.76767727 Ry
     smearing contrib. (-TS)   =      -0.01246562 Ry

     convergence has been achieved in  10 iterations

     Forces acting on atoms (Ry/au):

     negative rho (up, down):  3.396E-01 0.000E+00
     atom    1 type  1   force =     0.00000000    0.00000000    0.00000000
     atom    2 type  1   force =     0.00000000    0.00000000    0.00000000
     atom    3 type  2   force =     0.00000000    0.00000000    0.00000000
     atom    4 type  2   force =     0.00000000    0.00000000    0.00000000

     Total force =     0.000000     Total SCF correction =     0.000000

     General routines

     Parallel routines

   This run was terminated on:   1:14:34  15Nov2017

   JOB DONE.