     Program PWSCF v.5.1rc2 starts on 14Nov2017 at  8:23:58

     Current dimensions of program PWSCF are:
     Max number of different atomic species (ntypx) = 10
     Max number of k-points (npk) =  40000
     Max angular momentum in pseudopotentials (lmaxx) =  3

     IMPORTANT: XC functional enforced from input :
     Exchange-correlation      = BEEF-VDW ( 1  4 27 13 2)
     Any further DFT definition will be discarded
     Please, verify this is what you really want

     Found symmetry operation: I + ( -0.5000 -0.5000  0.0000)
     This is a supercell, fractional translations are disabled

     bravais-lattice index     =            0
     lattice parameter (alat)  =       1.8897  a.u.
     unit-cell volume          =     370.2475 (a.u.)^3
     number of atoms/cell      =            4
     number of atomic types    =            2
     number of electrons       =        60.00
     number of Kohn-Sham states=           50
     kinetic-energy cutoff     =      58.7989  Ry
     charge density cutoff     =     587.9892  Ry
     convergence threshold     =      1.0E-06
     mixing beta               =       0.1000
     number of iterations used =           10  plain     mixing
     Exchange-correlation      = BEEF-VDW ( 1  4 27 13 2)

     celldm(1)=   1.889726  celldm(2)=   0.000000  celldm(3)=   0.000000
     celldm(4)=   0.000000  celldm(5)=   0.000000  celldm(6)=   0.000000

     crystal axes: (cart. coord. in units of alat)
               a(1) = (   3.756176   0.000000   0.000000 )
               a(2) = (   0.000000   3.756176   0.000000 )
               a(3) = (   0.000000   0.000000   3.888694 )

     reciprocal axes: (cart. coord. in units 2 pi/alat)
               b(1) = (  0.266228  0.000000  0.000000 )
               b(2) = (  0.000000  0.266228  0.000000 )
               b(3) = (  0.000000  0.000000  0.257156 )

     PseudoPot. # 1 for Cr read from file:
     /home/users/vossj/suncat/psp/gbrv1.5pbe/Cr.UPF
     MD5 check sum: 0d52af634a40206e4dee301ad30da4bf
     Pseudo is Ultrasoft + core correction, Zval = 14.0
     Generated by new atomic code, or converted to UPF format
     Using radial grid of  857 points,  6 beta functions with:
                l(1) =   0
                l(2) =   0
                l(3) =   1
                l(4) =   1
                l(5) =   2
                l(6) =   2
     Q(r) pseudized with  8 coefficients,  rinner =    0.950   0.950   0.950
                                                       0.950   0.950

     PseudoPot. # 2 for Pt read from file:
     /home/users/vossj/suncat/psp/gbrv1.5pbe/Pt.UPF
     MD5 check sum: f09d6de1a584b5a045c4fc126da2d0c4
     Pseudo is Ultrasoft + core correction, Zval = 16.0
     Generated by new atomic code, or converted to UPF format
     Using radial grid of  985 points,  6 beta functions with:
                l(1) =   0
                l(2) =   0
                l(3) =   1
                l(4) =   1
                l(5) =   2
                l(6) =   2
     Q(r) pseudized with  8 coefficients,  rinner =    1.300   1.300   1.300
                                                       1.300   1.300

     vdW kernel table read from file vdW_kernel_table
     MD5 check sum: 095c7af220d748ca6e76c0b4c6cfb241

     atomic species   valence    mass     pseudopotential
        Cr1           14.00    51.99600     Cr( 1.00)
        Pt1           16.00   195.08000     Pt( 1.00)

     16 Sym. Ops., with inversion, found

   Cartesian axes

     site n.     atom                  positions (alat units)
         1           Cr1 tau(   1) = (   0.0000000   0.0000000   0.0000000  )
         2           Cr1 tau(   2) = (   1.8780878   1.8780878   0.0000000  )
         3           Pt1 tau(   3) = (   1.8780878   0.0000000   1.9443470  )
         4           Pt1 tau(   4) = (   0.0000000   1.8780878   1.9443470  )

     number of k points=    75  Fermi-Dirac smearing, width (Ry)=  0.0073
                       cart. coord. in units 2pi/alat
        k(    1) = (   0.0000000   0.0000000   0.0000000), wk =   0.0027435
        k(    2) = (   0.0000000   0.0000000   0.0285729), wk =   0.0054870
        k(    3) = (   0.0000000   0.0000000   0.0571457), wk =   0.0054870
        k(    4) = (   0.0000000   0.0000000   0.0857186), wk =   0.0054870
        k(    5) = (   0.0000000   0.0000000   0.1142914), wk =   0.0054870
        k(    6) = (   0.0000000   0.0295809   0.0000000), wk =   0.0109739
        k(    7) = (   0.0000000   0.0295809   0.0285729), wk =   0.0219479
        k(    8) = (   0.0000000   0.0295809   0.0571457), wk =   0.0219479
        k(    9) = (   0.0000000   0.0295809   0.0857186), wk =   0.0219479
        k(   10) = (   0.0000000   0.0295809   0.1142914), wk =   0.0219479
        k(   11) = (   0.0000000   0.0591618   0.0000000), wk =   0.0109739
        k(   12) = (   0.0000000   0.0591618   0.0285729), wk =   0.0219479
        k(   13) = (   0.0000000   0.0591618   0.0571457), wk =   0.0219479
        k(   14) = (   0.0000000   0.0591618   0.0857186), wk =   0.0219479
        k(   15) = (   0.0000000   0.0591618   0.1142914), wk =   0.0219479
        k(   16) = (   0.0000000   0.0887427   0.0000000), wk =   0.0109739
        k(   17) = (   0.0000000   0.0887427   0.0285729), wk =   0.0219479
        k(   18) = (   0.0000000   0.0887427   0.0571457), wk =   0.0219479
        k(   19) = (   0.0000000   0.0887427   0.0857186), wk =   0.0219479
        k(   20) = (   0.0000000   0.0887427   0.1142914), wk =   0.0219479
        k(   21) = (   0.0000000   0.1183237   0.0000000), wk =   0.0109739
        k(   22) = (   0.0000000   0.1183237   0.0285729), wk =   0.0219479
        k(   23) = (   0.0000000   0.1183237   0.0571457), wk =   0.0219479
        k(   24) = (   0.0000000   0.1183237   0.0857186), wk =   0.0219479
        k(   25) = (   0.0000000   0.1183237   0.1142914), wk =   0.0219479
        k(   26) = (   0.0295809   0.0295809   0.0000000), wk =   0.0109739
        k(   27) = (   0.0295809   0.0295809   0.0285729), wk =   0.0219479
        k(   28) = (   0.0295809   0.0295809   0.0571457), wk =   0.0219479
        k(   29) = (   0.0295809   0.0295809   0.0857186), wk =   0.0219479
        k(   30) = (   0.0295809   0.0295809   0.1142914), wk =   0.0219479
        k(   31) = (   0.0295809   0.0591618   0.0000000), wk =   0.0219479
        k(   32) = (   0.0295809   0.0591618   0.0285729), wk =   0.0438957
        k(   33) = (   0.0295809   0.0591618   0.0571457), wk =   0.0438957
        k(   34) = (   0.0295809   0.0591618   0.0857186), wk =   0.0438957
        k(   35) = (   0.0295809   0.0591618   0.1142914), wk =   0.0438957
        k(   36) = (   0.0295809   0.0887427   0.0000000), wk =   0.0219479
        k(   37) = (   0.0295809   0.0887427   0.0285729), wk =   0.0438957
        k(   38) = (   0.0295809   0.0887427   0.0571457), wk =   0.0438957
        k(   39) = (   0.0295809   0.0887427   0.0857186), wk =   0.0438957
        k(   40) = (   0.0295809   0.0887427   0.1142914), wk =   0.0438957
        k(   41) = (   0.0295809   0.1183237   0.0000000), wk =   0.0219479
        k(   42) = (   0.0295809   0.1183237   0.0285729), wk =   0.0438957
        k(   43) = (   0.0295809   0.1183237   0.0571457), wk =   0.0438957
        k(   44) = (   0.0295809   0.1183237   0.0857186), wk =   0.0438957
        k(   45) = (   0.0295809   0.1183237   0.1142914), wk =   0.0438957
        k(   46) = (   0.0591618   0.0591618   0.0000000), wk =   0.0109739
        k(   47) = (   0.0591618   0.0591618   0.0285729), wk =   0.0219479
        k(   48) = (   0.0591618   0.0591618   0.0571457), wk =   0.0219479
        k(   49) = (   0.0591618   0.0591618   0.0857186), wk =   0.0219479
        k(   50) = (   0.0591618   0.0591618   0.1142914), wk =   0.0219479
        k(   51) = (   0.0591618   0.0887427   0.0000000), wk =   0.0219479
        k(   52) = (   0.0591618   0.0887427   0.0285729), wk =   0.0438957
        k(   53) = (   0.0591618   0.0887427   0.0571457), wk =   0.0438957
        k(   54) = (   0.0591618   0.0887427   0.0857186), wk =   0.0438957
        k(   55) = (   0.0591618   0.0887427   0.1142914), wk =   0.0438957
        k(   56) = (   0.0591618   0.1183237   0.0000000), wk =   0.0219479
        k(   57) = (   0.0591618   0.1183237   0.0285729), wk =   0.0438957
        k(   58) = (   0.0591618   0.1183237   0.0571457), wk =   0.0438957
        k(   59) = (   0.0591618   0.1183237   0.0857186), wk =   0.0438957
        k(   60) = (   0.0591618   0.1183237   0.1142914), wk =   0.0438957
        k(   61) = (   0.0887427   0.0887427   0.0000000), wk =   0.0109739
        k(   62) = (   0.0887427   0.0887427   0.0285729), wk =   0.0219479
        k(   63) = (   0.0887427   0.0887427   0.0571457), wk =   0.0219479
        k(   64) = (   0.0887427   0.0887427   0.0857186), wk =   0.0219479
        k(   65) = (   0.0887427   0.0887427   0.1142914), wk =   0.0219479
        k(   66) = (   0.0887427   0.1183237   0.0000000), wk =   0.0219479
        k(   67) = (   0.0887427   0.1183237   0.0285729), wk =   0.0438957
        k(   68) = (   0.0887427   0.1183237   0.0571457), wk =   0.0438957
        k(   69) = (   0.0887427   0.1183237   0.0857186), wk =   0.0438957
        k(   70) = (   0.0887427   0.1183237   0.1142914), wk =   0.0438957
        k(   71) = (   0.1183237   0.1183237   0.0000000), wk =   0.0109739
        k(   72) = (   0.1183237   0.1183237   0.0285729), wk =   0.0219479
        k(   73) = (   0.1183237   0.1183237   0.0571457), wk =   0.0219479
        k(   74) = (   0.1183237   0.1183237   0.0857186), wk =   0.0219479
        k(   75) = (   0.1183237   0.1183237   0.1142914), wk =   0.0219479

     Largest allocated arrays     est. size (Mb)     dimensions
     Largest temporary arrays     est. size (Mb)     dimensions

     Check: negative/imaginary core charge=   -0.000004    0.000000

     Initial potential from superposition of free atoms
     Check: negative starting charge=   -0.369658

     starting charge   56.99995, renormalised to   60.00000

     negative rho (up, down):  3.891E-01 0.000E+00

     *
     * You are using vdW-DF for exchange-correlation in this calculation.
     * Please cite the following three references that made this development
     * possible:
     *
     *   M. Dion, H. Rydberg, E. Schroder, D. C. Langreth, and
     *   B. I. Lundqvist, Phys. Rev. Lett. 92, 246401 (2004).
     *
     *   T. Thonhauser, V. R. Cooper, S. Li, A. Puzder, P. Hyldgaard, and
     *   D. C. Langreth, Phys. Rev. B 76, 125112 (2007).
     *
     *   G. Roman-Perez and J. M. Soler, Phys. Rev. Lett. 103, 096102 (2009).
     *
     *
     * If you are using vdW-DF2, please also cite:
     *
     *   K. Lee, E. D. Murray, L. Kong, B. I. Lundqvist, and
     *   D. C. Langreth, Phys. Rev. B 82, 081101(R) (2010).
     *
     *
     * If you are calculating the stress with vdW-DF, please also cite:
     *
     *   R. Sabatini, E. Kucukbenli, B. Kolb, T. Thonhauser, and
     *   S. de Gironcoli, J. Phys.: Condens. Matter 24, 424209 (2012).
     *

     Carrying out vdW-DF run using the following parameters:

     Nqs =      20    Nr_points =    1024   r_max =   100.000
     q_mesh =
               0.00001000     0.04494208     0.09755937     0.15916263
               0.23128650     0.31572767     0.41458969     0.53033537
               0.66584808     0.82450364     1.01025438     1.22772762
               1.48234092     1.78043706     2.12944203     2.53805004
               3.01644009     3.57652955     4.23227104     5.00000000

     Gradients computed in reciprocal space

     Starting wfc are   44 randomized atomic wfcs +    6 random wfc

     Self-consistent Calculation

     iteration #  1     ecut=    58.80 Ry     beta=0.10
     Davidson diagonalization with overlap
     ethr =  1.00E-02,  avg # of iterations =  4.7

[...]

     total energy              =    -776.67782597 Ry
     Harris-Foulkes estimate   =    -779.87873170 Ry
     estimated scf accuracy    <      18.40966569 Ry

[...]

     total energy              =    -777.40028113 Ry
     Harris-Foulkes estimate   =    -777.40028049 Ry
     estimated scf accuracy    <       0.00000174 Ry

     iteration # 17     ecut=    58.80 Ry     beta=0.10
     Davidson diagonalization with overlap
     ethr =  2.90E-09,  avg # of iterations =  1.0

     negative rho (up, down):  3.542E-01 0.000E+00

     End of self-consistent calculation

          k = 0.0000 0.0000 0.0000 (  2841 PWs)   bands (ev):

   -51.5388 -51.4657 -33.3260 -33.3260 -33.1490 -33.0698 -32.9828 -32.9828
   -22.9090 -22.9090 -22.8599 -22.8021 -22.6371 -22.6371  11.0302  13.3441
    13.9318  14.0660  14.7192  14.7192  15.0955  17.6228  17.6228  18.8487
    19.3733  20.1538  21.0917  21.0992  21.8209  21.8286  21.8286  21.8926
    21.9836  21.9836  22.2883  22.4838  23.0213  23.0213  29.6988  30.4366
    32.1788  33.0214  33.0214  33.0252  33.4149  33.5816  33.5816  36.8826
    40.0556  41.3218

[...]

          k = 0.1183 0.1183 0.1143 (  2830 PWs)   bands (ev):

   -51.5028 -51.5006 -33.3671 -33.3570 -33.1138 -33.1116 -32.9617 -32.9512
   -22.9433 -22.9351 -22.8341 -22.8320 -22.6204 -22.6120  13.8212  13.9660
    13.9953  14.0115  16.5750  16.6070  16.9540  17.1818  17.7918  17.8942
    19.1643  19.2706  19.4843  19.9324  19.9577  20.0944  21.1810  21.3775
    21.5040  21.7260  21.8745  21.9894  22.1714  22.1850  26.4566  26.7717
    29.0255  29.2894  36.1446  36.1523  36.3667  36.4689  39.8108  40.0383
    40.7443  41.2860

     the Fermi energy is    20.5622 ev

!    total energy              =    -777.40028531 Ry
     Harris-Foulkes estimate   =    -777.40028127 Ry
     estimated scf accuracy    <       0.00000004 Ry

     The total energy is the sum of the following terms:

     one-electron contribution =    -164.72652432 Ry
     hartree contribution      =     127.14145766 Ry
     xc contribution           =    -163.94530502 Ry
     ewald contribution        =    -575.85636307 Ry
     smearing contrib. (-TS)   =      -0.01355056 Ry

     convergence has been achieved in  17 iterations

     Forces acting on atoms (Ry/au):

     negative rho (up, down):  3.542E-01 0.000E+00
     atom    1 type  1   force =     0.00000000    0.00000000    0.00000000
     atom    2 type  1   force =     0.00000000    0.00000000    0.00000000
     atom    3 type  2   force =     0.00000000    0.00000000    0.00000000
     atom    4 type  2   force =     0.00000000    0.00000000    0.00000000

     Total force =     0.000000     Total SCF correction =     0.000000

     General routines

     Parallel routines

   This run was terminated on:   8:24:44  14Nov2017

   JOB DONE.