     Program PWSCF v.5.1rc2 starts on 15Nov2017 at  2:14: 7

     Current dimensions of program PWSCF are:
     Max number of different atomic species (ntypx) = 10
     Max number of k-points (npk) =  40000
     Max angular momentum in pseudopotentials (lmaxx) =  3

     IMPORTANT: XC functional enforced from input :
     Exchange-correlation      = BEEF-VDW ( 1  4 27 13 2)
     Any further DFT definition will be discarded
     Please, verify this is what you really want

     Found symmetry operation: I + (  0.5000  0.5000  0.0000)
     This is a supercell, fractional translations are disabled

     bravais-lattice index     =            0
     lattice parameter (alat)  =       1.8897  a.u.
     unit-cell volume          =     592.8952 (a.u.)^3
     number of atoms/cell      =            4
     number of atomic types    =            2
     number of electrons       =        60.00
     number of Kohn-Sham states=           50
     kinetic-energy cutoff     =      58.7989  Ry
     charge density cutoff     =     587.9892  Ry
     convergence threshold     =      1.0E-06
     mixing beta               =       0.1000
     number of iterations used =           10  plain     mixing
     Exchange-correlation      = BEEF-VDW ( 1  4 27 13 2)

     celldm(1)=   1.889726  celldm(2)=   0.000000  celldm(3)=   0.000000
     celldm(4)=   0.000000  celldm(5)=   0.000000  celldm(6)=   0.000000

     crystal axes: (cart. coord. in units of alat)
               a(1) = (   4.979892   0.000000   0.000000 )
               a(2) = (   0.000000   4.979892   0.000000 )
               a(3) = (   0.000000   0.000000   3.542758 )

     reciprocal axes: (cart. coord. in units 2 pi/alat)
               b(1) = (  0.200808  0.000000  0.000000 )
               b(2) = (  0.000000  0.200808  0.000000 )
               b(3) = (  0.000000  0.000000  0.282266 )

     PseudoPot. # 1 for Pd read from file:
     /home/users/vossj/suncat/psp/gbrv1.5pbe/Pd.UPF
     MD5 check sum: 2d733d2bc2cbfd217af676df1668a4bc
     Pseudo is Ultrasoft + core correction, Zval = 16.0
     Generated by new atomic code, or converted to UPF format
     Using radial grid of  887 points,  6 beta functions with:
                l(1) =   0
                l(2) =   0
                l(3) =   1
                l(4) =   1
                l(5) =   2
                l(6) =   2
     Q(r) pseudized with  8 coefficients,  rinner =    1.130   1.130   1.130
                                                       1.130   1.130

     PseudoPot. # 2 for Pb read from file:
     /home/users/vossj/suncat/psp/gbrv1.5pbe/Pb.UPF
     MD5 check sum: 3d1c1779aa92214d1e8f3a7db79003e2
     Pseudo is Ultrasoft + core correction, Zval = 14.0
     Generated by new atomic code, or converted to UPF format
     Using radial grid of  899 points,  6 beta functions with:
                l(1) =   0
                l(2) =   0
                l(3) =   1
                l(4) =   1
                l(5) =   2
                l(6) =   2
     Q(r) pseudized with  6 coefficients,  rinner =    1.000   1.000   1.000
                                                       1.000   1.000

     vdW kernel table read from file vdW_kernel_table
     MD5 check sum: 095c7af220d748ca6e76c0b4c6cfb241

     atomic species   valence    mass     pseudopotential
        Pd1           16.00   106.42000     Pd( 1.00)
        Pb1           14.00   207.20000     Pb( 1.00)

     16 Sym. Ops., with inversion, found

   Cartesian axes

     site n.     atom                  positions (alat units)
         1           Pd1 tau(   1) = (   0.0000000   0.0000000   0.0000000  )
         2           Pd1 tau(   2) = (   2.4899462   2.4899462   0.0000000  )
         3           Pb1 tau(   3) = (   2.4899462   0.0000000   1.7713789  )
         4           Pb1 tau(   4) = (   0.0000000   2.4899462   1.7713789  )

     number of k points=    75  Fermi-Dirac smearing, width (Ry)=  0.0073
                       cart. coord. in units 2pi/alat
        k(    1) = (   0.0000000   0.0000000   0.0000000), wk =   0.0027435
        k(    2) = (   0.0000000   0.0000000   0.0313629), wk =   0.0054870
        k(    3) = (   0.0000000   0.0000000   0.0627258), wk =   0.0054870
        k(    4) = (   0.0000000   0.0000000   0.0940887), wk =   0.0054870
        k(    5) = (   0.0000000   0.0000000   0.1254515), wk =   0.0054870
        k(    6) = (   0.0000000   0.0223120   0.0000000), wk =   0.0109739
        k(    7) = (   0.0000000   0.0223120   0.0313629), wk =   0.0219479
        k(    8) = (   0.0000000   0.0223120   0.0627258), wk =   0.0219479
        k(    9) = (   0.0000000   0.0223120   0.0940887), wk =   0.0219479
        k(   10) = (   0.0000000   0.0223120   0.1254515), wk =   0.0219479
        k(   11) = (   0.0000000   0.0446239   0.0000000), wk =   0.0109739
        k(   12) = (   0.0000000   0.0446239   0.0313629), wk =   0.0219479
        k(   13) = (   0.0000000   0.0446239   0.0627258), wk =   0.0219479
        k(   14) = (   0.0000000   0.0446239   0.0940887), wk =   0.0219479
        k(   15) = (   0.0000000   0.0446239   0.1254515), wk =   0.0219479
        k(   16) = (   0.0000000   0.0669359   0.0000000), wk =   0.0109739
        k(   17) = (   0.0000000   0.0669359   0.0313629), wk =   0.0219479
        k(   18) = (   0.0000000   0.0669359   0.0627258), wk =   0.0219479
        k(   19) = (   0.0000000   0.0669359   0.0940887), wk =   0.0219479
        k(   20) = (   0.0000000   0.0669359   0.1254515), wk =   0.0219479
        k(   21) = (   0.0000000   0.0892478   0.0000000), wk =   0.0109739
        k(   22) = (   0.0000000   0.0892478   0.0313629), wk =   0.0219479
        k(   23) = (   0.0000000   0.0892478   0.0627258), wk =   0.0219479
        k(   24) = (   0.0000000   0.0892478   0.0940887), wk =   0.0219479
        k(   25) = (   0.0000000   0.0892478   0.1254515), wk =   0.0219479
        k(   26) = (   0.0223120   0.0223120   0.0000000), wk =   0.0109739
        k(   27) = (   0.0223120   0.0223120   0.0313629), wk =   0.0219479
        k(   28) = (   0.0223120   0.0223120   0.0627258), wk =   0.0219479
        k(   29) = (   0.0223120   0.0223120   0.0940887), wk =   0.0219479
        k(   30) = (   0.0223120   0.0223120   0.1254515), wk =   0.0219479
        k(   31) = (   0.0223120   0.0446239   0.0000000), wk =   0.0219479
        k(   32) = (   0.0223120   0.0446239   0.0313629), wk =   0.0438957
        k(   33) = (   0.0223120   0.0446239   0.0627258), wk =   0.0438957
        k(   34) = (   0.0223120   0.0446239   0.0940887), wk =   0.0438957
        k(   35) = (   0.0223120   0.0446239   0.1254515), wk =   0.0438957
        k(   36) = (   0.0223120   0.0669359   0.0000000), wk =   0.0219479
        k(   37) = (   0.0223120   0.0669359   0.0313629), wk =   0.0438957
        k(   38) = (   0.0223120   0.0669359   0.0627258), wk =   0.0438957
        k(   39) = (   0.0223120   0.0669359   0.0940887), wk =   0.0438957
        k(   40) = (   0.0223120   0.0669359   0.1254515), wk =   0.0438957
        k(   41) = (   0.0223120   0.0892478   0.0000000), wk =   0.0219479
        k(   42) = (   0.0223120   0.0892478   0.0313629), wk =   0.0438957
        k(   43) = (   0.0223120   0.0892478   0.0627258), wk =   0.0438957
        k(   44) = (   0.0223120   0.0892478   0.0940887), wk =   0.0438957
        k(   45) = (   0.0223120   0.0892478   0.1254515), wk =   0.0438957
        k(   46) = (   0.0446239   0.0446239   0.0000000), wk =   0.0109739
        k(   47) = (   0.0446239   0.0446239   0.0313629), wk =   0.0219479
        k(   48) = (   0.0446239   0.0446239   0.0627258), wk =   0.0219479
        k(   49) = (   0.0446239   0.0446239   0.0940887), wk =   0.0219479
        k(   50) = (   0.0446239   0.0446239   0.1254515), wk =   0.0219479
        k(   51) = (   0.0446239   0.0669359   0.0000000), wk =   0.0219479
        k(   52) = (   0.0446239   0.0669359   0.0313629), wk =   0.0438957
        k(   53) = (   0.0446239   0.0669359   0.0627258), wk =   0.0438957
        k(   54) = (   0.0446239   0.0669359   0.0940887), wk =   0.0438957
        k(   55) = (   0.0446239   0.0669359   0.1254515), wk =   0.0438957
        k(   56) = (   0.0446239   0.0892478   0.0000000), wk =   0.0219479
        k(   57) = (   0.0446239   0.0892478   0.0313629), wk =   0.0438957
        k(   58) = (   0.0446239   0.0892478   0.0627258), wk =   0.0438957
        k(   59) = (   0.0446239   0.0892478   0.0940887), wk =   0.0438957
        k(   60) = (   0.0446239   0.0892478   0.1254515), wk =   0.0438957
        k(   61) = (   0.0669359   0.0669359   0.0000000), wk =   0.0109739
        k(   62) = (   0.0669359   0.0669359   0.0313629), wk =   0.0219479
        k(   63) = (   0.0669359   0.0669359   0.0627258), wk =   0.0219479
        k(   64) = (   0.0669359   0.0669359   0.0940887), wk =   0.0219479
        k(   65) = (   0.0669359   0.0669359   0.1254515), wk =   0.0219479
        k(   66) = (   0.0669359   0.0892478   0.0000000), wk =   0.0219479
        k(   67) = (   0.0669359   0.0892478   0.0313629), wk =   0.0438957
        k(   68) = (   0.0669359   0.0892478   0.0627258), wk =   0.0438957
        k(   69) = (   0.0669359   0.0892478   0.0940887), wk =   0.0438957
        k(   70) = (   0.0669359   0.0892478   0.1254515), wk =   0.0438957
        k(   71) = (   0.0892478   0.0892478   0.0000000), wk =   0.0109739
        k(   72) = (   0.0892478   0.0892478   0.0313629), wk =   0.0219479
        k(   73) = (   0.0892478   0.0892478   0.0627258), wk =   0.0219479
        k(   74) = (   0.0892478   0.0892478   0.0940887), wk =   0.0219479
        k(   75) = (   0.0892478   0.0892478   0.1254515), wk =   0.0219479

     Largest allocated arrays     est. size (Mb)     dimensions
     Largest temporary arrays     est. size (Mb)     dimensions

     Initial potential from superposition of free atoms
     Check: negative starting charge=   -0.184384

     starting charge   58.99528, renormalised to   60.00000

     negative rho (up, down):  1.875E-01 0.000E+00

     *
     * You are using vdW-DF for exchange-correlation in this calculation.
     * Please cite the following three references that made this development
     * possible:
     *
     *   M. Dion, H. Rydberg, E. Schroder, D. C. Langreth, and
     *   B. I. Lundqvist, Phys. Rev. Lett. 92, 246401 (2004).
     *
     *   T. Thonhauser, V. R. Cooper, S. Li, A. Puzder, P. Hyldgaard, and
     *   D. C. Langreth, Phys. Rev. B 76, 125112 (2007).
     *
     *   G. Roman-Perez and J. M. Soler, Phys. Rev. Lett. 103, 096102 (2009).
     *
     *
     * If you are using vdW-DF2, please also cite:
     *
     *   K. Lee, E. D. Murray, L. Kong, B. I. Lundqvist, and
     *   D. C. Langreth, Phys. Rev. B 82, 081101(R) (2010).
     *
     *
     * If you are calculating the stress with vdW-DF, please also cite:
     *
     *   R. Sabatini, E. Kucukbenli, B. Kolb, T. Thonhauser, and
     *   S. de Gironcoli, J. Phys.: Condens. Matter 24, 424209 (2012).
     *

     Carrying out vdW-DF run using the following parameters:

     Nqs =      20    Nr_points =    1024   r_max =   100.000
     q_mesh =
               0.00001000     0.04494208     0.09755937     0.15916263
               0.23128650     0.31572767     0.41458969     0.53033537
               0.66584808     0.82450364     1.01025438     1.22772762
               1.48234092     1.78043706     2.12944203     2.53805004
               3.01644009     3.57652955     4.23227104     5.00000000

     Gradients computed in reciprocal space

     Starting wfc are   42 randomized atomic wfcs +    8 random wfc

     Self-consistent Calculation

     iteration #  1     ecut=    58.80 Ry     beta=0.10
     Davidson diagonalization with overlap
     ethr =  1.00E-02,  avg # of iterations =  4.7

[...]

     total energy              =    -731.73981329 Ry
     Harris-Foulkes estimate   =    -732.02337406 Ry
     estimated scf accuracy    <       1.73540096 Ry

[...]

     total energy              =    -731.72485840 Ry
     Harris-Foulkes estimate   =    -731.72472885 Ry
     estimated scf accuracy    <       0.00000909 Ry

     iteration # 12     ecut=    58.80 Ry     beta=0.10
     Davidson diagonalization with overlap
     ethr =  1.13E-08,  avg # of iterations =  2.0

     negative rho (up, down):  1.936E-01 0.000E+00

     End of self-consistent calculation

          k = 0.0000 0.0000 0.0000 (  4501 PWs)   bands (ev):

   -35.9543 -35.9543 -35.9458 -35.9440 -35.9437 -35.9437  -3.4352  -3.4283
    -3.3647  -3.3093  -3.2555  -3.2555  -3.1824  -3.1824  -3.1804  -3.0686
     2.9624   5.9664  10.9315  10.9350  11.1433  11.3770  11.3770  11.6871
    11.6871  11.9928  11.9928  12.0042  12.4237  12.8496  15.6784  16.4634
    16.6014  16.6014  17.9930  20.0903  22.9741  23.0392  23.6319  23.6319
    24.4692  24.5283  25.4128  26.2134  28.3455  28.4347  28.4347  28.6029
    28.6029  29.9710

[...]

          k = 0.0892 0.0892 0.1255 (  4484 PWs)   bands (ev):

   -35.9553 -35.9551 -35.9544 -35.9541 -35.9424 -35.9420  -3.3578  -3.3553
    -3.3212  -3.3123  -3.2559  -3.2509  -3.2506  -3.2479  -3.0838  -3.0777
     5.8320   5.9129  10.7882  10.8674  11.1383  11.3043  11.3177  11.4330
    11.6801  11.7102  11.9083  11.9326  12.4820  12.5242  12.9764  13.0974
    15.7955  15.9477  19.9229  20.1830  23.4731  23.4918  23.5047  23.8319
    24.4856  24.4902  25.1979  25.3239  26.5604  26.7022  28.6908  28.9850
    29.0225  29.1216

     the Fermi energy is    13.8354 ev

!    total energy              =    -731.72541927 Ry
     Harris-Foulkes estimate   =    -731.72486011 Ry
     estimated scf accuracy    <       0.00000012 Ry

     The total energy is the sum of the following terms:

     one-electron contribution =    -182.68005837 Ry
     hartree contribution      =     139.36060518 Ry
     xc contribution           =    -195.96777633 Ry
     ewald contribution        =    -492.43355349 Ry
     smearing contrib. (-TS)   =      -0.00463626 Ry

     convergence has been achieved in  12 iterations

     Forces acting on atoms (Ry/au):

     negative rho (up, down):  1.936E-01 0.000E+00
     atom    1 type  1   force =     0.00000000    0.00000000    0.00000000
     atom    2 type  1   force =     0.00000000    0.00000000    0.00000000
     atom    3 type  2   force =     0.00000000    0.00000000    0.00000000
     atom    4 type  2   force =     0.00000000    0.00000000    0.00000000

     Total force =     0.000000     Total SCF correction =     0.000000

     General routines

     Parallel routines

   This run was terminated on:   2:15: 3  15Nov2017

   JOB DONE.