     Program PWSCF v.5.1rc2 (svn rev. ) starts on 18Feb2018 at 16:59:40

     Current dimensions of program PWSCF are:
     Max number of different atomic species (ntypx) = 10
     Max number of k-points (npk) =  40000
     Max angular momentum in pseudopotentials (lmaxx) =  3

     IMPORTANT: XC functional enforced from input :
     Exchange-correlation      = BEEF-VDW ( 1  4 27 13 2)
     Any further DFT definition will be discarded
     Please, verify this is what you really want

     Subspace diagonalization in iterative solution of the eigenvalue problem:
     a serial algorithm will be used

     Found symmetry operation: I + ( -0.5000 -0.5000  0.0000)
     This is a supercell, fractional translations are disabled

     bravais-lattice index     =            0
     lattice parameter (alat)  =       1.8897  a.u.
     unit-cell volume          =     600.5895 (a.u.)^3
     number of atoms/cell      =            4
     number of atomic types    =            2
     number of electrons       =        62.00
     number of Kohn-Sham states=           51
     kinetic-energy cutoff     =      58.7989  Ry
     charge density cutoff     =     587.9892  Ry
     convergence threshold     =      1.0E-06
     mixing beta               =       0.1000
     number of iterations used =           10  plain     mixing
     Exchange-correlation      = BEEF-VDW ( 1  4 27 13 2)

     celldm(1)=   1.889726  celldm(2)=   0.000000  celldm(3)=   0.000000
     celldm(4)=   0.000000  celldm(5)=   0.000000  celldm(6)=   0.000000

     crystal axes: (cart. coord. in units of alat)
               a(1) = (   4.991912   0.000000   0.000000 )
               a(2) = (   0.000000   4.991912   0.000000 )
               a(3) = (   0.000000   0.000000   3.571472 )

     reciprocal axes: (cart. coord. in units 2 pi/alat)
               b(1) = (  0.200324  0.000000  0.000000 )
               b(2) = (  0.000000  0.200324  0.000000 )
               b(3) = (  0.000000  0.000000  0.279997 )

     PseudoPot. # 1 for Pd read from file:
     /home/mamunm/src/pseudo/gbrv1.5pbe/Pd.UPF
     MD5 check sum: 2d733d2bc2cbfd217af676df1668a4bc
     Pseudo is Ultrasoft + core correction, Zval = 16.0
     Generated by new atomic code, or converted to UPF format
     Using radial grid of  887 points,  6 beta functions with:
                l(1) =   0
                l(2) =   0
                l(3) =   1
                l(4) =   1
                l(5) =   2
                l(6) =   2
     Q(r) pseudized with  8 coefficients,  rinner =    1.130   1.130   1.130
                                                       1.130   1.130

     PseudoPot. # 2 for Bi read from file:
     /home/mamunm/src/pseudo/gbrv1.5pbe/Bi.UPF
     MD5 check sum: 81103212dc04adf40945787f699eab19
     Pseudo is Ultrasoft + core correction, Zval = 15.0
     Generated by new atomic code, or converted to UPF format
     Using radial grid of  899 points,  6 beta functions with:
                l(1) =   0
                l(2) =   0
                l(3) =   1
                l(4) =   1
                l(5) =   2
                l(6) =   2
     Q(r) pseudized with  6 coefficients,  rinner =    1.000   1.000   1.000
                                                       1.000   1.000

     vdW kernel table read from file vdW_kernel_table
     MD5 check sum: 095c7af220d748ca6e76c0b4c6cfb241

     atomic species   valence    mass     pseudopotential
        Pd1           16.00   106.42000     Pd( 1.00)
        Bi1           15.00   208.98040     Bi( 1.00)

     16 Sym. Ops., with inversion, found

   Cartesian axes

     site n.     atom                  positions (alat units)
         1           Pd1 tau(   1) = (   0.0000000   0.0000000   0.0000000  )
         2           Pd1 tau(   2) = (   2.4959561   2.4959561   0.0000000  )
         3           Bi1 tau(   3) = (   2.4959561   0.0000000   1.7857360  )
         4           Bi1 tau(   4) = (   0.0000000   2.4959561   1.7857360  )

     number of k points=    75  Fermi-Dirac smearing, width (Ry)=  0.0073
                       cart. coord. in units 2pi/alat
        k(    1) = (   0.0000000   0.0000000   0.0000000), wk =   0.0027435
        k(    2) = (   0.0000000   0.0000000   0.0311107), wk =   0.0054870
        k(    3) = (   0.0000000   0.0000000   0.0622215), wk =   0.0054870
        k(    4) = (   0.0000000   0.0000000   0.0933322), wk =   0.0054870
        k(    5) = (   0.0000000   0.0000000   0.1244429), wk =   0.0054870
        k(    6) = (   0.0000000   0.0222582   0.0000000), wk =   0.0109739
        k(    7) = (   0.0000000   0.0222582   0.0311107), wk =   0.0219479
        k(    8) = (   0.0000000   0.0222582   0.0622215), wk =   0.0219479
        k(    9) = (   0.0000000   0.0222582   0.0933322), wk =   0.0219479
        k(   10) = (   0.0000000   0.0222582   0.1244429), wk =   0.0219479
        k(   11) = (   0.0000000   0.0445165   0.0000000), wk =   0.0109739
        k(   12) = (   0.0000000   0.0445165   0.0311107), wk =   0.0219479
        k(   13) = (   0.0000000   0.0445165   0.0622215), wk =   0.0219479
        k(   14) = (   0.0000000   0.0445165   0.0933322), wk =   0.0219479
        k(   15) = (   0.0000000   0.0445165   0.1244429), wk =   0.0219479
        k(   16) = (   0.0000000   0.0667747   0.0000000), wk =   0.0109739
        k(   17) = (   0.0000000   0.0667747   0.0311107), wk =   0.0219479
        k(   18) = (   0.0000000   0.0667747   0.0622215), wk =   0.0219479
        k(   19) = (   0.0000000   0.0667747   0.0933322), wk =   0.0219479
        k(   20) = (   0.0000000   0.0667747   0.1244429), wk =   0.0219479
        k(   21) = (   0.0000000   0.0890329   0.0000000), wk =   0.0109739
        k(   22) = (   0.0000000   0.0890329   0.0311107), wk =   0.0219479
        k(   23) = (   0.0000000   0.0890329   0.0622215), wk =   0.0219479
        k(   24) = (   0.0000000   0.0890329   0.0933322), wk =   0.0219479
        k(   25) = (   0.0000000   0.0890329   0.1244429), wk =   0.0219479
        k(   26) = (   0.0222582   0.0222582   0.0000000), wk =   0.0109739
        k(   27) = (   0.0222582   0.0222582   0.0311107), wk =   0.0219479
        k(   28) = (   0.0222582   0.0222582   0.0622215), wk =   0.0219479
        k(   29) = (   0.0222582   0.0222582   0.0933322), wk =   0.0219479
        k(   30) = (   0.0222582   0.0222582   0.1244429), wk =   0.0219479
        k(   31) = (   0.0222582   0.0445165   0.0000000), wk =   0.0219479
        k(   32) = (   0.0222582   0.0445165   0.0311107), wk =   0.0438957
        k(   33) = (   0.0222582   0.0445165   0.0622215), wk =   0.0438957
        k(   34) = (   0.0222582   0.0445165   0.0933322), wk =   0.0438957
        k(   35) = (   0.0222582   0.0445165   0.1244429), wk =   0.0438957
        k(   36) = (   0.0222582   0.0667747   0.0000000), wk =   0.0219479
        k(   37) = (   0.0222582   0.0667747   0.0311107), wk =   0.0438957
        k(   38) = (   0.0222582   0.0667747   0.0622215), wk =   0.0438957
        k(   39) = (   0.0222582   0.0667747   0.0933322), wk =   0.0438957
        k(   40) = (   0.0222582   0.0667747   0.1244429), wk =   0.0438957
        k(   41) = (   0.0222582   0.0890329   0.0000000), wk =   0.0219479
        k(   42) = (   0.0222582   0.0890329   0.0311107), wk =   0.0438957
        k(   43) = (   0.0222582   0.0890329   0.0622215), wk =   0.0438957
        k(   44) = (   0.0222582   0.0890329   0.0933322), wk =   0.0438957
        k(   45) = (   0.0222582   0.0890329   0.1244429), wk =   0.0438957
        k(   46) = (   0.0445165   0.0445165   0.0000000), wk =   0.0109739
        k(   47) = (   0.0445165   0.0445165   0.0311107), wk =   0.0219479
        k(   48) = (   0.0445165   0.0445165   0.0622215), wk =   0.0219479
        k(   49) = (   0.0445165   0.0445165   0.0933322), wk =   0.0219479
        k(   50) = (   0.0445165   0.0445165   0.1244429), wk =   0.0219479
        k(   51) = (   0.0445165   0.0667747   0.0000000), wk =   0.0219479
        k(   52) = (   0.0445165   0.0667747   0.0311107), wk =   0.0438957
        k(   53) = (   0.0445165   0.0667747   0.0622215), wk =   0.0438957
        k(   54) = (   0.0445165   0.0667747   0.0933322), wk =   0.0438957
        k(   55) = (   0.0445165   0.0667747   0.1244429), wk =   0.0438957
        k(   56) = (   0.0445165   0.0890329   0.0000000), wk =   0.0219479
        k(   57) = (   0.0445165   0.0890329   0.0311107), wk =   0.0438957
        k(   58) = (   0.0445165   0.0890329   0.0622215), wk =   0.0438957
        k(   59) = (   0.0445165   0.0890329   0.0933322), wk =   0.0438957
        k(   60) = (   0.0445165   0.0890329   0.1244429), wk =   0.0438957
        k(   61) = (   0.0667747   0.0667747   0.0000000), wk =   0.0109739
        k(   62) = (   0.0667747   0.0667747   0.0311107), wk =   0.0219479
        k(   63) = (   0.0667747   0.0667747   0.0622215), wk =   0.0219479
        k(   64) = (   0.0667747   0.0667747   0.0933322), wk =   0.0219479
        k(   65) = (   0.0667747   0.0667747   0.1244429), wk =   0.0219479
        k(   66) = (   0.0667747   0.0890329   0.0000000), wk =   0.0219479
        k(   67) = (   0.0667747   0.0890329   0.0311107), wk =   0.0438957
        k(   68) = (   0.0667747   0.0890329   0.0622215), wk =   0.0438957
        k(   69) = (   0.0667747   0.0890329   0.0933322), wk =   0.0438957
        k(   70) = (   0.0667747   0.0890329   0.1244429), wk =   0.0438957
        k(   71) = (   0.0890329   0.0890329   0.0000000), wk =   0.0109739
        k(   72) = (   0.0890329   0.0890329   0.0311107), wk =   0.0219479
        k(   73) = (   0.0890329   0.0890329   0.0622215), wk =   0.0219479
        k(   74) = (   0.0890329   0.0890329   0.0933322), wk =   0.0219479
        k(   75) = (   0.0890329   0.0890329   0.1244429), wk =   0.0219479

     Largest allocated arrays     est. size (Mb)     dimensions
     Largest temporary arrays     est. size (Mb)     dimensions

     Initial potential from superposition of free atoms
     Check: negative starting charge=   -0.235784

     starting charge   58.99990, renormalised to   62.00000

     negative rho (up, down):  2.478E-01 0.000E+00

     *
     * You are using vdW-DF for exchange-correlation in this calculation.
     * Please cite the following three references that made this development
     * possible:
     *
     *   M. Dion, H. Rydberg, E. Schroder, D. C. Langreth, and
     *   B. I. Lundqvist, Phys. Rev. Lett. 92, 246401 (2004).
     *
     *   T. Thonhauser, V. R. Cooper, S. Li, A. Puzder, P. Hyldgaard, and
     *   D. C. Langreth, Phys. Rev. B 76, 125112 (2007).
     *
     *   G. Roman-Perez and J. M. Soler, Phys. Rev. Lett. 103, 096102 (2009).
     *
     *
     * If you are using vdW-DF2, please also cite:
     *
     *   K. Lee, E. D. Murray, L. Kong, B. I. Lundqvist, and
     *   D. C. Langreth, Phys. Rev. B 82, 081101(R) (2010).
     *
     *
     * If you are calculating the stress with vdW-DF, please also cite:
     *
     *   R. Sabatini, E. Kucukbenli, B. Kolb, T. Thonhauser, and
     *   S. de Gironcoli, J. Phys.: Condens. Matter 24, 424209 (2012).
     *

     Carrying out vdW-DF run using the following parameters:

     Nqs =      20    Nr_points =    1024   r_max =   100.000
     q_mesh =
               0.00001000     0.04494208     0.09755937     0.15916263
               0.23128650     0.31572767     0.41458969     0.53033537
               0.66584808     0.82450364     1.01025438     1.22772762
               1.48234092     1.78043706     2.12944203     2.53805004
               3.01644009     3.57652955     4.23227104     5.00000000

     Gradients computed in reciprocal space

     Starting wfc are   42 randomized atomic wfcs +    9 random wfc

     Self-consistent Calculation

     iteration #  1     ecut=    58.80 Ry     beta=0.10
     Davidson diagonalization with overlap
     ethr =  1.00E-02,  avg # of iterations =  5.3

[...]

     total energy              =    -774.18649656 Ry
     Harris-Foulkes estimate   =    -775.90929724 Ry
     estimated scf accuracy    <      10.28713681 Ry

[...]

     total energy              =    -774.04357156 Ry
     Harris-Foulkes estimate   =    -774.04354825 Ry
     estimated scf accuracy    <       0.00000121 Ry

     iteration # 11     ecut=    58.80 Ry     beta=0.10
     Davidson diagonalization with overlap
     ethr =  1.95E-09,  avg # of iterations =  1.8

     negative rho (up, down):  2.452E-01 0.000E+00

     End of self-consistent calculation

          k = 0.0000 0.0000 0.0000 (  4573 PWs)   bands (ev):

   -35.5115 -35.5115 -35.5068 -35.5050 -35.5012 -35.5012  -8.9695  -8.9601
    -8.9155  -8.8934  -8.8672  -8.8672  -8.8321  -8.8321  -8.8312  -8.7743
     1.6302   4.0765  10.8044  10.8044  11.3124  11.3134  11.4900  12.0349
    12.0349  12.3904  12.3904  12.4156  12.7584  12.8737  15.3970  15.6418
    15.6418  15.7317  16.8609  18.2755  22.3108  22.4010  23.3361  23.3361
    24.9173  25.4248  27.8313  27.8313  28.1883  28.3503  28.3503  28.9255
    29.1064  29.1064  30.9929

[...]

          k = 0.0890 0.0890 0.1244 (  4543 PWs)   bands (ev):

   -35.5153 -35.5150 -35.5116 -35.5113 -35.4999 -35.4996  -8.9101  -8.9089
    -8.9063  -8.9016  -8.8676  -8.8652  -8.8625  -8.8613  -8.7833  -8.7802
     3.9207   3.9898  10.5137  10.5161  10.7917  10.8089  11.5699  11.6154
    12.0423  12.0774  12.1556  12.1708  12.8010  12.8712  12.8819  12.9165
    15.7746  15.8972  18.2595  18.4588  23.1502  23.1961  23.2181  23.6170
    25.2808  25.3475  25.4342  25.4550  28.0128  28.3529  28.4007  28.5183
    31.3864  31.5286  31.7013

     the Fermi energy is    14.3985 ev

!    total energy              =    -774.04367155 Ry
     Harris-Foulkes estimate   =    -774.04357171 Ry
     estimated scf accuracy    <       0.00000005 Ry

     The total energy is the sum of the following terms:

     one-electron contribution =    -200.45395623 Ry
     hartree contribution      =     147.46647796 Ry
     xc contribution           =    -198.49236546 Ry
     ewald contribution        =    -522.55942168 Ry
     smearing contrib. (-TS)   =      -0.00440614 Ry

     convergence has been achieved in  11 iterations

     Forces acting on atoms (Ry/au):

     negative rho (up, down):  2.452E-01 0.000E+00
     atom    1 type  1   force =     0.00000000    0.00000000    0.00000000
     atom    2 type  1   force =     0.00000000    0.00000000    0.00000000
     atom    3 type  2   force =     0.00000000    0.00000000    0.00000000
     atom    4 type  2   force =     0.00000000    0.00000000    0.00000000

     Total force =     0.000000     Total SCF correction =     0.000000

     General routines

     Parallel routines

   This run was terminated on:  17: 0:41  18Feb2018

   JOB DONE.