     Program PWSCF v.5.1rc2 starts on 14Nov2017 at  8:59:46

     Current dimensions of program PWSCF are:
     Max number of different atomic species (ntypx) = 10
     Max number of k-points (npk) =  40000
     Max angular momentum in pseudopotentials (lmaxx) =  3

     IMPORTANT: XC functional enforced from input :
     Exchange-correlation      = BEEF-VDW ( 1  4 27 13 2)
     Any further DFT definition will be discarded
     Please, verify this is what you really want

     Found symmetry operation: I + ( -0.5000 -0.5000  0.0000)
     This is a supercell, fractional translations are disabled

     bravais-lattice index     =            0
     lattice parameter (alat)  =       1.8897  a.u.
     unit-cell volume          =     460.1152 (a.u.)^3
     number of atoms/cell      =            4
     number of atomic types    =            2
     number of electrons       =        62.00
     number of Kohn-Sham states=           51
     kinetic-energy cutoff     =      58.7989  Ry
     charge density cutoff     =     587.9892  Ry
     convergence threshold     =      1.0E-06
     mixing beta               =       0.1000
     number of iterations used =           10  plain     mixing
     Exchange-correlation      = BEEF-VDW ( 1  4 27 13 2)

     celldm(1)=   1.889726  celldm(2)=   0.000000  celldm(3)=   0.000000
     celldm(4)=   0.000000  celldm(5)=   0.000000  celldm(6)=   0.000000

     crystal axes: (cart. coord. in units of alat)
               a(1) = (   4.551788   0.000000   0.000000 )
               a(2) = (   0.000000   4.551788   0.000000 )
               a(3) = (   0.000000   0.000000   3.290834 )

     reciprocal axes: (cart. coord. in units 2 pi/alat)
               b(1) = (  0.219694  0.000000  0.000000 )
               b(2) = (  0.000000  0.219694  0.000000 )
               b(3) = (  0.000000  0.000000  0.303874 )

     PseudoPot. # 1 for Cu read from file:
     /home/users/vossj/suncat/psp/gbrv1.5pbe/Cu.UPF
     MD5 check sum: 6e991ff952a84172a2a52a1c1e996048
     Pseudo is Ultrasoft + core correction, Zval = 19.0
     Generated by new atomic code, or converted to UPF format
     Using radial grid of  867 points,  6 beta functions with:
                l(1) =   0
                l(2) =   0
                l(3) =   1
                l(4) =   1
                l(5) =   2
                l(6) =   2
     Q(r) pseudized with  8 coefficients,  rinner =    1.150   1.150   1.150
                                                       1.150   1.150

     PseudoPot. # 2 for Hf read from file:
     /home/users/vossj/suncat/psp/gbrv1.5pbe/Hf.UPF
     MD5 check sum: 8ee9378dfe14276e333edf04c5e4aa26
     Pseudo is Ultrasoft + core correction, Zval = 12.0
     Generated by new atomic code, or converted to UPF format
     Using radial grid of  921 points,  8 beta functions with:
                l(1) =   0
                l(2) =   0
                l(3) =   0
                l(4) =   1
                l(5) =   1
                l(6) =   2
                l(7) =   2
                l(8) =   3
     Q(r) pseudized with  6 coefficients,  rinner =    1.200   1.200   1.200
                                                       1.200   1.200   1.200
                                                       1.200

     vdW kernel table read from file vdW_kernel_table
     MD5 check sum: 095c7af220d748ca6e76c0b4c6cfb241

     atomic species   valence    mass     pseudopotential
        Cu1           19.00    63.54600     Cu( 1.00)
        Hf1           12.00   178.49000     Hf( 1.00)

     16 Sym. Ops., with inversion, found

   Cartesian axes

     site n.     atom                  positions (alat units)
         1           Cu1 tau(   1) = (   0.0000000   0.0000000   0.0000000  )
         2           Cu1 tau(   2) = (   2.2758939   2.2758939   0.0000000  )
         3           Hf1 tau(   3) = (   2.2758939   0.0000000   1.6454168  )
         4           Hf1 tau(   4) = (   0.0000000   2.2758939   1.6454168  )

     number of k points=    75  Fermi-Dirac smearing, width (Ry)=  0.0073
                       cart. coord. in units 2pi/alat
        k(    1) = (   0.0000000   0.0000000   0.0000000), wk =   0.0027435
        k(    2) = (   0.0000000   0.0000000   0.0337638), wk =   0.0054870
        k(    3) = (   0.0000000   0.0000000   0.0675276), wk =   0.0054870
        k(    4) = (   0.0000000   0.0000000   0.1012915), wk =   0.0054870
        k(    5) = (   0.0000000   0.0000000   0.1350553), wk =   0.0054870
        k(    6) = (   0.0000000   0.0244104   0.0000000), wk =   0.0109739
        k(    7) = (   0.0000000   0.0244104   0.0337638), wk =   0.0219479
        k(    8) = (   0.0000000   0.0244104   0.0675276), wk =   0.0219479
        k(    9) = (   0.0000000   0.0244104   0.1012915), wk =   0.0219479
        k(   10) = (   0.0000000   0.0244104   0.1350553), wk =   0.0219479
        k(   11) = (   0.0000000   0.0488209   0.0000000), wk =   0.0109739
        k(   12) = (   0.0000000   0.0488209   0.0337638), wk =   0.0219479
        k(   13) = (   0.0000000   0.0488209   0.0675276), wk =   0.0219479
        k(   14) = (   0.0000000   0.0488209   0.1012915), wk =   0.0219479
        k(   15) = (   0.0000000   0.0488209   0.1350553), wk =   0.0219479
        k(   16) = (   0.0000000   0.0732313   0.0000000), wk =   0.0109739
        k(   17) = (   0.0000000   0.0732313   0.0337638), wk =   0.0219479
        k(   18) = (   0.0000000   0.0732313   0.0675276), wk =   0.0219479
        k(   19) = (   0.0000000   0.0732313   0.1012915), wk =   0.0219479
        k(   20) = (   0.0000000   0.0732313   0.1350553), wk =   0.0219479
        k(   21) = (   0.0000000   0.0976417   0.0000000), wk =   0.0109739
        k(   22) = (   0.0000000   0.0976417   0.0337638), wk =   0.0219479
        k(   23) = (   0.0000000   0.0976417   0.0675276), wk =   0.0219479
        k(   24) = (   0.0000000   0.0976417   0.1012915), wk =   0.0219479
        k(   25) = (   0.0000000   0.0976417   0.1350553), wk =   0.0219479
        k(   26) = (   0.0244104   0.0244104   0.0000000), wk =   0.0109739
        k(   27) = (   0.0244104   0.0244104   0.0337638), wk =   0.0219479
        k(   28) = (   0.0244104   0.0244104   0.0675276), wk =   0.0219479
        k(   29) = (   0.0244104   0.0244104   0.1012915), wk =   0.0219479
        k(   30) = (   0.0244104   0.0244104   0.1350553), wk =   0.0219479
        k(   31) = (   0.0244104   0.0488209   0.0000000), wk =   0.0219479
        k(   32) = (   0.0244104   0.0488209   0.0337638), wk =   0.0438957
        k(   33) = (   0.0244104   0.0488209   0.0675276), wk =   0.0438957
        k(   34) = (   0.0244104   0.0488209   0.1012915), wk =   0.0438957
        k(   35) = (   0.0244104   0.0488209   0.1350553), wk =   0.0438957
        k(   36) = (   0.0244104   0.0732313   0.0000000), wk =   0.0219479
        k(   37) = (   0.0244104   0.0732313   0.0337638), wk =   0.0438957
        k(   38) = (   0.0244104   0.0732313   0.0675276), wk =   0.0438957
        k(   39) = (   0.0244104   0.0732313   0.1012915), wk =   0.0438957
        k(   40) = (   0.0244104   0.0732313   0.1350553), wk =   0.0438957
        k(   41) = (   0.0244104   0.0976417   0.0000000), wk =   0.0219479
        k(   42) = (   0.0244104   0.0976417   0.0337638), wk =   0.0438957
        k(   43) = (   0.0244104   0.0976417   0.0675276), wk =   0.0438957
        k(   44) = (   0.0244104   0.0976417   0.1012915), wk =   0.0438957
        k(   45) = (   0.0244104   0.0976417   0.1350553), wk =   0.0438957
        k(   46) = (   0.0488209   0.0488209   0.0000000), wk =   0.0109739
        k(   47) = (   0.0488209   0.0488209   0.0337638), wk =   0.0219479
        k(   48) = (   0.0488209   0.0488209   0.0675276), wk =   0.0219479
        k(   49) = (   0.0488209   0.0488209   0.1012915), wk =   0.0219479
        k(   50) = (   0.0488209   0.0488209   0.1350553), wk =   0.0219479
        k(   51) = (   0.0488209   0.0732313   0.0000000), wk =   0.0219479
        k(   52) = (   0.0488209   0.0732313   0.0337638), wk =   0.0438957
        k(   53) = (   0.0488209   0.0732313   0.0675276), wk =   0.0438957
        k(   54) = (   0.0488209   0.0732313   0.1012915), wk =   0.0438957
        k(   55) = (   0.0488209   0.0732313   0.1350553), wk =   0.0438957
        k(   56) = (   0.0488209   0.0976417   0.0000000), wk =   0.0219479
        k(   57) = (   0.0488209   0.0976417   0.0337638), wk =   0.0438957
        k(   58) = (   0.0488209   0.0976417   0.0675276), wk =   0.0438957
        k(   59) = (   0.0488209   0.0976417   0.1012915), wk =   0.0438957
        k(   60) = (   0.0488209   0.0976417   0.1350553), wk =   0.0438957
        k(   61) = (   0.0732313   0.0732313   0.0000000), wk =   0.0109739
        k(   62) = (   0.0732313   0.0732313   0.0337638), wk =   0.0219479
        k(   63) = (   0.0732313   0.0732313   0.0675276), wk =   0.0219479
        k(   64) = (   0.0732313   0.0732313   0.1012915), wk =   0.0219479
        k(   65) = (   0.0732313   0.0732313   0.1350553), wk =   0.0219479
        k(   66) = (   0.0732313   0.0976417   0.0000000), wk =   0.0219479
        k(   67) = (   0.0732313   0.0976417   0.0337638), wk =   0.0438957
        k(   68) = (   0.0732313   0.0976417   0.0675276), wk =   0.0438957
        k(   69) = (   0.0732313   0.0976417   0.1012915), wk =   0.0438957
        k(   70) = (   0.0732313   0.0976417   0.1350553), wk =   0.0438957
        k(   71) = (   0.0976417   0.0976417   0.0000000), wk =   0.0109739
        k(   72) = (   0.0976417   0.0976417   0.0337638), wk =   0.0219479
        k(   73) = (   0.0976417   0.0976417   0.0675276), wk =   0.0219479
        k(   74) = (   0.0976417   0.0976417   0.1012915), wk =   0.0219479
        k(   75) = (   0.0976417   0.0976417   0.1350553), wk =   0.0219479

     Largest allocated arrays     est. size (Mb)     dimensions
     Largest temporary arrays     est. size (Mb)     dimensions

     Initial potential from superposition of free atoms
     Check: negative starting charge=   -0.215726

     starting charge   55.99999, renormalised to   62.00000

     negative rho (up, down):  2.388E-01 0.000E+00

     *
     * You are using vdW-DF for exchange-correlation in this calculation.
     * Please cite the following three references that made this development
     * possible:
     *
     *   M. Dion, H. Rydberg, E. Schroder, D. C. Langreth, and
     *   B. I. Lundqvist, Phys. Rev. Lett. 92, 246401 (2004).
     *
     *   T. Thonhauser, V. R. Cooper, S. Li, A. Puzder, P. Hyldgaard, and
     *   D. C. Langreth, Phys. Rev. B 76, 125112 (2007).
     *
     *   G. Roman-Perez and J. M. Soler, Phys. Rev. Lett. 103, 096102 (2009).
     *
     *
     * If you are using vdW-DF2, please also cite:
     *
     *   K. Lee, E. D. Murray, L. Kong, B. I. Lundqvist, and
     *   D. C. Langreth, Phys. Rev. B 82, 081101(R) (2010).
     *
     *
     * If you are calculating the stress with vdW-DF, please also cite:
     *
     *   R. Sabatini, E. Kucukbenli, B. Kolb, T. Thonhauser, and
     *   S. de Gironcoli, J. Phys.: Condens. Matter 24, 424209 (2012).
     *

     Carrying out vdW-DF run using the following parameters:

     Nqs =      20    Nr_points =    1024   r_max =   100.000
     q_mesh =
               0.00001000     0.04494208     0.09755937     0.15916263
               0.23128650     0.31572767     0.41458969     0.53033537
               0.66584808     0.82450364     1.01025438     1.22772762
               1.48234092     1.78043706     2.12944203     2.53805004
               3.01644009     3.57652955     4.23227104     5.00000000

     Gradients computed in reciprocal space

     Starting wfc are   52 randomized atomic wfcs

     Self-consistent Calculation

     iteration #  1     ecut=    58.80 Ry     beta=0.10
     Davidson diagonalization with overlap
     ethr =  1.00E-02,  avg # of iterations =  4.6

[...]

     total energy              =   -1125.33154748 Ry
     Harris-Foulkes estimate   =   -1151.18626551 Ry
     estimated scf accuracy    <     145.18720080 Ry

[...]

     total energy              =   -1131.14634781 Ry
     Harris-Foulkes estimate   =   -1131.14633999 Ry
     estimated scf accuracy    <       0.00000103 Ry

     iteration # 15     ecut=    58.80 Ry     beta=0.10
     Davidson diagonalization with overlap
     ethr =  1.67E-09,  avg # of iterations =  2.0

     negative rho (up, down):  2.355E-01 0.000E+00

     End of self-consistent calculation

          k = 0.0000 0.0000 0.0000 (  3507 PWs)   bands (ev):

   -98.1201 -98.1199 -55.4971 -55.4967 -55.4923 -55.4923 -55.4897 -55.4897
   -47.4253 -47.3935 -16.1067 -16.1067 -15.8372 -15.7892 -15.7892 -15.7721
     6.8974  10.2143  10.5995  10.7789  10.8129  11.4250  11.4250  11.8753
    11.8753  11.9210  12.3075  12.9653  15.0432  15.1229  15.3638  15.3638
    15.5466  18.1645  18.1645  19.6366  19.6366  19.7768  21.2241  21.4695
    22.0624  22.0624  23.2601  24.5595  25.7064  27.8157  27.8157  27.8398
    30.5344  30.5823  31.9219

[...]

          k = 0.0976 0.0976 0.1351 (  3470 PWs)   bands (ev):

   -98.1199 -98.1199 -55.4990 -55.4989 -55.4924 -55.4923 -55.4894 -55.4893
   -47.3984 -47.3975 -16.1156 -16.1066 -16.0808 -16.0781 -15.7439 -15.7343
    10.2354  10.2620  10.6106  10.6358  11.5069  11.5114  11.5133  11.5343
    12.2222  12.2435  12.7896  12.8498  14.5728  14.6753  15.1817  15.2372
    15.6801  15.8597  18.2184  18.3720  18.3927  18.5327  20.9612  21.0097
    22.9585  22.9726  24.1973  24.7155  26.4152  26.5479  28.0689  28.2232
    28.3103  28.3224  33.1337

     the Fermi energy is    15.1029 ev

!    total energy              =   -1131.14635895 Ry
     Harris-Foulkes estimate   =   -1131.14634799 Ry
     estimated scf accuracy    <       0.00000005 Ry

     The total energy is the sum of the following terms:

     one-electron contribution =    -680.70756497 Ry
     hartree contribution      =     371.36204997 Ry
     xc contribution           =    -234.76206466 Ry
     ewald contribution        =    -587.02574777 Ry
     smearing contrib. (-TS)   =      -0.01303153 Ry

     convergence has been achieved in  15 iterations

     Forces acting on atoms (Ry/au):

     negative rho (up, down):  2.355E-01 0.000E+00
     atom    1 type  1   force =     0.00000000    0.00000000    0.00000000
     atom    2 type  1   force =     0.00000000    0.00000000    0.00000000
     atom    3 type  2   force =     0.00000000    0.00000000    0.00000000
     atom    4 type  2   force =     0.00000000    0.00000000    0.00000000

     Total force =     0.000000     Total SCF correction =     0.000000

     General routines

     Parallel routines

   This run was terminated on:   9: 0:40  14Nov2017

   JOB DONE.