     Program PWSCF v.5.1rc2 starts on 14Nov2017 at  0:41:40

     Current dimensions of program PWSCF are:
     Max number of different atomic species (ntypx) = 10
     Max number of k-points (npk) =  40000
     Max angular momentum in pseudopotentials (lmaxx) =  3

     IMPORTANT: XC functional enforced from input :
     Exchange-correlation      = BEEF-VDW ( 1  4 27 13 2)
     Any further DFT definition will be discarded
     Please, verify this is what you really want

     Found symmetry operation: I + ( -0.5000 -0.5000  0.0000)
     This is a supercell, fractional translations are disabled

     bravais-lattice index     =            0
     lattice parameter (alat)  =       1.8897  a.u.
     unit-cell volume          =     334.2383 (a.u.)^3
     number of atoms/cell      =            4
     number of atomic types    =            2
     number of electrons       =        36.00
     number of Kohn-Sham states=           38
     kinetic-energy cutoff     =      58.7989  Ry
     charge density cutoff     =     587.9892  Ry
     convergence threshold     =      1.0E-06
     mixing beta               =       0.1000
     number of iterations used =           10  plain     mixing
     Exchange-correlation      = BEEF-VDW ( 1  4 27 13 2)

     celldm(1)=   1.889726  celldm(2)=   0.000000  celldm(3)=   0.000000
     celldm(4)=   0.000000  celldm(5)=   0.000000  celldm(6)=   0.000000

     crystal axes: (cart. coord. in units of alat)
               a(1) = (   4.113606   0.000000   0.000000 )
               a(2) = (   0.000000   4.113606   0.000000 )
               a(3) = (   0.000000   0.000000   2.926943 )

     reciprocal axes: (cart. coord. in units 2 pi/alat)
               b(1) = (  0.243096  0.000000  0.000000 )
               b(2) = (  0.000000  0.243096  0.000000 )
               b(3) = (  0.000000  0.000000  0.341653 )

     PseudoPot. # 1 for Al read from file:
     /home/users/vossj/suncat/psp/gbrv1.5pbe/Al.UPF
     MD5 check sum: 0a6289f5291fc8f409219462bc851e1f
     Pseudo is Ultrasoft + core correction, Zval =  3.0
     Generated by new atomic code, or converted to UPF format
     Using radial grid of  893 points,  3 beta functions with:
                l(1) =   0
                l(2) =   1
                l(3) =   2
     Q(r) pseudized with  8 coefficients,  rinner =    0.900   0.900   0.900
                                                       0.900   0.900

     PseudoPot. # 2 for Mn read from file:
     /home/users/vossj/suncat/psp/gbrv1.5pbe/Mn.UPF
     MD5 check sum: 82ef2b46521d7a7d9e736dc3972e4928
     Pseudo is Ultrasoft + core correction, Zval = 15.0
     Generated by new atomic code, or converted to UPF format
     Using radial grid of  859 points,  6 beta functions with:
                l(1) =   0
                l(2) =   0
                l(3) =   1
                l(4) =   1
                l(5) =   2
                l(6) =   2
     Q(r) pseudized with  8 coefficients,  rinner =    0.950   0.950   0.950
                                                       0.950   0.950

     vdW kernel table read from file vdW_kernel_table
     MD5 check sum: 095c7af220d748ca6e76c0b4c6cfb241

     atomic species   valence    mass     pseudopotential
        Al1            3.00    26.98154     Al( 1.00)
        Mn1           15.00    54.93800     Mn( 1.00)

     16 Sym. Ops., with inversion, found

   Cartesian axes

     site n.     atom                  positions (alat units)
         1           Al1 tau(   1) = (   0.0000000   0.0000000   0.0000000  )
         2           Al1 tau(   2) = (   2.0568028   2.0568028   0.0000000  )
         3           Mn1 tau(   3) = (   2.0568028   0.0000000   1.4634717  )
         4           Mn1 tau(   4) = (   0.0000000   2.0568028   1.4634717  )

     number of k points=    75  Fermi-Dirac smearing, width (Ry)=  0.0073
                       cart. coord. in units 2pi/alat
        k(    1) = (   0.0000000   0.0000000   0.0000000), wk =   0.0027435
        k(    2) = (   0.0000000   0.0000000   0.0379615), wk =   0.0054870
        k(    3) = (   0.0000000   0.0000000   0.0759230), wk =   0.0054870
        k(    4) = (   0.0000000   0.0000000   0.1138845), wk =   0.0054870
        k(    5) = (   0.0000000   0.0000000   0.1518459), wk =   0.0054870
        k(    6) = (   0.0000000   0.0270106   0.0000000), wk =   0.0109739
        k(    7) = (   0.0000000   0.0270106   0.0379615), wk =   0.0219479
        k(    8) = (   0.0000000   0.0270106   0.0759230), wk =   0.0219479
        k(    9) = (   0.0000000   0.0270106   0.1138845), wk =   0.0219479
        k(   10) = (   0.0000000   0.0270106   0.1518459), wk =   0.0219479
        k(   11) = (   0.0000000   0.0540213   0.0000000), wk =   0.0109739
        k(   12) = (   0.0000000   0.0540213   0.0379615), wk =   0.0219479
        k(   13) = (   0.0000000   0.0540213   0.0759230), wk =   0.0219479
        k(   14) = (   0.0000000   0.0540213   0.1138845), wk =   0.0219479
        k(   15) = (   0.0000000   0.0540213   0.1518459), wk =   0.0219479
        k(   16) = (   0.0000000   0.0810319   0.0000000), wk =   0.0109739
        k(   17) = (   0.0000000   0.0810319   0.0379615), wk =   0.0219479
        k(   18) = (   0.0000000   0.0810319   0.0759230), wk =   0.0219479
        k(   19) = (   0.0000000   0.0810319   0.1138845), wk =   0.0219479
        k(   20) = (   0.0000000   0.0810319   0.1518459), wk =   0.0219479
        k(   21) = (   0.0000000   0.1080425   0.0000000), wk =   0.0109739
        k(   22) = (   0.0000000   0.1080425   0.0379615), wk =   0.0219479
        k(   23) = (   0.0000000   0.1080425   0.0759230), wk =   0.0219479
        k(   24) = (   0.0000000   0.1080425   0.1138845), wk =   0.0219479
        k(   25) = (   0.0000000   0.1080425   0.1518459), wk =   0.0219479
        k(   26) = (   0.0270106   0.0270106   0.0000000), wk =   0.0109739
        k(   27) = (   0.0270106   0.0270106   0.0379615), wk =   0.0219479
        k(   28) = (   0.0270106   0.0270106   0.0759230), wk =   0.0219479
        k(   29) = (   0.0270106   0.0270106   0.1138845), wk =   0.0219479
        k(   30) = (   0.0270106   0.0270106   0.1518459), wk =   0.0219479
        k(   31) = (   0.0270106   0.0540213   0.0000000), wk =   0.0219479
        k(   32) = (   0.0270106   0.0540213   0.0379615), wk =   0.0438957
        k(   33) = (   0.0270106   0.0540213   0.0759230), wk =   0.0438957
        k(   34) = (   0.0270106   0.0540213   0.1138845), wk =   0.0438957
        k(   35) = (   0.0270106   0.0540213   0.1518459), wk =   0.0438957
        k(   36) = (   0.0270106   0.0810319   0.0000000), wk =   0.0219479
        k(   37) = (   0.0270106   0.0810319   0.0379615), wk =   0.0438957
        k(   38) = (   0.0270106   0.0810319   0.0759230), wk =   0.0438957
        k(   39) = (   0.0270106   0.0810319   0.1138845), wk =   0.0438957
        k(   40) = (   0.0270106   0.0810319   0.1518459), wk =   0.0438957
        k(   41) = (   0.0270106   0.1080425   0.0000000), wk =   0.0219479
        k(   42) = (   0.0270106   0.1080425   0.0379615), wk =   0.0438957
        k(   43) = (   0.0270106   0.1080425   0.0759230), wk =   0.0438957
        k(   44) = (   0.0270106   0.1080425   0.1138845), wk =   0.0438957
        k(   45) = (   0.0270106   0.1080425   0.1518459), wk =   0.0438957
        k(   46) = (   0.0540213   0.0540213   0.0000000), wk =   0.0109739
        k(   47) = (   0.0540213   0.0540213   0.0379615), wk =   0.0219479
        k(   48) = (   0.0540213   0.0540213   0.0759230), wk =   0.0219479
        k(   49) = (   0.0540213   0.0540213   0.1138845), wk =   0.0219479
        k(   50) = (   0.0540213   0.0540213   0.1518459), wk =   0.0219479
        k(   51) = (   0.0540213   0.0810319   0.0000000), wk =   0.0219479
        k(   52) = (   0.0540213   0.0810319   0.0379615), wk =   0.0438957
        k(   53) = (   0.0540213   0.0810319   0.0759230), wk =   0.0438957
        k(   54) = (   0.0540213   0.0810319   0.1138845), wk =   0.0438957
        k(   55) = (   0.0540213   0.0810319   0.1518459), wk =   0.0438957
        k(   56) = (   0.0540213   0.1080425   0.0000000), wk =   0.0219479
        k(   57) = (   0.0540213   0.1080425   0.0379615), wk =   0.0438957
        k(   58) = (   0.0540213   0.1080425   0.0759230), wk =   0.0438957
        k(   59) = (   0.0540213   0.1080425   0.1138845), wk =   0.0438957
        k(   60) = (   0.0540213   0.1080425   0.1518459), wk =   0.0438957
        k(   61) = (   0.0810319   0.0810319   0.0000000), wk =   0.0109739
        k(   62) = (   0.0810319   0.0810319   0.0379615), wk =   0.0219479
        k(   63) = (   0.0810319   0.0810319   0.0759230), wk =   0.0219479
        k(   64) = (   0.0810319   0.0810319   0.1138845), wk =   0.0219479
        k(   65) = (   0.0810319   0.0810319   0.1518459), wk =   0.0219479
        k(   66) = (   0.0810319   0.1080425   0.0000000), wk =   0.0219479
        k(   67) = (   0.0810319   0.1080425   0.0379615), wk =   0.0438957
        k(   68) = (   0.0810319   0.1080425   0.0759230), wk =   0.0438957
        k(   69) = (   0.0810319   0.1080425   0.1138845), wk =   0.0438957
        k(   70) = (   0.0810319   0.1080425   0.1518459), wk =   0.0438957
        k(   71) = (   0.1080425   0.1080425   0.0000000), wk =   0.0109739
        k(   72) = (   0.1080425   0.1080425   0.0379615), wk =   0.0219479
        k(   73) = (   0.1080425   0.1080425   0.0759230), wk =   0.0219479
        k(   74) = (   0.1080425   0.1080425   0.1138845), wk =   0.0219479
        k(   75) = (   0.1080425   0.1080425   0.1518459), wk =   0.0219479

     Largest allocated arrays     est. size (Mb)     dimensions
     Largest temporary arrays     est. size (Mb)     dimensions

     Check: negative/imaginary core charge=   -0.000026    0.000000

     Initial potential from superposition of free atoms

     starting charge   34.99490, renormalised to   36.00000

     *
     * You are using vdW-DF for exchange-correlation in this calculation.
     * Please cite the following three references that made this development
     * possible:
     *
     *   M. Dion, H. Rydberg, E. Schroder, D. C. Langreth, and
     *   B. I. Lundqvist, Phys. Rev. Lett. 92, 246401 (2004).
     *
     *   T. Thonhauser, V. R. Cooper, S. Li, A. Puzder, P. Hyldgaard, and
     *   D. C. Langreth, Phys. Rev. B 76, 125112 (2007).
     *
     *   G. Roman-Perez and J. M. Soler, Phys. Rev. Lett. 103, 096102 (2009).
     *
     *
     * If you are using vdW-DF2, please also cite:
     *
     *   K. Lee, E. D. Murray, L. Kong, B. I. Lundqvist, and
     *   D. C. Langreth, Phys. Rev. B 82, 081101(R) (2010).
     *
     *
     * If you are calculating the stress with vdW-DF, please also cite:
     *
     *   R. Sabatini, E. Kucukbenli, B. Kolb, T. Thonhauser, and
     *   S. de Gironcoli, J. Phys.: Condens. Matter 24, 424209 (2012).
     *

     Carrying out vdW-DF run using the following parameters:

     Nqs =      20    Nr_points =    1024   r_max =   100.000
     q_mesh =
               0.00001000     0.04494208     0.09755937     0.15916263
               0.23128650     0.31572767     0.41458969     0.53033537
               0.66584808     0.82450364     1.01025438     1.22772762
               1.48234092     1.78043706     2.12944203     2.53805004
               3.01644009     3.57652955     4.23227104     5.00000000

     Gradients computed in reciprocal space

     Starting wfc are   34 randomized atomic wfcs +    4 random wfc

     Self-consistent Calculation

     iteration #  1     ecut=    58.80 Ry     beta=0.10
     Davidson diagonalization with overlap
     ethr =  1.00E-02,  avg # of iterations =  4.2

     total energy              =    -438.03431758 Ry
     Harris-Foulkes estimate   =    -438.71321159 Ry
     estimated scf accuracy    <       3.93980866 Ry

[...]

     total energy              =    -438.10003363 Ry
     Harris-Foulkes estimate   =    -438.10003436 Ry
     estimated scf accuracy    <       0.00000648 Ry

     iteration # 10     ecut=    58.80 Ry     beta=0.10
     Davidson diagonalization with overlap
     ethr =  1.80E-08,  avg # of iterations =  1.1

     End of self-consistent calculation

          k = 0.0000 0.0000 0.0000 (  2569 PWs)   bands (ev):

   -65.4500 -65.4360 -34.2385 -34.2385 -34.1623 -34.1623 -34.1605 -34.1457
     3.1505   8.5032  11.2031  11.2090  11.2258  11.2765  11.2765  12.8946
    12.8946  13.7299  13.7299  13.7503  14.5255  17.2798  17.8504  19.3019
    19.5149  19.5149  22.6893  22.7203  25.1292  28.4517  28.7196  28.7196
    29.0411  29.2920  29.2920  32.7332  34.5257  34.5257

[...]

          k = 0.1080 0.1080 0.1518 (  2546 PWs)   bands (ev):

   -65.4370 -65.4365 -34.2391 -34.2369 -34.2294 -34.2288 -34.1508 -34.1485
     8.3241   8.4463  10.5135  10.6541  11.2277  11.2324  11.6635  11.8693
    12.9357  12.9571  13.0303  13.0563  14.5522  14.5813  17.3492  17.3952
    17.8892  18.0510  24.7463  25.2290  27.4274  27.5844  27.6792  28.9255
    28.9961  29.4232  29.4594  30.3036  30.5453  31.1995

     the Fermi energy is    13.2560 ev

!    total energy              =    -438.10004603 Ry
     Harris-Foulkes estimate   =    -438.10003455 Ry
     estimated scf accuracy    <       0.00000077 Ry

     The total energy is the sum of the following terms:

     one-electron contribution =    -248.12323205 Ry
     hartree contribution      =     141.61502362 Ry
     xc contribution           =     -64.29820094 Ry
     ewald contribution        =    -267.27347311 Ry
     smearing contrib. (-TS)   =      -0.02016356 Ry

     convergence has been achieved in  10 iterations

     Forces acting on atoms (Ry/au):

     atom    1 type  1   force =     0.00000000    0.00000000    0.00000000
     atom    2 type  1   force =     0.00000000    0.00000000    0.00000000
     atom    3 type  2   force =     0.00000000    0.00000000    0.00000000
     atom    4 type  2   force =     0.00000000    0.00000000    0.00000000

     Total force =     0.000000     Total SCF correction =     0.000000

     General routines

     Parallel routines

   This run was terminated on:   0:41:58  14Nov2017

   JOB DONE.