     Program PWSCF v.5.1rc2 starts on 14Nov2017 at  3: 6:16

     Current dimensions of program PWSCF are:
     Max number of different atomic species (ntypx) = 10
     Max number of k-points (npk) =  40000
     Max angular momentum in pseudopotentials (lmaxx) =  3

     IMPORTANT: XC functional enforced from input :
     Exchange-correlation      = BEEF-VDW ( 1  4 27 13 2)
     Any further DFT definition will be discarded
     Please, verify this is what you really want

     Found symmetry operation: I + ( -0.5000 -0.5000  0.0000)
     This is a supercell, fractional translations are disabled

     bravais-lattice index     =            0
     lattice parameter (alat)  =       1.8897  a.u.
     unit-cell volume          =     473.0758 (a.u.)^3
     number of atoms/cell      =            4
     number of atomic types    =            2
     number of electrons       =        54.00
     number of Kohn-Sham states=           47
     kinetic-energy cutoff     =      58.7989  Ry
     charge density cutoff     =     587.9892  Ry
     convergence threshold     =      1.0E-06
     mixing beta               =       0.1000
     number of iterations used =           10  plain     mixing
     Exchange-correlation      = BEEF-VDW ( 1  4 27 13 2)

     celldm(1)=   1.889726  celldm(2)=   0.000000  celldm(3)=   0.000000
     celldm(4)=   0.000000  celldm(5)=   0.000000  celldm(6)=   0.000000

     crystal axes: (cart. coord. in units of alat)
               a(1) = (   3.862182   0.000000   0.000000 )
               a(2) = (   0.000000   3.862182   0.000000 )
               a(3) = (   0.000000   0.000000   4.699683 )

     reciprocal axes: (cart. coord. in units 2 pi/alat)
               b(1) = (  0.258921  0.000000  0.000000 )
               b(2) = (  0.000000  0.258921  0.000000 )
               b(3) = (  0.000000  0.000000  0.212780 )

     PseudoPot. # 1 for Cd read from file:
     /home/users/vossj/suncat/psp/gbrv1.5pbe/Cd.UPF
     MD5 check sum: 17164a7926edb8e0dc231208abae86a6
     Pseudo is Ultrasoft + core correction, Zval = 12.0
     Generated by new atomic code, or converted to UPF format
     Using radial grid of  889 points,  6 beta functions with:
                l(1) =   0
                l(2) =   0
                l(3) =   1
                l(4) =   1
                l(5) =   2
                l(6) =   2
     Q(r) pseudized with  6 coefficients,  rinner =    1.000   1.000   1.000
                                                       1.000   1.000

     PseudoPot. # 2 for Re read from file:
     /home/users/vossj/suncat/psp/gbrv1.5pbe/Re.UPF
     MD5 check sum: 85f993410f3e006da9d71c142b4ad953
     Pseudo is Ultrasoft + core correction, Zval = 15.0
     Generated by new atomic code, or converted to UPF format
     Using radial grid of  981 points,  8 beta functions with:
                l(1) =   0
                l(2) =   0
                l(3) =   1
                l(4) =   1
                l(5) =   2
                l(6) =   2
                l(7) =   3
                l(8) =   3
     Q(r) pseudized with  8 coefficients,  rinner =    1.150   1.150   1.150
                                                       1.150   1.150   1.150
                                                       1.150

     vdW kernel table read from file vdW_kernel_table
     MD5 check sum: 095c7af220d748ca6e76c0b4c6cfb241

     atomic species   valence    mass     pseudopotential
        Cd1           12.00   112.41000     Cd( 1.00)
        Re1           15.00   186.20700     Re( 1.00)

     16 Sym. Ops., with inversion, found

   Cartesian axes

     site n.     atom                  positions (alat units)
         1           Cd1 tau(   1) = (   0.0000000   0.0000000   0.0000000  )
         2           Cd1 tau(   2) = (   1.9310912   1.9310912   0.0000000  )
         3           Re1 tau(   3) = (   1.9310912   0.0000000   2.3498417  )
         4           Re1 tau(   4) = (   0.0000000   1.9310912   2.3498417  )

     number of k points=    75  Fermi-Dirac smearing, width (Ry)=  0.0073
                       cart. coord. in units 2pi/alat
        k(    1) = (   0.0000000   0.0000000   0.0000000), wk =   0.0027435
        k(    2) = (   0.0000000   0.0000000   0.0236423), wk =   0.0054870
        k(    3) = (   0.0000000   0.0000000   0.0472845), wk =   0.0054870
        k(    4) = (   0.0000000   0.0000000   0.0709268), wk =   0.0054870
        k(    5) = (   0.0000000   0.0000000   0.0945690), wk =   0.0054870
        k(    6) = (   0.0000000   0.0287690   0.0000000), wk =   0.0109739
        k(    7) = (   0.0000000   0.0287690   0.0236423), wk =   0.0219479
        k(    8) = (   0.0000000   0.0287690   0.0472845), wk =   0.0219479
        k(    9) = (   0.0000000   0.0287690   0.0709268), wk =   0.0219479
        k(   10) = (   0.0000000   0.0287690   0.0945690), wk =   0.0219479
        k(   11) = (   0.0000000   0.0575380   0.0000000), wk =   0.0109739
        k(   12) = (   0.0000000   0.0575380   0.0236423), wk =   0.0219479
        k(   13) = (   0.0000000   0.0575380   0.0472845), wk =   0.0219479
        k(   14) = (   0.0000000   0.0575380   0.0709268), wk =   0.0219479
        k(   15) = (   0.0000000   0.0575380   0.0945690), wk =   0.0219479
        k(   16) = (   0.0000000   0.0863070   0.0000000), wk =   0.0109739
        k(   17) = (   0.0000000   0.0863070   0.0236423), wk =   0.0219479
        k(   18) = (   0.0000000   0.0863070   0.0472845), wk =   0.0219479
        k(   19) = (   0.0000000   0.0863070   0.0709268), wk =   0.0219479
        k(   20) = (   0.0000000   0.0863070   0.0945690), wk =   0.0219479
        k(   21) = (   0.0000000   0.1150760   0.0000000), wk =   0.0109739
        k(   22) = (   0.0000000   0.1150760   0.0236423), wk =   0.0219479
        k(   23) = (   0.0000000   0.1150760   0.0472845), wk =   0.0219479
        k(   24) = (   0.0000000   0.1150760   0.0709268), wk =   0.0219479
        k(   25) = (   0.0000000   0.1150760   0.0945690), wk =   0.0219479
        k(   26) = (   0.0287690   0.0287690   0.0000000), wk =   0.0109739
        k(   27) = (   0.0287690   0.0287690   0.0236423), wk =   0.0219479
        k(   28) = (   0.0287690   0.0287690   0.0472845), wk =   0.0219479
        k(   29) = (   0.0287690   0.0287690   0.0709268), wk =   0.0219479
        k(   30) = (   0.0287690   0.0287690   0.0945690), wk =   0.0219479
        k(   31) = (   0.0287690   0.0575380   0.0000000), wk =   0.0219479
        k(   32) = (   0.0287690   0.0575380   0.0236423), wk =   0.0438957
        k(   33) = (   0.0287690   0.0575380   0.0472845), wk =   0.0438957
        k(   34) = (   0.0287690   0.0575380   0.0709268), wk =   0.0438957
        k(   35) = (   0.0287690   0.0575380   0.0945690), wk =   0.0438957
        k(   36) = (   0.0287690   0.0863070   0.0000000), wk =   0.0219479
        k(   37) = (   0.0287690   0.0863070   0.0236423), wk =   0.0438957
        k(   38) = (   0.0287690   0.0863070   0.0472845), wk =   0.0438957
        k(   39) = (   0.0287690   0.0863070   0.0709268), wk =   0.0438957
        k(   40) = (   0.0287690   0.0863070   0.0945690), wk =   0.0438957
        k(   41) = (   0.0287690   0.1150760   0.0000000), wk =   0.0219479
        k(   42) = (   0.0287690   0.1150760   0.0236423), wk =   0.0438957
        k(   43) = (   0.0287690   0.1150760   0.0472845), wk =   0.0438957
        k(   44) = (   0.0287690   0.1150760   0.0709268), wk =   0.0438957
        k(   45) = (   0.0287690   0.1150760   0.0945690), wk =   0.0438957
        k(   46) = (   0.0575380   0.0575380   0.0000000), wk =   0.0109739
        k(   47) = (   0.0575380   0.0575380   0.0236423), wk =   0.0219479
        k(   48) = (   0.0575380   0.0575380   0.0472845), wk =   0.0219479
        k(   49) = (   0.0575380   0.0575380   0.0709268), wk =   0.0219479
        k(   50) = (   0.0575380   0.0575380   0.0945690), wk =   0.0219479
        k(   51) = (   0.0575380   0.0863070   0.0000000), wk =   0.0219479
        k(   52) = (   0.0575380   0.0863070   0.0236423), wk =   0.0438957
        k(   53) = (   0.0575380   0.0863070   0.0472845), wk =   0.0438957
        k(   54) = (   0.0575380   0.0863070   0.0709268), wk =   0.0438957
        k(   55) = (   0.0575380   0.0863070   0.0945690), wk =   0.0438957
        k(   56) = (   0.0575380   0.1150760   0.0000000), wk =   0.0219479
        k(   57) = (   0.0575380   0.1150760   0.0236423), wk =   0.0438957
        k(   58) = (   0.0575380   0.1150760   0.0472845), wk =   0.0438957
        k(   59) = (   0.0575380   0.1150760   0.0709268), wk =   0.0438957
        k(   60) = (   0.0575380   0.1150760   0.0945690), wk =   0.0438957
        k(   61) = (   0.0863070   0.0863070   0.0000000), wk =   0.0109739
        k(   62) = (   0.0863070   0.0863070   0.0236423), wk =   0.0219479
        k(   63) = (   0.0863070   0.0863070   0.0472845), wk =   0.0219479
        k(   64) = (   0.0863070   0.0863070   0.0709268), wk =   0.0219479
        k(   65) = (   0.0863070   0.0863070   0.0945690), wk =   0.0219479
        k(   66) = (   0.0863070   0.1150760   0.0000000), wk =   0.0219479
        k(   67) = (   0.0863070   0.1150760   0.0236423), wk =   0.0438957
        k(   68) = (   0.0863070   0.1150760   0.0472845), wk =   0.0438957
        k(   69) = (   0.0863070   0.1150760   0.0709268), wk =   0.0438957
        k(   70) = (   0.0863070   0.1150760   0.0945690), wk =   0.0438957
        k(   71) = (   0.1150760   0.1150760   0.0000000), wk =   0.0109739
        k(   72) = (   0.1150760   0.1150760   0.0236423), wk =   0.0219479
        k(   73) = (   0.1150760   0.1150760   0.0472845), wk =   0.0219479
        k(   74) = (   0.1150760   0.1150760   0.0709268), wk =   0.0219479
        k(   75) = (   0.1150760   0.1150760   0.0945690), wk =   0.0219479

     Largest allocated arrays     est. size (Mb)     dimensions
     Largest temporary arrays     est. size (Mb)     dimensions

     Initial potential from superposition of free atoms
     Check: negative starting charge=   -0.299847

     starting charge   51.99983, renormalised to   54.00000

     negative rho (up, down):  3.114E-01 0.000E+00

     *
     * You are using vdW-DF for exchange-correlation in this calculation.
     * Please cite the following three references that made this development
     * possible:
     *
     *   M. Dion, H. Rydberg, E. Schroder, D. C. Langreth, and
     *   B. I. Lundqvist, Phys. Rev. Lett. 92, 246401 (2004).
     *
     *   T. Thonhauser, V. R. Cooper, S. Li, A. Puzder, P. Hyldgaard, and
     *   D. C. Langreth, Phys. Rev. B 76, 125112 (2007).
     *
     *   G. Roman-Perez and J. M. Soler, Phys. Rev. Lett. 103, 096102 (2009).
     *
     *
     * If you are using vdW-DF2, please also cite:
     *
     *   K. Lee, E. D. Murray, L. Kong, B. I. Lundqvist, and
     *   D. C. Langreth, Phys. Rev. B 82, 081101(R) (2010).
     *
     *
     * If you are calculating the stress with vdW-DF, please also cite:
     *
     *   R. Sabatini, E. Kucukbenli, B. Kolb, T. Thonhauser, and
     *   S. de Gironcoli, J. Phys.: Condens. Matter 24, 424209 (2012).
     *

     Carrying out vdW-DF run using the following parameters:

     Nqs =      20    Nr_points =    1024   r_max =   100.000
     q_mesh =
               0.00001000     0.04494208     0.09755937     0.15916263
               0.23128650     0.31572767     0.41458969     0.53033537
               0.66584808     0.82450364     1.01025438     1.22772762
               1.48234092     1.78043706     2.12944203     2.53805004
               3.01644009     3.57652955     4.23227104     5.00000000

     Gradients computed in reciprocal space

     Starting wfc are   44 randomized atomic wfcs +    3 random wfc

     Self-consistent Calculation

     iteration #  1     ecut=    58.80 Ry     beta=0.10
     Davidson diagonalization with overlap
     ethr =  1.00E-02,  avg # of iterations =  4.7

     Threshold (ethr) on eigenvalues was too large:
     Diagonalizing with lowered threshold

     Davidson diagonalization with overlap
     ethr =  8.78E-04,  avg # of iterations =  1.1

[...]

     total energy              =    -616.47478934 Ry
     Harris-Foulkes estimate   =    -616.54088761 Ry
     estimated scf accuracy    <       0.47227876 Ry

[...]

     total energy              =    -616.36832675 Ry
     Harris-Foulkes estimate   =    -616.36831876 Ry
     estimated scf accuracy    <       0.00001015 Ry

     iteration # 10     ecut=    58.80 Ry     beta=0.10
     Davidson diagonalization with overlap
     ethr =  1.88E-08,  avg # of iterations =  1.6

     negative rho (up, down):  3.131E-01 0.000E+00

     End of self-consistent calculation

          k = 0.0000 0.0000 0.0000 (  3581 PWs)   bands (ev):

   -63.2724 -63.1911 -25.2437 -25.2437 -24.9002 -24.7606 -24.6628 -24.6628
     6.8178   6.9329   7.2746   7.6619   7.6619   7.8223   8.4553   8.6630
     8.6630   8.9984   9.5986  12.9107  13.1527  13.3153  15.7500  15.7500
    15.8911  17.4113  18.5598  18.5598  18.7392  18.7392  20.0310  21.5366
    21.9902  24.3994  24.4629  26.5460  26.5610  26.5610  26.9709  28.7923
    28.7924  31.4102  32.5645  32.9750  34.6469  34.6469  35.2310

[...]

          k = 0.1151 0.1151 0.0946 (  3600 PWs)   bands (ev):

   -63.2326 -63.2302 -25.3204 -25.3036 -24.8315 -24.8273 -24.6261 -24.6078
     7.2763   7.3430   7.3642   7.3776   8.2537   8.3211   8.4903   8.5204
     8.7457   8.7760  12.7991  13.0997  13.4319  13.6601  15.1500  15.2377
    16.0382  16.2726  17.3123  17.3486  17.5042  17.8471  18.8773  18.8905
    20.8794  21.1062  24.0402  24.0976  28.1922  28.2302  29.3195  29.5648
    33.5465  33.5992  33.7242  33.7403  34.1439  34.5674  36.7980

     the Fermi energy is    17.4588 ev

!    total energy              =    -616.36837210 Ry
     Harris-Foulkes estimate   =    -616.36832795 Ry
     estimated scf accuracy    <       0.00000077 Ry

     The total energy is the sum of the following terms:

     one-electron contribution =     -79.06465045 Ry
     hartree contribution      =      83.03788722 Ry
     xc contribution           =    -189.98108130 Ry
     ewald contribution        =    -430.35161372 Ry
     smearing contrib. (-TS)   =      -0.00891385 Ry

     convergence has been achieved in  10 iterations

     Forces acting on atoms (Ry/au):

     negative rho (up, down):  3.131E-01 0.000E+00
     atom    1 type  1   force =     0.00000000    0.00000000    0.00000000
     atom    2 type  1   force =     0.00000000    0.00000000    0.00000000
     atom    3 type  2   force =     0.00000000    0.00000000    0.00000000
     atom    4 type  2   force =     0.00000000    0.00000000    0.00000000

     Total force =     0.000000     Total SCF correction =     0.000000

     General routines

     Parallel routines

   This run was terminated on:   3: 6:56  14Nov2017

   JOB DONE.