     Program PWSCF v.5.1rc2 starts on 15Nov2017 at  6:58:52

     Current dimensions of program PWSCF are:
     Max number of different atomic species (ntypx) = 10
     Max number of k-points (npk) =  40000
     Max angular momentum in pseudopotentials (lmaxx) =  3

     IMPORTANT: XC functional enforced from input :
     Exchange-correlation      = BEEF-VDW ( 1  4 27 13 2)
     Any further DFT definition will be discarded
     Please, verify this is what you really want

     Found symmetry operation: I + ( -0.5000 -0.5000  0.0000)
     This is a supercell, fractional translations are disabled

     bravais-lattice index     =            0
     lattice parameter (alat)  =       1.8897  a.u.
     unit-cell volume          =     891.2183 (a.u.)^3
     number of atoms/cell      =            4
     number of atomic types    =            2
     number of electrons       =        54.00
     number of Kohn-Sham states=           47
     kinetic-energy cutoff     =      58.7989  Ry
     charge density cutoff     =     587.9892  Ry
     convergence threshold     =      1.0E-06
     mixing beta               =       0.1000
     number of iterations used =           10  plain     mixing
     Exchange-correlation      = BEEF-VDW ( 1  4 27 13 2)

     celldm(1)=   1.889726  celldm(2)=   0.000000  celldm(3)=   0.000000
     celldm(4)=   0.000000  celldm(5)=   0.000000  celldm(6)=   0.000000

     crystal axes: (cart. coord. in units of alat)
               a(1) = (   5.034295   0.000000   0.000000 )
               a(2) = (   0.000000   5.034295   0.000000 )
               a(3) = (   0.000000   0.000000   5.210869 )

     reciprocal axes: (cart. coord. in units 2 pi/alat)
               b(1) = (  0.198638  0.000000  0.000000 )
               b(2) = (  0.000000  0.198638  0.000000 )
               b(3) = (  0.000000  0.000000  0.191907 )

     PseudoPot. # 1 for Tl read from file:
     /home/users/vossj/suncat/psp/gbrv1.5pbe/Tl.UPF
     MD5 check sum: b76cf1f7e72655a2b2c53cf6385d7059
     Pseudo is Ultrasoft + core correction, Zval = 13.0
     Generated by new atomic code, or converted to UPF format
     Using radial grid of  899 points,  6 beta functions with:
                l(1) =   0
                l(2) =   0
                l(3) =   1
                l(4) =   1
                l(5) =   2
                l(6) =   2
     Q(r) pseudized with  6 coefficients,  rinner =    1.100   1.100   1.100
                                                       1.100   1.100

     PseudoPot. # 2 for Pb read from file:
     /home/users/vossj/suncat/psp/gbrv1.5pbe/Pb.UPF
     MD5 check sum: 3d1c1779aa92214d1e8f3a7db79003e2
     Pseudo is Ultrasoft + core correction, Zval = 14.0
     Generated by new atomic code, or converted to UPF format
     Using radial grid of  899 points,  6 beta functions with:
                l(1) =   0
                l(2) =   0
                l(3) =   1
                l(4) =   1
                l(5) =   2
                l(6) =   2
     Q(r) pseudized with  6 coefficients,  rinner =    1.000   1.000   1.000
                                                       1.000   1.000

     vdW kernel table read from file vdW_kernel_table
     MD5 check sum: 095c7af220d748ca6e76c0b4c6cfb241

     atomic species   valence    mass     pseudopotential
        Tl1           13.00   204.38300     Tl( 1.00)
        Pb1           14.00   207.20000     Pb( 1.00)

     16 Sym. Ops., with inversion, found

   Cartesian axes

     site n.     atom                  positions (alat units)
         1           Tl1 tau(   1) = (   0.0000000   0.0000000   0.0000000  )
         2           Tl1 tau(   2) = (   2.5171475   2.5171475   0.0000000  )
         3           Pb1 tau(   3) = (   2.5171475   0.0000000   2.6054345  )
         4           Pb1 tau(   4) = (   0.0000000   2.5171475   2.6054345  )

     number of k points=    75  Fermi-Dirac smearing, width (Ry)=  0.0073
                       cart. coord. in units 2pi/alat
        k(    1) = (   0.0000000   0.0000000   0.0000000), wk =   0.0027435
        k(    2) = (   0.0000000   0.0000000   0.0213230), wk =   0.0054870
        k(    3) = (   0.0000000   0.0000000   0.0426459), wk =   0.0054870
        k(    4) = (   0.0000000   0.0000000   0.0639689), wk =   0.0054870
        k(    5) = (   0.0000000   0.0000000   0.0852918), wk =   0.0054870
        k(    6) = (   0.0000000   0.0220708   0.0000000), wk =   0.0109739
        k(    7) = (   0.0000000   0.0220708   0.0213230), wk =   0.0219479
        k(    8) = (   0.0000000   0.0220708   0.0426459), wk =   0.0219479
        k(    9) = (   0.0000000   0.0220708   0.0639689), wk =   0.0219479
        k(   10) = (   0.0000000   0.0220708   0.0852918), wk =   0.0219479
        k(   11) = (   0.0000000   0.0441417   0.0000000), wk =   0.0109739
        k(   12) = (   0.0000000   0.0441417   0.0213230), wk =   0.0219479
        k(   13) = (   0.0000000   0.0441417   0.0426459), wk =   0.0219479
        k(   14) = (   0.0000000   0.0441417   0.0639689), wk =   0.0219479
        k(   15) = (   0.0000000   0.0441417   0.0852918), wk =   0.0219479
        k(   16) = (   0.0000000   0.0662125   0.0000000), wk =   0.0109739
        k(   17) = (   0.0000000   0.0662125   0.0213230), wk =   0.0219479
        k(   18) = (   0.0000000   0.0662125   0.0426459), wk =   0.0219479
        k(   19) = (   0.0000000   0.0662125   0.0639689), wk =   0.0219479
        k(   20) = (   0.0000000   0.0662125   0.0852918), wk =   0.0219479
        k(   21) = (   0.0000000   0.0882834   0.0000000), wk =   0.0109739
        k(   22) = (   0.0000000   0.0882834   0.0213230), wk =   0.0219479
        k(   23) = (   0.0000000   0.0882834   0.0426459), wk =   0.0219479
        k(   24) = (   0.0000000   0.0882834   0.0639689), wk =   0.0219479
        k(   25) = (   0.0000000   0.0882834   0.0852918), wk =   0.0219479
        k(   26) = (   0.0220708   0.0220708   0.0000000), wk =   0.0109739
        k(   27) = (   0.0220708   0.0220708   0.0213230), wk =   0.0219479
        k(   28) = (   0.0220708   0.0220708   0.0426459), wk =   0.0219479
        k(   29) = (   0.0220708   0.0220708   0.0639689), wk =   0.0219479
        k(   30) = (   0.0220708   0.0220708   0.0852918), wk =   0.0219479
        k(   31) = (   0.0220708   0.0441417   0.0000000), wk =   0.0219479
        k(   32) = (   0.0220708   0.0441417   0.0213230), wk =   0.0438957
        k(   33) = (   0.0220708   0.0441417   0.0426459), wk =   0.0438957
        k(   34) = (   0.0220708   0.0441417   0.0639689), wk =   0.0438957
        k(   35) = (   0.0220708   0.0441417   0.0852918), wk =   0.0438957
        k(   36) = (   0.0220708   0.0662125   0.0000000), wk =   0.0219479
        k(   37) = (   0.0220708   0.0662125   0.0213230), wk =   0.0438957
        k(   38) = (   0.0220708   0.0662125   0.0426459), wk =   0.0438957
        k(   39) = (   0.0220708   0.0662125   0.0639689), wk =   0.0438957
        k(   40) = (   0.0220708   0.0662125   0.0852918), wk =   0.0438957
        k(   41) = (   0.0220708   0.0882834   0.0000000), wk =   0.0219479
        k(   42) = (   0.0220708   0.0882834   0.0213230), wk =   0.0438957
        k(   43) = (   0.0220708   0.0882834   0.0426459), wk =   0.0438957
        k(   44) = (   0.0220708   0.0882834   0.0639689), wk =   0.0438957
        k(   45) = (   0.0220708   0.0882834   0.0852918), wk =   0.0438957
        k(   46) = (   0.0441417   0.0441417   0.0000000), wk =   0.0109739
        k(   47) = (   0.0441417   0.0441417   0.0213230), wk =   0.0219479
        k(   48) = (   0.0441417   0.0441417   0.0426459), wk =   0.0219479
        k(   49) = (   0.0441417   0.0441417   0.0639689), wk =   0.0219479
        k(   50) = (   0.0441417   0.0441417   0.0852918), wk =   0.0219479
        k(   51) = (   0.0441417   0.0662125   0.0000000), wk =   0.0219479
        k(   52) = (   0.0441417   0.0662125   0.0213230), wk =   0.0438957
        k(   53) = (   0.0441417   0.0662125   0.0426459), wk =   0.0438957
        k(   54) = (   0.0441417   0.0662125   0.0639689), wk =   0.0438957
        k(   55) = (   0.0441417   0.0662125   0.0852918), wk =   0.0438957
        k(   56) = (   0.0441417   0.0882834   0.0000000), wk =   0.0219479
        k(   57) = (   0.0441417   0.0882834   0.0213230), wk =   0.0438957
        k(   58) = (   0.0441417   0.0882834   0.0426459), wk =   0.0438957
        k(   59) = (   0.0441417   0.0882834   0.0639689), wk =   0.0438957
        k(   60) = (   0.0441417   0.0882834   0.0852918), wk =   0.0438957
        k(   61) = (   0.0662125   0.0662125   0.0000000), wk =   0.0109739
        k(   62) = (   0.0662125   0.0662125   0.0213230), wk =   0.0219479
        k(   63) = (   0.0662125   0.0662125   0.0426459), wk =   0.0219479
        k(   64) = (   0.0662125   0.0662125   0.0639689), wk =   0.0219479
        k(   65) = (   0.0662125   0.0662125   0.0852918), wk =   0.0219479
        k(   66) = (   0.0662125   0.0882834   0.0000000), wk =   0.0219479
        k(   67) = (   0.0662125   0.0882834   0.0213230), wk =   0.0438957
        k(   68) = (   0.0662125   0.0882834   0.0426459), wk =   0.0438957
        k(   69) = (   0.0662125   0.0882834   0.0639689), wk =   0.0438957
        k(   70) = (   0.0662125   0.0882834   0.0852918), wk =   0.0438957
        k(   71) = (   0.0882834   0.0882834   0.0000000), wk =   0.0109739
        k(   72) = (   0.0882834   0.0882834   0.0213230), wk =   0.0219479
        k(   73) = (   0.0882834   0.0882834   0.0426459), wk =   0.0219479
        k(   74) = (   0.0882834   0.0882834   0.0639689), wk =   0.0219479
        k(   75) = (   0.0882834   0.0882834   0.0852918), wk =   0.0219479

     Largest allocated arrays     est. size (Mb)     dimensions
     Largest temporary arrays     est. size (Mb)     dimensions

     Initial potential from superposition of free atoms
     Check: negative starting charge=   -0.131729

     starting charge   53.98557, renormalised to   54.00000

     negative rho (up, down):  1.318E-01 0.000E+00

     *
     * You are using vdW-DF for exchange-correlation in this calculation.
     * Please cite the following three references that made this development
     * possible:
     *
     *   M. Dion, H. Rydberg, E. Schroder, D. C. Langreth, and
     *   B. I. Lundqvist, Phys. Rev. Lett. 92, 246401 (2004).
     *
     *   T. Thonhauser, V. R. Cooper, S. Li, A. Puzder, P. Hyldgaard, and
     *   D. C. Langreth, Phys. Rev. B 76, 125112 (2007).
     *
     *   G. Roman-Perez and J. M. Soler, Phys. Rev. Lett. 103, 096102 (2009).
     *
     *
     * If you are using vdW-DF2, please also cite:
     *
     *   K. Lee, E. D. Murray, L. Kong, B. I. Lundqvist, and
     *   D. C. Langreth, Phys. Rev. B 82, 081101(R) (2010).
     *
     *
     * If you are calculating the stress with vdW-DF, please also cite:
     *
     *   R. Sabatini, E. Kucukbenli, B. Kolb, T. Thonhauser, and
     *   S. de Gironcoli, J. Phys.: Condens. Matter 24, 424209 (2012).
     *

     Carrying out vdW-DF run using the following parameters:

     Nqs =      20    Nr_points =    1024   r_max =   100.000
     q_mesh =
               0.00001000     0.04494208     0.09755937     0.15916263
               0.23128650     0.31572767     0.41458969     0.53033537
               0.66584808     0.82450364     1.01025438     1.22772762
               1.48234092     1.78043706     2.12944203     2.53805004
               3.01644009     3.57652955     4.23227104     5.00000000

     Gradients computed in reciprocal space

     Starting wfc are   36 randomized atomic wfcs +   11 random wfc

     Self-consistent Calculation

     iteration #  1     ecut=    58.80 Ry     beta=0.10
     Davidson diagonalization with overlap
     ethr =  1.00E-02,  avg # of iterations =  6.2

     Threshold (ethr) on eigenvalues was too large:
     Diagonalizing with lowered threshold

     Davidson diagonalization with overlap
     ethr =  6.72E-06,  avg # of iterations =  9.1

[...]

     total energy              =    -625.66668292 Ry
     Harris-Foulkes estimate   =    -625.66111561 Ry
     estimated scf accuracy    <       0.00343219 Ry

[...]

     total energy              =    -625.68270462 Ry
     Harris-Foulkes estimate   =    -625.68081127 Ry
     estimated scf accuracy    <       0.00000571 Ry

     iteration #  7     ecut=    58.80 Ry     beta=0.10
     Davidson diagonalization with overlap
     ethr =  1.06E-08,  avg # of iterations =  3.0

     negative rho (up, down):  1.390E-01 0.000E+00

     End of self-consistent calculation

          k = 0.0000 0.0000 0.0000 (  6837 PWs)   bands (ev):

    -8.1575  -8.0820  -8.0745  -8.0505  -8.0505  -7.9835  -7.9835  -7.9687
    -7.9296  -7.8432  -2.6006  -2.5100  -2.4501  -2.3759  -2.3759  -2.2523
    -2.2523  -2.2241  -2.1952  -2.0514  -1.0837   2.6477   3.8669   5.3201
     6.9727   7.1815   7.1815  11.4273  12.0568  12.0568  12.2831  12.2831
    12.8697  15.2516  15.4487  15.6267  16.5743  16.5743  16.8262  17.1973
    17.2883  17.2883  19.5993  19.6757  19.7037  21.1005  22.1844

[...]

          k = 0.0883 0.0883 0.0853 (  6798 PWs)   bands (ev):

    -8.0981  -8.0917  -8.0628  -8.0609  -7.9940  -7.9897  -7.9793  -7.9772
    -7.9339  -7.9274  -2.4878  -2.4866  -2.4848  -2.4738  -2.3161  -2.3068
    -2.2471  -2.2426  -2.1897  -2.1797   1.3118   1.4276   3.5814   3.7519
     6.1584   6.2357   6.5960   6.8141  14.3350  14.5831  14.7017  14.7248
    15.2343  15.3622  16.2524  16.6146  18.6595  18.6940  18.8710  19.0355
    19.1693  19.2956  19.6859  19.7975  19.8590  19.8750  20.5376

     the Fermi energy is     9.3113 ev

!    total energy              =    -625.69076330 Ry
     Harris-Foulkes estimate   =    -625.68270732 Ry
     estimated scf accuracy    <       0.00000060 Ry

     The total energy is the sum of the following terms:

     one-electron contribution =    -122.51657947 Ry
     hartree contribution      =     102.96416611 Ry
     xc contribution           =    -258.59730755 Ry
     ewald contribution        =    -347.53622495 Ry
     smearing contrib. (-TS)   =      -0.00481743 Ry

     convergence has been achieved in   7 iterations

     Forces acting on atoms (Ry/au):

     negative rho (up, down):  1.390E-01 0.000E+00
     atom    1 type  1   force =     0.00000000    0.00000000    0.00000000
     atom    2 type  1   force =     0.00000000    0.00000000    0.00000000
     atom    3 type  2   force =     0.00000000    0.00000000    0.00000000
     atom    4 type  2   force =     0.00000000    0.00000000    0.00000000

     Total force =     0.000000     Total SCF correction =     0.000000

     General routines

     Parallel routines

   This run was terminated on:   6:59:47  15Nov2017

   JOB DONE.