     Program PWSCF v.5.1rc2 (svn rev. ) starts on 18Feb2018 at 17:37:13

     Current dimensions of program PWSCF are:
     Max number of different atomic species (ntypx) = 10
     Max number of k-points (npk) =  40000
     Max angular momentum in pseudopotentials (lmaxx) =  3

     IMPORTANT: XC functional enforced from input :
     Exchange-correlation      = BEEF-VDW ( 1  4 27 13 2)
     Any further DFT definition will be discarded
     Please, verify this is what you really want

     Subspace diagonalization in iterative solution of the eigenvalue problem:
     a serial algorithm will be used

     Found symmetry operation: I + ( -0.5000 -0.5000  0.0000)
     This is a supercell, fractional translations are disabled

     bravais-lattice index     =            0
     lattice parameter (alat)  =       1.8897  a.u.
     unit-cell volume          =     898.9453 (a.u.)^3
     number of atoms/cell      =            4
     number of atomic types    =            2
     number of electrons       =        58.00
     number of Kohn-Sham states=           49
     kinetic-energy cutoff     =      58.7989  Ry
     charge density cutoff     =     587.9892  Ry
     convergence threshold     =      1.0E-06
     mixing beta               =       0.1000
     number of iterations used =           10  plain     mixing
     Exchange-correlation      = BEEF-VDW ( 1  4 27 13 2)

     celldm(1)=   1.889726  celldm(2)=   0.000000  celldm(3)=   0.000000
     celldm(4)=   0.000000  celldm(5)=   0.000000  celldm(6)=   0.000000

     crystal axes: (cart. coord. in units of alat)
               a(1) = (   5.038480   0.000000   0.000000 )
               a(2) = (   0.000000   5.038480   0.000000 )
               a(3) = (   0.000000   0.000000   5.247320 )

     reciprocal axes: (cart. coord. in units 2 pi/alat)
               b(1) = (  0.198473  0.000000  0.000000 )
               b(2) = (  0.000000  0.198473  0.000000 )
               b(3) = (  0.000000  0.000000  0.190573 )

     PseudoPot. # 1 for Pb read from file:
     /home/mamunm/src/pseudo/gbrv1.5pbe/Pb.UPF
     MD5 check sum: 3d1c1779aa92214d1e8f3a7db79003e2
     Pseudo is Ultrasoft + core correction, Zval = 14.0
     Generated by new atomic code, or converted to UPF format
     Using radial grid of  899 points,  6 beta functions with:
                l(1) =   0
                l(2) =   0
                l(3) =   1
                l(4) =   1
                l(5) =   2
                l(6) =   2
     Q(r) pseudized with  6 coefficients,  rinner =    1.000   1.000   1.000
                                                       1.000   1.000

     PseudoPot. # 2 for Bi read from file:
     /home/mamunm/src/pseudo/gbrv1.5pbe/Bi.UPF
     MD5 check sum: 81103212dc04adf40945787f699eab19
     Pseudo is Ultrasoft + core correction, Zval = 15.0
     Generated by new atomic code, or converted to UPF format
     Using radial grid of  899 points,  6 beta functions with:
                l(1) =   0
                l(2) =   0
                l(3) =   1
                l(4) =   1
                l(5) =   2
                l(6) =   2
     Q(r) pseudized with  6 coefficients,  rinner =    1.000   1.000   1.000
                                                       1.000   1.000

     vdW kernel table read from file vdW_kernel_table
     MD5 check sum: 095c7af220d748ca6e76c0b4c6cfb241

     atomic species   valence    mass     pseudopotential
        Pb1           14.00   207.20000     Pb( 1.00)
        Bi1           15.00   208.98040     Bi( 1.00)

     16 Sym. Ops., with inversion, found

   Cartesian axes

     site n.     atom                  positions (alat units)
         1           Pb1 tau(   1) = (   0.0000000   0.0000000   0.0000000  )
         2           Pb1 tau(   2) = (   2.5192401   2.5192401   0.0000000  )
         3           Bi1 tau(   3) = (   2.5192401   0.0000000   2.6236600  )
         4           Bi1 tau(   4) = (   0.0000000   2.5192401   2.6236600  )

     number of k points=    75  Fermi-Dirac smearing, width (Ry)=  0.0073
                       cart. coord. in units 2pi/alat
        k(    1) = (   0.0000000   0.0000000   0.0000000), wk =   0.0027435
        k(    2) = (   0.0000000   0.0000000   0.0211748), wk =   0.0054870
        k(    3) = (   0.0000000   0.0000000   0.0423497), wk =   0.0054870
        k(    4) = (   0.0000000   0.0000000   0.0635245), wk =   0.0054870
        k(    5) = (   0.0000000   0.0000000   0.0846993), wk =   0.0054870
        k(    6) = (   0.0000000   0.0220525   0.0000000), wk =   0.0109739
        k(    7) = (   0.0000000   0.0220525   0.0211748), wk =   0.0219479
        k(    8) = (   0.0000000   0.0220525   0.0423497), wk =   0.0219479
        k(    9) = (   0.0000000   0.0220525   0.0635245), wk =   0.0219479
        k(   10) = (   0.0000000   0.0220525   0.0846993), wk =   0.0219479
        k(   11) = (   0.0000000   0.0441050   0.0000000), wk =   0.0109739
        k(   12) = (   0.0000000   0.0441050   0.0211748), wk =   0.0219479
        k(   13) = (   0.0000000   0.0441050   0.0423497), wk =   0.0219479
        k(   14) = (   0.0000000   0.0441050   0.0635245), wk =   0.0219479
        k(   15) = (   0.0000000   0.0441050   0.0846993), wk =   0.0219479
        k(   16) = (   0.0000000   0.0661575   0.0000000), wk =   0.0109739
        k(   17) = (   0.0000000   0.0661575   0.0211748), wk =   0.0219479
        k(   18) = (   0.0000000   0.0661575   0.0423497), wk =   0.0219479
        k(   19) = (   0.0000000   0.0661575   0.0635245), wk =   0.0219479
        k(   20) = (   0.0000000   0.0661575   0.0846993), wk =   0.0219479
        k(   21) = (   0.0000000   0.0882100   0.0000000), wk =   0.0109739
        k(   22) = (   0.0000000   0.0882100   0.0211748), wk =   0.0219479
        k(   23) = (   0.0000000   0.0882100   0.0423497), wk =   0.0219479
        k(   24) = (   0.0000000   0.0882100   0.0635245), wk =   0.0219479
        k(   25) = (   0.0000000   0.0882100   0.0846993), wk =   0.0219479
        k(   26) = (   0.0220525   0.0220525   0.0000000), wk =   0.0109739
        k(   27) = (   0.0220525   0.0220525   0.0211748), wk =   0.0219479
        k(   28) = (   0.0220525   0.0220525   0.0423497), wk =   0.0219479
        k(   29) = (   0.0220525   0.0220525   0.0635245), wk =   0.0219479
        k(   30) = (   0.0220525   0.0220525   0.0846993), wk =   0.0219479
        k(   31) = (   0.0220525   0.0441050   0.0000000), wk =   0.0219479
        k(   32) = (   0.0220525   0.0441050   0.0211748), wk =   0.0438957
        k(   33) = (   0.0220525   0.0441050   0.0423497), wk =   0.0438957
        k(   34) = (   0.0220525   0.0441050   0.0635245), wk =   0.0438957
        k(   35) = (   0.0220525   0.0441050   0.0846993), wk =   0.0438957
        k(   36) = (   0.0220525   0.0661575   0.0000000), wk =   0.0219479
        k(   37) = (   0.0220525   0.0661575   0.0211748), wk =   0.0438957
        k(   38) = (   0.0220525   0.0661575   0.0423497), wk =   0.0438957
        k(   39) = (   0.0220525   0.0661575   0.0635245), wk =   0.0438957
        k(   40) = (   0.0220525   0.0661575   0.0846993), wk =   0.0438957
        k(   41) = (   0.0220525   0.0882100   0.0000000), wk =   0.0219479
        k(   42) = (   0.0220525   0.0882100   0.0211748), wk =   0.0438957
        k(   43) = (   0.0220525   0.0882100   0.0423497), wk =   0.0438957
        k(   44) = (   0.0220525   0.0882100   0.0635245), wk =   0.0438957
        k(   45) = (   0.0220525   0.0882100   0.0846993), wk =   0.0438957
        k(   46) = (   0.0441050   0.0441050   0.0000000), wk =   0.0109739
        k(   47) = (   0.0441050   0.0441050   0.0211748), wk =   0.0219479
        k(   48) = (   0.0441050   0.0441050   0.0423497), wk =   0.0219479
        k(   49) = (   0.0441050   0.0441050   0.0635245), wk =   0.0219479
        k(   50) = (   0.0441050   0.0441050   0.0846993), wk =   0.0219479
        k(   51) = (   0.0441050   0.0661575   0.0000000), wk =   0.0219479
        k(   52) = (   0.0441050   0.0661575   0.0211748), wk =   0.0438957
        k(   53) = (   0.0441050   0.0661575   0.0423497), wk =   0.0438957
        k(   54) = (   0.0441050   0.0661575   0.0635245), wk =   0.0438957
        k(   55) = (   0.0441050   0.0661575   0.0846993), wk =   0.0438957
        k(   56) = (   0.0441050   0.0882100   0.0000000), wk =   0.0219479
        k(   57) = (   0.0441050   0.0882100   0.0211748), wk =   0.0438957
        k(   58) = (   0.0441050   0.0882100   0.0423497), wk =   0.0438957
        k(   59) = (   0.0441050   0.0882100   0.0635245), wk =   0.0438957
        k(   60) = (   0.0441050   0.0882100   0.0846993), wk =   0.0438957
        k(   61) = (   0.0661575   0.0661575   0.0000000), wk =   0.0109739
        k(   62) = (   0.0661575   0.0661575   0.0211748), wk =   0.0219479
        k(   63) = (   0.0661575   0.0661575   0.0423497), wk =   0.0219479
        k(   64) = (   0.0661575   0.0661575   0.0635245), wk =   0.0219479
        k(   65) = (   0.0661575   0.0661575   0.0846993), wk =   0.0219479
        k(   66) = (   0.0661575   0.0882100   0.0000000), wk =   0.0219479
        k(   67) = (   0.0661575   0.0882100   0.0211748), wk =   0.0438957
        k(   68) = (   0.0661575   0.0882100   0.0423497), wk =   0.0438957
        k(   69) = (   0.0661575   0.0882100   0.0635245), wk =   0.0438957
        k(   70) = (   0.0661575   0.0882100   0.0846993), wk =   0.0438957
        k(   71) = (   0.0882100   0.0882100   0.0000000), wk =   0.0109739
        k(   72) = (   0.0882100   0.0882100   0.0211748), wk =   0.0219479
        k(   73) = (   0.0882100   0.0882100   0.0423497), wk =   0.0219479
        k(   74) = (   0.0882100   0.0882100   0.0635245), wk =   0.0219479
        k(   75) = (   0.0882100   0.0882100   0.0846993), wk =   0.0219479

     Largest allocated arrays     est. size (Mb)     dimensions
     Largest temporary arrays     est. size (Mb)     dimensions

     Initial potential from superposition of free atoms
     Check: negative starting charge=   -0.114635

     starting charge   55.99521, renormalised to   58.00000

     negative rho (up, down):  1.187E-01 0.000E+00

     *
     * You are using vdW-DF for exchange-correlation in this calculation.
     * Please cite the following three references that made this development
     * possible:
     *
     *   M. Dion, H. Rydberg, E. Schroder, D. C. Langreth, and
     *   B. I. Lundqvist, Phys. Rev. Lett. 92, 246401 (2004).
     *
     *   T. Thonhauser, V. R. Cooper, S. Li, A. Puzder, P. Hyldgaard, and
     *   D. C. Langreth, Phys. Rev. B 76, 125112 (2007).
     *
     *   G. Roman-Perez and J. M. Soler, Phys. Rev. Lett. 103, 096102 (2009).
     *
     *
     * If you are using vdW-DF2, please also cite:
     *
     *   K. Lee, E. D. Murray, L. Kong, B. I. Lundqvist, and
     *   D. C. Langreth, Phys. Rev. B 82, 081101(R) (2010).
     *
     *
     * If you are calculating the stress with vdW-DF, please also cite:
     *
     *   R. Sabatini, E. Kucukbenli, B. Kolb, T. Thonhauser, and
     *   S. de Gironcoli, J. Phys.: Condens. Matter 24, 424209 (2012).
     *

     Carrying out vdW-DF run using the following parameters:

     Nqs =      20    Nr_points =    1024   r_max =   100.000
     q_mesh =
               0.00001000     0.04494208     0.09755937     0.15916263
               0.23128650     0.31572767     0.41458969     0.53033537
               0.66584808     0.82450364     1.01025438     1.22772762
               1.48234092     1.78043706     2.12944203     2.53805004
               3.01644009     3.57652955     4.23227104     5.00000000

     Gradients computed in reciprocal space

     Starting wfc are   36 randomized atomic wfcs +   13 random wfc

     Self-consistent Calculation

     iteration #  1     ecut=    58.80 Ry     beta=0.10
     Davidson diagonalization with overlap
     ethr =  1.00E-02,  avg # of iterations =  5.6

[...]

     total energy              =    -706.58584201 Ry
     Harris-Foulkes estimate   =    -706.71699249 Ry
     estimated scf accuracy    <       0.84879965 Ry

[...]

     iteration #  6     ecut=    58.80 Ry     beta=0.10
     Davidson diagonalization with overlap
     c_bands:  1 eigenvalues not converged
     c_bands:  1 eigenvalues not converged
     c_bands:  2 eigenvalues not converged
     ethr =  1.75E-05,  avg # of iterations =  9.3

[...]

     total energy              =    -706.40034902 Ry
     Harris-Foulkes estimate   =    -706.40025559 Ry
     estimated scf accuracy    <       0.00000209 Ry

     iteration # 19     ecut=    58.80 Ry     beta=0.10
     Davidson diagonalization with overlap
     ethr =  2.88E-09,  avg # of iterations =  2.3

     negative rho (up, down):  1.214E-01 0.000E+00

     End of self-consistent calculation

          k = 0.0000 0.0000 0.0000 (  6853 PWs)   bands (ev):

   -13.0536 -13.0065 -12.9676 -12.9625 -12.9625 -12.9363 -12.9297 -12.9297
   -12.9054 -12.8807  -7.3587  -7.2767  -7.2741  -7.2362  -7.2362  -7.1736
    -7.1736  -7.1605  -7.1292  -7.0477  -2.1084   0.8512   1.9819   3.3348
     6.5994   6.8280   6.8280  10.8195  11.2403  11.2403  11.6116  11.6116
    12.0862  14.7831  14.8662  15.1565  15.8607  15.9515  15.9515  16.0169
    16.0169  16.3422  19.4296  19.8727  20.5340  20.6507  21.4615  21.5327
    21.5327

[...]

          k = 0.0882 0.0882 0.0847 (  6843 PWs)   bands (ev):

   -13.0036 -12.9994 -12.9689 -12.9671 -12.9668 -12.9661 -12.9277 -12.9267
   -12.9032 -12.9003  -7.2967  -7.2902  -7.2610  -7.2590  -7.1918  -7.1874
    -7.1706  -7.1686  -7.1314  -7.1251  -0.2486  -0.1658   1.9197   2.0333
     5.9055   5.9722   6.2401   6.3837  13.3582  13.4736  13.6305  13.7213
    14.1057  14.2021  15.0518  15.4079  17.9295  18.1730  18.4250  18.5544
    18.8585  18.9324  19.0393  19.4919  20.1252  20.1702  20.5444  20.5785
    20.6584

     the Fermi energy is    10.3673 ev

!    total energy              =    -706.40069861 Ry
     Harris-Foulkes estimate   =    -706.40035031 Ry
     estimated scf accuracy    <       0.00000009 Ry

     The total energy is the sum of the following terms:

     one-electron contribution =    -165.65280254 Ry
     hartree contribution      =     122.74072130 Ry
     xc contribution           =    -263.74522712 Ry
     ewald contribution        =    -399.73790910 Ry
     smearing contrib. (-TS)   =      -0.00548115 Ry

     convergence has been achieved in  19 iterations

     Forces acting on atoms (Ry/au):

     negative rho (up, down):  1.214E-01 0.000E+00
     atom    1 type  1   force =     0.00000000    0.00000000    0.00000000
     atom    2 type  1   force =     0.00000000    0.00000000    0.00000000
     atom    3 type  2   force =     0.00000000    0.00000000    0.00000000
     atom    4 type  2   force =     0.00000000    0.00000000    0.00000000

     Total force =     0.000000     Total SCF correction =     0.000000

     General routines

     Parallel routines

   This run was terminated on:  17:39:20  18Feb2018

   JOB DONE.