     Program PWSCF v.5.1rc2 starts on 15Nov2017 at  8:28:11

     Current dimensions of program PWSCF are:
     Max number of different atomic species (ntypx) = 10
     Max number of k-points (npk) =  40000
     Max angular momentum in pseudopotentials (lmaxx) =  3

     IMPORTANT: XC functional enforced from input :
     Exchange-correlation      = BEEF-VDW ( 1  4 27 13 2)
     Any further DFT definition will be discarded
     Please, verify this is what you really want

     Found symmetry operation: I + ( -0.5000 -0.5000  0.0000)
     This is a supercell, fractional translations are disabled

     bravais-lattice index     =            0
     lattice parameter (alat)  =       1.8897  a.u.
     unit-cell volume          =     678.2690 (a.u.)^3
     number of atoms/cell      =            4
     number of atomic types    =            2
     number of electrons       =        54.00
     number of Kohn-Sham states=           47
     kinetic-energy cutoff     =      58.7989  Ry
     charge density cutoff     =     587.9892  Ry
     convergence threshold     =      1.0E-06
     mixing beta               =       0.1000
     number of iterations used =           10  plain     mixing
     Exchange-correlation      = BEEF-VDW ( 1  4 27 13 2)

     celldm(1)=   1.889726  celldm(2)=   0.000000  celldm(3)=   0.000000
     celldm(4)=   0.000000  celldm(5)=   0.000000  celldm(6)=   0.000000

     crystal axes: (cart. coord. in units of alat)
               a(1) = (   5.210253   0.000000   0.000000 )
               a(2) = (   0.000000   5.210253   0.000000 )
               a(3) = (   0.000000   0.000000   3.702437 )

     reciprocal axes: (cart. coord. in units 2 pi/alat)
               b(1) = (  0.191929  0.000000  0.000000 )
               b(2) = (  0.000000  0.191929  0.000000 )
               b(3) = (  0.000000  0.000000  0.270092 )

     PseudoPot. # 1 for La read from file:
     /home/users/vossj/suncat/psp/gbrv1.5pbe/La.UPF
     MD5 check sum: 5937b0c7494ba0601a847275249473aa
     Pseudo is Ultrasoft + core correction, Zval = 11.0
     Generated by new atomic code, or converted to UPF format
     Using radial grid of  995 points,  8 beta functions with:
                l(1) =   0
                l(2) =   0
                l(3) =   1
                l(4) =   1
                l(5) =   2
                l(6) =   2
                l(7) =   3
                l(8) =   3
     Q(r) pseudized with  8 coefficients,  rinner =    1.700   1.700   1.700
                                                       1.700   1.700   1.700
                                                       1.700

     PseudoPot. # 2 for Pt read from file:
     /home/users/vossj/suncat/psp/gbrv1.5pbe/Pt.UPF
     MD5 check sum: f09d6de1a584b5a045c4fc126da2d0c4
     Pseudo is Ultrasoft + core correction, Zval = 16.0
     Generated by new atomic code, or converted to UPF format
     Using radial grid of  985 points,  6 beta functions with:
                l(1) =   0
                l(2) =   0
                l(3) =   1
                l(4) =   1
                l(5) =   2
                l(6) =   2
     Q(r) pseudized with  8 coefficients,  rinner =    1.300   1.300   1.300
                                                       1.300   1.300

     vdW kernel table read from file vdW_kernel_table
     MD5 check sum: 095c7af220d748ca6e76c0b4c6cfb241

     atomic species   valence    mass     pseudopotential
        La1           11.00   138.90550     La( 1.00)
        Pt1           16.00   195.08000     Pt( 1.00)

     16 Sym. Ops., with inversion, found

   Cartesian axes

     site n.     atom                  positions (alat units)
         1           La1 tau(   1) = (   0.0000000   0.0000000   0.0000000  )
         2           La1 tau(   2) = (   2.6051267   2.6051267   0.0000000  )
         3           Pt1 tau(   3) = (   2.6051267   0.0000000   1.8512185  )
         4           Pt1 tau(   4) = (   0.0000000   2.6051267   1.8512185  )

     number of k points=    75  Fermi-Dirac smearing, width (Ry)=  0.0073
                       cart. coord. in units 2pi/alat
        k(    1) = (   0.0000000   0.0000000   0.0000000), wk =   0.0027435
        k(    2) = (   0.0000000   0.0000000   0.0300103), wk =   0.0054870
        k(    3) = (   0.0000000   0.0000000   0.0600205), wk =   0.0054870
        k(    4) = (   0.0000000   0.0000000   0.0900308), wk =   0.0054870
        k(    5) = (   0.0000000   0.0000000   0.1200411), wk =   0.0054870
        k(    6) = (   0.0000000   0.0213255   0.0000000), wk =   0.0109739
        k(    7) = (   0.0000000   0.0213255   0.0300103), wk =   0.0219479
        k(    8) = (   0.0000000   0.0213255   0.0600205), wk =   0.0219479
        k(    9) = (   0.0000000   0.0213255   0.0900308), wk =   0.0219479
        k(   10) = (   0.0000000   0.0213255   0.1200411), wk =   0.0219479
        k(   11) = (   0.0000000   0.0426509   0.0000000), wk =   0.0109739
        k(   12) = (   0.0000000   0.0426509   0.0300103), wk =   0.0219479
        k(   13) = (   0.0000000   0.0426509   0.0600205), wk =   0.0219479
        k(   14) = (   0.0000000   0.0426509   0.0900308), wk =   0.0219479
        k(   15) = (   0.0000000   0.0426509   0.1200411), wk =   0.0219479
        k(   16) = (   0.0000000   0.0639764   0.0000000), wk =   0.0109739
        k(   17) = (   0.0000000   0.0639764   0.0300103), wk =   0.0219479
        k(   18) = (   0.0000000   0.0639764   0.0600205), wk =   0.0219479
        k(   19) = (   0.0000000   0.0639764   0.0900308), wk =   0.0219479
        k(   20) = (   0.0000000   0.0639764   0.1200411), wk =   0.0219479
        k(   21) = (   0.0000000   0.0853019   0.0000000), wk =   0.0109739
        k(   22) = (   0.0000000   0.0853019   0.0300103), wk =   0.0219479
        k(   23) = (   0.0000000   0.0853019   0.0600205), wk =   0.0219479
        k(   24) = (   0.0000000   0.0853019   0.0900308), wk =   0.0219479
        k(   25) = (   0.0000000   0.0853019   0.1200411), wk =   0.0219479
        k(   26) = (   0.0213255   0.0213255   0.0000000), wk =   0.0109739
        k(   27) = (   0.0213255   0.0213255   0.0300103), wk =   0.0219479
        k(   28) = (   0.0213255   0.0213255   0.0600205), wk =   0.0219479
        k(   29) = (   0.0213255   0.0213255   0.0900308), wk =   0.0219479
        k(   30) = (   0.0213255   0.0213255   0.1200411), wk =   0.0219479
        k(   31) = (   0.0213255   0.0426509   0.0000000), wk =   0.0219479
        k(   32) = (   0.0213255   0.0426509   0.0300103), wk =   0.0438957
        k(   33) = (   0.0213255   0.0426509   0.0600205), wk =   0.0438957
        k(   34) = (   0.0213255   0.0426509   0.0900308), wk =   0.0438957
        k(   35) = (   0.0213255   0.0426509   0.1200411), wk =   0.0438957
        k(   36) = (   0.0213255   0.0639764   0.0000000), wk =   0.0219479
        k(   37) = (   0.0213255   0.0639764   0.0300103), wk =   0.0438957
        k(   38) = (   0.0213255   0.0639764   0.0600205), wk =   0.0438957
        k(   39) = (   0.0213255   0.0639764   0.0900308), wk =   0.0438957
        k(   40) = (   0.0213255   0.0639764   0.1200411), wk =   0.0438957
        k(   41) = (   0.0213255   0.0853019   0.0000000), wk =   0.0219479
        k(   42) = (   0.0213255   0.0853019   0.0300103), wk =   0.0438957
        k(   43) = (   0.0213255   0.0853019   0.0600205), wk =   0.0438957
        k(   44) = (   0.0213255   0.0853019   0.0900308), wk =   0.0438957
        k(   45) = (   0.0213255   0.0853019   0.1200411), wk =   0.0438957
        k(   46) = (   0.0426509   0.0426509   0.0000000), wk =   0.0109739
        k(   47) = (   0.0426509   0.0426509   0.0300103), wk =   0.0219479
        k(   48) = (   0.0426509   0.0426509   0.0600205), wk =   0.0219479
        k(   49) = (   0.0426509   0.0426509   0.0900308), wk =   0.0219479
        k(   50) = (   0.0426509   0.0426509   0.1200411), wk =   0.0219479
        k(   51) = (   0.0426509   0.0639764   0.0000000), wk =   0.0219479
        k(   52) = (   0.0426509   0.0639764   0.0300103), wk =   0.0438957
        k(   53) = (   0.0426509   0.0639764   0.0600205), wk =   0.0438957
        k(   54) = (   0.0426509   0.0639764   0.0900308), wk =   0.0438957
        k(   55) = (   0.0426509   0.0639764   0.1200411), wk =   0.0438957
        k(   56) = (   0.0426509   0.0853019   0.0000000), wk =   0.0219479
        k(   57) = (   0.0426509   0.0853019   0.0300103), wk =   0.0438957
        k(   58) = (   0.0426509   0.0853019   0.0600205), wk =   0.0438957
        k(   59) = (   0.0426509   0.0853019   0.0900308), wk =   0.0438957
        k(   60) = (   0.0426509   0.0853019   0.1200411), wk =   0.0438957
        k(   61) = (   0.0639764   0.0639764   0.0000000), wk =   0.0109739
        k(   62) = (   0.0639764   0.0639764   0.0300103), wk =   0.0219479
        k(   63) = (   0.0639764   0.0639764   0.0600205), wk =   0.0219479
        k(   64) = (   0.0639764   0.0639764   0.0900308), wk =   0.0219479
        k(   65) = (   0.0639764   0.0639764   0.1200411), wk =   0.0219479
        k(   66) = (   0.0639764   0.0853019   0.0000000), wk =   0.0219479
        k(   67) = (   0.0639764   0.0853019   0.0300103), wk =   0.0438957
        k(   68) = (   0.0639764   0.0853019   0.0600205), wk =   0.0438957
        k(   69) = (   0.0639764   0.0853019   0.0900308), wk =   0.0438957
        k(   70) = (   0.0639764   0.0853019   0.1200411), wk =   0.0438957
        k(   71) = (   0.0853019   0.0853019   0.0000000), wk =   0.0109739
        k(   72) = (   0.0853019   0.0853019   0.0300103), wk =   0.0219479
        k(   73) = (   0.0853019   0.0853019   0.0600205), wk =   0.0219479
        k(   74) = (   0.0853019   0.0853019   0.0900308), wk =   0.0219479
        k(   75) = (   0.0853019   0.0853019   0.1200411), wk =   0.0219479

     Largest allocated arrays     est. size (Mb)     dimensions
     Largest temporary arrays     est. size (Mb)     dimensions

     Initial potential from superposition of free atoms
     Check: negative starting charge=   -0.504326

     starting charge   52.93584, renormalised to   54.00000

     negative rho (up, down):  5.145E-01 0.000E+00

     *
     * You are using vdW-DF for exchange-correlation in this calculation.
     * Please cite the following three references that made this development
     * possible:
     *
     *   M. Dion, H. Rydberg, E. Schroder, D. C. Langreth, and
     *   B. I. Lundqvist, Phys. Rev. Lett. 92, 246401 (2004).
     *
     *   T. Thonhauser, V. R. Cooper, S. Li, A. Puzder, P. Hyldgaard, and
     *   D. C. Langreth, Phys. Rev. B 76, 125112 (2007).
     *
     *   G. Roman-Perez and J. M. Soler, Phys. Rev. Lett. 103, 096102 (2009).
     *
     *
     * If you are using vdW-DF2, please also cite:
     *
     *   K. Lee, E. D. Murray, L. Kong, B. I. Lundqvist, and
     *   D. C. Langreth, Phys. Rev. B 82, 081101(R) (2010).
     *
     *
     * If you are calculating the stress with vdW-DF, please also cite:
     *
     *   R. Sabatini, E. Kucukbenli, B. Kolb, T. Thonhauser, and
     *   S. de Gironcoli, J. Phys.: Condens. Matter 24, 424209 (2012).
     *

     Carrying out vdW-DF run using the following parameters:

     Nqs =      20    Nr_points =    1024   r_max =   100.000
     q_mesh =
               0.00001000     0.04494208     0.09755937     0.15916263
               0.23128650     0.31572767     0.41458969     0.53033537
               0.66584808     0.82450364     1.01025438     1.22772762
               1.48234092     1.78043706     2.12944203     2.53805004
               3.01644009     3.57652955     4.23227104     5.00000000

     Gradients computed in reciprocal space

     Starting wfc are   64 randomized atomic wfcs

     Self-consistent Calculation

     iteration #  1     ecut=    58.80 Ry     beta=0.10
     Davidson diagonalization with overlap
     ethr =  1.00E-02,  avg # of iterations =  2.0

[...]

     total energy              =    -632.73355062 Ry
     Harris-Foulkes estimate   =    -633.84598195 Ry
     estimated scf accuracy    <       6.40831987 Ry

[...]

     total energy              =    -633.15126076 Ry
     Harris-Foulkes estimate   =    -633.15123046 Ry
     estimated scf accuracy    <       0.00000201 Ry

     iteration # 13     ecut=    58.80 Ry     beta=0.10
     Davidson diagonalization with overlap
     ethr =  3.08E-09,  avg # of iterations =  2.1

     negative rho (up, down):  4.444E-01 0.000E+00

     End of self-consistent calculation

          k = 0.0000 0.0000 0.0000 (  5129 PWs)   bands (ev):

   -37.6117 -37.6117 -37.6101 -37.6091 -37.6050 -37.6050 -18.2089 -18.0514
    -2.1564  -2.1564  -1.4280  -1.4129  -1.4129  -1.2580   9.1672  10.1164
    10.7383  10.7468  11.0749  11.5866  11.5866  12.3034  12.3034  12.3246
    13.1396  13.5037  16.1119  16.1119  16.2566  16.2955  16.7386  16.7495
    16.7568  16.7568  16.7610  16.7723  16.7723  16.7800  16.7800  17.0234
    17.0557  17.1337  17.1672  17.9402  17.9402  19.5754  19.5754

[...]

          k = 0.0853 0.0853 0.1200 (  5166 PWs)   bands (ev):

   -37.6161 -37.6161 -37.6117 -37.6115 -37.6042 -37.6040 -18.0599 -18.0553
    -2.1661  -2.1467  -2.1235  -2.1157  -1.2791  -1.2545  10.1897  10.2001
    11.1208  11.1410  11.6324  11.6372  11.6405  11.6714  13.0354  13.0705
    13.3801  13.4408  15.9591  15.9881  16.0978  16.1669  16.7348  16.7453
    16.7469  16.7481  16.7692  16.7809  16.9346  16.9979  17.1248  17.1267
    17.1711  17.2864  17.7047  17.7253  17.8394  17.8497  19.4023

     the Fermi energy is    15.0725 ev

!    total energy              =    -633.15139327 Ry
     Harris-Foulkes estimate   =    -633.15126110 Ry
     estimated scf accuracy    <       0.00000005 Ry

     The total energy is the sum of the following terms:

     one-electron contribution =    -120.67752600 Ry
     hartree contribution      =      94.28110513 Ry
     xc contribution           =    -219.01661379 Ry
     ewald contribution        =    -387.73103382 Ry
     smearing contrib. (-TS)   =      -0.00732479 Ry

     convergence has been achieved in  13 iterations

     Forces acting on atoms (Ry/au):

     negative rho (up, down):  4.444E-01 0.000E+00
     atom    1 type  1   force =     0.00000000    0.00000000    0.00000000
     atom    2 type  1   force =     0.00000000    0.00000000    0.00000000
     atom    3 type  2   force =     0.00000000    0.00000000    0.00000000
     atom    4 type  2   force =     0.00000000    0.00000000    0.00000000

     Total force =     0.000000     Total SCF correction =     0.000000

     General routines

     Parallel routines

   This run was terminated on:   8:29:17  15Nov2017

   JOB DONE.