     Program PWSCF v.5.1rc2 (svn rev. ) starts on 18Feb2018 at 18: 4: 6

     Current dimensions of program PWSCF are:
     Max number of different atomic species (ntypx) = 10
     Max number of k-points (npk) =  40000
     Max angular momentum in pseudopotentials (lmaxx) =  3

     IMPORTANT: XC functional enforced from input :
     Exchange-correlation      = BEEF-VDW ( 1  4 27 13 2)
     Any further DFT definition will be discarded
     Please, verify this is what you really want

     Subspace diagonalization in iterative solution of the eigenvalue problem:
     a serial algorithm will be used

     Found symmetry operation: I + ( -0.5000 -0.5000  0.0000)
     This is a supercell, fractional translations are disabled

     bravais-lattice index     =            0
     lattice parameter (alat)  =       1.8897  a.u.
     unit-cell volume          =     683.9290 (a.u.)^3
     number of atoms/cell      =            4
     number of atomic types    =            2
     number of electrons       =        70.00
     number of Kohn-Sham states=           55
     kinetic-energy cutoff     =      58.7989  Ry
     charge density cutoff     =     587.9892  Ry
     convergence threshold     =      1.0E-06
     mixing beta               =       0.1000
     number of iterations used =           10  plain     mixing
     Exchange-correlation      = BEEF-VDW ( 1  4 27 13 2)

     celldm(1)=   1.889726  celldm(2)=   0.000000  celldm(3)=   0.000000
     celldm(4)=   0.000000  celldm(5)=   0.000000  celldm(6)=   0.000000

     crystal axes: (cart. coord. in units of alat)
               a(1) = (   5.014140   0.000000   0.000000 )
               a(2) = (   0.000000   5.014140   0.000000 )
               a(3) = (   0.000000   0.000000   4.031081 )

     reciprocal axes: (cart. coord. in units 2 pi/alat)
               b(1) = (  0.199436  0.000000  0.000000 )
               b(2) = (  0.000000  0.199436  0.000000 )
               b(3) = (  0.000000  0.000000  0.248072 )

     PseudoPot. # 1 for Zn read from file:
     /home/mamunm/src/pseudo/gbrv1.5pbe/Zn.UPF
     MD5 check sum: df62231357ef9e81f77b2b3087fa5675
     Pseudo is Ultrasoft, Zval = 20.0
     Generated by new atomic code, or converted to UPF format
     Using radial grid of  943 points,  6 beta functions with:
                l(1) =   0
                l(2) =   0
                l(3) =   1
                l(4) =   1
                l(5) =   2
                l(6) =   2
     Q(r) pseudized with  8 coefficients,  rinner =    1.100   1.100   1.100
                                                       1.100   1.100

     PseudoPot. # 2 for Bi read from file:
     /home/mamunm/src/pseudo/gbrv1.5pbe/Bi.UPF
     MD5 check sum: 81103212dc04adf40945787f699eab19
     Pseudo is Ultrasoft + core correction, Zval = 15.0
     Generated by new atomic code, or converted to UPF format
     Using radial grid of  899 points,  6 beta functions with:
                l(1) =   0
                l(2) =   0
                l(3) =   1
                l(4) =   1
                l(5) =   2
                l(6) =   2
     Q(r) pseudized with  6 coefficients,  rinner =    1.000   1.000   1.000
                                                       1.000   1.000

     vdW kernel table read from file vdW_kernel_table
     MD5 check sum: 095c7af220d748ca6e76c0b4c6cfb241

     atomic species   valence    mass     pseudopotential
        Zn1           20.00    65.38000     Zn( 1.00)
        Bi1           15.00   208.98040     Bi( 1.00)

     16 Sym. Ops., with inversion, found

   Cartesian axes

     site n.     atom                  positions (alat units)
         1           Zn1 tau(   1) = (   0.0000000   0.0000000   0.0000000  )
         2           Zn1 tau(   2) = (   2.5070699   2.5070699   0.0000000  )
         3           Bi1 tau(   3) = (   2.5070699   0.0000000   2.0155407  )
         4           Bi1 tau(   4) = (   0.0000000   2.5070699   2.0155407  )

     number of k points=    75  Fermi-Dirac smearing, width (Ry)=  0.0073
                       cart. coord. in units 2pi/alat
        k(    1) = (   0.0000000   0.0000000   0.0000000), wk =   0.0027435
        k(    2) = (   0.0000000   0.0000000   0.0275636), wk =   0.0054870
        k(    3) = (   0.0000000   0.0000000   0.0551272), wk =   0.0054870
        k(    4) = (   0.0000000   0.0000000   0.0826908), wk =   0.0054870
        k(    5) = (   0.0000000   0.0000000   0.1102544), wk =   0.0054870
        k(    6) = (   0.0000000   0.0221596   0.0000000), wk =   0.0109739
        k(    7) = (   0.0000000   0.0221596   0.0275636), wk =   0.0219479
        k(    8) = (   0.0000000   0.0221596   0.0551272), wk =   0.0219479
        k(    9) = (   0.0000000   0.0221596   0.0826908), wk =   0.0219479
        k(   10) = (   0.0000000   0.0221596   0.1102544), wk =   0.0219479
        k(   11) = (   0.0000000   0.0443191   0.0000000), wk =   0.0109739
        k(   12) = (   0.0000000   0.0443191   0.0275636), wk =   0.0219479
        k(   13) = (   0.0000000   0.0443191   0.0551272), wk =   0.0219479
        k(   14) = (   0.0000000   0.0443191   0.0826908), wk =   0.0219479
        k(   15) = (   0.0000000   0.0443191   0.1102544), wk =   0.0219479
        k(   16) = (   0.0000000   0.0664787   0.0000000), wk =   0.0109739
        k(   17) = (   0.0000000   0.0664787   0.0275636), wk =   0.0219479
        k(   18) = (   0.0000000   0.0664787   0.0551272), wk =   0.0219479
        k(   19) = (   0.0000000   0.0664787   0.0826908), wk =   0.0219479
        k(   20) = (   0.0000000   0.0664787   0.1102544), wk =   0.0219479
        k(   21) = (   0.0000000   0.0886382   0.0000000), wk =   0.0109739
        k(   22) = (   0.0000000   0.0886382   0.0275636), wk =   0.0219479
        k(   23) = (   0.0000000   0.0886382   0.0551272), wk =   0.0219479
        k(   24) = (   0.0000000   0.0886382   0.0826908), wk =   0.0219479
        k(   25) = (   0.0000000   0.0886382   0.1102544), wk =   0.0219479
        k(   26) = (   0.0221596   0.0221596   0.0000000), wk =   0.0109739
        k(   27) = (   0.0221596   0.0221596   0.0275636), wk =   0.0219479
        k(   28) = (   0.0221596   0.0221596   0.0551272), wk =   0.0219479
        k(   29) = (   0.0221596   0.0221596   0.0826908), wk =   0.0219479
        k(   30) = (   0.0221596   0.0221596   0.1102544), wk =   0.0219479
        k(   31) = (   0.0221596   0.0443191   0.0000000), wk =   0.0219479
        k(   32) = (   0.0221596   0.0443191   0.0275636), wk =   0.0438957
        k(   33) = (   0.0221596   0.0443191   0.0551272), wk =   0.0438957
        k(   34) = (   0.0221596   0.0443191   0.0826908), wk =   0.0438957
        k(   35) = (   0.0221596   0.0443191   0.1102544), wk =   0.0438957
        k(   36) = (   0.0221596   0.0664787   0.0000000), wk =   0.0219479
        k(   37) = (   0.0221596   0.0664787   0.0275636), wk =   0.0438957
        k(   38) = (   0.0221596   0.0664787   0.0551272), wk =   0.0438957
        k(   39) = (   0.0221596   0.0664787   0.0826908), wk =   0.0438957
        k(   40) = (   0.0221596   0.0664787   0.1102544), wk =   0.0438957
        k(   41) = (   0.0221596   0.0886382   0.0000000), wk =   0.0219479
        k(   42) = (   0.0221596   0.0886382   0.0275636), wk =   0.0438957
        k(   43) = (   0.0221596   0.0886382   0.0551272), wk =   0.0438957
        k(   44) = (   0.0221596   0.0886382   0.0826908), wk =   0.0438957
        k(   45) = (   0.0221596   0.0886382   0.1102544), wk =   0.0438957
        k(   46) = (   0.0443191   0.0443191   0.0000000), wk =   0.0109739
        k(   47) = (   0.0443191   0.0443191   0.0275636), wk =   0.0219479
        k(   48) = (   0.0443191   0.0443191   0.0551272), wk =   0.0219479
        k(   49) = (   0.0443191   0.0443191   0.0826908), wk =   0.0219479
        k(   50) = (   0.0443191   0.0443191   0.1102544), wk =   0.0219479
        k(   51) = (   0.0443191   0.0664787   0.0000000), wk =   0.0219479
        k(   52) = (   0.0443191   0.0664787   0.0275636), wk =   0.0438957
        k(   53) = (   0.0443191   0.0664787   0.0551272), wk =   0.0438957
        k(   54) = (   0.0443191   0.0664787   0.0826908), wk =   0.0438957
        k(   55) = (   0.0443191   0.0664787   0.1102544), wk =   0.0438957
        k(   56) = (   0.0443191   0.0886382   0.0000000), wk =   0.0219479
        k(   57) = (   0.0443191   0.0886382   0.0275636), wk =   0.0438957
        k(   58) = (   0.0443191   0.0886382   0.0551272), wk =   0.0438957
        k(   59) = (   0.0443191   0.0886382   0.0826908), wk =   0.0438957
        k(   60) = (   0.0443191   0.0886382   0.1102544), wk =   0.0438957
        k(   61) = (   0.0664787   0.0664787   0.0000000), wk =   0.0109739
        k(   62) = (   0.0664787   0.0664787   0.0275636), wk =   0.0219479
        k(   63) = (   0.0664787   0.0664787   0.0551272), wk =   0.0219479
        k(   64) = (   0.0664787   0.0664787   0.0826908), wk =   0.0219479
        k(   65) = (   0.0664787   0.0664787   0.1102544), wk =   0.0219479
        k(   66) = (   0.0664787   0.0886382   0.0000000), wk =   0.0219479
        k(   67) = (   0.0664787   0.0886382   0.0275636), wk =   0.0438957
        k(   68) = (   0.0664787   0.0886382   0.0551272), wk =   0.0438957
        k(   69) = (   0.0664787   0.0886382   0.0826908), wk =   0.0438957
        k(   70) = (   0.0664787   0.0886382   0.1102544), wk =   0.0438957
        k(   71) = (   0.0886382   0.0886382   0.0000000), wk =   0.0109739
        k(   72) = (   0.0886382   0.0886382   0.0275636), wk =   0.0219479
        k(   73) = (   0.0886382   0.0886382   0.0551272), wk =   0.0219479
        k(   74) = (   0.0886382   0.0886382   0.0826908), wk =   0.0219479
        k(   75) = (   0.0886382   0.0886382   0.1102544), wk =   0.0219479

     Largest allocated arrays     est. size (Mb)     dimensions
     Largest temporary arrays     est. size (Mb)     dimensions

     Check: negative/imaginary core charge=   -0.000001    0.000000

     Initial potential from superposition of free atoms
     Check: negative starting charge=   -0.083172

     starting charge   67.99963, renormalised to   70.00000

     negative rho (up, down):  8.562E-02 0.000E+00

     *
     * You are using vdW-DF for exchange-correlation in this calculation.
     * Please cite the following three references that made this development
     * possible:
     *
     *   M. Dion, H. Rydberg, E. Schroder, D. C. Langreth, and
     *   B. I. Lundqvist, Phys. Rev. Lett. 92, 246401 (2004).
     *
     *   T. Thonhauser, V. R. Cooper, S. Li, A. Puzder, P. Hyldgaard, and
     *   D. C. Langreth, Phys. Rev. B 76, 125112 (2007).
     *
     *   G. Roman-Perez and J. M. Soler, Phys. Rev. Lett. 103, 096102 (2009).
     *
     *
     * If you are using vdW-DF2, please also cite:
     *
     *   K. Lee, E. D. Murray, L. Kong, B. I. Lundqvist, and
     *   D. C. Langreth, Phys. Rev. B 82, 081101(R) (2010).
     *
     *
     * If you are calculating the stress with vdW-DF, please also cite:
     *
     *   R. Sabatini, E. Kucukbenli, B. Kolb, T. Thonhauser, and
     *   S. de Gironcoli, J. Phys.: Condens. Matter 24, 424209 (2012).
     *

     Carrying out vdW-DF run using the following parameters:

     Nqs =      20    Nr_points =    1024   r_max =   100.000
     q_mesh =
               0.00001000     0.04494208     0.09755937     0.15916263
               0.23128650     0.31572767     0.41458969     0.53033537
               0.66584808     0.82450364     1.01025438     1.22772762
               1.48234092     1.78043706     2.12944203     2.53805004
               3.01644009     3.57652955     4.23227104     5.00000000

     Gradients computed in reciprocal space

     Starting wfc are   44 randomized atomic wfcs +   11 random wfc

     Self-consistent Calculation

     iteration #  1     ecut=    58.80 Ry     beta=0.10
     Davidson diagonalization with overlap
     ethr =  1.00E-02,  avg # of iterations =  5.6

[...]

     total energy              =   -1296.87564271 Ry
     Harris-Foulkes estimate   =   -1302.44837058 Ry
     estimated scf accuracy    <      30.91754846 Ry

[...]

     total energy              =   -1299.87429087 Ry
     Harris-Foulkes estimate   =   -1299.87426206 Ry
     estimated scf accuracy    <       0.00000174 Ry

     iteration # 12     ecut=    58.80 Ry     beta=0.10
     Davidson diagonalization with overlap
     ethr =  2.48E-09,  avg # of iterations =  1.6

     negative rho (up, down):  8.730E-02 0.000E+00

     End of self-consistent calculation

          k = 0.0000 0.0000 0.0000 (  5183 PWs)   bands (ev):

  -115.4657-115.4648 -69.6505 -69.6505 -69.6500 -69.6500 -69.6484 -69.6479
   -12.6360 -12.5862 -12.5636 -12.5361 -12.5361 -12.5087 -12.5026 -12.5026
   -12.4983 -12.4532  -1.7082   0.8902   3.5278   3.5567   3.6130   3.6130
     3.6378   3.6752   3.6752   3.7032   3.7765   3.8355   7.1565   7.1565
     8.7751   9.1380   9.6182  11.9063  11.9063  13.1294  15.9718  16.4504
    16.4504  16.5038  16.8047  18.3035  19.6661  19.6661  19.8867  20.2314
    20.7653  20.7653  23.3825  25.0547  25.0547  25.3272  25.3272

[...]

          k = 0.0886 0.0886 0.1103 (  5209 PWs)   bands (ev):

  -115.4657-115.4648 -69.6505 -69.6505 -69.6500 -69.6500 -69.6485 -69.6479
   -12.5803 -12.5758 -12.5524 -12.5513 -12.5434 -12.5411 -12.5082 -12.5071
   -12.4687 -12.4657   0.1754   0.2504   3.5781   3.5854   3.6391   3.6483
     3.6540   3.6610   3.7259   3.7308   3.8139   3.8300   6.4603   6.5115
     6.9832   7.2967   8.2454   8.6085  14.1814  14.4859  17.6205  17.9814
    18.0867  18.1657  18.2020  18.5161  20.1327  20.2652  21.6718  21.9370
    22.1537  22.3747  22.4071  22.7935  23.7220  23.9264  24.7191

     the Fermi energy is    10.8251 ev

!    total energy              =   -1299.87441337 Ry
     Harris-Foulkes estimate   =   -1299.87429098 Ry
     estimated scf accuracy    <       0.00000035 Ry

     The total energy is the sum of the following terms:

     one-electron contribution =    -934.06319501 Ry
     hartree contribution      =     498.75276401 Ry
     xc contribution           =    -219.97052368 Ry
     ewald contribution        =    -644.58864148 Ry
     smearing contrib. (-TS)   =      -0.00481722 Ry

     convergence has been achieved in  12 iterations

     Forces acting on atoms (Ry/au):

     negative rho (up, down):  8.730E-02 0.000E+00
     atom    1 type  1   force =     0.00000000    0.00000000    0.00000000
     atom    2 type  1   force =     0.00000000    0.00000000    0.00000000
     atom    3 type  2   force =     0.00000000    0.00000000    0.00000000
     atom    4 type  2   force =     0.00000000    0.00000000    0.00000000

     Total force =     0.000000     Total SCF correction =     0.000000

     General routines

     Parallel routines

   This run was terminated on:  18: 5:23  18Feb2018

   JOB DONE.