     Program PWSCF v.5.1rc2 starts on 15Nov2017 at  5:59: 3

     Current dimensions of program PWSCF are:
     Max number of different atomic species (ntypx) = 10
     Max number of k-points (npk) =  40000
     Max angular momentum in pseudopotentials (lmaxx) =  3

     IMPORTANT: XC functional enforced from input :
     Exchange-correlation      = BEEF-VDW ( 1  4 27 13 2)
     Any further DFT definition will be discarded
     Please, verify this is what you really want

     Found symmetry operation: I + ( -0.5000 -0.5000  0.0000)
     This is a supercell, fractional translations are disabled

     bravais-lattice index     =            0
     lattice parameter (alat)  =       1.8897  a.u.
     unit-cell volume          =     481.9199 (a.u.)^3
     number of atoms/cell      =            4
     number of atomic types    =            2
     number of electrons       =        50.00
     number of Kohn-Sham states=           45
     kinetic-energy cutoff     =      58.7989  Ry
     charge density cutoff     =     587.9892  Ry
     convergence threshold     =      1.0E-06
     mixing beta               =       0.1000
     number of iterations used =           10  plain     mixing
     Exchange-correlation      = BEEF-VDW ( 1  4 27 13 2)

     celldm(1)=   1.889726  celldm(2)=   0.000000  celldm(3)=   0.000000
     celldm(4)=   0.000000  celldm(5)=   0.000000  celldm(6)=   0.000000

     crystal axes: (cart. coord. in units of alat)
               a(1) = (   3.904278   0.000000   0.000000 )
               a(2) = (   0.000000   3.904278   0.000000 )
               a(3) = (   0.000000   0.000000   4.684862 )

     reciprocal axes: (cart. coord. in units 2 pi/alat)
               b(1) = (  0.256129  0.000000  0.000000 )
               b(2) = (  0.000000  0.256129  0.000000 )
               b(3) = (  0.000000  0.000000  0.213453 )

     PseudoPot. # 1 for Ti read from file:
     /home/users/vossj/suncat/psp/gbrv1.5pbe/Ti.UPF
     MD5 check sum: 88a00a6731bd790ddea75d31a80cb452
     Pseudo is Ultrasoft + core correction, Zval = 12.0
     Generated by new atomic code, or converted to UPF format
     Using radial grid of  851 points,  6 beta functions with:
                l(1) =   0
                l(2) =   0
                l(3) =   1
                l(4) =   1
                l(5) =   2
                l(6) =   2
     Q(r) pseudized with  6 coefficients,  rinner =    1.000   1.000   1.000
                                                       1.000   1.000

     PseudoPot. # 2 for Nb read from file:
     /home/users/vossj/suncat/psp/gbrv1.5pbe/Nb.UPF
     MD5 check sum: 573aab8a2fa660278ed4a62cd769473f
     Pseudo is Ultrasoft + core correction, Zval = 13.0
     Generated by new atomic code, or converted to UPF format
     Using radial grid of  887 points,  6 beta functions with:
                l(1) =   0
                l(2) =   0
                l(3) =   1
                l(4) =   1
                l(5) =   2
                l(6) =   2
     Q(r) pseudized with  6 coefficients,  rinner =    1.000   1.000   1.000
                                                       1.000   1.000

     vdW kernel table read from file vdW_kernel_table
     MD5 check sum: 095c7af220d748ca6e76c0b4c6cfb241

     atomic species   valence    mass     pseudopotential
        Ti1           12.00    47.88000     Ti( 1.00)
        Nb1           13.00    92.90640     Nb( 1.00)

     16 Sym. Ops., with inversion, found

   Cartesian axes

     site n.     atom                  positions (alat units)
         1           Ti1 tau(   1) = (   0.0000000   0.0000000   0.0000000  )
         2           Ti1 tau(   2) = (   1.9521388   1.9521388   0.0000000  )
         3           Nb1 tau(   3) = (   1.9521388   0.0000000   2.3424312  )
         4           Nb1 tau(   4) = (   0.0000000   1.9521388   2.3424312  )

     number of k points=    75  Fermi-Dirac smearing, width (Ry)=  0.0073
                       cart. coord. in units 2pi/alat
        k(    1) = (   0.0000000   0.0000000   0.0000000), wk =   0.0027435
        k(    2) = (   0.0000000   0.0000000   0.0237170), wk =   0.0054870
        k(    3) = (   0.0000000   0.0000000   0.0474341), wk =   0.0054870
        k(    4) = (   0.0000000   0.0000000   0.0711511), wk =   0.0054870
        k(    5) = (   0.0000000   0.0000000   0.0948682), wk =   0.0054870
        k(    6) = (   0.0000000   0.0284588   0.0000000), wk =   0.0109739
        k(    7) = (   0.0000000   0.0284588   0.0237170), wk =   0.0219479
        k(    8) = (   0.0000000   0.0284588   0.0474341), wk =   0.0219479
        k(    9) = (   0.0000000   0.0284588   0.0711511), wk =   0.0219479
        k(   10) = (   0.0000000   0.0284588   0.0948682), wk =   0.0219479
        k(   11) = (   0.0000000   0.0569176   0.0000000), wk =   0.0109739
        k(   12) = (   0.0000000   0.0569176   0.0237170), wk =   0.0219479
        k(   13) = (   0.0000000   0.0569176   0.0474341), wk =   0.0219479
        k(   14) = (   0.0000000   0.0569176   0.0711511), wk =   0.0219479
        k(   15) = (   0.0000000   0.0569176   0.0948682), wk =   0.0219479
        k(   16) = (   0.0000000   0.0853764   0.0000000), wk =   0.0109739
        k(   17) = (   0.0000000   0.0853764   0.0237170), wk =   0.0219479
        k(   18) = (   0.0000000   0.0853764   0.0474341), wk =   0.0219479
        k(   19) = (   0.0000000   0.0853764   0.0711511), wk =   0.0219479
        k(   20) = (   0.0000000   0.0853764   0.0948682), wk =   0.0219479
        k(   21) = (   0.0000000   0.1138353   0.0000000), wk =   0.0109739
        k(   22) = (   0.0000000   0.1138353   0.0237170), wk =   0.0219479
        k(   23) = (   0.0000000   0.1138353   0.0474341), wk =   0.0219479
        k(   24) = (   0.0000000   0.1138353   0.0711511), wk =   0.0219479
        k(   25) = (   0.0000000   0.1138353   0.0948682), wk =   0.0219479
        k(   26) = (   0.0284588   0.0284588   0.0000000), wk =   0.0109739
        k(   27) = (   0.0284588   0.0284588   0.0237170), wk =   0.0219479
        k(   28) = (   0.0284588   0.0284588   0.0474341), wk =   0.0219479
        k(   29) = (   0.0284588   0.0284588   0.0711511), wk =   0.0219479
        k(   30) = (   0.0284588   0.0284588   0.0948682), wk =   0.0219479
        k(   31) = (   0.0284588   0.0569176   0.0000000), wk =   0.0219479
        k(   32) = (   0.0284588   0.0569176   0.0237170), wk =   0.0438957
        k(   33) = (   0.0284588   0.0569176   0.0474341), wk =   0.0438957
        k(   34) = (   0.0284588   0.0569176   0.0711511), wk =   0.0438957
        k(   35) = (   0.0284588   0.0569176   0.0948682), wk =   0.0438957
        k(   36) = (   0.0284588   0.0853764   0.0000000), wk =   0.0219479
        k(   37) = (   0.0284588   0.0853764   0.0237170), wk =   0.0438957
        k(   38) = (   0.0284588   0.0853764   0.0474341), wk =   0.0438957
        k(   39) = (   0.0284588   0.0853764   0.0711511), wk =   0.0438957
        k(   40) = (   0.0284588   0.0853764   0.0948682), wk =   0.0438957
        k(   41) = (   0.0284588   0.1138353   0.0000000), wk =   0.0219479
        k(   42) = (   0.0284588   0.1138353   0.0237170), wk =   0.0438957
        k(   43) = (   0.0284588   0.1138353   0.0474341), wk =   0.0438957
        k(   44) = (   0.0284588   0.1138353   0.0711511), wk =   0.0438957
        k(   45) = (   0.0284588   0.1138353   0.0948682), wk =   0.0438957
        k(   46) = (   0.0569176   0.0569176   0.0000000), wk =   0.0109739
        k(   47) = (   0.0569176   0.0569176   0.0237170), wk =   0.0219479
        k(   48) = (   0.0569176   0.0569176   0.0474341), wk =   0.0219479
        k(   49) = (   0.0569176   0.0569176   0.0711511), wk =   0.0219479
        k(   50) = (   0.0569176   0.0569176   0.0948682), wk =   0.0219479
        k(   51) = (   0.0569176   0.0853764   0.0000000), wk =   0.0219479
        k(   52) = (   0.0569176   0.0853764   0.0237170), wk =   0.0438957
        k(   53) = (   0.0569176   0.0853764   0.0474341), wk =   0.0438957
        k(   54) = (   0.0569176   0.0853764   0.0711511), wk =   0.0438957
        k(   55) = (   0.0569176   0.0853764   0.0948682), wk =   0.0438957
        k(   56) = (   0.0569176   0.1138353   0.0000000), wk =   0.0219479
        k(   57) = (   0.0569176   0.1138353   0.0237170), wk =   0.0438957
        k(   58) = (   0.0569176   0.1138353   0.0474341), wk =   0.0438957
        k(   59) = (   0.0569176   0.1138353   0.0711511), wk =   0.0438957
        k(   60) = (   0.0569176   0.1138353   0.0948682), wk =   0.0438957
        k(   61) = (   0.0853764   0.0853764   0.0000000), wk =   0.0109739
        k(   62) = (   0.0853764   0.0853764   0.0237170), wk =   0.0219479
        k(   63) = (   0.0853764   0.0853764   0.0474341), wk =   0.0219479
        k(   64) = (   0.0853764   0.0853764   0.0711511), wk =   0.0219479
        k(   65) = (   0.0853764   0.0853764   0.0948682), wk =   0.0219479
        k(   66) = (   0.0853764   0.1138353   0.0000000), wk =   0.0219479
        k(   67) = (   0.0853764   0.1138353   0.0237170), wk =   0.0438957
        k(   68) = (   0.0853764   0.1138353   0.0474341), wk =   0.0438957
        k(   69) = (   0.0853764   0.1138353   0.0711511), wk =   0.0438957
        k(   70) = (   0.0853764   0.1138353   0.0948682), wk =   0.0438957
        k(   71) = (   0.1138353   0.1138353   0.0000000), wk =   0.0109739
        k(   72) = (   0.1138353   0.1138353   0.0237170), wk =   0.0219479
        k(   73) = (   0.1138353   0.1138353   0.0474341), wk =   0.0219479
        k(   74) = (   0.1138353   0.1138353   0.0711511), wk =   0.0219479
        k(   75) = (   0.1138353   0.1138353   0.0948682), wk =   0.0219479

     Largest allocated arrays     est. size (Mb)     dimensions
     Largest temporary arrays     est. size (Mb)     dimensions

     Check: negative/imaginary core charge=   -0.000002    0.000000

     Initial potential from superposition of free atoms
     Check: negative starting charge=   -0.002592

     starting charge   47.99445, renormalised to   50.00000

     negative rho (up, down):  2.700E-03 0.000E+00

     *
     * You are using vdW-DF for exchange-correlation in this calculation.
     * Please cite the following three references that made this development
     * possible:
     *
     *   M. Dion, H. Rydberg, E. Schroder, D. C. Langreth, and
     *   B. I. Lundqvist, Phys. Rev. Lett. 92, 246401 (2004).
     *
     *   T. Thonhauser, V. R. Cooper, S. Li, A. Puzder, P. Hyldgaard, and
     *   D. C. Langreth, Phys. Rev. B 76, 125112 (2007).
     *
     *   G. Roman-Perez and J. M. Soler, Phys. Rev. Lett. 103, 096102 (2009).
     *
     *
     * If you are using vdW-DF2, please also cite:
     *
     *   K. Lee, E. D. Murray, L. Kong, B. I. Lundqvist, and
     *   D. C. Langreth, Phys. Rev. B 82, 081101(R) (2010).
     *
     *
     * If you are calculating the stress with vdW-DF, please also cite:
     *
     *   R. Sabatini, E. Kucukbenli, B. Kolb, T. Thonhauser, and
     *   S. de Gironcoli, J. Phys.: Condens. Matter 24, 424209 (2012).
     *

     Carrying out vdW-DF run using the following parameters:

     Nqs =      20    Nr_points =    1024   r_max =   100.000
     q_mesh =
               0.00001000     0.04494208     0.09755937     0.15916263
               0.23128650     0.31572767     0.41458969     0.53033537
               0.66584808     0.82450364     1.01025438     1.22772762
               1.48234092     1.78043706     2.12944203     2.53805004
               3.01644009     3.57652955     4.23227104     5.00000000

     Gradients computed in reciprocal space

     Starting wfc are   46 randomized atomic wfcs

     Self-consistent Calculation

     iteration #  1     ecut=    58.80 Ry     beta=0.10
     Davidson diagonalization with overlap
     ethr =  1.00E-02,  avg # of iterations =  3.9

[...]

     total energy              =    -475.94456050 Ry
     Harris-Foulkes estimate   =    -478.88840135 Ry
     estimated scf accuracy    <      16.37076896 Ry

[...]

     total energy              =    -476.97097473 Ry
     Harris-Foulkes estimate   =    -476.97097699 Ry
     estimated scf accuracy    <       0.00001559 Ry

     iteration # 12     ecut=    58.80 Ry     beta=0.10
     Davidson diagonalization with overlap
     ethr =  3.12E-08,  avg # of iterations =  1.4

     negative rho (up, down):  1.424E-03 0.000E+00

     End of self-consistent calculation

          k = 0.0000 0.0000 0.0000 (  3625 PWs)   bands (ev):

   -41.5664 -41.4221 -39.4732 -39.1747 -17.9696 -17.9696 -17.8181 -17.6383
   -17.4871 -17.4871 -15.9025 -15.9025 -15.4045 -15.1715 -14.8729 -14.8729
     9.3368  11.4044  12.0037  12.6123  12.7418  12.9442  12.9442  14.9575
    16.5724  16.6815  16.6815  16.7225  18.5867  18.5905  18.7247  18.7247
    19.4490  19.5355  19.7417  19.7417  19.8336  19.8336  20.2941  22.1676
    24.4867  25.1309  26.5683  27.6140  27.6140

[...]

          k = 0.1138 0.1138 0.0949 (  3661 PWs)   bands (ev):

   -41.4941 -41.4898 -39.3271 -39.3180 -18.0542 -18.0405 -17.7368 -17.7335
   -17.4521 -17.4373 -16.0442 -16.0158 -15.2962 -15.2875 -14.8007 -14.7671
    11.9041  11.9308  12.4750  12.5739  14.5520  14.6679  15.2571  15.3702
    15.9623  16.0767  16.0996  16.6414  16.6886  16.7908  16.7994  16.9568
    18.7740  18.9938  19.1703  19.2783  19.4825  19.5653  19.8880  19.9819
    24.6487  24.8184  25.6986  25.7541  27.5441

     the Fermi energy is    15.2806 ev

!    total energy              =    -476.97098625 Ry
     Harris-Foulkes estimate   =    -476.97097623 Ry
     estimated scf accuracy    <       0.00000025 Ry

     The total energy is the sum of the following terms:

     one-electron contribution =    -116.04244521 Ry
     hartree contribution      =      80.16510550 Ry
     xc contribution           =     -75.79414797 Ry
     ewald contribution        =    -365.28380914 Ry
     smearing contrib. (-TS)   =      -0.01568943 Ry

     convergence has been achieved in  12 iterations

     Forces acting on atoms (Ry/au):

     negative rho (up, down):  1.424E-03 0.000E+00
     atom    1 type  1   force =     0.00000000    0.00000000    0.00000000
     atom    2 type  1   force =     0.00000000    0.00000000    0.00000000
     atom    3 type  2   force =     0.00000000    0.00000000    0.00000000
     atom    4 type  2   force =     0.00000000    0.00000000    0.00000000

     Total force =     0.000000     Total SCF correction =     0.000000

     General routines

     Parallel routines

   This run was terminated on:   5:59:37  15Nov2017

   JOB DONE.