     Program PWSCF v.5.1rc2 starts on 14Nov2017 at  9:49:26

     Current dimensions of program PWSCF are:
     Max number of different atomic species (ntypx) = 10
     Max number of k-points (npk) =  40000
     Max angular momentum in pseudopotentials (lmaxx) =  3

     IMPORTANT: XC functional enforced from input :
     Exchange-correlation      = BEEF-VDW ( 1  4 27 13 2)
     Any further DFT definition will be discarded
     Please, verify this is what you really want

     Found symmetry operation: I + ( -0.5000 -0.5000  0.0000)
     This is a supercell, fractional translations are disabled

     bravais-lattice index     =            0
     lattice parameter (alat)  =       1.8897  a.u.
     unit-cell volume          =     485.2204 (a.u.)^3
     number of atoms/cell      =            4
     number of atomic types    =            2
     number of electrons       =        64.00
     number of Kohn-Sham states=           52
     kinetic-energy cutoff     =      58.7989  Ry
     charge density cutoff     =     587.9892  Ry
     convergence threshold     =      1.0E-06
     mixing beta               =       0.1000
     number of iterations used =           10  plain     mixing
     Exchange-correlation      = BEEF-VDW ( 1  4 27 13 2)

     celldm(1)=   1.889726  celldm(2)=   0.000000  celldm(3)=   0.000000
     celldm(4)=   0.000000  celldm(5)=   0.000000  celldm(6)=   0.000000

     crystal axes: (cart. coord. in units of alat)
               a(1) = (   4.666529   0.000000   0.000000 )
               a(2) = (   0.000000   4.666529   0.000000 )
               a(3) = (   0.000000   0.000000   3.301828 )

     reciprocal axes: (cart. coord. in units 2 pi/alat)
               b(1) = (  0.214292  0.000000  0.000000 )
               b(2) = (  0.000000  0.214292  0.000000 )
               b(3) = (  0.000000  0.000000  0.302863 )

     PseudoPot. # 1 for Zn read from file:
     /home/users/vossj/suncat/psp/gbrv1.5pbe/Zn.UPF
     MD5 check sum: df62231357ef9e81f77b2b3087fa5675
     Pseudo is Ultrasoft, Zval = 20.0
     Generated by new atomic code, or converted to UPF format
     Using radial grid of  943 points,  6 beta functions with:
                l(1) =   0
                l(2) =   0
                l(3) =   1
                l(4) =   1
                l(5) =   2
                l(6) =   2
     Q(r) pseudized with  8 coefficients,  rinner =    1.100   1.100   1.100
                                                       1.100   1.100

     PseudoPot. # 2 for Hf read from file:
     /home/users/vossj/suncat/psp/gbrv1.5pbe/Hf.UPF
     MD5 check sum: 8ee9378dfe14276e333edf04c5e4aa26
     Pseudo is Ultrasoft + core correction, Zval = 12.0
     Generated by new atomic code, or converted to UPF format
     Using radial grid of  921 points,  8 beta functions with:
                l(1) =   0
                l(2) =   0
                l(3) =   0
                l(4) =   1
                l(5) =   1
                l(6) =   2
                l(7) =   2
                l(8) =   3
     Q(r) pseudized with  6 coefficients,  rinner =    1.200   1.200   1.200
                                                       1.200   1.200   1.200
                                                       1.200

     vdW kernel table read from file vdW_kernel_table
     MD5 check sum: 095c7af220d748ca6e76c0b4c6cfb241

     atomic species   valence    mass     pseudopotential
        Zn1           20.00    65.39000     Zn( 1.00)
        Hf1           12.00   178.49000     Hf( 1.00)

     16 Sym. Ops., with inversion, found

   Cartesian axes

     site n.     atom                  positions (alat units)
         1           Zn1 tau(   1) = (   0.0000000   0.0000000   0.0000000  )
         2           Zn1 tau(   2) = (   2.3332647   2.3332647   0.0000000  )
         3           Hf1 tau(   3) = (   2.3332647   0.0000000   1.6509140  )
         4           Hf1 tau(   4) = (   0.0000000   2.3332647   1.6509140  )

     number of k points=    75  Fermi-Dirac smearing, width (Ry)=  0.0073
                       cart. coord. in units 2pi/alat
        k(    1) = (   0.0000000   0.0000000   0.0000000), wk =   0.0027435
        k(    2) = (   0.0000000   0.0000000   0.0336514), wk =   0.0054870
        k(    3) = (   0.0000000   0.0000000   0.0673028), wk =   0.0054870
        k(    4) = (   0.0000000   0.0000000   0.1009542), wk =   0.0054870
        k(    5) = (   0.0000000   0.0000000   0.1346056), wk =   0.0054870
        k(    6) = (   0.0000000   0.0238102   0.0000000), wk =   0.0109739
        k(    7) = (   0.0000000   0.0238102   0.0336514), wk =   0.0219479
        k(    8) = (   0.0000000   0.0238102   0.0673028), wk =   0.0219479
        k(    9) = (   0.0000000   0.0238102   0.1009542), wk =   0.0219479
        k(   10) = (   0.0000000   0.0238102   0.1346056), wk =   0.0219479
        k(   11) = (   0.0000000   0.0476204   0.0000000), wk =   0.0109739
        k(   12) = (   0.0000000   0.0476204   0.0336514), wk =   0.0219479
        k(   13) = (   0.0000000   0.0476204   0.0673028), wk =   0.0219479
        k(   14) = (   0.0000000   0.0476204   0.1009542), wk =   0.0219479
        k(   15) = (   0.0000000   0.0476204   0.1346056), wk =   0.0219479
        k(   16) = (   0.0000000   0.0714307   0.0000000), wk =   0.0109739
        k(   17) = (   0.0000000   0.0714307   0.0336514), wk =   0.0219479
        k(   18) = (   0.0000000   0.0714307   0.0673028), wk =   0.0219479
        k(   19) = (   0.0000000   0.0714307   0.1009542), wk =   0.0219479
        k(   20) = (   0.0000000   0.0714307   0.1346056), wk =   0.0219479
        k(   21) = (   0.0000000   0.0952409   0.0000000), wk =   0.0109739
        k(   22) = (   0.0000000   0.0952409   0.0336514), wk =   0.0219479
        k(   23) = (   0.0000000   0.0952409   0.0673028), wk =   0.0219479
        k(   24) = (   0.0000000   0.0952409   0.1009542), wk =   0.0219479
        k(   25) = (   0.0000000   0.0952409   0.1346056), wk =   0.0219479
        k(   26) = (   0.0238102   0.0238102   0.0000000), wk =   0.0109739
        k(   27) = (   0.0238102   0.0238102   0.0336514), wk =   0.0219479
        k(   28) = (   0.0238102   0.0238102   0.0673028), wk =   0.0219479
        k(   29) = (   0.0238102   0.0238102   0.1009542), wk =   0.0219479
        k(   30) = (   0.0238102   0.0238102   0.1346056), wk =   0.0219479
        k(   31) = (   0.0238102   0.0476204   0.0000000), wk =   0.0219479
        k(   32) = (   0.0238102   0.0476204   0.0336514), wk =   0.0438957
        k(   33) = (   0.0238102   0.0476204   0.0673028), wk =   0.0438957
        k(   34) = (   0.0238102   0.0476204   0.1009542), wk =   0.0438957
        k(   35) = (   0.0238102   0.0476204   0.1346056), wk =   0.0438957
        k(   36) = (   0.0238102   0.0714307   0.0000000), wk =   0.0219479
        k(   37) = (   0.0238102   0.0714307   0.0336514), wk =   0.0438957
        k(   38) = (   0.0238102   0.0714307   0.0673028), wk =   0.0438957
        k(   39) = (   0.0238102   0.0714307   0.1009542), wk =   0.0438957
        k(   40) = (   0.0238102   0.0714307   0.1346056), wk =   0.0438957
        k(   41) = (   0.0238102   0.0952409   0.0000000), wk =   0.0219479
        k(   42) = (   0.0238102   0.0952409   0.0336514), wk =   0.0438957
        k(   43) = (   0.0238102   0.0952409   0.0673028), wk =   0.0438957
        k(   44) = (   0.0238102   0.0952409   0.1009542), wk =   0.0438957
        k(   45) = (   0.0238102   0.0952409   0.1346056), wk =   0.0438957
        k(   46) = (   0.0476204   0.0476204   0.0000000), wk =   0.0109739
        k(   47) = (   0.0476204   0.0476204   0.0336514), wk =   0.0219479
        k(   48) = (   0.0476204   0.0476204   0.0673028), wk =   0.0219479
        k(   49) = (   0.0476204   0.0476204   0.1009542), wk =   0.0219479
        k(   50) = (   0.0476204   0.0476204   0.1346056), wk =   0.0219479
        k(   51) = (   0.0476204   0.0714307   0.0000000), wk =   0.0219479
        k(   52) = (   0.0476204   0.0714307   0.0336514), wk =   0.0438957
        k(   53) = (   0.0476204   0.0714307   0.0673028), wk =   0.0438957
        k(   54) = (   0.0476204   0.0714307   0.1009542), wk =   0.0438957
        k(   55) = (   0.0476204   0.0714307   0.1346056), wk =   0.0438957
        k(   56) = (   0.0476204   0.0952409   0.0000000), wk =   0.0219479
        k(   57) = (   0.0476204   0.0952409   0.0336514), wk =   0.0438957
        k(   58) = (   0.0476204   0.0952409   0.0673028), wk =   0.0438957
        k(   59) = (   0.0476204   0.0952409   0.1009542), wk =   0.0438957
        k(   60) = (   0.0476204   0.0952409   0.1346056), wk =   0.0438957
        k(   61) = (   0.0714307   0.0714307   0.0000000), wk =   0.0109739
        k(   62) = (   0.0714307   0.0714307   0.0336514), wk =   0.0219479
        k(   63) = (   0.0714307   0.0714307   0.0673028), wk =   0.0219479
        k(   64) = (   0.0714307   0.0714307   0.1009542), wk =   0.0219479
        k(   65) = (   0.0714307   0.0714307   0.1346056), wk =   0.0219479
        k(   66) = (   0.0714307   0.0952409   0.0000000), wk =   0.0219479
        k(   67) = (   0.0714307   0.0952409   0.0336514), wk =   0.0438957
        k(   68) = (   0.0714307   0.0952409   0.0673028), wk =   0.0438957
        k(   69) = (   0.0714307   0.0952409   0.1009542), wk =   0.0438957
        k(   70) = (   0.0714307   0.0952409   0.1346056), wk =   0.0438957
        k(   71) = (   0.0952409   0.0952409   0.0000000), wk =   0.0109739
        k(   72) = (   0.0952409   0.0952409   0.0336514), wk =   0.0219479
        k(   73) = (   0.0952409   0.0952409   0.0673028), wk =   0.0219479
        k(   74) = (   0.0952409   0.0952409   0.1009542), wk =   0.0219479
        k(   75) = (   0.0952409   0.0952409   0.1346056), wk =   0.0219479

     Largest allocated arrays     est. size (Mb)     dimensions
     Largest temporary arrays     est. size (Mb)     dimensions

     Check: negative/imaginary core charge=   -0.000001    0.000000

     Initial potential from superposition of free atoms
     Check: negative starting charge=   -0.215329

     starting charge   59.99971, renormalised to   64.00000

     negative rho (up, down):  2.297E-01 0.000E+00

     *
     * You are using vdW-DF for exchange-correlation in this calculation.
     * Please cite the following three references that made this development
     * possible:
     *
     *   M. Dion, H. Rydberg, E. Schroder, D. C. Langreth, and
     *   B. I. Lundqvist, Phys. Rev. Lett. 92, 246401 (2004).
     *
     *   T. Thonhauser, V. R. Cooper, S. Li, A. Puzder, P. Hyldgaard, and
     *   D. C. Langreth, Phys. Rev. B 76, 125112 (2007).
     *
     *   G. Roman-Perez and J. M. Soler, Phys. Rev. Lett. 103, 096102 (2009).
     *
     *
     * If you are using vdW-DF2, please also cite:
     *
     *   K. Lee, E. D. Murray, L. Kong, B. I. Lundqvist, and
     *   D. C. Langreth, Phys. Rev. B 82, 081101(R) (2010).
     *
     *
     * If you are calculating the stress with vdW-DF, please also cite:
     *
     *   R. Sabatini, E. Kucukbenli, B. Kolb, T. Thonhauser, and
     *   S. de Gironcoli, J. Phys.: Condens. Matter 24, 424209 (2012).
     *

     Carrying out vdW-DF run using the following parameters:

     Nqs =      20    Nr_points =    1024   r_max =   100.000
     q_mesh =
               0.00001000     0.04494208     0.09755937     0.15916263
               0.23128650     0.31572767     0.41458969     0.53033537
               0.66584808     0.82450364     1.01025438     1.22772762
               1.48234092     1.78043706     2.12944203     2.53805004
               3.01644009     3.57652955     4.23227104     5.00000000

     Gradients computed in reciprocal space

     Starting wfc are   52 randomized atomic wfcs

     Self-consistent Calculation

     iteration #  1     ecut=    58.80 Ry     beta=0.10
     Davidson diagonalization with overlap
     ethr =  1.00E-02,  avg # of iterations =  4.1

[...]

     total energy              =   -1232.84629729 Ry
     Harris-Foulkes estimate   =   -1264.67193486 Ry
     estimated scf accuracy    <     176.69694005 Ry

[...]

     total energy              =   -1246.82019522 Ry
     Harris-Foulkes estimate   =   -1246.82021204 Ry
     estimated scf accuracy    <       0.00003339 Ry

     iteration # 12     ecut=    58.80 Ry     beta=0.10
     Davidson diagonalization with overlap
     ethr =  5.22E-08,  avg # of iterations =  2.0

     negative rho (up, down):  2.349E-01 0.000E+00

     End of self-consistent calculation

          k = 0.0000 0.0000 0.0000 (  3691 PWs)   bands (ev):

  -111.8138-111.8137 -65.9806 -65.9806 -65.9801 -65.9800 -65.9798 -65.9798
   -47.9075 -47.8847 -16.5700 -16.5700 -16.3185 -16.3172 -16.3172 -16.2678
     5.8046   6.9218   6.9883   6.9884   7.0575   7.1992   7.1992   7.3540
     7.3540   7.3550   7.5555  10.1560  13.8085  13.8090  13.8161  13.9401
    13.9401  17.1087  17.1087  18.7495  18.7495  18.7541  20.0369  20.0531
    20.0531  20.2785  21.6728  22.3017  23.6093  24.9136  26.6697  26.6697
    28.5140  28.5161  30.6876  30.9763

[...]

          k = 0.0952 0.0952 0.1346 (  3692 PWs)   bands (ev):

  -111.8137-111.8137 -65.9809 -65.9809 -65.9806 -65.9806 -65.9797 -65.9796
   -47.8855 -47.8848 -16.5705 -16.5636 -16.5624 -16.5605 -16.2759 -16.2683
     6.9378   6.9387   7.0657   7.0776   7.2025   7.2045   7.2052   7.2127
     7.5373   7.5462  10.1140  10.1647  13.0409  13.2518  13.8802  13.9402
    14.3963  14.6277  17.0343  17.1531  17.1707  17.2477  20.2049  20.2549
    21.6035  21.6694  21.8092  22.4617  23.8426  24.1428  26.6120  26.7985
    26.9326  26.9613  30.8140  30.9422

     the Fermi energy is    14.6236 ev

!    total energy              =   -1246.82020523 Ry
     Harris-Foulkes estimate   =   -1246.82020344 Ry
     estimated scf accuracy    <       0.00000062 Ry

     The total energy is the sum of the following terms:

     one-electron contribution =    -826.00668724 Ry
     hartree contribution      =     439.29219778 Ry
     xc contribution           =    -241.71323723 Ry
     ewald contribution        =    -618.38894623 Ry
     smearing contrib. (-TS)   =      -0.00353231 Ry

     convergence has been achieved in  12 iterations

     Forces acting on atoms (Ry/au):

     negative rho (up, down):  2.349E-01 0.000E+00
     atom    1 type  1   force =     0.00000000    0.00000000    0.00000000
     atom    2 type  1   force =     0.00000000    0.00000000    0.00000000
     atom    3 type  2   force =     0.00000000    0.00000000    0.00000000
     atom    4 type  2   force =     0.00000000    0.00000000    0.00000000

     Total force =     0.000000     Total SCF correction =     0.000000

     General routines

     Parallel routines

   This run was terminated on:   9:50:15  14Nov2017

   JOB DONE.