     Program PWSCF v.5.1rc2 starts on 15Nov2017 at  1:13:49

     Current dimensions of program PWSCF are:
     Max number of different atomic species (ntypx) = 10
     Max number of k-points (npk) =  40000
     Max angular momentum in pseudopotentials (lmaxx) =  3

     IMPORTANT: XC functional enforced from input :
     Exchange-correlation      = BEEF-VDW ( 1  4 27 13 2)
     Any further DFT definition will be discarded
     Please, verify this is what you really want

     Found symmetry operation: I + ( -0.5000 -0.5000  0.0000)
     This is a supercell, fractional translations are disabled

     bravais-lattice index     =            0
     lattice parameter (alat)  =       1.8897  a.u.
     unit-cell volume          =     481.3354 (a.u.)^3
     number of atoms/cell      =            4
     number of atomic types    =            2
     number of electrons       =        56.00
     number of Kohn-Sham states=           48
     kinetic-energy cutoff     =      58.7989  Ry
     charge density cutoff     =     587.9892  Ry
     convergence threshold     =      1.0E-06
     mixing beta               =       0.1000
     number of iterations used =           10  plain     mixing
     Exchange-correlation      = BEEF-VDW ( 1  4 27 13 2)

     celldm(1)=   1.889726  celldm(2)=   0.000000  celldm(3)=   0.000000
     celldm(4)=   0.000000  celldm(5)=   0.000000  celldm(6)=   0.000000

     crystal axes: (cart. coord. in units of alat)
               a(1) = (   4.017318   0.000000   0.000000 )
               a(2) = (   0.000000   4.017318   0.000000 )
               a(3) = (   0.000000   0.000000   4.419557 )

     reciprocal axes: (cart. coord. in units 2 pi/alat)
               b(1) = (  0.248922  0.000000  0.000000 )
               b(2) = (  0.000000  0.248922  0.000000 )
               b(3) = (  0.000000  0.000000  0.226267 )

     PseudoPot. # 1 for Os read from file:
     /home/users/vossj/suncat/psp/gbrv1.5pbe/Os.UPF
     MD5 check sum: a3fb40a04f0c37c25c34bbc47164c9a8
     Pseudo is Ultrasoft + core correction, Zval = 16.0
     Generated by new atomic code, or converted to UPF format
     Using radial grid of  983 points,  8 beta functions with:
                l(1) =   0
                l(2) =   0
                l(3) =   1
                l(4) =   1
                l(5) =   2
                l(6) =   2
                l(7) =   3
                l(8) =   3
     Q(r) pseudized with  8 coefficients,  rinner =    1.150   1.150   1.150
                                                       1.150   1.150   1.150
                                                       1.150

     PseudoPot. # 2 for Hg read from file:
     /home/users/vossj/suncat/psp/gbrv1.5pbe/Hg.UPF
     MD5 check sum: 8f42caffe07f7fd9c0a564347f8c5498
     Pseudo is Ultrasoft + core correction, Zval = 12.0
     Generated by new atomic code, or converted to UPF format
     Using radial grid of  985 points,  6 beta functions with:
                l(1) =   0
                l(2) =   0
                l(3) =   1
                l(4) =   1
                l(5) =   2
                l(6) =   2
     Q(r) pseudized with  8 coefficients,  rinner =    2.000   2.000   2.000
                                                       2.000   2.000

     vdW kernel table read from file vdW_kernel_table
     MD5 check sum: 095c7af220d748ca6e76c0b4c6cfb241

     atomic species   valence    mass     pseudopotential
        Os1           16.00   190.20000     Os( 1.00)
        Hg1           12.00   200.59000     Hg( 1.00)

     16 Sym. Ops., with inversion, found

   Cartesian axes

     site n.     atom                  positions (alat units)
         1           Os1 tau(   1) = (   0.0000000   0.0000000   0.0000000  )
         2           Os1 tau(   2) = (   2.0086591   2.0086591   0.0000000  )
         3           Hg1 tau(   3) = (   2.0086591   0.0000000   2.2097786  )
         4           Hg1 tau(   4) = (   0.0000000   2.0086591   2.2097786  )

     number of k points=    75  Fermi-Dirac smearing, width (Ry)=  0.0073
                       cart. coord. in units 2pi/alat
        k(    1) = (   0.0000000   0.0000000   0.0000000), wk =   0.0027435
        k(    2) = (   0.0000000   0.0000000   0.0251408), wk =   0.0054870
        k(    3) = (   0.0000000   0.0000000   0.0502816), wk =   0.0054870
        k(    4) = (   0.0000000   0.0000000   0.0754223), wk =   0.0054870
        k(    5) = (   0.0000000   0.0000000   0.1005631), wk =   0.0054870
        k(    6) = (   0.0000000   0.0276580   0.0000000), wk =   0.0109739
        k(    7) = (   0.0000000   0.0276580   0.0251408), wk =   0.0219479
        k(    8) = (   0.0000000   0.0276580   0.0502816), wk =   0.0219479
        k(    9) = (   0.0000000   0.0276580   0.0754223), wk =   0.0219479
        k(   10) = (   0.0000000   0.0276580   0.1005631), wk =   0.0219479
        k(   11) = (   0.0000000   0.0553161   0.0000000), wk =   0.0109739
        k(   12) = (   0.0000000   0.0553161   0.0251408), wk =   0.0219479
        k(   13) = (   0.0000000   0.0553161   0.0502816), wk =   0.0219479
        k(   14) = (   0.0000000   0.0553161   0.0754223), wk =   0.0219479
        k(   15) = (   0.0000000   0.0553161   0.1005631), wk =   0.0219479
        k(   16) = (   0.0000000   0.0829741   0.0000000), wk =   0.0109739
        k(   17) = (   0.0000000   0.0829741   0.0251408), wk =   0.0219479
        k(   18) = (   0.0000000   0.0829741   0.0502816), wk =   0.0219479
        k(   19) = (   0.0000000   0.0829741   0.0754223), wk =   0.0219479
        k(   20) = (   0.0000000   0.0829741   0.1005631), wk =   0.0219479
        k(   21) = (   0.0000000   0.1106321   0.0000000), wk =   0.0109739
        k(   22) = (   0.0000000   0.1106321   0.0251408), wk =   0.0219479
        k(   23) = (   0.0000000   0.1106321   0.0502816), wk =   0.0219479
        k(   24) = (   0.0000000   0.1106321   0.0754223), wk =   0.0219479
        k(   25) = (   0.0000000   0.1106321   0.1005631), wk =   0.0219479
        k(   26) = (   0.0276580   0.0276580   0.0000000), wk =   0.0109739
        k(   27) = (   0.0276580   0.0276580   0.0251408), wk =   0.0219479
        k(   28) = (   0.0276580   0.0276580   0.0502816), wk =   0.0219479
        k(   29) = (   0.0276580   0.0276580   0.0754223), wk =   0.0219479
        k(   30) = (   0.0276580   0.0276580   0.1005631), wk =   0.0219479
        k(   31) = (   0.0276580   0.0553161   0.0000000), wk =   0.0219479
        k(   32) = (   0.0276580   0.0553161   0.0251408), wk =   0.0438957
        k(   33) = (   0.0276580   0.0553161   0.0502816), wk =   0.0438957
        k(   34) = (   0.0276580   0.0553161   0.0754223), wk =   0.0438957
        k(   35) = (   0.0276580   0.0553161   0.1005631), wk =   0.0438957
        k(   36) = (   0.0276580   0.0829741   0.0000000), wk =   0.0219479
        k(   37) = (   0.0276580   0.0829741   0.0251408), wk =   0.0438957
        k(   38) = (   0.0276580   0.0829741   0.0502816), wk =   0.0438957
        k(   39) = (   0.0276580   0.0829741   0.0754223), wk =   0.0438957
        k(   40) = (   0.0276580   0.0829741   0.1005631), wk =   0.0438957
        k(   41) = (   0.0276580   0.1106321   0.0000000), wk =   0.0219479
        k(   42) = (   0.0276580   0.1106321   0.0251408), wk =   0.0438957
        k(   43) = (   0.0276580   0.1106321   0.0502816), wk =   0.0438957
        k(   44) = (   0.0276580   0.1106321   0.0754223), wk =   0.0438957
        k(   45) = (   0.0276580   0.1106321   0.1005631), wk =   0.0438957
        k(   46) = (   0.0553161   0.0553161   0.0000000), wk =   0.0109739
        k(   47) = (   0.0553161   0.0553161   0.0251408), wk =   0.0219479
        k(   48) = (   0.0553161   0.0553161   0.0502816), wk =   0.0219479
        k(   49) = (   0.0553161   0.0553161   0.0754223), wk =   0.0219479
        k(   50) = (   0.0553161   0.0553161   0.1005631), wk =   0.0219479
        k(   51) = (   0.0553161   0.0829741   0.0000000), wk =   0.0219479
        k(   52) = (   0.0553161   0.0829741   0.0251408), wk =   0.0438957
        k(   53) = (   0.0553161   0.0829741   0.0502816), wk =   0.0438957
        k(   54) = (   0.0553161   0.0829741   0.0754223), wk =   0.0438957
        k(   55) = (   0.0553161   0.0829741   0.1005631), wk =   0.0438957
        k(   56) = (   0.0553161   0.1106321   0.0000000), wk =   0.0219479
        k(   57) = (   0.0553161   0.1106321   0.0251408), wk =   0.0438957
        k(   58) = (   0.0553161   0.1106321   0.0502816), wk =   0.0438957
        k(   59) = (   0.0553161   0.1106321   0.0754223), wk =   0.0438957
        k(   60) = (   0.0553161   0.1106321   0.1005631), wk =   0.0438957
        k(   61) = (   0.0829741   0.0829741   0.0000000), wk =   0.0109739
        k(   62) = (   0.0829741   0.0829741   0.0251408), wk =   0.0219479
        k(   63) = (   0.0829741   0.0829741   0.0502816), wk =   0.0219479
        k(   64) = (   0.0829741   0.0829741   0.0754223), wk =   0.0219479
        k(   65) = (   0.0829741   0.0829741   0.1005631), wk =   0.0219479
        k(   66) = (   0.0829741   0.1106321   0.0000000), wk =   0.0219479
        k(   67) = (   0.0829741   0.1106321   0.0251408), wk =   0.0438957
        k(   68) = (   0.0829741   0.1106321   0.0502816), wk =   0.0438957
        k(   69) = (   0.0829741   0.1106321   0.0754223), wk =   0.0438957
        k(   70) = (   0.0829741   0.1106321   0.1005631), wk =   0.0438957
        k(   71) = (   0.1106321   0.1106321   0.0000000), wk =   0.0109739
        k(   72) = (   0.1106321   0.1106321   0.0251408), wk =   0.0219479
        k(   73) = (   0.1106321   0.1106321   0.0502816), wk =   0.0219479
        k(   74) = (   0.1106321   0.1106321   0.0754223), wk =   0.0219479
        k(   75) = (   0.1106321   0.1106321   0.1005631), wk =   0.0219479

     Largest allocated arrays     est. size (Mb)     dimensions
     Largest temporary arrays     est. size (Mb)     dimensions

     Initial potential from superposition of free atoms
     Check: negative starting charge=   -0.249114

     starting charge   54.99981, renormalised to   56.00000

     negative rho (up, down):  2.536E-01 0.000E+00

     *
     * You are using vdW-DF for exchange-correlation in this calculation.
     * Please cite the following three references that made this development
     * possible:
     *
     *   M. Dion, H. Rydberg, E. Schroder, D. C. Langreth, and
     *   B. I. Lundqvist, Phys. Rev. Lett. 92, 246401 (2004).
     *
     *   T. Thonhauser, V. R. Cooper, S. Li, A. Puzder, P. Hyldgaard, and
     *   D. C. Langreth, Phys. Rev. B 76, 125112 (2007).
     *
     *   G. Roman-Perez and J. M. Soler, Phys. Rev. Lett. 103, 096102 (2009).
     *
     *
     * If you are using vdW-DF2, please also cite:
     *
     *   K. Lee, E. D. Murray, L. Kong, B. I. Lundqvist, and
     *   D. C. Langreth, Phys. Rev. B 82, 081101(R) (2010).
     *
     *
     * If you are calculating the stress with vdW-DF, please also cite:
     *
     *   R. Sabatini, E. Kucukbenli, B. Kolb, T. Thonhauser, and
     *   S. de Gironcoli, J. Phys.: Condens. Matter 24, 424209 (2012).
     *

     Carrying out vdW-DF run using the following parameters:

     Nqs =      20    Nr_points =    1024   r_max =   100.000
     q_mesh =
               0.00001000     0.04494208     0.09755937     0.15916263
               0.23128650     0.31572767     0.41458969     0.53033537
               0.66584808     0.82450364     1.01025438     1.22772762
               1.48234092     1.78043706     2.12944203     2.53805004
               3.01644009     3.57652955     4.23227104     5.00000000

     Gradients computed in reciprocal space

     Starting wfc are   44 randomized atomic wfcs +    4 random wfc

     Self-consistent Calculation

     iteration #  1     ecut=    58.80 Ry     beta=0.10
     Davidson diagonalization with overlap
     ethr =  1.00E-02,  avg # of iterations =  4.7

[...]

     total energy              =    -617.55260033 Ry
     Harris-Foulkes estimate   =    -617.81012462 Ry
     estimated scf accuracy    <       1.45055807 Ry

[...]

     total energy              =    -617.51898437 Ry
     Harris-Foulkes estimate   =    -617.51898535 Ry
     estimated scf accuracy    <       0.00000490 Ry

     iteration # 12     ecut=    58.80 Ry     beta=0.10
     Davidson diagonalization with overlap
     ethr =  8.74E-09,  avg # of iterations =  2.0

     negative rho (up, down):  2.356E-01 0.000E+00

     End of self-consistent calculation

          k = 0.0000 0.0000 0.0000 (  3697 PWs)   bands (ev):

   -68.3417 -68.3088 -27.7774 -27.7774 -27.6127 -27.5466 -27.4782 -27.4782
     7.4943   8.5784   8.6124   9.0977   9.3530   9.3530  10.0965  10.7892
    10.7892  11.4176  12.2679  14.1782  14.3943  14.6193  16.7687  16.7687
    17.3877  17.7585  18.2572  18.2572  18.7736  18.7736  19.1299  20.6207
    22.3549  22.3998  25.5876  25.9881  27.0269  27.0269  27.5303  28.0612
    28.0612  31.3969  34.0031  34.2284  34.9360  35.0450  35.9623  35.9623

[...]

          k = 0.1106 0.1106 0.1006 (  3650 PWs)   bands (ev):

   -68.3256 -68.3246 -27.8125 -27.8037 -27.5813 -27.5793 -27.4603 -27.4511
     8.8457   8.9355   8.9502   8.9611  10.3536  10.3672  10.3677  10.4580
    10.9099  10.9529  13.5228  13.9511  14.4103  14.5808  15.7817  15.9519
    16.4141  16.7873  17.4646  17.9468  17.9934  18.0005  18.3418  18.4839
    20.5715  20.8122  22.9874  23.2638  30.1254  30.2093  30.5997  30.7250
    33.4454  33.4650  33.5421  33.5481  33.9449  33.9480  35.8165  36.1089

     the Fermi energy is    17.8336 ev

!    total energy              =    -617.51898782 Ry
     Harris-Foulkes estimate   =    -617.51898539 Ry
     estimated scf accuracy    <       0.00000067 Ry

     The total energy is the sum of the following terms:

     one-electron contribution =     -83.03945777 Ry
     hartree contribution      =      86.72236595 Ry
     xc contribution           =    -158.45324593 Ry
     ewald contribution        =    -462.73307524 Ry
     smearing contrib. (-TS)   =      -0.01557483 Ry

     convergence has been achieved in  12 iterations

     Forces acting on atoms (Ry/au):

     negative rho (up, down):  2.356E-01 0.000E+00
     atom    1 type  1   force =     0.00000000    0.00000000    0.00000000
     atom    2 type  1   force =     0.00000000    0.00000000    0.00000000
     atom    3 type  2   force =     0.00000000    0.00000000    0.00000000
     atom    4 type  2   force =     0.00000000    0.00000000    0.00000000

     Total force =     0.000000     Total SCF correction =     0.000000

     General routines

     Parallel routines

   This run was terminated on:   1:14:31  15Nov2017

   JOB DONE.