     Program PWSCF v.5.1rc2 starts on 15Nov2017 at  4: 9:26

     Current dimensions of program PWSCF are:
     Max number of different atomic species (ntypx) = 10
     Max number of k-points (npk) =  40000
     Max angular momentum in pseudopotentials (lmaxx) =  3

     IMPORTANT: XC functional enforced from input :
     Exchange-correlation      = BEEF-VDW ( 1  4 27 13 2)
     Any further DFT definition will be discarded
     Please, verify this is what you really want

     Found symmetry operation: I + (  0.5000  0.5000  0.0000)
     This is a supercell, fractional translations are disabled

     bravais-lattice index     =            0
     lattice parameter (alat)  =       1.8897  a.u.
     unit-cell volume          =     466.5070 (a.u.)^3
     number of atoms/cell      =            4
     number of atomic types    =            2
     number of electrons       =        54.00
     number of Kohn-Sham states=           47
     kinetic-energy cutoff     =      58.7989  Ry
     charge density cutoff     =     587.9892  Ry
     convergence threshold     =      1.0E-06
     mixing beta               =       0.1000
     number of iterations used =           10  plain     mixing
     Exchange-correlation      = BEEF-VDW ( 1  4 27 13 2)

     celldm(1)=   1.889726  celldm(2)=   0.000000  celldm(3)=   0.000000
     celldm(4)=   0.000000  celldm(5)=   0.000000  celldm(6)=   0.000000

     crystal axes: (cart. coord. in units of alat)
               a(1) = (   4.606755   0.000000   0.000000 )
               a(2) = (   0.000000   4.606755   0.000000 )
               a(3) = (   0.000000   0.000000   3.257402 )

     reciprocal axes: (cart. coord. in units 2 pi/alat)
               b(1) = (  0.217073  0.000000  0.000000 )
               b(2) = (  0.000000  0.217073  0.000000 )
               b(3) = (  0.000000  0.000000  0.306993 )

     PseudoPot. # 1 for Rh read from file:
     /home/users/vossj/suncat/psp/gbrv1.5pbe/Rh.UPF
     MD5 check sum: 761627e959a2e3a1f56b0b5fe687810e
     Pseudo is Ultrasoft + core correction, Zval = 15.0
     Generated by new atomic code, or converted to UPF format
     Using radial grid of  969 points,  7 beta functions with:
                l(1) =   0
                l(2) =   0
                l(3) =   1
                l(4) =   1
                l(5) =   2
                l(6) =   2
                l(7) =   2
     Q(r) pseudized with  8 coefficients,  rinner =    1.200   1.200   1.200
                                                       1.200   1.200

     PseudoPot. # 2 for Cd read from file:
     /home/users/vossj/suncat/psp/gbrv1.5pbe/Cd.UPF
     MD5 check sum: 17164a7926edb8e0dc231208abae86a6
     Pseudo is Ultrasoft + core correction, Zval = 12.0
     Generated by new atomic code, or converted to UPF format
     Using radial grid of  889 points,  6 beta functions with:
                l(1) =   0
                l(2) =   0
                l(3) =   1
                l(4) =   1
                l(5) =   2
                l(6) =   2
     Q(r) pseudized with  6 coefficients,  rinner =    1.000   1.000   1.000
                                                       1.000   1.000

     vdW kernel table read from file vdW_kernel_table
     MD5 check sum: 095c7af220d748ca6e76c0b4c6cfb241

     atomic species   valence    mass     pseudopotential
        Rh1           15.00   102.90550     Rh( 1.00)
        Cd1           12.00   112.41000     Cd( 1.00)

     16 Sym. Ops., with inversion, found

   Cartesian axes

     site n.     atom                  positions (alat units)
         1           Rh1 tau(   1) = (   0.0000000   0.0000000   0.0000000  )
         2           Rh1 tau(   2) = (   2.3033775   2.3033775   0.0000000  )
         3           Cd1 tau(   3) = (   2.3033775   0.0000000   1.6287011  )
         4           Cd1 tau(   4) = (   0.0000000   2.3033775   1.6287011  )

     number of k points=    75  Fermi-Dirac smearing, width (Ry)=  0.0073
                       cart. coord. in units 2pi/alat
        k(    1) = (   0.0000000   0.0000000   0.0000000), wk =   0.0027435
        k(    2) = (   0.0000000   0.0000000   0.0341103), wk =   0.0054870
        k(    3) = (   0.0000000   0.0000000   0.0682207), wk =   0.0054870
        k(    4) = (   0.0000000   0.0000000   0.1023310), wk =   0.0054870
        k(    5) = (   0.0000000   0.0000000   0.1364414), wk =   0.0054870
        k(    6) = (   0.0000000   0.0241192   0.0000000), wk =   0.0109739
        k(    7) = (   0.0000000   0.0241192   0.0341103), wk =   0.0219479
        k(    8) = (   0.0000000   0.0241192   0.0682207), wk =   0.0219479
        k(    9) = (   0.0000000   0.0241192   0.1023310), wk =   0.0219479
        k(   10) = (   0.0000000   0.0241192   0.1364414), wk =   0.0219479
        k(   11) = (   0.0000000   0.0482383   0.0000000), wk =   0.0109739
        k(   12) = (   0.0000000   0.0482383   0.0341103), wk =   0.0219479
        k(   13) = (   0.0000000   0.0482383   0.0682207), wk =   0.0219479
        k(   14) = (   0.0000000   0.0482383   0.1023310), wk =   0.0219479
        k(   15) = (   0.0000000   0.0482383   0.1364414), wk =   0.0219479
        k(   16) = (   0.0000000   0.0723575   0.0000000), wk =   0.0109739
        k(   17) = (   0.0000000   0.0723575   0.0341103), wk =   0.0219479
        k(   18) = (   0.0000000   0.0723575   0.0682207), wk =   0.0219479
        k(   19) = (   0.0000000   0.0723575   0.1023310), wk =   0.0219479
        k(   20) = (   0.0000000   0.0723575   0.1364414), wk =   0.0219479
        k(   21) = (   0.0000000   0.0964767   0.0000000), wk =   0.0109739
        k(   22) = (   0.0000000   0.0964767   0.0341103), wk =   0.0219479
        k(   23) = (   0.0000000   0.0964767   0.0682207), wk =   0.0219479
        k(   24) = (   0.0000000   0.0964767   0.1023310), wk =   0.0219479
        k(   25) = (   0.0000000   0.0964767   0.1364414), wk =   0.0219479
        k(   26) = (   0.0241192   0.0241192   0.0000000), wk =   0.0109739
        k(   27) = (   0.0241192   0.0241192   0.0341103), wk =   0.0219479
        k(   28) = (   0.0241192   0.0241192   0.0682207), wk =   0.0219479
        k(   29) = (   0.0241192   0.0241192   0.1023310), wk =   0.0219479
        k(   30) = (   0.0241192   0.0241192   0.1364414), wk =   0.0219479
        k(   31) = (   0.0241192   0.0482383   0.0000000), wk =   0.0219479
        k(   32) = (   0.0241192   0.0482383   0.0341103), wk =   0.0438957
        k(   33) = (   0.0241192   0.0482383   0.0682207), wk =   0.0438957
        k(   34) = (   0.0241192   0.0482383   0.1023310), wk =   0.0438957
        k(   35) = (   0.0241192   0.0482383   0.1364414), wk =   0.0438957
        k(   36) = (   0.0241192   0.0723575   0.0000000), wk =   0.0219479
        k(   37) = (   0.0241192   0.0723575   0.0341103), wk =   0.0438957
        k(   38) = (   0.0241192   0.0723575   0.0682207), wk =   0.0438957
        k(   39) = (   0.0241192   0.0723575   0.1023310), wk =   0.0438957
        k(   40) = (   0.0241192   0.0723575   0.1364414), wk =   0.0438957
        k(   41) = (   0.0241192   0.0964767   0.0000000), wk =   0.0219479
        k(   42) = (   0.0241192   0.0964767   0.0341103), wk =   0.0438957
        k(   43) = (   0.0241192   0.0964767   0.0682207), wk =   0.0438957
        k(   44) = (   0.0241192   0.0964767   0.1023310), wk =   0.0438957
        k(   45) = (   0.0241192   0.0964767   0.1364414), wk =   0.0438957
        k(   46) = (   0.0482383   0.0482383   0.0000000), wk =   0.0109739
        k(   47) = (   0.0482383   0.0482383   0.0341103), wk =   0.0219479
        k(   48) = (   0.0482383   0.0482383   0.0682207), wk =   0.0219479
        k(   49) = (   0.0482383   0.0482383   0.1023310), wk =   0.0219479
        k(   50) = (   0.0482383   0.0482383   0.1364414), wk =   0.0219479
        k(   51) = (   0.0482383   0.0723575   0.0000000), wk =   0.0219479
        k(   52) = (   0.0482383   0.0723575   0.0341103), wk =   0.0438957
        k(   53) = (   0.0482383   0.0723575   0.0682207), wk =   0.0438957
        k(   54) = (   0.0482383   0.0723575   0.1023310), wk =   0.0438957
        k(   55) = (   0.0482383   0.0723575   0.1364414), wk =   0.0438957
        k(   56) = (   0.0482383   0.0964767   0.0000000), wk =   0.0219479
        k(   57) = (   0.0482383   0.0964767   0.0341103), wk =   0.0438957
        k(   58) = (   0.0482383   0.0964767   0.0682207), wk =   0.0438957
        k(   59) = (   0.0482383   0.0964767   0.1023310), wk =   0.0438957
        k(   60) = (   0.0482383   0.0964767   0.1364414), wk =   0.0438957
        k(   61) = (   0.0723575   0.0723575   0.0000000), wk =   0.0109739
        k(   62) = (   0.0723575   0.0723575   0.0341103), wk =   0.0219479
        k(   63) = (   0.0723575   0.0723575   0.0682207), wk =   0.0219479
        k(   64) = (   0.0723575   0.0723575   0.1023310), wk =   0.0219479
        k(   65) = (   0.0723575   0.0723575   0.1364414), wk =   0.0219479
        k(   66) = (   0.0723575   0.0964767   0.0000000), wk =   0.0219479
        k(   67) = (   0.0723575   0.0964767   0.0341103), wk =   0.0438957
        k(   68) = (   0.0723575   0.0964767   0.0682207), wk =   0.0438957
        k(   69) = (   0.0723575   0.0964767   0.1023310), wk =   0.0438957
        k(   70) = (   0.0723575   0.0964767   0.1364414), wk =   0.0438957
        k(   71) = (   0.0964767   0.0964767   0.0000000), wk =   0.0109739
        k(   72) = (   0.0964767   0.0964767   0.0341103), wk =   0.0219479
        k(   73) = (   0.0964767   0.0964767   0.0682207), wk =   0.0219479
        k(   74) = (   0.0964767   0.0964767   0.1023310), wk =   0.0219479
        k(   75) = (   0.0964767   0.0964767   0.1364414), wk =   0.0219479

     Largest allocated arrays     est. size (Mb)     dimensions
     Largest temporary arrays     est. size (Mb)     dimensions

     Initial potential from superposition of free atoms
     Check: negative starting charge=   -0.154341

     starting charge   51.99972, renormalised to   54.00000

     negative rho (up, down):  1.603E-01 0.000E+00

     *
     * You are using vdW-DF for exchange-correlation in this calculation.
     * Please cite the following three references that made this development
     * possible:
     *
     *   M. Dion, H. Rydberg, E. Schroder, D. C. Langreth, and
     *   B. I. Lundqvist, Phys. Rev. Lett. 92, 246401 (2004).
     *
     *   T. Thonhauser, V. R. Cooper, S. Li, A. Puzder, P. Hyldgaard, and
     *   D. C. Langreth, Phys. Rev. B 76, 125112 (2007).
     *
     *   G. Roman-Perez and J. M. Soler, Phys. Rev. Lett. 103, 096102 (2009).
     *
     *
     * If you are using vdW-DF2, please also cite:
     *
     *   K. Lee, E. D. Murray, L. Kong, B. I. Lundqvist, and
     *   D. C. Langreth, Phys. Rev. B 82, 081101(R) (2010).
     *
     *
     * If you are calculating the stress with vdW-DF, please also cite:
     *
     *   R. Sabatini, E. Kucukbenli, B. Kolb, T. Thonhauser, and
     *   S. de Gironcoli, J. Phys.: Condens. Matter 24, 424209 (2012).
     *

     Carrying out vdW-DF run using the following parameters:

     Nqs =      20    Nr_points =    1024   r_max =   100.000
     q_mesh =
               0.00001000     0.04494208     0.09755937     0.15916263
               0.23128650     0.31572767     0.41458969     0.53033537
               0.66584808     0.82450364     1.01025438     1.22772762
               1.48234092     1.78043706     2.12944203     2.53805004
               3.01644009     3.57652955     4.23227104     5.00000000

     Gradients computed in reciprocal space

     Starting wfc are   42 randomized atomic wfcs +    5 random wfc

     Self-consistent Calculation

     iteration #  1     ecut=    58.80 Ry     beta=0.10
     Davidson diagonalization with overlap
     ethr =  1.00E-02,  avg # of iterations =  4.6

[...]

     total energy              =    -576.79234146 Ry
     Harris-Foulkes estimate   =    -576.98083896 Ry
     estimated scf accuracy    <       1.19791315 Ry

[...]

     total energy              =    -576.70035234 Ry
     Harris-Foulkes estimate   =    -576.70034255 Ry
     estimated scf accuracy    <       0.00000113 Ry

     iteration # 11     ecut=    58.80 Ry     beta=0.10
     Davidson diagonalization with overlap
     ethr =  2.10E-09,  avg # of iterations =  1.2

     negative rho (up, down):  1.569E-01 0.000E+00

     End of self-consistent calculation

          k = 0.0000 0.0000 0.0000 (  3531 PWs)   bands (ev):

   -30.8519 -30.8519 -30.8075 -30.8075 -30.8066 -30.7989   5.9216   5.9258
     5.9266   6.2036   6.4000   6.4000   6.7181   6.7181   6.7187   6.9761
     7.1138  11.0192  12.6682  12.6692  13.0796  14.0654  14.0654  14.3761
    14.3771  14.3771  14.6967  14.6967  14.8462  19.4405  19.8075  21.5963
    21.5963  21.5966  27.6002  27.6643  28.0978  28.0978  28.4737  28.4738
    30.9690  32.7008  32.7008  32.7011  34.2015  34.8823  34.8823

[...]

          k = 0.0965 0.0965 0.1364 (  3500 PWs)   bands (ev):

   -30.8520 -30.8506 -30.8498 -30.8495 -30.8014 -30.8000   5.9447   5.9517
     6.2068   6.2315   6.3988   6.4050   6.4099   6.4225   7.0704   7.0921
    10.9943  11.0237  12.9682  13.0565  13.7181  13.7224  14.0156  14.0718
    14.2164  14.3314  14.5497  15.0113  15.3018  15.4376  19.5660  19.5895
    20.0136  20.3447  27.2378  27.6500  27.9880  28.0815  28.0946  28.2322
    30.5494  30.7443  34.3294  34.4912  34.8303  35.1127  35.2164

     the Fermi energy is    14.5353 ev

!    total energy              =    -576.70039305 Ry
     Harris-Foulkes estimate   =    -576.70035239 Ry
     estimated scf accuracy    <       0.00000090 Ry

     The total energy is the sum of the following terms:

     one-electron contribution =     -99.22718341 Ry
     hartree contribution      =     100.49917880 Ry
     xc contribution           =    -144.00395202 Ry
     ewald contribution        =    -433.96005696 Ry
     smearing contrib. (-TS)   =      -0.00837946 Ry

     convergence has been achieved in  11 iterations

     Forces acting on atoms (Ry/au):

     negative rho (up, down):  1.569E-01 0.000E+00
     atom    1 type  1   force =     0.00000000    0.00000000    0.00000000
     atom    2 type  1   force =     0.00000000    0.00000000    0.00000000
     atom    3 type  2   force =     0.00000000    0.00000000    0.00000000
     atom    4 type  2   force =     0.00000000    0.00000000    0.00000000

     Total force =     0.000000     Total SCF correction =     0.000000

     General routines

     Parallel routines

   This run was terminated on:   4:10: 5  15Nov2017

   JOB DONE.