     Program PWSCF v.5.1rc2 starts on 14Nov2017 at  9:52:36

     Current dimensions of program PWSCF are:
     Max number of different atomic species (ntypx) = 10
     Max number of k-points (npk) =  40000
     Max angular momentum in pseudopotentials (lmaxx) =  3

     IMPORTANT: XC functional enforced from input :
     Exchange-correlation      = BEEF-VDW ( 1  4 27 13 2)
     Any further DFT definition will be discarded
     Please, verify this is what you really want

     Found symmetry operation: I + ( -0.5000 -0.5000  0.0000)
     This is a supercell, fractional translations are disabled

     bravais-lattice index     =            0
     lattice parameter (alat)  =       1.8897  a.u.
     unit-cell volume          =     392.1891 (a.u.)^3
     number of atoms/cell      =            4
     number of atomic types    =            2
     number of electrons       =        72.00
     number of Kohn-Sham states=           56
     kinetic-energy cutoff     =      58.7989  Ry
     charge density cutoff     =     587.9892  Ry
     convergence threshold     =      1.0E-06
     mixing beta               =       0.1000
     number of iterations used =           10  plain     mixing
     Exchange-correlation      = BEEF-VDW ( 1  4 27 13 2)

     celldm(1)=   1.889726  celldm(2)=   0.000000  celldm(3)=   0.000000
     celldm(4)=   0.000000  celldm(5)=   0.000000  celldm(6)=   0.000000

     crystal axes: (cart. coord. in units of alat)
               a(1) = (   3.758724   0.000000   0.000000 )
               a(2) = (   0.000000   3.758724   0.000000 )
               a(3) = (   0.000000   0.000000   4.113561 )

     reciprocal axes: (cart. coord. in units 2 pi/alat)
               b(1) = (  0.266048  0.000000  0.000000 )
               b(2) = (  0.000000  0.266048  0.000000 )
               b(3) = (  0.000000  0.000000  0.243098 )

     PseudoPot. # 1 for Zn read from file:
     /home/users/vossj/suncat/psp/gbrv1.5pbe/Zn.UPF
     MD5 check sum: df62231357ef9e81f77b2b3087fa5675
     Pseudo is Ultrasoft, Zval = 20.0
     Generated by new atomic code, or converted to UPF format
     Using radial grid of  943 points,  6 beta functions with:
                l(1) =   0
                l(2) =   0
                l(3) =   1
                l(4) =   1
                l(5) =   2
                l(6) =   2
     Q(r) pseudized with  8 coefficients,  rinner =    1.100   1.100   1.100
                                                       1.100   1.100

     PseudoPot. # 2 for Os read from file:
     /home/users/vossj/suncat/psp/gbrv1.5pbe/Os.UPF
     MD5 check sum: a3fb40a04f0c37c25c34bbc47164c9a8
     Pseudo is Ultrasoft + core correction, Zval = 16.0
     Generated by new atomic code, or converted to UPF format
     Using radial grid of  983 points,  8 beta functions with:
                l(1) =   0
                l(2) =   0
                l(3) =   1
                l(4) =   1
                l(5) =   2
                l(6) =   2
                l(7) =   3
                l(8) =   3
     Q(r) pseudized with  8 coefficients,  rinner =    1.150   1.150   1.150
                                                       1.150   1.150   1.150
                                                       1.150

     vdW kernel table read from file vdW_kernel_table
     MD5 check sum: 095c7af220d748ca6e76c0b4c6cfb241

     atomic species   valence    mass     pseudopotential
        Zn1           20.00    65.39000     Zn( 1.00)
        Os1           16.00   190.20000     Os( 1.00)

     16 Sym. Ops., with inversion, found

   Cartesian axes

     site n.     atom                  positions (alat units)
         1           Zn1 tau(   1) = (   0.0000000   0.0000000   0.0000000  )
         2           Zn1 tau(   2) = (   1.8793622   1.8793622   0.0000000  )
         3           Os1 tau(   3) = (   1.8793622   0.0000000   2.0567804  )
         4           Os1 tau(   4) = (   0.0000000   1.8793622   2.0567804  )

     number of k points=    75  Fermi-Dirac smearing, width (Ry)=  0.0073
                       cart. coord. in units 2pi/alat
        k(    1) = (   0.0000000   0.0000000   0.0000000), wk =   0.0027435
        k(    2) = (   0.0000000   0.0000000   0.0270109), wk =   0.0054870
        k(    3) = (   0.0000000   0.0000000   0.0540219), wk =   0.0054870
        k(    4) = (   0.0000000   0.0000000   0.0810328), wk =   0.0054870
        k(    5) = (   0.0000000   0.0000000   0.1080437), wk =   0.0054870
        k(    6) = (   0.0000000   0.0295609   0.0000000), wk =   0.0109739
        k(    7) = (   0.0000000   0.0295609   0.0270109), wk =   0.0219479
        k(    8) = (   0.0000000   0.0295609   0.0540219), wk =   0.0219479
        k(    9) = (   0.0000000   0.0295609   0.0810328), wk =   0.0219479
        k(   10) = (   0.0000000   0.0295609   0.1080437), wk =   0.0219479
        k(   11) = (   0.0000000   0.0591217   0.0000000), wk =   0.0109739
        k(   12) = (   0.0000000   0.0591217   0.0270109), wk =   0.0219479
        k(   13) = (   0.0000000   0.0591217   0.0540219), wk =   0.0219479
        k(   14) = (   0.0000000   0.0591217   0.0810328), wk =   0.0219479
        k(   15) = (   0.0000000   0.0591217   0.1080437), wk =   0.0219479
        k(   16) = (   0.0000000   0.0886826   0.0000000), wk =   0.0109739
        k(   17) = (   0.0000000   0.0886826   0.0270109), wk =   0.0219479
        k(   18) = (   0.0000000   0.0886826   0.0540219), wk =   0.0219479
        k(   19) = (   0.0000000   0.0886826   0.0810328), wk =   0.0219479
        k(   20) = (   0.0000000   0.0886826   0.1080437), wk =   0.0219479
        k(   21) = (   0.0000000   0.1182434   0.0000000), wk =   0.0109739
        k(   22) = (   0.0000000   0.1182434   0.0270109), wk =   0.0219479
        k(   23) = (   0.0000000   0.1182434   0.0540219), wk =   0.0219479
        k(   24) = (   0.0000000   0.1182434   0.0810328), wk =   0.0219479
        k(   25) = (   0.0000000   0.1182434   0.1080437), wk =   0.0219479
        k(   26) = (   0.0295609   0.0295609   0.0000000), wk =   0.0109739
        k(   27) = (   0.0295609   0.0295609   0.0270109), wk =   0.0219479
        k(   28) = (   0.0295609   0.0295609   0.0540219), wk =   0.0219479
        k(   29) = (   0.0295609   0.0295609   0.0810328), wk =   0.0219479
        k(   30) = (   0.0295609   0.0295609   0.1080437), wk =   0.0219479
        k(   31) = (   0.0295609   0.0591217   0.0000000), wk =   0.0219479
        k(   32) = (   0.0295609   0.0591217   0.0270109), wk =   0.0438957
        k(   33) = (   0.0295609   0.0591217   0.0540219), wk =   0.0438957
        k(   34) = (   0.0295609   0.0591217   0.0810328), wk =   0.0438957
        k(   35) = (   0.0295609   0.0591217   0.1080437), wk =   0.0438957
        k(   36) = (   0.0295609   0.0886826   0.0000000), wk =   0.0219479
        k(   37) = (   0.0295609   0.0886826   0.0270109), wk =   0.0438957
        k(   38) = (   0.0295609   0.0886826   0.0540219), wk =   0.0438957
        k(   39) = (   0.0295609   0.0886826   0.0810328), wk =   0.0438957
        k(   40) = (   0.0295609   0.0886826   0.1080437), wk =   0.0438957
        k(   41) = (   0.0295609   0.1182434   0.0000000), wk =   0.0219479
        k(   42) = (   0.0295609   0.1182434   0.0270109), wk =   0.0438957
        k(   43) = (   0.0295609   0.1182434   0.0540219), wk =   0.0438957
        k(   44) = (   0.0295609   0.1182434   0.0810328), wk =   0.0438957
        k(   45) = (   0.0295609   0.1182434   0.1080437), wk =   0.0438957
        k(   46) = (   0.0591217   0.0591217   0.0000000), wk =   0.0109739
        k(   47) = (   0.0591217   0.0591217   0.0270109), wk =   0.0219479
        k(   48) = (   0.0591217   0.0591217   0.0540219), wk =   0.0219479
        k(   49) = (   0.0591217   0.0591217   0.0810328), wk =   0.0219479
        k(   50) = (   0.0591217   0.0591217   0.1080437), wk =   0.0219479
        k(   51) = (   0.0591217   0.0886826   0.0000000), wk =   0.0219479
        k(   52) = (   0.0591217   0.0886826   0.0270109), wk =   0.0438957
        k(   53) = (   0.0591217   0.0886826   0.0540219), wk =   0.0438957
        k(   54) = (   0.0591217   0.0886826   0.0810328), wk =   0.0438957
        k(   55) = (   0.0591217   0.0886826   0.1080437), wk =   0.0438957
        k(   56) = (   0.0591217   0.1182434   0.0000000), wk =   0.0219479
        k(   57) = (   0.0591217   0.1182434   0.0270109), wk =   0.0438957
        k(   58) = (   0.0591217   0.1182434   0.0540219), wk =   0.0438957
        k(   59) = (   0.0591217   0.1182434   0.0810328), wk =   0.0438957
        k(   60) = (   0.0591217   0.1182434   0.1080437), wk =   0.0438957
        k(   61) = (   0.0886826   0.0886826   0.0000000), wk =   0.0109739
        k(   62) = (   0.0886826   0.0886826   0.0270109), wk =   0.0219479
        k(   63) = (   0.0886826   0.0886826   0.0540219), wk =   0.0219479
        k(   64) = (   0.0886826   0.0886826   0.0810328), wk =   0.0219479
        k(   65) = (   0.0886826   0.0886826   0.1080437), wk =   0.0219479
        k(   66) = (   0.0886826   0.1182434   0.0000000), wk =   0.0219479
        k(   67) = (   0.0886826   0.1182434   0.0270109), wk =   0.0438957
        k(   68) = (   0.0886826   0.1182434   0.0540219), wk =   0.0438957
        k(   69) = (   0.0886826   0.1182434   0.0810328), wk =   0.0438957
        k(   70) = (   0.0886826   0.1182434   0.1080437), wk =   0.0438957
        k(   71) = (   0.1182434   0.1182434   0.0000000), wk =   0.0109739
        k(   72) = (   0.1182434   0.1182434   0.0270109), wk =   0.0219479
        k(   73) = (   0.1182434   0.1182434   0.0540219), wk =   0.0219479
        k(   74) = (   0.1182434   0.1182434   0.0810328), wk =   0.0219479
        k(   75) = (   0.1182434   0.1182434   0.1080437), wk =   0.0219479

     Largest allocated arrays     est. size (Mb)     dimensions
     Largest temporary arrays     est. size (Mb)     dimensions

     Initial potential from superposition of free atoms
     Check: negative starting charge=   -0.249084

     starting charge   70.99965, renormalised to   72.00000

     negative rho (up, down):  2.526E-01 0.000E+00

     *
     * You are using vdW-DF for exchange-correlation in this calculation.
     * Please cite the following three references that made this development
     * possible:
     *
     *   M. Dion, H. Rydberg, E. Schroder, D. C. Langreth, and
     *   B. I. Lundqvist, Phys. Rev. Lett. 92, 246401 (2004).
     *
     *   T. Thonhauser, V. R. Cooper, S. Li, A. Puzder, P. Hyldgaard, and
     *   D. C. Langreth, Phys. Rev. B 76, 125112 (2007).
     *
     *   G. Roman-Perez and J. M. Soler, Phys. Rev. Lett. 103, 096102 (2009).
     *
     *
     * If you are using vdW-DF2, please also cite:
     *
     *   K. Lee, E. D. Murray, L. Kong, B. I. Lundqvist, and
     *   D. C. Langreth, Phys. Rev. B 82, 081101(R) (2010).
     *
     *
     * If you are calculating the stress with vdW-DF, please also cite:
     *
     *   R. Sabatini, E. Kucukbenli, B. Kolb, T. Thonhauser, and
     *   S. de Gironcoli, J. Phys.: Condens. Matter 24, 424209 (2012).
     *

     Carrying out vdW-DF run using the following parameters:

     Nqs =      20    Nr_points =    1024   r_max =   100.000
     q_mesh =
               0.00001000     0.04494208     0.09755937     0.15916263
               0.23128650     0.31572767     0.41458969     0.53033537
               0.66584808     0.82450364     1.01025438     1.22772762
               1.48234092     1.78043706     2.12944203     2.53805004
               3.01644009     3.57652955     4.23227104     5.00000000

     Gradients computed in reciprocal space

     Starting wfc are   52 randomized atomic wfcs +    4 random wfc

     Self-consistent Calculation

     iteration #  1     ecut=    58.80 Ry     beta=0.10
     Davidson diagonalization with overlap
     ethr =  1.00E-02,  avg # of iterations =  4.1

[...]

     total energy              =   -1324.05050126 Ry
     Harris-Foulkes estimate   =   -1326.09268138 Ry
     estimated scf accuracy    <      11.16762566 Ry

[...]

     total energy              =   -1325.10895622 Ry
     Harris-Foulkes estimate   =   -1325.10895610 Ry
     estimated scf accuracy    <       0.00000182 Ry

     iteration # 12     ecut=    58.80 Ry     beta=0.10
     Davidson diagonalization with overlap
     ethr =  2.52E-09,  avg # of iterations =  2.0

     negative rho (up, down):  2.428E-01 0.000E+00

     End of self-consistent calculation

          k = 0.0000 0.0000 0.0000 (  3019 PWs)   bands (ev):

  -107.2111-107.2083 -67.2470 -67.1653 -61.4177 -61.4177 -61.3994 -61.3994
   -61.3607 -61.3575 -26.8216 -26.8216 -26.5054 -26.3669 -26.2389 -26.2389
     8.8749  10.9865  11.1077  11.1176  11.2841  11.2841  11.4046  12.0165
    12.0165  12.2532  12.5340  14.1630  14.4741  14.8231  17.0071  17.0071
    18.3811  18.7177  19.6779  19.6779  20.0976  20.0976  21.1040  23.1122
    25.2711  25.5883  26.4961  28.1523  30.1022  30.1022  30.3957  30.3957
    32.2655  35.4069  35.6687  37.2679  37.7759  37.9991  37.9991  38.5196

[...]

          k = 0.1182 0.1182 0.1080 (  2971 PWs)   bands (ev):

  -107.2097-107.2097 -67.2070 -67.2045 -61.4194 -61.4188 -61.3985 -61.3979
   -61.3591 -61.3590 -26.8974 -26.8805 -26.4402 -26.4360 -26.2018 -26.1835
    11.0782  11.0910  11.1231  11.1567  11.7750  11.7799  11.8686  11.9037
    12.0637  12.0793  13.8694  14.0320  14.7905  15.0069  16.8152  16.8729
    17.4957  18.0054  18.6275  18.9105  18.9325  19.2677  19.9532  20.0491
    23.1328  23.3080  25.6373  25.8047  32.8078  32.8156  34.5451  34.7249
    34.8639  35.5467  36.2590  36.6065  37.9077  38.7023  39.0807  39.6419

     the Fermi energy is    19.1703 ev

!    total energy              =   -1325.10895997 Ry
     Harris-Foulkes estimate   =   -1325.10895656 Ry
     estimated scf accuracy    <       0.00000011 Ry

     The total energy is the sum of the following terms:

     one-electron contribution =    -770.33306783 Ry
     hartree contribution      =     425.84760617 Ry
     xc contribution           =    -164.50709916 Ry
     ewald contribution        =    -816.10612882 Ry
     smearing contrib. (-TS)   =      -0.01027034 Ry

     convergence has been achieved in  12 iterations

     Forces acting on atoms (Ry/au):

     negative rho (up, down):  2.428E-01 0.000E+00
     atom    1 type  1   force =     0.00000000    0.00000000    0.00000000
     atom    2 type  1   force =     0.00000000    0.00000000    0.00000000
     atom    3 type  2   force =     0.00000000    0.00000000    0.00000000
     atom    4 type  2   force =     0.00000000    0.00000000    0.00000000

     Total force =     0.000000     Total SCF correction =     0.000000

     General routines

     Parallel routines

   This run was terminated on:   9:53:21  14Nov2017

   JOB DONE.