     Program PWSCF v.5.1rc2 starts on 15Nov2017 at  4: 6:17

     Current dimensions of program PWSCF are:
     Max number of different atomic species (ntypx) = 10
     Max number of k-points (npk) =  40000
     Max angular momentum in pseudopotentials (lmaxx) =  3

     IMPORTANT: XC functional enforced from input :
     Exchange-correlation      = BEEF-VDW ( 1  4 27 13 2)
     Any further DFT definition will be discarded
     Please, verify this is what you really want

     Found symmetry operation: I + (  0.5000  0.5000  0.0000)
     This is a supercell, fractional translations are disabled

     bravais-lattice index     =            0
     lattice parameter (alat)  =       1.8897  a.u.
     unit-cell volume          =     481.5237 (a.u.)^3
     number of atoms/cell      =            4
     number of atomic types    =            2
     number of electrons       =        54.00
     number of Kohn-Sham states=           47
     kinetic-energy cutoff     =      58.7989  Ry
     charge density cutoff     =     587.9892  Ry
     convergence threshold     =      1.0E-06
     mixing beta               =       0.1000
     number of iterations used =           10  plain     mixing
     Exchange-correlation      = BEEF-VDW ( 1  4 27 13 2)

     celldm(1)=   1.889726  celldm(2)=   0.000000  celldm(3)=   0.000000
     celldm(4)=   0.000000  celldm(5)=   0.000000  celldm(6)=   0.000000

     crystal axes: (cart. coord. in units of alat)
               a(1) = (   4.653699   0.000000   0.000000 )
               a(2) = (   0.000000   4.653699   0.000000 )
               a(3) = (   0.000000   0.000000   3.294765 )

     reciprocal axes: (cart. coord. in units 2 pi/alat)
               b(1) = (  0.214883  0.000000  0.000000 )
               b(2) = (  0.000000  0.214883  0.000000 )
               b(3) = (  0.000000  0.000000  0.303512 )

     PseudoPot. # 1 for Rh read from file:
     /home/users/vossj/suncat/psp/gbrv1.5pbe/Rh.UPF
     MD5 check sum: 761627e959a2e3a1f56b0b5fe687810e
     Pseudo is Ultrasoft + core correction, Zval = 15.0
     Generated by new atomic code, or converted to UPF format
     Using radial grid of  969 points,  7 beta functions with:
                l(1) =   0
                l(2) =   0
                l(3) =   1
                l(4) =   1
                l(5) =   2
                l(6) =   2
                l(7) =   2
     Q(r) pseudized with  8 coefficients,  rinner =    1.200   1.200   1.200
                                                       1.200   1.200

     PseudoPot. # 2 for Hg read from file:
     /home/users/vossj/suncat/psp/gbrv1.5pbe/Hg.UPF
     MD5 check sum: 8f42caffe07f7fd9c0a564347f8c5498
     Pseudo is Ultrasoft + core correction, Zval = 12.0
     Generated by new atomic code, or converted to UPF format
     Using radial grid of  985 points,  6 beta functions with:
                l(1) =   0
                l(2) =   0
                l(3) =   1
                l(4) =   1
                l(5) =   2
                l(6) =   2
     Q(r) pseudized with  8 coefficients,  rinner =    2.000   2.000   2.000
                                                       2.000   2.000

     vdW kernel table read from file vdW_kernel_table
     MD5 check sum: 095c7af220d748ca6e76c0b4c6cfb241

     atomic species   valence    mass     pseudopotential
        Rh1           15.00   102.90550     Rh( 1.00)
        Hg1           12.00   200.59000     Hg( 1.00)

     16 Sym. Ops., with inversion, found

   Cartesian axes

     site n.     atom                  positions (alat units)
         1           Rh1 tau(   1) = (   0.0000000   0.0000000   0.0000000  )
         2           Rh1 tau(   2) = (   2.3268495   2.3268495   0.0000000  )
         3           Hg1 tau(   3) = (   2.3268495   0.0000000   1.6473827  )
         4           Hg1 tau(   4) = (   0.0000000   2.3268495   1.6473827  )

     number of k points=    75  Fermi-Dirac smearing, width (Ry)=  0.0073
                       cart. coord. in units 2pi/alat
        k(    1) = (   0.0000000   0.0000000   0.0000000), wk =   0.0027435
        k(    2) = (   0.0000000   0.0000000   0.0337235), wk =   0.0054870
        k(    3) = (   0.0000000   0.0000000   0.0674471), wk =   0.0054870
        k(    4) = (   0.0000000   0.0000000   0.1011706), wk =   0.0054870
        k(    5) = (   0.0000000   0.0000000   0.1348941), wk =   0.0054870
        k(    6) = (   0.0000000   0.0238759   0.0000000), wk =   0.0109739
        k(    7) = (   0.0000000   0.0238759   0.0337235), wk =   0.0219479
        k(    8) = (   0.0000000   0.0238759   0.0674471), wk =   0.0219479
        k(    9) = (   0.0000000   0.0238759   0.1011706), wk =   0.0219479
        k(   10) = (   0.0000000   0.0238759   0.1348941), wk =   0.0219479
        k(   11) = (   0.0000000   0.0477517   0.0000000), wk =   0.0109739
        k(   12) = (   0.0000000   0.0477517   0.0337235), wk =   0.0219479
        k(   13) = (   0.0000000   0.0477517   0.0674471), wk =   0.0219479
        k(   14) = (   0.0000000   0.0477517   0.1011706), wk =   0.0219479
        k(   15) = (   0.0000000   0.0477517   0.1348941), wk =   0.0219479
        k(   16) = (   0.0000000   0.0716276   0.0000000), wk =   0.0109739
        k(   17) = (   0.0000000   0.0716276   0.0337235), wk =   0.0219479
        k(   18) = (   0.0000000   0.0716276   0.0674471), wk =   0.0219479
        k(   19) = (   0.0000000   0.0716276   0.1011706), wk =   0.0219479
        k(   20) = (   0.0000000   0.0716276   0.1348941), wk =   0.0219479
        k(   21) = (   0.0000000   0.0955035   0.0000000), wk =   0.0109739
        k(   22) = (   0.0000000   0.0955035   0.0337235), wk =   0.0219479
        k(   23) = (   0.0000000   0.0955035   0.0674471), wk =   0.0219479
        k(   24) = (   0.0000000   0.0955035   0.1011706), wk =   0.0219479
        k(   25) = (   0.0000000   0.0955035   0.1348941), wk =   0.0219479
        k(   26) = (   0.0238759   0.0238759   0.0000000), wk =   0.0109739
        k(   27) = (   0.0238759   0.0238759   0.0337235), wk =   0.0219479
        k(   28) = (   0.0238759   0.0238759   0.0674471), wk =   0.0219479
        k(   29) = (   0.0238759   0.0238759   0.1011706), wk =   0.0219479
        k(   30) = (   0.0238759   0.0238759   0.1348941), wk =   0.0219479
        k(   31) = (   0.0238759   0.0477517   0.0000000), wk =   0.0219479
        k(   32) = (   0.0238759   0.0477517   0.0337235), wk =   0.0438957
        k(   33) = (   0.0238759   0.0477517   0.0674471), wk =   0.0438957
        k(   34) = (   0.0238759   0.0477517   0.1011706), wk =   0.0438957
        k(   35) = (   0.0238759   0.0477517   0.1348941), wk =   0.0438957
        k(   36) = (   0.0238759   0.0716276   0.0000000), wk =   0.0219479
        k(   37) = (   0.0238759   0.0716276   0.0337235), wk =   0.0438957
        k(   38) = (   0.0238759   0.0716276   0.0674471), wk =   0.0438957
        k(   39) = (   0.0238759   0.0716276   0.1011706), wk =   0.0438957
        k(   40) = (   0.0238759   0.0716276   0.1348941), wk =   0.0438957
        k(   41) = (   0.0238759   0.0955035   0.0000000), wk =   0.0219479
        k(   42) = (   0.0238759   0.0955035   0.0337235), wk =   0.0438957
        k(   43) = (   0.0238759   0.0955035   0.0674471), wk =   0.0438957
        k(   44) = (   0.0238759   0.0955035   0.1011706), wk =   0.0438957
        k(   45) = (   0.0238759   0.0955035   0.1348941), wk =   0.0438957
        k(   46) = (   0.0477517   0.0477517   0.0000000), wk =   0.0109739
        k(   47) = (   0.0477517   0.0477517   0.0337235), wk =   0.0219479
        k(   48) = (   0.0477517   0.0477517   0.0674471), wk =   0.0219479
        k(   49) = (   0.0477517   0.0477517   0.1011706), wk =   0.0219479
        k(   50) = (   0.0477517   0.0477517   0.1348941), wk =   0.0219479
        k(   51) = (   0.0477517   0.0716276   0.0000000), wk =   0.0219479
        k(   52) = (   0.0477517   0.0716276   0.0337235), wk =   0.0438957
        k(   53) = (   0.0477517   0.0716276   0.0674471), wk =   0.0438957
        k(   54) = (   0.0477517   0.0716276   0.1011706), wk =   0.0438957
        k(   55) = (   0.0477517   0.0716276   0.1348941), wk =   0.0438957
        k(   56) = (   0.0477517   0.0955035   0.0000000), wk =   0.0219479
        k(   57) = (   0.0477517   0.0955035   0.0337235), wk =   0.0438957
        k(   58) = (   0.0477517   0.0955035   0.0674471), wk =   0.0438957
        k(   59) = (   0.0477517   0.0955035   0.1011706), wk =   0.0438957
        k(   60) = (   0.0477517   0.0955035   0.1348941), wk =   0.0438957
        k(   61) = (   0.0716276   0.0716276   0.0000000), wk =   0.0109739
        k(   62) = (   0.0716276   0.0716276   0.0337235), wk =   0.0219479
        k(   63) = (   0.0716276   0.0716276   0.0674471), wk =   0.0219479
        k(   64) = (   0.0716276   0.0716276   0.1011706), wk =   0.0219479
        k(   65) = (   0.0716276   0.0716276   0.1348941), wk =   0.0219479
        k(   66) = (   0.0716276   0.0955035   0.0000000), wk =   0.0219479
        k(   67) = (   0.0716276   0.0955035   0.0337235), wk =   0.0438957
        k(   68) = (   0.0716276   0.0955035   0.0674471), wk =   0.0438957
        k(   69) = (   0.0716276   0.0955035   0.1011706), wk =   0.0438957
        k(   70) = (   0.0716276   0.0955035   0.1348941), wk =   0.0438957
        k(   71) = (   0.0955035   0.0955035   0.0000000), wk =   0.0109739
        k(   72) = (   0.0955035   0.0955035   0.0337235), wk =   0.0219479
        k(   73) = (   0.0955035   0.0955035   0.0674471), wk =   0.0219479
        k(   74) = (   0.0955035   0.0955035   0.1011706), wk =   0.0219479
        k(   75) = (   0.0955035   0.0955035   0.1348941), wk =   0.0219479

     Largest allocated arrays     est. size (Mb)     dimensions
     Largest temporary arrays     est. size (Mb)     dimensions

     Initial potential from superposition of free atoms
     Check: negative starting charge=   -0.113119

     starting charge   52.99969, renormalised to   54.00000

     negative rho (up, down):  1.153E-01 0.000E+00

     *
     * You are using vdW-DF for exchange-correlation in this calculation.
     * Please cite the following three references that made this development
     * possible:
     *
     *   M. Dion, H. Rydberg, E. Schroder, D. C. Langreth, and
     *   B. I. Lundqvist, Phys. Rev. Lett. 92, 246401 (2004).
     *
     *   T. Thonhauser, V. R. Cooper, S. Li, A. Puzder, P. Hyldgaard, and
     *   D. C. Langreth, Phys. Rev. B 76, 125112 (2007).
     *
     *   G. Roman-Perez and J. M. Soler, Phys. Rev. Lett. 103, 096102 (2009).
     *
     *
     * If you are using vdW-DF2, please also cite:
     *
     *   K. Lee, E. D. Murray, L. Kong, B. I. Lundqvist, and
     *   D. C. Langreth, Phys. Rev. B 82, 081101(R) (2010).
     *
     *
     * If you are calculating the stress with vdW-DF, please also cite:
     *
     *   R. Sabatini, E. Kucukbenli, B. Kolb, T. Thonhauser, and
     *   S. de Gironcoli, J. Phys.: Condens. Matter 24, 424209 (2012).
     *

     Carrying out vdW-DF run using the following parameters:

     Nqs =      20    Nr_points =    1024   r_max =   100.000
     q_mesh =
               0.00001000     0.04494208     0.09755937     0.15916263
               0.23128650     0.31572767     0.41458969     0.53033537
               0.66584808     0.82450364     1.01025438     1.22772762
               1.48234092     1.78043706     2.12944203     2.53805004
               3.01644009     3.57652955     4.23227104     5.00000000

     Gradients computed in reciprocal space

     Starting wfc are   42 randomized atomic wfcs +    5 random wfc

     Self-consistent Calculation

     iteration #  1     ecut=    58.80 Ry     beta=0.10
     Davidson diagonalization with overlap
     ethr =  1.00E-02,  avg # of iterations =  4.7

     Threshold (ethr) on eigenvalues was too large:
     Diagonalizing with lowered threshold

     Davidson diagonalization with overlap
     ethr =  7.33E-04,  avg # of iterations =  1.1

[...]

     total energy              =    -562.69364742 Ry
     Harris-Foulkes estimate   =    -562.75594304 Ry
     estimated scf accuracy    <       0.38813907 Ry

[...]

     total energy              =    -562.63806821 Ry
     Harris-Foulkes estimate   =    -562.63806791 Ry
     estimated scf accuracy    <       0.00000205 Ry

     iteration # 10     ecut=    58.80 Ry     beta=0.10
     Davidson diagonalization with overlap
     ethr =  3.79E-09,  avg # of iterations =  2.1

     negative rho (up, down):  1.135E-01 0.000E+00

     End of self-consistent calculation

          k = 0.0000 0.0000 0.0000 (  3691 PWs)   bands (ev):

   -30.3348 -30.3348 -30.2956 -30.2956 -30.2953 -30.2886   6.6314   7.4053
     7.4450   7.4465   7.6351   8.1549   8.1549   8.6864   8.6864   8.6900
     9.3368  11.3994  13.5251  13.5308  13.9359  14.9015  14.9015  15.0010
    15.0010  15.0015  15.1785  15.1785  15.2957  18.5375  20.9183  21.8900
    21.9250  21.9250  26.2532  28.1069  28.1069  28.1135  30.0226  30.0457
    30.6445  32.4061  32.4277  32.4277  35.0869  36.1298  36.1298

[...]

          k = 0.0955 0.0955 0.1349 (  3654 PWs)   bands (ev):

   -30.3349 -30.3337 -30.3328 -30.3325 -30.2904 -30.2892   7.4432   7.4515
     7.6435   7.6815   8.1583   8.1698   8.1757   8.1977   9.2558   9.2942
    11.2985  11.3625  13.8227  13.8960  14.3668  14.4148  14.7131  14.7718
    14.8231  14.9029  15.1307  15.6099  15.8282  15.8935  18.7283  18.8765
    21.0888  21.2939  27.6513  28.0705  28.1129  28.1803  28.2455  28.2595
    30.3661  30.6265  35.1995  35.4362  36.0442  36.2033  36.3092

     the Fermi energy is    15.1253 ev

!    total energy              =    -562.63806950 Ry
     Harris-Foulkes estimate   =    -562.63806845 Ry
     estimated scf accuracy    <       0.00000065 Ry

     The total energy is the sum of the following terms:

     one-electron contribution =     -82.22733889 Ry
     hartree contribution      =      92.23957810 Ry
     xc contribution           =    -143.23911874 Ry
     ewald contribution        =    -429.40119204 Ry
     smearing contrib. (-TS)   =      -0.00999792 Ry

     convergence has been achieved in  10 iterations

     Forces acting on atoms (Ry/au):

     negative rho (up, down):  1.135E-01 0.000E+00
     atom    1 type  1   force =     0.00000000    0.00000000    0.00000000
     atom    2 type  1   force =     0.00000000    0.00000000    0.00000000
     atom    3 type  2   force =     0.00000000    0.00000000    0.00000000
     atom    4 type  2   force =     0.00000000    0.00000000    0.00000000

     Total force =     0.000000     Total SCF correction =     0.000000

     General routines

     Parallel routines

   This run was terminated on:   4: 6:54  15Nov2017

   JOB DONE.