     Program PWSCF v.5.1rc2 starts on 14Nov2017 at 13:16:27

     Current dimensions of program PWSCF are:
     Max number of different atomic species (ntypx) = 10
     Max number of k-points (npk) =  40000
     Max angular momentum in pseudopotentials (lmaxx) =  3

     IMPORTANT: XC functional enforced from input :
     Exchange-correlation      = BEEF-VDW ( 1  4 27 13 2)
     Any further DFT definition will be discarded
     Please, verify this is what you really want

     Found symmetry operation: I + (  0.5000  0.5000  0.0000)
     This is a supercell, fractional translations are disabled

     bravais-lattice index     =            0
     lattice parameter (alat)  =       1.8897  a.u.
     unit-cell volume          =     535.7099 (a.u.)^3
     number of atoms/cell      =            4
     number of atomic types    =            2
     number of electrons       =        52.00
     number of Kohn-Sham states=           46
     kinetic-energy cutoff     =      58.7989  Ry
     charge density cutoff     =     587.9892  Ry
     convergence threshold     =      1.0E-06
     mixing beta               =       0.1000
     number of iterations used =           10  plain     mixing
     Exchange-correlation      = BEEF-VDW ( 1  4 27 13 2)

     celldm(1)=   1.889726  celldm(2)=   0.000000  celldm(3)=   0.000000
     celldm(4)=   0.000000  celldm(5)=   0.000000  celldm(6)=   0.000000

     crystal axes: (cart. coord. in units of alat)
               a(1) = (   4.178872   0.000000   0.000000 )
               a(2) = (   0.000000   4.178872   0.000000 )
               a(3) = (   0.000000   0.000000   4.545848 )

     reciprocal axes: (cart. coord. in units 2 pi/alat)
               b(1) = (  0.239299  0.000000  0.000000 )
               b(2) = (  0.000000  0.239299  0.000000 )
               b(3) = (  0.000000  0.000000  0.219981 )

     PseudoPot. # 1 for In read from file:
     /home/users/vossj/suncat/psp/gbrv1.5pbe/In.UPF
     MD5 check sum: 90777abd96fbb83f2e67db2a40c566b9
     Pseudo is Ultrasoft + core correction, Zval = 13.0
     Generated by new atomic code, or converted to UPF format
     Using radial grid of  889 points,  6 beta functions with:
                l(1) =   0
                l(2) =   0
                l(3) =   1
                l(4) =   1
                l(5) =   2
                l(6) =   2
     Q(r) pseudized with  6 coefficients,  rinner =    1.400   1.400   1.400
                                                       1.400   1.400

     PseudoPot. # 2 for Ta read from file:
     /home/users/vossj/suncat/psp/gbrv1.5pbe/Ta.UPF
     MD5 check sum: f8bbe9446314a3b8ea5d9f3e3836c939
     Pseudo is Ultrasoft + core correction, Zval = 13.0
     Generated by new atomic code, or converted to UPF format
     Using radial grid of  921 points,  7 beta functions with:
                l(1) =   0
                l(2) =   0
                l(3) =   1
                l(4) =   1
                l(5) =   2
                l(6) =   2
                l(7) =   3
     Q(r) pseudized with  6 coefficients,  rinner =    1.300   1.300   1.300
                                                       1.300   1.300   1.300
                                                       1.300

     vdW kernel table read from file vdW_kernel_table
     MD5 check sum: 095c7af220d748ca6e76c0b4c6cfb241

     atomic species   valence    mass     pseudopotential
        In1           13.00   114.82000     In( 1.00)
        Ta1           13.00   180.94790     Ta( 1.00)

     16 Sym. Ops., with inversion, found

   Cartesian axes

     site n.     atom                  positions (alat units)
         1           In1 tau(   1) = (   0.0000000   0.0000000   0.0000000  )
         2           In1 tau(   2) = (   2.0894362   2.0894362   0.0000000  )
         3           Ta1 tau(   3) = (   2.0894362   0.0000000   2.2729239  )
         4           Ta1 tau(   4) = (   0.0000000   2.0894362   2.2729239  )

     number of k points=    75  Fermi-Dirac smearing, width (Ry)=  0.0073
                       cart. coord. in units 2pi/alat
        k(    1) = (   0.0000000   0.0000000   0.0000000), wk =   0.0027435
        k(    2) = (   0.0000000   0.0000000   0.0244423), wk =   0.0054870
        k(    3) = (   0.0000000   0.0000000   0.0488847), wk =   0.0054870
        k(    4) = (   0.0000000   0.0000000   0.0733270), wk =   0.0054870
        k(    5) = (   0.0000000   0.0000000   0.0977693), wk =   0.0054870
        k(    6) = (   0.0000000   0.0265888   0.0000000), wk =   0.0109739
        k(    7) = (   0.0000000   0.0265888   0.0244423), wk =   0.0219479
        k(    8) = (   0.0000000   0.0265888   0.0488847), wk =   0.0219479
        k(    9) = (   0.0000000   0.0265888   0.0733270), wk =   0.0219479
        k(   10) = (   0.0000000   0.0265888   0.0977693), wk =   0.0219479
        k(   11) = (   0.0000000   0.0531776   0.0000000), wk =   0.0109739
        k(   12) = (   0.0000000   0.0531776   0.0244423), wk =   0.0219479
        k(   13) = (   0.0000000   0.0531776   0.0488847), wk =   0.0219479
        k(   14) = (   0.0000000   0.0531776   0.0733270), wk =   0.0219479
        k(   15) = (   0.0000000   0.0531776   0.0977693), wk =   0.0219479
        k(   16) = (   0.0000000   0.0797663   0.0000000), wk =   0.0109739
        k(   17) = (   0.0000000   0.0797663   0.0244423), wk =   0.0219479
        k(   18) = (   0.0000000   0.0797663   0.0488847), wk =   0.0219479
        k(   19) = (   0.0000000   0.0797663   0.0733270), wk =   0.0219479
        k(   20) = (   0.0000000   0.0797663   0.0977693), wk =   0.0219479
        k(   21) = (   0.0000000   0.1063551   0.0000000), wk =   0.0109739
        k(   22) = (   0.0000000   0.1063551   0.0244423), wk =   0.0219479
        k(   23) = (   0.0000000   0.1063551   0.0488847), wk =   0.0219479
        k(   24) = (   0.0000000   0.1063551   0.0733270), wk =   0.0219479
        k(   25) = (   0.0000000   0.1063551   0.0977693), wk =   0.0219479
        k(   26) = (   0.0265888   0.0265888   0.0000000), wk =   0.0109739
        k(   27) = (   0.0265888   0.0265888   0.0244423), wk =   0.0219479
        k(   28) = (   0.0265888   0.0265888   0.0488847), wk =   0.0219479
        k(   29) = (   0.0265888   0.0265888   0.0733270), wk =   0.0219479
        k(   30) = (   0.0265888   0.0265888   0.0977693), wk =   0.0219479
        k(   31) = (   0.0265888   0.0531776   0.0000000), wk =   0.0219479
        k(   32) = (   0.0265888   0.0531776   0.0244423), wk =   0.0438957
        k(   33) = (   0.0265888   0.0531776   0.0488847), wk =   0.0438957
        k(   34) = (   0.0265888   0.0531776   0.0733270), wk =   0.0438957
        k(   35) = (   0.0265888   0.0531776   0.0977693), wk =   0.0438957
        k(   36) = (   0.0265888   0.0797663   0.0000000), wk =   0.0219479
        k(   37) = (   0.0265888   0.0797663   0.0244423), wk =   0.0438957
        k(   38) = (   0.0265888   0.0797663   0.0488847), wk =   0.0438957
        k(   39) = (   0.0265888   0.0797663   0.0733270), wk =   0.0438957
        k(   40) = (   0.0265888   0.0797663   0.0977693), wk =   0.0438957
        k(   41) = (   0.0265888   0.1063551   0.0000000), wk =   0.0219479
        k(   42) = (   0.0265888   0.1063551   0.0244423), wk =   0.0438957
        k(   43) = (   0.0265888   0.1063551   0.0488847), wk =   0.0438957
        k(   44) = (   0.0265888   0.1063551   0.0733270), wk =   0.0438957
        k(   45) = (   0.0265888   0.1063551   0.0977693), wk =   0.0438957
        k(   46) = (   0.0531776   0.0531776   0.0000000), wk =   0.0109739
        k(   47) = (   0.0531776   0.0531776   0.0244423), wk =   0.0219479
        k(   48) = (   0.0531776   0.0531776   0.0488847), wk =   0.0219479
        k(   49) = (   0.0531776   0.0531776   0.0733270), wk =   0.0219479
        k(   50) = (   0.0531776   0.0531776   0.0977693), wk =   0.0219479
        k(   51) = (   0.0531776   0.0797663   0.0000000), wk =   0.0219479
        k(   52) = (   0.0531776   0.0797663   0.0244423), wk =   0.0438957
        k(   53) = (   0.0531776   0.0797663   0.0488847), wk =   0.0438957
        k(   54) = (   0.0531776   0.0797663   0.0733270), wk =   0.0438957
        k(   55) = (   0.0531776   0.0797663   0.0977693), wk =   0.0438957
        k(   56) = (   0.0531776   0.1063551   0.0000000), wk =   0.0219479
        k(   57) = (   0.0531776   0.1063551   0.0244423), wk =   0.0438957
        k(   58) = (   0.0531776   0.1063551   0.0488847), wk =   0.0438957
        k(   59) = (   0.0531776   0.1063551   0.0733270), wk =   0.0438957
        k(   60) = (   0.0531776   0.1063551   0.0977693), wk =   0.0438957
        k(   61) = (   0.0797663   0.0797663   0.0000000), wk =   0.0109739
        k(   62) = (   0.0797663   0.0797663   0.0244423), wk =   0.0219479
        k(   63) = (   0.0797663   0.0797663   0.0488847), wk =   0.0219479
        k(   64) = (   0.0797663   0.0797663   0.0733270), wk =   0.0219479
        k(   65) = (   0.0797663   0.0797663   0.0977693), wk =   0.0219479
        k(   66) = (   0.0797663   0.1063551   0.0000000), wk =   0.0219479
        k(   67) = (   0.0797663   0.1063551   0.0244423), wk =   0.0438957
        k(   68) = (   0.0797663   0.1063551   0.0488847), wk =   0.0438957
        k(   69) = (   0.0797663   0.1063551   0.0733270), wk =   0.0438957
        k(   70) = (   0.0797663   0.1063551   0.0977693), wk =   0.0438957
        k(   71) = (   0.1063551   0.1063551   0.0000000), wk =   0.0109739
        k(   72) = (   0.1063551   0.1063551   0.0244423), wk =   0.0219479
        k(   73) = (   0.1063551   0.1063551   0.0488847), wk =   0.0219479
        k(   74) = (   0.1063551   0.1063551   0.0733270), wk =   0.0219479
        k(   75) = (   0.1063551   0.1063551   0.0977693), wk =   0.0219479

     Largest allocated arrays     est. size (Mb)     dimensions
     Largest temporary arrays     est. size (Mb)     dimensions

     Initial potential from superposition of free atoms
     Check: negative starting charge=   -0.190405

     starting charge   48.99777, renormalised to   52.00000

     negative rho (up, down):  2.021E-01 0.000E+00

     *
     * You are using vdW-DF for exchange-correlation in this calculation.
     * Please cite the following three references that made this development
     * possible:
     *
     *   M. Dion, H. Rydberg, E. Schroder, D. C. Langreth, and
     *   B. I. Lundqvist, Phys. Rev. Lett. 92, 246401 (2004).
     *
     *   T. Thonhauser, V. R. Cooper, S. Li, A. Puzder, P. Hyldgaard, and
     *   D. C. Langreth, Phys. Rev. B 76, 125112 (2007).
     *
     *   G. Roman-Perez and J. M. Soler, Phys. Rev. Lett. 103, 096102 (2009).
     *
     *
     * If you are using vdW-DF2, please also cite:
     *
     *   K. Lee, E. D. Murray, L. Kong, B. I. Lundqvist, and
     *   D. C. Langreth, Phys. Rev. B 82, 081101(R) (2010).
     *
     *
     * If you are calculating the stress with vdW-DF, please also cite:
     *
     *   R. Sabatini, E. Kucukbenli, B. Kolb, T. Thonhauser, and
     *   S. de Gironcoli, J. Phys.: Condens. Matter 24, 424209 (2012).
     *

     Carrying out vdW-DF run using the following parameters:

     Nqs =      20    Nr_points =    1024   r_max =   100.000
     q_mesh =
               0.00001000     0.04494208     0.09755937     0.15916263
               0.23128650     0.31572767     0.41458969     0.53033537
               0.66584808     0.82450364     1.01025438     1.22772762
               1.48234092     1.78043706     2.12944203     2.53805004
               3.01644009     3.57652955     4.23227104     5.00000000

     Gradients computed in reciprocal space

     Starting wfc are   44 randomized atomic wfcs +    2 random wfc

     Self-consistent Calculation

     iteration #  1     ecut=    58.80 Ry     beta=0.10
     Davidson diagonalization with overlap
     ethr =  1.00E-02,  avg # of iterations =  4.2

[...]

     total energy              =    -556.56791924 Ry
     Harris-Foulkes estimate   =    -556.91992503 Ry
     estimated scf accuracy    <       2.30318497 Ry

[...]

     total energy              =    -556.02357161 Ry
     Harris-Foulkes estimate   =    -556.02358625 Ry
     estimated scf accuracy    <       0.00003833 Ry

     iteration # 10     ecut=    58.80 Ry     beta=0.10
     Davidson diagonalization with overlap
     ethr =  5.42E-08,  avg # of iterations =  2.0

     negative rho (up, down):  2.022E-01 0.000E+00

     End of self-consistent calculation

          k = 0.0000 0.0000 0.0000 (  4065 PWs)   bands (ev):

   -52.8695 -52.8067 -19.3750 -19.3532 -19.3532 -19.2509 -18.8564 -18.8564
     0.2116   0.3796   0.5873   0.6508   0.6508   0.9781   0.9781   1.0346
     1.0774   1.3555   5.5097  11.6127  12.5060  13.6268  14.1218  14.8390
    14.8390  15.1246  15.1246  15.4659  18.2036  18.2036  19.1544  20.0583
    20.3909  20.7480  21.8898  23.2546  23.2546  23.9953  23.9953  24.0794
    25.0530  27.6336  28.6755  29.5657  30.2998  30.3522

[...]

          k = 0.1064 0.1064 0.0978 (  4064 PWs)   bands (ev):

   -52.8387 -52.8368 -19.4217 -19.4073 -19.3177 -19.3139 -18.8240 -18.8083
     0.4732   0.5002   0.5834   0.5912   0.8035   0.8239   1.0024   1.0117
     1.0808   1.1004   9.5757   9.8514  12.1281  12.2798  13.0052  13.3607
    14.0183  14.2895  16.4398  16.4400  17.4865  17.4934  18.4518  18.4869
    19.0612  19.1734  22.7398  22.8814  26.0112  26.0499  26.9078  26.9793
    27.1858  27.4936  29.3276  29.3501  29.4562  29.9229

     the Fermi energy is    15.8866 ev

!    total energy              =    -556.02358378 Ry
     Harris-Foulkes estimate   =    -556.02357691 Ry
     estimated scf accuracy    <       0.00000087 Ry

     The total energy is the sum of the following terms:

     one-electron contribution =     -92.47125735 Ry
     hartree contribution      =      83.78477055 Ry
     xc contribution           =    -165.77824575 Ry
     ewald contribution        =    -381.55358287 Ry
     smearing contrib. (-TS)   =      -0.00526836 Ry

     convergence has been achieved in  10 iterations

     Forces acting on atoms (Ry/au):

     negative rho (up, down):  2.022E-01 0.000E+00
     atom    1 type  1   force =     0.00000000    0.00000000    0.00000000
     atom    2 type  1   force =     0.00000000    0.00000000    0.00000000
     atom    3 type  2   force =     0.00000000    0.00000000    0.00000000
     atom    4 type  2   force =     0.00000000    0.00000000    0.00000000

     Total force =     0.000000     Total SCF correction =     0.000000

     General routines

     Parallel routines

   This run was terminated on:  13:17: 5  14Nov2017

   JOB DONE.