     Program PWSCF v.5.1rc2 starts on 14Nov2017 at 14:19: 0

     Current dimensions of program PWSCF are:
     Max number of different atomic species (ntypx) = 10
     Max number of k-points (npk) =  40000
     Max angular momentum in pseudopotentials (lmaxx) =  3

     IMPORTANT: XC functional enforced from input :
     Exchange-correlation      = BEEF-VDW ( 1  4 27 13 2)
     Any further DFT definition will be discarded
     Please, verify this is what you really want

     Found symmetry operation: I + ( -0.5000 -0.5000  0.0000)
     This is a supercell, fractional translations are disabled

     bravais-lattice index     =            0
     lattice parameter (alat)  =       1.8897  a.u.
     unit-cell volume          =     507.8947 (a.u.)^3
     number of atoms/cell      =            4
     number of atomic types    =            2
     number of electrons       =        56.00
     number of Kohn-Sham states=           48
     kinetic-energy cutoff     =      58.7989  Ry
     charge density cutoff     =     587.9892  Ry
     convergence threshold     =      1.0E-06
     mixing beta               =       0.1000
     number of iterations used =           10  plain     mixing
     Exchange-correlation      = BEEF-VDW ( 1  4 27 13 2)

     celldm(1)=   1.889726  celldm(2)=   0.000000  celldm(3)=   0.000000
     celldm(4)=   0.000000  celldm(5)=   0.000000  celldm(6)=   0.000000

     crystal axes: (cart. coord. in units of alat)
               a(1) = (   4.501065   0.000000   0.000000 )
               a(2) = (   0.000000   4.501065   0.000000 )
               a(3) = (   0.000000   0.000000   3.714895 )

     reciprocal axes: (cart. coord. in units 2 pi/alat)
               b(1) = (  0.222170  0.000000  0.000000 )
               b(2) = (  0.000000  0.222170  0.000000 )
               b(3) = (  0.000000  0.000000  0.269187 )

     PseudoPot. # 1 for Ir read from file:
     /home/users/vossj/suncat/psp/gbrv1.5pbe/Ir.UPF
     MD5 check sum: 8836f839c3459d2b385c504ce6d91f2c
     Pseudo is Ultrasoft + core correction, Zval = 15.0
     Generated by new atomic code, or converted to UPF format
     Using radial grid of  983 points,  7 beta functions with:
                l(1) =   0
                l(2) =   0
                l(3) =   1
                l(4) =   1
                l(5) =   1
                l(6) =   2
                l(7) =   2
     Q(r) pseudized with  8 coefficients,  rinner =    1.400   1.400   1.400
                                                       1.400   1.400

     PseudoPot. # 2 for Tl read from file:
     /home/users/vossj/suncat/psp/gbrv1.5pbe/Tl.UPF
     MD5 check sum: b76cf1f7e72655a2b2c53cf6385d7059
     Pseudo is Ultrasoft + core correction, Zval = 13.0
     Generated by new atomic code, or converted to UPF format
     Using radial grid of  899 points,  6 beta functions with:
                l(1) =   0
                l(2) =   0
                l(3) =   1
                l(4) =   1
                l(5) =   2
                l(6) =   2
     Q(r) pseudized with  6 coefficients,  rinner =    1.100   1.100   1.100
                                                       1.100   1.100

     vdW kernel table read from file vdW_kernel_table
     MD5 check sum: 095c7af220d748ca6e76c0b4c6cfb241

     atomic species   valence    mass     pseudopotential
        Ir1           15.00   192.22000     Ir( 1.00)
        Tl1           13.00   204.38300     Tl( 1.00)

     16 Sym. Ops., with inversion, found

   Cartesian axes

     site n.     atom                  positions (alat units)
         1           Ir1 tau(   1) = (   0.0000000   0.0000000   0.0000000  )
         2           Ir1 tau(   2) = (   2.2505325   2.2505325   0.0000000  )
         3           Tl1 tau(   3) = (   2.2505325   0.0000000   1.8574475  )
         4           Tl1 tau(   4) = (   0.0000000   2.2505325   1.8574475  )

     number of k points=    75  Fermi-Dirac smearing, width (Ry)=  0.0073
                       cart. coord. in units 2pi/alat
        k(    1) = (   0.0000000   0.0000000   0.0000000), wk =   0.0027435
        k(    2) = (   0.0000000   0.0000000   0.0299096), wk =   0.0054870
        k(    3) = (   0.0000000   0.0000000   0.0598192), wk =   0.0054870
        k(    4) = (   0.0000000   0.0000000   0.0897289), wk =   0.0054870
        k(    5) = (   0.0000000   0.0000000   0.1196385), wk =   0.0054870
        k(    6) = (   0.0000000   0.0246855   0.0000000), wk =   0.0109739
        k(    7) = (   0.0000000   0.0246855   0.0299096), wk =   0.0219479
        k(    8) = (   0.0000000   0.0246855   0.0598192), wk =   0.0219479
        k(    9) = (   0.0000000   0.0246855   0.0897289), wk =   0.0219479
        k(   10) = (   0.0000000   0.0246855   0.1196385), wk =   0.0219479
        k(   11) = (   0.0000000   0.0493710   0.0000000), wk =   0.0109739
        k(   12) = (   0.0000000   0.0493710   0.0299096), wk =   0.0219479
        k(   13) = (   0.0000000   0.0493710   0.0598192), wk =   0.0219479
        k(   14) = (   0.0000000   0.0493710   0.0897289), wk =   0.0219479
        k(   15) = (   0.0000000   0.0493710   0.1196385), wk =   0.0219479
        k(   16) = (   0.0000000   0.0740565   0.0000000), wk =   0.0109739
        k(   17) = (   0.0000000   0.0740565   0.0299096), wk =   0.0219479
        k(   18) = (   0.0000000   0.0740565   0.0598192), wk =   0.0219479
        k(   19) = (   0.0000000   0.0740565   0.0897289), wk =   0.0219479
        k(   20) = (   0.0000000   0.0740565   0.1196385), wk =   0.0219479
        k(   21) = (   0.0000000   0.0987421   0.0000000), wk =   0.0109739
        k(   22) = (   0.0000000   0.0987421   0.0299096), wk =   0.0219479
        k(   23) = (   0.0000000   0.0987421   0.0598192), wk =   0.0219479
        k(   24) = (   0.0000000   0.0987421   0.0897289), wk =   0.0219479
        k(   25) = (   0.0000000   0.0987421   0.1196385), wk =   0.0219479
        k(   26) = (   0.0246855   0.0246855   0.0000000), wk =   0.0109739
        k(   27) = (   0.0246855   0.0246855   0.0299096), wk =   0.0219479
        k(   28) = (   0.0246855   0.0246855   0.0598192), wk =   0.0219479
        k(   29) = (   0.0246855   0.0246855   0.0897289), wk =   0.0219479
        k(   30) = (   0.0246855   0.0246855   0.1196385), wk =   0.0219479
        k(   31) = (   0.0246855   0.0493710   0.0000000), wk =   0.0219479
        k(   32) = (   0.0246855   0.0493710   0.0299096), wk =   0.0438957
        k(   33) = (   0.0246855   0.0493710   0.0598192), wk =   0.0438957
        k(   34) = (   0.0246855   0.0493710   0.0897289), wk =   0.0438957
        k(   35) = (   0.0246855   0.0493710   0.1196385), wk =   0.0438957
        k(   36) = (   0.0246855   0.0740565   0.0000000), wk =   0.0219479
        k(   37) = (   0.0246855   0.0740565   0.0299096), wk =   0.0438957
        k(   38) = (   0.0246855   0.0740565   0.0598192), wk =   0.0438957
        k(   39) = (   0.0246855   0.0740565   0.0897289), wk =   0.0438957
        k(   40) = (   0.0246855   0.0740565   0.1196385), wk =   0.0438957
        k(   41) = (   0.0246855   0.0987421   0.0000000), wk =   0.0219479
        k(   42) = (   0.0246855   0.0987421   0.0299096), wk =   0.0438957
        k(   43) = (   0.0246855   0.0987421   0.0598192), wk =   0.0438957
        k(   44) = (   0.0246855   0.0987421   0.0897289), wk =   0.0438957
        k(   45) = (   0.0246855   0.0987421   0.1196385), wk =   0.0438957
        k(   46) = (   0.0493710   0.0493710   0.0000000), wk =   0.0109739
        k(   47) = (   0.0493710   0.0493710   0.0299096), wk =   0.0219479
        k(   48) = (   0.0493710   0.0493710   0.0598192), wk =   0.0219479
        k(   49) = (   0.0493710   0.0493710   0.0897289), wk =   0.0219479
        k(   50) = (   0.0493710   0.0493710   0.1196385), wk =   0.0219479
        k(   51) = (   0.0493710   0.0740565   0.0000000), wk =   0.0219479
        k(   52) = (   0.0493710   0.0740565   0.0299096), wk =   0.0438957
        k(   53) = (   0.0493710   0.0740565   0.0598192), wk =   0.0438957
        k(   54) = (   0.0493710   0.0740565   0.0897289), wk =   0.0438957
        k(   55) = (   0.0493710   0.0740565   0.1196385), wk =   0.0438957
        k(   56) = (   0.0493710   0.0987421   0.0000000), wk =   0.0219479
        k(   57) = (   0.0493710   0.0987421   0.0299096), wk =   0.0438957
        k(   58) = (   0.0493710   0.0987421   0.0598192), wk =   0.0438957
        k(   59) = (   0.0493710   0.0987421   0.0897289), wk =   0.0438957
        k(   60) = (   0.0493710   0.0987421   0.1196385), wk =   0.0438957
        k(   61) = (   0.0740565   0.0740565   0.0000000), wk =   0.0109739
        k(   62) = (   0.0740565   0.0740565   0.0299096), wk =   0.0219479
        k(   63) = (   0.0740565   0.0740565   0.0598192), wk =   0.0219479
        k(   64) = (   0.0740565   0.0740565   0.0897289), wk =   0.0219479
        k(   65) = (   0.0740565   0.0740565   0.1196385), wk =   0.0219479
        k(   66) = (   0.0740565   0.0987421   0.0000000), wk =   0.0219479
        k(   67) = (   0.0740565   0.0987421   0.0299096), wk =   0.0438957
        k(   68) = (   0.0740565   0.0987421   0.0598192), wk =   0.0438957
        k(   69) = (   0.0740565   0.0987421   0.0897289), wk =   0.0438957
        k(   70) = (   0.0740565   0.0987421   0.1196385), wk =   0.0438957
        k(   71) = (   0.0987421   0.0987421   0.0000000), wk =   0.0109739
        k(   72) = (   0.0987421   0.0987421   0.0299096), wk =   0.0219479
        k(   73) = (   0.0987421   0.0987421   0.0598192), wk =   0.0219479
        k(   74) = (   0.0987421   0.0987421   0.0897289), wk =   0.0219479
        k(   75) = (   0.0987421   0.0987421   0.1196385), wk =   0.0219479

     Largest allocated arrays     est. size (Mb)     dimensions
     Largest temporary arrays     est. size (Mb)     dimensions

     Initial potential from superposition of free atoms
     Check: negative starting charge=   -0.823770

     starting charge   54.99021, renormalised to   56.00000

     negative rho (up, down):  8.389E-01 0.000E+00

     *
     * You are using vdW-DF for exchange-correlation in this calculation.
     * Please cite the following three references that made this development
     * possible:
     *
     *   M. Dion, H. Rydberg, E. Schroder, D. C. Langreth, and
     *   B. I. Lundqvist, Phys. Rev. Lett. 92, 246401 (2004).
     *
     *   T. Thonhauser, V. R. Cooper, S. Li, A. Puzder, P. Hyldgaard, and
     *   D. C. Langreth, Phys. Rev. B 76, 125112 (2007).
     *
     *   G. Roman-Perez and J. M. Soler, Phys. Rev. Lett. 103, 096102 (2009).
     *
     *
     * If you are using vdW-DF2, please also cite:
     *
     *   K. Lee, E. D. Murray, L. Kong, B. I. Lundqvist, and
     *   D. C. Langreth, Phys. Rev. B 82, 081101(R) (2010).
     *
     *
     * If you are calculating the stress with vdW-DF, please also cite:
     *
     *   R. Sabatini, E. Kucukbenli, B. Kolb, T. Thonhauser, and
     *   S. de Gironcoli, J. Phys.: Condens. Matter 24, 424209 (2012).
     *

     Carrying out vdW-DF run using the following parameters:

     Nqs =      20    Nr_points =    1024   r_max =   100.000
     q_mesh =
               0.00001000     0.04494208     0.09755937     0.15916263
               0.23128650     0.31572767     0.41458969     0.53033537
               0.66584808     0.82450364     1.01025438     1.22772762
               1.48234092     1.78043706     2.12944203     2.53805004
               3.01644009     3.57652955     4.23227104     5.00000000

     Gradients computed in reciprocal space

     Starting wfc are   42 randomized atomic wfcs +    6 random wfc

     Self-consistent Calculation

     iteration #  1     ecut=    58.80 Ry     beta=0.10
     Davidson diagonalization with overlap
     ethr =  1.00E-02,  avg # of iterations =  5.0

[...]

     total energy              =    -660.26023648 Ry
     Harris-Foulkes estimate   =    -660.39123749 Ry
     estimated scf accuracy    <       0.92355157 Ry

[...]

     total energy              =    -660.16392210 Ry
     Harris-Foulkes estimate   =    -660.16381943 Ry
     estimated scf accuracy    <       0.00000107 Ry

     iteration # 10     ecut=    58.80 Ry     beta=0.10
     Davidson diagonalization with overlap
     ethr =  1.90E-09,  avg # of iterations =  1.3

     negative rho (up, down):  7.882E-01 0.000E+00

     End of self-consistent calculation

          k = 0.0000 0.0000 0.0000 (  3885 PWs)   bands (ev):

   -31.2835 -31.2835 -31.2187 -31.2187 -31.2017 -31.1893   4.7679   4.8303
     5.0072   5.2125   5.2125   5.4681   5.6256   5.6256   5.7637   6.1368
     6.3902  11.5114  14.1565  14.4361  15.3189  15.7434  15.7434  15.7766
    15.7766  16.4703  16.4703  16.7941  17.6377  19.0813  19.1413  20.8645
    22.9563  22.9563  23.0057  24.9692  26.7423  26.7423  28.6900  28.9866
    28.9871  30.1639  30.8188  31.2222  32.4908  32.9642  32.9642  34.9811

[...]

          k = 0.0987 0.0987 0.1196 (  3881 PWs)   bands (ev):

   -31.2892 -31.2873 -31.2145 -31.2126 -31.2056 -31.2052   4.9866   4.9950
     5.0342   5.0673   5.3949   5.4181   5.5556   5.5679   5.8976   5.9189
    10.4290  10.5600  13.9692  14.0993  14.7336  14.8137  15.0808  15.3152
    16.0369  16.3290  16.3828  16.4366  16.9506  17.0248  19.1126  19.1722
    19.6712  20.0594  27.5392  27.8945  28.5936  28.7017  28.9870  28.9871
    29.0504  29.1749  31.5851  31.8249  34.5191  34.5366  34.9844  35.3310

     the Fermi energy is    17.1107 ev

!    total energy              =    -660.16437115 Ry
     Harris-Foulkes estimate   =    -660.16392215 Ry
     estimated scf accuracy    <       0.00000058 Ry

     The total energy is the sum of the following terms:

     one-electron contribution =     -55.28084872 Ry
     hartree contribution      =      79.24698480 Ry
     xc contribution           =    -232.38586607 Ry
     ewald contribution        =    -451.74043232 Ry
     smearing contrib. (-TS)   =      -0.00420885 Ry

     convergence has been achieved in  10 iterations

     Forces acting on atoms (Ry/au):

     negative rho (up, down):  7.882E-01 0.000E+00
     atom    1 type  1   force =     0.00000000    0.00000000    0.00000000
     atom    2 type  1   force =     0.00000000    0.00000000    0.00000000
     atom    3 type  2   force =     0.00000000    0.00000000    0.00000000
     atom    4 type  2   force =     0.00000000    0.00000000    0.00000000

     Total force =     0.000000     Total SCF correction =     0.000000

     General routines

     Parallel routines

   This run was terminated on:  14:19:45  14Nov2017

   JOB DONE.