     Program PWSCF v.5.1rc2 starts on 15Nov2017 at  5:51:24

     Current dimensions of program PWSCF are:
     Max number of different atomic species (ntypx) = 10
     Max number of k-points (npk) =  40000
     Max angular momentum in pseudopotentials (lmaxx) =  3

     IMPORTANT: XC functional enforced from input :
     Exchange-correlation      = BEEF-VDW ( 1  4 27 13 2)
     Any further DFT definition will be discarded
     Please, verify this is what you really want

     Found symmetry operation: I + (  0.5000  0.5000  0.0000)
     This is a supercell, fractional translations are disabled

     bravais-lattice index     =            0
     lattice parameter (alat)  =       1.8897  a.u.
     unit-cell volume          =     425.2235 (a.u.)^3
     number of atoms/cell      =            4
     number of atomic types    =            2
     number of electrons       =        62.00
     number of Kohn-Sham states=           51
     kinetic-energy cutoff     =      58.7989  Ry
     charge density cutoff     =     587.9892  Ry
     convergence threshold     =      1.0E-06
     mixing beta               =       0.1000
     number of iterations used =           10  plain     mixing
     Exchange-correlation      = BEEF-VDW ( 1  4 27 13 2)

     celldm(1)=   1.889726  celldm(2)=   0.000000  celldm(3)=   0.000000
     celldm(4)=   0.000000  celldm(5)=   0.000000  celldm(6)=   0.000000

     crystal axes: (cart. coord. in units of alat)
               a(1) = (   3.983031   0.000000   0.000000 )
               a(2) = (   0.000000   3.983031   0.000000 )
               a(3) = (   0.000000   0.000000   3.971855 )

     reciprocal axes: (cart. coord. in units 2 pi/alat)
               b(1) = (  0.251065  0.000000  0.000000 )
               b(2) = (  0.000000  0.251065  0.000000 )
               b(3) = (  0.000000  0.000000  0.251772 )

     PseudoPot. # 1 for Ti read from file:
     /home/users/vossj/suncat/psp/gbrv1.5pbe/Ti.UPF
     MD5 check sum: 88a00a6731bd790ddea75d31a80cb452
     Pseudo is Ultrasoft + core correction, Zval = 12.0
     Generated by new atomic code, or converted to UPF format
     Using radial grid of  851 points,  6 beta functions with:
                l(1) =   0
                l(2) =   0
                l(3) =   1
                l(4) =   1
                l(5) =   2
                l(6) =   2
     Q(r) pseudized with  6 coefficients,  rinner =    1.000   1.000   1.000
                                                       1.000   1.000

     PseudoPot. # 2 for Ga read from file:
     /home/users/vossj/suncat/psp/gbrv1.5pbe/Ga.UPF
     MD5 check sum: ccd671392a58a050fbb373893b4fcd66
     Pseudo is Ultrasoft + core correction, Zval = 19.0
     Generated by new atomic code, or converted to UPF format
     Using radial grid of  871 points,  6 beta functions with:
                l(1) =   0
                l(2) =   0
                l(3) =   1
                l(4) =   1
                l(5) =   2
                l(6) =   2
     Q(r) pseudized with  8 coefficients,  rinner =    1.250   1.250   1.250
                                                       1.250   1.250

     vdW kernel table read from file vdW_kernel_table
     MD5 check sum: 095c7af220d748ca6e76c0b4c6cfb241

     atomic species   valence    mass     pseudopotential
        Ti1           12.00    47.88000     Ti( 1.00)
        Ga1           19.00    69.72300     Ga( 1.00)

     16 Sym. Ops., with inversion, found

   Cartesian axes

     site n.     atom                  positions (alat units)
         1           Ti1 tau(   1) = (   0.0000000   0.0000000   0.0000000  )
         2           Ti1 tau(   2) = (   1.9915153   1.9915153   0.0000000  )
         3           Ga1 tau(   3) = (   1.9915153   0.0000000   1.9859273  )
         4           Ga1 tau(   4) = (   0.0000000   1.9915153   1.9859273  )

     number of k points=    75  Fermi-Dirac smearing, width (Ry)=  0.0073
                       cart. coord. in units 2pi/alat
        k(    1) = (   0.0000000   0.0000000   0.0000000), wk =   0.0027435
        k(    2) = (   0.0000000   0.0000000   0.0279746), wk =   0.0054870
        k(    3) = (   0.0000000   0.0000000   0.0559492), wk =   0.0054870
        k(    4) = (   0.0000000   0.0000000   0.0839238), wk =   0.0054870
        k(    5) = (   0.0000000   0.0000000   0.1118985), wk =   0.0054870
        k(    6) = (   0.0000000   0.0278961   0.0000000), wk =   0.0109739
        k(    7) = (   0.0000000   0.0278961   0.0279746), wk =   0.0219479
        k(    8) = (   0.0000000   0.0278961   0.0559492), wk =   0.0219479
        k(    9) = (   0.0000000   0.0278961   0.0839238), wk =   0.0219479
        k(   10) = (   0.0000000   0.0278961   0.1118985), wk =   0.0219479
        k(   11) = (   0.0000000   0.0557922   0.0000000), wk =   0.0109739
        k(   12) = (   0.0000000   0.0557922   0.0279746), wk =   0.0219479
        k(   13) = (   0.0000000   0.0557922   0.0559492), wk =   0.0219479
        k(   14) = (   0.0000000   0.0557922   0.0839238), wk =   0.0219479
        k(   15) = (   0.0000000   0.0557922   0.1118985), wk =   0.0219479
        k(   16) = (   0.0000000   0.0836884   0.0000000), wk =   0.0109739
        k(   17) = (   0.0000000   0.0836884   0.0279746), wk =   0.0219479
        k(   18) = (   0.0000000   0.0836884   0.0559492), wk =   0.0219479
        k(   19) = (   0.0000000   0.0836884   0.0839238), wk =   0.0219479
        k(   20) = (   0.0000000   0.0836884   0.1118985), wk =   0.0219479
        k(   21) = (   0.0000000   0.1115845   0.0000000), wk =   0.0109739
        k(   22) = (   0.0000000   0.1115845   0.0279746), wk =   0.0219479
        k(   23) = (   0.0000000   0.1115845   0.0559492), wk =   0.0219479
        k(   24) = (   0.0000000   0.1115845   0.0839238), wk =   0.0219479
        k(   25) = (   0.0000000   0.1115845   0.1118985), wk =   0.0219479
        k(   26) = (   0.0278961   0.0278961   0.0000000), wk =   0.0109739
        k(   27) = (   0.0278961   0.0278961   0.0279746), wk =   0.0219479
        k(   28) = (   0.0278961   0.0278961   0.0559492), wk =   0.0219479
        k(   29) = (   0.0278961   0.0278961   0.0839238), wk =   0.0219479
        k(   30) = (   0.0278961   0.0278961   0.1118985), wk =   0.0219479
        k(   31) = (   0.0278961   0.0557922   0.0000000), wk =   0.0219479
        k(   32) = (   0.0278961   0.0557922   0.0279746), wk =   0.0438957
        k(   33) = (   0.0278961   0.0557922   0.0559492), wk =   0.0438957
        k(   34) = (   0.0278961   0.0557922   0.0839238), wk =   0.0438957
        k(   35) = (   0.0278961   0.0557922   0.1118985), wk =   0.0438957
        k(   36) = (   0.0278961   0.0836884   0.0000000), wk =   0.0219479
        k(   37) = (   0.0278961   0.0836884   0.0279746), wk =   0.0438957
        k(   38) = (   0.0278961   0.0836884   0.0559492), wk =   0.0438957
        k(   39) = (   0.0278961   0.0836884   0.0839238), wk =   0.0438957
        k(   40) = (   0.0278961   0.0836884   0.1118985), wk =   0.0438957
        k(   41) = (   0.0278961   0.1115845   0.0000000), wk =   0.0219479
        k(   42) = (   0.0278961   0.1115845   0.0279746), wk =   0.0438957
        k(   43) = (   0.0278961   0.1115845   0.0559492), wk =   0.0438957
        k(   44) = (   0.0278961   0.1115845   0.0839238), wk =   0.0438957
        k(   45) = (   0.0278961   0.1115845   0.1118985), wk =   0.0438957
        k(   46) = (   0.0557922   0.0557922   0.0000000), wk =   0.0109739
        k(   47) = (   0.0557922   0.0557922   0.0279746), wk =   0.0219479
        k(   48) = (   0.0557922   0.0557922   0.0559492), wk =   0.0219479
        k(   49) = (   0.0557922   0.0557922   0.0839238), wk =   0.0219479
        k(   50) = (   0.0557922   0.0557922   0.1118985), wk =   0.0219479
        k(   51) = (   0.0557922   0.0836884   0.0000000), wk =   0.0219479
        k(   52) = (   0.0557922   0.0836884   0.0279746), wk =   0.0438957
        k(   53) = (   0.0557922   0.0836884   0.0559492), wk =   0.0438957
        k(   54) = (   0.0557922   0.0836884   0.0839238), wk =   0.0438957
        k(   55) = (   0.0557922   0.0836884   0.1118985), wk =   0.0438957
        k(   56) = (   0.0557922   0.1115845   0.0000000), wk =   0.0219479
        k(   57) = (   0.0557922   0.1115845   0.0279746), wk =   0.0438957
        k(   58) = (   0.0557922   0.1115845   0.0559492), wk =   0.0438957
        k(   59) = (   0.0557922   0.1115845   0.0839238), wk =   0.0438957
        k(   60) = (   0.0557922   0.1115845   0.1118985), wk =   0.0438957
        k(   61) = (   0.0836884   0.0836884   0.0000000), wk =   0.0109739
        k(   62) = (   0.0836884   0.0836884   0.0279746), wk =   0.0219479
        k(   63) = (   0.0836884   0.0836884   0.0559492), wk =   0.0219479
        k(   64) = (   0.0836884   0.0836884   0.0839238), wk =   0.0219479
        k(   65) = (   0.0836884   0.0836884   0.1118985), wk =   0.0219479
        k(   66) = (   0.0836884   0.1115845   0.0000000), wk =   0.0219479
        k(   67) = (   0.0836884   0.1115845   0.0279746), wk =   0.0438957
        k(   68) = (   0.0836884   0.1115845   0.0559492), wk =   0.0438957
        k(   69) = (   0.0836884   0.1115845   0.0839238), wk =   0.0438957
        k(   70) = (   0.0836884   0.1115845   0.1118985), wk =   0.0438957
        k(   71) = (   0.1115845   0.1115845   0.0000000), wk =   0.0109739
        k(   72) = (   0.1115845   0.1115845   0.0279746), wk =   0.0219479
        k(   73) = (   0.1115845   0.1115845   0.0559492), wk =   0.0219479
        k(   74) = (   0.1115845   0.1115845   0.0839238), wk =   0.0219479
        k(   75) = (   0.1115845   0.1115845   0.1118985), wk =   0.0219479

     Largest allocated arrays     est. size (Mb)     dimensions
     Largest temporary arrays     est. size (Mb)     dimensions

     Check: negative/imaginary core charge=   -0.000002    0.000000

     Initial potential from superposition of free atoms
     Check: negative starting charge=   -0.002687

     starting charge   57.99991, renormalised to   62.00000

     negative rho (up, down):  2.872E-03 0.000E+00

     *
     * You are using vdW-DF for exchange-correlation in this calculation.
     * Please cite the following three references that made this development
     * possible:
     *
     *   M. Dion, H. Rydberg, E. Schroder, D. C. Langreth, and
     *   B. I. Lundqvist, Phys. Rev. Lett. 92, 246401 (2004).
     *
     *   T. Thonhauser, V. R. Cooper, S. Li, A. Puzder, P. Hyldgaard, and
     *   D. C. Langreth, Phys. Rev. B 76, 125112 (2007).
     *
     *   G. Roman-Perez and J. M. Soler, Phys. Rev. Lett. 103, 096102 (2009).
     *
     *
     * If you are using vdW-DF2, please also cite:
     *
     *   K. Lee, E. D. Murray, L. Kong, B. I. Lundqvist, and
     *   D. C. Langreth, Phys. Rev. B 82, 081101(R) (2010).
     *
     *
     * If you are calculating the stress with vdW-DF, please also cite:
     *
     *   R. Sabatini, E. Kucukbenli, B. Kolb, T. Thonhauser, and
     *   S. de Gironcoli, J. Phys.: Condens. Matter 24, 424209 (2012).
     *

     Carrying out vdW-DF run using the following parameters:

     Nqs =      20    Nr_points =    1024   r_max =   100.000
     q_mesh =
               0.00001000     0.04494208     0.09755937     0.15916263
               0.23128650     0.31572767     0.41458969     0.53033537
               0.66584808     0.82450364     1.01025438     1.22772762
               1.48234092     1.78043706     2.12944203     2.53805004
               3.01644009     3.57652955     4.23227104     5.00000000

     Gradients computed in reciprocal space

     Starting wfc are   44 randomized atomic wfcs +    7 random wfc

     Self-consistent Calculation

     iteration #  1     ecut=    58.80 Ry     beta=0.10
     Davidson diagonalization with overlap
     ethr =  1.00E-02,  avg # of iterations =  4.4

[...]

     total energy              =   -1048.86260345 Ry
     Harris-Foulkes estimate   =   -1086.17098643 Ry
     estimated scf accuracy    <     203.72499425 Ry

[...]

     total energy              =   -1073.16611670 Ry
     Harris-Foulkes estimate   =   -1073.16611554 Ry
     estimated scf accuracy    <       0.00000133 Ry

     iteration # 13     ecut=    58.80 Ry     beta=0.10
     Davidson diagonalization with overlap
     ethr =  2.14E-09,  avg # of iterations =  2.1

     negative rho (up, down):  1.203E-03 0.000E+00

     End of self-consistent calculation

          k = 0.0000 0.0000 0.0000 (  3239 PWs)   bands (ev):

   -80.3419 -80.3419 -80.3379 -80.3379 -80.2915 -80.2908 -42.8329 -42.7175
   -19.2018 -19.1593 -19.1593 -19.0905 -18.7497 -18.7497  -0.9454  -0.8853
    -0.7749  -0.7496  -0.7496  -0.5985  -0.5985  -0.5728  -0.5596  -0.4254
     3.9351  10.1715  12.4716  13.1879  13.2482  13.2482  13.7112  14.2285
    14.2285  14.3148  16.2226  16.2226  17.2610  17.4208  18.0679  19.7845
    20.6065  21.3090  22.0298  22.0298  24.6672  24.6672  26.4709  27.2828
    28.3020  28.3617  28.5691

[...]

          k = 0.1116 0.1116 0.1119 (  3224 PWs)   bands (ev):

   -80.3423 -80.3421 -80.3376 -80.3375 -80.2912 -80.2912 -42.7752 -42.7718
   -19.2225 -19.2105 -19.1614 -19.1578 -18.7208 -18.7081  -0.8213  -0.8084
    -0.7784  -0.7746  -0.6846  -0.6753  -0.5907  -0.5865  -0.5350  -0.5265
     7.8300   8.0925  10.8513  11.0908  12.3152  12.6347  13.3020  13.4649
    15.7554  15.7727  15.8759  15.9057  16.3043  16.3299  17.4496  17.5340
    20.1740  20.3103  25.1924  25.8028  28.1231  28.3854  28.6973  29.0565
    29.8569  30.3197  31.2384

     the Fermi energy is    14.1218 ev

!    total energy              =   -1073.16612520 Ry
     Harris-Foulkes estimate   =   -1073.16611712 Ry
     estimated scf accuracy    <       0.00000025 Ry

     The total energy is the sum of the following terms:

     one-electron contribution =    -729.92975955 Ry
     hartree contribution      =     394.79569036 Ry
     xc contribution           =    -137.37072226 Ry
     ewald contribution        =    -600.65417245 Ry
     smearing contrib. (-TS)   =      -0.00716130 Ry

     convergence has been achieved in  13 iterations

     Forces acting on atoms (Ry/au):

     negative rho (up, down):  1.203E-03 0.000E+00
     atom    1 type  1   force =     0.00000000    0.00000000    0.00000000
     atom    2 type  1   force =     0.00000000    0.00000000    0.00000000
     atom    3 type  2   force =     0.00000000    0.00000000    0.00000000
     atom    4 type  2   force =     0.00000000    0.00000000    0.00000000

     Total force =     0.000000     Total SCF correction =     0.000000

     General routines

     Parallel routines

   This run was terminated on:   5:52:10  15Nov2017

   JOB DONE.