     Program PWSCF v.5.1rc2 starts on 14Nov2017 at  1:51:55

     Current dimensions of program PWSCF are:
     Max number of different atomic species (ntypx) = 10
     Max number of k-points (npk) =  40000
     Max angular momentum in pseudopotentials (lmaxx) =  3

     IMPORTANT: XC functional enforced from input :
     Exchange-correlation      = BEEF-VDW ( 1  4 27 13 2)
     Any further DFT definition will be discarded
     Please, verify this is what you really want

     Found symmetry operation: I + ( -0.5000 -0.5000  0.0000)
     This is a supercell, fractional translations are disabled

     bravais-lattice index     =            0
     lattice parameter (alat)  =       1.8897  a.u.
     unit-cell volume          =     687.2639 (a.u.)^3
     number of atoms/cell      =            4
     number of atomic types    =            2
     number of electrons       =        50.00
     number of Kohn-Sham states=           45
     kinetic-energy cutoff     =      58.7989  Ry
     charge density cutoff     =     587.9892  Ry
     convergence threshold     =      1.0E-06
     mixing beta               =       0.1000
     number of iterations used =           10  plain     mixing
     Exchange-correlation      = BEEF-VDW ( 1  4 27 13 2)

     celldm(1)=   1.889726  celldm(2)=   0.000000  celldm(3)=   0.000000
     celldm(4)=   0.000000  celldm(5)=   0.000000  celldm(6)=   0.000000

     crystal axes: (cart. coord. in units of alat)
               a(1) = (   5.210434   0.000000   0.000000 )
               a(2) = (   0.000000   5.210434   0.000000 )
               a(3) = (   0.000000   0.000000   3.751277 )

     reciprocal axes: (cart. coord. in units 2 pi/alat)
               b(1) = (  0.191923  0.000000  0.000000 )
               b(2) = (  0.000000  0.191923  0.000000 )
               b(3) = (  0.000000  0.000000  0.266576 )

     PseudoPot. # 1 for Au read from file:
     /home/users/vossj/suncat/psp/gbrv1.5pbe/Au.UPF
     MD5 check sum: 9d7f43293ad2c663164586bc4b293ffc
     Pseudo is Ultrasoft + core correction, Zval = 11.0
     Generated by new atomic code, or converted to UPF format
     Using radial grid of  985 points,  7 beta functions with:
                l(1) =   0
                l(2) =   0
                l(3) =   1
                l(4) =   1
                l(5) =   2
                l(6) =   2
                l(7) =   3
     Q(r) pseudized with  6 coefficients,  rinner =    1.900   1.900   1.900
                                                       1.900   1.900   1.900
                                                       1.900

     PseudoPot. # 2 for Pb read from file:
     /home/users/vossj/suncat/psp/gbrv1.5pbe/Pb.UPF
     MD5 check sum: 3d1c1779aa92214d1e8f3a7db79003e2
     Pseudo is Ultrasoft + core correction, Zval = 14.0
     Generated by new atomic code, or converted to UPF format
     Using radial grid of  899 points,  6 beta functions with:
                l(1) =   0
                l(2) =   0
                l(3) =   1
                l(4) =   1
                l(5) =   2
                l(6) =   2
     Q(r) pseudized with  6 coefficients,  rinner =    1.000   1.000   1.000
                                                       1.000   1.000

     vdW kernel table read from file vdW_kernel_table
     MD5 check sum: 095c7af220d748ca6e76c0b4c6cfb241

     atomic species   valence    mass     pseudopotential
        Au1           11.00   196.96650     Au( 1.00)
        Pb1           14.00   207.20000     Pb( 1.00)

     16 Sym. Ops., with inversion, found

   Cartesian axes

     site n.     atom                  positions (alat units)
         1           Au1 tau(   1) = (   0.0000000   0.0000000   0.0000000  )
         2           Au1 tau(   2) = (   2.6052170   2.6052170   0.0000000  )
         3           Pb1 tau(   3) = (   2.6052170   0.0000000   1.8756384  )
         4           Pb1 tau(   4) = (   0.0000000   2.6052170   1.8756384  )

     number of k points=    75  Fermi-Dirac smearing, width (Ry)=  0.0073
                       cart. coord. in units 2pi/alat
        k(    1) = (   0.0000000   0.0000000   0.0000000), wk =   0.0027435
        k(    2) = (   0.0000000   0.0000000   0.0296195), wk =   0.0054870
        k(    3) = (   0.0000000   0.0000000   0.0592391), wk =   0.0054870
        k(    4) = (   0.0000000   0.0000000   0.0888586), wk =   0.0054870
        k(    5) = (   0.0000000   0.0000000   0.1184782), wk =   0.0054870
        k(    6) = (   0.0000000   0.0213247   0.0000000), wk =   0.0109739
        k(    7) = (   0.0000000   0.0213247   0.0296195), wk =   0.0219479
        k(    8) = (   0.0000000   0.0213247   0.0592391), wk =   0.0219479
        k(    9) = (   0.0000000   0.0213247   0.0888586), wk =   0.0219479
        k(   10) = (   0.0000000   0.0213247   0.1184782), wk =   0.0219479
        k(   11) = (   0.0000000   0.0426495   0.0000000), wk =   0.0109739
        k(   12) = (   0.0000000   0.0426495   0.0296195), wk =   0.0219479
        k(   13) = (   0.0000000   0.0426495   0.0592391), wk =   0.0219479
        k(   14) = (   0.0000000   0.0426495   0.0888586), wk =   0.0219479
        k(   15) = (   0.0000000   0.0426495   0.1184782), wk =   0.0219479
        k(   16) = (   0.0000000   0.0639742   0.0000000), wk =   0.0109739
        k(   17) = (   0.0000000   0.0639742   0.0296195), wk =   0.0219479
        k(   18) = (   0.0000000   0.0639742   0.0592391), wk =   0.0219479
        k(   19) = (   0.0000000   0.0639742   0.0888586), wk =   0.0219479
        k(   20) = (   0.0000000   0.0639742   0.1184782), wk =   0.0219479
        k(   21) = (   0.0000000   0.0852989   0.0000000), wk =   0.0109739
        k(   22) = (   0.0000000   0.0852989   0.0296195), wk =   0.0219479
        k(   23) = (   0.0000000   0.0852989   0.0592391), wk =   0.0219479
        k(   24) = (   0.0000000   0.0852989   0.0888586), wk =   0.0219479
        k(   25) = (   0.0000000   0.0852989   0.1184782), wk =   0.0219479
        k(   26) = (   0.0213247   0.0213247   0.0000000), wk =   0.0109739
        k(   27) = (   0.0213247   0.0213247   0.0296195), wk =   0.0219479
        k(   28) = (   0.0213247   0.0213247   0.0592391), wk =   0.0219479
        k(   29) = (   0.0213247   0.0213247   0.0888586), wk =   0.0219479
        k(   30) = (   0.0213247   0.0213247   0.1184782), wk =   0.0219479
        k(   31) = (   0.0213247   0.0426495   0.0000000), wk =   0.0219479
        k(   32) = (   0.0213247   0.0426495   0.0296195), wk =   0.0438957
        k(   33) = (   0.0213247   0.0426495   0.0592391), wk =   0.0438957
        k(   34) = (   0.0213247   0.0426495   0.0888586), wk =   0.0438957
        k(   35) = (   0.0213247   0.0426495   0.1184782), wk =   0.0438957
        k(   36) = (   0.0213247   0.0639742   0.0000000), wk =   0.0219479
        k(   37) = (   0.0213247   0.0639742   0.0296195), wk =   0.0438957
        k(   38) = (   0.0213247   0.0639742   0.0592391), wk =   0.0438957
        k(   39) = (   0.0213247   0.0639742   0.0888586), wk =   0.0438957
        k(   40) = (   0.0213247   0.0639742   0.1184782), wk =   0.0438957
        k(   41) = (   0.0213247   0.0852989   0.0000000), wk =   0.0219479
        k(   42) = (   0.0213247   0.0852989   0.0296195), wk =   0.0438957
        k(   43) = (   0.0213247   0.0852989   0.0592391), wk =   0.0438957
        k(   44) = (   0.0213247   0.0852989   0.0888586), wk =   0.0438957
        k(   45) = (   0.0213247   0.0852989   0.1184782), wk =   0.0438957
        k(   46) = (   0.0426495   0.0426495   0.0000000), wk =   0.0109739
        k(   47) = (   0.0426495   0.0426495   0.0296195), wk =   0.0219479
        k(   48) = (   0.0426495   0.0426495   0.0592391), wk =   0.0219479
        k(   49) = (   0.0426495   0.0426495   0.0888586), wk =   0.0219479
        k(   50) = (   0.0426495   0.0426495   0.1184782), wk =   0.0219479
        k(   51) = (   0.0426495   0.0639742   0.0000000), wk =   0.0219479
        k(   52) = (   0.0426495   0.0639742   0.0296195), wk =   0.0438957
        k(   53) = (   0.0426495   0.0639742   0.0592391), wk =   0.0438957
        k(   54) = (   0.0426495   0.0639742   0.0888586), wk =   0.0438957
        k(   55) = (   0.0426495   0.0639742   0.1184782), wk =   0.0438957
        k(   56) = (   0.0426495   0.0852989   0.0000000), wk =   0.0219479
        k(   57) = (   0.0426495   0.0852989   0.0296195), wk =   0.0438957
        k(   58) = (   0.0426495   0.0852989   0.0592391), wk =   0.0438957
        k(   59) = (   0.0426495   0.0852989   0.0888586), wk =   0.0438957
        k(   60) = (   0.0426495   0.0852989   0.1184782), wk =   0.0438957
        k(   61) = (   0.0639742   0.0639742   0.0000000), wk =   0.0109739
        k(   62) = (   0.0639742   0.0639742   0.0296195), wk =   0.0219479
        k(   63) = (   0.0639742   0.0639742   0.0592391), wk =   0.0219479
        k(   64) = (   0.0639742   0.0639742   0.0888586), wk =   0.0219479
        k(   65) = (   0.0639742   0.0639742   0.1184782), wk =   0.0219479
        k(   66) = (   0.0639742   0.0852989   0.0000000), wk =   0.0219479
        k(   67) = (   0.0639742   0.0852989   0.0296195), wk =   0.0438957
        k(   68) = (   0.0639742   0.0852989   0.0592391), wk =   0.0438957
        k(   69) = (   0.0639742   0.0852989   0.0888586), wk =   0.0438957
        k(   70) = (   0.0639742   0.0852989   0.1184782), wk =   0.0438957
        k(   71) = (   0.0852989   0.0852989   0.0000000), wk =   0.0109739
        k(   72) = (   0.0852989   0.0852989   0.0296195), wk =   0.0219479
        k(   73) = (   0.0852989   0.0852989   0.0592391), wk =   0.0219479
        k(   74) = (   0.0852989   0.0852989   0.0888586), wk =   0.0219479
        k(   75) = (   0.0852989   0.0852989   0.1184782), wk =   0.0219479

     Largest allocated arrays     est. size (Mb)     dimensions
     Largest temporary arrays     est. size (Mb)     dimensions

     Initial potential from superposition of free atoms
     Check: negative starting charge=   -0.031939

     starting charge   49.99505, renormalised to   50.00000

     negative rho (up, down):  3.194E-02 0.000E+00

     *
     * You are using vdW-DF for exchange-correlation in this calculation.
     * Please cite the following three references that made this development
     * possible:
     *
     *   M. Dion, H. Rydberg, E. Schroder, D. C. Langreth, and
     *   B. I. Lundqvist, Phys. Rev. Lett. 92, 246401 (2004).
     *
     *   T. Thonhauser, V. R. Cooper, S. Li, A. Puzder, P. Hyldgaard, and
     *   D. C. Langreth, Phys. Rev. B 76, 125112 (2007).
     *
     *   G. Roman-Perez and J. M. Soler, Phys. Rev. Lett. 103, 096102 (2009).
     *
     *
     * If you are using vdW-DF2, please also cite:
     *
     *   K. Lee, E. D. Murray, L. Kong, B. I. Lundqvist, and
     *   D. C. Langreth, Phys. Rev. B 82, 081101(R) (2010).
     *
     *
     * If you are calculating the stress with vdW-DF, please also cite:
     *
     *   R. Sabatini, E. Kucukbenli, B. Kolb, T. Thonhauser, and
     *   S. de Gironcoli, J. Phys.: Condens. Matter 24, 424209 (2012).
     *

     Carrying out vdW-DF run using the following parameters:

     Nqs =      20    Nr_points =    1024   r_max =   100.000
     q_mesh =
               0.00001000     0.04494208     0.09755937     0.15916263
               0.23128650     0.31572767     0.41458969     0.53033537
               0.66584808     0.82450364     1.01025438     1.22772762
               1.48234092     1.78043706     2.12944203     2.53805004
               3.01644009     3.57652955     4.23227104     5.00000000

     Gradients computed in reciprocal space

     Starting wfc are   36 randomized atomic wfcs +    9 random wfc

     Self-consistent Calculation

     iteration #  1     ecut=    58.80 Ry     beta=0.10
     Davidson diagonalization with overlap
     ethr =  1.00E-02,  avg # of iterations =  5.8

     Threshold (ethr) on eigenvalues was too large:
     Diagonalizing with lowered threshold

     Davidson diagonalization with overlap
     c_bands:  1 eigenvalues not converged
     ethr =  1.01E-04,  avg # of iterations =  5.4

[...]

     total energy              =    -565.51764867 Ry
     Harris-Foulkes estimate   =    -565.52256236 Ry
     estimated scf accuracy    <       0.05169610 Ry

[...]

     total energy              =    -565.51938422 Ry
     Harris-Foulkes estimate   =    -565.51906529 Ry
     estimated scf accuracy    <       0.00000383 Ry

     iteration #  9     ecut=    58.80 Ry     beta=0.10
     Davidson diagonalization with overlap
     ethr =  7.65E-09,  avg # of iterations =  2.0

     negative rho (up, down):  3.446E-02 0.000E+00

     End of self-consistent calculation

          k = 0.0000 0.0000 0.0000 (  5193 PWs)   bands (ev):

    -6.0279  -6.0173  -5.9793  -5.9369  -5.9122  -5.9122  -5.8647  -5.8647
    -5.8584  -5.7891   0.6751   3.2427   7.0308   7.0459   7.1799   7.5826
     7.5826   7.8319   7.8319   7.8576   8.2166   8.5873   8.8687   8.8687
    10.3892  11.9789  13.0573  13.4159  13.4159  16.2310  19.5002  19.6666
    19.7558  19.7558  20.6895  21.6893  21.8479  22.2606  24.5253  24.6220
    24.6220  24.6447  24.6448  24.6628  24.9984

[...]

          k = 0.0853 0.0853 0.1185 (  5252 PWs)   bands (ev):

    -5.9744  -5.9728  -5.9540  -5.9482  -5.9075  -5.9043  -5.9032  -5.9015
    -5.8052  -5.8012   3.0825   3.1427   7.0534   7.1199   7.5083   7.5366
     7.6034   7.6253   8.0139   8.0557   8.0897   8.3380   8.8021   9.0358
     9.0988   9.3256  10.5667  10.8697  16.2522  16.4690  19.7271  19.7905
    19.8006  20.1338  20.6930  20.8424  21.7796  21.7827  22.6308  22.7365
    24.8696  25.0643  25.2249  25.2287  25.8688

     the Fermi energy is    11.4305 ev

!    total energy              =    -565.52071201 Ry
     Harris-Foulkes estimate   =    -565.51938515 Ry
     estimated scf accuracy    <       0.00000018 Ry

     The total energy is the sum of the following terms:

     one-electron contribution =     -53.03494362 Ry
     hartree contribution      =      73.54380243 Ry
     xc contribution           =    -258.67951235 Ry
     ewald contribution        =    -327.34502452 Ry
     smearing contrib. (-TS)   =      -0.00503395 Ry

     convergence has been achieved in   9 iterations

     Forces acting on atoms (Ry/au):

     negative rho (up, down):  3.446E-02 0.000E+00
     atom    1 type  1   force =     0.00000000    0.00000000    0.00000000
     atom    2 type  1   force =     0.00000000    0.00000000    0.00000000
     atom    3 type  2   force =     0.00000000    0.00000000    0.00000000
     atom    4 type  2   force =     0.00000000    0.00000000    0.00000000

     Total force =     0.000000     Total SCF correction =     0.000000

     General routines

     Parallel routines

   This run was terminated on:   1:52:49  14Nov2017

   JOB DONE.