     Program PWSCF v.5.1rc2 starts on 15Nov2017 at  8:48:20

     Current dimensions of program PWSCF are:
     Max number of different atomic species (ntypx) = 10
     Max number of k-points (npk) =  40000
     Max angular momentum in pseudopotentials (lmaxx) =  3

     IMPORTANT: XC functional enforced from input :
     Exchange-correlation      = BEEF-VDW ( 1  4 27 13 2)
     Any further DFT definition will be discarded
     Please, verify this is what you really want

     Found symmetry operation: I + (  0.5000  0.5000  0.0000)
     This is a supercell, fractional translations are disabled

     bravais-lattice index     =            0
     lattice parameter (alat)  =       1.8897  a.u.
     unit-cell volume          =     778.2245 (a.u.)^3
     number of atoms/cell      =            4
     number of atomic types    =            2
     number of electrons       =        54.00
     number of Kohn-Sham states=           47
     kinetic-energy cutoff     =      58.7989  Ry
     charge density cutoff     =     587.9892  Ry
     convergence threshold     =      1.0E-06
     mixing beta               =       0.1000
     number of iterations used =           10  plain     mixing
     Exchange-correlation      = BEEF-VDW ( 1  4 27 13 2)

     celldm(1)=   1.889726  celldm(2)=   0.000000  celldm(3)=   0.000000
     celldm(4)=   0.000000  celldm(5)=   0.000000  celldm(6)=   0.000000

     crystal axes: (cart. coord. in units of alat)
               a(1) = (   4.704541   0.000000   0.000000 )
               a(2) = (   0.000000   4.704541   0.000000 )
               a(3) = (   0.000000   0.000000   5.210432 )

     reciprocal axes: (cart. coord. in units 2 pi/alat)
               b(1) = (  0.212561  0.000000  0.000000 )
               b(2) = (  0.000000  0.212561  0.000000 )
               b(3) = (  0.000000  0.000000  0.191923 )

     PseudoPot. # 1 for In read from file:
     /home/users/vossj/suncat/psp/gbrv1.5pbe/In.UPF
     MD5 check sum: 90777abd96fbb83f2e67db2a40c566b9
     Pseudo is Ultrasoft + core correction, Zval = 13.0
     Generated by new atomic code, or converted to UPF format
     Using radial grid of  889 points,  6 beta functions with:
                l(1) =   0
                l(2) =   0
                l(3) =   1
                l(4) =   1
                l(5) =   2
                l(6) =   2
     Q(r) pseudized with  6 coefficients,  rinner =    1.400   1.400   1.400
                                                       1.400   1.400

     PseudoPot. # 2 for Sn read from file:
     /home/users/vossj/suncat/psp/gbrv1.5pbe/Sn.UPF
     MD5 check sum: 469debedee59599fedebd795477fea03
     Pseudo is Ultrasoft + core correction, Zval = 14.0
     Generated by new atomic code, or converted to UPF format
     Using radial grid of  891 points,  6 beta functions with:
                l(1) =   0
                l(2) =   0
                l(3) =   1
                l(4) =   1
                l(5) =   2
                l(6) =   2
     Q(r) pseudized with  8 coefficients,  rinner =    1.350   1.350   1.350
                                                       1.350   1.350

     vdW kernel table read from file vdW_kernel_table
     MD5 check sum: 095c7af220d748ca6e76c0b4c6cfb241

     atomic species   valence    mass     pseudopotential
        In1           13.00   114.82000     In( 1.00)
        Sn1           14.00   118.71000     Sn( 1.00)

     16 Sym. Ops., with inversion, found

   Cartesian axes

     site n.     atom                  positions (alat units)
         1           In1 tau(   1) = (   0.0000000   0.0000000   0.0000000  )
         2           In1 tau(   2) = (   2.3522707   2.3522707   0.0000000  )
         3           Sn1 tau(   3) = (   2.3522707   0.0000000   2.6052158  )
         4           Sn1 tau(   4) = (   0.0000000   2.3522707   2.6052158  )

     number of k points=    75  Fermi-Dirac smearing, width (Ry)=  0.0073
                       cart. coord. in units 2pi/alat
        k(    1) = (   0.0000000   0.0000000   0.0000000), wk =   0.0027435
        k(    2) = (   0.0000000   0.0000000   0.0213247), wk =   0.0054870
        k(    3) = (   0.0000000   0.0000000   0.0426495), wk =   0.0054870
        k(    4) = (   0.0000000   0.0000000   0.0639742), wk =   0.0054870
        k(    5) = (   0.0000000   0.0000000   0.0852990), wk =   0.0054870
        k(    6) = (   0.0000000   0.0236178   0.0000000), wk =   0.0109739
        k(    7) = (   0.0000000   0.0236178   0.0213247), wk =   0.0219479
        k(    8) = (   0.0000000   0.0236178   0.0426495), wk =   0.0219479
        k(    9) = (   0.0000000   0.0236178   0.0639742), wk =   0.0219479
        k(   10) = (   0.0000000   0.0236178   0.0852990), wk =   0.0219479
        k(   11) = (   0.0000000   0.0472357   0.0000000), wk =   0.0109739
        k(   12) = (   0.0000000   0.0472357   0.0213247), wk =   0.0219479
        k(   13) = (   0.0000000   0.0472357   0.0426495), wk =   0.0219479
        k(   14) = (   0.0000000   0.0472357   0.0639742), wk =   0.0219479
        k(   15) = (   0.0000000   0.0472357   0.0852990), wk =   0.0219479
        k(   16) = (   0.0000000   0.0708535   0.0000000), wk =   0.0109739
        k(   17) = (   0.0000000   0.0708535   0.0213247), wk =   0.0219479
        k(   18) = (   0.0000000   0.0708535   0.0426495), wk =   0.0219479
        k(   19) = (   0.0000000   0.0708535   0.0639742), wk =   0.0219479
        k(   20) = (   0.0000000   0.0708535   0.0852990), wk =   0.0219479
        k(   21) = (   0.0000000   0.0944714   0.0000000), wk =   0.0109739
        k(   22) = (   0.0000000   0.0944714   0.0213247), wk =   0.0219479
        k(   23) = (   0.0000000   0.0944714   0.0426495), wk =   0.0219479
        k(   24) = (   0.0000000   0.0944714   0.0639742), wk =   0.0219479
        k(   25) = (   0.0000000   0.0944714   0.0852990), wk =   0.0219479
        k(   26) = (   0.0236178   0.0236178   0.0000000), wk =   0.0109739
        k(   27) = (   0.0236178   0.0236178   0.0213247), wk =   0.0219479
        k(   28) = (   0.0236178   0.0236178   0.0426495), wk =   0.0219479
        k(   29) = (   0.0236178   0.0236178   0.0639742), wk =   0.0219479
        k(   30) = (   0.0236178   0.0236178   0.0852990), wk =   0.0219479
        k(   31) = (   0.0236178   0.0472357   0.0000000), wk =   0.0219479
        k(   32) = (   0.0236178   0.0472357   0.0213247), wk =   0.0438957
        k(   33) = (   0.0236178   0.0472357   0.0426495), wk =   0.0438957
        k(   34) = (   0.0236178   0.0472357   0.0639742), wk =   0.0438957
        k(   35) = (   0.0236178   0.0472357   0.0852990), wk =   0.0438957
        k(   36) = (   0.0236178   0.0708535   0.0000000), wk =   0.0219479
        k(   37) = (   0.0236178   0.0708535   0.0213247), wk =   0.0438957
        k(   38) = (   0.0236178   0.0708535   0.0426495), wk =   0.0438957
        k(   39) = (   0.0236178   0.0708535   0.0639742), wk =   0.0438957
        k(   40) = (   0.0236178   0.0708535   0.0852990), wk =   0.0438957
        k(   41) = (   0.0236178   0.0944714   0.0000000), wk =   0.0219479
        k(   42) = (   0.0236178   0.0944714   0.0213247), wk =   0.0438957
        k(   43) = (   0.0236178   0.0944714   0.0426495), wk =   0.0438957
        k(   44) = (   0.0236178   0.0944714   0.0639742), wk =   0.0438957
        k(   45) = (   0.0236178   0.0944714   0.0852990), wk =   0.0438957
        k(   46) = (   0.0472357   0.0472357   0.0000000), wk =   0.0109739
        k(   47) = (   0.0472357   0.0472357   0.0213247), wk =   0.0219479
        k(   48) = (   0.0472357   0.0472357   0.0426495), wk =   0.0219479
        k(   49) = (   0.0472357   0.0472357   0.0639742), wk =   0.0219479
        k(   50) = (   0.0472357   0.0472357   0.0852990), wk =   0.0219479
        k(   51) = (   0.0472357   0.0708535   0.0000000), wk =   0.0219479
        k(   52) = (   0.0472357   0.0708535   0.0213247), wk =   0.0438957
        k(   53) = (   0.0472357   0.0708535   0.0426495), wk =   0.0438957
        k(   54) = (   0.0472357   0.0708535   0.0639742), wk =   0.0438957
        k(   55) = (   0.0472357   0.0708535   0.0852990), wk =   0.0438957
        k(   56) = (   0.0472357   0.0944714   0.0000000), wk =   0.0219479
        k(   57) = (   0.0472357   0.0944714   0.0213247), wk =   0.0438957
        k(   58) = (   0.0472357   0.0944714   0.0426495), wk =   0.0438957
        k(   59) = (   0.0472357   0.0944714   0.0639742), wk =   0.0438957
        k(   60) = (   0.0472357   0.0944714   0.0852990), wk =   0.0438957
        k(   61) = (   0.0708535   0.0708535   0.0000000), wk =   0.0109739
        k(   62) = (   0.0708535   0.0708535   0.0213247), wk =   0.0219479
        k(   63) = (   0.0708535   0.0708535   0.0426495), wk =   0.0219479
        k(   64) = (   0.0708535   0.0708535   0.0639742), wk =   0.0219479
        k(   65) = (   0.0708535   0.0708535   0.0852990), wk =   0.0219479
        k(   66) = (   0.0708535   0.0944714   0.0000000), wk =   0.0219479
        k(   67) = (   0.0708535   0.0944714   0.0213247), wk =   0.0438957
        k(   68) = (   0.0708535   0.0944714   0.0426495), wk =   0.0438957
        k(   69) = (   0.0708535   0.0944714   0.0639742), wk =   0.0438957
        k(   70) = (   0.0708535   0.0944714   0.0852990), wk =   0.0438957
        k(   71) = (   0.0944714   0.0944714   0.0000000), wk =   0.0109739
        k(   72) = (   0.0944714   0.0944714   0.0213247), wk =   0.0219479
        k(   73) = (   0.0944714   0.0944714   0.0426495), wk =   0.0219479
        k(   74) = (   0.0944714   0.0944714   0.0639742), wk =   0.0219479
        k(   75) = (   0.0944714   0.0944714   0.0852990), wk =   0.0219479

     Largest allocated arrays     est. size (Mb)     dimensions
     Largest temporary arrays     est. size (Mb)     dimensions

     Initial potential from superposition of free atoms

     starting charge   48.99991, renormalised to   54.00000

     *
     * You are using vdW-DF for exchange-correlation in this calculation.
     * Please cite the following three references that made this development
     * possible:
     *
     *   M. Dion, H. Rydberg, E. Schroder, D. C. Langreth, and
     *   B. I. Lundqvist, Phys. Rev. Lett. 92, 246401 (2004).
     *
     *   T. Thonhauser, V. R. Cooper, S. Li, A. Puzder, P. Hyldgaard, and
     *   D. C. Langreth, Phys. Rev. B 76, 125112 (2007).
     *
     *   G. Roman-Perez and J. M. Soler, Phys. Rev. Lett. 103, 096102 (2009).
     *
     *
     * If you are using vdW-DF2, please also cite:
     *
     *   K. Lee, E. D. Murray, L. Kong, B. I. Lundqvist, and
     *   D. C. Langreth, Phys. Rev. B 82, 081101(R) (2010).
     *
     *
     * If you are calculating the stress with vdW-DF, please also cite:
     *
     *   R. Sabatini, E. Kucukbenli, B. Kolb, T. Thonhauser, and
     *   S. de Gironcoli, J. Phys.: Condens. Matter 24, 424209 (2012).
     *

     Carrying out vdW-DF run using the following parameters:

     Nqs =      20    Nr_points =    1024   r_max =   100.000
     q_mesh =
               0.00001000     0.04494208     0.09755937     0.15916263
               0.23128650     0.31572767     0.41458969     0.53033537
               0.66584808     0.82450364     1.01025438     1.22772762
               1.48234092     1.78043706     2.12944203     2.53805004
               3.01644009     3.57652955     4.23227104     5.00000000

     Gradients computed in reciprocal space

     Starting wfc are   36 randomized atomic wfcs +   11 random wfc

     Self-consistent Calculation

     iteration #  1     ecut=    58.80 Ry     beta=0.10
     Davidson diagonalization with overlap
     ethr =  1.00E-02,  avg # of iterations =  5.5

     total energy              =    -592.85866232 Ry
     Harris-Foulkes estimate   =    -594.21015632 Ry
     estimated scf accuracy    <       8.34432526 Ry

[...]

     total energy              =    -591.00536157 Ry
     Harris-Foulkes estimate   =    -591.00534124 Ry
     estimated scf accuracy    <       0.00000186 Ry

     iteration # 13     ecut=    58.80 Ry     beta=0.10
     Davidson diagonalization with overlap
     ethr =  3.40E-09,  avg # of iterations =  2.0

     End of self-consistent calculation

          k = 0.0000 0.0000 0.0000 (  5917 PWs)   bands (ev):

   -12.6558 -12.6024 -12.5897 -12.5754 -12.5754 -12.5285 -12.5285 -12.5179
   -12.4878 -12.4218  -5.6562  -5.5527  -5.5217  -5.4714  -5.4714  -5.3685
    -5.3685  -5.3457  -5.3161  -5.2020  -0.5787   4.9155   4.9850   6.2174
     6.9674   6.9674   7.4551  11.5033  11.7381  11.7381  13.0006  13.0006
    13.0570  15.1087  15.1305  15.6395  15.6395  16.4623  16.5316  17.8236
    17.9708  17.9708  20.5621  21.7565  21.9706  21.9706  23.0598

[...]

          k = 0.0945 0.0945 0.0853 (  5932 PWs)   bands (ev):

   -12.6143 -12.6098 -12.5824 -12.5809 -12.5339 -12.5308 -12.5255 -12.5241
   -12.4900 -12.4850  -5.5577  -5.5478  -5.5088  -5.5057  -5.4146  -5.4073
    -5.3625  -5.3590  -5.3172  -5.3085   2.5962   2.8304   4.5639   4.8741
     5.7092   5.7686   6.1354   6.6220  14.2127  14.3761  15.0967  15.1587
    15.3076  15.6731  17.4316  17.8258  18.8456  18.8709  18.9564  19.1812
    19.5712  19.6875  19.9077  20.2039  21.0053  21.0148  21.3290

     the Fermi energy is     9.4005 ev

!    total energy              =    -591.00545166 Ry
     Harris-Foulkes estimate   =    -591.00536176 Ry
     estimated scf accuracy    <       0.00000035 Ry

     The total energy is the sum of the following terms:

     one-electron contribution =    -202.76744738 Ry
     hartree contribution      =     142.48989341 Ry
     xc contribution           =    -167.22868559 Ry
     ewald contribution        =    -363.49389237 Ry
     smearing contrib. (-TS)   =      -0.00531973 Ry

     convergence has been achieved in  13 iterations

     Forces acting on atoms (Ry/au):

     atom    1 type  1   force =     0.00000000    0.00000000    0.00000000
     atom    2 type  1   force =     0.00000000    0.00000000    0.00000000
     atom    3 type  2   force =     0.00000000    0.00000000    0.00000000
     atom    4 type  2   force =     0.00000000    0.00000000    0.00000000

     Total force =     0.000000     Total SCF correction =     0.000000

     General routines

     Parallel routines

   This run was terminated on:   8:49:32  15Nov2017

   JOB DONE.