     Program PWSCF v.5.1rc2 (svn rev. ) starts on 16Nov2017 at  1:20: 4

     Current dimensions of program PWSCF are:
     Max number of different atomic species (ntypx) = 10
     Max number of k-points (npk) =  40000
     Max angular momentum in pseudopotentials (lmaxx) =  3

     IMPORTANT: XC functional enforced from input :
     Exchange-correlation      = BEEF-VDW ( 1  4 27 13 2)
     Any further DFT definition will be discarded
     Please, verify this is what you really want

     Subspace diagonalization in iterative solution of the eigenvalue problem:
     a serial algorithm will be used

     Found symmetry operation: I + ( -0.5000 -0.5000  0.0000)
     This is a supercell, fractional translations are disabled

     Generating pointlists ...
     new r_m :   0.4125 (alat units)  0.7795 (a.u.) for type    1
     new r_m :   0.4125 (alat units)  0.7795 (a.u.) for type    2

     bravais-lattice index     =            0
     lattice parameter (alat)  =       1.8897  a.u.
     unit-cell volume          =     427.3873 (a.u.)^3
     number of atoms/cell      =            4
     number of atomic types    =            2
     number of electrons       =        54.00
     number of Kohn-Sham states=           47
     kinetic-energy cutoff     =      58.7989  Ry
     charge density cutoff     =     587.9892  Ry
     convergence threshold     =      1.0E-05
     mixing beta               =       0.1000
     number of iterations used =           10  plain     mixing
     Exchange-correlation      = BEEF-VDW ( 1  4 27 13 2)

     celldm(1)=   1.889726  celldm(2)=   0.000000  celldm(3)=   0.000000
     celldm(4)=   0.000000  celldm(5)=   0.000000  celldm(6)=   0.000000

     crystal axes: (cart. coord. in units of alat)
               a(1) = (   4.498125   0.000000   0.000000 )
               a(2) = (   0.000000   4.498125   0.000000 )
               a(3) = (   0.000000   0.000000   3.130128 )

     reciprocal axes: (cart. coord. in units 2 pi/alat)
               b(1) = (  0.222315  0.000000  0.000000 )
               b(2) = (  0.000000  0.222315  0.000000 )
               b(3) = (  0.000000  0.000000  0.319476 )

     PseudoPot. # 1 for Mn read from file:
     /home/vossj/suncat/psp/gbrv1.5pbe/Mn.UPF
     MD5 check sum: 82ef2b46521d7a7d9e736dc3972e4928
     Pseudo is Ultrasoft + core correction, Zval = 15.0
     Generated by new atomic code, or converted to UPF format
     Using radial grid of  859 points,  6 beta functions with:
                l(1) =   0
                l(2) =   0
                l(3) =   1
                l(4) =   1
                l(5) =   2
                l(6) =   2
     Q(r) pseudized with  8 coefficients,  rinner =    0.950   0.950   0.950
                                                       0.950   0.950

     PseudoPot. # 2 for Hf read from file:
     /home/vossj/suncat/psp/gbrv1.5pbe/Hf.UPF
     MD5 check sum: 8ee9378dfe14276e333edf04c5e4aa26
     Pseudo is Ultrasoft + core correction, Zval = 12.0
     Generated by new atomic code, or converted to UPF format
     Using radial grid of  921 points,  8 beta functions with:
                l(1) =   0
                l(2) =   0
                l(3) =   0
                l(4) =   1
                l(5) =   1
                l(6) =   2
                l(7) =   2
                l(8) =   3
     Q(r) pseudized with  6 coefficients,  rinner =    1.200   1.200   1.200
                                                       1.200   1.200   1.200
                                                       1.200

     vdW kernel table read from file vdW_kernel_table
     MD5 check sum: 095c7af220d748ca6e76c0b4c6cfb241

     atomic species   valence    mass     pseudopotential
        Mn1           15.00    54.93804     Mn( 1.00)
        Hf1           12.00   178.49000     Hf( 1.00)

     Starting magnetic structure
     atomic species   magnetization
        Mn1          0.133
        Hf1          0.167

     16 Sym. Ops., with inversion, found

   Cartesian axes

     site n.     atom                  positions (alat units)
         1           Mn1 tau(   1) = (   0.0000000   0.0000000   0.0000000  )
         2           Mn1 tau(   2) = (   2.2490623   2.2490623   0.0000000  )
         3           Hf1 tau(   3) = (   2.2490623   0.0000000   1.5650639  )
         4           Hf1 tau(   4) = (   0.0000000   2.2490623   1.5650639  )

     number of k points=   150  Fermi-Dirac smearing, width (Ry)=  0.0073

     Number of k-points >= 100: set verbosity='high' to print them.

     Largest allocated arrays     est. size (Mb)     dimensions
     Largest temporary arrays     est. size (Mb)     dimensions

     Check: negative/imaginary core charge=   -0.000014    0.000000

     Initial potential from superposition of free atoms
     Check: negative starting charge=(component1):   -0.126213
     Check: negative starting charge=(component2):   -0.090109

     starting charge   48.99983, renormalised to   54.00000

     negative rho (up, down):  1.391E-01 9.930E-02

     *
     * You are using vdW-DF for exchange-correlation in this calculation.
     * Please cite the following three references that made this development
     * possible:
     *
     *   M. Dion, H. Rydberg, E. Schroder, D. C. Langreth, and
     *   B. I. Lundqvist, Phys. Rev. Lett. 92, 246401 (2004).
     *
     *   T. Thonhauser, V. R. Cooper, S. Li, A. Puzder, P. Hyldgaard, and
     *   D. C. Langreth, Phys. Rev. B 76, 125112 (2007).
     *
     *   G. Roman-Perez and J. M. Soler, Phys. Rev. Lett. 103, 096102 (2009).
     *
     *
     * If you are using vdW-DF2, please also cite:
     *
     *   K. Lee, E. D. Murray, L. Kong, B. I. Lundqvist, and
     *   D. C. Langreth, Phys. Rev. B 82, 081101(R) (2010).
     *
     *
     * If you are calculating the stress with vdW-DF, please also cite:
     *
     *   R. Sabatini, E. Kucukbenli, B. Kolb, T. Thonhauser, and
     *   S. de Gironcoli, J. Phys.: Condens. Matter 24, 424209 (2012).
     *

     Carrying out vdW-DF run using the following parameters:

     Nqs =      20    Nr_points =    1024   r_max =   100.000
     q_mesh =
               0.00001000     0.04494208     0.09755937     0.15916263
               0.23128650     0.31572767     0.41458969     0.53033537
               0.66584808     0.82450364     1.01025438     1.22772762
               1.48234092     1.78043706     2.12944203     2.53805004
               3.01644009     3.57652955     4.23227104     5.00000000

     Gradients computed in reciprocal space

     Starting wfc are   52 randomized atomic wfcs

     Self-consistent Calculation

     iteration #  1     ecut=    58.80 Ry     beta=0.10
     Davidson diagonalization with overlap
     ethr =  1.00E-02,  avg # of iterations =  4.2

[...]

     Magnetic moment per site:
     atom:    1    charge:    6.3138    magn:    0.7933    constr:    0.0000
     atom:    2    charge:    6.3138    magn:    0.7933    constr:    0.0000
     atom:    3    charge:    1.2217    magn:    0.1853    constr:    0.0000
     atom:    4    charge:    1.2217    magn:    0.1853    constr:    0.0000

     total energy              =    -746.79582171 Ry
     Harris-Foulkes estimate   =    -752.20626380 Ry
     estimated scf accuracy    <      32.22090809 Ry

     total magnetization       =     0.90 Bohr mag/cell
     absolute magnetization    =     0.90 Bohr mag/cell

[...]

     total energy              =    -745.55935713 Ry
     Harris-Foulkes estimate   =    -745.55947350 Ry
     estimated scf accuracy    <       0.00006054 Ry

[...]

     iteration # 50     ecut=    58.80 Ry     beta=0.10
     Davidson diagonalization with overlap
     ethr =  3.39E-08,  avg # of iterations =  2.9

     negative rho (up, down):  1.195E-01 1.181E-01

     Magnetic moment per site:
     atom:    1    charge:    5.9728    magn:    0.3891    constr:    0.0000
     atom:    2    charge:    5.9729    magn:    0.3891    constr:    0.0000
     atom:    3    charge:    1.1438    magn:   -0.0046    constr:    0.0000
     atom:    4    charge:    1.1438    magn:   -0.0046    constr:    0.0000

     End of self-consistent calculation

     Number of k-points >= 100: set verbosity='high' to print the bands.

     the Fermi energy is    16.5772 ev

!    total energy              =    -745.55960363 Ry
     Harris-Foulkes estimate   =    -745.55960194 Ry
     estimated scf accuracy    <       0.00000072 Ry

     The total energy is the sum of the following terms:

     one-electron contribution =    -233.39696231 Ry
     hartree contribution      =     144.78518282 Ry
     xc contribution           =    -210.12352945 Ry
     ewald contribution        =    -446.81292456 Ry
     smearing contrib. (-TS)   =      -0.01137013 Ry

     total magnetization       =     1.48 Bohr mag/cell
     absolute magnetization    =     2.40 Bohr mag/cell

     convergence has been achieved in  50 iterations

     Forces acting on atoms (Ry/au):

     negative rho (up, down):  1.195E-01 1.181E-01
     atom    1 type  1   force =     0.00000000    0.00000000    0.00000000
     atom    2 type  1   force =     0.00000000    0.00000000    0.00000000
     atom    3 type  2   force =     0.00000000    0.00000000    0.00000000
     atom    4 type  2   force =     0.00000000    0.00000000    0.00000000

     Total force =     0.000000     Total SCF correction =     0.000000

     General routines

     Parallel routines

   This run was terminated on:   1:25:56  16Nov2017

   JOB DONE.