     Program PWSCF v.5.1rc2 starts on 15Nov2017 at  3:20:27

     Current dimensions of program PWSCF are:
     Max number of different atomic species (ntypx) = 10
     Max number of k-points (npk) =  40000
     Max angular momentum in pseudopotentials (lmaxx) =  3

     IMPORTANT: XC functional enforced from input :
     Exchange-correlation      = BEEF-VDW ( 1  4 27 13 2)
     Any further DFT definition will be discarded
     Please, verify this is what you really want

     Found symmetry operation: I + ( -0.5000 -0.5000  0.0000)
     This is a supercell, fractional translations are disabled

     bravais-lattice index     =            0
     lattice parameter (alat)  =       1.8897  a.u.
     unit-cell volume          =     548.3785 (a.u.)^3
     number of atoms/cell      =            4
     number of atomic types    =            2
     number of electrons       =        48.00
     number of Kohn-Sham states=           44
     kinetic-energy cutoff     =      58.7989  Ry
     charge density cutoff     =     587.9892  Ry
     convergence threshold     =      1.0E-06
     mixing beta               =       0.1000
     number of iterations used =           10  plain     mixing
     Exchange-correlation      = BEEF-VDW ( 1  4 27 13 2)

     celldm(1)=   1.889726  celldm(2)=   0.000000  celldm(3)=   0.000000
     celldm(4)=   0.000000  celldm(5)=   0.000000  celldm(6)=   0.000000

     crystal axes: (cart. coord. in units of alat)
               a(1) = (   4.113595   0.000000   0.000000 )
               a(2) = (   0.000000   4.113595   0.000000 )
               a(3) = (   0.000000   0.000000   4.802204 )

     reciprocal axes: (cart. coord. in units 2 pi/alat)
               b(1) = (  0.243096  0.000000  0.000000 )
               b(2) = (  0.000000  0.243096  0.000000 )
               b(3) = (  0.000000  0.000000  0.208238 )

     PseudoPot. # 1 for Sc read from file:
     /home/users/vossj/suncat/psp/gbrv1.5pbe/Sc.UPF
     MD5 check sum: db30a2753ba66ef00f23801d899b7e7f
     Pseudo is Ultrasoft + core correction, Zval = 11.0
     Generated by new atomic code, or converted to UPF format
     Using radial grid of  849 points,  6 beta functions with:
                l(1) =   0
                l(2) =   0
                l(3) =   1
                l(4) =   1
                l(5) =   2
                l(6) =   2
     Q(r) pseudized with  6 coefficients,  rinner =    1.200   1.200   1.200
                                                       1.200   1.200

     PseudoPot. # 2 for Nb read from file:
     /home/users/vossj/suncat/psp/gbrv1.5pbe/Nb.UPF
     MD5 check sum: 573aab8a2fa660278ed4a62cd769473f
     Pseudo is Ultrasoft + core correction, Zval = 13.0
     Generated by new atomic code, or converted to UPF format
     Using radial grid of  887 points,  6 beta functions with:
                l(1) =   0
                l(2) =   0
                l(3) =   1
                l(4) =   1
                l(5) =   2
                l(6) =   2
     Q(r) pseudized with  6 coefficients,  rinner =    1.000   1.000   1.000
                                                       1.000   1.000

     vdW kernel table read from file vdW_kernel_table
     MD5 check sum: 095c7af220d748ca6e76c0b4c6cfb241

     atomic species   valence    mass     pseudopotential
        Sc1           11.00    44.95590     Sc( 1.00)
        Nb1           13.00    92.90640     Nb( 1.00)

     16 Sym. Ops., with inversion, found

   Cartesian axes

     site n.     atom                  positions (alat units)
         1           Sc1 tau(   1) = (   0.0000000   0.0000000   0.0000000  )
         2           Sc1 tau(   2) = (   2.0567977   2.0567977   0.0000000  )
         3           Nb1 tau(   3) = (   2.0567977   0.0000000   2.4011022  )
         4           Nb1 tau(   4) = (   0.0000000   2.0567977   2.4011022  )

     number of k points=    75  Fermi-Dirac smearing, width (Ry)=  0.0073
                       cart. coord. in units 2pi/alat
        k(    1) = (   0.0000000   0.0000000   0.0000000), wk =   0.0027435
        k(    2) = (   0.0000000   0.0000000   0.0231375), wk =   0.0054870
        k(    3) = (   0.0000000   0.0000000   0.0462750), wk =   0.0054870
        k(    4) = (   0.0000000   0.0000000   0.0694126), wk =   0.0054870
        k(    5) = (   0.0000000   0.0000000   0.0925501), wk =   0.0054870
        k(    6) = (   0.0000000   0.0270107   0.0000000), wk =   0.0109739
        k(    7) = (   0.0000000   0.0270107   0.0231375), wk =   0.0219479
        k(    8) = (   0.0000000   0.0270107   0.0462750), wk =   0.0219479
        k(    9) = (   0.0000000   0.0270107   0.0694126), wk =   0.0219479
        k(   10) = (   0.0000000   0.0270107   0.0925501), wk =   0.0219479
        k(   11) = (   0.0000000   0.0540214   0.0000000), wk =   0.0109739
        k(   12) = (   0.0000000   0.0540214   0.0231375), wk =   0.0219479
        k(   13) = (   0.0000000   0.0540214   0.0462750), wk =   0.0219479
        k(   14) = (   0.0000000   0.0540214   0.0694126), wk =   0.0219479
        k(   15) = (   0.0000000   0.0540214   0.0925501), wk =   0.0219479
        k(   16) = (   0.0000000   0.0810321   0.0000000), wk =   0.0109739
        k(   17) = (   0.0000000   0.0810321   0.0231375), wk =   0.0219479
        k(   18) = (   0.0000000   0.0810321   0.0462750), wk =   0.0219479
        k(   19) = (   0.0000000   0.0810321   0.0694126), wk =   0.0219479
        k(   20) = (   0.0000000   0.0810321   0.0925501), wk =   0.0219479
        k(   21) = (   0.0000000   0.1080428   0.0000000), wk =   0.0109739
        k(   22) = (   0.0000000   0.1080428   0.0231375), wk =   0.0219479
        k(   23) = (   0.0000000   0.1080428   0.0462750), wk =   0.0219479
        k(   24) = (   0.0000000   0.1080428   0.0694126), wk =   0.0219479
        k(   25) = (   0.0000000   0.1080428   0.0925501), wk =   0.0219479
        k(   26) = (   0.0270107   0.0270107   0.0000000), wk =   0.0109739
        k(   27) = (   0.0270107   0.0270107   0.0231375), wk =   0.0219479
        k(   28) = (   0.0270107   0.0270107   0.0462750), wk =   0.0219479
        k(   29) = (   0.0270107   0.0270107   0.0694126), wk =   0.0219479
        k(   30) = (   0.0270107   0.0270107   0.0925501), wk =   0.0219479
        k(   31) = (   0.0270107   0.0540214   0.0000000), wk =   0.0219479
        k(   32) = (   0.0270107   0.0540214   0.0231375), wk =   0.0438957
        k(   33) = (   0.0270107   0.0540214   0.0462750), wk =   0.0438957
        k(   34) = (   0.0270107   0.0540214   0.0694126), wk =   0.0438957
        k(   35) = (   0.0270107   0.0540214   0.0925501), wk =   0.0438957
        k(   36) = (   0.0270107   0.0810321   0.0000000), wk =   0.0219479
        k(   37) = (   0.0270107   0.0810321   0.0231375), wk =   0.0438957
        k(   38) = (   0.0270107   0.0810321   0.0462750), wk =   0.0438957
        k(   39) = (   0.0270107   0.0810321   0.0694126), wk =   0.0438957
        k(   40) = (   0.0270107   0.0810321   0.0925501), wk =   0.0438957
        k(   41) = (   0.0270107   0.1080428   0.0000000), wk =   0.0219479
        k(   42) = (   0.0270107   0.1080428   0.0231375), wk =   0.0438957
        k(   43) = (   0.0270107   0.1080428   0.0462750), wk =   0.0438957
        k(   44) = (   0.0270107   0.1080428   0.0694126), wk =   0.0438957
        k(   45) = (   0.0270107   0.1080428   0.0925501), wk =   0.0438957
        k(   46) = (   0.0540214   0.0540214   0.0000000), wk =   0.0109739
        k(   47) = (   0.0540214   0.0540214   0.0231375), wk =   0.0219479
        k(   48) = (   0.0540214   0.0540214   0.0462750), wk =   0.0219479
        k(   49) = (   0.0540214   0.0540214   0.0694126), wk =   0.0219479
        k(   50) = (   0.0540214   0.0540214   0.0925501), wk =   0.0219479
        k(   51) = (   0.0540214   0.0810321   0.0000000), wk =   0.0219479
        k(   52) = (   0.0540214   0.0810321   0.0231375), wk =   0.0438957
        k(   53) = (   0.0540214   0.0810321   0.0462750), wk =   0.0438957
        k(   54) = (   0.0540214   0.0810321   0.0694126), wk =   0.0438957
        k(   55) = (   0.0540214   0.0810321   0.0925501), wk =   0.0438957
        k(   56) = (   0.0540214   0.1080428   0.0000000), wk =   0.0219479
        k(   57) = (   0.0540214   0.1080428   0.0231375), wk =   0.0438957
        k(   58) = (   0.0540214   0.1080428   0.0462750), wk =   0.0438957
        k(   59) = (   0.0540214   0.1080428   0.0694126), wk =   0.0438957
        k(   60) = (   0.0540214   0.1080428   0.0925501), wk =   0.0438957
        k(   61) = (   0.0810321   0.0810321   0.0000000), wk =   0.0109739
        k(   62) = (   0.0810321   0.0810321   0.0231375), wk =   0.0219479
        k(   63) = (   0.0810321   0.0810321   0.0462750), wk =   0.0219479
        k(   64) = (   0.0810321   0.0810321   0.0694126), wk =   0.0219479
        k(   65) = (   0.0810321   0.0810321   0.0925501), wk =   0.0219479
        k(   66) = (   0.0810321   0.1080428   0.0000000), wk =   0.0219479
        k(   67) = (   0.0810321   0.1080428   0.0231375), wk =   0.0438957
        k(   68) = (   0.0810321   0.1080428   0.0462750), wk =   0.0438957
        k(   69) = (   0.0810321   0.1080428   0.0694126), wk =   0.0438957
        k(   70) = (   0.0810321   0.1080428   0.0925501), wk =   0.0438957
        k(   71) = (   0.1080428   0.1080428   0.0000000), wk =   0.0109739
        k(   72) = (   0.1080428   0.1080428   0.0231375), wk =   0.0219479
        k(   73) = (   0.1080428   0.1080428   0.0462750), wk =   0.0219479
        k(   74) = (   0.1080428   0.1080428   0.0694126), wk =   0.0219479
        k(   75) = (   0.1080428   0.1080428   0.0925501), wk =   0.0219479

     Largest allocated arrays     est. size (Mb)     dimensions
     Largest temporary arrays     est. size (Mb)     dimensions

     Initial potential from superposition of free atoms

     starting charge   47.98973, renormalised to   48.00000

     *
     * You are using vdW-DF for exchange-correlation in this calculation.
     * Please cite the following three references that made this development
     * possible:
     *
     *   M. Dion, H. Rydberg, E. Schroder, D. C. Langreth, and
     *   B. I. Lundqvist, Phys. Rev. Lett. 92, 246401 (2004).
     *
     *   T. Thonhauser, V. R. Cooper, S. Li, A. Puzder, P. Hyldgaard, and
     *   D. C. Langreth, Phys. Rev. B 76, 125112 (2007).
     *
     *   G. Roman-Perez and J. M. Soler, Phys. Rev. Lett. 103, 096102 (2009).
     *
     *
     * If you are using vdW-DF2, please also cite:
     *
     *   K. Lee, E. D. Murray, L. Kong, B. I. Lundqvist, and
     *   D. C. Langreth, Phys. Rev. B 82, 081101(R) (2010).
     *
     *
     * If you are calculating the stress with vdW-DF, please also cite:
     *
     *   R. Sabatini, E. Kucukbenli, B. Kolb, T. Thonhauser, and
     *   S. de Gironcoli, J. Phys.: Condens. Matter 24, 424209 (2012).
     *

     Carrying out vdW-DF run using the following parameters:

     Nqs =      20    Nr_points =    1024   r_max =   100.000
     q_mesh =
               0.00001000     0.04494208     0.09755937     0.15916263
               0.23128650     0.31572767     0.41458969     0.53033537
               0.66584808     0.82450364     1.01025438     1.22772762
               1.48234092     1.78043706     2.12944203     2.53805004
               3.01644009     3.57652955     4.23227104     5.00000000

     Gradients computed in reciprocal space

     Starting wfc are   52 randomized atomic wfcs

     Self-consistent Calculation

     iteration #  1     ecut=    58.80 Ry     beta=0.10
     Davidson diagonalization with overlap
     ethr =  1.00E-02,  avg # of iterations =  4.1

     total energy              =    -426.70013620 Ry
     Harris-Foulkes estimate   =    -426.89816446 Ry
     estimated scf accuracy    <       1.16651135 Ry

[...]

     total energy              =    -426.78122527 Ry
     Harris-Foulkes estimate   =    -426.78122243 Ry
     estimated scf accuracy    <       0.00000313 Ry

     iteration # 10     ecut=    58.80 Ry     beta=0.10
     Davidson diagonalization with overlap
     ethr =  6.52E-09,  avg # of iterations =  2.0

     End of self-consistent calculation

          k = 0.0000 0.0000 0.0000 (  4179 PWs)   bands (ev):

   -41.3677 -41.2012 -35.9436 -35.7950 -17.6522 -17.6522 -17.4020 -17.1918
   -16.9845 -16.9845 -14.7824 -14.7824 -14.4111 -14.3102 -14.2828 -14.2828
     7.8791  10.2914  10.6233  11.1049  11.3805  11.5567  11.5567  13.9171
    14.9531  15.0576  15.0576  15.4853  17.2975  17.4388  17.4388  17.4728
    17.5010  17.5010  17.7527  18.0058  18.1661  18.1661  18.6919  19.1500
    22.6919  22.9977  23.4419  24.5361

[...]

          k = 0.1080 0.1080 0.0926 (  4182 PWs)   bands (ev):

   -41.2855 -41.2804 -35.8704 -35.8659 -17.7590 -17.7402 -17.3030 -17.2978
   -16.9369 -16.9158 -14.8495 -14.8350 -14.3654 -14.3611 -14.2495 -14.2336
    10.6110  10.6480  10.8988  10.9942  13.0513  13.1348  14.0893  14.1510
    14.1952  14.3729  14.4384  14.5207  14.8939  15.1507  15.1605  15.2705
    17.4894  17.6308  17.6653  17.7699  17.9596  18.1062  18.1649  18.1864
    22.5725  22.5924  22.6273  22.8692

     the Fermi energy is    13.4417 ev

!    total energy              =    -426.78123853 Ry
     Harris-Foulkes estimate   =    -426.78122617 Ry
     estimated scf accuracy    <       0.00000066 Ry

     The total energy is the sum of the following terms:

     one-electron contribution =    -110.31321518 Ry
     hartree contribution      =      72.90089118 Ry
     xc contribution           =     -66.04487809 Ry
     ewald contribution        =    -323.31119073 Ry
     smearing contrib. (-TS)   =      -0.01284571 Ry

     convergence has been achieved in  10 iterations

     Forces acting on atoms (Ry/au):

     atom    1 type  1   force =     0.00000000    0.00000000    0.00000000
     atom    2 type  1   force =     0.00000000    0.00000000    0.00000000
     atom    3 type  2   force =     0.00000000    0.00000000    0.00000000
     atom    4 type  2   force =     0.00000000    0.00000000    0.00000000

     Total force =     0.000000     Total SCF correction =     0.000000

     General routines

     Parallel routines

   This run was terminated on:   3:21: 0  15Nov2017

   JOB DONE.