     Program PWSCF v.5.1rc2 starts on 15Nov2017 at  6:44:41

     Current dimensions of program PWSCF are:
     Max number of different atomic species (ntypx) = 10
     Max number of k-points (npk) =  40000
     Max angular momentum in pseudopotentials (lmaxx) =  3

     IMPORTANT: XC functional enforced from input :
     Exchange-correlation      = BEEF-VDW ( 1  4 27 13 2)
     Any further DFT definition will be discarded
     Please, verify this is what you really want

     Found symmetry operation: I + ( -0.5000 -0.5000  0.0000)
     This is a supercell, fractional translations are disabled

     bravais-lattice index     =            0
     lattice parameter (alat)  =       1.8897  a.u.
     unit-cell volume          =     402.0562 (a.u.)^3
     number of atoms/cell      =            4
     number of atomic types    =            2
     number of electrons       =        56.00
     number of Kohn-Sham states=           48
     kinetic-energy cutoff     =      58.7989  Ry
     charge density cutoff     =     587.9892  Ry
     convergence threshold     =      1.0E-06
     mixing beta               =       0.1000
     number of iterations used =           10  plain     mixing
     Exchange-correlation      = BEEF-VDW ( 1  4 27 13 2)

     celldm(1)=   1.889726  celldm(2)=   0.000000  celldm(3)=   0.000000
     celldm(4)=   0.000000  celldm(5)=   0.000000  celldm(6)=   0.000000

     crystal axes: (cart. coord. in units of alat)
               a(1) = (   4.387799   0.000000   0.000000 )
               a(2) = (   0.000000   4.387799   0.000000 )
               a(3) = (   0.000000   0.000000   3.094545 )

     reciprocal axes: (cart. coord. in units 2 pi/alat)
               b(1) = (  0.227905  0.000000  0.000000 )
               b(2) = (  0.000000  0.227905  0.000000 )
               b(3) = (  0.000000  0.000000  0.323149 )

     PseudoPot. # 1 for Ti read from file:
     /home/users/vossj/suncat/psp/gbrv1.5pbe/Ti.UPF
     MD5 check sum: 88a00a6731bd790ddea75d31a80cb452
     Pseudo is Ultrasoft + core correction, Zval = 12.0
     Generated by new atomic code, or converted to UPF format
     Using radial grid of  851 points,  6 beta functions with:
                l(1) =   0
                l(2) =   0
                l(3) =   1
                l(4) =   1
                l(5) =   2
                l(6) =   2
     Q(r) pseudized with  6 coefficients,  rinner =    1.000   1.000   1.000
                                                       1.000   1.000

     PseudoPot. # 2 for Os read from file:
     /home/users/vossj/suncat/psp/gbrv1.5pbe/Os.UPF
     MD5 check sum: a3fb40a04f0c37c25c34bbc47164c9a8
     Pseudo is Ultrasoft + core correction, Zval = 16.0
     Generated by new atomic code, or converted to UPF format
     Using radial grid of  983 points,  8 beta functions with:
                l(1) =   0
                l(2) =   0
                l(3) =   1
                l(4) =   1
                l(5) =   2
                l(6) =   2
                l(7) =   3
                l(8) =   3
     Q(r) pseudized with  8 coefficients,  rinner =    1.150   1.150   1.150
                                                       1.150   1.150   1.150
                                                       1.150

     vdW kernel table read from file vdW_kernel_table
     MD5 check sum: 095c7af220d748ca6e76c0b4c6cfb241

     atomic species   valence    mass     pseudopotential
        Ti1           12.00    47.88000     Ti( 1.00)
        Os1           16.00   190.20000     Os( 1.00)

     16 Sym. Ops., with inversion, found

   Cartesian axes

     site n.     atom                  positions (alat units)
         1           Ti1 tau(   1) = (   0.0000000   0.0000000   0.0000000  )
         2           Ti1 tau(   2) = (   2.1938995   2.1938995   0.0000000  )
         3           Os1 tau(   3) = (   2.1938995   0.0000000   1.5472724  )
         4           Os1 tau(   4) = (   0.0000000   2.1938995   1.5472724  )

     number of k points=    75  Fermi-Dirac smearing, width (Ry)=  0.0073
                       cart. coord. in units 2pi/alat
        k(    1) = (   0.0000000   0.0000000   0.0000000), wk =   0.0027435
        k(    2) = (   0.0000000   0.0000000   0.0359055), wk =   0.0054870
        k(    3) = (   0.0000000   0.0000000   0.0718110), wk =   0.0054870
        k(    4) = (   0.0000000   0.0000000   0.1077164), wk =   0.0054870
        k(    5) = (   0.0000000   0.0000000   0.1436219), wk =   0.0054870
        k(    6) = (   0.0000000   0.0253227   0.0000000), wk =   0.0109739
        k(    7) = (   0.0000000   0.0253227   0.0359055), wk =   0.0219479
        k(    8) = (   0.0000000   0.0253227   0.0718110), wk =   0.0219479
        k(    9) = (   0.0000000   0.0253227   0.1077164), wk =   0.0219479
        k(   10) = (   0.0000000   0.0253227   0.1436219), wk =   0.0219479
        k(   11) = (   0.0000000   0.0506455   0.0000000), wk =   0.0109739
        k(   12) = (   0.0000000   0.0506455   0.0359055), wk =   0.0219479
        k(   13) = (   0.0000000   0.0506455   0.0718110), wk =   0.0219479
        k(   14) = (   0.0000000   0.0506455   0.1077164), wk =   0.0219479
        k(   15) = (   0.0000000   0.0506455   0.1436219), wk =   0.0219479
        k(   16) = (   0.0000000   0.0759682   0.0000000), wk =   0.0109739
        k(   17) = (   0.0000000   0.0759682   0.0359055), wk =   0.0219479
        k(   18) = (   0.0000000   0.0759682   0.0718110), wk =   0.0219479
        k(   19) = (   0.0000000   0.0759682   0.1077164), wk =   0.0219479
        k(   20) = (   0.0000000   0.0759682   0.1436219), wk =   0.0219479
        k(   21) = (   0.0000000   0.1012910   0.0000000), wk =   0.0109739
        k(   22) = (   0.0000000   0.1012910   0.0359055), wk =   0.0219479
        k(   23) = (   0.0000000   0.1012910   0.0718110), wk =   0.0219479
        k(   24) = (   0.0000000   0.1012910   0.1077164), wk =   0.0219479
        k(   25) = (   0.0000000   0.1012910   0.1436219), wk =   0.0219479
        k(   26) = (   0.0253227   0.0253227   0.0000000), wk =   0.0109739
        k(   27) = (   0.0253227   0.0253227   0.0359055), wk =   0.0219479
        k(   28) = (   0.0253227   0.0253227   0.0718110), wk =   0.0219479
        k(   29) = (   0.0253227   0.0253227   0.1077164), wk =   0.0219479
        k(   30) = (   0.0253227   0.0253227   0.1436219), wk =   0.0219479
        k(   31) = (   0.0253227   0.0506455   0.0000000), wk =   0.0219479
        k(   32) = (   0.0253227   0.0506455   0.0359055), wk =   0.0438957
        k(   33) = (   0.0253227   0.0506455   0.0718110), wk =   0.0438957
        k(   34) = (   0.0253227   0.0506455   0.1077164), wk =   0.0438957
        k(   35) = (   0.0253227   0.0506455   0.1436219), wk =   0.0438957
        k(   36) = (   0.0253227   0.0759682   0.0000000), wk =   0.0219479
        k(   37) = (   0.0253227   0.0759682   0.0359055), wk =   0.0438957
        k(   38) = (   0.0253227   0.0759682   0.0718110), wk =   0.0438957
        k(   39) = (   0.0253227   0.0759682   0.1077164), wk =   0.0438957
        k(   40) = (   0.0253227   0.0759682   0.1436219), wk =   0.0438957
        k(   41) = (   0.0253227   0.1012910   0.0000000), wk =   0.0219479
        k(   42) = (   0.0253227   0.1012910   0.0359055), wk =   0.0438957
        k(   43) = (   0.0253227   0.1012910   0.0718110), wk =   0.0438957
        k(   44) = (   0.0253227   0.1012910   0.1077164), wk =   0.0438957
        k(   45) = (   0.0253227   0.1012910   0.1436219), wk =   0.0438957
        k(   46) = (   0.0506455   0.0506455   0.0000000), wk =   0.0109739
        k(   47) = (   0.0506455   0.0506455   0.0359055), wk =   0.0219479
        k(   48) = (   0.0506455   0.0506455   0.0718110), wk =   0.0219479
        k(   49) = (   0.0506455   0.0506455   0.1077164), wk =   0.0219479
        k(   50) = (   0.0506455   0.0506455   0.1436219), wk =   0.0219479
        k(   51) = (   0.0506455   0.0759682   0.0000000), wk =   0.0219479
        k(   52) = (   0.0506455   0.0759682   0.0359055), wk =   0.0438957
        k(   53) = (   0.0506455   0.0759682   0.0718110), wk =   0.0438957
        k(   54) = (   0.0506455   0.0759682   0.1077164), wk =   0.0438957
        k(   55) = (   0.0506455   0.0759682   0.1436219), wk =   0.0438957
        k(   56) = (   0.0506455   0.1012910   0.0000000), wk =   0.0219479
        k(   57) = (   0.0506455   0.1012910   0.0359055), wk =   0.0438957
        k(   58) = (   0.0506455   0.1012910   0.0718110), wk =   0.0438957
        k(   59) = (   0.0506455   0.1012910   0.1077164), wk =   0.0438957
        k(   60) = (   0.0506455   0.1012910   0.1436219), wk =   0.0438957
        k(   61) = (   0.0759682   0.0759682   0.0000000), wk =   0.0109739
        k(   62) = (   0.0759682   0.0759682   0.0359055), wk =   0.0219479
        k(   63) = (   0.0759682   0.0759682   0.0718110), wk =   0.0219479
        k(   64) = (   0.0759682   0.0759682   0.1077164), wk =   0.0219479
        k(   65) = (   0.0759682   0.0759682   0.1436219), wk =   0.0219479
        k(   66) = (   0.0759682   0.1012910   0.0000000), wk =   0.0219479
        k(   67) = (   0.0759682   0.1012910   0.0359055), wk =   0.0438957
        k(   68) = (   0.0759682   0.1012910   0.0718110), wk =   0.0438957
        k(   69) = (   0.0759682   0.1012910   0.1077164), wk =   0.0438957
        k(   70) = (   0.0759682   0.1012910   0.1436219), wk =   0.0438957
        k(   71) = (   0.1012910   0.1012910   0.0000000), wk =   0.0109739
        k(   72) = (   0.1012910   0.1012910   0.0359055), wk =   0.0219479
        k(   73) = (   0.1012910   0.1012910   0.0718110), wk =   0.0219479
        k(   74) = (   0.1012910   0.1012910   0.1077164), wk =   0.0219479
        k(   75) = (   0.1012910   0.1012910   0.1436219), wk =   0.0219479

     Largest allocated arrays     est. size (Mb)     dimensions
     Largest temporary arrays     est. size (Mb)     dimensions

     Check: negative/imaginary core charge=   -0.000001    0.000000

     Initial potential from superposition of free atoms
     Check: negative starting charge=   -0.251128

     starting charge   52.99984, renormalised to   56.00000

     negative rho (up, down):  2.653E-01 0.000E+00

     *
     * You are using vdW-DF for exchange-correlation in this calculation.
     * Please cite the following three references that made this development
     * possible:
     *
     *   M. Dion, H. Rydberg, E. Schroder, D. C. Langreth, and
     *   B. I. Lundqvist, Phys. Rev. Lett. 92, 246401 (2004).
     *
     *   T. Thonhauser, V. R. Cooper, S. Li, A. Puzder, P. Hyldgaard, and
     *   D. C. Langreth, Phys. Rev. B 76, 125112 (2007).
     *
     *   G. Roman-Perez and J. M. Soler, Phys. Rev. Lett. 103, 096102 (2009).
     *
     *
     * If you are using vdW-DF2, please also cite:
     *
     *   K. Lee, E. D. Murray, L. Kong, B. I. Lundqvist, and
     *   D. C. Langreth, Phys. Rev. B 82, 081101(R) (2010).
     *
     *
     * If you are calculating the stress with vdW-DF, please also cite:
     *
     *   R. Sabatini, E. Kucukbenli, B. Kolb, T. Thonhauser, and
     *   S. de Gironcoli, J. Phys.: Condens. Matter 24, 424209 (2012).
     *

     Carrying out vdW-DF run using the following parameters:

     Nqs =      20    Nr_points =    1024   r_max =   100.000
     q_mesh =
               0.00001000     0.04494208     0.09755937     0.15916263
               0.23128650     0.31572767     0.41458969     0.53033537
               0.66584808     0.82450364     1.01025438     1.22772762
               1.48234092     1.78043706     2.12944203     2.53805004
               3.01644009     3.57652955     4.23227104     5.00000000

     Gradients computed in reciprocal space

     Starting wfc are   46 randomized atomic wfcs +    2 random wfc

     Self-consistent Calculation

     iteration #  1     ecut=    58.80 Ry     beta=0.10
     Davidson diagonalization with overlap
     ethr =  1.00E-02,  avg # of iterations =  3.9

[...]

     total energy              =    -639.80094650 Ry
     Harris-Foulkes estimate   =    -640.49836446 Ry
     estimated scf accuracy    <       4.13065636 Ry

[...]

     total energy              =    -639.71446041 Ry
     Harris-Foulkes estimate   =    -639.71445982 Ry
     estimated scf accuracy    <       0.00000285 Ry

     iteration # 11     ecut=    58.80 Ry     beta=0.10
     Davidson diagonalization with overlap
     ethr =  5.09E-09,  avg # of iterations =  1.1

     negative rho (up, down):  2.488E-01 0.000E+00

     End of self-consistent calculation

          k = 0.0000 0.0000 0.0000 (  3059 PWs)   bands (ev):

   -66.6043 -66.5948 -37.4734 -37.4365 -25.9623 -25.9623 -25.8346 -25.8346
   -25.8284 -25.8008 -13.7418 -13.7418 -13.5793 -13.5793 -13.5764 -13.5544
    11.4482  14.4113  14.6131  14.6992  14.7055  16.7157  16.7157  18.4408
    18.4676  18.4676  20.6544  20.6544  20.8380  20.9471  21.5446  21.5730
    21.8013  22.5543  23.2349  23.2349  23.2407  23.7563  23.7563  27.7218
    28.6031  28.6031  28.6817  31.3827  33.1738  33.1738  36.8620  36.8620

[...]

          k = 0.1013 0.1013 0.1436 (  3070 PWs)   bands (ev):

   -66.5949 -66.5947 -37.4372 -37.4360 -25.9611 -25.9576 -25.9554 -25.9551
   -25.8109 -25.8072 -13.7436 -13.7415 -13.7392 -13.7373 -13.5637 -13.5582
    14.4392  14.5117  14.6937  14.6984  16.7006  16.7135  16.7318  16.7981
    19.7527  19.9105  20.0516  20.3660  20.8703  21.0375  21.4432  21.6137
    21.7351  21.7978  22.6450  22.8596  23.5512  23.7434  23.9058  23.9109
    27.8704  28.0217  31.4504  31.5737  33.2481  33.3166  33.3282  33.4328

     the Fermi energy is    19.7757 ev

!    total energy              =    -639.71446448 Ry
     Harris-Foulkes estimate   =    -639.71446072 Ry
     estimated scf accuracy    <       0.00000093 Ry

     The total energy is the sum of the following terms:

     one-electron contribution =    -125.72034675 Ry
     hartree contribution      =      93.79252113 Ry
     xc contribution           =    -115.17506252 Ry
     ewald contribution        =    -492.60924085 Ry
     smearing contrib. (-TS)   =      -0.00233549 Ry

     convergence has been achieved in  11 iterations

     Forces acting on atoms (Ry/au):

     negative rho (up, down):  2.488E-01 0.000E+00
     atom    1 type  1   force =     0.00000000    0.00000000    0.00000000
     atom    2 type  1   force =     0.00000000    0.00000000    0.00000000
     atom    3 type  2   force =     0.00000000    0.00000000    0.00000000
     atom    4 type  2   force =     0.00000000    0.00000000    0.00000000

     Total force =     0.000000     Total SCF correction =     0.000000

     General routines

     Parallel routines

   This run was terminated on:   6:45:17  15Nov2017

   JOB DONE.