     Program PWSCF v.5.1rc2 starts on 15Nov2017 at  5:45:58

     Current dimensions of program PWSCF are:
     Max number of different atomic species (ntypx) = 10
     Max number of k-points (npk) =  40000
     Max angular momentum in pseudopotentials (lmaxx) =  3

     IMPORTANT: XC functional enforced from input :
     Exchange-correlation      = BEEF-VDW ( 1  4 27 13 2)
     Any further DFT definition will be discarded
     Please, verify this is what you really want

     Found symmetry operation: I + ( -0.5000 -0.5000  0.0000)
     This is a supercell, fractional translations are disabled

     bravais-lattice index     =            0
     lattice parameter (alat)  =       1.8897  a.u.
     unit-cell volume          =     533.3721 (a.u.)^3
     number of atoms/cell      =            4
     number of atomic types    =            2
     number of electrons       =        60.00
     number of Kohn-Sham states=           50
     kinetic-energy cutoff     =      58.7989  Ry
     charge density cutoff     =     587.9892  Ry
     convergence threshold     =      1.0E-06
     mixing beta               =       0.1000
     number of iterations used =           10  plain     mixing
     Exchange-correlation      = BEEF-VDW ( 1  4 27 13 2)

     celldm(1)=   1.889726  celldm(2)=   0.000000  celldm(3)=   0.000000
     celldm(4)=   0.000000  celldm(5)=   0.000000  celldm(6)=   0.000000

     crystal axes: (cart. coord. in units of alat)
               a(1) = (   4.801681   0.000000   0.000000 )
               a(2) = (   0.000000   4.801681   0.000000 )
               a(3) = (   0.000000   0.000000   3.428049 )

     reciprocal axes: (cart. coord. in units 2 pi/alat)
               b(1) = (  0.208260  0.000000  0.000000 )
               b(2) = (  0.000000  0.208260  0.000000 )
               b(3) = (  0.000000  0.000000  0.291711 )

     PseudoPot. # 1 for Sn read from file:
     /home/users/vossj/suncat/psp/gbrv1.5pbe/Sn.UPF
     MD5 check sum: 469debedee59599fedebd795477fea03
     Pseudo is Ultrasoft + core correction, Zval = 14.0
     Generated by new atomic code, or converted to UPF format
     Using radial grid of  891 points,  6 beta functions with:
                l(1) =   0
                l(2) =   0
                l(3) =   1
                l(4) =   1
                l(5) =   2
                l(6) =   2
     Q(r) pseudized with  8 coefficients,  rinner =    1.350   1.350   1.350
                                                       1.350   1.350

     PseudoPot. # 2 for Pt read from file:
     /home/users/vossj/suncat/psp/gbrv1.5pbe/Pt.UPF
     MD5 check sum: f09d6de1a584b5a045c4fc126da2d0c4
     Pseudo is Ultrasoft + core correction, Zval = 16.0
     Generated by new atomic code, or converted to UPF format
     Using radial grid of  985 points,  6 beta functions with:
                l(1) =   0
                l(2) =   0
                l(3) =   1
                l(4) =   1
                l(5) =   2
                l(6) =   2
     Q(r) pseudized with  8 coefficients,  rinner =    1.300   1.300   1.300
                                                       1.300   1.300

     vdW kernel table read from file vdW_kernel_table
     MD5 check sum: 095c7af220d748ca6e76c0b4c6cfb241

     atomic species   valence    mass     pseudopotential
        Sn1           14.00   118.71000     Sn( 1.00)
        Pt1           16.00   195.08000     Pt( 1.00)

     16 Sym. Ops., with inversion, found

   Cartesian axes

     site n.     atom                  positions (alat units)
         1           Sn1 tau(   1) = (   0.0000000   0.0000000   0.0000000  )
         2           Sn1 tau(   2) = (   2.4008406   2.4008406   0.0000000  )
         3           Pt1 tau(   3) = (   2.4008406   0.0000000   1.7140247  )
         4           Pt1 tau(   4) = (   0.0000000   2.4008406   1.7140247  )

     number of k points=    75  Fermi-Dirac smearing, width (Ry)=  0.0073
                       cart. coord. in units 2pi/alat
        k(    1) = (   0.0000000   0.0000000   0.0000000), wk =   0.0027435
        k(    2) = (   0.0000000   0.0000000   0.0324123), wk =   0.0054870
        k(    3) = (   0.0000000   0.0000000   0.0648247), wk =   0.0054870
        k(    4) = (   0.0000000   0.0000000   0.0972370), wk =   0.0054870
        k(    5) = (   0.0000000   0.0000000   0.1296494), wk =   0.0054870
        k(    6) = (   0.0000000   0.0231400   0.0000000), wk =   0.0109739
        k(    7) = (   0.0000000   0.0231400   0.0324123), wk =   0.0219479
        k(    8) = (   0.0000000   0.0231400   0.0648247), wk =   0.0219479
        k(    9) = (   0.0000000   0.0231400   0.0972370), wk =   0.0219479
        k(   10) = (   0.0000000   0.0231400   0.1296494), wk =   0.0219479
        k(   11) = (   0.0000000   0.0462801   0.0000000), wk =   0.0109739
        k(   12) = (   0.0000000   0.0462801   0.0324123), wk =   0.0219479
        k(   13) = (   0.0000000   0.0462801   0.0648247), wk =   0.0219479
        k(   14) = (   0.0000000   0.0462801   0.0972370), wk =   0.0219479
        k(   15) = (   0.0000000   0.0462801   0.1296494), wk =   0.0219479
        k(   16) = (   0.0000000   0.0694201   0.0000000), wk =   0.0109739
        k(   17) = (   0.0000000   0.0694201   0.0324123), wk =   0.0219479
        k(   18) = (   0.0000000   0.0694201   0.0648247), wk =   0.0219479
        k(   19) = (   0.0000000   0.0694201   0.0972370), wk =   0.0219479
        k(   20) = (   0.0000000   0.0694201   0.1296494), wk =   0.0219479
        k(   21) = (   0.0000000   0.0925602   0.0000000), wk =   0.0109739
        k(   22) = (   0.0000000   0.0925602   0.0324123), wk =   0.0219479
        k(   23) = (   0.0000000   0.0925602   0.0648247), wk =   0.0219479
        k(   24) = (   0.0000000   0.0925602   0.0972370), wk =   0.0219479
        k(   25) = (   0.0000000   0.0925602   0.1296494), wk =   0.0219479
        k(   26) = (   0.0231400   0.0231400   0.0000000), wk =   0.0109739
        k(   27) = (   0.0231400   0.0231400   0.0324123), wk =   0.0219479
        k(   28) = (   0.0231400   0.0231400   0.0648247), wk =   0.0219479
        k(   29) = (   0.0231400   0.0231400   0.0972370), wk =   0.0219479
        k(   30) = (   0.0231400   0.0231400   0.1296494), wk =   0.0219479
        k(   31) = (   0.0231400   0.0462801   0.0000000), wk =   0.0219479
        k(   32) = (   0.0231400   0.0462801   0.0324123), wk =   0.0438957
        k(   33) = (   0.0231400   0.0462801   0.0648247), wk =   0.0438957
        k(   34) = (   0.0231400   0.0462801   0.0972370), wk =   0.0438957
        k(   35) = (   0.0231400   0.0462801   0.1296494), wk =   0.0438957
        k(   36) = (   0.0231400   0.0694201   0.0000000), wk =   0.0219479
        k(   37) = (   0.0231400   0.0694201   0.0324123), wk =   0.0438957
        k(   38) = (   0.0231400   0.0694201   0.0648247), wk =   0.0438957
        k(   39) = (   0.0231400   0.0694201   0.0972370), wk =   0.0438957
        k(   40) = (   0.0231400   0.0694201   0.1296494), wk =   0.0438957
        k(   41) = (   0.0231400   0.0925602   0.0000000), wk =   0.0219479
        k(   42) = (   0.0231400   0.0925602   0.0324123), wk =   0.0438957
        k(   43) = (   0.0231400   0.0925602   0.0648247), wk =   0.0438957
        k(   44) = (   0.0231400   0.0925602   0.0972370), wk =   0.0438957
        k(   45) = (   0.0231400   0.0925602   0.1296494), wk =   0.0438957
        k(   46) = (   0.0462801   0.0462801   0.0000000), wk =   0.0109739
        k(   47) = (   0.0462801   0.0462801   0.0324123), wk =   0.0219479
        k(   48) = (   0.0462801   0.0462801   0.0648247), wk =   0.0219479
        k(   49) = (   0.0462801   0.0462801   0.0972370), wk =   0.0219479
        k(   50) = (   0.0462801   0.0462801   0.1296494), wk =   0.0219479
        k(   51) = (   0.0462801   0.0694201   0.0000000), wk =   0.0219479
        k(   52) = (   0.0462801   0.0694201   0.0324123), wk =   0.0438957
        k(   53) = (   0.0462801   0.0694201   0.0648247), wk =   0.0438957
        k(   54) = (   0.0462801   0.0694201   0.0972370), wk =   0.0438957
        k(   55) = (   0.0462801   0.0694201   0.1296494), wk =   0.0438957
        k(   56) = (   0.0462801   0.0925602   0.0000000), wk =   0.0219479
        k(   57) = (   0.0462801   0.0925602   0.0324123), wk =   0.0438957
        k(   58) = (   0.0462801   0.0925602   0.0648247), wk =   0.0438957
        k(   59) = (   0.0462801   0.0925602   0.0972370), wk =   0.0438957
        k(   60) = (   0.0462801   0.0925602   0.1296494), wk =   0.0438957
        k(   61) = (   0.0694201   0.0694201   0.0000000), wk =   0.0109739
        k(   62) = (   0.0694201   0.0694201   0.0324123), wk =   0.0219479
        k(   63) = (   0.0694201   0.0694201   0.0648247), wk =   0.0219479
        k(   64) = (   0.0694201   0.0694201   0.0972370), wk =   0.0219479
        k(   65) = (   0.0694201   0.0694201   0.1296494), wk =   0.0219479
        k(   66) = (   0.0694201   0.0925602   0.0000000), wk =   0.0219479
        k(   67) = (   0.0694201   0.0925602   0.0324123), wk =   0.0438957
        k(   68) = (   0.0694201   0.0925602   0.0648247), wk =   0.0438957
        k(   69) = (   0.0694201   0.0925602   0.0972370), wk =   0.0438957
        k(   70) = (   0.0694201   0.0925602   0.1296494), wk =   0.0438957
        k(   71) = (   0.0925602   0.0925602   0.0000000), wk =   0.0109739
        k(   72) = (   0.0925602   0.0925602   0.0324123), wk =   0.0219479
        k(   73) = (   0.0925602   0.0925602   0.0648247), wk =   0.0219479
        k(   74) = (   0.0925602   0.0925602   0.0972370), wk =   0.0219479
        k(   75) = (   0.0925602   0.0925602   0.1296494), wk =   0.0219479

     Largest allocated arrays     est. size (Mb)     dimensions
     Largest temporary arrays     est. size (Mb)     dimensions

     Initial potential from superposition of free atoms
     Check: negative starting charge=   -0.369322

     starting charge   56.99989, renormalised to   60.00000

     negative rho (up, down):  3.888E-01 0.000E+00

     *
     * You are using vdW-DF for exchange-correlation in this calculation.
     * Please cite the following three references that made this development
     * possible:
     *
     *   M. Dion, H. Rydberg, E. Schroder, D. C. Langreth, and
     *   B. I. Lundqvist, Phys. Rev. Lett. 92, 246401 (2004).
     *
     *   T. Thonhauser, V. R. Cooper, S. Li, A. Puzder, P. Hyldgaard, and
     *   D. C. Langreth, Phys. Rev. B 76, 125112 (2007).
     *
     *   G. Roman-Perez and J. M. Soler, Phys. Rev. Lett. 103, 096102 (2009).
     *
     *
     * If you are using vdW-DF2, please also cite:
     *
     *   K. Lee, E. D. Murray, L. Kong, B. I. Lundqvist, and
     *   D. C. Langreth, Phys. Rev. B 82, 081101(R) (2010).
     *
     *
     * If you are calculating the stress with vdW-DF, please also cite:
     *
     *   R. Sabatini, E. Kucukbenli, B. Kolb, T. Thonhauser, and
     *   S. de Gironcoli, J. Phys.: Condens. Matter 24, 424209 (2012).
     *

     Carrying out vdW-DF run using the following parameters:

     Nqs =      20    Nr_points =    1024   r_max =   100.000
     q_mesh =
               0.00001000     0.04494208     0.09755937     0.15916263
               0.23128650     0.31572767     0.41458969     0.53033537
               0.66584808     0.82450364     1.01025438     1.22772762
               1.48234092     1.78043706     2.12944203     2.53805004
               3.01644009     3.57652955     4.23227104     5.00000000

     Gradients computed in reciprocal space

     Starting wfc are   42 randomized atomic wfcs +    8 random wfc

     Self-consistent Calculation

     iteration #  1     ecut=    58.80 Ry     beta=0.10
     Davidson diagonalization with overlap
     ethr =  1.00E-02,  avg # of iterations =  5.6

[...]

     total energy              =    -746.80763723 Ry
     Harris-Foulkes estimate   =    -747.68985768 Ry
     estimated scf accuracy    <       5.55877227 Ry

[...]

     total energy              =    -746.24815916 Ry
     Harris-Foulkes estimate   =    -746.24814728 Ry
     estimated scf accuracy    <       0.00000195 Ry

     iteration # 11     ecut=    58.80 Ry     beta=0.10
     Davidson diagonalization with overlap
     ethr =  2.80E-09,  avg # of iterations =  2.0

     negative rho (up, down):  3.556E-01 0.000E+00

     End of self-consistent calculation

          k = 0.0000 0.0000 0.0000 (  4063 PWs)   bands (ev):

   -36.5421 -36.5421 -36.5267 -36.5233 -36.5219 -36.5219  -6.0866  -6.0779
    -6.0456  -6.0071  -5.9863  -5.9863  -5.9453  -5.9453  -5.9452  -5.8809
     4.7658   8.4622  12.1114  12.1166  12.1230  12.7057  12.7057  13.2708
    13.2708  13.8582  13.8582  13.8896  14.6264  16.1247  16.4855  18.0623
    18.2936  18.2936  20.4966  21.8074  25.1418  25.1882  25.7747  25.7747
    28.2370  28.4677  30.6272  30.7815  30.7815  31.2633  31.2633  32.9908
    33.1548  33.1548

[...]

          k = 0.0926 0.0926 0.1296 (  4065 PWs)   bands (ev):

   -36.5438 -36.5437 -36.5423 -36.5417 -36.5194 -36.5188  -6.0391  -6.0378
    -6.0188  -6.0138  -5.9872  -5.9845  -5.9817  -5.9803  -5.8887  -5.8854
     8.3288   8.4026  11.6575  11.8297  12.4694  12.6147  12.6372  12.8384
    13.2894  13.3293  13.5399  13.5559  14.6487  14.6821  16.1740  16.1952
    16.5611  16.8468  21.8033  22.0220  25.6800  25.7107  25.7226  26.0574
    27.9239  28.0322  28.8371  28.9347  31.3786  31.7039  31.7169  31.9822
    34.4532  34.8968

     the Fermi energy is    16.1277 ev

!    total energy              =    -746.24821166 Ry
     Harris-Foulkes estimate   =    -746.24815948 Ry
     estimated scf accuracy    <       0.00000005 Ry

     The total energy is the sum of the following terms:

     one-electron contribution =    -157.05061262 Ry
     hartree contribution      =     127.52365476 Ry
     xc contribution           =    -206.60749532 Ry
     ewald contribution        =    -510.10908056 Ry
     smearing contrib. (-TS)   =      -0.00467792 Ry

     convergence has been achieved in  11 iterations

     Forces acting on atoms (Ry/au):

     negative rho (up, down):  3.556E-01 0.000E+00
     atom    1 type  1   force =     0.00000000    0.00000000    0.00000000
     atom    2 type  1   force =     0.00000000    0.00000000    0.00000000
     atom    3 type  2   force =     0.00000000    0.00000000    0.00000000
     atom    4 type  2   force =     0.00000000    0.00000000    0.00000000

     Total force =     0.000000     Total SCF correction =     0.000000

     General routines

     Parallel routines

   This run was terminated on:   5:46:41  15Nov2017

   JOB DONE.