     Program PWSCF v.5.1rc2 starts on 15Nov2017 at  3:53:48

     Current dimensions of program PWSCF are:
     Max number of different atomic species (ntypx) = 10
     Max number of k-points (npk) =  40000
     Max angular momentum in pseudopotentials (lmaxx) =  3

     IMPORTANT: XC functional enforced from input :
     Exchange-correlation      = BEEF-VDW ( 1  4 27 13 2)
     Any further DFT definition will be discarded
     Please, verify this is what you really want

     Found symmetry operation: I + ( -0.5000 -0.5000  0.0000)
     This is a supercell, fractional translations are disabled

     bravais-lattice index     =            0
     lattice parameter (alat)  =       1.8897  a.u.
     unit-cell volume          =     432.7463 (a.u.)^3
     number of atoms/cell      =            4
     number of atomic types    =            2
     number of electrons       =        58.00
     number of Kohn-Sham states=           49
     kinetic-energy cutoff     =      58.7989  Ry
     charge density cutoff     =     587.9892  Ry
     convergence threshold     =      1.0E-06
     mixing beta               =       0.1000
     number of iterations used =           10  plain     mixing
     Exchange-correlation      = BEEF-VDW ( 1  4 27 13 2)

     celldm(1)=   1.889726  celldm(2)=   0.000000  celldm(3)=   0.000000
     celldm(4)=   0.000000  celldm(5)=   0.000000  celldm(6)=   0.000000

     crystal axes: (cart. coord. in units of alat)
               a(1) = (   4.325136   0.000000   0.000000 )
               a(2) = (   0.000000   4.325136   0.000000 )
               a(3) = (   0.000000   0.000000   3.427971 )

     reciprocal axes: (cart. coord. in units 2 pi/alat)
               b(1) = (  0.231207  0.000000  0.000000 )
               b(2) = (  0.000000  0.231207  0.000000 )
               b(3) = (  0.000000  0.000000  0.291718 )

     PseudoPot. # 1 for Ru read from file:
     /home/users/vossj/suncat/psp/gbrv1.5pbe/Ru.UPF
     MD5 check sum: 7158a806dd851261a58e6920c40ebe78
     Pseudo is Ultrasoft + core correction, Zval = 16.0
     Generated by new atomic code, or converted to UPF format
     Using radial grid of  967 points,  6 beta functions with:
                l(1) =   0
                l(2) =   0
                l(3) =   1
                l(4) =   1
                l(5) =   2
                l(6) =   2
     Q(r) pseudized with  8 coefficients,  rinner =    1.300   1.300   1.300
                                                       1.300   1.300

     PseudoPot. # 2 for Ta read from file:
     /home/users/vossj/suncat/psp/gbrv1.5pbe/Ta.UPF
     MD5 check sum: f8bbe9446314a3b8ea5d9f3e3836c939
     Pseudo is Ultrasoft + core correction, Zval = 13.0
     Generated by new atomic code, or converted to UPF format
     Using radial grid of  921 points,  7 beta functions with:
                l(1) =   0
                l(2) =   0
                l(3) =   1
                l(4) =   1
                l(5) =   2
                l(6) =   2
                l(7) =   3
     Q(r) pseudized with  6 coefficients,  rinner =    1.300   1.300   1.300
                                                       1.300   1.300   1.300
                                                       1.300

     vdW kernel table read from file vdW_kernel_table
     MD5 check sum: 095c7af220d748ca6e76c0b4c6cfb241

     atomic species   valence    mass     pseudopotential
        Ru1           16.00   101.07000     Ru( 1.00)
        Ta1           13.00   180.94790     Ta( 1.00)

     16 Sym. Ops., with inversion, found

   Cartesian axes

     site n.     atom                  positions (alat units)
         1           Ru1 tau(   1) = (   0.0000000   0.0000000   0.0000000  )
         2           Ru1 tau(   2) = (   2.1625682   2.1625682   0.0000000  )
         3           Ta1 tau(   3) = (   2.1625682   0.0000000   1.7139856  )
         4           Ta1 tau(   4) = (   0.0000000   2.1625682   1.7139856  )

     number of k points=    75  Fermi-Dirac smearing, width (Ry)=  0.0073
                       cart. coord. in units 2pi/alat
        k(    1) = (   0.0000000   0.0000000   0.0000000), wk =   0.0027435
        k(    2) = (   0.0000000   0.0000000   0.0324131), wk =   0.0054870
        k(    3) = (   0.0000000   0.0000000   0.0648262), wk =   0.0054870
        k(    4) = (   0.0000000   0.0000000   0.0972392), wk =   0.0054870
        k(    5) = (   0.0000000   0.0000000   0.1296523), wk =   0.0054870
        k(    6) = (   0.0000000   0.0256896   0.0000000), wk =   0.0109739
        k(    7) = (   0.0000000   0.0256896   0.0324131), wk =   0.0219479
        k(    8) = (   0.0000000   0.0256896   0.0648262), wk =   0.0219479
        k(    9) = (   0.0000000   0.0256896   0.0972392), wk =   0.0219479
        k(   10) = (   0.0000000   0.0256896   0.1296523), wk =   0.0219479
        k(   11) = (   0.0000000   0.0513792   0.0000000), wk =   0.0109739
        k(   12) = (   0.0000000   0.0513792   0.0324131), wk =   0.0219479
        k(   13) = (   0.0000000   0.0513792   0.0648262), wk =   0.0219479
        k(   14) = (   0.0000000   0.0513792   0.0972392), wk =   0.0219479
        k(   15) = (   0.0000000   0.0513792   0.1296523), wk =   0.0219479
        k(   16) = (   0.0000000   0.0770689   0.0000000), wk =   0.0109739
        k(   17) = (   0.0000000   0.0770689   0.0324131), wk =   0.0219479
        k(   18) = (   0.0000000   0.0770689   0.0648262), wk =   0.0219479
        k(   19) = (   0.0000000   0.0770689   0.0972392), wk =   0.0219479
        k(   20) = (   0.0000000   0.0770689   0.1296523), wk =   0.0219479
        k(   21) = (   0.0000000   0.1027585   0.0000000), wk =   0.0109739
        k(   22) = (   0.0000000   0.1027585   0.0324131), wk =   0.0219479
        k(   23) = (   0.0000000   0.1027585   0.0648262), wk =   0.0219479
        k(   24) = (   0.0000000   0.1027585   0.0972392), wk =   0.0219479
        k(   25) = (   0.0000000   0.1027585   0.1296523), wk =   0.0219479
        k(   26) = (   0.0256896   0.0256896   0.0000000), wk =   0.0109739
        k(   27) = (   0.0256896   0.0256896   0.0324131), wk =   0.0219479
        k(   28) = (   0.0256896   0.0256896   0.0648262), wk =   0.0219479
        k(   29) = (   0.0256896   0.0256896   0.0972392), wk =   0.0219479
        k(   30) = (   0.0256896   0.0256896   0.1296523), wk =   0.0219479
        k(   31) = (   0.0256896   0.0513792   0.0000000), wk =   0.0219479
        k(   32) = (   0.0256896   0.0513792   0.0324131), wk =   0.0438957
        k(   33) = (   0.0256896   0.0513792   0.0648262), wk =   0.0438957
        k(   34) = (   0.0256896   0.0513792   0.0972392), wk =   0.0438957
        k(   35) = (   0.0256896   0.0513792   0.1296523), wk =   0.0438957
        k(   36) = (   0.0256896   0.0770689   0.0000000), wk =   0.0219479
        k(   37) = (   0.0256896   0.0770689   0.0324131), wk =   0.0438957
        k(   38) = (   0.0256896   0.0770689   0.0648262), wk =   0.0438957
        k(   39) = (   0.0256896   0.0770689   0.0972392), wk =   0.0438957
        k(   40) = (   0.0256896   0.0770689   0.1296523), wk =   0.0438957
        k(   41) = (   0.0256896   0.1027585   0.0000000), wk =   0.0219479
        k(   42) = (   0.0256896   0.1027585   0.0324131), wk =   0.0438957
        k(   43) = (   0.0256896   0.1027585   0.0648262), wk =   0.0438957
        k(   44) = (   0.0256896   0.1027585   0.0972392), wk =   0.0438957
        k(   45) = (   0.0256896   0.1027585   0.1296523), wk =   0.0438957
        k(   46) = (   0.0513792   0.0513792   0.0000000), wk =   0.0109739
        k(   47) = (   0.0513792   0.0513792   0.0324131), wk =   0.0219479
        k(   48) = (   0.0513792   0.0513792   0.0648262), wk =   0.0219479
        k(   49) = (   0.0513792   0.0513792   0.0972392), wk =   0.0219479
        k(   50) = (   0.0513792   0.0513792   0.1296523), wk =   0.0219479
        k(   51) = (   0.0513792   0.0770689   0.0000000), wk =   0.0219479
        k(   52) = (   0.0513792   0.0770689   0.0324131), wk =   0.0438957
        k(   53) = (   0.0513792   0.0770689   0.0648262), wk =   0.0438957
        k(   54) = (   0.0513792   0.0770689   0.0972392), wk =   0.0438957
        k(   55) = (   0.0513792   0.0770689   0.1296523), wk =   0.0438957
        k(   56) = (   0.0513792   0.1027585   0.0000000), wk =   0.0219479
        k(   57) = (   0.0513792   0.1027585   0.0324131), wk =   0.0438957
        k(   58) = (   0.0513792   0.1027585   0.0648262), wk =   0.0438957
        k(   59) = (   0.0513792   0.1027585   0.0972392), wk =   0.0438957
        k(   60) = (   0.0513792   0.1027585   0.1296523), wk =   0.0438957
        k(   61) = (   0.0770689   0.0770689   0.0000000), wk =   0.0109739
        k(   62) = (   0.0770689   0.0770689   0.0324131), wk =   0.0219479
        k(   63) = (   0.0770689   0.0770689   0.0648262), wk =   0.0219479
        k(   64) = (   0.0770689   0.0770689   0.0972392), wk =   0.0219479
        k(   65) = (   0.0770689   0.0770689   0.1296523), wk =   0.0219479
        k(   66) = (   0.0770689   0.1027585   0.0000000), wk =   0.0219479
        k(   67) = (   0.0770689   0.1027585   0.0324131), wk =   0.0438957
        k(   68) = (   0.0770689   0.1027585   0.0648262), wk =   0.0438957
        k(   69) = (   0.0770689   0.1027585   0.0972392), wk =   0.0438957
        k(   70) = (   0.0770689   0.1027585   0.1296523), wk =   0.0438957
        k(   71) = (   0.1027585   0.1027585   0.0000000), wk =   0.0109739
        k(   72) = (   0.1027585   0.1027585   0.0324131), wk =   0.0219479
        k(   73) = (   0.1027585   0.1027585   0.0648262), wk =   0.0219479
        k(   74) = (   0.1027585   0.1027585   0.0972392), wk =   0.0219479
        k(   75) = (   0.1027585   0.1027585   0.1296523), wk =   0.0219479

     Largest allocated arrays     est. size (Mb)     dimensions
     Largest temporary arrays     est. size (Mb)     dimensions

     Initial potential from superposition of free atoms
     Check: negative starting charge=   -0.337918

     starting charge   55.99774, renormalised to   58.00000

     negative rho (up, down):  3.500E-01 0.000E+00

     *
     * You are using vdW-DF for exchange-correlation in this calculation.
     * Please cite the following three references that made this development
     * possible:
     *
     *   M. Dion, H. Rydberg, E. Schroder, D. C. Langreth, and
     *   B. I. Lundqvist, Phys. Rev. Lett. 92, 246401 (2004).
     *
     *   T. Thonhauser, V. R. Cooper, S. Li, A. Puzder, P. Hyldgaard, and
     *   D. C. Langreth, Phys. Rev. B 76, 125112 (2007).
     *
     *   G. Roman-Perez and J. M. Soler, Phys. Rev. Lett. 103, 096102 (2009).
     *
     *
     * If you are using vdW-DF2, please also cite:
     *
     *   K. Lee, E. D. Murray, L. Kong, B. I. Lundqvist, and
     *   D. C. Langreth, Phys. Rev. B 82, 081101(R) (2010).
     *
     *
     * If you are calculating the stress with vdW-DF, please also cite:
     *
     *   R. Sabatini, E. Kucukbenli, B. Kolb, T. Thonhauser, and
     *   S. de Gironcoli, J. Phys.: Condens. Matter 24, 424209 (2012).
     *

     Carrying out vdW-DF run using the following parameters:

     Nqs =      20    Nr_points =    1024   r_max =   100.000
     q_mesh =
               0.00001000     0.04494208     0.09755937     0.15916263
               0.23128650     0.31572767     0.41458969     0.53033537
               0.66584808     0.82450364     1.01025438     1.22772762
               1.48234092     1.78043706     2.12944203     2.53805004
               3.01644009     3.57652955     4.23227104     5.00000000

     Gradients computed in reciprocal space

     Starting wfc are   52 randomized atomic wfcs

     Self-consistent Calculation

     iteration #  1     ecut=    58.80 Ry     beta=0.10
     Davidson diagonalization with overlap
     ethr =  1.00E-02,  avg # of iterations =  4.1

[...]

     total energy              =    -677.14921828 Ry
     Harris-Foulkes estimate   =    -677.33129178 Ry
     estimated scf accuracy    <       1.25320777 Ry

[...]

     total energy              =    -676.93449146 Ry
     Harris-Foulkes estimate   =    -676.93449298 Ry
     estimated scf accuracy    <       0.00000661 Ry

     iteration #  9     ecut=    58.80 Ry     beta=0.10
     Davidson diagonalization with overlap
     ethr =  1.14E-08,  avg # of iterations =  2.0

     negative rho (up, down):  3.570E-01 0.000E+00

     End of self-consistent calculation

          k = 0.0000 0.0000 0.0000 (  3311 PWs)   bands (ev):

   -52.2699 -52.2457 -48.0596 -48.0220 -22.3261 -22.3261 -22.2319 -22.1875
   -22.1807 -22.1807 -14.5407 -14.5407 -14.3274 -14.2756 -14.1891 -14.1891
    12.3800  14.9975  15.1909  15.1946  15.4366  16.4120  16.4120  18.5684
    18.5684  19.4488  21.1675  21.2487  22.0420  22.2606  22.2606  22.6307
    23.8209  25.0728  25.1640  25.1640  25.3400  25.3400  25.8469  27.1605
    30.2376  30.2376  30.8037  32.5494  32.5494  33.4961  34.6485  34.8362
    36.8664

[...]

          k = 0.1028 0.1028 0.1297 (  3306 PWs)   bands (ev):

   -52.2548 -52.2541 -48.0390 -48.0378 -22.3406 -22.3366 -22.2659 -22.2651
   -22.1610 -22.1568 -14.5689 -14.5581 -14.4035 -14.4010 -14.1713 -14.1597
    14.9923  15.0430  15.4087  15.4387  17.5562  17.5987  17.6018  17.6791
    19.7552  19.8074  20.6532  21.0599  21.2346  21.2462  21.6412  21.7245
    21.8265  22.0750  24.8522  25.0938  25.1349  25.1651  25.3134  25.6110
    29.7384  29.8925  32.3452  32.5319  33.3244  33.3473  33.3599  33.5828
    37.2472

     the Fermi energy is    20.8512 ev

!    total energy              =    -676.93449389 Ry
     Harris-Foulkes estimate   =    -676.93449275 Ry
     estimated scf accuracy    <       0.00000092 Ry

     The total energy is the sum of the following terms:

     one-electron contribution =    -117.33080692 Ry
     hartree contribution      =      94.36217539 Ry
     xc contribution           =    -141.19556533 Ry
     ewald contribution        =    -512.76120214 Ry
     smearing contrib. (-TS)   =      -0.00909488 Ry

     convergence has been achieved in   9 iterations

     Forces acting on atoms (Ry/au):

     negative rho (up, down):  3.570E-01 0.000E+00
     atom    1 type  1   force =     0.00000000    0.00000000    0.00000000
     atom    2 type  1   force =     0.00000000    0.00000000    0.00000000
     atom    3 type  2   force =     0.00000000    0.00000000    0.00000000
     atom    4 type  2   force =     0.00000000    0.00000000    0.00000000

     Total force =     0.000000     Total SCF correction =     0.000000

     General routines

     Parallel routines

   This run was terminated on:   3:54:16  15Nov2017

   JOB DONE.