     Program PWSCF v.5.1rc2 starts on 15Nov2017 at  5:55:18

     Current dimensions of program PWSCF are:
     Max number of different atomic species (ntypx) = 10
     Max number of k-points (npk) =  40000
     Max angular momentum in pseudopotentials (lmaxx) =  3

     IMPORTANT: XC functional enforced from input :
     Exchange-correlation      = BEEF-VDW ( 1  4 27 13 2)
     Any further DFT definition will be discarded
     Please, verify this is what you really want

     Found symmetry operation: I + (  0.5000  0.5000  0.0000)
     This is a supercell, fractional translations are disabled

     bravais-lattice index     =            0
     lattice parameter (alat)  =       1.8897  a.u.
     unit-cell volume          =     396.2246 (a.u.)^3
     number of atoms/cell      =            4
     number of atomic types    =            2
     number of electrons       =        36.00
     number of Kohn-Sham states=           38
     kinetic-energy cutoff     =      58.7989  Ry
     charge density cutoff     =     587.9892  Ry
     convergence threshold     =      1.0E-06
     mixing beta               =       0.1000
     number of iterations used =           10  plain     mixing
     Exchange-correlation      = BEEF-VDW ( 1  4 27 13 2)

     celldm(1)=   1.889726  celldm(2)=   0.000000  celldm(3)=   0.000000
     celldm(4)=   0.000000  celldm(5)=   0.000000  celldm(6)=   0.000000

     crystal axes: (cart. coord. in units of alat)
               a(1) = (   3.851907   0.000000   0.000000 )
               a(2) = (   0.000000   3.851907   0.000000 )
               a(3) = (   0.000000   0.000000   3.957247 )

     reciprocal axes: (cart. coord. in units 2 pi/alat)
               b(1) = (  0.259612  0.000000  0.000000 )
               b(2) = (  0.000000  0.259612  0.000000 )
               b(3) = (  0.000000  0.000000  0.252701 )

     PseudoPot. # 1 for Al read from file:
     /home/users/vossj/suncat/psp/gbrv1.5pbe/Al.UPF
     MD5 check sum: 0a6289f5291fc8f409219462bc851e1f
     Pseudo is Ultrasoft + core correction, Zval =  3.0
     Generated by new atomic code, or converted to UPF format
     Using radial grid of  893 points,  3 beta functions with:
                l(1) =   0
                l(2) =   1
                l(3) =   2
     Q(r) pseudized with  8 coefficients,  rinner =    0.900   0.900   0.900
                                                       0.900   0.900

     PseudoPot. # 2 for Re read from file:
     /home/users/vossj/suncat/psp/gbrv1.5pbe/Re.UPF
     MD5 check sum: 85f993410f3e006da9d71c142b4ad953
     Pseudo is Ultrasoft + core correction, Zval = 15.0
     Generated by new atomic code, or converted to UPF format
     Using radial grid of  981 points,  8 beta functions with:
                l(1) =   0
                l(2) =   0
                l(3) =   1
                l(4) =   1
                l(5) =   2
                l(6) =   2
                l(7) =   3
                l(8) =   3
     Q(r) pseudized with  8 coefficients,  rinner =    1.150   1.150   1.150
                                                       1.150   1.150   1.150
                                                       1.150

     vdW kernel table read from file vdW_kernel_table
     MD5 check sum: 095c7af220d748ca6e76c0b4c6cfb241

     atomic species   valence    mass     pseudopotential
        Al1            3.00    26.98154     Al( 1.00)
        Re1           15.00   186.20700     Re( 1.00)

     16 Sym. Ops., with inversion, found

   Cartesian axes

     site n.     atom                  positions (alat units)
         1           Al1 tau(   1) = (   0.0000000   0.0000000   0.0000000  )
         2           Al1 tau(   2) = (   1.9259537   1.9259537   0.0000000  )
         3           Re1 tau(   3) = (   1.9259537   0.0000000   1.9786235  )
         4           Re1 tau(   4) = (   0.0000000   1.9259537   1.9786235  )

     number of k points=    75  Fermi-Dirac smearing, width (Ry)=  0.0073
                       cart. coord. in units 2pi/alat
        k(    1) = (   0.0000000   0.0000000   0.0000000), wk =   0.0027435
        k(    2) = (   0.0000000   0.0000000   0.0280779), wk =   0.0054870
        k(    3) = (   0.0000000   0.0000000   0.0561558), wk =   0.0054870
        k(    4) = (   0.0000000   0.0000000   0.0842336), wk =   0.0054870
        k(    5) = (   0.0000000   0.0000000   0.1123115), wk =   0.0054870
        k(    6) = (   0.0000000   0.0288457   0.0000000), wk =   0.0109739
        k(    7) = (   0.0000000   0.0288457   0.0280779), wk =   0.0219479
        k(    8) = (   0.0000000   0.0288457   0.0561558), wk =   0.0219479
        k(    9) = (   0.0000000   0.0288457   0.0842336), wk =   0.0219479
        k(   10) = (   0.0000000   0.0288457   0.1123115), wk =   0.0219479
        k(   11) = (   0.0000000   0.0576915   0.0000000), wk =   0.0109739
        k(   12) = (   0.0000000   0.0576915   0.0280779), wk =   0.0219479
        k(   13) = (   0.0000000   0.0576915   0.0561558), wk =   0.0219479
        k(   14) = (   0.0000000   0.0576915   0.0842336), wk =   0.0219479
        k(   15) = (   0.0000000   0.0576915   0.1123115), wk =   0.0219479
        k(   16) = (   0.0000000   0.0865372   0.0000000), wk =   0.0109739
        k(   17) = (   0.0000000   0.0865372   0.0280779), wk =   0.0219479
        k(   18) = (   0.0000000   0.0865372   0.0561558), wk =   0.0219479
        k(   19) = (   0.0000000   0.0865372   0.0842336), wk =   0.0219479
        k(   20) = (   0.0000000   0.0865372   0.1123115), wk =   0.0219479
        k(   21) = (   0.0000000   0.1153829   0.0000000), wk =   0.0109739
        k(   22) = (   0.0000000   0.1153829   0.0280779), wk =   0.0219479
        k(   23) = (   0.0000000   0.1153829   0.0561558), wk =   0.0219479
        k(   24) = (   0.0000000   0.1153829   0.0842336), wk =   0.0219479
        k(   25) = (   0.0000000   0.1153829   0.1123115), wk =   0.0219479
        k(   26) = (   0.0288457   0.0288457   0.0000000), wk =   0.0109739
        k(   27) = (   0.0288457   0.0288457   0.0280779), wk =   0.0219479
        k(   28) = (   0.0288457   0.0288457   0.0561558), wk =   0.0219479
        k(   29) = (   0.0288457   0.0288457   0.0842336), wk =   0.0219479
        k(   30) = (   0.0288457   0.0288457   0.1123115), wk =   0.0219479
        k(   31) = (   0.0288457   0.0576915   0.0000000), wk =   0.0219479
        k(   32) = (   0.0288457   0.0576915   0.0280779), wk =   0.0438957
        k(   33) = (   0.0288457   0.0576915   0.0561558), wk =   0.0438957
        k(   34) = (   0.0288457   0.0576915   0.0842336), wk =   0.0438957
        k(   35) = (   0.0288457   0.0576915   0.1123115), wk =   0.0438957
        k(   36) = (   0.0288457   0.0865372   0.0000000), wk =   0.0219479
        k(   37) = (   0.0288457   0.0865372   0.0280779), wk =   0.0438957
        k(   38) = (   0.0288457   0.0865372   0.0561558), wk =   0.0438957
        k(   39) = (   0.0288457   0.0865372   0.0842336), wk =   0.0438957
        k(   40) = (   0.0288457   0.0865372   0.1123115), wk =   0.0438957
        k(   41) = (   0.0288457   0.1153829   0.0000000), wk =   0.0219479
        k(   42) = (   0.0288457   0.1153829   0.0280779), wk =   0.0438957
        k(   43) = (   0.0288457   0.1153829   0.0561558), wk =   0.0438957
        k(   44) = (   0.0288457   0.1153829   0.0842336), wk =   0.0438957
        k(   45) = (   0.0288457   0.1153829   0.1123115), wk =   0.0438957
        k(   46) = (   0.0576915   0.0576915   0.0000000), wk =   0.0109739
        k(   47) = (   0.0576915   0.0576915   0.0280779), wk =   0.0219479
        k(   48) = (   0.0576915   0.0576915   0.0561558), wk =   0.0219479
        k(   49) = (   0.0576915   0.0576915   0.0842336), wk =   0.0219479
        k(   50) = (   0.0576915   0.0576915   0.1123115), wk =   0.0219479
        k(   51) = (   0.0576915   0.0865372   0.0000000), wk =   0.0219479
        k(   52) = (   0.0576915   0.0865372   0.0280779), wk =   0.0438957
        k(   53) = (   0.0576915   0.0865372   0.0561558), wk =   0.0438957
        k(   54) = (   0.0576915   0.0865372   0.0842336), wk =   0.0438957
        k(   55) = (   0.0576915   0.0865372   0.1123115), wk =   0.0438957
        k(   56) = (   0.0576915   0.1153829   0.0000000), wk =   0.0219479
        k(   57) = (   0.0576915   0.1153829   0.0280779), wk =   0.0438957
        k(   58) = (   0.0576915   0.1153829   0.0561558), wk =   0.0438957
        k(   59) = (   0.0576915   0.1153829   0.0842336), wk =   0.0438957
        k(   60) = (   0.0576915   0.1153829   0.1123115), wk =   0.0438957
        k(   61) = (   0.0865372   0.0865372   0.0000000), wk =   0.0109739
        k(   62) = (   0.0865372   0.0865372   0.0280779), wk =   0.0219479
        k(   63) = (   0.0865372   0.0865372   0.0561558), wk =   0.0219479
        k(   64) = (   0.0865372   0.0865372   0.0842336), wk =   0.0219479
        k(   65) = (   0.0865372   0.0865372   0.1123115), wk =   0.0219479
        k(   66) = (   0.0865372   0.1153829   0.0000000), wk =   0.0219479
        k(   67) = (   0.0865372   0.1153829   0.0280779), wk =   0.0438957
        k(   68) = (   0.0865372   0.1153829   0.0561558), wk =   0.0438957
        k(   69) = (   0.0865372   0.1153829   0.0842336), wk =   0.0438957
        k(   70) = (   0.0865372   0.1153829   0.1123115), wk =   0.0438957
        k(   71) = (   0.1153829   0.1153829   0.0000000), wk =   0.0109739
        k(   72) = (   0.1153829   0.1153829   0.0280779), wk =   0.0219479
        k(   73) = (   0.1153829   0.1153829   0.0561558), wk =   0.0219479
        k(   74) = (   0.1153829   0.1153829   0.0842336), wk =   0.0219479
        k(   75) = (   0.1153829   0.1153829   0.1123115), wk =   0.0219479

     Largest allocated arrays     est. size (Mb)     dimensions
     Largest temporary arrays     est. size (Mb)     dimensions

     Initial potential from superposition of free atoms
     Check: negative starting charge=   -0.256697

     starting charge   34.99498, renormalised to   36.00000

     negative rho (up, down):  2.641E-01 0.000E+00

     *
     * You are using vdW-DF for exchange-correlation in this calculation.
     * Please cite the following three references that made this development
     * possible:
     *
     *   M. Dion, H. Rydberg, E. Schroder, D. C. Langreth, and
     *   B. I. Lundqvist, Phys. Rev. Lett. 92, 246401 (2004).
     *
     *   T. Thonhauser, V. R. Cooper, S. Li, A. Puzder, P. Hyldgaard, and
     *   D. C. Langreth, Phys. Rev. B 76, 125112 (2007).
     *
     *   G. Roman-Perez and J. M. Soler, Phys. Rev. Lett. 103, 096102 (2009).
     *
     *
     * If you are using vdW-DF2, please also cite:
     *
     *   K. Lee, E. D. Murray, L. Kong, B. I. Lundqvist, and
     *   D. C. Langreth, Phys. Rev. B 82, 081101(R) (2010).
     *
     *
     * If you are calculating the stress with vdW-DF, please also cite:
     *
     *   R. Sabatini, E. Kucukbenli, B. Kolb, T. Thonhauser, and
     *   S. de Gironcoli, J. Phys.: Condens. Matter 24, 424209 (2012).
     *

     Carrying out vdW-DF run using the following parameters:

     Nqs =      20    Nr_points =    1024   r_max =   100.000
     q_mesh =
               0.00001000     0.04494208     0.09755937     0.15916263
               0.23128650     0.31572767     0.41458969     0.53033537
               0.66584808     0.82450364     1.01025438     1.22772762
               1.48234092     1.78043706     2.12944203     2.53805004
               3.01644009     3.57652955     4.23227104     5.00000000

     Gradients computed in reciprocal space

     Starting wfc are   34 randomized atomic wfcs +    4 random wfc

     Self-consistent Calculation

     iteration #  1     ecut=    58.80 Ry     beta=0.10
     Davidson diagonalization with overlap
     ethr =  1.00E-02,  avg # of iterations =  4.4

[...]

     total energy              =    -398.22573989 Ry
     Harris-Foulkes estimate   =    -398.29026470 Ry
     estimated scf accuracy    <       0.42499390 Ry

[...]

     total energy              =    -398.17242854 Ry
     Harris-Foulkes estimate   =    -398.17242826 Ry
     estimated scf accuracy    <       0.00000100 Ry

     iteration # 11     ecut=    58.80 Ry     beta=0.10
     Davidson diagonalization with overlap
     ethr =  2.78E-09,  avg # of iterations =  2.0

     negative rho (up, down):  2.719E-01 0.000E+00

     End of self-consistent calculation

          k = 0.0000 0.0000 0.0000 (  3003 PWs)   bands (ev):

   -63.9538 -63.8684 -25.9518 -25.9518 -25.6821 -25.5303 -25.3438 -25.3438
     5.4628  10.3763  11.5475  12.1714  13.6149  13.6149  13.9874  15.4613
    15.5176  15.5176  17.2774  17.2774  19.1869  21.3262  21.8942  22.1928
    23.0965  24.2113  24.9808  24.9808  25.9201  26.9674  26.9674  29.9306
    30.8915  31.5954  32.0565  32.0565  33.7808  34.6866

[...]

          k = 0.1154 0.1154 0.1123 (  3027 PWs)   bands (ev):

   -63.9119 -63.9093 -26.0345 -26.0170 -25.6178 -25.6130 -25.3035 -25.2844
     9.5061   9.6260  11.6887  11.9279  12.9538  13.0073  14.2854  14.5189
    15.9896  16.0041  16.3433  16.5491  17.5501  17.5657  20.5691  20.6485
    22.8159  22.8362  27.5580  28.6534  29.0858  29.7440  30.2199  30.6071
    31.2580  31.7080  31.9830  32.4184  32.7252  32.9938

     the Fermi energy is    16.5156 ev

!    total energy              =    -398.17243222 Ry
     Harris-Foulkes estimate   =    -398.17242873 Ry
     estimated scf accuracy    <       0.00000002 Ry

     The total energy is the sum of the following terms:

     one-electron contribution =    -105.35689611 Ry
     hartree contribution      =      70.10211907 Ry
     xc contribution           =    -117.49328282 Ry
     ewald contribution        =    -245.41494054 Ry
     smearing contrib. (-TS)   =      -0.00943183 Ry

     convergence has been achieved in  11 iterations

     Forces acting on atoms (Ry/au):

     negative rho (up, down):  2.719E-01 0.000E+00
     atom    1 type  1   force =     0.00000000    0.00000000    0.00000000
     atom    2 type  1   force =     0.00000000    0.00000000    0.00000000
     atom    3 type  2   force =     0.00000000    0.00000000    0.00000000
     atom    4 type  2   force =     0.00000000    0.00000000    0.00000000

     Total force =     0.000000     Total SCF correction =     0.000000

     General routines

     Parallel routines

   This run was terminated on:   5:55:47  15Nov2017

   JOB DONE.