     Program PWSCF v.5.1rc2 starts on 14Nov2017 at  6:45: 7

     Current dimensions of program PWSCF are:
     Max number of different atomic species (ntypx) = 10
     Max number of k-points (npk) =  40000
     Max angular momentum in pseudopotentials (lmaxx) =  3

     IMPORTANT: XC functional enforced from input :
     Exchange-correlation      = BEEF-VDW ( 1  4 27 13 2)
     Any further DFT definition will be discarded
     Please, verify this is what you really want

     Found symmetry operation: I + ( -0.5000 -0.5000  0.0000)
     This is a supercell, fractional translations are disabled

     bravais-lattice index     =            0
     lattice parameter (alat)  =       1.8897  a.u.
     unit-cell volume          =     297.8316 (a.u.)^3
     number of atoms/cell      =            4
     number of atomic types    =            2
     number of electrons       =        60.00
     number of Kohn-Sham states=           50
     kinetic-energy cutoff     =      58.7989  Ry
     charge density cutoff     =     587.9892  Ry
     convergence threshold     =      1.0E-06
     mixing beta               =       0.1000
     number of iterations used =           10  plain     mixing
     Exchange-correlation      = BEEF-VDW ( 1  4 27 13 2)

     celldm(1)=   1.889726  celldm(2)=   0.000000  celldm(3)=   0.000000
     celldm(4)=   0.000000  celldm(5)=   0.000000  celldm(6)=   0.000000

     crystal axes: (cart. coord. in units of alat)
               a(1) = (   3.562756   0.000000   0.000000 )
               a(2) = (   0.000000   3.562756   0.000000 )
               a(3) = (   0.000000   0.000000   3.476979 )

     reciprocal axes: (cart. coord. in units 2 pi/alat)
               b(1) = (  0.280682  0.000000  0.000000 )
               b(2) = (  0.000000  0.280682  0.000000 )
               b(3) = (  0.000000  0.000000  0.287606 )

     PseudoPot. # 1 for Cr read from file:
     /home/users/vossj/suncat/psp/gbrv1.5pbe/Cr.UPF
     MD5 check sum: 0d52af634a40206e4dee301ad30da4bf
     Pseudo is Ultrasoft + core correction, Zval = 14.0
     Generated by new atomic code, or converted to UPF format
     Using radial grid of  857 points,  6 beta functions with:
                l(1) =   0
                l(2) =   0
                l(3) =   1
                l(4) =   1
                l(5) =   2
                l(6) =   2
     Q(r) pseudized with  8 coefficients,  rinner =    0.950   0.950   0.950
                                                       0.950   0.950

     PseudoPot. # 2 for Fe read from file:
     /home/users/vossj/suncat/psp/gbrv1.5pbe/Fe.UPF
     MD5 check sum: a130daea23fe5165f5d574ae7f82ed95
     Pseudo is Ultrasoft + core correction, Zval = 16.0
     Generated by new atomic code, or converted to UPF format
     Using radial grid of  861 points,  6 beta functions with:
                l(1) =   0
                l(2) =   0
                l(3) =   1
                l(4) =   1
                l(5) =   2
                l(6) =   2
     Q(r) pseudized with  8 coefficients,  rinner =    1.000   1.000   1.000
                                                       1.000   1.000

     vdW kernel table read from file vdW_kernel_table
     MD5 check sum: 095c7af220d748ca6e76c0b4c6cfb241

     atomic species   valence    mass     pseudopotential
        Cr1           14.00    51.99600     Cr( 1.00)
        Fe1           16.00    55.84700     Fe( 1.00)

     16 Sym. Ops., with inversion, found

   Cartesian axes

     site n.     atom                  positions (alat units)
         1           Cr1 tau(   1) = (   0.0000000   0.0000000   0.0000000  )
         2           Cr1 tau(   2) = (   1.7813781   1.7813781   0.0000000  )
         3           Fe1 tau(   3) = (   1.7813781   0.0000000   1.7384894  )
         4           Fe1 tau(   4) = (   0.0000000   1.7813781   1.7384894  )

     number of k points=    75  Fermi-Dirac smearing, width (Ry)=  0.0073
                       cart. coord. in units 2pi/alat
        k(    1) = (   0.0000000   0.0000000   0.0000000), wk =   0.0027435
        k(    2) = (   0.0000000   0.0000000   0.0319562), wk =   0.0054870
        k(    3) = (   0.0000000   0.0000000   0.0639124), wk =   0.0054870
        k(    4) = (   0.0000000   0.0000000   0.0958687), wk =   0.0054870
        k(    5) = (   0.0000000   0.0000000   0.1278249), wk =   0.0054870
        k(    6) = (   0.0000000   0.0311868   0.0000000), wk =   0.0109739
        k(    7) = (   0.0000000   0.0311868   0.0319562), wk =   0.0219479
        k(    8) = (   0.0000000   0.0311868   0.0639124), wk =   0.0219479
        k(    9) = (   0.0000000   0.0311868   0.0958687), wk =   0.0219479
        k(   10) = (   0.0000000   0.0311868   0.1278249), wk =   0.0219479
        k(   11) = (   0.0000000   0.0623737   0.0000000), wk =   0.0109739
        k(   12) = (   0.0000000   0.0623737   0.0319562), wk =   0.0219479
        k(   13) = (   0.0000000   0.0623737   0.0639124), wk =   0.0219479
        k(   14) = (   0.0000000   0.0623737   0.0958687), wk =   0.0219479
        k(   15) = (   0.0000000   0.0623737   0.1278249), wk =   0.0219479
        k(   16) = (   0.0000000   0.0935605   0.0000000), wk =   0.0109739
        k(   17) = (   0.0000000   0.0935605   0.0319562), wk =   0.0219479
        k(   18) = (   0.0000000   0.0935605   0.0639124), wk =   0.0219479
        k(   19) = (   0.0000000   0.0935605   0.0958687), wk =   0.0219479
        k(   20) = (   0.0000000   0.0935605   0.1278249), wk =   0.0219479
        k(   21) = (   0.0000000   0.1247474   0.0000000), wk =   0.0109739
        k(   22) = (   0.0000000   0.1247474   0.0319562), wk =   0.0219479
        k(   23) = (   0.0000000   0.1247474   0.0639124), wk =   0.0219479
        k(   24) = (   0.0000000   0.1247474   0.0958687), wk =   0.0219479
        k(   25) = (   0.0000000   0.1247474   0.1278249), wk =   0.0219479
        k(   26) = (   0.0311868   0.0311868   0.0000000), wk =   0.0109739
        k(   27) = (   0.0311868   0.0311868   0.0319562), wk =   0.0219479
        k(   28) = (   0.0311868   0.0311868   0.0639124), wk =   0.0219479
        k(   29) = (   0.0311868   0.0311868   0.0958687), wk =   0.0219479
        k(   30) = (   0.0311868   0.0311868   0.1278249), wk =   0.0219479
        k(   31) = (   0.0311868   0.0623737   0.0000000), wk =   0.0219479
        k(   32) = (   0.0311868   0.0623737   0.0319562), wk =   0.0438957
        k(   33) = (   0.0311868   0.0623737   0.0639124), wk =   0.0438957
        k(   34) = (   0.0311868   0.0623737   0.0958687), wk =   0.0438957
        k(   35) = (   0.0311868   0.0623737   0.1278249), wk =   0.0438957
        k(   36) = (   0.0311868   0.0935605   0.0000000), wk =   0.0219479
        k(   37) = (   0.0311868   0.0935605   0.0319562), wk =   0.0438957
        k(   38) = (   0.0311868   0.0935605   0.0639124), wk =   0.0438957
        k(   39) = (   0.0311868   0.0935605   0.0958687), wk =   0.0438957
        k(   40) = (   0.0311868   0.0935605   0.1278249), wk =   0.0438957
        k(   41) = (   0.0311868   0.1247474   0.0000000), wk =   0.0219479
        k(   42) = (   0.0311868   0.1247474   0.0319562), wk =   0.0438957
        k(   43) = (   0.0311868   0.1247474   0.0639124), wk =   0.0438957
        k(   44) = (   0.0311868   0.1247474   0.0958687), wk =   0.0438957
        k(   45) = (   0.0311868   0.1247474   0.1278249), wk =   0.0438957
        k(   46) = (   0.0623737   0.0623737   0.0000000), wk =   0.0109739
        k(   47) = (   0.0623737   0.0623737   0.0319562), wk =   0.0219479
        k(   48) = (   0.0623737   0.0623737   0.0639124), wk =   0.0219479
        k(   49) = (   0.0623737   0.0623737   0.0958687), wk =   0.0219479
        k(   50) = (   0.0623737   0.0623737   0.1278249), wk =   0.0219479
        k(   51) = (   0.0623737   0.0935605   0.0000000), wk =   0.0219479
        k(   52) = (   0.0623737   0.0935605   0.0319562), wk =   0.0438957
        k(   53) = (   0.0623737   0.0935605   0.0639124), wk =   0.0438957
        k(   54) = (   0.0623737   0.0935605   0.0958687), wk =   0.0438957
        k(   55) = (   0.0623737   0.0935605   0.1278249), wk =   0.0438957
        k(   56) = (   0.0623737   0.1247474   0.0000000), wk =   0.0219479
        k(   57) = (   0.0623737   0.1247474   0.0319562), wk =   0.0438957
        k(   58) = (   0.0623737   0.1247474   0.0639124), wk =   0.0438957
        k(   59) = (   0.0623737   0.1247474   0.0958687), wk =   0.0438957
        k(   60) = (   0.0623737   0.1247474   0.1278249), wk =   0.0438957
        k(   61) = (   0.0935605   0.0935605   0.0000000), wk =   0.0109739
        k(   62) = (   0.0935605   0.0935605   0.0319562), wk =   0.0219479
        k(   63) = (   0.0935605   0.0935605   0.0639124), wk =   0.0219479
        k(   64) = (   0.0935605   0.0935605   0.0958687), wk =   0.0219479
        k(   65) = (   0.0935605   0.0935605   0.1278249), wk =   0.0219479
        k(   66) = (   0.0935605   0.1247474   0.0000000), wk =   0.0219479
        k(   67) = (   0.0935605   0.1247474   0.0319562), wk =   0.0438957
        k(   68) = (   0.0935605   0.1247474   0.0639124), wk =   0.0438957
        k(   69) = (   0.0935605   0.1247474   0.0958687), wk =   0.0438957
        k(   70) = (   0.0935605   0.1247474   0.1278249), wk =   0.0438957
        k(   71) = (   0.1247474   0.1247474   0.0000000), wk =   0.0109739
        k(   72) = (   0.1247474   0.1247474   0.0319562), wk =   0.0219479
        k(   73) = (   0.1247474   0.1247474   0.0639124), wk =   0.0219479
        k(   74) = (   0.1247474   0.1247474   0.0958687), wk =   0.0219479
        k(   75) = (   0.1247474   0.1247474   0.1278249), wk =   0.0219479

     Largest allocated arrays     est. size (Mb)     dimensions
     Largest temporary arrays     est. size (Mb)     dimensions

     Check: negative/imaginary core charge=   -0.000036    0.000000

     Initial potential from superposition of free atoms
     Check: negative starting charge=   -0.001195

     starting charge   55.99996, renormalised to   60.00000

     negative rho (up, down):  1.281E-03 0.000E+00

     *
     * You are using vdW-DF for exchange-correlation in this calculation.
     * Please cite the following three references that made this development
     * possible:
     *
     *   M. Dion, H. Rydberg, E. Schroder, D. C. Langreth, and
     *   B. I. Lundqvist, Phys. Rev. Lett. 92, 246401 (2004).
     *
     *   T. Thonhauser, V. R. Cooper, S. Li, A. Puzder, P. Hyldgaard, and
     *   D. C. Langreth, Phys. Rev. B 76, 125112 (2007).
     *
     *   G. Roman-Perez and J. M. Soler, Phys. Rev. Lett. 103, 096102 (2009).
     *
     *
     * If you are using vdW-DF2, please also cite:
     *
     *   K. Lee, E. D. Murray, L. Kong, B. I. Lundqvist, and
     *   D. C. Langreth, Phys. Rev. B 82, 081101(R) (2010).
     *
     *
     * If you are calculating the stress with vdW-DF, please also cite:
     *
     *   R. Sabatini, E. Kucukbenli, B. Kolb, T. Thonhauser, and
     *   S. de Gironcoli, J. Phys.: Condens. Matter 24, 424209 (2012).
     *

     Carrying out vdW-DF run using the following parameters:

     Nqs =      20    Nr_points =    1024   r_max =   100.000
     q_mesh =
               0.00001000     0.04494208     0.09755937     0.15916263
               0.23128650     0.31572767     0.41458969     0.53033537
               0.66584808     0.82450364     1.01025438     1.22772762
               1.48234092     1.78043706     2.12944203     2.53805004
               3.01644009     3.57652955     4.23227104     5.00000000

     Gradients computed in reciprocal space

     Starting wfc are   46 randomized atomic wfcs +    4 random wfc

     Self-consistent Calculation

     iteration #  1     ecut=    58.80 Ry     beta=0.10
     Davidson diagonalization with overlap
     ethr =  1.00E-02,  avg # of iterations =  4.1

[...]

     total energy              =    -856.08338875 Ry
     Harris-Foulkes estimate   =    -857.61431865 Ry
     estimated scf accuracy    <       9.20566501 Ry

[...]

     total energy              =    -855.31175641 Ry
     Harris-Foulkes estimate   =    -855.31175608 Ry
     estimated scf accuracy    <       0.00000127 Ry

     iteration # 15     ecut=    58.80 Ry     beta=0.10
     Davidson diagonalization with overlap
     ethr =  2.12E-09,  avg # of iterations =  1.1

     negative rho (up, down):  1.259E-03 0.000E+00

     End of self-consistent calculation

          k = 0.0000 0.0000 0.0000 (  2285 PWs)   bands (ev):

   -67.7658 -67.7144 -52.6326 -52.4964 -33.8886 -33.8886 -33.8161 -33.7611
   -33.6838 -33.6838 -24.0639 -24.0639 -23.9399 -23.8387 -23.6191 -23.6191
    11.1495  14.5970  14.7225  14.8399  15.4741  15.5124  15.5124  18.0392
    18.0392  18.3326  19.4439  19.9066  20.4252  20.5512  21.2471  21.2532
    21.3025  21.3025  21.3453  21.3453  21.9596  22.5770  22.5770  23.1897
    30.9627  31.2010  31.6767  34.2111  34.5412  34.5412  35.0761  35.0761
    36.3131  40.1660

[...]

          k = 0.1247 0.1247 0.1278 (  2283 PWs)   bands (ev):

   -67.7401 -67.7386 -52.5650 -52.5608 -33.9166 -33.9106 -33.7966 -33.7953
   -33.6695 -33.6633 -24.1246 -24.1114 -23.9035 -23.9000 -23.5901 -23.5762
    14.7390  14.8014  15.0827  15.1261  17.7894  17.8598  17.8809  17.8992
    17.9982  18.0055  18.3938  18.4746  19.1917  19.3165  19.3962  19.5754
    20.5235  20.6810  20.9315  21.1854  21.2957  21.4660  21.6077  21.6839
    27.9016  28.0478  28.5636  28.8959  39.0267  39.1190  39.1336  39.3462
    42.8762  43.2783

     the Fermi energy is    19.1970 ev

!    total energy              =    -855.31175832 Ry
     Harris-Foulkes estimate   =    -855.31175647 Ry
     estimated scf accuracy    <       0.00000009 Ry

     The total energy is the sum of the following terms:

     one-electron contribution =    -334.06609284 Ry
     hartree contribution      =     205.17638714 Ry
     xc contribution           =    -107.14481559 Ry
     ewald contribution        =    -619.26299293 Ry
     smearing contrib. (-TS)   =      -0.01424411 Ry

     convergence has been achieved in  15 iterations

     Forces acting on atoms (Ry/au):

     negative rho (up, down):  1.259E-03 0.000E+00
     atom    1 type  1   force =     0.00000000    0.00000000    0.00000000
     atom    2 type  1   force =     0.00000000    0.00000000    0.00000000
     atom    3 type  2   force =     0.00000000    0.00000000    0.00000000
     atom    4 type  2   force =     0.00000000    0.00000000    0.00000000

     Total force =     0.000000     Total SCF correction =     0.000000

     General routines

     Parallel routines

   This run was terminated on:   6:45:44  14Nov2017

   JOB DONE.