     Program PWSCF v.5.1rc2 starts on 15Nov2017 at  1:11:40

     Current dimensions of program PWSCF are:
     Max number of different atomic species (ntypx) = 10
     Max number of k-points (npk) =  40000
     Max angular momentum in pseudopotentials (lmaxx) =  3

     IMPORTANT: XC functional enforced from input :
     Exchange-correlation      = BEEF-VDW ( 1  4 27 13 2)
     Any further DFT definition will be discarded
     Please, verify this is what you really want

     Found symmetry operation: I + ( -0.5000 -0.5000  0.0000)
     This is a supercell, fractional translations are disabled

     bravais-lattice index     =            0
     lattice parameter (alat)  =       1.8897  a.u.
     unit-cell volume          =     516.1396 (a.u.)^3
     number of atoms/cell      =            4
     number of atomic types    =            2
     number of electrons       =        60.00
     number of Kohn-Sham states=           50
     kinetic-energy cutoff     =      58.7989  Ry
     charge density cutoff     =     587.9892  Ry
     convergence threshold     =      1.0E-06
     mixing beta               =       0.1000
     number of iterations used =           10  plain     mixing
     Exchange-correlation      = BEEF-VDW ( 1  4 27 13 2)

     celldm(1)=   1.889726  celldm(2)=   0.000000  celldm(3)=   0.000000
     celldm(4)=   0.000000  celldm(5)=   0.000000  celldm(6)=   0.000000

     crystal axes: (cart. coord. in units of alat)
               a(1) = (   4.768698   0.000000   0.000000 )
               a(2) = (   0.000000   4.768698   0.000000 )
               a(3) = (   0.000000   0.000000   3.363342 )

     reciprocal axes: (cart. coord. in units 2 pi/alat)
               b(1) = (  0.209701  0.000000  0.000000 )
               b(2) = (  0.000000  0.209701  0.000000 )
               b(3) = (  0.000000  0.000000  0.297323 )

     PseudoPot. # 1 for Os read from file:
     /home/users/vossj/suncat/psp/gbrv1.5pbe/Os.UPF
     MD5 check sum: a3fb40a04f0c37c25c34bbc47164c9a8
     Pseudo is Ultrasoft + core correction, Zval = 16.0
     Generated by new atomic code, or converted to UPF format
     Using radial grid of  983 points,  8 beta functions with:
                l(1) =   0
                l(2) =   0
                l(3) =   1
                l(4) =   1
                l(5) =   2
                l(6) =   2
                l(7) =   3
                l(8) =   3
     Q(r) pseudized with  8 coefficients,  rinner =    1.150   1.150   1.150
                                                       1.150   1.150   1.150
                                                       1.150

     PseudoPot. # 2 for Pb read from file:
     /home/users/vossj/suncat/psp/gbrv1.5pbe/Pb.UPF
     MD5 check sum: 3d1c1779aa92214d1e8f3a7db79003e2
     Pseudo is Ultrasoft + core correction, Zval = 14.0
     Generated by new atomic code, or converted to UPF format
     Using radial grid of  899 points,  6 beta functions with:
                l(1) =   0
                l(2) =   0
                l(3) =   1
                l(4) =   1
                l(5) =   2
                l(6) =   2
     Q(r) pseudized with  6 coefficients,  rinner =    1.000   1.000   1.000
                                                       1.000   1.000

     vdW kernel table read from file vdW_kernel_table
     MD5 check sum: 095c7af220d748ca6e76c0b4c6cfb241

     atomic species   valence    mass     pseudopotential
        Os1           16.00   190.20000     Os( 1.00)
        Pb1           14.00   207.20000     Pb( 1.00)

     16 Sym. Ops., with inversion, found

   Cartesian axes

     site n.     atom                  positions (alat units)
         1           Os1 tau(   1) = (   0.0000000   0.0000000   0.0000000  )
         2           Os1 tau(   2) = (   2.3843488   2.3843488   0.0000000  )
         3           Pb1 tau(   3) = (   2.3843488   0.0000000   1.6816710  )
         4           Pb1 tau(   4) = (   0.0000000   2.3843488   1.6816710  )

     number of k points=    75  Fermi-Dirac smearing, width (Ry)=  0.0073
                       cart. coord. in units 2pi/alat
        k(    1) = (   0.0000000   0.0000000   0.0000000), wk =   0.0027435
        k(    2) = (   0.0000000   0.0000000   0.0330359), wk =   0.0054870
        k(    3) = (   0.0000000   0.0000000   0.0660718), wk =   0.0054870
        k(    4) = (   0.0000000   0.0000000   0.0991078), wk =   0.0054870
        k(    5) = (   0.0000000   0.0000000   0.1321437), wk =   0.0054870
        k(    6) = (   0.0000000   0.0233001   0.0000000), wk =   0.0109739
        k(    7) = (   0.0000000   0.0233001   0.0330359), wk =   0.0219479
        k(    8) = (   0.0000000   0.0233001   0.0660718), wk =   0.0219479
        k(    9) = (   0.0000000   0.0233001   0.0991078), wk =   0.0219479
        k(   10) = (   0.0000000   0.0233001   0.1321437), wk =   0.0219479
        k(   11) = (   0.0000000   0.0466002   0.0000000), wk =   0.0109739
        k(   12) = (   0.0000000   0.0466002   0.0330359), wk =   0.0219479
        k(   13) = (   0.0000000   0.0466002   0.0660718), wk =   0.0219479
        k(   14) = (   0.0000000   0.0466002   0.0991078), wk =   0.0219479
        k(   15) = (   0.0000000   0.0466002   0.1321437), wk =   0.0219479
        k(   16) = (   0.0000000   0.0699003   0.0000000), wk =   0.0109739
        k(   17) = (   0.0000000   0.0699003   0.0330359), wk =   0.0219479
        k(   18) = (   0.0000000   0.0699003   0.0660718), wk =   0.0219479
        k(   19) = (   0.0000000   0.0699003   0.0991078), wk =   0.0219479
        k(   20) = (   0.0000000   0.0699003   0.1321437), wk =   0.0219479
        k(   21) = (   0.0000000   0.0932004   0.0000000), wk =   0.0109739
        k(   22) = (   0.0000000   0.0932004   0.0330359), wk =   0.0219479
        k(   23) = (   0.0000000   0.0932004   0.0660718), wk =   0.0219479
        k(   24) = (   0.0000000   0.0932004   0.0991078), wk =   0.0219479
        k(   25) = (   0.0000000   0.0932004   0.1321437), wk =   0.0219479
        k(   26) = (   0.0233001   0.0233001   0.0000000), wk =   0.0109739
        k(   27) = (   0.0233001   0.0233001   0.0330359), wk =   0.0219479
        k(   28) = (   0.0233001   0.0233001   0.0660718), wk =   0.0219479
        k(   29) = (   0.0233001   0.0233001   0.0991078), wk =   0.0219479
        k(   30) = (   0.0233001   0.0233001   0.1321437), wk =   0.0219479
        k(   31) = (   0.0233001   0.0466002   0.0000000), wk =   0.0219479
        k(   32) = (   0.0233001   0.0466002   0.0330359), wk =   0.0438957
        k(   33) = (   0.0233001   0.0466002   0.0660718), wk =   0.0438957
        k(   34) = (   0.0233001   0.0466002   0.0991078), wk =   0.0438957
        k(   35) = (   0.0233001   0.0466002   0.1321437), wk =   0.0438957
        k(   36) = (   0.0233001   0.0699003   0.0000000), wk =   0.0219479
        k(   37) = (   0.0233001   0.0699003   0.0330359), wk =   0.0438957
        k(   38) = (   0.0233001   0.0699003   0.0660718), wk =   0.0438957
        k(   39) = (   0.0233001   0.0699003   0.0991078), wk =   0.0438957
        k(   40) = (   0.0233001   0.0699003   0.1321437), wk =   0.0438957
        k(   41) = (   0.0233001   0.0932004   0.0000000), wk =   0.0219479
        k(   42) = (   0.0233001   0.0932004   0.0330359), wk =   0.0438957
        k(   43) = (   0.0233001   0.0932004   0.0660718), wk =   0.0438957
        k(   44) = (   0.0233001   0.0932004   0.0991078), wk =   0.0438957
        k(   45) = (   0.0233001   0.0932004   0.1321437), wk =   0.0438957
        k(   46) = (   0.0466002   0.0466002   0.0000000), wk =   0.0109739
        k(   47) = (   0.0466002   0.0466002   0.0330359), wk =   0.0219479
        k(   48) = (   0.0466002   0.0466002   0.0660718), wk =   0.0219479
        k(   49) = (   0.0466002   0.0466002   0.0991078), wk =   0.0219479
        k(   50) = (   0.0466002   0.0466002   0.1321437), wk =   0.0219479
        k(   51) = (   0.0466002   0.0699003   0.0000000), wk =   0.0219479
        k(   52) = (   0.0466002   0.0699003   0.0330359), wk =   0.0438957
        k(   53) = (   0.0466002   0.0699003   0.0660718), wk =   0.0438957
        k(   54) = (   0.0466002   0.0699003   0.0991078), wk =   0.0438957
        k(   55) = (   0.0466002   0.0699003   0.1321437), wk =   0.0438957
        k(   56) = (   0.0466002   0.0932004   0.0000000), wk =   0.0219479
        k(   57) = (   0.0466002   0.0932004   0.0330359), wk =   0.0438957
        k(   58) = (   0.0466002   0.0932004   0.0660718), wk =   0.0438957
        k(   59) = (   0.0466002   0.0932004   0.0991078), wk =   0.0438957
        k(   60) = (   0.0466002   0.0932004   0.1321437), wk =   0.0438957
        k(   61) = (   0.0699003   0.0699003   0.0000000), wk =   0.0109739
        k(   62) = (   0.0699003   0.0699003   0.0330359), wk =   0.0219479
        k(   63) = (   0.0699003   0.0699003   0.0660718), wk =   0.0219479
        k(   64) = (   0.0699003   0.0699003   0.0991078), wk =   0.0219479
        k(   65) = (   0.0699003   0.0699003   0.1321437), wk =   0.0219479
        k(   66) = (   0.0699003   0.0932004   0.0000000), wk =   0.0219479
        k(   67) = (   0.0699003   0.0932004   0.0330359), wk =   0.0438957
        k(   68) = (   0.0699003   0.0932004   0.0660718), wk =   0.0438957
        k(   69) = (   0.0699003   0.0932004   0.0991078), wk =   0.0438957
        k(   70) = (   0.0699003   0.0932004   0.1321437), wk =   0.0438957
        k(   71) = (   0.0932004   0.0932004   0.0000000), wk =   0.0109739
        k(   72) = (   0.0932004   0.0932004   0.0330359), wk =   0.0219479
        k(   73) = (   0.0932004   0.0932004   0.0660718), wk =   0.0219479
        k(   74) = (   0.0932004   0.0932004   0.0991078), wk =   0.0219479
        k(   75) = (   0.0932004   0.0932004   0.1321437), wk =   0.0219479

     Largest allocated arrays     est. size (Mb)     dimensions
     Largest temporary arrays     est. size (Mb)     dimensions

     Initial potential from superposition of free atoms
     Check: negative starting charge=   -0.277214

     starting charge   58.99522, renormalised to   60.00000

     negative rho (up, down):  2.819E-01 0.000E+00

     *
     * You are using vdW-DF for exchange-correlation in this calculation.
     * Please cite the following three references that made this development
     * possible:
     *
     *   M. Dion, H. Rydberg, E. Schroder, D. C. Langreth, and
     *   B. I. Lundqvist, Phys. Rev. Lett. 92, 246401 (2004).
     *
     *   T. Thonhauser, V. R. Cooper, S. Li, A. Puzder, P. Hyldgaard, and
     *   D. C. Langreth, Phys. Rev. B 76, 125112 (2007).
     *
     *   G. Roman-Perez and J. M. Soler, Phys. Rev. Lett. 103, 096102 (2009).
     *
     *
     * If you are using vdW-DF2, please also cite:
     *
     *   K. Lee, E. D. Murray, L. Kong, B. I. Lundqvist, and
     *   D. C. Langreth, Phys. Rev. B 82, 081101(R) (2010).
     *
     *
     * If you are calculating the stress with vdW-DF, please also cite:
     *
     *   R. Sabatini, E. Kucukbenli, B. Kolb, T. Thonhauser, and
     *   S. de Gironcoli, J. Phys.: Condens. Matter 24, 424209 (2012).
     *

     Carrying out vdW-DF run using the following parameters:

     Nqs =      20    Nr_points =    1024   r_max =   100.000
     q_mesh =
               0.00001000     0.04494208     0.09755937     0.15916263
               0.23128650     0.31572767     0.41458969     0.53033537
               0.66584808     0.82450364     1.01025438     1.22772762
               1.48234092     1.78043706     2.12944203     2.53805004
               3.01644009     3.57652955     4.23227104     5.00000000

     Gradients computed in reciprocal space

     Starting wfc are   44 randomized atomic wfcs +    6 random wfc

     Self-consistent Calculation

     iteration #  1     ecut=    58.80 Ry     beta=0.10
     Davidson diagonalization with overlap
     ethr =  1.00E-02,  avg # of iterations =  4.5

     Threshold (ethr) on eigenvalues was too large:
     Diagonalizing with lowered threshold

     Davidson diagonalization with overlap
     ethr =  5.70E-04,  avg # of iterations =  1.1

[...]

     total energy              =    -731.44000936 Ry
     Harris-Foulkes estimate   =    -731.49562851 Ry
     estimated scf accuracy    <       0.34052268 Ry

[...]

     total energy              =    -731.39592018 Ry
     Harris-Foulkes estimate   =    -731.39578473 Ry
     estimated scf accuracy    <       0.00000726 Ry

     iteration #  9     ecut=    58.80 Ry     beta=0.10
     Davidson diagonalization with overlap
     ethr =  1.21E-08,  avg # of iterations =  1.4

     negative rho (up, down):  2.626E-01 0.000E+00

     End of self-consistent calculation

          k = 0.0000 0.0000 0.0000 (  3891 PWs)   bands (ev):

   -67.4137 -67.4111 -26.7770 -26.7770 -26.7371 -26.7292 -26.7292 -26.7286
     1.0132   1.0167   1.0745   1.1903   1.2718   1.2718   1.3966   1.3992
     1.3992   1.5915   6.0317   9.8332  15.2089  15.2089  15.5287  15.5794
    15.5914  17.4186  17.4186  18.1396  18.1432  18.1432  19.0591  19.9092
    20.7000  21.1118  21.1118  21.1781  23.1063  25.3391  28.1330  28.1330
    29.3429  29.3781  29.9801  29.9975  31.4831  32.1826  32.1826  32.2278
    32.7110  36.3615

[...]

          k = 0.0932 0.0932 0.1321 (  3943 PWs)   bands (ev):

   -67.4112 -67.4111 -26.7852 -26.7848 -26.7769 -26.7755 -26.7222 -26.7208
     1.0834   1.0871   1.1916   1.2053   1.2669   1.2698   1.2726   1.2760
     1.5753   1.5849   9.7645   9.8499  14.5851  14.7375  15.1713  15.2381
    15.9002  16.0526  17.3391  17.4260  17.5118  17.5342  19.0898  19.0992
    19.8396  20.0162  20.8442  21.0002  25.2507  25.4093  28.0155  28.1066
    28.1309  28.2451  29.3467  29.3483  31.0421  31.2174  32.8261  32.9996
    36.2062  36.3018

     the Fermi energy is    18.5649 ev

!    total energy              =    -731.39649227 Ry
     Harris-Foulkes estimate   =    -731.39592097 Ry
     estimated scf accuracy    <       0.00000027 Ry

     The total energy is the sum of the following terms:

     one-electron contribution =    -105.88119061 Ry
     hartree contribution      =      98.74116697 Ry
     xc contribution           =    -208.52760002 Ry
     ewald contribution        =    -515.72496560 Ry
     smearing contrib. (-TS)   =      -0.00390301 Ry

     convergence has been achieved in   9 iterations

     Forces acting on atoms (Ry/au):

     negative rho (up, down):  2.626E-01 0.000E+00
     atom    1 type  1   force =     0.00000000    0.00000000    0.00000000
     atom    2 type  1   force =     0.00000000    0.00000000    0.00000000
     atom    3 type  2   force =     0.00000000    0.00000000    0.00000000
     atom    4 type  2   force =     0.00000000    0.00000000    0.00000000

     Total force =     0.000000     Total SCF correction =     0.000000

     General routines

     Parallel routines

   This run was terminated on:   1:12:26  15Nov2017

   JOB DONE.