     Program PWSCF v.5.1rc2 starts on 15Nov2017 at  3: 5:55

     Current dimensions of program PWSCF are:
     Max number of different atomic species (ntypx) = 10
     Max number of k-points (npk) =  40000
     Max angular momentum in pseudopotentials (lmaxx) =  3

     IMPORTANT: XC functional enforced from input :
     Exchange-correlation      = BEEF-VDW ( 1  4 27 13 2)
     Any further DFT definition will be discarded
     Please, verify this is what you really want

     Found symmetry operation: I + ( -0.5000 -0.5000  0.0000)
     This is a supercell, fractional translations are disabled

     bravais-lattice index     =            0
     lattice parameter (alat)  =       1.8897  a.u.
     unit-cell volume          =     410.4444 (a.u.)^3
     number of atoms/cell      =            4
     number of atomic types    =            2
     number of electrons       =        54.00
     number of Kohn-Sham states=           47
     kinetic-energy cutoff     =      58.7989  Ry
     charge density cutoff     =     587.9892  Ry
     convergence threshold     =      1.0E-06
     mixing beta               =       0.1000
     number of iterations used =           10  plain     mixing
     Exchange-correlation      = BEEF-VDW ( 1  4 27 13 2)

     celldm(1)=   1.889726  celldm(2)=   0.000000  celldm(3)=   0.000000
     celldm(4)=   0.000000  celldm(5)=   0.000000  celldm(6)=   0.000000

     crystal axes: (cart. coord. in units of alat)
               a(1) = (   4.414355   0.000000   0.000000 )
               a(2) = (   0.000000   4.414355   0.000000 )
               a(3) = (   0.000000   0.000000   3.121212 )

     reciprocal axes: (cart. coord. in units 2 pi/alat)
               b(1) = (  0.226534  0.000000  0.000000 )
               b(2) = (  0.000000  0.226534  0.000000 )
               b(3) = (  0.000000  0.000000  0.320388 )

     PseudoPot. # 1 for Sc read from file:
     /home/users/vossj/suncat/psp/gbrv1.5pbe/Sc.UPF
     MD5 check sum: db30a2753ba66ef00f23801d899b7e7f
     Pseudo is Ultrasoft + core correction, Zval = 11.0
     Generated by new atomic code, or converted to UPF format
     Using radial grid of  849 points,  6 beta functions with:
                l(1) =   0
                l(2) =   0
                l(3) =   1
                l(4) =   1
                l(5) =   2
                l(6) =   2
     Q(r) pseudized with  6 coefficients,  rinner =    1.200   1.200   1.200
                                                       1.200   1.200

     PseudoPot. # 2 for Fe read from file:
     /home/users/vossj/suncat/psp/gbrv1.5pbe/Fe.UPF
     MD5 check sum: a130daea23fe5165f5d574ae7f82ed95
     Pseudo is Ultrasoft + core correction, Zval = 16.0
     Generated by new atomic code, or converted to UPF format
     Using radial grid of  861 points,  6 beta functions with:
                l(1) =   0
                l(2) =   0
                l(3) =   1
                l(4) =   1
                l(5) =   2
                l(6) =   2
     Q(r) pseudized with  8 coefficients,  rinner =    1.000   1.000   1.000
                                                       1.000   1.000

     vdW kernel table read from file vdW_kernel_table
     MD5 check sum: 095c7af220d748ca6e76c0b4c6cfb241

     atomic species   valence    mass     pseudopotential
        Sc1           11.00    44.95590     Sc( 1.00)
        Fe1           16.00    55.84700     Fe( 1.00)

     16 Sym. Ops., with inversion, found

   Cartesian axes

     site n.     atom                  positions (alat units)
         1           Sc1 tau(   1) = (   0.0000000   0.0000000   0.0000000  )
         2           Sc1 tau(   2) = (   2.2071773   2.2071773   0.0000000  )
         3           Fe1 tau(   3) = (   2.2071773   0.0000000   1.5606062  )
         4           Fe1 tau(   4) = (   0.0000000   2.2071773   1.5606062  )

     number of k points=    75  Fermi-Dirac smearing, width (Ry)=  0.0073
                       cart. coord. in units 2pi/alat
        k(    1) = (   0.0000000   0.0000000   0.0000000), wk =   0.0027435
        k(    2) = (   0.0000000   0.0000000   0.0355987), wk =   0.0054870
        k(    3) = (   0.0000000   0.0000000   0.0711974), wk =   0.0054870
        k(    4) = (   0.0000000   0.0000000   0.1067961), wk =   0.0054870
        k(    5) = (   0.0000000   0.0000000   0.1423948), wk =   0.0054870
        k(    6) = (   0.0000000   0.0251704   0.0000000), wk =   0.0109739
        k(    7) = (   0.0000000   0.0251704   0.0355987), wk =   0.0219479
        k(    8) = (   0.0000000   0.0251704   0.0711974), wk =   0.0219479
        k(    9) = (   0.0000000   0.0251704   0.1067961), wk =   0.0219479
        k(   10) = (   0.0000000   0.0251704   0.1423948), wk =   0.0219479
        k(   11) = (   0.0000000   0.0503408   0.0000000), wk =   0.0109739
        k(   12) = (   0.0000000   0.0503408   0.0355987), wk =   0.0219479
        k(   13) = (   0.0000000   0.0503408   0.0711974), wk =   0.0219479
        k(   14) = (   0.0000000   0.0503408   0.1067961), wk =   0.0219479
        k(   15) = (   0.0000000   0.0503408   0.1423948), wk =   0.0219479
        k(   16) = (   0.0000000   0.0755112   0.0000000), wk =   0.0109739
        k(   17) = (   0.0000000   0.0755112   0.0355987), wk =   0.0219479
        k(   18) = (   0.0000000   0.0755112   0.0711974), wk =   0.0219479
        k(   19) = (   0.0000000   0.0755112   0.1067961), wk =   0.0219479
        k(   20) = (   0.0000000   0.0755112   0.1423948), wk =   0.0219479
        k(   21) = (   0.0000000   0.1006816   0.0000000), wk =   0.0109739
        k(   22) = (   0.0000000   0.1006816   0.0355987), wk =   0.0219479
        k(   23) = (   0.0000000   0.1006816   0.0711974), wk =   0.0219479
        k(   24) = (   0.0000000   0.1006816   0.1067961), wk =   0.0219479
        k(   25) = (   0.0000000   0.1006816   0.1423948), wk =   0.0219479
        k(   26) = (   0.0251704   0.0251704   0.0000000), wk =   0.0109739
        k(   27) = (   0.0251704   0.0251704   0.0355987), wk =   0.0219479
        k(   28) = (   0.0251704   0.0251704   0.0711974), wk =   0.0219479
        k(   29) = (   0.0251704   0.0251704   0.1067961), wk =   0.0219479
        k(   30) = (   0.0251704   0.0251704   0.1423948), wk =   0.0219479
        k(   31) = (   0.0251704   0.0503408   0.0000000), wk =   0.0219479
        k(   32) = (   0.0251704   0.0503408   0.0355987), wk =   0.0438957
        k(   33) = (   0.0251704   0.0503408   0.0711974), wk =   0.0438957
        k(   34) = (   0.0251704   0.0503408   0.1067961), wk =   0.0438957
        k(   35) = (   0.0251704   0.0503408   0.1423948), wk =   0.0438957
        k(   36) = (   0.0251704   0.0755112   0.0000000), wk =   0.0219479
        k(   37) = (   0.0251704   0.0755112   0.0355987), wk =   0.0438957
        k(   38) = (   0.0251704   0.0755112   0.0711974), wk =   0.0438957
        k(   39) = (   0.0251704   0.0755112   0.1067961), wk =   0.0438957
        k(   40) = (   0.0251704   0.0755112   0.1423948), wk =   0.0438957
        k(   41) = (   0.0251704   0.1006816   0.0000000), wk =   0.0219479
        k(   42) = (   0.0251704   0.1006816   0.0355987), wk =   0.0438957
        k(   43) = (   0.0251704   0.1006816   0.0711974), wk =   0.0438957
        k(   44) = (   0.0251704   0.1006816   0.1067961), wk =   0.0438957
        k(   45) = (   0.0251704   0.1006816   0.1423948), wk =   0.0438957
        k(   46) = (   0.0503408   0.0503408   0.0000000), wk =   0.0109739
        k(   47) = (   0.0503408   0.0503408   0.0355987), wk =   0.0219479
        k(   48) = (   0.0503408   0.0503408   0.0711974), wk =   0.0219479
        k(   49) = (   0.0503408   0.0503408   0.1067961), wk =   0.0219479
        k(   50) = (   0.0503408   0.0503408   0.1423948), wk =   0.0219479
        k(   51) = (   0.0503408   0.0755112   0.0000000), wk =   0.0219479
        k(   52) = (   0.0503408   0.0755112   0.0355987), wk =   0.0438957
        k(   53) = (   0.0503408   0.0755112   0.0711974), wk =   0.0438957
        k(   54) = (   0.0503408   0.0755112   0.1067961), wk =   0.0438957
        k(   55) = (   0.0503408   0.0755112   0.1423948), wk =   0.0438957
        k(   56) = (   0.0503408   0.1006816   0.0000000), wk =   0.0219479
        k(   57) = (   0.0503408   0.1006816   0.0355987), wk =   0.0438957
        k(   58) = (   0.0503408   0.1006816   0.0711974), wk =   0.0438957
        k(   59) = (   0.0503408   0.1006816   0.1067961), wk =   0.0438957
        k(   60) = (   0.0503408   0.1006816   0.1423948), wk =   0.0438957
        k(   61) = (   0.0755112   0.0755112   0.0000000), wk =   0.0109739
        k(   62) = (   0.0755112   0.0755112   0.0355987), wk =   0.0219479
        k(   63) = (   0.0755112   0.0755112   0.0711974), wk =   0.0219479
        k(   64) = (   0.0755112   0.0755112   0.1067961), wk =   0.0219479
        k(   65) = (   0.0755112   0.0755112   0.1423948), wk =   0.0219479
        k(   66) = (   0.0755112   0.1006816   0.0000000), wk =   0.0219479
        k(   67) = (   0.0755112   0.1006816   0.0355987), wk =   0.0438957
        k(   68) = (   0.0755112   0.1006816   0.0711974), wk =   0.0438957
        k(   69) = (   0.0755112   0.1006816   0.1067961), wk =   0.0438957
        k(   70) = (   0.0755112   0.1006816   0.1423948), wk =   0.0438957
        k(   71) = (   0.1006816   0.1006816   0.0000000), wk =   0.0109739
        k(   72) = (   0.1006816   0.1006816   0.0355987), wk =   0.0219479
        k(   73) = (   0.1006816   0.1006816   0.0711974), wk =   0.0219479
        k(   74) = (   0.1006816   0.1006816   0.1067961), wk =   0.0219479
        k(   75) = (   0.1006816   0.1006816   0.1423948), wk =   0.0219479

     Largest allocated arrays     est. size (Mb)     dimensions
     Largest temporary arrays     est. size (Mb)     dimensions

     Check: negative/imaginary core charge=   -0.000030    0.000000

     Initial potential from superposition of free atoms

     starting charge   51.99518, renormalised to   54.00000

     *
     * You are using vdW-DF for exchange-correlation in this calculation.
     * Please cite the following three references that made this development
     * possible:
     *
     *   M. Dion, H. Rydberg, E. Schroder, D. C. Langreth, and
     *   B. I. Lundqvist, Phys. Rev. Lett. 92, 246401 (2004).
     *
     *   T. Thonhauser, V. R. Cooper, S. Li, A. Puzder, P. Hyldgaard, and
     *   D. C. Langreth, Phys. Rev. B 76, 125112 (2007).
     *
     *   G. Roman-Perez and J. M. Soler, Phys. Rev. Lett. 103, 096102 (2009).
     *
     *
     * If you are using vdW-DF2, please also cite:
     *
     *   K. Lee, E. D. Murray, L. Kong, B. I. Lundqvist, and
     *   D. C. Langreth, Phys. Rev. B 82, 081101(R) (2010).
     *
     *
     * If you are calculating the stress with vdW-DF, please also cite:
     *
     *   R. Sabatini, E. Kucukbenli, B. Kolb, T. Thonhauser, and
     *   S. de Gironcoli, J. Phys.: Condens. Matter 24, 424209 (2012).
     *

     Carrying out vdW-DF run using the following parameters:

     Nqs =      20    Nr_points =    1024   r_max =   100.000
     q_mesh =
               0.00001000     0.04494208     0.09755937     0.15916263
               0.23128650     0.31572767     0.41458969     0.53033537
               0.66584808     0.82450364     1.01025438     1.22772762
               1.48234092     1.78043706     2.12944203     2.53805004
               3.01644009     3.57652955     4.23227104     5.00000000

     Gradients computed in reciprocal space

     Starting wfc are   52 randomized atomic wfcs

     Self-consistent Calculation

     iteration #  1     ecut=    58.80 Ry     beta=0.10
     Davidson diagonalization with overlap
     ethr =  1.00E-02,  avg # of iterations =  3.8

     total energy              =    -692.59048015 Ry
     Harris-Foulkes estimate   =    -692.73561193 Ry
     estimated scf accuracy    <       0.88654055 Ry

[...]

     total energy              =    -692.41731128 Ry
     Harris-Foulkes estimate   =    -692.41730779 Ry
     estimated scf accuracy    <       0.00000510 Ry

     iteration # 12     ecut=    58.80 Ry     beta=0.10
     Davidson diagonalization with overlap
     ethr =  9.44E-09,  avg # of iterations =  1.1

     End of self-consistent calculation

          k = 0.0000 0.0000 0.0000 (  3147 PWs)   bands (ev):

   -72.3734 -72.3707 -38.4483 -38.4483 -38.4290 -38.4276 -38.4276 -38.4251
   -34.7378 -34.6666 -13.4960 -13.4960 -13.1983 -13.1980 -13.1980 -13.1382
     7.7485  10.8977  11.5135  11.5139  11.5265  12.8088  12.8088  13.6534
    13.6534  13.6539  14.4542  15.0051  15.4624  15.4624  16.3117  16.3128
    16.7867  18.3114  18.3114  18.6500  18.6500  18.6501  19.1554  23.0913
    23.0913  23.0934  23.5105  23.8279  29.1033  29.1195  29.1196

[...]

          k = 0.1007 0.1007 0.1424 (  3156 PWs)   bands (ev):

   -72.3708 -72.3707 -38.4492 -38.4489 -38.4484 -38.4478 -38.4245 -38.4239
   -34.6683 -34.6664 -13.4968 -13.4897 -13.4874 -13.4859 -13.1490 -13.1400
    10.9293  10.9639  11.5531  11.5774  12.8204  12.8247  12.8342  12.8702
    14.2051  14.2928  14.6525  14.8827  15.2131  15.5293  15.6088  15.6499
    16.7807  16.8207  18.2047  18.3158  18.4091  18.4186  19.2187  19.2377
    23.5409  23.5649  23.9220  24.0982  28.6292  29.1147  29.1465

     the Fermi energy is    13.7706 ev

!    total energy              =    -692.41733014 Ry
     Harris-Foulkes estimate   =    -692.41731176 Ry
     estimated scf accuracy    <       0.00000005 Ry

     The total energy is the sum of the following terms:

     one-electron contribution =    -340.17203305 Ry
     hartree contribution      =     194.71045247 Ry
     xc contribution           =     -88.53671671 Ry
     ewald contribution        =    -458.40230693 Ry
     smearing contrib. (-TS)   =      -0.01672593 Ry

     convergence has been achieved in  12 iterations

     Forces acting on atoms (Ry/au):

     atom    1 type  1   force =     0.00000000    0.00000000    0.00000000
     atom    2 type  1   force =     0.00000000    0.00000000    0.00000000
     atom    3 type  2   force =     0.00000000    0.00000000    0.00000000
     atom    4 type  2   force =     0.00000000    0.00000000    0.00000000

     Total force =     0.000000     Total SCF correction =     0.000000

     General routines

     Parallel routines

   This run was terminated on:   3: 6:28  15Nov2017

   JOB DONE.