     Program PWSCF v.5.1rc2 starts on 14Nov2017 at  9:31:16

     Current dimensions of program PWSCF are:
     Max number of different atomic species (ntypx) = 10
     Max number of k-points (npk) =  40000
     Max angular momentum in pseudopotentials (lmaxx) =  3

     IMPORTANT: XC functional enforced from input :
     Exchange-correlation      = BEEF-VDW ( 1  4 27 13 2)
     Any further DFT definition will be discarded
     Please, verify this is what you really want

     Found symmetry operation: I + ( -0.5000 -0.5000  0.0000)
     This is a supercell, fractional translations are disabled

     bravais-lattice index     =            0
     lattice parameter (alat)  =       1.8897  a.u.
     unit-cell volume          =     438.7418 (a.u.)^3
     number of atoms/cell      =            4
     number of atomic types    =            2
     number of electrons       =        66.00
     number of Kohn-Sham states=           53
     kinetic-energy cutoff     =      58.7989  Ry
     charge density cutoff     =     587.9892  Ry
     convergence threshold     =      1.0E-06
     mixing beta               =       0.1000
     number of iterations used =           10  plain     mixing
     Exchange-correlation      = BEEF-VDW ( 1  4 27 13 2)

     celldm(1)=   1.889726  celldm(2)=   0.000000  celldm(3)=   0.000000
     celldm(4)=   0.000000  celldm(5)=   0.000000  celldm(6)=   0.000000

     crystal axes: (cart. coord. in units of alat)
               a(1) = (   4.032640   0.000000   0.000000 )
               a(2) = (   0.000000   4.032640   0.000000 )
               a(3) = (   0.000000   0.000000   3.997915 )

     reciprocal axes: (cart. coord. in units 2 pi/alat)
               b(1) = (  0.247977  0.000000  0.000000 )
               b(2) = (  0.000000  0.247977  0.000000 )
               b(3) = (  0.000000  0.000000  0.250130 )

     PseudoPot. # 1 for Zn read from file:
     /home/users/vossj/suncat/psp/gbrv1.5pbe/Zn.UPF
     MD5 check sum: df62231357ef9e81f77b2b3087fa5675
     Pseudo is Ultrasoft, Zval = 20.0
     Generated by new atomic code, or converted to UPF format
     Using radial grid of  943 points,  6 beta functions with:
                l(1) =   0
                l(2) =   0
                l(3) =   1
                l(4) =   1
                l(5) =   2
                l(6) =   2
     Q(r) pseudized with  8 coefficients,  rinner =    1.100   1.100   1.100
                                                       1.100   1.100

     PseudoPot. # 2 for Nb read from file:
     /home/users/vossj/suncat/psp/gbrv1.5pbe/Nb.UPF
     MD5 check sum: 573aab8a2fa660278ed4a62cd769473f
     Pseudo is Ultrasoft + core correction, Zval = 13.0
     Generated by new atomic code, or converted to UPF format
     Using radial grid of  887 points,  6 beta functions with:
                l(1) =   0
                l(2) =   0
                l(3) =   1
                l(4) =   1
                l(5) =   2
                l(6) =   2
     Q(r) pseudized with  6 coefficients,  rinner =    1.000   1.000   1.000
                                                       1.000   1.000

     vdW kernel table read from file vdW_kernel_table
     MD5 check sum: 095c7af220d748ca6e76c0b4c6cfb241

     atomic species   valence    mass     pseudopotential
        Zn1           20.00    65.39000     Zn( 1.00)
        Nb1           13.00    92.90640     Nb( 1.00)

     16 Sym. Ops., with inversion, found

   Cartesian axes

     site n.     atom                  positions (alat units)
         1           Zn1 tau(   1) = (   0.0000000   0.0000000   0.0000000  )
         2           Zn1 tau(   2) = (   2.0163200   2.0163200   0.0000000  )
         3           Nb1 tau(   3) = (   2.0163200   0.0000000   1.9989574  )
         4           Nb1 tau(   4) = (   0.0000000   2.0163200   1.9989574  )

     number of k points=    75  Fermi-Dirac smearing, width (Ry)=  0.0073
                       cart. coord. in units 2pi/alat
        k(    1) = (   0.0000000   0.0000000   0.0000000), wk =   0.0027435
        k(    2) = (   0.0000000   0.0000000   0.0277923), wk =   0.0054870
        k(    3) = (   0.0000000   0.0000000   0.0555845), wk =   0.0054870
        k(    4) = (   0.0000000   0.0000000   0.0833768), wk =   0.0054870
        k(    5) = (   0.0000000   0.0000000   0.1111691), wk =   0.0054870
        k(    6) = (   0.0000000   0.0275529   0.0000000), wk =   0.0109739
        k(    7) = (   0.0000000   0.0275529   0.0277923), wk =   0.0219479
        k(    8) = (   0.0000000   0.0275529   0.0555845), wk =   0.0219479
        k(    9) = (   0.0000000   0.0275529   0.0833768), wk =   0.0219479
        k(   10) = (   0.0000000   0.0275529   0.1111691), wk =   0.0219479
        k(   11) = (   0.0000000   0.0551059   0.0000000), wk =   0.0109739
        k(   12) = (   0.0000000   0.0551059   0.0277923), wk =   0.0219479
        k(   13) = (   0.0000000   0.0551059   0.0555845), wk =   0.0219479
        k(   14) = (   0.0000000   0.0551059   0.0833768), wk =   0.0219479
        k(   15) = (   0.0000000   0.0551059   0.1111691), wk =   0.0219479
        k(   16) = (   0.0000000   0.0826588   0.0000000), wk =   0.0109739
        k(   17) = (   0.0000000   0.0826588   0.0277923), wk =   0.0219479
        k(   18) = (   0.0000000   0.0826588   0.0555845), wk =   0.0219479
        k(   19) = (   0.0000000   0.0826588   0.0833768), wk =   0.0219479
        k(   20) = (   0.0000000   0.0826588   0.1111691), wk =   0.0219479
        k(   21) = (   0.0000000   0.1102118   0.0000000), wk =   0.0109739
        k(   22) = (   0.0000000   0.1102118   0.0277923), wk =   0.0219479
        k(   23) = (   0.0000000   0.1102118   0.0555845), wk =   0.0219479
        k(   24) = (   0.0000000   0.1102118   0.0833768), wk =   0.0219479
        k(   25) = (   0.0000000   0.1102118   0.1111691), wk =   0.0219479
        k(   26) = (   0.0275529   0.0275529   0.0000000), wk =   0.0109739
        k(   27) = (   0.0275529   0.0275529   0.0277923), wk =   0.0219479
        k(   28) = (   0.0275529   0.0275529   0.0555845), wk =   0.0219479
        k(   29) = (   0.0275529   0.0275529   0.0833768), wk =   0.0219479
        k(   30) = (   0.0275529   0.0275529   0.1111691), wk =   0.0219479
        k(   31) = (   0.0275529   0.0551059   0.0000000), wk =   0.0219479
        k(   32) = (   0.0275529   0.0551059   0.0277923), wk =   0.0438957
        k(   33) = (   0.0275529   0.0551059   0.0555845), wk =   0.0438957
        k(   34) = (   0.0275529   0.0551059   0.0833768), wk =   0.0438957
        k(   35) = (   0.0275529   0.0551059   0.1111691), wk =   0.0438957
        k(   36) = (   0.0275529   0.0826588   0.0000000), wk =   0.0219479
        k(   37) = (   0.0275529   0.0826588   0.0277923), wk =   0.0438957
        k(   38) = (   0.0275529   0.0826588   0.0555845), wk =   0.0438957
        k(   39) = (   0.0275529   0.0826588   0.0833768), wk =   0.0438957
        k(   40) = (   0.0275529   0.0826588   0.1111691), wk =   0.0438957
        k(   41) = (   0.0275529   0.1102118   0.0000000), wk =   0.0219479
        k(   42) = (   0.0275529   0.1102118   0.0277923), wk =   0.0438957
        k(   43) = (   0.0275529   0.1102118   0.0555845), wk =   0.0438957
        k(   44) = (   0.0275529   0.1102118   0.0833768), wk =   0.0438957
        k(   45) = (   0.0275529   0.1102118   0.1111691), wk =   0.0438957
        k(   46) = (   0.0551059   0.0551059   0.0000000), wk =   0.0109739
        k(   47) = (   0.0551059   0.0551059   0.0277923), wk =   0.0219479
        k(   48) = (   0.0551059   0.0551059   0.0555845), wk =   0.0219479
        k(   49) = (   0.0551059   0.0551059   0.0833768), wk =   0.0219479
        k(   50) = (   0.0551059   0.0551059   0.1111691), wk =   0.0219479
        k(   51) = (   0.0551059   0.0826588   0.0000000), wk =   0.0219479
        k(   52) = (   0.0551059   0.0826588   0.0277923), wk =   0.0438957
        k(   53) = (   0.0551059   0.0826588   0.0555845), wk =   0.0438957
        k(   54) = (   0.0551059   0.0826588   0.0833768), wk =   0.0438957
        k(   55) = (   0.0551059   0.0826588   0.1111691), wk =   0.0438957
        k(   56) = (   0.0551059   0.1102118   0.0000000), wk =   0.0219479
        k(   57) = (   0.0551059   0.1102118   0.0277923), wk =   0.0438957
        k(   58) = (   0.0551059   0.1102118   0.0555845), wk =   0.0438957
        k(   59) = (   0.0551059   0.1102118   0.0833768), wk =   0.0438957
        k(   60) = (   0.0551059   0.1102118   0.1111691), wk =   0.0438957
        k(   61) = (   0.0826588   0.0826588   0.0000000), wk =   0.0109739
        k(   62) = (   0.0826588   0.0826588   0.0277923), wk =   0.0219479
        k(   63) = (   0.0826588   0.0826588   0.0555845), wk =   0.0219479
        k(   64) = (   0.0826588   0.0826588   0.0833768), wk =   0.0219479
        k(   65) = (   0.0826588   0.0826588   0.1111691), wk =   0.0219479
        k(   66) = (   0.0826588   0.1102118   0.0000000), wk =   0.0219479
        k(   67) = (   0.0826588   0.1102118   0.0277923), wk =   0.0438957
        k(   68) = (   0.0826588   0.1102118   0.0555845), wk =   0.0438957
        k(   69) = (   0.0826588   0.1102118   0.0833768), wk =   0.0438957
        k(   70) = (   0.0826588   0.1102118   0.1111691), wk =   0.0438957
        k(   71) = (   0.1102118   0.1102118   0.0000000), wk =   0.0109739
        k(   72) = (   0.1102118   0.1102118   0.0277923), wk =   0.0219479
        k(   73) = (   0.1102118   0.1102118   0.0555845), wk =   0.0219479
        k(   74) = (   0.1102118   0.1102118   0.0833768), wk =   0.0219479
        k(   75) = (   0.1102118   0.1102118   0.1111691), wk =   0.0219479

     Largest allocated arrays     est. size (Mb)     dimensions
     Largest temporary arrays     est. size (Mb)     dimensions

     Initial potential from superposition of free atoms

     starting charge   65.99425, renormalised to   66.00000

     *
     * You are using vdW-DF for exchange-correlation in this calculation.
     * Please cite the following three references that made this development
     * possible:
     *
     *   M. Dion, H. Rydberg, E. Schroder, D. C. Langreth, and
     *   B. I. Lundqvist, Phys. Rev. Lett. 92, 246401 (2004).
     *
     *   T. Thonhauser, V. R. Cooper, S. Li, A. Puzder, P. Hyldgaard, and
     *   D. C. Langreth, Phys. Rev. B 76, 125112 (2007).
     *
     *   G. Roman-Perez and J. M. Soler, Phys. Rev. Lett. 103, 096102 (2009).
     *
     *
     * If you are using vdW-DF2, please also cite:
     *
     *   K. Lee, E. D. Murray, L. Kong, B. I. Lundqvist, and
     *   D. C. Langreth, Phys. Rev. B 82, 081101(R) (2010).
     *
     *
     * If you are calculating the stress with vdW-DF, please also cite:
     *
     *   R. Sabatini, E. Kucukbenli, B. Kolb, T. Thonhauser, and
     *   S. de Gironcoli, J. Phys.: Condens. Matter 24, 424209 (2012).
     *

     Carrying out vdW-DF run using the following parameters:

     Nqs =      20    Nr_points =    1024   r_max =   100.000
     q_mesh =
               0.00001000     0.04494208     0.09755937     0.15916263
               0.23128650     0.31572767     0.41458969     0.53033537
               0.66584808     0.82450364     1.01025438     1.22772762
               1.48234092     1.78043706     2.12944203     2.53805004
               3.01644009     3.57652955     4.23227104     5.00000000

     Gradients computed in reciprocal space

     Starting wfc are   52 randomized atomic wfcs +    1 random wfc

     Self-consistent Calculation

     iteration #  1     ecut=    58.80 Ry     beta=0.10
     Davidson diagonalization with overlap
     ethr =  1.00E-02,  avg # of iterations =  4.5

     Threshold (ethr) on eigenvalues was too large:
     Diagonalizing with lowered threshold

     Davidson diagonalization with overlap
     ethr =  3.66E-04,  avg # of iterations =  1.3

     total energy              =   -1162.77845568 Ry
     Harris-Foulkes estimate   =   -1162.80594316 Ry
     estimated scf accuracy    <       0.23763570 Ry

[...]

     total energy              =   -1162.74826287 Ry
     Harris-Foulkes estimate   =   -1162.74827024 Ry
     estimated scf accuracy    <       0.00002206 Ry

     iteration # 10     ecut=    58.80 Ry     beta=0.10
     Davidson diagonalization with overlap
     ethr =  1.95E-08,  avg # of iterations =  2.0

     End of self-consistent calculation

          k = 0.0000 0.0000 0.0000 (  3351 PWs)   bands (ev):

  -110.1897-110.1888 -64.3648 -64.3648 -64.3576 -64.3576 -64.3462 -64.3450
   -39.0766 -38.8684 -15.3464 -15.3464 -15.2055 -14.9903 -14.5549 -14.5549
     7.6085   8.3714   8.4453   8.5502   8.5572   8.5572   8.7249   9.0157
     9.0157   9.2034   9.4267  12.4007  13.9636  14.0147  16.0602  16.0602
    16.7234  17.0709  17.0709  17.5140  18.7054  18.7054  20.2343  21.9364
    22.2117  22.8927  25.5204  25.6082  25.6082  26.2737  27.8872  27.8872
    30.9216  30.9630  31.2396  32.6647  33.9805

[...]

          k = 0.1102 0.1102 0.1112 (  3341 PWs)   bands (ev):

  -110.1892-110.1892 -64.3653 -64.3651 -64.3573 -64.3571 -64.3456 -64.3456
   -38.9727 -38.9664 -15.4681 -15.4457 -15.1298 -15.1228 -14.4973 -14.4720
     8.4988   8.5268   8.5356   8.5395   8.9307   8.9514   9.0085   9.0112
     9.0362   9.0432  11.4143  11.5547  14.2836  14.4044  14.8528  14.8675
    15.8832  16.1628  17.8492  18.1248  18.3077  18.3169  18.8330  18.9305
    21.6574  21.7930  24.6932  24.7213  28.8833  29.5722  29.9377  30.0982
    30.2931  30.4005  31.9361  32.2936  34.3098

     the Fermi energy is    16.0318 ev

!    total energy              =   -1162.74827302 Ry
     Harris-Foulkes estimate   =   -1162.74826698 Ry
     estimated scf accuracy    <       0.00000016 Ry

     The total energy is the sum of the following terms:

     one-electron contribution =    -795.91871088 Ry
     hartree contribution      =     430.03718580 Ry
     xc contribution           =    -125.13986944 Ry
     ewald contribution        =    -671.72192857 Ry
     smearing contrib. (-TS)   =      -0.00494993 Ry

     convergence has been achieved in  10 iterations

     Forces acting on atoms (Ry/au):

     atom    1 type  1   force =     0.00000000    0.00000000    0.00000000
     atom    2 type  1   force =     0.00000000    0.00000000    0.00000000
     atom    3 type  2   force =     0.00000000    0.00000000    0.00000000
     atom    4 type  2   force =     0.00000000    0.00000000    0.00000000

     Total force =     0.000000     Total SCF correction =     0.000000

     General routines

     Parallel routines

   This run was terminated on:   9:31:54  14Nov2017

   JOB DONE.