     Program PWSCF v.5.1rc2 starts on 15Nov2017 at  5:21:27

     Current dimensions of program PWSCF are:
     Max number of different atomic species (ntypx) = 10
     Max number of k-points (npk) =  40000
     Max angular momentum in pseudopotentials (lmaxx) =  3

     IMPORTANT: XC functional enforced from input :
     Exchange-correlation      = BEEF-VDW ( 1  4 27 13 2)
     Any further DFT definition will be discarded
     Please, verify this is what you really want

     Found symmetry operation: I + ( -0.5000 -0.5000  0.0000)
     This is a supercell, fractional translations are disabled

     bravais-lattice index     =            0
     lattice parameter (alat)  =       1.8897  a.u.
     unit-cell volume          =     596.3863 (a.u.)^3
     number of atoms/cell      =            4
     number of atomic types    =            2
     number of electrons       =        52.00
     number of Kohn-Sham states=           46
     kinetic-energy cutoff     =      58.7989  Ry
     charge density cutoff     =     587.9892  Ry
     convergence threshold     =      1.0E-06
     mixing beta               =       0.1000
     number of iterations used =           10  plain     mixing
     Exchange-correlation      = BEEF-VDW ( 1  4 27 13 2)

     celldm(1)=   1.889726  celldm(2)=   0.000000  celldm(3)=   0.000000
     celldm(4)=   0.000000  celldm(5)=   0.000000  celldm(6)=   0.000000

     crystal axes: (cart. coord. in units of alat)
               a(1) = (   4.541481   0.000000   0.000000 )
               a(2) = (   0.000000   4.541481   0.000000 )
               a(3) = (   0.000000   0.000000   4.284854 )

     reciprocal axes: (cart. coord. in units 2 pi/alat)
               b(1) = (  0.220192  0.000000  0.000000 )
               b(2) = (  0.000000  0.220192  0.000000 )
               b(3) = (  0.000000  0.000000  0.233380 )

     PseudoPot. # 1 for Sn read from file:
     /home/users/vossj/suncat/psp/gbrv1.5pbe/Sn.UPF
     MD5 check sum: 469debedee59599fedebd795477fea03
     Pseudo is Ultrasoft + core correction, Zval = 14.0
     Generated by new atomic code, or converted to UPF format
     Using radial grid of  891 points,  6 beta functions with:
                l(1) =   0
                l(2) =   0
                l(3) =   1
                l(4) =   1
                l(5) =   2
                l(6) =   2
     Q(r) pseudized with  8 coefficients,  rinner =    1.350   1.350   1.350
                                                       1.350   1.350

     PseudoPot. # 2 for Hf read from file:
     /home/users/vossj/suncat/psp/gbrv1.5pbe/Hf.UPF
     MD5 check sum: 8ee9378dfe14276e333edf04c5e4aa26
     Pseudo is Ultrasoft + core correction, Zval = 12.0
     Generated by new atomic code, or converted to UPF format
     Using radial grid of  921 points,  8 beta functions with:
                l(1) =   0
                l(2) =   0
                l(3) =   0
                l(4) =   1
                l(5) =   1
                l(6) =   2
                l(7) =   2
                l(8) =   3
     Q(r) pseudized with  6 coefficients,  rinner =    1.200   1.200   1.200
                                                       1.200   1.200   1.200
                                                       1.200

     vdW kernel table read from file vdW_kernel_table
     MD5 check sum: 095c7af220d748ca6e76c0b4c6cfb241

     atomic species   valence    mass     pseudopotential
        Sn1           14.00   118.71000     Sn( 1.00)
        Hf1           12.00   178.49000     Hf( 1.00)

     16 Sym. Ops., with inversion, found

   Cartesian axes

     site n.     atom                  positions (alat units)
         1           Sn1 tau(   1) = (   0.0000000   0.0000000   0.0000000  )
         2           Sn1 tau(   2) = (   2.2707405   2.2707405   0.0000000  )
         3           Hf1 tau(   3) = (   2.2707405   0.0000000   2.1424272  )
         4           Hf1 tau(   4) = (   0.0000000   2.2707405   2.1424272  )

     number of k points=    75  Fermi-Dirac smearing, width (Ry)=  0.0073
                       cart. coord. in units 2pi/alat
        k(    1) = (   0.0000000   0.0000000   0.0000000), wk =   0.0027435
        k(    2) = (   0.0000000   0.0000000   0.0259311), wk =   0.0054870
        k(    3) = (   0.0000000   0.0000000   0.0518623), wk =   0.0054870
        k(    4) = (   0.0000000   0.0000000   0.0777934), wk =   0.0054870
        k(    5) = (   0.0000000   0.0000000   0.1037245), wk =   0.0054870
        k(    6) = (   0.0000000   0.0244658   0.0000000), wk =   0.0109739
        k(    7) = (   0.0000000   0.0244658   0.0259311), wk =   0.0219479
        k(    8) = (   0.0000000   0.0244658   0.0518623), wk =   0.0219479
        k(    9) = (   0.0000000   0.0244658   0.0777934), wk =   0.0219479
        k(   10) = (   0.0000000   0.0244658   0.1037245), wk =   0.0219479
        k(   11) = (   0.0000000   0.0489317   0.0000000), wk =   0.0109739
        k(   12) = (   0.0000000   0.0489317   0.0259311), wk =   0.0219479
        k(   13) = (   0.0000000   0.0489317   0.0518623), wk =   0.0219479
        k(   14) = (   0.0000000   0.0489317   0.0777934), wk =   0.0219479
        k(   15) = (   0.0000000   0.0489317   0.1037245), wk =   0.0219479
        k(   16) = (   0.0000000   0.0733975   0.0000000), wk =   0.0109739
        k(   17) = (   0.0000000   0.0733975   0.0259311), wk =   0.0219479
        k(   18) = (   0.0000000   0.0733975   0.0518623), wk =   0.0219479
        k(   19) = (   0.0000000   0.0733975   0.0777934), wk =   0.0219479
        k(   20) = (   0.0000000   0.0733975   0.1037245), wk =   0.0219479
        k(   21) = (   0.0000000   0.0978633   0.0000000), wk =   0.0109739
        k(   22) = (   0.0000000   0.0978633   0.0259311), wk =   0.0219479
        k(   23) = (   0.0000000   0.0978633   0.0518623), wk =   0.0219479
        k(   24) = (   0.0000000   0.0978633   0.0777934), wk =   0.0219479
        k(   25) = (   0.0000000   0.0978633   0.1037245), wk =   0.0219479
        k(   26) = (   0.0244658   0.0244658   0.0000000), wk =   0.0109739
        k(   27) = (   0.0244658   0.0244658   0.0259311), wk =   0.0219479
        k(   28) = (   0.0244658   0.0244658   0.0518623), wk =   0.0219479
        k(   29) = (   0.0244658   0.0244658   0.0777934), wk =   0.0219479
        k(   30) = (   0.0244658   0.0244658   0.1037245), wk =   0.0219479
        k(   31) = (   0.0244658   0.0489317   0.0000000), wk =   0.0219479
        k(   32) = (   0.0244658   0.0489317   0.0259311), wk =   0.0438957
        k(   33) = (   0.0244658   0.0489317   0.0518623), wk =   0.0438957
        k(   34) = (   0.0244658   0.0489317   0.0777934), wk =   0.0438957
        k(   35) = (   0.0244658   0.0489317   0.1037245), wk =   0.0438957
        k(   36) = (   0.0244658   0.0733975   0.0000000), wk =   0.0219479
        k(   37) = (   0.0244658   0.0733975   0.0259311), wk =   0.0438957
        k(   38) = (   0.0244658   0.0733975   0.0518623), wk =   0.0438957
        k(   39) = (   0.0244658   0.0733975   0.0777934), wk =   0.0438957
        k(   40) = (   0.0244658   0.0733975   0.1037245), wk =   0.0438957
        k(   41) = (   0.0244658   0.0978633   0.0000000), wk =   0.0219479
        k(   42) = (   0.0244658   0.0978633   0.0259311), wk =   0.0438957
        k(   43) = (   0.0244658   0.0978633   0.0518623), wk =   0.0438957
        k(   44) = (   0.0244658   0.0978633   0.0777934), wk =   0.0438957
        k(   45) = (   0.0244658   0.0978633   0.1037245), wk =   0.0438957
        k(   46) = (   0.0489317   0.0489317   0.0000000), wk =   0.0109739
        k(   47) = (   0.0489317   0.0489317   0.0259311), wk =   0.0219479
        k(   48) = (   0.0489317   0.0489317   0.0518623), wk =   0.0219479
        k(   49) = (   0.0489317   0.0489317   0.0777934), wk =   0.0219479
        k(   50) = (   0.0489317   0.0489317   0.1037245), wk =   0.0219479
        k(   51) = (   0.0489317   0.0733975   0.0000000), wk =   0.0219479
        k(   52) = (   0.0489317   0.0733975   0.0259311), wk =   0.0438957
        k(   53) = (   0.0489317   0.0733975   0.0518623), wk =   0.0438957
        k(   54) = (   0.0489317   0.0733975   0.0777934), wk =   0.0438957
        k(   55) = (   0.0489317   0.0733975   0.1037245), wk =   0.0438957
        k(   56) = (   0.0489317   0.0978633   0.0000000), wk =   0.0219479
        k(   57) = (   0.0489317   0.0978633   0.0259311), wk =   0.0438957
        k(   58) = (   0.0489317   0.0978633   0.0518623), wk =   0.0438957
        k(   59) = (   0.0489317   0.0978633   0.0777934), wk =   0.0438957
        k(   60) = (   0.0489317   0.0978633   0.1037245), wk =   0.0438957
        k(   61) = (   0.0733975   0.0733975   0.0000000), wk =   0.0109739
        k(   62) = (   0.0733975   0.0733975   0.0259311), wk =   0.0219479
        k(   63) = (   0.0733975   0.0733975   0.0518623), wk =   0.0219479
        k(   64) = (   0.0733975   0.0733975   0.0777934), wk =   0.0219479
        k(   65) = (   0.0733975   0.0733975   0.1037245), wk =   0.0219479
        k(   66) = (   0.0733975   0.0978633   0.0000000), wk =   0.0219479
        k(   67) = (   0.0733975   0.0978633   0.0259311), wk =   0.0438957
        k(   68) = (   0.0733975   0.0978633   0.0518623), wk =   0.0438957
        k(   69) = (   0.0733975   0.0978633   0.0777934), wk =   0.0438957
        k(   70) = (   0.0733975   0.0978633   0.1037245), wk =   0.0438957
        k(   71) = (   0.0978633   0.0978633   0.0000000), wk =   0.0109739
        k(   72) = (   0.0978633   0.0978633   0.0259311), wk =   0.0219479
        k(   73) = (   0.0978633   0.0978633   0.0518623), wk =   0.0219479
        k(   74) = (   0.0978633   0.0978633   0.0777934), wk =   0.0219479
        k(   75) = (   0.0978633   0.0978633   0.1037245), wk =   0.0219479

     Largest allocated arrays     est. size (Mb)     dimensions
     Largest temporary arrays     est. size (Mb)     dimensions

     Initial potential from superposition of free atoms
     Check: negative starting charge=   -0.215593

     starting charge   45.99991, renormalised to   52.00000

     negative rho (up, down):  2.437E-01 0.000E+00

     *
     * You are using vdW-DF for exchange-correlation in this calculation.
     * Please cite the following three references that made this development
     * possible:
     *
     *   M. Dion, H. Rydberg, E. Schroder, D. C. Langreth, and
     *   B. I. Lundqvist, Phys. Rev. Lett. 92, 246401 (2004).
     *
     *   T. Thonhauser, V. R. Cooper, S. Li, A. Puzder, P. Hyldgaard, and
     *   D. C. Langreth, Phys. Rev. B 76, 125112 (2007).
     *
     *   G. Roman-Perez and J. M. Soler, Phys. Rev. Lett. 103, 096102 (2009).
     *
     *
     * If you are using vdW-DF2, please also cite:
     *
     *   K. Lee, E. D. Murray, L. Kong, B. I. Lundqvist, and
     *   D. C. Langreth, Phys. Rev. B 82, 081101(R) (2010).
     *
     *
     * If you are calculating the stress with vdW-DF, please also cite:
     *
     *   R. Sabatini, E. Kucukbenli, B. Kolb, T. Thonhauser, and
     *   S. de Gironcoli, J. Phys.: Condens. Matter 24, 424209 (2012).
     *

     Carrying out vdW-DF run using the following parameters:

     Nqs =      20    Nr_points =    1024   r_max =   100.000
     q_mesh =
               0.00001000     0.04494208     0.09755937     0.15916263
               0.23128650     0.31572767     0.41458969     0.53033537
               0.66584808     0.82450364     1.01025438     1.22772762
               1.48234092     1.78043706     2.12944203     2.53805004
               3.01644009     3.57652955     4.23227104     5.00000000

     Gradients computed in reciprocal space

     Starting wfc are   44 randomized atomic wfcs +    2 random wfc

     Self-consistent Calculation

     iteration #  1     ecut=    58.80 Ry     beta=0.10
     Davidson diagonalization with overlap
     ethr =  1.00E-02,  avg # of iterations =  4.3

[...]

     total energy              =    -644.90846039 Ry
     Harris-Foulkes estimate   =    -646.35785111 Ry
     estimated scf accuracy    <       9.29406547 Ry

[...]

     total energy              =    -642.68339301 Ry
     Harris-Foulkes estimate   =    -642.68338421 Ry
     estimated scf accuracy    <       0.00000128 Ry

     iteration # 12     ecut=    58.80 Ry     beta=0.10
     Davidson diagonalization with overlap
     ethr =  2.47E-09,  avg # of iterations =  1.1

     negative rho (up, down):  2.328E-01 0.000E+00

     End of self-consistent calculation

          k = 0.0000 0.0000 0.0000 (  4559 PWs)   bands (ev):

   -48.2629 -48.2306 -16.9508 -16.8827 -16.8827 -16.8712 -16.5631 -16.5631
    -7.5269  -7.4635  -7.3543  -7.3543  -7.3376  -7.2979  -7.2762  -7.2762
    -7.2129  -7.1874   3.5388   8.5784  11.8711  11.8711  12.1253  13.0143
    13.2613  13.4353  14.4688  14.4688  16.4391  17.1290  17.2705  17.2705
    18.4660  18.4660  18.8973  19.3213  20.5308  21.8785  22.0890  22.0890
    24.2184  24.6382  25.5827  25.8579  28.7262  28.7262

[...]

          k = 0.0979 0.0979 0.1037 (  4545 PWs)   bands (ev):

   -48.2469 -48.2459 -16.9289 -16.9264 -16.9253 -16.9159 -16.5412 -16.5312
    -7.4200  -7.4114  -7.3707  -7.3660  -7.3659  -7.3641  -7.2730  -7.2709
    -7.2058  -7.2005   6.6162   6.7678  10.2127  10.3512  11.4400  11.8871
    12.4219  12.7869  16.3288  16.3416  16.5088  16.5460  17.1596  17.2011
    18.0992  18.3140  20.7537  20.9324  20.9950  21.3400  24.2722  24.4573
    25.0480  25.0777  25.6704  26.0069  26.8375  26.9833

     the Fermi energy is    14.6068 ev

!    total energy              =    -642.68343183 Ry
     Harris-Foulkes estimate   =    -642.68339306 Ry
     estimated scf accuracy    <       0.00000045 Ry

     The total energy is the sum of the following terms:

     one-electron contribution =    -124.94931673 Ry
     hartree contribution      =      95.66784343 Ry
     xc contribution           =    -244.08084455 Ry
     ewald contribution        =    -369.31681664 Ry
     smearing contrib. (-TS)   =      -0.00429734 Ry

     convergence has been achieved in  12 iterations

     Forces acting on atoms (Ry/au):

     negative rho (up, down):  2.328E-01 0.000E+00
     atom    1 type  1   force =     0.00000000    0.00000000    0.00000000
     atom    2 type  1   force =     0.00000000    0.00000000    0.00000000
     atom    3 type  2   force =     0.00000000    0.00000000    0.00000000
     atom    4 type  2   force =     0.00000000    0.00000000    0.00000000

     Total force =     0.000000     Total SCF correction =     0.000000

     General routines

     Parallel routines

   This run was terminated on:   5:22:19  15Nov2017

   JOB DONE.