     Program PWSCF v.5.1rc2 starts on 15Nov2017 at  6:25: 2

     Current dimensions of program PWSCF are:
     Max number of different atomic species (ntypx) = 10
     Max number of k-points (npk) =  40000
     Max angular momentum in pseudopotentials (lmaxx) =  3

     IMPORTANT: XC functional enforced from input :
     Exchange-correlation      = BEEF-VDW ( 1  4 27 13 2)
     Any further DFT definition will be discarded
     Please, verify this is what you really want

     Found symmetry operation: I + ( -0.5000 -0.5000  0.0000)
     This is a supercell, fractional translations are disabled

     bravais-lattice index     =            0
     lattice parameter (alat)  =       1.8897  a.u.
     unit-cell volume          =     408.8613 (a.u.)^3
     number of atoms/cell      =            4
     number of atomic types    =            2
     number of electrons       =        54.00
     number of Kohn-Sham states=           47
     kinetic-energy cutoff     =      58.7989  Ry
     charge density cutoff     =     587.9892  Ry
     convergence threshold     =      1.0E-06
     mixing beta               =       0.1000
     number of iterations used =           10  plain     mixing
     Exchange-correlation      = BEEF-VDW ( 1  4 27 13 2)

     celldm(1)=   1.889726  celldm(2)=   0.000000  celldm(3)=   0.000000
     celldm(4)=   0.000000  celldm(5)=   0.000000  celldm(6)=   0.000000

     crystal axes: (cart. coord. in units of alat)
               a(1) = (   4.404472   0.000000   0.000000 )
               a(2) = (   0.000000   4.404472   0.000000 )
               a(3) = (   0.000000   0.000000   3.123142 )

     reciprocal axes: (cart. coord. in units 2 pi/alat)
               b(1) = (  0.227042  0.000000  0.000000 )
               b(2) = (  0.000000  0.227042  0.000000 )
               b(3) = (  0.000000  0.000000  0.320190 )

     PseudoPot. # 1 for Ti read from file:
     /home/users/vossj/suncat/psp/gbrv1.5pbe/Ti.UPF
     MD5 check sum: 88a00a6731bd790ddea75d31a80cb452
     Pseudo is Ultrasoft + core correction, Zval = 12.0
     Generated by new atomic code, or converted to UPF format
     Using radial grid of  851 points,  6 beta functions with:
                l(1) =   0
                l(2) =   0
                l(3) =   1
                l(4) =   1
                l(5) =   2
                l(6) =   2
     Q(r) pseudized with  6 coefficients,  rinner =    1.000   1.000   1.000
                                                       1.000   1.000

     PseudoPot. # 2 for Re read from file:
     /home/users/vossj/suncat/psp/gbrv1.5pbe/Re.UPF
     MD5 check sum: 85f993410f3e006da9d71c142b4ad953
     Pseudo is Ultrasoft + core correction, Zval = 15.0
     Generated by new atomic code, or converted to UPF format
     Using radial grid of  981 points,  8 beta functions with:
                l(1) =   0
                l(2) =   0
                l(3) =   1
                l(4) =   1
                l(5) =   2
                l(6) =   2
                l(7) =   3
                l(8) =   3
     Q(r) pseudized with  8 coefficients,  rinner =    1.150   1.150   1.150
                                                       1.150   1.150   1.150
                                                       1.150

     vdW kernel table read from file vdW_kernel_table
     MD5 check sum: 095c7af220d748ca6e76c0b4c6cfb241

     atomic species   valence    mass     pseudopotential
        Ti1           12.00    47.88000     Ti( 1.00)
        Re1           15.00   186.20700     Re( 1.00)

     16 Sym. Ops., with inversion, found

   Cartesian axes

     site n.     atom                  positions (alat units)
         1           Ti1 tau(   1) = (   0.0000000   0.0000000   0.0000000  )
         2           Ti1 tau(   2) = (   2.2022361   2.2022361   0.0000000  )
         3           Re1 tau(   3) = (   2.2022361   0.0000000   1.5615709  )
         4           Re1 tau(   4) = (   0.0000000   2.2022361   1.5615709  )

     number of k points=    75  Fermi-Dirac smearing, width (Ry)=  0.0073
                       cart. coord. in units 2pi/alat
        k(    1) = (   0.0000000   0.0000000   0.0000000), wk =   0.0027435
        k(    2) = (   0.0000000   0.0000000   0.0355767), wk =   0.0054870
        k(    3) = (   0.0000000   0.0000000   0.0711534), wk =   0.0054870
        k(    4) = (   0.0000000   0.0000000   0.1067301), wk =   0.0054870
        k(    5) = (   0.0000000   0.0000000   0.1423068), wk =   0.0054870
        k(    6) = (   0.0000000   0.0252269   0.0000000), wk =   0.0109739
        k(    7) = (   0.0000000   0.0252269   0.0355767), wk =   0.0219479
        k(    8) = (   0.0000000   0.0252269   0.0711534), wk =   0.0219479
        k(    9) = (   0.0000000   0.0252269   0.1067301), wk =   0.0219479
        k(   10) = (   0.0000000   0.0252269   0.1423068), wk =   0.0219479
        k(   11) = (   0.0000000   0.0504538   0.0000000), wk =   0.0109739
        k(   12) = (   0.0000000   0.0504538   0.0355767), wk =   0.0219479
        k(   13) = (   0.0000000   0.0504538   0.0711534), wk =   0.0219479
        k(   14) = (   0.0000000   0.0504538   0.1067301), wk =   0.0219479
        k(   15) = (   0.0000000   0.0504538   0.1423068), wk =   0.0219479
        k(   16) = (   0.0000000   0.0756807   0.0000000), wk =   0.0109739
        k(   17) = (   0.0000000   0.0756807   0.0355767), wk =   0.0219479
        k(   18) = (   0.0000000   0.0756807   0.0711534), wk =   0.0219479
        k(   19) = (   0.0000000   0.0756807   0.1067301), wk =   0.0219479
        k(   20) = (   0.0000000   0.0756807   0.1423068), wk =   0.0219479
        k(   21) = (   0.0000000   0.1009075   0.0000000), wk =   0.0109739
        k(   22) = (   0.0000000   0.1009075   0.0355767), wk =   0.0219479
        k(   23) = (   0.0000000   0.1009075   0.0711534), wk =   0.0219479
        k(   24) = (   0.0000000   0.1009075   0.1067301), wk =   0.0219479
        k(   25) = (   0.0000000   0.1009075   0.1423068), wk =   0.0219479
        k(   26) = (   0.0252269   0.0252269   0.0000000), wk =   0.0109739
        k(   27) = (   0.0252269   0.0252269   0.0355767), wk =   0.0219479
        k(   28) = (   0.0252269   0.0252269   0.0711534), wk =   0.0219479
        k(   29) = (   0.0252269   0.0252269   0.1067301), wk =   0.0219479
        k(   30) = (   0.0252269   0.0252269   0.1423068), wk =   0.0219479
        k(   31) = (   0.0252269   0.0504538   0.0000000), wk =   0.0219479
        k(   32) = (   0.0252269   0.0504538   0.0355767), wk =   0.0438957
        k(   33) = (   0.0252269   0.0504538   0.0711534), wk =   0.0438957
        k(   34) = (   0.0252269   0.0504538   0.1067301), wk =   0.0438957
        k(   35) = (   0.0252269   0.0504538   0.1423068), wk =   0.0438957
        k(   36) = (   0.0252269   0.0756807   0.0000000), wk =   0.0219479
        k(   37) = (   0.0252269   0.0756807   0.0355767), wk =   0.0438957
        k(   38) = (   0.0252269   0.0756807   0.0711534), wk =   0.0438957
        k(   39) = (   0.0252269   0.0756807   0.1067301), wk =   0.0438957
        k(   40) = (   0.0252269   0.0756807   0.1423068), wk =   0.0438957
        k(   41) = (   0.0252269   0.1009075   0.0000000), wk =   0.0219479
        k(   42) = (   0.0252269   0.1009075   0.0355767), wk =   0.0438957
        k(   43) = (   0.0252269   0.1009075   0.0711534), wk =   0.0438957
        k(   44) = (   0.0252269   0.1009075   0.1067301), wk =   0.0438957
        k(   45) = (   0.0252269   0.1009075   0.1423068), wk =   0.0438957
        k(   46) = (   0.0504538   0.0504538   0.0000000), wk =   0.0109739
        k(   47) = (   0.0504538   0.0504538   0.0355767), wk =   0.0219479
        k(   48) = (   0.0504538   0.0504538   0.0711534), wk =   0.0219479
        k(   49) = (   0.0504538   0.0504538   0.1067301), wk =   0.0219479
        k(   50) = (   0.0504538   0.0504538   0.1423068), wk =   0.0219479
        k(   51) = (   0.0504538   0.0756807   0.0000000), wk =   0.0219479
        k(   52) = (   0.0504538   0.0756807   0.0355767), wk =   0.0438957
        k(   53) = (   0.0504538   0.0756807   0.0711534), wk =   0.0438957
        k(   54) = (   0.0504538   0.0756807   0.1067301), wk =   0.0438957
        k(   55) = (   0.0504538   0.0756807   0.1423068), wk =   0.0438957
        k(   56) = (   0.0504538   0.1009075   0.0000000), wk =   0.0219479
        k(   57) = (   0.0504538   0.1009075   0.0355767), wk =   0.0438957
        k(   58) = (   0.0504538   0.1009075   0.0711534), wk =   0.0438957
        k(   59) = (   0.0504538   0.1009075   0.1067301), wk =   0.0438957
        k(   60) = (   0.0504538   0.1009075   0.1423068), wk =   0.0438957
        k(   61) = (   0.0756807   0.0756807   0.0000000), wk =   0.0109739
        k(   62) = (   0.0756807   0.0756807   0.0355767), wk =   0.0219479
        k(   63) = (   0.0756807   0.0756807   0.0711534), wk =   0.0219479
        k(   64) = (   0.0756807   0.0756807   0.1067301), wk =   0.0219479
        k(   65) = (   0.0756807   0.0756807   0.1423068), wk =   0.0219479
        k(   66) = (   0.0756807   0.1009075   0.0000000), wk =   0.0219479
        k(   67) = (   0.0756807   0.1009075   0.0355767), wk =   0.0438957
        k(   68) = (   0.0756807   0.1009075   0.0711534), wk =   0.0438957
        k(   69) = (   0.0756807   0.1009075   0.1067301), wk =   0.0438957
        k(   70) = (   0.0756807   0.1009075   0.1423068), wk =   0.0438957
        k(   71) = (   0.1009075   0.1009075   0.0000000), wk =   0.0109739
        k(   72) = (   0.1009075   0.1009075   0.0355767), wk =   0.0219479
        k(   73) = (   0.1009075   0.1009075   0.0711534), wk =   0.0219479
        k(   74) = (   0.1009075   0.1009075   0.1067301), wk =   0.0219479
        k(   75) = (   0.1009075   0.1009075   0.1423068), wk =   0.0219479

     Largest allocated arrays     est. size (Mb)     dimensions
     Largest temporary arrays     est. size (Mb)     dimensions

     Check: negative/imaginary core charge=   -0.000001    0.000000

     Initial potential from superposition of free atoms
     Check: negative starting charge=   -0.259537

     starting charge   50.99982, renormalised to   54.00000

     negative rho (up, down):  2.748E-01 0.000E+00

     *
     * You are using vdW-DF for exchange-correlation in this calculation.
     * Please cite the following three references that made this development
     * possible:
     *
     *   M. Dion, H. Rydberg, E. Schroder, D. C. Langreth, and
     *   B. I. Lundqvist, Phys. Rev. Lett. 92, 246401 (2004).
     *
     *   T. Thonhauser, V. R. Cooper, S. Li, A. Puzder, P. Hyldgaard, and
     *   D. C. Langreth, Phys. Rev. B 76, 125112 (2007).
     *
     *   G. Roman-Perez and J. M. Soler, Phys. Rev. Lett. 103, 096102 (2009).
     *
     *
     * If you are using vdW-DF2, please also cite:
     *
     *   K. Lee, E. D. Murray, L. Kong, B. I. Lundqvist, and
     *   D. C. Langreth, Phys. Rev. B 82, 081101(R) (2010).
     *
     *
     * If you are calculating the stress with vdW-DF, please also cite:
     *
     *   R. Sabatini, E. Kucukbenli, B. Kolb, T. Thonhauser, and
     *   S. de Gironcoli, J. Phys.: Condens. Matter 24, 424209 (2012).
     *

     Carrying out vdW-DF run using the following parameters:

     Nqs =      20    Nr_points =    1024   r_max =   100.000
     q_mesh =
               0.00001000     0.04494208     0.09755937     0.15916263
               0.23128650     0.31572767     0.41458969     0.53033537
               0.66584808     0.82450364     1.01025438     1.22772762
               1.48234092     1.78043706     2.12944203     2.53805004
               3.01644009     3.57652955     4.23227104     5.00000000

     Gradients computed in reciprocal space

     Starting wfc are   46 randomized atomic wfcs +    1 random wfc

     Self-consistent Calculation

     iteration #  1     ecut=    58.80 Ry     beta=0.10
     Davidson diagonalization with overlap
     ethr =  1.00E-02,  avg # of iterations =  3.7

[...]

     total energy              =    -624.57489841 Ry
     Harris-Foulkes estimate   =    -625.08561007 Ry
     estimated scf accuracy    <       3.05736037 Ry

[...]

     total energy              =    -624.37531703 Ry
     Harris-Foulkes estimate   =    -624.37531746 Ry
     estimated scf accuracy    <       0.00000403 Ry

     iteration # 14     ecut=    58.80 Ry     beta=0.10
     Davidson diagonalization with overlap
     ethr =  7.46E-09,  avg # of iterations =  1.0

     negative rho (up, down):  2.719E-01 0.000E+00

     End of self-consistent calculation

          k = 0.0000 0.0000 0.0000 (  3147 PWs)   bands (ev):

   -60.9125 -60.8985 -37.5008 -37.4650 -22.7301 -22.7301 -22.5576 -22.5554
   -22.5554 -22.5168 -13.7828 -13.7828 -13.6310 -13.6284 -13.6284 -13.6157
    11.2245  14.3594  14.5485  14.6811  14.6856  16.8181  16.8181  18.7492
    18.7492  18.7777  20.4047  20.4047  21.2746  21.6543  21.6883  21.7579
    21.8629  22.4259  23.4335  23.4416  23.4416  24.0158  24.0158  27.8856
    28.2205  28.3027  28.3027  31.6462  32.4969  32.4969  36.0866

[...]

          k = 0.1009 0.1009 0.1423 (  3134 PWs)   bands (ev):

   -60.8992 -60.8988 -37.4669 -37.4657 -22.7293 -22.7248 -22.7207 -22.7201
   -22.5212 -22.5162 -13.7862 -13.7823 -13.7772 -13.7771 -13.6202 -13.6148
    14.3716  14.4486  14.6444  14.6476  16.8609  16.8806  16.8984  16.9688
    19.7482  19.8686  19.9371  20.1031  21.2147  21.2495  21.7504  21.7991
    21.9609  22.0260  22.4988  22.7621  23.7841  23.9926  24.1227  24.1352
    27.9770  28.1263  31.6210  31.7345  32.6383  32.7028  32.7252

     the Fermi energy is    18.7934 ev

!    total energy              =    -624.37531920 Ry
     Harris-Foulkes estimate   =    -624.37531739 Ry
     estimated scf accuracy    <       0.00000011 Ry

     The total energy is the sum of the following terms:

     one-electron contribution =    -108.93013595 Ry
     hartree contribution      =      84.07147137 Ry
     xc contribution           =    -146.04377697 Ry
     ewald contribution        =    -453.46495105 Ry
     smearing contrib. (-TS)   =      -0.00792660 Ry

     convergence has been achieved in  14 iterations

     Forces acting on atoms (Ry/au):

     negative rho (up, down):  2.719E-01 0.000E+00
     atom    1 type  1   force =     0.00000000    0.00000000    0.00000000
     atom    2 type  1   force =     0.00000000    0.00000000    0.00000000
     atom    3 type  2   force =     0.00000000    0.00000000    0.00000000
     atom    4 type  2   force =     0.00000000    0.00000000    0.00000000

     Total force =     0.000000     Total SCF correction =     0.000000

     General routines

     Parallel routines

   This run was terminated on:   6:25:44  15Nov2017

   JOB DONE.