     Program PWSCF v.5.1rc2 starts on 15Nov2017 at  3:48:13

     Current dimensions of program PWSCF are:
     Max number of different atomic species (ntypx) = 10
     Max number of k-points (npk) =  40000
     Max angular momentum in pseudopotentials (lmaxx) =  3

     IMPORTANT: XC functional enforced from input :
     Exchange-correlation      = BEEF-VDW ( 1  4 27 13 2)
     Any further DFT definition will be discarded
     Please, verify this is what you really want

     Found symmetry operation: I + ( -0.5000 -0.5000  0.0000)
     This is a supercell, fractional translations are disabled

     bravais-lattice index     =            0
     lattice parameter (alat)  =       1.8897  a.u.
     unit-cell volume          =     448.7331 (a.u.)^3
     number of atoms/cell      =            4
     number of atomic types    =            2
     number of electrons       =        54.00
     number of Kohn-Sham states=           47
     kinetic-energy cutoff     =      58.7989  Ry
     charge density cutoff     =     587.9892  Ry
     convergence threshold     =      1.0E-06
     mixing beta               =       0.1000
     number of iterations used =           10  plain     mixing
     Exchange-correlation      = BEEF-VDW ( 1  4 27 13 2)

     celldm(1)=   1.889726  celldm(2)=   0.000000  celldm(3)=   0.000000
     celldm(4)=   0.000000  celldm(5)=   0.000000  celldm(6)=   0.000000

     crystal axes: (cart. coord. in units of alat)
               a(1) = (   4.556407   0.000000   0.000000 )
               a(2) = (   0.000000   4.556407   0.000000 )
               a(3) = (   0.000000   0.000000   3.202923 )

     reciprocal axes: (cart. coord. in units 2 pi/alat)
               b(1) = (  0.219471  0.000000  0.000000 )
               b(2) = (  0.000000  0.219471  0.000000 )
               b(3) = (  0.000000  0.000000  0.312215 )

     PseudoPot. # 1 for Sc read from file:
     /home/users/vossj/suncat/psp/gbrv1.5pbe/Sc.UPF
     MD5 check sum: db30a2753ba66ef00f23801d899b7e7f
     Pseudo is Ultrasoft + core correction, Zval = 11.0
     Generated by new atomic code, or converted to UPF format
     Using radial grid of  849 points,  6 beta functions with:
                l(1) =   0
                l(2) =   0
                l(3) =   1
                l(4) =   1
                l(5) =   2
                l(6) =   2
     Q(r) pseudized with  6 coefficients,  rinner =    1.200   1.200   1.200
                                                       1.200   1.200

     PseudoPot. # 2 for Ru read from file:
     /home/users/vossj/suncat/psp/gbrv1.5pbe/Ru.UPF
     MD5 check sum: 7158a806dd851261a58e6920c40ebe78
     Pseudo is Ultrasoft + core correction, Zval = 16.0
     Generated by new atomic code, or converted to UPF format
     Using radial grid of  967 points,  6 beta functions with:
                l(1) =   0
                l(2) =   0
                l(3) =   1
                l(4) =   1
                l(5) =   2
                l(6) =   2
     Q(r) pseudized with  8 coefficients,  rinner =    1.300   1.300   1.300
                                                       1.300   1.300

     vdW kernel table read from file vdW_kernel_table
     MD5 check sum: 095c7af220d748ca6e76c0b4c6cfb241

     atomic species   valence    mass     pseudopotential
        Sc1           11.00    44.95590     Sc( 1.00)
        Ru1           16.00   101.07000     Ru( 1.00)

     16 Sym. Ops., with inversion, found

   Cartesian axes

     site n.     atom                  positions (alat units)
         1           Sc1 tau(   1) = (   0.0000000   0.0000000   0.0000000  )
         2           Sc1 tau(   2) = (   2.2782036   2.2782036   0.0000000  )
         3           Ru1 tau(   3) = (   2.2782036   0.0000000   1.6014613  )
         4           Ru1 tau(   4) = (   0.0000000   2.2782036   1.6014613  )

     number of k points=    75  Fermi-Dirac smearing, width (Ry)=  0.0073
                       cart. coord. in units 2pi/alat
        k(    1) = (   0.0000000   0.0000000   0.0000000), wk =   0.0027435
        k(    2) = (   0.0000000   0.0000000   0.0346905), wk =   0.0054870
        k(    3) = (   0.0000000   0.0000000   0.0693811), wk =   0.0054870
        k(    4) = (   0.0000000   0.0000000   0.1040716), wk =   0.0054870
        k(    5) = (   0.0000000   0.0000000   0.1387622), wk =   0.0054870
        k(    6) = (   0.0000000   0.0243857   0.0000000), wk =   0.0109739
        k(    7) = (   0.0000000   0.0243857   0.0346905), wk =   0.0219479
        k(    8) = (   0.0000000   0.0243857   0.0693811), wk =   0.0219479
        k(    9) = (   0.0000000   0.0243857   0.1040716), wk =   0.0219479
        k(   10) = (   0.0000000   0.0243857   0.1387622), wk =   0.0219479
        k(   11) = (   0.0000000   0.0487714   0.0000000), wk =   0.0109739
        k(   12) = (   0.0000000   0.0487714   0.0346905), wk =   0.0219479
        k(   13) = (   0.0000000   0.0487714   0.0693811), wk =   0.0219479
        k(   14) = (   0.0000000   0.0487714   0.1040716), wk =   0.0219479
        k(   15) = (   0.0000000   0.0487714   0.1387622), wk =   0.0219479
        k(   16) = (   0.0000000   0.0731571   0.0000000), wk =   0.0109739
        k(   17) = (   0.0000000   0.0731571   0.0346905), wk =   0.0219479
        k(   18) = (   0.0000000   0.0731571   0.0693811), wk =   0.0219479
        k(   19) = (   0.0000000   0.0731571   0.1040716), wk =   0.0219479
        k(   20) = (   0.0000000   0.0731571   0.1387622), wk =   0.0219479
        k(   21) = (   0.0000000   0.0975427   0.0000000), wk =   0.0109739
        k(   22) = (   0.0000000   0.0975427   0.0346905), wk =   0.0219479
        k(   23) = (   0.0000000   0.0975427   0.0693811), wk =   0.0219479
        k(   24) = (   0.0000000   0.0975427   0.1040716), wk =   0.0219479
        k(   25) = (   0.0000000   0.0975427   0.1387622), wk =   0.0219479
        k(   26) = (   0.0243857   0.0243857   0.0000000), wk =   0.0109739
        k(   27) = (   0.0243857   0.0243857   0.0346905), wk =   0.0219479
        k(   28) = (   0.0243857   0.0243857   0.0693811), wk =   0.0219479
        k(   29) = (   0.0243857   0.0243857   0.1040716), wk =   0.0219479
        k(   30) = (   0.0243857   0.0243857   0.1387622), wk =   0.0219479
        k(   31) = (   0.0243857   0.0487714   0.0000000), wk =   0.0219479
        k(   32) = (   0.0243857   0.0487714   0.0346905), wk =   0.0438957
        k(   33) = (   0.0243857   0.0487714   0.0693811), wk =   0.0438957
        k(   34) = (   0.0243857   0.0487714   0.1040716), wk =   0.0438957
        k(   35) = (   0.0243857   0.0487714   0.1387622), wk =   0.0438957
        k(   36) = (   0.0243857   0.0731571   0.0000000), wk =   0.0219479
        k(   37) = (   0.0243857   0.0731571   0.0346905), wk =   0.0438957
        k(   38) = (   0.0243857   0.0731571   0.0693811), wk =   0.0438957
        k(   39) = (   0.0243857   0.0731571   0.1040716), wk =   0.0438957
        k(   40) = (   0.0243857   0.0731571   0.1387622), wk =   0.0438957
        k(   41) = (   0.0243857   0.0975427   0.0000000), wk =   0.0219479
        k(   42) = (   0.0243857   0.0975427   0.0346905), wk =   0.0438957
        k(   43) = (   0.0243857   0.0975427   0.0693811), wk =   0.0438957
        k(   44) = (   0.0243857   0.0975427   0.1040716), wk =   0.0438957
        k(   45) = (   0.0243857   0.0975427   0.1387622), wk =   0.0438957
        k(   46) = (   0.0487714   0.0487714   0.0000000), wk =   0.0109739
        k(   47) = (   0.0487714   0.0487714   0.0346905), wk =   0.0219479
        k(   48) = (   0.0487714   0.0487714   0.0693811), wk =   0.0219479
        k(   49) = (   0.0487714   0.0487714   0.1040716), wk =   0.0219479
        k(   50) = (   0.0487714   0.0487714   0.1387622), wk =   0.0219479
        k(   51) = (   0.0487714   0.0731571   0.0000000), wk =   0.0219479
        k(   52) = (   0.0487714   0.0731571   0.0346905), wk =   0.0438957
        k(   53) = (   0.0487714   0.0731571   0.0693811), wk =   0.0438957
        k(   54) = (   0.0487714   0.0731571   0.1040716), wk =   0.0438957
        k(   55) = (   0.0487714   0.0731571   0.1387622), wk =   0.0438957
        k(   56) = (   0.0487714   0.0975427   0.0000000), wk =   0.0219479
        k(   57) = (   0.0487714   0.0975427   0.0346905), wk =   0.0438957
        k(   58) = (   0.0487714   0.0975427   0.0693811), wk =   0.0438957
        k(   59) = (   0.0487714   0.0975427   0.1040716), wk =   0.0438957
        k(   60) = (   0.0487714   0.0975427   0.1387622), wk =   0.0438957
        k(   61) = (   0.0731571   0.0731571   0.0000000), wk =   0.0109739
        k(   62) = (   0.0731571   0.0731571   0.0346905), wk =   0.0219479
        k(   63) = (   0.0731571   0.0731571   0.0693811), wk =   0.0219479
        k(   64) = (   0.0731571   0.0731571   0.1040716), wk =   0.0219479
        k(   65) = (   0.0731571   0.0731571   0.1387622), wk =   0.0219479
        k(   66) = (   0.0731571   0.0975427   0.0000000), wk =   0.0219479
        k(   67) = (   0.0731571   0.0975427   0.0346905), wk =   0.0438957
        k(   68) = (   0.0731571   0.0975427   0.0693811), wk =   0.0438957
        k(   69) = (   0.0731571   0.0975427   0.1040716), wk =   0.0438957
        k(   70) = (   0.0731571   0.0975427   0.1387622), wk =   0.0438957
        k(   71) = (   0.0975427   0.0975427   0.0000000), wk =   0.0109739
        k(   72) = (   0.0975427   0.0975427   0.0346905), wk =   0.0219479
        k(   73) = (   0.0975427   0.0975427   0.0693811), wk =   0.0219479
        k(   74) = (   0.0975427   0.0975427   0.1040716), wk =   0.0219479
        k(   75) = (   0.0975427   0.0975427   0.1387622), wk =   0.0219479

     Largest allocated arrays     est. size (Mb)     dimensions
     Largest temporary arrays     est. size (Mb)     dimensions

     Initial potential from superposition of free atoms
     Check: negative starting charge=   -0.147341

     starting charge   51.99516, renormalised to   54.00000

     negative rho (up, down):  1.530E-01 0.000E+00

     *
     * You are using vdW-DF for exchange-correlation in this calculation.
     * Please cite the following three references that made this development
     * possible:
     *
     *   M. Dion, H. Rydberg, E. Schroder, D. C. Langreth, and
     *   B. I. Lundqvist, Phys. Rev. Lett. 92, 246401 (2004).
     *
     *   T. Thonhauser, V. R. Cooper, S. Li, A. Puzder, P. Hyldgaard, and
     *   D. C. Langreth, Phys. Rev. B 76, 125112 (2007).
     *
     *   G. Roman-Perez and J. M. Soler, Phys. Rev. Lett. 103, 096102 (2009).
     *
     *
     * If you are using vdW-DF2, please also cite:
     *
     *   K. Lee, E. D. Murray, L. Kong, B. I. Lundqvist, and
     *   D. C. Langreth, Phys. Rev. B 82, 081101(R) (2010).
     *
     *
     * If you are calculating the stress with vdW-DF, please also cite:
     *
     *   R. Sabatini, E. Kucukbenli, B. Kolb, T. Thonhauser, and
     *   S. de Gironcoli, J. Phys.: Condens. Matter 24, 424209 (2012).
     *

     Carrying out vdW-DF run using the following parameters:

     Nqs =      20    Nr_points =    1024   r_max =   100.000
     q_mesh =
               0.00001000     0.04494208     0.09755937     0.15916263
               0.23128650     0.31572767     0.41458969     0.53033537
               0.66584808     0.82450364     1.01025438     1.22772762
               1.48234092     1.78043706     2.12944203     2.53805004
               3.01644009     3.57652955     4.23227104     5.00000000

     Gradients computed in reciprocal space

     Starting wfc are   52 randomized atomic wfcs

     Self-consistent Calculation

     iteration #  1     ecut=    58.80 Ry     beta=0.10
     Davidson diagonalization with overlap
     ethr =  1.00E-02,  avg # of iterations =  4.2

[...]

     total energy              =    -580.31774407 Ry
     Harris-Foulkes estimate   =    -580.56457957 Ry
     estimated scf accuracy    <       1.59168846 Ry

[...]

     total energy              =    -580.14200201 Ry
     Harris-Foulkes estimate   =    -580.14200186 Ry
     estimated scf accuracy    <       0.00000513 Ry

     iteration # 12     ecut=    58.80 Ry     beta=0.10
     Davidson diagonalization with overlap
     ethr =  4.40E-09,  avg # of iterations =  1.0

     negative rho (up, down):  1.491E-01 0.000E+00

     End of self-consistent calculation

          k = 0.0000 0.0000 0.0000 (  3435 PWs)   bands (ev):

   -55.9607 -55.9499 -32.9135 -32.8664 -26.0009 -26.0009 -25.9220 -25.9195
   -25.9195 -25.9049 -11.6169 -11.6169 -11.4038 -11.4038 -11.3953 -11.3601
    10.1344  12.4545  12.4847  12.4893  12.5242  14.1616  14.1616  15.4009
    15.4360  15.4360  16.8829  17.7027  17.8900  17.8900  18.7729  18.8274
    19.2376  20.7119  20.7286  20.7286  20.7331  20.9207  20.9207  25.2712
    25.2712  25.4351  25.8242  26.7330  29.6609  29.6609  33.0894

[...]

          k = 0.0975 0.0975 0.1388 (  3391 PWs)   bands (ev):

   -55.9498 -55.9495 -32.8666 -32.8650 -26.0061 -26.0059 -25.9996 -25.9972
   -25.9045 -25.9022 -11.6172 -11.6168 -11.6147 -11.6102 -11.3757 -11.3689
    12.4928  12.5081  12.5841  12.6202  14.1290  14.1293  14.1476  14.1990
    16.4498  16.6163  17.2116  17.5607  17.6862  18.1411  18.2241  18.2662
    19.1991  19.2775  20.7345  20.7566  20.8823  20.9141  21.0280  21.0999
    25.9331  26.0001  26.8627  27.0176  29.6820  29.7113  29.8229

     the Fermi energy is    15.8192 ev

!    total energy              =    -580.14200774 Ry
     Harris-Foulkes estimate   =    -580.14200250 Ry
     estimated scf accuracy    <       0.00000019 Ry

     The total energy is the sum of the following terms:

     one-electron contribution =    -160.78254687 Ry
     hartree contribution      =     107.53451357 Ry
     xc contribution           =     -81.91121353 Ry
     ewald contribution        =    -444.97438226 Ry
     smearing contrib. (-TS)   =      -0.00837865 Ry

     convergence has been achieved in  12 iterations

     Forces acting on atoms (Ry/au):

     negative rho (up, down):  1.491E-01 0.000E+00
     atom    1 type  1   force =     0.00000000    0.00000000    0.00000000
     atom    2 type  1   force =     0.00000000    0.00000000    0.00000000
     atom    3 type  2   force =     0.00000000    0.00000000    0.00000000
     atom    4 type  2   force =     0.00000000    0.00000000    0.00000000

     Total force =     0.000000     Total SCF correction =     0.000000

     General routines

     Parallel routines

   This run was terminated on:   3:48:50  15Nov2017

   JOB DONE.