     Program PWSCF v.5.1rc2 starts on 15Nov2017 at  4: 7:45

     Current dimensions of program PWSCF are:
     Max number of different atomic species (ntypx) = 10
     Max number of k-points (npk) =  40000
     Max angular momentum in pseudopotentials (lmaxx) =  3

     IMPORTANT: XC functional enforced from input :
     Exchange-correlation      = BEEF-VDW ( 1  4 27 13 2)
     Any further DFT definition will be discarded
     Please, verify this is what you really want

     Found symmetry operation: I + ( -0.5000 -0.5000  0.0000)
     This is a supercell, fractional translations are disabled

     bravais-lattice index     =            0
     lattice parameter (alat)  =       1.8897  a.u.
     unit-cell volume          =     473.1298 (a.u.)^3
     number of atoms/cell      =            4
     number of atomic types    =            2
     number of electrons       =        54.00
     number of Kohn-Sham states=           47
     kinetic-energy cutoff     =      58.7989  Ry
     charge density cutoff     =     587.9892  Ry
     convergence threshold     =      1.0E-06
     mixing beta               =       0.1000
     number of iterations used =           10  plain     mixing
     Exchange-correlation      = BEEF-VDW ( 1  4 27 13 2)

     celldm(1)=   1.889726  celldm(2)=   0.000000  celldm(3)=   0.000000
     celldm(4)=   0.000000  celldm(5)=   0.000000  celldm(6)=   0.000000

     crystal axes: (cart. coord. in units of alat)
               a(1) = (   4.578207   0.000000   0.000000 )
               a(2) = (   0.000000   4.578207   0.000000 )
               a(3) = (   0.000000   0.000000   3.344976 )

     reciprocal axes: (cart. coord. in units 2 pi/alat)
               b(1) = (  0.218426  0.000000  0.000000 )
               b(2) = (  0.000000  0.218426  0.000000 )
               b(3) = (  0.000000  0.000000  0.298956 )

     PseudoPot. # 1 for Rh read from file:
     /home/users/vossj/suncat/psp/gbrv1.5pbe/Rh.UPF
     MD5 check sum: 761627e959a2e3a1f56b0b5fe687810e
     Pseudo is Ultrasoft + core correction, Zval = 15.0
     Generated by new atomic code, or converted to UPF format
     Using radial grid of  969 points,  7 beta functions with:
                l(1) =   0
                l(2) =   0
                l(3) =   1
                l(4) =   1
                l(5) =   2
                l(6) =   2
                l(7) =   2
     Q(r) pseudized with  8 coefficients,  rinner =    1.200   1.200   1.200
                                                       1.200   1.200

     PseudoPot. # 2 for Hf read from file:
     /home/users/vossj/suncat/psp/gbrv1.5pbe/Hf.UPF
     MD5 check sum: 8ee9378dfe14276e333edf04c5e4aa26
     Pseudo is Ultrasoft + core correction, Zval = 12.0
     Generated by new atomic code, or converted to UPF format
     Using radial grid of  921 points,  8 beta functions with:
                l(1) =   0
                l(2) =   0
                l(3) =   0
                l(4) =   1
                l(5) =   1
                l(6) =   2
                l(7) =   2
                l(8) =   3
     Q(r) pseudized with  6 coefficients,  rinner =    1.200   1.200   1.200
                                                       1.200   1.200   1.200
                                                       1.200

     vdW kernel table read from file vdW_kernel_table
     MD5 check sum: 095c7af220d748ca6e76c0b4c6cfb241

     atomic species   valence    mass     pseudopotential
        Rh1           15.00   102.90550     Rh( 1.00)
        Hf1           12.00   178.49000     Hf( 1.00)

     16 Sym. Ops., with inversion, found

   Cartesian axes

     site n.     atom                  positions (alat units)
         1           Rh1 tau(   1) = (   0.0000000   0.0000000   0.0000000  )
         2           Rh1 tau(   2) = (   2.2891033   2.2891033   0.0000000  )
         3           Hf1 tau(   3) = (   2.2891033   0.0000000   1.6724878  )
         4           Hf1 tau(   4) = (   0.0000000   2.2891033   1.6724878  )

     number of k points=    75  Fermi-Dirac smearing, width (Ry)=  0.0073
                       cart. coord. in units 2pi/alat
        k(    1) = (   0.0000000   0.0000000   0.0000000), wk =   0.0027435
        k(    2) = (   0.0000000   0.0000000   0.0332173), wk =   0.0054870
        k(    3) = (   0.0000000   0.0000000   0.0664346), wk =   0.0054870
        k(    4) = (   0.0000000   0.0000000   0.0996519), wk =   0.0054870
        k(    5) = (   0.0000000   0.0000000   0.1328693), wk =   0.0054870
        k(    6) = (   0.0000000   0.0242696   0.0000000), wk =   0.0109739
        k(    7) = (   0.0000000   0.0242696   0.0332173), wk =   0.0219479
        k(    8) = (   0.0000000   0.0242696   0.0664346), wk =   0.0219479
        k(    9) = (   0.0000000   0.0242696   0.0996519), wk =   0.0219479
        k(   10) = (   0.0000000   0.0242696   0.1328693), wk =   0.0219479
        k(   11) = (   0.0000000   0.0485391   0.0000000), wk =   0.0109739
        k(   12) = (   0.0000000   0.0485391   0.0332173), wk =   0.0219479
        k(   13) = (   0.0000000   0.0485391   0.0664346), wk =   0.0219479
        k(   14) = (   0.0000000   0.0485391   0.0996519), wk =   0.0219479
        k(   15) = (   0.0000000   0.0485391   0.1328693), wk =   0.0219479
        k(   16) = (   0.0000000   0.0728087   0.0000000), wk =   0.0109739
        k(   17) = (   0.0000000   0.0728087   0.0332173), wk =   0.0219479
        k(   18) = (   0.0000000   0.0728087   0.0664346), wk =   0.0219479
        k(   19) = (   0.0000000   0.0728087   0.0996519), wk =   0.0219479
        k(   20) = (   0.0000000   0.0728087   0.1328693), wk =   0.0219479
        k(   21) = (   0.0000000   0.0970783   0.0000000), wk =   0.0109739
        k(   22) = (   0.0000000   0.0970783   0.0332173), wk =   0.0219479
        k(   23) = (   0.0000000   0.0970783   0.0664346), wk =   0.0219479
        k(   24) = (   0.0000000   0.0970783   0.0996519), wk =   0.0219479
        k(   25) = (   0.0000000   0.0970783   0.1328693), wk =   0.0219479
        k(   26) = (   0.0242696   0.0242696   0.0000000), wk =   0.0109739
        k(   27) = (   0.0242696   0.0242696   0.0332173), wk =   0.0219479
        k(   28) = (   0.0242696   0.0242696   0.0664346), wk =   0.0219479
        k(   29) = (   0.0242696   0.0242696   0.0996519), wk =   0.0219479
        k(   30) = (   0.0242696   0.0242696   0.1328693), wk =   0.0219479
        k(   31) = (   0.0242696   0.0485391   0.0000000), wk =   0.0219479
        k(   32) = (   0.0242696   0.0485391   0.0332173), wk =   0.0438957
        k(   33) = (   0.0242696   0.0485391   0.0664346), wk =   0.0438957
        k(   34) = (   0.0242696   0.0485391   0.0996519), wk =   0.0438957
        k(   35) = (   0.0242696   0.0485391   0.1328693), wk =   0.0438957
        k(   36) = (   0.0242696   0.0728087   0.0000000), wk =   0.0219479
        k(   37) = (   0.0242696   0.0728087   0.0332173), wk =   0.0438957
        k(   38) = (   0.0242696   0.0728087   0.0664346), wk =   0.0438957
        k(   39) = (   0.0242696   0.0728087   0.0996519), wk =   0.0438957
        k(   40) = (   0.0242696   0.0728087   0.1328693), wk =   0.0438957
        k(   41) = (   0.0242696   0.0970783   0.0000000), wk =   0.0219479
        k(   42) = (   0.0242696   0.0970783   0.0332173), wk =   0.0438957
        k(   43) = (   0.0242696   0.0970783   0.0664346), wk =   0.0438957
        k(   44) = (   0.0242696   0.0970783   0.0996519), wk =   0.0438957
        k(   45) = (   0.0242696   0.0970783   0.1328693), wk =   0.0438957
        k(   46) = (   0.0485391   0.0485391   0.0000000), wk =   0.0109739
        k(   47) = (   0.0485391   0.0485391   0.0332173), wk =   0.0219479
        k(   48) = (   0.0485391   0.0485391   0.0664346), wk =   0.0219479
        k(   49) = (   0.0485391   0.0485391   0.0996519), wk =   0.0219479
        k(   50) = (   0.0485391   0.0485391   0.1328693), wk =   0.0219479
        k(   51) = (   0.0485391   0.0728087   0.0000000), wk =   0.0219479
        k(   52) = (   0.0485391   0.0728087   0.0332173), wk =   0.0438957
        k(   53) = (   0.0485391   0.0728087   0.0664346), wk =   0.0438957
        k(   54) = (   0.0485391   0.0728087   0.0996519), wk =   0.0438957
        k(   55) = (   0.0485391   0.0728087   0.1328693), wk =   0.0438957
        k(   56) = (   0.0485391   0.0970783   0.0000000), wk =   0.0219479
        k(   57) = (   0.0485391   0.0970783   0.0332173), wk =   0.0438957
        k(   58) = (   0.0485391   0.0970783   0.0664346), wk =   0.0438957
        k(   59) = (   0.0485391   0.0970783   0.0996519), wk =   0.0438957
        k(   60) = (   0.0485391   0.0970783   0.1328693), wk =   0.0438957
        k(   61) = (   0.0728087   0.0728087   0.0000000), wk =   0.0109739
        k(   62) = (   0.0728087   0.0728087   0.0332173), wk =   0.0219479
        k(   63) = (   0.0728087   0.0728087   0.0664346), wk =   0.0219479
        k(   64) = (   0.0728087   0.0728087   0.0996519), wk =   0.0219479
        k(   65) = (   0.0728087   0.0728087   0.1328693), wk =   0.0219479
        k(   66) = (   0.0728087   0.0970783   0.0000000), wk =   0.0219479
        k(   67) = (   0.0728087   0.0970783   0.0332173), wk =   0.0438957
        k(   68) = (   0.0728087   0.0970783   0.0664346), wk =   0.0438957
        k(   69) = (   0.0728087   0.0970783   0.0996519), wk =   0.0438957
        k(   70) = (   0.0728087   0.0970783   0.1328693), wk =   0.0438957
        k(   71) = (   0.0970783   0.0970783   0.0000000), wk =   0.0109739
        k(   72) = (   0.0970783   0.0970783   0.0332173), wk =   0.0219479
        k(   73) = (   0.0970783   0.0970783   0.0664346), wk =   0.0219479
        k(   74) = (   0.0970783   0.0970783   0.0996519), wk =   0.0219479
        k(   75) = (   0.0970783   0.0970783   0.1328693), wk =   0.0219479

     Largest allocated arrays     est. size (Mb)     dimensions
     Largest temporary arrays     est. size (Mb)     dimensions

     Initial potential from superposition of free atoms
     Check: negative starting charge=   -0.328234

     starting charge   48.99980, renormalised to   54.00000

     negative rho (up, down):  3.617E-01 0.000E+00

     *
     * You are using vdW-DF for exchange-correlation in this calculation.
     * Please cite the following three references that made this development
     * possible:
     *
     *   M. Dion, H. Rydberg, E. Schroder, D. C. Langreth, and
     *   B. I. Lundqvist, Phys. Rev. Lett. 92, 246401 (2004).
     *
     *   T. Thonhauser, V. R. Cooper, S. Li, A. Puzder, P. Hyldgaard, and
     *   D. C. Langreth, Phys. Rev. B 76, 125112 (2007).
     *
     *   G. Roman-Perez and J. M. Soler, Phys. Rev. Lett. 103, 096102 (2009).
     *
     *
     * If you are using vdW-DF2, please also cite:
     *
     *   K. Lee, E. D. Murray, L. Kong, B. I. Lundqvist, and
     *   D. C. Langreth, Phys. Rev. B 82, 081101(R) (2010).
     *
     *
     * If you are calculating the stress with vdW-DF, please also cite:
     *
     *   R. Sabatini, E. Kucukbenli, B. Kolb, T. Thonhauser, and
     *   S. de Gironcoli, J. Phys.: Condens. Matter 24, 424209 (2012).
     *

     Carrying out vdW-DF run using the following parameters:

     Nqs =      20    Nr_points =    1024   r_max =   100.000
     q_mesh =
               0.00001000     0.04494208     0.09755937     0.15916263
               0.23128650     0.31572767     0.41458969     0.53033537
               0.66584808     0.82450364     1.01025438     1.22772762
               1.48234092     1.78043706     2.12944203     2.53805004
               3.01644009     3.57652955     4.23227104     5.00000000

     Gradients computed in reciprocal space

     Starting wfc are   50 randomized atomic wfcs

     Self-consistent Calculation

     iteration #  1     ecut=    58.80 Ry     beta=0.10
     Davidson diagonalization with overlap
     ethr =  1.00E-02,  avg # of iterations =  4.4

[...]

     total energy              =    -666.67164498 Ry
     Harris-Foulkes estimate   =    -669.05337800 Ry
     estimated scf accuracy    <      14.92178067 Ry

[...]

     total energy              =    -665.92577513 Ry
     Harris-Foulkes estimate   =    -665.92577495 Ry
     estimated scf accuracy    <       0.00000102 Ry

     iteration # 13     ecut=    58.80 Ry     beta=0.10
     Davidson diagonalization with overlap
     ethr =  1.89E-09,  avg # of iterations =  1.1

     negative rho (up, down):  3.547E-01 0.000E+00

     End of self-consistent calculation

          k = 0.0000 0.0000 0.0000 (  3579 PWs)   bands (ev):

   -44.9963 -44.9669 -28.9119 -28.9119 -28.8616 -28.8616 -28.8571 -28.8457
   -13.6660 -13.6660 -13.4130 -13.3718 -13.3718 -13.3596   9.9850  12.5738
    12.8253  12.8842  12.9323  14.1694  14.1694  15.4735  15.4735  15.6565
    16.9044  17.9067  18.8227  18.8227  19.0117  19.3634  20.1664  22.3908
    22.3908  22.7223  22.7223  22.7660  23.5290  25.1621  26.0387  26.0387
    26.7644  29.5155  29.7444  29.7444  31.3999  32.8673  33.3241

[...]

          k = 0.0971 0.0971 0.1329 (  3573 PWs)   bands (ev):

   -44.9730 -44.9721 -28.9136 -28.9121 -28.8893 -28.8891 -28.8541 -28.8526
   -13.6779 -13.6691 -13.6122 -13.6099 -13.3394 -13.3301  12.6124  12.6488
    12.8945  12.9197  14.4367  14.4612  14.4661  14.5186  16.5196  16.6025
    17.3477  17.5989  18.2572  18.4633  18.6504  18.7549  19.6443  19.7061
    22.1992  22.4281  22.4726  22.5901  23.2983  23.3503  26.4609  26.5583
    29.1387  29.3774  30.1192  30.1753  30.2510  30.4126  32.2570

     the Fermi energy is    17.9227 ev

!    total energy              =    -665.92577507 Ry
     Harris-Foulkes estimate   =    -665.92577516 Ry
     estimated scf accuracy    <       0.00000094 Ry

     The total energy is the sum of the following terms:

     one-electron contribution =    -104.90825138 Ry
     hartree contribution      =      87.98393710 Ry
     xc contribution           =    -217.07725753 Ry
     ewald contribution        =    -431.91580370 Ry
     smearing contrib. (-TS)   =      -0.00839955 Ry

     convergence has been achieved in  13 iterations

     Forces acting on atoms (Ry/au):

     negative rho (up, down):  3.547E-01 0.000E+00
     atom    1 type  1   force =     0.00000000    0.00000000    0.00000000
     atom    2 type  1   force =     0.00000000    0.00000000    0.00000000
     atom    3 type  2   force =     0.00000000    0.00000000    0.00000000
     atom    4 type  2   force =     0.00000000    0.00000000    0.00000000

     Total force =     0.000000     Total SCF correction =     0.000000

     General routines

     Parallel routines

   This run was terminated on:   4: 8:29  15Nov2017

   JOB DONE.