     Program PWSCF v.5.1rc2 (svn rev. ) starts on 14Nov2017 at 22:23:48

     Current dimensions of program PWSCF are:
     Max number of different atomic species (ntypx) = 10
     Max number of k-points (npk) =  40000
     Max angular momentum in pseudopotentials (lmaxx) =  3

     IMPORTANT: XC functional enforced from input :
     Exchange-correlation      = BEEF-VDW ( 1  4 27 13 2)
     Any further DFT definition will be discarded
     Please, verify this is what you really want

     Subspace diagonalization in iterative solution of the eigenvalue problem:
     a serial algorithm will be used

     Found symmetry operation: I + ( -0.5000 -0.5000  0.0000)
     This is a supercell, fractional translations are disabled

     bravais-lattice index     =            0
     lattice parameter (alat)  =       1.8897  a.u.
     unit-cell volume          =     404.1890 (a.u.)^3
     number of atoms/cell      =            4
     number of atomic types    =            2
     number of electrons       =        62.00
     number of Kohn-Sham states=           51
     kinetic-energy cutoff     =      58.7989  Ry
     charge density cutoff     =     587.9892  Ry
     convergence threshold     =      1.0E-06
     mixing beta               =       0.1000
     number of iterations used =           10  plain     mixing
     Exchange-correlation      = BEEF-VDW ( 1  4 27 13 2)

     celldm(1)=   1.889726  celldm(2)=   0.000000  celldm(3)=   0.000000
     celldm(4)=   0.000000  celldm(5)=   0.000000  celldm(6)=   0.000000

     crystal axes: (cart. coord. in units of alat)
               a(1) = (   3.842649   0.000000   0.000000 )
               a(2) = (   0.000000   3.842649   0.000000 )
               a(3) = (   0.000000   0.000000   4.056265 )

     reciprocal axes: (cart. coord. in units 2 pi/alat)
               b(1) = (  0.260237  0.000000  0.000000 )
               b(2) = (  0.000000  0.260237  0.000000 )
               b(3) = (  0.000000  0.000000  0.246532 )

     PseudoPot. # 1 for Tc read from file:
     /home/vossj/suncat/psp/gbrv1.5pbe/Tc.UPF
     MD5 check sum: 9eb49e5b028550b2339a02317eb7b844
     Pseudo is Ultrasoft + core correction, Zval = 15.0
     Generated by new atomic code, or converted to UPF format
     Using radial grid of  965 points,  6 beta functions with:
                l(1) =   0
                l(2) =   0
                l(3) =   1
                l(4) =   1
                l(5) =   2
                l(6) =   2
     Q(r) pseudized with  8 coefficients,  rinner =    1.300   1.300   1.300
                                                       1.300   1.300

     PseudoPot. # 2 for Pt read from file:
     /home/vossj/suncat/psp/gbrv1.5pbe/Pt.UPF
     MD5 check sum: f09d6de1a584b5a045c4fc126da2d0c4
     Pseudo is Ultrasoft + core correction, Zval = 16.0
     Generated by new atomic code, or converted to UPF format
     Using radial grid of  985 points,  6 beta functions with:
                l(1) =   0
                l(2) =   0
                l(3) =   1
                l(4) =   1
                l(5) =   2
                l(6) =   2
     Q(r) pseudized with  8 coefficients,  rinner =    1.300   1.300   1.300
                                                       1.300   1.300

     vdW kernel table read from file vdW_kernel_table
     MD5 check sum: 095c7af220d748ca6e76c0b4c6cfb241

     atomic species   valence    mass     pseudopotential
        Tc1           15.00    97.90721     Tc( 1.00)
        Pt1           16.00   195.08400     Pt( 1.00)

     16 Sym. Ops., with inversion, found

   Cartesian axes

     site n.     atom                  positions (alat units)
         1           Tc1 tau(   1) = (   0.0000000   0.0000000   0.0000000  )
         2           Tc1 tau(   2) = (   1.9213247   1.9213247   0.0000000  )
         3           Pt1 tau(   3) = (   1.9213247   0.0000000   2.0281326  )
         4           Pt1 tau(   4) = (   0.0000000   1.9213247   2.0281326  )

     number of k points=    75  Fermi-Dirac smearing, width (Ry)=  0.0073
                       cart. coord. in units 2pi/alat
        k(    1) = (   0.0000000   0.0000000   0.0000000), wk =   0.0027435
        k(    2) = (   0.0000000   0.0000000   0.0273925), wk =   0.0054870
        k(    3) = (   0.0000000   0.0000000   0.0547849), wk =   0.0054870
        k(    4) = (   0.0000000   0.0000000   0.0821774), wk =   0.0054870
        k(    5) = (   0.0000000   0.0000000   0.1095699), wk =   0.0054870
        k(    6) = (   0.0000000   0.0289152   0.0000000), wk =   0.0109739
        k(    7) = (   0.0000000   0.0289152   0.0273925), wk =   0.0219479
        k(    8) = (   0.0000000   0.0289152   0.0547849), wk =   0.0219479
        k(    9) = (   0.0000000   0.0289152   0.0821774), wk =   0.0219479
        k(   10) = (   0.0000000   0.0289152   0.1095699), wk =   0.0219479
        k(   11) = (   0.0000000   0.0578305   0.0000000), wk =   0.0109739
        k(   12) = (   0.0000000   0.0578305   0.0273925), wk =   0.0219479
        k(   13) = (   0.0000000   0.0578305   0.0547849), wk =   0.0219479
        k(   14) = (   0.0000000   0.0578305   0.0821774), wk =   0.0219479
        k(   15) = (   0.0000000   0.0578305   0.1095699), wk =   0.0219479
        k(   16) = (   0.0000000   0.0867457   0.0000000), wk =   0.0109739
        k(   17) = (   0.0000000   0.0867457   0.0273925), wk =   0.0219479
        k(   18) = (   0.0000000   0.0867457   0.0547849), wk =   0.0219479
        k(   19) = (   0.0000000   0.0867457   0.0821774), wk =   0.0219479
        k(   20) = (   0.0000000   0.0867457   0.1095699), wk =   0.0219479
        k(   21) = (   0.0000000   0.1156609   0.0000000), wk =   0.0109739
        k(   22) = (   0.0000000   0.1156609   0.0273925), wk =   0.0219479
        k(   23) = (   0.0000000   0.1156609   0.0547849), wk =   0.0219479
        k(   24) = (   0.0000000   0.1156609   0.0821774), wk =   0.0219479
        k(   25) = (   0.0000000   0.1156609   0.1095699), wk =   0.0219479
        k(   26) = (   0.0289152   0.0289152   0.0000000), wk =   0.0109739
        k(   27) = (   0.0289152   0.0289152   0.0273925), wk =   0.0219479
        k(   28) = (   0.0289152   0.0289152   0.0547849), wk =   0.0219479
        k(   29) = (   0.0289152   0.0289152   0.0821774), wk =   0.0219479
        k(   30) = (   0.0289152   0.0289152   0.1095699), wk =   0.0219479
        k(   31) = (   0.0289152   0.0578305   0.0000000), wk =   0.0219479
        k(   32) = (   0.0289152   0.0578305   0.0273925), wk =   0.0438957
        k(   33) = (   0.0289152   0.0578305   0.0547849), wk =   0.0438957
        k(   34) = (   0.0289152   0.0578305   0.0821774), wk =   0.0438957
        k(   35) = (   0.0289152   0.0578305   0.1095699), wk =   0.0438957
        k(   36) = (   0.0289152   0.0867457   0.0000000), wk =   0.0219479
        k(   37) = (   0.0289152   0.0867457   0.0273925), wk =   0.0438957
        k(   38) = (   0.0289152   0.0867457   0.0547849), wk =   0.0438957
        k(   39) = (   0.0289152   0.0867457   0.0821774), wk =   0.0438957
        k(   40) = (   0.0289152   0.0867457   0.1095699), wk =   0.0438957
        k(   41) = (   0.0289152   0.1156609   0.0000000), wk =   0.0219479
        k(   42) = (   0.0289152   0.1156609   0.0273925), wk =   0.0438957
        k(   43) = (   0.0289152   0.1156609   0.0547849), wk =   0.0438957
        k(   44) = (   0.0289152   0.1156609   0.0821774), wk =   0.0438957
        k(   45) = (   0.0289152   0.1156609   0.1095699), wk =   0.0438957
        k(   46) = (   0.0578305   0.0578305   0.0000000), wk =   0.0109739
        k(   47) = (   0.0578305   0.0578305   0.0273925), wk =   0.0219479
        k(   48) = (   0.0578305   0.0578305   0.0547849), wk =   0.0219479
        k(   49) = (   0.0578305   0.0578305   0.0821774), wk =   0.0219479
        k(   50) = (   0.0578305   0.0578305   0.1095699), wk =   0.0219479
        k(   51) = (   0.0578305   0.0867457   0.0000000), wk =   0.0219479
        k(   52) = (   0.0578305   0.0867457   0.0273925), wk =   0.0438957
        k(   53) = (   0.0578305   0.0867457   0.0547849), wk =   0.0438957
        k(   54) = (   0.0578305   0.0867457   0.0821774), wk =   0.0438957
        k(   55) = (   0.0578305   0.0867457   0.1095699), wk =   0.0438957
        k(   56) = (   0.0578305   0.1156609   0.0000000), wk =   0.0219479
        k(   57) = (   0.0578305   0.1156609   0.0273925), wk =   0.0438957
        k(   58) = (   0.0578305   0.1156609   0.0547849), wk =   0.0438957
        k(   59) = (   0.0578305   0.1156609   0.0821774), wk =   0.0438957
        k(   60) = (   0.0578305   0.1156609   0.1095699), wk =   0.0438957
        k(   61) = (   0.0867457   0.0867457   0.0000000), wk =   0.0109739
        k(   62) = (   0.0867457   0.0867457   0.0273925), wk =   0.0219479
        k(   63) = (   0.0867457   0.0867457   0.0547849), wk =   0.0219479
        k(   64) = (   0.0867457   0.0867457   0.0821774), wk =   0.0219479
        k(   65) = (   0.0867457   0.0867457   0.1095699), wk =   0.0219479
        k(   66) = (   0.0867457   0.1156609   0.0000000), wk =   0.0219479
        k(   67) = (   0.0867457   0.1156609   0.0273925), wk =   0.0438957
        k(   68) = (   0.0867457   0.1156609   0.0547849), wk =   0.0438957
        k(   69) = (   0.0867457   0.1156609   0.0821774), wk =   0.0438957
        k(   70) = (   0.0867457   0.1156609   0.1095699), wk =   0.0438957
        k(   71) = (   0.1156609   0.1156609   0.0000000), wk =   0.0109739
        k(   72) = (   0.1156609   0.1156609   0.0273925), wk =   0.0219479
        k(   73) = (   0.1156609   0.1156609   0.0547849), wk =   0.0219479
        k(   74) = (   0.1156609   0.1156609   0.0821774), wk =   0.0219479
        k(   75) = (   0.1156609   0.1156609   0.1095699), wk =   0.0219479

     Largest allocated arrays     est. size (Mb)     dimensions
     Largest temporary arrays     est. size (Mb)     dimensions

     Check: negative/imaginary core charge=   -0.000005    0.000000

     Initial potential from superposition of free atoms
     Check: negative starting charge=   -0.617952

     starting charge   58.99992, renormalised to   62.00000

     negative rho (up, down):  6.494E-01 0.000E+00

     *
     * You are using vdW-DF for exchange-correlation in this calculation.
     * Please cite the following three references that made this development
     * possible:
     *
     *   M. Dion, H. Rydberg, E. Schroder, D. C. Langreth, and
     *   B. I. Lundqvist, Phys. Rev. Lett. 92, 246401 (2004).
     *
     *   T. Thonhauser, V. R. Cooper, S. Li, A. Puzder, P. Hyldgaard, and
     *   D. C. Langreth, Phys. Rev. B 76, 125112 (2007).
     *
     *   G. Roman-Perez and J. M. Soler, Phys. Rev. Lett. 103, 096102 (2009).
     *
     *
     * If you are using vdW-DF2, please also cite:
     *
     *   K. Lee, E. D. Murray, L. Kong, B. I. Lundqvist, and
     *   D. C. Langreth, Phys. Rev. B 82, 081101(R) (2010).
     *
     *
     * If you are calculating the stress with vdW-DF, please also cite:
     *
     *   R. Sabatini, E. Kucukbenli, B. Kolb, T. Thonhauser, and
     *   S. de Gironcoli, J. Phys.: Condens. Matter 24, 424209 (2012).
     *

     Carrying out vdW-DF run using the following parameters:

     Nqs =      20    Nr_points =    1024   r_max =   100.000
     q_mesh =
               0.00001000     0.04494208     0.09755937     0.15916263
               0.23128650     0.31572767     0.41458969     0.53033537
               0.66584808     0.82450364     1.01025438     1.22772762
               1.48234092     1.78043706     2.12944203     2.53805004
               3.01644009     3.57652955     4.23227104     5.00000000

     Gradients computed in reciprocal space

     Starting wfc are   50 randomized atomic wfcs +    1 random wfc

     Self-consistent Calculation

     iteration #  1     ecut=    58.80 Ry     beta=0.10
     Davidson diagonalization with overlap
     ethr =  1.00E-02,  avg # of iterations =  4.6

[...]

     total energy              =    -775.49953896 Ry
     Harris-Foulkes estimate   =    -777.35852363 Ry
     estimated scf accuracy    <      11.01686983 Ry

[...]

     total energy              =    -775.43075685 Ry
     Harris-Foulkes estimate   =    -775.43075573 Ry
     estimated scf accuracy    <       0.00000359 Ry

     iteration # 12     ecut=    58.80 Ry     beta=0.10
     Davidson diagonalization with overlap
     ethr =  5.79E-09,  avg # of iterations =  1.0

     negative rho (up, down):  6.148E-01 0.000E+00

     End of self-consistent calculation

          k = 0.0000 0.0000 0.0000 (  3083 PWs)   bands (ev):

   -45.2391 -45.0905 -31.4788 -31.4788 -31.3869 -31.3253 -31.2091 -31.2091
   -17.4484 -17.4484 -17.2269 -17.0885 -16.8585 -16.8585  12.9957  15.2141
    15.5205  15.6773  15.7230  15.8791  15.8791  18.9514  18.9514  19.0314
    20.8959  21.0428  22.3442  22.4894  23.4601  23.4601  23.8083  23.9284
    23.9284  23.9745  23.9979  25.0165  25.0165  25.3630  31.8388  32.5203
    32.6612  34.2895  34.2895  34.4889  34.7242  34.7242  35.4856  36.3414
    40.4803  42.0318  42.0419

[...]

          k = 0.1157 0.1157 0.1096 (  3077 PWs)   bands (ev):

   -45.1659 -45.1614 -31.5104 -31.5024 -31.3586 -31.3569 -31.1929 -31.1847
   -17.5280 -17.5108 -17.1646 -17.1599 -16.8199 -16.8013  15.1889  15.2716
    15.7208  15.7247  17.8482  17.8993  18.5977  18.7695  19.1043  19.1921
    19.5152  19.6407  21.2242  21.6345  21.6441  22.1084  22.6040  22.9924
    23.0297  23.6192  23.8469  23.9041  24.2824  24.3454  28.6849  28.9924
    31.6053  31.8523  35.9250  35.9832  36.1101  36.1870  40.6934  40.8927
    41.0561  41.3132  41.3893

     the Fermi energy is    22.2455 ev

!    total energy              =    -775.43076362 Ry
     Harris-Foulkes estimate   =    -775.43075704 Ry
     estimated scf accuracy    <       0.00000039 Ry

     The total energy is the sum of the following terms:

     one-electron contribution =     -91.54761358 Ry
     hartree contribution      =      95.92858788 Ry
     xc contribution           =    -183.62606162 Ry
     ewald contribution        =    -596.17395704 Ry
     smearing contrib. (-TS)   =      -0.01171928 Ry

     convergence has been achieved in  12 iterations

     Forces acting on atoms (Ry/au):

     negative rho (up, down):  6.148E-01 0.000E+00
     atom    1 type  1   force =     0.00000000    0.00000000    0.00000000
     atom    2 type  1   force =     0.00000000    0.00000000    0.00000000
     atom    3 type  2   force =     0.00000000    0.00000000    0.00000000
     atom    4 type  2   force =     0.00000000    0.00000000    0.00000000

     Total force =     0.000000     Total SCF correction =     0.000000

     General routines

     Parallel routines

   This run was terminated on:  22:24:32  14Nov2017

   JOB DONE.