     Program PWSCF v.5.1rc2 (svn rev. ) starts on 14Nov2017 at 23:53:31

     Current dimensions of program PWSCF are:
     Max number of different atomic species (ntypx) = 10
     Max number of k-points (npk) =  40000
     Max angular momentum in pseudopotentials (lmaxx) =  3

     IMPORTANT: XC functional enforced from input :
     Exchange-correlation      = BEEF-VDW ( 1  4 27 13 2)
     Any further DFT definition will be discarded
     Please, verify this is what you really want

     Subspace diagonalization in iterative solution of the eigenvalue problem:
     a serial algorithm will be used

     Found symmetry operation: I + ( -0.5000 -0.5000  0.0000)
     This is a supercell, fractional translations are disabled

     bravais-lattice index     =            0
     lattice parameter (alat)  =       1.8897  a.u.
     unit-cell volume          =     518.8211 (a.u.)^3
     number of atoms/cell      =            4
     number of atomic types    =            2
     number of electrons       =        58.00
     number of Kohn-Sham states=           49
     kinetic-energy cutoff     =      58.7989  Ry
     charge density cutoff     =     587.9892  Ry
     convergence threshold     =      1.0E-06
     mixing beta               =       0.1000
     number of iterations used =           10  plain     mixing
     Exchange-correlation      = BEEF-VDW ( 1  4 27 13 2)

     celldm(1)=   1.889726  celldm(2)=   0.000000  celldm(3)=   0.000000
     celldm(4)=   0.000000  celldm(5)=   0.000000  celldm(6)=   0.000000

     crystal axes: (cart. coord. in units of alat)
               a(1) = (   4.772682   0.000000   0.000000 )
               a(2) = (   0.000000   4.772682   0.000000 )
               a(3) = (   0.000000   0.000000   3.375172 )

     reciprocal axes: (cart. coord. in units 2 pi/alat)
               b(1) = (  0.209526  0.000000  0.000000 )
               b(2) = (  0.000000  0.209526  0.000000 )
               b(3) = (  0.000000  0.000000  0.296281 )

     PseudoPot. # 1 for Tc read from file:
     /home/vossj/suncat/psp/gbrv1.5pbe/Tc.UPF
     MD5 check sum: 9eb49e5b028550b2339a02317eb7b844
     Pseudo is Ultrasoft + core correction, Zval = 15.0
     Generated by new atomic code, or converted to UPF format
     Using radial grid of  965 points,  6 beta functions with:
                l(1) =   0
                l(2) =   0
                l(3) =   1
                l(4) =   1
                l(5) =   2
                l(6) =   2
     Q(r) pseudized with  8 coefficients,  rinner =    1.300   1.300   1.300
                                                       1.300   1.300

     PseudoPot. # 2 for Pb read from file:
     /home/vossj/suncat/psp/gbrv1.5pbe/Pb.UPF
     MD5 check sum: 3d1c1779aa92214d1e8f3a7db79003e2
     Pseudo is Ultrasoft + core correction, Zval = 14.0
     Generated by new atomic code, or converted to UPF format
     Using radial grid of  899 points,  6 beta functions with:
                l(1) =   0
                l(2) =   0
                l(3) =   1
                l(4) =   1
                l(5) =   2
                l(6) =   2
     Q(r) pseudized with  6 coefficients,  rinner =    1.000   1.000   1.000
                                                       1.000   1.000

     vdW kernel table read from file vdW_kernel_table
     MD5 check sum: 095c7af220d748ca6e76c0b4c6cfb241

     atomic species   valence    mass     pseudopotential
        Tc1           15.00    97.90721     Tc( 1.00)
        Pb1           14.00   207.20000     Pb( 1.00)

     16 Sym. Ops., with inversion, found

   Cartesian axes

     site n.     atom                  positions (alat units)
         1           Tc1 tau(   1) = (   0.0000000   0.0000000   0.0000000  )
         2           Tc1 tau(   2) = (   2.3863412   2.3863412   0.0000000  )
         3           Pb1 tau(   3) = (   2.3863412   0.0000000   1.6875860  )
         4           Pb1 tau(   4) = (   0.0000000   2.3863412   1.6875860  )

     number of k points=    75  Fermi-Dirac smearing, width (Ry)=  0.0073
                       cart. coord. in units 2pi/alat
        k(    1) = (   0.0000000   0.0000000   0.0000000), wk =   0.0027435
        k(    2) = (   0.0000000   0.0000000   0.0329201), wk =   0.0054870
        k(    3) = (   0.0000000   0.0000000   0.0658403), wk =   0.0054870
        k(    4) = (   0.0000000   0.0000000   0.0987604), wk =   0.0054870
        k(    5) = (   0.0000000   0.0000000   0.1316805), wk =   0.0054870
        k(    6) = (   0.0000000   0.0232806   0.0000000), wk =   0.0109739
        k(    7) = (   0.0000000   0.0232806   0.0329201), wk =   0.0219479
        k(    8) = (   0.0000000   0.0232806   0.0658403), wk =   0.0219479
        k(    9) = (   0.0000000   0.0232806   0.0987604), wk =   0.0219479
        k(   10) = (   0.0000000   0.0232806   0.1316805), wk =   0.0219479
        k(   11) = (   0.0000000   0.0465613   0.0000000), wk =   0.0109739
        k(   12) = (   0.0000000   0.0465613   0.0329201), wk =   0.0219479
        k(   13) = (   0.0000000   0.0465613   0.0658403), wk =   0.0219479
        k(   14) = (   0.0000000   0.0465613   0.0987604), wk =   0.0219479
        k(   15) = (   0.0000000   0.0465613   0.1316805), wk =   0.0219479
        k(   16) = (   0.0000000   0.0698419   0.0000000), wk =   0.0109739
        k(   17) = (   0.0000000   0.0698419   0.0329201), wk =   0.0219479
        k(   18) = (   0.0000000   0.0698419   0.0658403), wk =   0.0219479
        k(   19) = (   0.0000000   0.0698419   0.0987604), wk =   0.0219479
        k(   20) = (   0.0000000   0.0698419   0.1316805), wk =   0.0219479
        k(   21) = (   0.0000000   0.0931226   0.0000000), wk =   0.0109739
        k(   22) = (   0.0000000   0.0931226   0.0329201), wk =   0.0219479
        k(   23) = (   0.0000000   0.0931226   0.0658403), wk =   0.0219479
        k(   24) = (   0.0000000   0.0931226   0.0987604), wk =   0.0219479
        k(   25) = (   0.0000000   0.0931226   0.1316805), wk =   0.0219479
        k(   26) = (   0.0232806   0.0232806   0.0000000), wk =   0.0109739
        k(   27) = (   0.0232806   0.0232806   0.0329201), wk =   0.0219479
        k(   28) = (   0.0232806   0.0232806   0.0658403), wk =   0.0219479
        k(   29) = (   0.0232806   0.0232806   0.0987604), wk =   0.0219479
        k(   30) = (   0.0232806   0.0232806   0.1316805), wk =   0.0219479
        k(   31) = (   0.0232806   0.0465613   0.0000000), wk =   0.0219479
        k(   32) = (   0.0232806   0.0465613   0.0329201), wk =   0.0438957
        k(   33) = (   0.0232806   0.0465613   0.0658403), wk =   0.0438957
        k(   34) = (   0.0232806   0.0465613   0.0987604), wk =   0.0438957
        k(   35) = (   0.0232806   0.0465613   0.1316805), wk =   0.0438957
        k(   36) = (   0.0232806   0.0698419   0.0000000), wk =   0.0219479
        k(   37) = (   0.0232806   0.0698419   0.0329201), wk =   0.0438957
        k(   38) = (   0.0232806   0.0698419   0.0658403), wk =   0.0438957
        k(   39) = (   0.0232806   0.0698419   0.0987604), wk =   0.0438957
        k(   40) = (   0.0232806   0.0698419   0.1316805), wk =   0.0438957
        k(   41) = (   0.0232806   0.0931226   0.0000000), wk =   0.0219479
        k(   42) = (   0.0232806   0.0931226   0.0329201), wk =   0.0438957
        k(   43) = (   0.0232806   0.0931226   0.0658403), wk =   0.0438957
        k(   44) = (   0.0232806   0.0931226   0.0987604), wk =   0.0438957
        k(   45) = (   0.0232806   0.0931226   0.1316805), wk =   0.0438957
        k(   46) = (   0.0465613   0.0465613   0.0000000), wk =   0.0109739
        k(   47) = (   0.0465613   0.0465613   0.0329201), wk =   0.0219479
        k(   48) = (   0.0465613   0.0465613   0.0658403), wk =   0.0219479
        k(   49) = (   0.0465613   0.0465613   0.0987604), wk =   0.0219479
        k(   50) = (   0.0465613   0.0465613   0.1316805), wk =   0.0219479
        k(   51) = (   0.0465613   0.0698419   0.0000000), wk =   0.0219479
        k(   52) = (   0.0465613   0.0698419   0.0329201), wk =   0.0438957
        k(   53) = (   0.0465613   0.0698419   0.0658403), wk =   0.0438957
        k(   54) = (   0.0465613   0.0698419   0.0987604), wk =   0.0438957
        k(   55) = (   0.0465613   0.0698419   0.1316805), wk =   0.0438957
        k(   56) = (   0.0465613   0.0931226   0.0000000), wk =   0.0219479
        k(   57) = (   0.0465613   0.0931226   0.0329201), wk =   0.0438957
        k(   58) = (   0.0465613   0.0931226   0.0658403), wk =   0.0438957
        k(   59) = (   0.0465613   0.0931226   0.0987604), wk =   0.0438957
        k(   60) = (   0.0465613   0.0931226   0.1316805), wk =   0.0438957
        k(   61) = (   0.0698419   0.0698419   0.0000000), wk =   0.0109739
        k(   62) = (   0.0698419   0.0698419   0.0329201), wk =   0.0219479
        k(   63) = (   0.0698419   0.0698419   0.0658403), wk =   0.0219479
        k(   64) = (   0.0698419   0.0698419   0.0987604), wk =   0.0219479
        k(   65) = (   0.0698419   0.0698419   0.1316805), wk =   0.0219479
        k(   66) = (   0.0698419   0.0931226   0.0000000), wk =   0.0219479
        k(   67) = (   0.0698419   0.0931226   0.0329201), wk =   0.0438957
        k(   68) = (   0.0698419   0.0931226   0.0658403), wk =   0.0438957
        k(   69) = (   0.0698419   0.0931226   0.0987604), wk =   0.0438957
        k(   70) = (   0.0698419   0.0931226   0.1316805), wk =   0.0438957
        k(   71) = (   0.0931226   0.0931226   0.0000000), wk =   0.0109739
        k(   72) = (   0.0931226   0.0931226   0.0329201), wk =   0.0219479
        k(   73) = (   0.0931226   0.0931226   0.0658403), wk =   0.0219479
        k(   74) = (   0.0931226   0.0931226   0.0987604), wk =   0.0219479
        k(   75) = (   0.0931226   0.0931226   0.1316805), wk =   0.0219479

     Largest allocated arrays     est. size (Mb)     dimensions
     Largest temporary arrays     est. size (Mb)     dimensions

     Check: negative/imaginary core charge=   -0.000004    0.000000

     Initial potential from superposition of free atoms
     Check: negative starting charge=   -0.278537

     starting charge   55.99524, renormalised to   58.00000

     negative rho (up, down):  2.885E-01 0.000E+00

     *
     * You are using vdW-DF for exchange-correlation in this calculation.
     * Please cite the following three references that made this development
     * possible:
     *
     *   M. Dion, H. Rydberg, E. Schroder, D. C. Langreth, and
     *   B. I. Lundqvist, Phys. Rev. Lett. 92, 246401 (2004).
     *
     *   T. Thonhauser, V. R. Cooper, S. Li, A. Puzder, P. Hyldgaard, and
     *   D. C. Langreth, Phys. Rev. B 76, 125112 (2007).
     *
     *   G. Roman-Perez and J. M. Soler, Phys. Rev. Lett. 103, 096102 (2009).
     *
     *
     * If you are using vdW-DF2, please also cite:
     *
     *   K. Lee, E. D. Murray, L. Kong, B. I. Lundqvist, and
     *   D. C. Langreth, Phys. Rev. B 82, 081101(R) (2010).
     *
     *
     * If you are calculating the stress with vdW-DF, please also cite:
     *
     *   R. Sabatini, E. Kucukbenli, B. Kolb, T. Thonhauser, and
     *   S. de Gironcoli, J. Phys.: Condens. Matter 24, 424209 (2012).
     *

     Carrying out vdW-DF run using the following parameters:

     Nqs =      20    Nr_points =    1024   r_max =   100.000
     q_mesh =
               0.00001000     0.04494208     0.09755937     0.15916263
               0.23128650     0.31572767     0.41458969     0.53033537
               0.66584808     0.82450364     1.01025438     1.22772762
               1.48234092     1.78043706     2.12944203     2.53805004
               3.01644009     3.57652955     4.23227104     5.00000000

     Gradients computed in reciprocal space

     Starting wfc are   44 randomized atomic wfcs +    5 random wfc

     Self-consistent Calculation

     iteration #  1     ecut=    58.80 Ry     beta=0.10
     Davidson diagonalization with overlap
     ethr =  1.00E-02,  avg # of iterations =  4.7

[...]

     total energy              =    -682.65454389 Ry
     Harris-Foulkes estimate   =    -682.75909245 Ry
     estimated scf accuracy    <       0.71670809 Ry

[...]

     total energy              =    -682.48395885 Ry
     Harris-Foulkes estimate   =    -682.48383602 Ry
     estimated scf accuracy    <       0.00000451 Ry

     iteration # 10     ecut=    58.80 Ry     beta=0.10
     Davidson diagonalization with overlap
     ethr =  7.78E-09,  avg # of iterations =  2.6

     negative rho (up, down):  2.870E-01 0.000E+00

     End of self-consistent calculation

          k = 0.0000 0.0000 0.0000 (  3935 PWs)   bands (ev):

   -49.1233 -49.1141 -21.2182 -21.2182 -21.1454 -21.1454 -21.1405 -21.1268
     0.0689   0.0697   0.1476   0.2439   0.3143   0.3143   0.4369   0.4369
     0.4379   0.6358   5.6149   9.0801  14.5596  14.5596  15.1888  15.1931
    15.4695  16.9266  16.9266  17.6070  17.6100  17.6100  18.4364  19.0963
    20.4248  20.4283  20.4283  21.4478  23.9373  24.3310  27.3751  27.3751
    28.3230  28.3799  28.6240  28.6252  31.2281  31.2621  31.2645  31.2646
    31.4856

[...]

          k = 0.0931 0.0931 0.1317 (  3963 PWs)   bands (ev):

   -49.1144 -49.1141 -21.2183 -21.2161 -21.2112 -21.2106 -21.1343 -21.1321
     0.1546   0.1582   0.2410   0.2546   0.3135   0.3159   0.3185   0.3218
     0.6167   0.6261   8.9903   9.0758  14.2223  14.2656  14.5376  14.5887
    15.6412  15.7020  16.8596  16.9425  17.0080  17.0492  18.4604  18.4645
    19.0449  19.2454  21.5430  21.6498  24.2591  24.4409  27.2788  27.3565
    27.3893  27.5210  28.3281  28.3306  30.8534  30.9521  31.6610  31.8364
    34.6484

     the Fermi energy is    17.3263 ev

!    total energy              =    -682.48447117 Ry
     Harris-Foulkes estimate   =    -682.48395934 Ry
     estimated scf accuracy    <       0.00000093 Ry

     The total energy is the sum of the following terms:

     one-electron contribution =    -100.89030571 Ry
     hartree contribution      =      95.94008997 Ry
     xc contribution           =    -197.30882612 Ry
     ewald contribution        =    -480.21099395 Ry
     smearing contrib. (-TS)   =      -0.01443536 Ry

     convergence has been achieved in  10 iterations

     Forces acting on atoms (Ry/au):

     negative rho (up, down):  2.870E-01 0.000E+00
     atom    1 type  1   force =     0.00000000    0.00000000    0.00000000
     atom    2 type  1   force =     0.00000000    0.00000000    0.00000000
     atom    3 type  2   force =     0.00000000    0.00000000    0.00000000
     atom    4 type  2   force =     0.00000000    0.00000000    0.00000000

     Total force =     0.000000     Total SCF correction =     0.000000

     General routines

     Parallel routines

   This run was terminated on:  23:54:19  14Nov2017

   JOB DONE.