     Program PWSCF v.5.1rc2 starts on 14Nov2017 at  6:47: 5

     Current dimensions of program PWSCF are:
     Max number of different atomic species (ntypx) = 10
     Max number of k-points (npk) =  40000
     Max angular momentum in pseudopotentials (lmaxx) =  3

     IMPORTANT: XC functional enforced from input :
     Exchange-correlation      = BEEF-VDW ( 1  4 27 13 2)
     Any further DFT definition will be discarded
     Please, verify this is what you really want

     Found symmetry operation: I + ( -0.5000 -0.5000  0.0000)
     This is a supercell, fractional translations are disabled

     bravais-lattice index     =            0
     lattice parameter (alat)  =       1.8897  a.u.
     unit-cell volume          =     436.6932 (a.u.)^3
     number of atoms/cell      =            4
     number of atomic types    =            2
     number of electrons       =        52.00
     number of Kohn-Sham states=           46
     kinetic-energy cutoff     =      58.7989  Ry
     charge density cutoff     =     587.9892  Ry
     convergence threshold     =      1.0E-06
     mixing beta               =       0.1000
     number of iterations used =           10  plain     mixing
     Exchange-correlation      = BEEF-VDW ( 1  4 27 13 2)

     celldm(1)=   1.889726  celldm(2)=   0.000000  celldm(3)=   0.000000
     celldm(4)=   0.000000  celldm(5)=   0.000000  celldm(6)=   0.000000

     crystal axes: (cart. coord. in units of alat)
               a(1) = (   3.826820   0.000000   0.000000 )
               a(2) = (   0.000000   3.826820   0.000000 )
               a(3) = (   0.000000   0.000000   4.418793 )

     reciprocal axes: (cart. coord. in units 2 pi/alat)
               b(1) = (  0.261314  0.000000  0.000000 )
               b(2) = (  0.000000  0.261314  0.000000 )
               b(3) = (  0.000000  0.000000  0.226306 )

     PseudoPot. # 1 for Cr read from file:
     /home/users/vossj/suncat/psp/gbrv1.5pbe/Cr.UPF
     MD5 check sum: 0d52af634a40206e4dee301ad30da4bf
     Pseudo is Ultrasoft + core correction, Zval = 14.0
     Generated by new atomic code, or converted to UPF format
     Using radial grid of  857 points,  6 beta functions with:
                l(1) =   0
                l(2) =   0
                l(3) =   1
                l(4) =   1
                l(5) =   2
                l(6) =   2
     Q(r) pseudized with  8 coefficients,  rinner =    0.950   0.950   0.950
                                                       0.950   0.950

     PseudoPot. # 2 for Cd read from file:
     /home/users/vossj/suncat/psp/gbrv1.5pbe/Cd.UPF
     MD5 check sum: 17164a7926edb8e0dc231208abae86a6
     Pseudo is Ultrasoft + core correction, Zval = 12.0
     Generated by new atomic code, or converted to UPF format
     Using radial grid of  889 points,  6 beta functions with:
                l(1) =   0
                l(2) =   0
                l(3) =   1
                l(4) =   1
                l(5) =   2
                l(6) =   2
     Q(r) pseudized with  6 coefficients,  rinner =    1.000   1.000   1.000
                                                       1.000   1.000

     vdW kernel table read from file vdW_kernel_table
     MD5 check sum: 095c7af220d748ca6e76c0b4c6cfb241

     atomic species   valence    mass     pseudopotential
        Cr1           14.00    51.99600     Cr( 1.00)
        Cd1           12.00   112.41000     Cd( 1.00)

     16 Sym. Ops., with inversion, found

   Cartesian axes

     site n.     atom                  positions (alat units)
         1           Cr1 tau(   1) = (   0.0000000   0.0000000   0.0000000  )
         2           Cr1 tau(   2) = (   1.9134102   1.9134102   0.0000000  )
         3           Cd1 tau(   3) = (   1.9134102   0.0000000   2.2093966  )
         4           Cd1 tau(   4) = (   0.0000000   1.9134102   2.2093966  )

     number of k points=    75  Fermi-Dirac smearing, width (Ry)=  0.0073
                       cart. coord. in units 2pi/alat
        k(    1) = (   0.0000000   0.0000000   0.0000000), wk =   0.0027435
        k(    2) = (   0.0000000   0.0000000   0.0251451), wk =   0.0054870
        k(    3) = (   0.0000000   0.0000000   0.0502903), wk =   0.0054870
        k(    4) = (   0.0000000   0.0000000   0.0754354), wk =   0.0054870
        k(    5) = (   0.0000000   0.0000000   0.1005805), wk =   0.0054870
        k(    6) = (   0.0000000   0.0290348   0.0000000), wk =   0.0109739
        k(    7) = (   0.0000000   0.0290348   0.0251451), wk =   0.0219479
        k(    8) = (   0.0000000   0.0290348   0.0502903), wk =   0.0219479
        k(    9) = (   0.0000000   0.0290348   0.0754354), wk =   0.0219479
        k(   10) = (   0.0000000   0.0290348   0.1005805), wk =   0.0219479
        k(   11) = (   0.0000000   0.0580697   0.0000000), wk =   0.0109739
        k(   12) = (   0.0000000   0.0580697   0.0251451), wk =   0.0219479
        k(   13) = (   0.0000000   0.0580697   0.0502903), wk =   0.0219479
        k(   14) = (   0.0000000   0.0580697   0.0754354), wk =   0.0219479
        k(   15) = (   0.0000000   0.0580697   0.1005805), wk =   0.0219479
        k(   16) = (   0.0000000   0.0871045   0.0000000), wk =   0.0109739
        k(   17) = (   0.0000000   0.0871045   0.0251451), wk =   0.0219479
        k(   18) = (   0.0000000   0.0871045   0.0502903), wk =   0.0219479
        k(   19) = (   0.0000000   0.0871045   0.0754354), wk =   0.0219479
        k(   20) = (   0.0000000   0.0871045   0.1005805), wk =   0.0219479
        k(   21) = (   0.0000000   0.1161394   0.0000000), wk =   0.0109739
        k(   22) = (   0.0000000   0.1161394   0.0251451), wk =   0.0219479
        k(   23) = (   0.0000000   0.1161394   0.0502903), wk =   0.0219479
        k(   24) = (   0.0000000   0.1161394   0.0754354), wk =   0.0219479
        k(   25) = (   0.0000000   0.1161394   0.1005805), wk =   0.0219479
        k(   26) = (   0.0290348   0.0290348   0.0000000), wk =   0.0109739
        k(   27) = (   0.0290348   0.0290348   0.0251451), wk =   0.0219479
        k(   28) = (   0.0290348   0.0290348   0.0502903), wk =   0.0219479
        k(   29) = (   0.0290348   0.0290348   0.0754354), wk =   0.0219479
        k(   30) = (   0.0290348   0.0290348   0.1005805), wk =   0.0219479
        k(   31) = (   0.0290348   0.0580697   0.0000000), wk =   0.0219479
        k(   32) = (   0.0290348   0.0580697   0.0251451), wk =   0.0438957
        k(   33) = (   0.0290348   0.0580697   0.0502903), wk =   0.0438957
        k(   34) = (   0.0290348   0.0580697   0.0754354), wk =   0.0438957
        k(   35) = (   0.0290348   0.0580697   0.1005805), wk =   0.0438957
        k(   36) = (   0.0290348   0.0871045   0.0000000), wk =   0.0219479
        k(   37) = (   0.0290348   0.0871045   0.0251451), wk =   0.0438957
        k(   38) = (   0.0290348   0.0871045   0.0502903), wk =   0.0438957
        k(   39) = (   0.0290348   0.0871045   0.0754354), wk =   0.0438957
        k(   40) = (   0.0290348   0.0871045   0.1005805), wk =   0.0438957
        k(   41) = (   0.0290348   0.1161394   0.0000000), wk =   0.0219479
        k(   42) = (   0.0290348   0.1161394   0.0251451), wk =   0.0438957
        k(   43) = (   0.0290348   0.1161394   0.0502903), wk =   0.0438957
        k(   44) = (   0.0290348   0.1161394   0.0754354), wk =   0.0438957
        k(   45) = (   0.0290348   0.1161394   0.1005805), wk =   0.0438957
        k(   46) = (   0.0580697   0.0580697   0.0000000), wk =   0.0109739
        k(   47) = (   0.0580697   0.0580697   0.0251451), wk =   0.0219479
        k(   48) = (   0.0580697   0.0580697   0.0502903), wk =   0.0219479
        k(   49) = (   0.0580697   0.0580697   0.0754354), wk =   0.0219479
        k(   50) = (   0.0580697   0.0580697   0.1005805), wk =   0.0219479
        k(   51) = (   0.0580697   0.0871045   0.0000000), wk =   0.0219479
        k(   52) = (   0.0580697   0.0871045   0.0251451), wk =   0.0438957
        k(   53) = (   0.0580697   0.0871045   0.0502903), wk =   0.0438957
        k(   54) = (   0.0580697   0.0871045   0.0754354), wk =   0.0438957
        k(   55) = (   0.0580697   0.0871045   0.1005805), wk =   0.0438957
        k(   56) = (   0.0580697   0.1161394   0.0000000), wk =   0.0219479
        k(   57) = (   0.0580697   0.1161394   0.0251451), wk =   0.0438957
        k(   58) = (   0.0580697   0.1161394   0.0502903), wk =   0.0438957
        k(   59) = (   0.0580697   0.1161394   0.0754354), wk =   0.0438957
        k(   60) = (   0.0580697   0.1161394   0.1005805), wk =   0.0438957
        k(   61) = (   0.0871045   0.0871045   0.0000000), wk =   0.0109739
        k(   62) = (   0.0871045   0.0871045   0.0251451), wk =   0.0219479
        k(   63) = (   0.0871045   0.0871045   0.0502903), wk =   0.0219479
        k(   64) = (   0.0871045   0.0871045   0.0754354), wk =   0.0219479
        k(   65) = (   0.0871045   0.0871045   0.1005805), wk =   0.0219479
        k(   66) = (   0.0871045   0.1161394   0.0000000), wk =   0.0219479
        k(   67) = (   0.0871045   0.1161394   0.0251451), wk =   0.0438957
        k(   68) = (   0.0871045   0.1161394   0.0502903), wk =   0.0438957
        k(   69) = (   0.0871045   0.1161394   0.0754354), wk =   0.0438957
        k(   70) = (   0.0871045   0.1161394   0.1005805), wk =   0.0438957
        k(   71) = (   0.1161394   0.1161394   0.0000000), wk =   0.0109739
        k(   72) = (   0.1161394   0.1161394   0.0251451), wk =   0.0219479
        k(   73) = (   0.1161394   0.1161394   0.0502903), wk =   0.0219479
        k(   74) = (   0.1161394   0.1161394   0.0754354), wk =   0.0219479
        k(   75) = (   0.1161394   0.1161394   0.1005805), wk =   0.0219479

     Largest allocated arrays     est. size (Mb)     dimensions
     Largest temporary arrays     est. size (Mb)     dimensions

     Check: negative/imaginary core charge=   -0.000003    0.000000

     Initial potential from superposition of free atoms
     Check: negative starting charge=   -0.043075

     starting charge   48.99989, renormalised to   52.00000

     negative rho (up, down):  4.571E-02 0.000E+00

     *
     * You are using vdW-DF for exchange-correlation in this calculation.
     * Please cite the following three references that made this development
     * possible:
     *
     *   M. Dion, H. Rydberg, E. Schroder, D. C. Langreth, and
     *   B. I. Lundqvist, Phys. Rev. Lett. 92, 246401 (2004).
     *
     *   T. Thonhauser, V. R. Cooper, S. Li, A. Puzder, P. Hyldgaard, and
     *   D. C. Langreth, Phys. Rev. B 76, 125112 (2007).
     *
     *   G. Roman-Perez and J. M. Soler, Phys. Rev. Lett. 103, 096102 (2009).
     *
     *
     * If you are using vdW-DF2, please also cite:
     *
     *   K. Lee, E. D. Murray, L. Kong, B. I. Lundqvist, and
     *   D. C. Langreth, Phys. Rev. B 82, 081101(R) (2010).
     *
     *
     * If you are calculating the stress with vdW-DF, please also cite:
     *
     *   R. Sabatini, E. Kucukbenli, B. Kolb, T. Thonhauser, and
     *   S. de Gironcoli, J. Phys.: Condens. Matter 24, 424209 (2012).
     *

     Carrying out vdW-DF run using the following parameters:

     Nqs =      20    Nr_points =    1024   r_max =   100.000
     q_mesh =
               0.00001000     0.04494208     0.09755937     0.15916263
               0.23128650     0.31572767     0.41458969     0.53033537
               0.66584808     0.82450364     1.01025438     1.22772762
               1.48234092     1.78043706     2.12944203     2.53805004
               3.01644009     3.57652955     4.23227104     5.00000000

     Gradients computed in reciprocal space

     Starting wfc are   38 randomized atomic wfcs +    8 random wfc

     Self-consistent Calculation

     iteration #  1     ecut=    58.80 Ry     beta=0.10
     Davidson diagonalization with overlap
     ethr =  1.00E-02,  avg # of iterations =  4.6

[...]

     total energy              =    -584.97075585 Ry
     Harris-Foulkes estimate   =    -585.45415516 Ry
     estimated scf accuracy    <       3.04447106 Ry

[...]

     total energy              =    -584.60241797 Ry
     Harris-Foulkes estimate   =    -584.60241436 Ry
     estimated scf accuracy    <       0.00000330 Ry

     iteration # 15     ecut=    58.80 Ry     beta=0.10
     Davidson diagonalization with overlap
     ethr =  6.34E-09,  avg # of iterations =  2.1

     negative rho (up, down):  4.541E-02 0.000E+00

     End of self-consistent calculation

          k = 0.0000 0.0000 0.0000 (  3365 PWs)   bands (ev):

   -57.3448 -57.2867 -28.7432 -28.7432 -28.6150 -28.5603 -28.5157 -28.5157
     3.9912   4.1173   4.4635   4.9452   4.9452   5.8126   5.8321   5.9147
     5.9147   6.2612   6.9034  12.2073  12.5614  12.7228  13.6519  14.0263
    14.0263  14.7897  15.2244  15.2244  15.8089  15.9265  15.9265  16.4251
    19.1128  21.1424  22.4545  23.4221  24.2016  24.2016  24.3788  26.3865
    26.3865  29.4115  29.4115  29.9115  30.8391  31.6428

[...]

          k = 0.1161 0.1161 0.1006 (  3349 PWs)   bands (ev):

   -57.3163 -57.3145 -28.7732 -28.7664 -28.5885 -28.5868 -28.5015 -28.4945
     4.4633   4.5331   4.6429   4.6617   5.4780   5.5504   5.8982   5.9375
     5.9886   6.0212  10.9642  11.6054  12.4199  12.6498  13.0375  13.0568
    13.5679  13.6524  14.8670  14.8881  14.9124  15.0318  15.3261  15.3566
    17.5624  17.7677  19.4894  19.7883  27.5389  27.8853  28.2767  28.3101
    31.2017  31.7097  32.2821  32.4779  32.8860  32.9898

     the Fermi energy is    14.4984 ev

!    total energy              =    -584.60243952 Ry
     Harris-Foulkes estimate   =    -584.60241848 Ry
     estimated scf accuracy    <       0.00000001 Ry

     The total energy is the sum of the following terms:

     one-electron contribution =    -173.53365332 Ry
     hartree contribution      =     126.50599881 Ry
     xc contribution           =    -128.29725925 Ry
     ewald contribution        =    -409.26670463 Ry
     smearing contrib. (-TS)   =      -0.01082112 Ry

     convergence has been achieved in  15 iterations

     Forces acting on atoms (Ry/au):

     negative rho (up, down):  4.541E-02 0.000E+00
     atom    1 type  1   force =     0.00000000    0.00000000    0.00000000
     atom    2 type  1   force =     0.00000000    0.00000000    0.00000000
     atom    3 type  2   force =     0.00000000    0.00000000    0.00000000
     atom    4 type  2   force =     0.00000000    0.00000000    0.00000000

     Total force =     0.000000     Total SCF correction =     0.000000

     General routines

     Parallel routines

   This run was terminated on:   6:47:48  14Nov2017

   JOB DONE.