     Program PWSCF v.5.1rc2 starts on 15Nov2017 at  7:56:49

     Current dimensions of program PWSCF are:
     Max number of different atomic species (ntypx) = 10
     Max number of k-points (npk) =  40000
     Max angular momentum in pseudopotentials (lmaxx) =  3

     IMPORTANT: XC functional enforced from input :
     Exchange-correlation      = BEEF-VDW ( 1  4 27 13 2)
     Any further DFT definition will be discarded
     Please, verify this is what you really want

     Found symmetry operation: I + ( -0.5000 -0.5000  0.0000)
     This is a supercell, fractional translations are disabled

     bravais-lattice index     =            0
     lattice parameter (alat)  =       1.8897  a.u.
     unit-cell volume          =     451.3833 (a.u.)^3
     number of atoms/cell      =            4
     number of atomic types    =            2
     number of electrons       =        66.00
     number of Kohn-Sham states=           53
     kinetic-energy cutoff     =      58.7989  Ry
     charge density cutoff     =     587.9892  Ry
     convergence threshold     =      1.0E-06
     mixing beta               =       0.1000
     number of iterations used =           10  plain     mixing
     Exchange-correlation      = BEEF-VDW ( 1  4 27 13 2)

     celldm(1)=   1.889726  celldm(2)=   0.000000  celldm(3)=   0.000000
     celldm(4)=   0.000000  celldm(5)=   0.000000  celldm(6)=   0.000000

     crystal axes: (cart. coord. in units of alat)
               a(1) = (   3.792922   0.000000   0.000000 )
               a(2) = (   0.000000   3.792922   0.000000 )
               a(3) = (   0.000000   0.000000   4.649445 )

     reciprocal axes: (cart. coord. in units 2 pi/alat)
               b(1) = (  0.263649  0.000000  0.000000 )
               b(2) = (  0.000000  0.263649  0.000000 )
               b(3) = (  0.000000  0.000000  0.215079 )

     PseudoPot. # 1 for Mo read from file:
     /home/users/vossj/suncat/psp/gbrv1.5pbe/Mo.UPF
     MD5 check sum: 30c4dcd161f5d35cd49bb5239c51a633
     Pseudo is Ultrasoft + core correction, Zval = 14.0
     Generated by new atomic code, or converted to UPF format
     Using radial grid of  889 points,  6 beta functions with:
                l(1) =   0
                l(2) =   0
                l(3) =   1
                l(4) =   1
                l(5) =   2
                l(6) =   2
     Q(r) pseudized with  6 coefficients,  rinner =    1.000   1.000   1.000
                                                       1.000   1.000

     PseudoPot. # 2 for Ag read from file:
     /home/users/vossj/suncat/psp/gbrv1.5pbe/Ag.UPF
     MD5 check sum: d66d668201baa78d5eb5b04ef7011058
     Pseudo is Ultrasoft + core correction, Zval = 19.0
     Generated by new atomic code, or converted to UPF format
     Using radial grid of  887 points,  6 beta functions with:
                l(1) =   0
                l(2) =   0
                l(3) =   1
                l(4) =   1
                l(5) =   2
                l(6) =   2
     Q(r) pseudized with  6 coefficients,  rinner =    1.300   1.300   1.300
                                                       1.300   1.300

     vdW kernel table read from file vdW_kernel_table
     MD5 check sum: 095c7af220d748ca6e76c0b4c6cfb241

     atomic species   valence    mass     pseudopotential
        Mo1           14.00    95.94000     Mo( 1.00)
        Ag1           19.00   107.86800     Ag( 1.00)

     16 Sym. Ops., with inversion, found

   Cartesian axes

     site n.     atom                  positions (alat units)
         1           Mo1 tau(   1) = (   0.0000000   0.0000000   0.0000000  )
         2           Mo1 tau(   2) = (   1.8964609   1.8964609   0.0000000  )
         3           Ag1 tau(   3) = (   1.8964609   0.0000000   2.3247226  )
         4           Ag1 tau(   4) = (   0.0000000   1.8964609   2.3247226  )

     number of k points=    75  Fermi-Dirac smearing, width (Ry)=  0.0073
                       cart. coord. in units 2pi/alat
        k(    1) = (   0.0000000   0.0000000   0.0000000), wk =   0.0027435
        k(    2) = (   0.0000000   0.0000000   0.0238977), wk =   0.0054870
        k(    3) = (   0.0000000   0.0000000   0.0477954), wk =   0.0054870
        k(    4) = (   0.0000000   0.0000000   0.0716931), wk =   0.0054870
        k(    5) = (   0.0000000   0.0000000   0.0955909), wk =   0.0054870
        k(    6) = (   0.0000000   0.0292943   0.0000000), wk =   0.0109739
        k(    7) = (   0.0000000   0.0292943   0.0238977), wk =   0.0219479
        k(    8) = (   0.0000000   0.0292943   0.0477954), wk =   0.0219479
        k(    9) = (   0.0000000   0.0292943   0.0716931), wk =   0.0219479
        k(   10) = (   0.0000000   0.0292943   0.0955909), wk =   0.0219479
        k(   11) = (   0.0000000   0.0585887   0.0000000), wk =   0.0109739
        k(   12) = (   0.0000000   0.0585887   0.0238977), wk =   0.0219479
        k(   13) = (   0.0000000   0.0585887   0.0477954), wk =   0.0219479
        k(   14) = (   0.0000000   0.0585887   0.0716931), wk =   0.0219479
        k(   15) = (   0.0000000   0.0585887   0.0955909), wk =   0.0219479
        k(   16) = (   0.0000000   0.0878830   0.0000000), wk =   0.0109739
        k(   17) = (   0.0000000   0.0878830   0.0238977), wk =   0.0219479
        k(   18) = (   0.0000000   0.0878830   0.0477954), wk =   0.0219479
        k(   19) = (   0.0000000   0.0878830   0.0716931), wk =   0.0219479
        k(   20) = (   0.0000000   0.0878830   0.0955909), wk =   0.0219479
        k(   21) = (   0.0000000   0.1171773   0.0000000), wk =   0.0109739
        k(   22) = (   0.0000000   0.1171773   0.0238977), wk =   0.0219479
        k(   23) = (   0.0000000   0.1171773   0.0477954), wk =   0.0219479
        k(   24) = (   0.0000000   0.1171773   0.0716931), wk =   0.0219479
        k(   25) = (   0.0000000   0.1171773   0.0955909), wk =   0.0219479
        k(   26) = (   0.0292943   0.0292943   0.0000000), wk =   0.0109739
        k(   27) = (   0.0292943   0.0292943   0.0238977), wk =   0.0219479
        k(   28) = (   0.0292943   0.0292943   0.0477954), wk =   0.0219479
        k(   29) = (   0.0292943   0.0292943   0.0716931), wk =   0.0219479
        k(   30) = (   0.0292943   0.0292943   0.0955909), wk =   0.0219479
        k(   31) = (   0.0292943   0.0585887   0.0000000), wk =   0.0219479
        k(   32) = (   0.0292943   0.0585887   0.0238977), wk =   0.0438957
        k(   33) = (   0.0292943   0.0585887   0.0477954), wk =   0.0438957
        k(   34) = (   0.0292943   0.0585887   0.0716931), wk =   0.0438957
        k(   35) = (   0.0292943   0.0585887   0.0955909), wk =   0.0438957
        k(   36) = (   0.0292943   0.0878830   0.0000000), wk =   0.0219479
        k(   37) = (   0.0292943   0.0878830   0.0238977), wk =   0.0438957
        k(   38) = (   0.0292943   0.0878830   0.0477954), wk =   0.0438957
        k(   39) = (   0.0292943   0.0878830   0.0716931), wk =   0.0438957
        k(   40) = (   0.0292943   0.0878830   0.0955909), wk =   0.0438957
        k(   41) = (   0.0292943   0.1171773   0.0000000), wk =   0.0219479
        k(   42) = (   0.0292943   0.1171773   0.0238977), wk =   0.0438957
        k(   43) = (   0.0292943   0.1171773   0.0477954), wk =   0.0438957
        k(   44) = (   0.0292943   0.1171773   0.0716931), wk =   0.0438957
        k(   45) = (   0.0292943   0.1171773   0.0955909), wk =   0.0438957
        k(   46) = (   0.0585887   0.0585887   0.0000000), wk =   0.0109739
        k(   47) = (   0.0585887   0.0585887   0.0238977), wk =   0.0219479
        k(   48) = (   0.0585887   0.0585887   0.0477954), wk =   0.0219479
        k(   49) = (   0.0585887   0.0585887   0.0716931), wk =   0.0219479
        k(   50) = (   0.0585887   0.0585887   0.0955909), wk =   0.0219479
        k(   51) = (   0.0585887   0.0878830   0.0000000), wk =   0.0219479
        k(   52) = (   0.0585887   0.0878830   0.0238977), wk =   0.0438957
        k(   53) = (   0.0585887   0.0878830   0.0477954), wk =   0.0438957
        k(   54) = (   0.0585887   0.0878830   0.0716931), wk =   0.0438957
        k(   55) = (   0.0585887   0.0878830   0.0955909), wk =   0.0438957
        k(   56) = (   0.0585887   0.1171773   0.0000000), wk =   0.0219479
        k(   57) = (   0.0585887   0.1171773   0.0238977), wk =   0.0438957
        k(   58) = (   0.0585887   0.1171773   0.0477954), wk =   0.0438957
        k(   59) = (   0.0585887   0.1171773   0.0716931), wk =   0.0438957
        k(   60) = (   0.0585887   0.1171773   0.0955909), wk =   0.0438957
        k(   61) = (   0.0878830   0.0878830   0.0000000), wk =   0.0109739
        k(   62) = (   0.0878830   0.0878830   0.0238977), wk =   0.0219479
        k(   63) = (   0.0878830   0.0878830   0.0477954), wk =   0.0219479
        k(   64) = (   0.0878830   0.0878830   0.0716931), wk =   0.0219479
        k(   65) = (   0.0878830   0.0878830   0.0955909), wk =   0.0219479
        k(   66) = (   0.0878830   0.1171773   0.0000000), wk =   0.0219479
        k(   67) = (   0.0878830   0.1171773   0.0238977), wk =   0.0438957
        k(   68) = (   0.0878830   0.1171773   0.0477954), wk =   0.0438957
        k(   69) = (   0.0878830   0.1171773   0.0716931), wk =   0.0438957
        k(   70) = (   0.0878830   0.1171773   0.0955909), wk =   0.0438957
        k(   71) = (   0.1171773   0.1171773   0.0000000), wk =   0.0109739
        k(   72) = (   0.1171773   0.1171773   0.0238977), wk =   0.0219479
        k(   73) = (   0.1171773   0.1171773   0.0477954), wk =   0.0219479
        k(   74) = (   0.1171773   0.1171773   0.0716931), wk =   0.0219479
        k(   75) = (   0.1171773   0.1171773   0.0955909), wk =   0.0219479

     Largest allocated arrays     est. size (Mb)     dimensions
     Largest temporary arrays     est. size (Mb)     dimensions

     Initial potential from superposition of free atoms

     starting charge   64.99778, renormalised to   66.00000

     *
     * You are using vdW-DF for exchange-correlation in this calculation.
     * Please cite the following three references that made this development
     * possible:
     *
     *   M. Dion, H. Rydberg, E. Schroder, D. C. Langreth, and
     *   B. I. Lundqvist, Phys. Rev. Lett. 92, 246401 (2004).
     *
     *   T. Thonhauser, V. R. Cooper, S. Li, A. Puzder, P. Hyldgaard, and
     *   D. C. Langreth, Phys. Rev. B 76, 125112 (2007).
     *
     *   G. Roman-Perez and J. M. Soler, Phys. Rev. Lett. 103, 096102 (2009).
     *
     *
     * If you are using vdW-DF2, please also cite:
     *
     *   K. Lee, E. D. Murray, L. Kong, B. I. Lundqvist, and
     *   D. C. Langreth, Phys. Rev. B 82, 081101(R) (2010).
     *
     *
     * If you are calculating the stress with vdW-DF, please also cite:
     *
     *   R. Sabatini, E. Kucukbenli, B. Kolb, T. Thonhauser, and
     *   S. de Gironcoli, J. Phys.: Condens. Matter 24, 424209 (2012).
     *

     Carrying out vdW-DF run using the following parameters:

     Nqs =      20    Nr_points =    1024   r_max =   100.000
     q_mesh =
               0.00001000     0.04494208     0.09755937     0.15916263
               0.23128650     0.31572767     0.41458969     0.53033537
               0.66584808     0.82450364     1.01025438     1.22772762
               1.48234092     1.78043706     2.12944203     2.53805004
               3.01644009     3.57652955     4.23227104     5.00000000

     Gradients computed in reciprocal space

     Starting wfc are   52 randomized atomic wfcs +    1 random wfc

     Self-consistent Calculation

     iteration #  1     ecut=    58.80 Ry     beta=0.10
     Davidson diagonalization with overlap
     ethr =  1.00E-02,  avg # of iterations =  4.4

     total energy              =    -872.90110537 Ry
     Harris-Foulkes estimate   =    -873.80148778 Ry
     estimated scf accuracy    <       5.09428764 Ry

[...]

     total energy              =    -873.21257525 Ry
     Harris-Foulkes estimate   =    -873.21259639 Ry
     estimated scf accuracy    <       0.00005728 Ry

     iteration # 11     ecut=    58.80 Ry     beta=0.10
     Davidson diagonalization with overlap
     ethr =  8.68E-08,  avg # of iterations =  2.0

     End of self-consistent calculation

          k = 0.0000 0.0000 0.0000 (  3437 PWs)   bands (ev):

   -73.9792 -73.9467 -42.8019 -42.5389 -37.5343 -37.5343 -37.4492 -37.4126
   -37.3601 -37.3601 -17.1487 -17.1487 -16.8409 -16.5962 -16.2243 -16.2243
    11.0803  11.8208  12.0353  12.2574  12.5774  12.5774  12.8593  14.4226
    14.4226  15.1918  15.2858  16.0334  16.0633  16.2413  18.2972  18.2972
    18.8403  20.1219  20.5631  20.5631  21.9159  22.2240  22.2240  23.7481
    25.6179  27.1750  28.9770  29.9864  30.2790  30.2790  30.5215  32.2904
    32.2904  33.5369  34.6065  37.6243  37.6243

[...]

          k = 0.1172 0.1172 0.0956 (  3427 PWs)   bands (ev):

   -73.9633 -73.9623 -42.6724 -42.6645 -37.5535 -37.5483 -37.4312 -37.4301
   -37.3502 -37.3449 -17.2899 -17.2636 -16.7201 -16.7126 -16.1600 -16.1305
    12.2469  12.2542  12.3998  12.4864  13.2744  13.2872  14.0140  14.1361
    14.5785  14.6318  16.0526  16.2385  16.6617  16.9558  18.3239  18.3362
    18.5181  19.2828  19.4999  20.2694  20.3134  20.3282  20.8027  20.9009
    24.5852  24.8593  27.5282  27.6536  30.7740  30.8500  32.0159  32.2521
    36.1391  36.4264  37.2925  37.4577  37.8726

     the Fermi energy is    18.3999 ev

!    total energy              =    -873.21259942 Ry
     Harris-Foulkes estimate   =    -873.21258575 Ry
     estimated scf accuracy    <       0.00000045 Ry

     The total energy is the sum of the following terms:

     one-electron contribution =    -309.37362273 Ry
     hartree contribution      =     191.93308136 Ry
     xc contribution           =    -100.28821055 Ry
     ewald contribution        =    -655.47697445 Ry
     smearing contrib. (-TS)   =      -0.00687305 Ry

     convergence has been achieved in  11 iterations

     Forces acting on atoms (Ry/au):

     atom    1 type  1   force =     0.00000000    0.00000000    0.00000000
     atom    2 type  1   force =     0.00000000    0.00000000    0.00000000
     atom    3 type  2   force =     0.00000000    0.00000000    0.00000000
     atom    4 type  2   force =     0.00000000    0.00000000    0.00000000

     Total force =     0.000000     Total SCF correction =     0.000000

     General routines

     Parallel routines

   This run was terminated on:   7:57:24  15Nov2017

   JOB DONE.