     Program PWSCF v.5.1rc2 starts on 14Nov2017 at  8:35:46

     Current dimensions of program PWSCF are:
     Max number of different atomic species (ntypx) = 10
     Max number of k-points (npk) =  40000
     Max angular momentum in pseudopotentials (lmaxx) =  3

     IMPORTANT: XC functional enforced from input :
     Exchange-correlation      = BEEF-VDW ( 1  4 27 13 2)
     Any further DFT definition will be discarded
     Please, verify this is what you really want

     Found symmetry operation: I + (  0.5000  0.5000  0.0000)
     This is a supercell, fractional translations are disabled

     bravais-lattice index     =            0
     lattice parameter (alat)  =       1.8897  a.u.
     unit-cell volume          =     378.0008 (a.u.)^3
     number of atoms/cell      =            4
     number of atomic types    =            2
     number of electrons       =        66.00
     number of Kohn-Sham states=           53
     kinetic-energy cutoff     =      58.7989  Ry
     charge density cutoff     =     587.9892  Ry
     convergence threshold     =      1.0E-06
     mixing beta               =       0.1000
     number of iterations used =           10  plain     mixing
     Exchange-correlation      = BEEF-VDW ( 1  4 27 13 2)

     celldm(1)=   1.889726  celldm(2)=   0.000000  celldm(3)=   0.000000
     celldm(4)=   0.000000  celldm(5)=   0.000000  celldm(6)=   0.000000

     crystal axes: (cart. coord. in units of alat)
               a(1) = (   3.664213   0.000000   0.000000 )
               a(2) = (   0.000000   3.664213   0.000000 )
               a(3) = (   0.000000   0.000000   4.171907 )

     reciprocal axes: (cart. coord. in units 2 pi/alat)
               b(1) = (  0.272910  0.000000  0.000000 )
               b(2) = (  0.000000  0.272910  0.000000 )
               b(3) = (  0.000000  0.000000  0.239699 )

     PseudoPot. # 1 for Cu read from file:
     /home/users/vossj/suncat/psp/gbrv1.5pbe/Cu.UPF
     MD5 check sum: 6e991ff952a84172a2a52a1c1e996048
     Pseudo is Ultrasoft + core correction, Zval = 19.0
     Generated by new atomic code, or converted to UPF format
     Using radial grid of  867 points,  6 beta functions with:
                l(1) =   0
                l(2) =   0
                l(3) =   1
                l(4) =   1
                l(5) =   2
                l(6) =   2
     Q(r) pseudized with  8 coefficients,  rinner =    1.150   1.150   1.150
                                                       1.150   1.150

     PseudoPot. # 2 for Mo read from file:
     /home/users/vossj/suncat/psp/gbrv1.5pbe/Mo.UPF
     MD5 check sum: 30c4dcd161f5d35cd49bb5239c51a633
     Pseudo is Ultrasoft + core correction, Zval = 14.0
     Generated by new atomic code, or converted to UPF format
     Using radial grid of  889 points,  6 beta functions with:
                l(1) =   0
                l(2) =   0
                l(3) =   1
                l(4) =   1
                l(5) =   2
                l(6) =   2
     Q(r) pseudized with  6 coefficients,  rinner =    1.000   1.000   1.000
                                                       1.000   1.000

     vdW kernel table read from file vdW_kernel_table
     MD5 check sum: 095c7af220d748ca6e76c0b4c6cfb241

     atomic species   valence    mass     pseudopotential
        Cu1           19.00    63.54600     Cu( 1.00)
        Mo1           14.00    95.94000     Mo( 1.00)

     16 Sym. Ops., with inversion, found

   Cartesian axes

     site n.     atom                  positions (alat units)
         1           Cu1 tau(   1) = (   0.0000000   0.0000000   0.0000000  )
         2           Cu1 tau(   2) = (   1.8321067   1.8321067   0.0000000  )
         3           Mo1 tau(   3) = (   1.8321067   0.0000000   2.0859533  )
         4           Mo1 tau(   4) = (   0.0000000   1.8321067   2.0859533  )

     number of k points=    75  Fermi-Dirac smearing, width (Ry)=  0.0073
                       cart. coord. in units 2pi/alat
        k(    1) = (   0.0000000   0.0000000   0.0000000), wk =   0.0027435
        k(    2) = (   0.0000000   0.0000000   0.0266332), wk =   0.0054870
        k(    3) = (   0.0000000   0.0000000   0.0532663), wk =   0.0054870
        k(    4) = (   0.0000000   0.0000000   0.0798995), wk =   0.0054870
        k(    5) = (   0.0000000   0.0000000   0.1065327), wk =   0.0054870
        k(    6) = (   0.0000000   0.0303233   0.0000000), wk =   0.0109739
        k(    7) = (   0.0000000   0.0303233   0.0266332), wk =   0.0219479
        k(    8) = (   0.0000000   0.0303233   0.0532663), wk =   0.0219479
        k(    9) = (   0.0000000   0.0303233   0.0798995), wk =   0.0219479
        k(   10) = (   0.0000000   0.0303233   0.1065327), wk =   0.0219479
        k(   11) = (   0.0000000   0.0606466   0.0000000), wk =   0.0109739
        k(   12) = (   0.0000000   0.0606466   0.0266332), wk =   0.0219479
        k(   13) = (   0.0000000   0.0606466   0.0532663), wk =   0.0219479
        k(   14) = (   0.0000000   0.0606466   0.0798995), wk =   0.0219479
        k(   15) = (   0.0000000   0.0606466   0.1065327), wk =   0.0219479
        k(   16) = (   0.0000000   0.0909700   0.0000000), wk =   0.0109739
        k(   17) = (   0.0000000   0.0909700   0.0266332), wk =   0.0219479
        k(   18) = (   0.0000000   0.0909700   0.0532663), wk =   0.0219479
        k(   19) = (   0.0000000   0.0909700   0.0798995), wk =   0.0219479
        k(   20) = (   0.0000000   0.0909700   0.1065327), wk =   0.0219479
        k(   21) = (   0.0000000   0.1212933   0.0000000), wk =   0.0109739
        k(   22) = (   0.0000000   0.1212933   0.0266332), wk =   0.0219479
        k(   23) = (   0.0000000   0.1212933   0.0532663), wk =   0.0219479
        k(   24) = (   0.0000000   0.1212933   0.0798995), wk =   0.0219479
        k(   25) = (   0.0000000   0.1212933   0.1065327), wk =   0.0219479
        k(   26) = (   0.0303233   0.0303233   0.0000000), wk =   0.0109739
        k(   27) = (   0.0303233   0.0303233   0.0266332), wk =   0.0219479
        k(   28) = (   0.0303233   0.0303233   0.0532663), wk =   0.0219479
        k(   29) = (   0.0303233   0.0303233   0.0798995), wk =   0.0219479
        k(   30) = (   0.0303233   0.0303233   0.1065327), wk =   0.0219479
        k(   31) = (   0.0303233   0.0606466   0.0000000), wk =   0.0219479
        k(   32) = (   0.0303233   0.0606466   0.0266332), wk =   0.0438957
        k(   33) = (   0.0303233   0.0606466   0.0532663), wk =   0.0438957
        k(   34) = (   0.0303233   0.0606466   0.0798995), wk =   0.0438957
        k(   35) = (   0.0303233   0.0606466   0.1065327), wk =   0.0438957
        k(   36) = (   0.0303233   0.0909700   0.0000000), wk =   0.0219479
        k(   37) = (   0.0303233   0.0909700   0.0266332), wk =   0.0438957
        k(   38) = (   0.0303233   0.0909700   0.0532663), wk =   0.0438957
        k(   39) = (   0.0303233   0.0909700   0.0798995), wk =   0.0438957
        k(   40) = (   0.0303233   0.0909700   0.1065327), wk =   0.0438957
        k(   41) = (   0.0303233   0.1212933   0.0000000), wk =   0.0219479
        k(   42) = (   0.0303233   0.1212933   0.0266332), wk =   0.0438957
        k(   43) = (   0.0303233   0.1212933   0.0532663), wk =   0.0438957
        k(   44) = (   0.0303233   0.1212933   0.0798995), wk =   0.0438957
        k(   45) = (   0.0303233   0.1212933   0.1065327), wk =   0.0438957
        k(   46) = (   0.0606466   0.0606466   0.0000000), wk =   0.0109739
        k(   47) = (   0.0606466   0.0606466   0.0266332), wk =   0.0219479
        k(   48) = (   0.0606466   0.0606466   0.0532663), wk =   0.0219479
        k(   49) = (   0.0606466   0.0606466   0.0798995), wk =   0.0219479
        k(   50) = (   0.0606466   0.0606466   0.1065327), wk =   0.0219479
        k(   51) = (   0.0606466   0.0909700   0.0000000), wk =   0.0219479
        k(   52) = (   0.0606466   0.0909700   0.0266332), wk =   0.0438957
        k(   53) = (   0.0606466   0.0909700   0.0532663), wk =   0.0438957
        k(   54) = (   0.0606466   0.0909700   0.0798995), wk =   0.0438957
        k(   55) = (   0.0606466   0.0909700   0.1065327), wk =   0.0438957
        k(   56) = (   0.0606466   0.1212933   0.0000000), wk =   0.0219479
        k(   57) = (   0.0606466   0.1212933   0.0266332), wk =   0.0438957
        k(   58) = (   0.0606466   0.1212933   0.0532663), wk =   0.0438957
        k(   59) = (   0.0606466   0.1212933   0.0798995), wk =   0.0438957
        k(   60) = (   0.0606466   0.1212933   0.1065327), wk =   0.0438957
        k(   61) = (   0.0909700   0.0909700   0.0000000), wk =   0.0109739
        k(   62) = (   0.0909700   0.0909700   0.0266332), wk =   0.0219479
        k(   63) = (   0.0909700   0.0909700   0.0532663), wk =   0.0219479
        k(   64) = (   0.0909700   0.0909700   0.0798995), wk =   0.0219479
        k(   65) = (   0.0909700   0.0909700   0.1065327), wk =   0.0219479
        k(   66) = (   0.0909700   0.1212933   0.0000000), wk =   0.0219479
        k(   67) = (   0.0909700   0.1212933   0.0266332), wk =   0.0438957
        k(   68) = (   0.0909700   0.1212933   0.0532663), wk =   0.0438957
        k(   69) = (   0.0909700   0.1212933   0.0798995), wk =   0.0438957
        k(   70) = (   0.0909700   0.1212933   0.1065327), wk =   0.0438957
        k(   71) = (   0.1212933   0.1212933   0.0000000), wk =   0.0109739
        k(   72) = (   0.1212933   0.1212933   0.0266332), wk =   0.0219479
        k(   73) = (   0.1212933   0.1212933   0.0532663), wk =   0.0219479
        k(   74) = (   0.1212933   0.1212933   0.0798995), wk =   0.0219479
        k(   75) = (   0.1212933   0.1212933   0.1065327), wk =   0.0219479

     Largest allocated arrays     est. size (Mb)     dimensions
     Largest temporary arrays     est. size (Mb)     dimensions

     Initial potential from superposition of free atoms

     starting charge   63.99787, renormalised to   66.00000

     *
     * You are using vdW-DF for exchange-correlation in this calculation.
     * Please cite the following three references that made this development
     * possible:
     *
     *   M. Dion, H. Rydberg, E. Schroder, D. C. Langreth, and
     *   B. I. Lundqvist, Phys. Rev. Lett. 92, 246401 (2004).
     *
     *   T. Thonhauser, V. R. Cooper, S. Li, A. Puzder, P. Hyldgaard, and
     *   D. C. Langreth, Phys. Rev. B 76, 125112 (2007).
     *
     *   G. Roman-Perez and J. M. Soler, Phys. Rev. Lett. 103, 096102 (2009).
     *
     *
     * If you are using vdW-DF2, please also cite:
     *
     *   K. Lee, E. D. Murray, L. Kong, B. I. Lundqvist, and
     *   D. C. Langreth, Phys. Rev. B 82, 081101(R) (2010).
     *
     *
     * If you are calculating the stress with vdW-DF, please also cite:
     *
     *   R. Sabatini, E. Kucukbenli, B. Kolb, T. Thonhauser, and
     *   S. de Gironcoli, J. Phys.: Condens. Matter 24, 424209 (2012).
     *

     Carrying out vdW-DF run using the following parameters:

     Nqs =      20    Nr_points =    1024   r_max =   100.000
     q_mesh =
               0.00001000     0.04494208     0.09755937     0.15916263
               0.23128650     0.31572767     0.41458969     0.53033537
               0.66584808     0.82450364     1.01025438     1.22772762
               1.48234092     1.78043706     2.12944203     2.53805004
               3.01644009     3.57652955     4.23227104     5.00000000

     Gradients computed in reciprocal space

     Starting wfc are   52 randomized atomic wfcs +    1 random wfc

     Self-consistent Calculation

     iteration #  1     ecut=    58.80 Ry     beta=0.10
     Davidson diagonalization with overlap
     ethr =  1.00E-02,  avg # of iterations =  4.3

     total energy              =   -1090.04758766 Ry
     Harris-Foulkes estimate   =   -1090.29462632 Ry
     estimated scf accuracy    <       1.50276187 Ry

[...]

     total energy              =   -1089.87488186 Ry
     Harris-Foulkes estimate   =   -1089.87488144 Ry
     estimated scf accuracy    <       0.00001356 Ry

     iteration # 10     ecut=    58.80 Ry     beta=0.10
     Davidson diagonalization with overlap
     ethr =  2.06E-08,  avg # of iterations =  2.0

     End of self-consistent calculation

          k = 0.0000 0.0000 0.0000 (  2871 PWs)   bands (ev):

   -94.7188 -94.7114 -52.1201 -52.1118 -52.0990 -52.0990 -52.0562 -52.0562
   -43.0265 -42.6388 -17.5073 -17.5073 -17.0402 -16.6919 -16.2645 -16.2645
    10.2261  12.5092  13.2354  13.6579  13.7407  13.7477  13.7477  15.1702
    15.4477  15.4477  16.0101  16.3446  16.4424  16.5627  18.2969  18.2969
    19.2847  20.0291  20.6984  20.6984  21.4541  21.4541  22.2477  24.3867
    26.7160  27.2930  27.9457  30.3479  31.7931  31.7931  32.1087  32.1087
    33.2982  34.8565  37.6263  37.7076  38.6545

[...]

          k = 0.1213 0.1213 0.1065 (  2853 PWs)   bands (ev):

   -94.7152 -94.7150 -52.1161 -52.1158 -52.1032 -52.1020 -52.0540 -52.0527
   -42.8350 -42.8233 -17.7087 -17.6740 -16.8743 -16.8635 -16.1741 -16.1337
    12.6801  12.7122  13.7180  13.7618  14.7870  14.8191  15.3331  15.4089
    15.5350  15.5672  15.8356  16.0121  16.5371  16.8104  17.7136  17.8669
    18.2772  19.1179  19.4399  20.3458  20.3465  20.3965  20.9910  21.0919
    24.6000  24.8140  28.4246  28.4832  32.2137  32.2484  34.2357  34.5708
    36.4171  36.8862  37.2765  37.4298  39.7473

     the Fermi energy is    18.1812 ev

!    total energy              =   -1089.87490883 Ry
     Harris-Foulkes estimate   =   -1089.87488493 Ry
     estimated scf accuracy    <       0.00000076 Ry

     The total energy is the sum of the following terms:

     one-electron contribution =    -628.99859545 Ry
     hartree contribution      =     356.27932288 Ry
     xc contribution           =    -120.18810362 Ry
     ewald contribution        =    -696.96050523 Ry
     smearing contrib. (-TS)   =      -0.00702740 Ry

     convergence has been achieved in  10 iterations

     Forces acting on atoms (Ry/au):

     atom    1 type  1   force =     0.00000000    0.00000000    0.00000000
     atom    2 type  1   force =     0.00000000    0.00000000    0.00000000
     atom    3 type  2   force =     0.00000000    0.00000000    0.00000000
     atom    4 type  2   force =     0.00000000    0.00000000    0.00000000

     Total force =     0.000000     Total SCF correction =     0.000000

     General routines

     Parallel routines

   This run was terminated on:   8:36:18  14Nov2017

   JOB DONE.