     Program PWSCF v.5.1rc2 starts on 15Nov2017 at  4:55:16

     Current dimensions of program PWSCF are:
     Max number of different atomic species (ntypx) = 10
     Max number of k-points (npk) =  40000
     Max angular momentum in pseudopotentials (lmaxx) =  3

     IMPORTANT: XC functional enforced from input :
     Exchange-correlation      = BEEF-VDW ( 1  4 27 13 2)
     Any further DFT definition will be discarded
     Please, verify this is what you really want

     Found symmetry operation: I + ( -0.5000 -0.5000  0.0000)
     This is a supercell, fractional translations are disabled

     bravais-lattice index     =            0
     lattice parameter (alat)  =       1.8897  a.u.
     unit-cell volume          =     395.2206 (a.u.)^3
     number of atoms/cell      =            4
     number of atomic types    =            2
     number of electrons       =        62.00
     number of Kohn-Sham states=           51
     kinetic-energy cutoff     =      58.7989  Ry
     charge density cutoff     =     587.9892  Ry
     convergence threshold     =      1.0E-06
     mixing beta               =       0.1000
     number of iterations used =           10  plain     mixing
     Exchange-correlation      = BEEF-VDW ( 1  4 27 13 2)

     celldm(1)=   1.889726  celldm(2)=   0.000000  celldm(3)=   0.000000
     celldm(4)=   0.000000  celldm(5)=   0.000000  celldm(6)=   0.000000

     crystal axes: (cart. coord. in units of alat)
               a(1) = (   3.885110   0.000000   0.000000 )
               a(2) = (   0.000000   3.885110   0.000000 )
               a(3) = (   0.000000   0.000000   3.880040 )

     reciprocal axes: (cart. coord. in units 2 pi/alat)
               b(1) = (  0.257393  0.000000  0.000000 )
               b(2) = (  0.000000  0.257393  0.000000 )
               b(3) = (  0.000000  0.000000  0.257729 )

     PseudoPot. # 1 for Re read from file:
     /home/users/vossj/suncat/psp/gbrv1.5pbe/Re.UPF
     MD5 check sum: 85f993410f3e006da9d71c142b4ad953
     Pseudo is Ultrasoft + core correction, Zval = 15.0
     Generated by new atomic code, or converted to UPF format
     Using radial grid of  981 points,  8 beta functions with:
                l(1) =   0
                l(2) =   0
                l(3) =   1
                l(4) =   1
                l(5) =   2
                l(6) =   2
                l(7) =   3
                l(8) =   3
     Q(r) pseudized with  8 coefficients,  rinner =    1.150   1.150   1.150
                                                       1.150   1.150   1.150
                                                       1.150

     PseudoPot. # 2 for Os read from file:
     /home/users/vossj/suncat/psp/gbrv1.5pbe/Os.UPF
     MD5 check sum: a3fb40a04f0c37c25c34bbc47164c9a8
     Pseudo is Ultrasoft + core correction, Zval = 16.0
     Generated by new atomic code, or converted to UPF format
     Using radial grid of  983 points,  8 beta functions with:
                l(1) =   0
                l(2) =   0
                l(3) =   1
                l(4) =   1
                l(5) =   2
                l(6) =   2
                l(7) =   3
                l(8) =   3
     Q(r) pseudized with  8 coefficients,  rinner =    1.150   1.150   1.150
                                                       1.150   1.150   1.150
                                                       1.150

     vdW kernel table read from file vdW_kernel_table
     MD5 check sum: 095c7af220d748ca6e76c0b4c6cfb241

     atomic species   valence    mass     pseudopotential
        Re1           15.00   186.20700     Re( 1.00)
        Os1           16.00   190.20000     Os( 1.00)

     16 Sym. Ops., with inversion, found

   Cartesian axes

     site n.     atom                  positions (alat units)
         1           Re1 tau(   1) = (   0.0000000   0.0000000   0.0000000  )
         2           Re1 tau(   2) = (   1.9425552   1.9425552   0.0000000  )
         3           Os1 tau(   3) = (   1.9425552   0.0000000   1.9400201  )
         4           Os1 tau(   4) = (   0.0000000   1.9425552   1.9400201  )

     number of k points=    75  Fermi-Dirac smearing, width (Ry)=  0.0073
                       cart. coord. in units 2pi/alat
        k(    1) = (   0.0000000   0.0000000   0.0000000), wk =   0.0027435
        k(    2) = (   0.0000000   0.0000000   0.0286366), wk =   0.0054870
        k(    3) = (   0.0000000   0.0000000   0.0572732), wk =   0.0054870
        k(    4) = (   0.0000000   0.0000000   0.0859098), wk =   0.0054870
        k(    5) = (   0.0000000   0.0000000   0.1145463), wk =   0.0054870
        k(    6) = (   0.0000000   0.0285992   0.0000000), wk =   0.0109739
        k(    7) = (   0.0000000   0.0285992   0.0286366), wk =   0.0219479
        k(    8) = (   0.0000000   0.0285992   0.0572732), wk =   0.0219479
        k(    9) = (   0.0000000   0.0285992   0.0859098), wk =   0.0219479
        k(   10) = (   0.0000000   0.0285992   0.1145463), wk =   0.0219479
        k(   11) = (   0.0000000   0.0571984   0.0000000), wk =   0.0109739
        k(   12) = (   0.0000000   0.0571984   0.0286366), wk =   0.0219479
        k(   13) = (   0.0000000   0.0571984   0.0572732), wk =   0.0219479
        k(   14) = (   0.0000000   0.0571984   0.0859098), wk =   0.0219479
        k(   15) = (   0.0000000   0.0571984   0.1145463), wk =   0.0219479
        k(   16) = (   0.0000000   0.0857976   0.0000000), wk =   0.0109739
        k(   17) = (   0.0000000   0.0857976   0.0286366), wk =   0.0219479
        k(   18) = (   0.0000000   0.0857976   0.0572732), wk =   0.0219479
        k(   19) = (   0.0000000   0.0857976   0.0859098), wk =   0.0219479
        k(   20) = (   0.0000000   0.0857976   0.1145463), wk =   0.0219479
        k(   21) = (   0.0000000   0.1143969   0.0000000), wk =   0.0109739
        k(   22) = (   0.0000000   0.1143969   0.0286366), wk =   0.0219479
        k(   23) = (   0.0000000   0.1143969   0.0572732), wk =   0.0219479
        k(   24) = (   0.0000000   0.1143969   0.0859098), wk =   0.0219479
        k(   25) = (   0.0000000   0.1143969   0.1145463), wk =   0.0219479
        k(   26) = (   0.0285992   0.0285992   0.0000000), wk =   0.0109739
        k(   27) = (   0.0285992   0.0285992   0.0286366), wk =   0.0219479
        k(   28) = (   0.0285992   0.0285992   0.0572732), wk =   0.0219479
        k(   29) = (   0.0285992   0.0285992   0.0859098), wk =   0.0219479
        k(   30) = (   0.0285992   0.0285992   0.1145463), wk =   0.0219479
        k(   31) = (   0.0285992   0.0571984   0.0000000), wk =   0.0219479
        k(   32) = (   0.0285992   0.0571984   0.0286366), wk =   0.0438957
        k(   33) = (   0.0285992   0.0571984   0.0572732), wk =   0.0438957
        k(   34) = (   0.0285992   0.0571984   0.0859098), wk =   0.0438957
        k(   35) = (   0.0285992   0.0571984   0.1145463), wk =   0.0438957
        k(   36) = (   0.0285992   0.0857976   0.0000000), wk =   0.0219479
        k(   37) = (   0.0285992   0.0857976   0.0286366), wk =   0.0438957
        k(   38) = (   0.0285992   0.0857976   0.0572732), wk =   0.0438957
        k(   39) = (   0.0285992   0.0857976   0.0859098), wk =   0.0438957
        k(   40) = (   0.0285992   0.0857976   0.1145463), wk =   0.0438957
        k(   41) = (   0.0285992   0.1143969   0.0000000), wk =   0.0219479
        k(   42) = (   0.0285992   0.1143969   0.0286366), wk =   0.0438957
        k(   43) = (   0.0285992   0.1143969   0.0572732), wk =   0.0438957
        k(   44) = (   0.0285992   0.1143969   0.0859098), wk =   0.0438957
        k(   45) = (   0.0285992   0.1143969   0.1145463), wk =   0.0438957
        k(   46) = (   0.0571984   0.0571984   0.0000000), wk =   0.0109739
        k(   47) = (   0.0571984   0.0571984   0.0286366), wk =   0.0219479
        k(   48) = (   0.0571984   0.0571984   0.0572732), wk =   0.0219479
        k(   49) = (   0.0571984   0.0571984   0.0859098), wk =   0.0219479
        k(   50) = (   0.0571984   0.0571984   0.1145463), wk =   0.0219479
        k(   51) = (   0.0571984   0.0857976   0.0000000), wk =   0.0219479
        k(   52) = (   0.0571984   0.0857976   0.0286366), wk =   0.0438957
        k(   53) = (   0.0571984   0.0857976   0.0572732), wk =   0.0438957
        k(   54) = (   0.0571984   0.0857976   0.0859098), wk =   0.0438957
        k(   55) = (   0.0571984   0.0857976   0.1145463), wk =   0.0438957
        k(   56) = (   0.0571984   0.1143969   0.0000000), wk =   0.0219479
        k(   57) = (   0.0571984   0.1143969   0.0286366), wk =   0.0438957
        k(   58) = (   0.0571984   0.1143969   0.0572732), wk =   0.0438957
        k(   59) = (   0.0571984   0.1143969   0.0859098), wk =   0.0438957
        k(   60) = (   0.0571984   0.1143969   0.1145463), wk =   0.0438957
        k(   61) = (   0.0857976   0.0857976   0.0000000), wk =   0.0109739
        k(   62) = (   0.0857976   0.0857976   0.0286366), wk =   0.0219479
        k(   63) = (   0.0857976   0.0857976   0.0572732), wk =   0.0219479
        k(   64) = (   0.0857976   0.0857976   0.0859098), wk =   0.0219479
        k(   65) = (   0.0857976   0.0857976   0.1145463), wk =   0.0219479
        k(   66) = (   0.0857976   0.1143969   0.0000000), wk =   0.0219479
        k(   67) = (   0.0857976   0.1143969   0.0286366), wk =   0.0438957
        k(   68) = (   0.0857976   0.1143969   0.0572732), wk =   0.0438957
        k(   69) = (   0.0857976   0.1143969   0.0859098), wk =   0.0438957
        k(   70) = (   0.0857976   0.1143969   0.1145463), wk =   0.0438957
        k(   71) = (   0.1143969   0.1143969   0.0000000), wk =   0.0109739
        k(   72) = (   0.1143969   0.1143969   0.0286366), wk =   0.0219479
        k(   73) = (   0.1143969   0.1143969   0.0572732), wk =   0.0219479
        k(   74) = (   0.1143969   0.1143969   0.0859098), wk =   0.0219479
        k(   75) = (   0.1143969   0.1143969   0.1145463), wk =   0.0219479

     Largest allocated arrays     est. size (Mb)     dimensions
     Largest temporary arrays     est. size (Mb)     dimensions

     Initial potential from superposition of free atoms
     Check: negative starting charge=   -0.505387

     starting charge   59.99984, renormalised to   62.00000

     negative rho (up, down):  5.222E-01 0.000E+00

     *
     * You are using vdW-DF for exchange-correlation in this calculation.
     * Please cite the following three references that made this development
     * possible:
     *
     *   M. Dion, H. Rydberg, E. Schroder, D. C. Langreth, and
     *   B. I. Lundqvist, Phys. Rev. Lett. 92, 246401 (2004).
     *
     *   T. Thonhauser, V. R. Cooper, S. Li, A. Puzder, P. Hyldgaard, and
     *   D. C. Langreth, Phys. Rev. B 76, 125112 (2007).
     *
     *   G. Roman-Perez and J. M. Soler, Phys. Rev. Lett. 103, 096102 (2009).
     *
     *
     * If you are using vdW-DF2, please also cite:
     *
     *   K. Lee, E. D. Murray, L. Kong, B. I. Lundqvist, and
     *   D. C. Langreth, Phys. Rev. B 82, 081101(R) (2010).
     *
     *
     * If you are calculating the stress with vdW-DF, please also cite:
     *
     *   R. Sabatini, E. Kucukbenli, B. Kolb, T. Thonhauser, and
     *   S. de Gironcoli, J. Phys.: Condens. Matter 24, 424209 (2012).
     *

     Carrying out vdW-DF run using the following parameters:

     Nqs =      20    Nr_points =    1024   r_max =   100.000
     q_mesh =
               0.00001000     0.04494208     0.09755937     0.15916263
               0.23128650     0.31572767     0.41458969     0.53033537
               0.66584808     0.82450364     1.01025438     1.22772762
               1.48234092     1.78043706     2.12944203     2.53805004
               3.01644009     3.57652955     4.23227104     5.00000000

     Gradients computed in reciprocal space

     Starting wfc are   52 randomized atomic wfcs

     Self-consistent Calculation

     iteration #  1     ecut=    58.80 Ry     beta=0.10
     Davidson diagonalization with overlap
     ethr =  1.00E-02,  avg # of iterations =  4.5

     Threshold (ethr) on eigenvalues was too large:
     Diagonalizing with lowered threshold

     Davidson diagonalization with overlap
     ethr =  9.76E-04,  avg # of iterations =  1.0

[...]

     total energy              =    -784.24513367 Ry
     Harris-Foulkes estimate   =    -784.33079924 Ry
     estimated scf accuracy    <       0.61020508 Ry

[...]

     total energy              =    -784.08459057 Ry
     Harris-Foulkes estimate   =    -784.08458959 Ry
     estimated scf accuracy    <       0.00000147 Ry

     iteration # 10     ecut=    58.80 Ry     beta=0.10
     Davidson diagonalization with overlap
     ethr =  2.37E-09,  avg # of iterations =  2.0

     negative rho (up, down):  5.315E-01 0.000E+00

     End of self-consistent calculation

          k = 0.0000 0.0000 0.0000 (  2969 PWs)   bands (ev):

   -62.0897 -62.0364 -56.2714 -56.1964 -21.5781 -21.5781 -21.4549 -21.2947
   -21.1383 -21.1383 -18.1632 -18.1632 -17.9265 -17.8689 -17.6240 -17.6240
    14.2894  17.5419  17.5505  17.5589  18.3173  18.3173  18.3184  22.1280
    22.1280  22.1944  25.0379  25.1697  27.0114  27.0114  27.0363  27.1844
    27.5769  27.6439  27.8053  28.2478  28.2478  28.2759  28.2759  28.9010
    36.1124  36.4255  36.4255  36.4500  36.4500  36.6431  36.8035  36.9322
    37.1396  37.7899  43.3413

[...]

          k = 0.1144 0.1144 0.1145 (  3043 PWs)   bands (ev):

   -62.0634 -62.0618 -56.2351 -56.2328 -21.6477 -21.6355 -21.4013 -21.3985
   -21.1019 -21.0886 -18.2068 -18.1909 -17.8982 -17.8944 -17.5989 -17.5814
    17.4545  17.5564  17.5859  17.6044  21.7054  21.7474  21.7937  21.9762
    22.0014  22.0936  22.1884  22.3072  24.0226  24.1209  24.1237  24.1712
    27.2039  27.2173  27.3348  27.6759  27.7818  27.8394  28.0363  28.1224
    33.6256  33.7317  33.8895  34.2844  37.7181  37.7212  37.7552  37.7798
    43.5204  43.6363  43.6371

     the Fermi energy is    24.5168 ev

!    total energy              =    -784.08459683 Ry
     Harris-Foulkes estimate   =    -784.08459078 Ry
     estimated scf accuracy    <       0.00000004 Ry

     The total energy is the sum of the following terms:

     one-electron contribution =     -81.47173462 Ry
     hartree contribution      =      84.04610073 Ry
     xc contribution           =    -185.94945419 Ry
     ewald contribution        =    -600.70175594 Ry
     smearing contrib. (-TS)   =      -0.00775282 Ry

     convergence has been achieved in  10 iterations

     Forces acting on atoms (Ry/au):

     negative rho (up, down):  5.315E-01 0.000E+00
     atom    1 type  1   force =     0.00000000    0.00000000    0.00000000
     atom    2 type  1   force =     0.00000000    0.00000000    0.00000000
     atom    3 type  2   force =     0.00000000    0.00000000    0.00000000
     atom    4 type  2   force =     0.00000000    0.00000000    0.00000000

     Total force =     0.000000     Total SCF correction =     0.000000

     General routines

     Parallel routines

   This run was terminated on:   4:55:59  15Nov2017

   JOB DONE.