     Program PWSCF v.5.1rc2 starts on 14Nov2017 at  9:27:19

     Current dimensions of program PWSCF are:
     Max number of different atomic species (ntypx) = 10
     Max number of k-points (npk) =  40000
     Max angular momentum in pseudopotentials (lmaxx) =  3

     IMPORTANT: XC functional enforced from input :
     Exchange-correlation      = BEEF-VDW ( 1  4 27 13 2)
     Any further DFT definition will be discarded
     Please, verify this is what you really want

     Found symmetry operation: I + ( -0.5000 -0.5000  0.0000)
     This is a supercell, fractional translations are disabled

     bravais-lattice index     =            0
     lattice parameter (alat)  =       1.8897  a.u.
     unit-cell volume          =     405.4499 (a.u.)^3
     number of atoms/cell      =            4
     number of atomic types    =            2
     number of electrons       =        68.00
     number of Kohn-Sham states=           54
     kinetic-energy cutoff     =      58.7989  Ry
     charge density cutoff     =     587.9892  Ry
     convergence threshold     =      1.0E-06
     mixing beta               =       0.1000
     number of iterations used =           10  plain     mixing
     Exchange-correlation      = BEEF-VDW ( 1  4 27 13 2)

     celldm(1)=   1.889726  celldm(2)=   0.000000  celldm(3)=   0.000000
     celldm(4)=   0.000000  celldm(5)=   0.000000  celldm(6)=   0.000000

     crystal axes: (cart. coord. in units of alat)
               a(1) = (   3.754651   0.000000   0.000000 )
               a(2) = (   0.000000   3.754651   0.000000 )
               a(3) = (   0.000000   0.000000   4.261883 )

     reciprocal axes: (cart. coord. in units 2 pi/alat)
               b(1) = (  0.266336  0.000000  0.000000 )
               b(2) = (  0.000000  0.266336  0.000000 )
               b(3) = (  0.000000  0.000000  0.234638 )

     PseudoPot. # 1 for Zn read from file:
     /home/users/vossj/suncat/psp/gbrv1.5pbe/Zn.UPF
     MD5 check sum: df62231357ef9e81f77b2b3087fa5675
     Pseudo is Ultrasoft, Zval = 20.0
     Generated by new atomic code, or converted to UPF format
     Using radial grid of  943 points,  6 beta functions with:
                l(1) =   0
                l(2) =   0
                l(3) =   1
                l(4) =   1
                l(5) =   2
                l(6) =   2
     Q(r) pseudized with  8 coefficients,  rinner =    1.100   1.100   1.100
                                                       1.100   1.100

     PseudoPot. # 2 for Mo read from file:
     /home/users/vossj/suncat/psp/gbrv1.5pbe/Mo.UPF
     MD5 check sum: 30c4dcd161f5d35cd49bb5239c51a633
     Pseudo is Ultrasoft + core correction, Zval = 14.0
     Generated by new atomic code, or converted to UPF format
     Using radial grid of  889 points,  6 beta functions with:
                l(1) =   0
                l(2) =   0
                l(3) =   1
                l(4) =   1
                l(5) =   2
                l(6) =   2
     Q(r) pseudized with  6 coefficients,  rinner =    1.000   1.000   1.000
                                                       1.000   1.000

     vdW kernel table read from file vdW_kernel_table
     MD5 check sum: 095c7af220d748ca6e76c0b4c6cfb241

     atomic species   valence    mass     pseudopotential
        Zn1           20.00    65.39000     Zn( 1.00)
        Mo1           14.00    95.94000     Mo( 1.00)

     16 Sym. Ops., with inversion, found

   Cartesian axes

     site n.     atom                  positions (alat units)
         1           Zn1 tau(   1) = (   0.0000000   0.0000000   0.0000000  )
         2           Zn1 tau(   2) = (   1.8773253   1.8773253   0.0000000  )
         3           Mo1 tau(   3) = (   1.8773253   0.0000000   2.1309414  )
         4           Mo1 tau(   4) = (   0.0000000   1.8773253   2.1309414  )

     number of k points=    75  Fermi-Dirac smearing, width (Ry)=  0.0073
                       cart. coord. in units 2pi/alat
        k(    1) = (   0.0000000   0.0000000   0.0000000), wk =   0.0027435
        k(    2) = (   0.0000000   0.0000000   0.0260709), wk =   0.0054870
        k(    3) = (   0.0000000   0.0000000   0.0521418), wk =   0.0054870
        k(    4) = (   0.0000000   0.0000000   0.0782127), wk =   0.0054870
        k(    5) = (   0.0000000   0.0000000   0.1042836), wk =   0.0054870
        k(    6) = (   0.0000000   0.0295929   0.0000000), wk =   0.0109739
        k(    7) = (   0.0000000   0.0295929   0.0260709), wk =   0.0219479
        k(    8) = (   0.0000000   0.0295929   0.0521418), wk =   0.0219479
        k(    9) = (   0.0000000   0.0295929   0.0782127), wk =   0.0219479
        k(   10) = (   0.0000000   0.0295929   0.1042836), wk =   0.0219479
        k(   11) = (   0.0000000   0.0591859   0.0000000), wk =   0.0109739
        k(   12) = (   0.0000000   0.0591859   0.0260709), wk =   0.0219479
        k(   13) = (   0.0000000   0.0591859   0.0521418), wk =   0.0219479
        k(   14) = (   0.0000000   0.0591859   0.0782127), wk =   0.0219479
        k(   15) = (   0.0000000   0.0591859   0.1042836), wk =   0.0219479
        k(   16) = (   0.0000000   0.0887788   0.0000000), wk =   0.0109739
        k(   17) = (   0.0000000   0.0887788   0.0260709), wk =   0.0219479
        k(   18) = (   0.0000000   0.0887788   0.0521418), wk =   0.0219479
        k(   19) = (   0.0000000   0.0887788   0.0782127), wk =   0.0219479
        k(   20) = (   0.0000000   0.0887788   0.1042836), wk =   0.0219479
        k(   21) = (   0.0000000   0.1183717   0.0000000), wk =   0.0109739
        k(   22) = (   0.0000000   0.1183717   0.0260709), wk =   0.0219479
        k(   23) = (   0.0000000   0.1183717   0.0521418), wk =   0.0219479
        k(   24) = (   0.0000000   0.1183717   0.0782127), wk =   0.0219479
        k(   25) = (   0.0000000   0.1183717   0.1042836), wk =   0.0219479
        k(   26) = (   0.0295929   0.0295929   0.0000000), wk =   0.0109739
        k(   27) = (   0.0295929   0.0295929   0.0260709), wk =   0.0219479
        k(   28) = (   0.0295929   0.0295929   0.0521418), wk =   0.0219479
        k(   29) = (   0.0295929   0.0295929   0.0782127), wk =   0.0219479
        k(   30) = (   0.0295929   0.0295929   0.1042836), wk =   0.0219479
        k(   31) = (   0.0295929   0.0591859   0.0000000), wk =   0.0219479
        k(   32) = (   0.0295929   0.0591859   0.0260709), wk =   0.0438957
        k(   33) = (   0.0295929   0.0591859   0.0521418), wk =   0.0438957
        k(   34) = (   0.0295929   0.0591859   0.0782127), wk =   0.0438957
        k(   35) = (   0.0295929   0.0591859   0.1042836), wk =   0.0438957
        k(   36) = (   0.0295929   0.0887788   0.0000000), wk =   0.0219479
        k(   37) = (   0.0295929   0.0887788   0.0260709), wk =   0.0438957
        k(   38) = (   0.0295929   0.0887788   0.0521418), wk =   0.0438957
        k(   39) = (   0.0295929   0.0887788   0.0782127), wk =   0.0438957
        k(   40) = (   0.0295929   0.0887788   0.1042836), wk =   0.0438957
        k(   41) = (   0.0295929   0.1183717   0.0000000), wk =   0.0219479
        k(   42) = (   0.0295929   0.1183717   0.0260709), wk =   0.0438957
        k(   43) = (   0.0295929   0.1183717   0.0521418), wk =   0.0438957
        k(   44) = (   0.0295929   0.1183717   0.0782127), wk =   0.0438957
        k(   45) = (   0.0295929   0.1183717   0.1042836), wk =   0.0438957
        k(   46) = (   0.0591859   0.0591859   0.0000000), wk =   0.0109739
        k(   47) = (   0.0591859   0.0591859   0.0260709), wk =   0.0219479
        k(   48) = (   0.0591859   0.0591859   0.0521418), wk =   0.0219479
        k(   49) = (   0.0591859   0.0591859   0.0782127), wk =   0.0219479
        k(   50) = (   0.0591859   0.0591859   0.1042836), wk =   0.0219479
        k(   51) = (   0.0591859   0.0887788   0.0000000), wk =   0.0219479
        k(   52) = (   0.0591859   0.0887788   0.0260709), wk =   0.0438957
        k(   53) = (   0.0591859   0.0887788   0.0521418), wk =   0.0438957
        k(   54) = (   0.0591859   0.0887788   0.0782127), wk =   0.0438957
        k(   55) = (   0.0591859   0.0887788   0.1042836), wk =   0.0438957
        k(   56) = (   0.0591859   0.1183717   0.0000000), wk =   0.0219479
        k(   57) = (   0.0591859   0.1183717   0.0260709), wk =   0.0438957
        k(   58) = (   0.0591859   0.1183717   0.0521418), wk =   0.0438957
        k(   59) = (   0.0591859   0.1183717   0.0782127), wk =   0.0438957
        k(   60) = (   0.0591859   0.1183717   0.1042836), wk =   0.0438957
        k(   61) = (   0.0887788   0.0887788   0.0000000), wk =   0.0109739
        k(   62) = (   0.0887788   0.0887788   0.0260709), wk =   0.0219479
        k(   63) = (   0.0887788   0.0887788   0.0521418), wk =   0.0219479
        k(   64) = (   0.0887788   0.0887788   0.0782127), wk =   0.0219479
        k(   65) = (   0.0887788   0.0887788   0.1042836), wk =   0.0219479
        k(   66) = (   0.0887788   0.1183717   0.0000000), wk =   0.0219479
        k(   67) = (   0.0887788   0.1183717   0.0260709), wk =   0.0438957
        k(   68) = (   0.0887788   0.1183717   0.0521418), wk =   0.0438957
        k(   69) = (   0.0887788   0.1183717   0.0782127), wk =   0.0438957
        k(   70) = (   0.0887788   0.1183717   0.1042836), wk =   0.0438957
        k(   71) = (   0.1183717   0.1183717   0.0000000), wk =   0.0109739
        k(   72) = (   0.1183717   0.1183717   0.0260709), wk =   0.0219479
        k(   73) = (   0.1183717   0.1183717   0.0521418), wk =   0.0219479
        k(   74) = (   0.1183717   0.1183717   0.0782127), wk =   0.0219479
        k(   75) = (   0.1183717   0.1183717   0.1042836), wk =   0.0219479

     Largest allocated arrays     est. size (Mb)     dimensions
     Largest temporary arrays     est. size (Mb)     dimensions

     Initial potential from superposition of free atoms

     starting charge   67.99759, renormalised to   68.00000

     *
     * You are using vdW-DF for exchange-correlation in this calculation.
     * Please cite the following three references that made this development
     * possible:
     *
     *   M. Dion, H. Rydberg, E. Schroder, D. C. Langreth, and
     *   B. I. Lundqvist, Phys. Rev. Lett. 92, 246401 (2004).
     *
     *   T. Thonhauser, V. R. Cooper, S. Li, A. Puzder, P. Hyldgaard, and
     *   D. C. Langreth, Phys. Rev. B 76, 125112 (2007).
     *
     *   G. Roman-Perez and J. M. Soler, Phys. Rev. Lett. 103, 096102 (2009).
     *
     *
     * If you are using vdW-DF2, please also cite:
     *
     *   K. Lee, E. D. Murray, L. Kong, B. I. Lundqvist, and
     *   D. C. Langreth, Phys. Rev. B 82, 081101(R) (2010).
     *
     *
     * If you are calculating the stress with vdW-DF, please also cite:
     *
     *   R. Sabatini, E. Kucukbenli, B. Kolb, T. Thonhauser, and
     *   S. de Gironcoli, J. Phys.: Condens. Matter 24, 424209 (2012).
     *

     Carrying out vdW-DF run using the following parameters:

     Nqs =      20    Nr_points =    1024   r_max =   100.000
     q_mesh =
               0.00001000     0.04494208     0.09755937     0.15916263
               0.23128650     0.31572767     0.41458969     0.53033537
               0.66584808     0.82450364     1.01025438     1.22772762
               1.48234092     1.78043706     2.12944203     2.53805004
               3.01644009     3.57652955     4.23227104     5.00000000

     Gradients computed in reciprocal space

     Starting wfc are   52 randomized atomic wfcs +    2 random wfc

     Self-consistent Calculation

     iteration #  1     ecut=    58.80 Ry     beta=0.10
     Davidson diagonalization with overlap
     ethr =  1.00E-02,  avg # of iterations =  4.0

     total energy              =   -1205.57064931 Ry
     Harris-Foulkes estimate   =   -1205.69340281 Ry
     estimated scf accuracy    <       0.69829286 Ry

[...]

     total energy              =   -1205.55496164 Ry
     Harris-Foulkes estimate   =   -1205.55496271 Ry
     estimated scf accuracy    <       0.00000444 Ry

     iteration # 10     ecut=    58.80 Ry     beta=0.10
     Davidson diagonalization with overlap
     ethr =  6.53E-09,  avg # of iterations =  2.0

     End of self-consistent calculation

          k = 0.0000 0.0000 0.0000 (  3083 PWs)   bands (ev):

  -108.8836-108.8809 -63.0763 -63.0763 -63.0578 -63.0578 -63.0294 -63.0262
   -43.7652 -43.4681 -18.1721 -18.1721 -17.8014 -17.5206 -17.1560 -17.1560
     8.4229   9.4720   9.5443   9.7510   9.7747   9.7747  10.0203  10.4100
    10.4100  10.6291  10.9082  13.1884  14.0460  14.2471  16.3506  16.3506
    17.3661  18.0586  19.0366  19.0366  19.4175  19.4175  21.0587  22.9946
    23.8851  24.4096  24.5797  27.6622  29.2127  29.2127  29.5428  29.5428
    31.1717  33.9088  35.5888  35.5888  36.0668  36.5422

[...]

          k = 0.1184 0.1184 0.1043 (  3065 PWs)   bands (ev):

  -108.8823-108.8822 -63.0779 -63.0774 -63.0569 -63.0564 -63.0278 -63.0277
   -43.6186 -43.6096 -18.3319 -18.3033 -17.6680 -17.6593 -17.0837 -17.0511
     9.6235   9.6637   9.6969   9.7024  10.1893  10.1944  10.2635  10.2978
    10.4551  10.4698  12.7257  12.9261  14.7811  14.9996  15.6370  15.7337
    16.9775  17.3856  18.3983  18.5065  18.5293  18.8749  19.7637  19.7745
    21.6736  21.8432  26.2828  26.3233  30.2711  30.2878  32.4401  32.8009
    33.0164  33.9311  34.8599  35.2089  36.4871  36.8705

     the Fermi energy is    17.7111 ev

!    total energy              =   -1205.55496589 Ry
     Harris-Foulkes estimate   =   -1205.55496249 Ry
     estimated scf accuracy    <       0.00000077 Ry

     The total energy is the sum of the following terms:

     one-electron contribution =    -778.75640074 Ry
     hartree contribution      =     425.64353249 Ry
     xc contribution           =    -127.12248268 Ry
     ewald contribution        =    -725.31460155 Ry
     smearing contrib. (-TS)   =      -0.00501341 Ry

     convergence has been achieved in  10 iterations

     Forces acting on atoms (Ry/au):

     atom    1 type  1   force =     0.00000000    0.00000000    0.00000000
     atom    2 type  1   force =     0.00000000    0.00000000    0.00000000
     atom    3 type  2   force =     0.00000000    0.00000000    0.00000000
     atom    4 type  2   force =     0.00000000    0.00000000    0.00000000

     Total force =     0.000000     Total SCF correction =     0.000000

     General routines

     Parallel routines

   This run was terminated on:   9:27:51  14Nov2017

   JOB DONE.