     Program PWSCF v.5.1rc2 starts on 14Nov2017 at  1: 5:15

     Current dimensions of program PWSCF are:
     Max number of different atomic species (ntypx) = 10
     Max number of k-points (npk) =  40000
     Max angular momentum in pseudopotentials (lmaxx) =  3

     IMPORTANT: XC functional enforced from input :
     Exchange-correlation      = BEEF-VDW ( 1  4 27 13 2)
     Any further DFT definition will be discarded
     Please, verify this is what you really want

     Found symmetry operation: I + (  0.5000  0.5000  0.0000)
     This is a supercell, fractional translations are disabled

     bravais-lattice index     =            0
     lattice parameter (alat)  =       1.8897  a.u.
     unit-cell volume          =     451.8759 (a.u.)^3
     number of atoms/cell      =            4
     number of atomic types    =            2
     number of electrons       =        32.00
     number of Kohn-Sham states=           36
     kinetic-energy cutoff     =      58.7989  Ry
     charge density cutoff     =     587.9892  Ry
     convergence threshold     =      1.0E-06
     mixing beta               =       0.1000
     number of iterations used =           10  plain     mixing
     Exchange-correlation      = BEEF-VDW ( 1  4 27 13 2)

     celldm(1)=   1.889726  celldm(2)=   0.000000  celldm(3)=   0.000000
     celldm(4)=   0.000000  celldm(5)=   0.000000  celldm(6)=   0.000000

     crystal axes: (cart. coord. in units of alat)
               a(1) = (   4.005747   0.000000   0.000000 )
               a(2) = (   0.000000   4.005747   0.000000 )
               a(3) = (   0.000000   0.000000   4.173068 )

     reciprocal axes: (cart. coord. in units 2 pi/alat)
               b(1) = (  0.249641  0.000000  0.000000 )
               b(2) = (  0.000000  0.249641  0.000000 )
               b(3) = (  0.000000  0.000000  0.239632 )

     PseudoPot. # 1 for Al read from file:
     /home/users/vossj/suncat/psp/gbrv1.5pbe/Al.UPF
     MD5 check sum: 0a6289f5291fc8f409219462bc851e1f
     Pseudo is Ultrasoft + core correction, Zval =  3.0
     Generated by new atomic code, or converted to UPF format
     Using radial grid of  893 points,  3 beta functions with:
                l(1) =   0
                l(2) =   1
                l(3) =   2
     Q(r) pseudized with  8 coefficients,  rinner =    0.900   0.900   0.900
                                                       0.900   0.900

     PseudoPot. # 2 for Ta read from file:
     /home/users/vossj/suncat/psp/gbrv1.5pbe/Ta.UPF
     MD5 check sum: f8bbe9446314a3b8ea5d9f3e3836c939
     Pseudo is Ultrasoft + core correction, Zval = 13.0
     Generated by new atomic code, or converted to UPF format
     Using radial grid of  921 points,  7 beta functions with:
                l(1) =   0
                l(2) =   0
                l(3) =   1
                l(4) =   1
                l(5) =   2
                l(6) =   2
                l(7) =   3
     Q(r) pseudized with  6 coefficients,  rinner =    1.300   1.300   1.300
                                                       1.300   1.300   1.300
                                                       1.300

     vdW kernel table read from file vdW_kernel_table
     MD5 check sum: 095c7af220d748ca6e76c0b4c6cfb241

     atomic species   valence    mass     pseudopotential
        Al1            3.00    26.98154     Al( 1.00)
        Ta1           13.00   180.94790     Ta( 1.00)

     16 Sym. Ops., with inversion, found

   Cartesian axes

     site n.     atom                  positions (alat units)
         1           Al1 tau(   1) = (   0.0000000   0.0000000   0.0000000  )
         2           Al1 tau(   2) = (   2.0028737   2.0028737   0.0000000  )
         3           Ta1 tau(   3) = (   2.0028737   0.0000000   2.0865338  )
         4           Ta1 tau(   4) = (   0.0000000   2.0028737   2.0865338  )

     number of k points=    75  Fermi-Dirac smearing, width (Ry)=  0.0073
                       cart. coord. in units 2pi/alat
        k(    1) = (   0.0000000   0.0000000   0.0000000), wk =   0.0027435
        k(    2) = (   0.0000000   0.0000000   0.0266258), wk =   0.0054870
        k(    3) = (   0.0000000   0.0000000   0.0532515), wk =   0.0054870
        k(    4) = (   0.0000000   0.0000000   0.0798773), wk =   0.0054870
        k(    5) = (   0.0000000   0.0000000   0.1065031), wk =   0.0054870
        k(    6) = (   0.0000000   0.0277379   0.0000000), wk =   0.0109739
        k(    7) = (   0.0000000   0.0277379   0.0266258), wk =   0.0219479
        k(    8) = (   0.0000000   0.0277379   0.0532515), wk =   0.0219479
        k(    9) = (   0.0000000   0.0277379   0.0798773), wk =   0.0219479
        k(   10) = (   0.0000000   0.0277379   0.1065031), wk =   0.0219479
        k(   11) = (   0.0000000   0.0554758   0.0000000), wk =   0.0109739
        k(   12) = (   0.0000000   0.0554758   0.0266258), wk =   0.0219479
        k(   13) = (   0.0000000   0.0554758   0.0532515), wk =   0.0219479
        k(   14) = (   0.0000000   0.0554758   0.0798773), wk =   0.0219479
        k(   15) = (   0.0000000   0.0554758   0.1065031), wk =   0.0219479
        k(   16) = (   0.0000000   0.0832138   0.0000000), wk =   0.0109739
        k(   17) = (   0.0000000   0.0832138   0.0266258), wk =   0.0219479
        k(   18) = (   0.0000000   0.0832138   0.0532515), wk =   0.0219479
        k(   19) = (   0.0000000   0.0832138   0.0798773), wk =   0.0219479
        k(   20) = (   0.0000000   0.0832138   0.1065031), wk =   0.0219479
        k(   21) = (   0.0000000   0.1109517   0.0000000), wk =   0.0109739
        k(   22) = (   0.0000000   0.1109517   0.0266258), wk =   0.0219479
        k(   23) = (   0.0000000   0.1109517   0.0532515), wk =   0.0219479
        k(   24) = (   0.0000000   0.1109517   0.0798773), wk =   0.0219479
        k(   25) = (   0.0000000   0.1109517   0.1065031), wk =   0.0219479
        k(   26) = (   0.0277379   0.0277379   0.0000000), wk =   0.0109739
        k(   27) = (   0.0277379   0.0277379   0.0266258), wk =   0.0219479
        k(   28) = (   0.0277379   0.0277379   0.0532515), wk =   0.0219479
        k(   29) = (   0.0277379   0.0277379   0.0798773), wk =   0.0219479
        k(   30) = (   0.0277379   0.0277379   0.1065031), wk =   0.0219479
        k(   31) = (   0.0277379   0.0554758   0.0000000), wk =   0.0219479
        k(   32) = (   0.0277379   0.0554758   0.0266258), wk =   0.0438957
        k(   33) = (   0.0277379   0.0554758   0.0532515), wk =   0.0438957
        k(   34) = (   0.0277379   0.0554758   0.0798773), wk =   0.0438957
        k(   35) = (   0.0277379   0.0554758   0.1065031), wk =   0.0438957
        k(   36) = (   0.0277379   0.0832138   0.0000000), wk =   0.0219479
        k(   37) = (   0.0277379   0.0832138   0.0266258), wk =   0.0438957
        k(   38) = (   0.0277379   0.0832138   0.0532515), wk =   0.0438957
        k(   39) = (   0.0277379   0.0832138   0.0798773), wk =   0.0438957
        k(   40) = (   0.0277379   0.0832138   0.1065031), wk =   0.0438957
        k(   41) = (   0.0277379   0.1109517   0.0000000), wk =   0.0219479
        k(   42) = (   0.0277379   0.1109517   0.0266258), wk =   0.0438957
        k(   43) = (   0.0277379   0.1109517   0.0532515), wk =   0.0438957
        k(   44) = (   0.0277379   0.1109517   0.0798773), wk =   0.0438957
        k(   45) = (   0.0277379   0.1109517   0.1065031), wk =   0.0438957
        k(   46) = (   0.0554758   0.0554758   0.0000000), wk =   0.0109739
        k(   47) = (   0.0554758   0.0554758   0.0266258), wk =   0.0219479
        k(   48) = (   0.0554758   0.0554758   0.0532515), wk =   0.0219479
        k(   49) = (   0.0554758   0.0554758   0.0798773), wk =   0.0219479
        k(   50) = (   0.0554758   0.0554758   0.1065031), wk =   0.0219479
        k(   51) = (   0.0554758   0.0832138   0.0000000), wk =   0.0219479
        k(   52) = (   0.0554758   0.0832138   0.0266258), wk =   0.0438957
        k(   53) = (   0.0554758   0.0832138   0.0532515), wk =   0.0438957
        k(   54) = (   0.0554758   0.0832138   0.0798773), wk =   0.0438957
        k(   55) = (   0.0554758   0.0832138   0.1065031), wk =   0.0438957
        k(   56) = (   0.0554758   0.1109517   0.0000000), wk =   0.0219479
        k(   57) = (   0.0554758   0.1109517   0.0266258), wk =   0.0438957
        k(   58) = (   0.0554758   0.1109517   0.0532515), wk =   0.0438957
        k(   59) = (   0.0554758   0.1109517   0.0798773), wk =   0.0438957
        k(   60) = (   0.0554758   0.1109517   0.1065031), wk =   0.0438957
        k(   61) = (   0.0832138   0.0832138   0.0000000), wk =   0.0109739
        k(   62) = (   0.0832138   0.0832138   0.0266258), wk =   0.0219479
        k(   63) = (   0.0832138   0.0832138   0.0532515), wk =   0.0219479
        k(   64) = (   0.0832138   0.0832138   0.0798773), wk =   0.0219479
        k(   65) = (   0.0832138   0.0832138   0.1065031), wk =   0.0219479
        k(   66) = (   0.0832138   0.1109517   0.0000000), wk =   0.0219479
        k(   67) = (   0.0832138   0.1109517   0.0266258), wk =   0.0438957
        k(   68) = (   0.0832138   0.1109517   0.0532515), wk =   0.0438957
        k(   69) = (   0.0832138   0.1109517   0.0798773), wk =   0.0438957
        k(   70) = (   0.0832138   0.1109517   0.1065031), wk =   0.0438957
        k(   71) = (   0.1109517   0.1109517   0.0000000), wk =   0.0109739
        k(   72) = (   0.1109517   0.1109517   0.0266258), wk =   0.0219479
        k(   73) = (   0.1109517   0.1109517   0.0532515), wk =   0.0219479
        k(   74) = (   0.1109517   0.1109517   0.0798773), wk =   0.0219479
        k(   75) = (   0.1109517   0.1109517   0.1065031), wk =   0.0219479

     Largest allocated arrays     est. size (Mb)     dimensions
     Largest temporary arrays     est. size (Mb)     dimensions

     Initial potential from superposition of free atoms
     Check: negative starting charge=   -0.187595

     starting charge   31.99285, renormalised to   32.00000

     negative rho (up, down):  1.876E-01 0.000E+00

     *
     * You are using vdW-DF for exchange-correlation in this calculation.
     * Please cite the following three references that made this development
     * possible:
     *
     *   M. Dion, H. Rydberg, E. Schroder, D. C. Langreth, and
     *   B. I. Lundqvist, Phys. Rev. Lett. 92, 246401 (2004).
     *
     *   T. Thonhauser, V. R. Cooper, S. Li, A. Puzder, P. Hyldgaard, and
     *   D. C. Langreth, Phys. Rev. B 76, 125112 (2007).
     *
     *   G. Roman-Perez and J. M. Soler, Phys. Rev. Lett. 103, 096102 (2009).
     *
     *
     * If you are using vdW-DF2, please also cite:
     *
     *   K. Lee, E. D. Murray, L. Kong, B. I. Lundqvist, and
     *   D. C. Langreth, Phys. Rev. B 82, 081101(R) (2010).
     *
     *
     * If you are calculating the stress with vdW-DF, please also cite:
     *
     *   R. Sabatini, E. Kucukbenli, B. Kolb, T. Thonhauser, and
     *   S. de Gironcoli, J. Phys.: Condens. Matter 24, 424209 (2012).
     *

     Carrying out vdW-DF run using the following parameters:

     Nqs =      20    Nr_points =    1024   r_max =   100.000
     q_mesh =
               0.00001000     0.04494208     0.09755937     0.15916263
               0.23128650     0.31572767     0.41458969     0.53033537
               0.66584808     0.82450364     1.01025438     1.22772762
               1.48234092     1.78043706     2.12944203     2.53805004
               3.01644009     3.57652955     4.23227104     5.00000000

     Gradients computed in reciprocal space

     Starting wfc are   34 randomized atomic wfcs +    2 random wfc

     Self-consistent Calculation

     iteration #  1     ecut=    58.80 Ry     beta=0.10
     Davidson diagonalization with overlap
     ethr =  1.00E-02,  avg # of iterations =  4.3

     Threshold (ethr) on eigenvalues was too large:
     Diagonalizing with lowered threshold

     Davidson diagonalization with overlap
     ethr =  1.88E-04,  avg # of iterations =  1.4

[...]

     total energy              =    -300.37291069 Ry
     Harris-Foulkes estimate   =    -300.37651319 Ry
     estimated scf accuracy    <       0.06035695 Ry

[...]

     total energy              =    -300.36501882 Ry
     Harris-Foulkes estimate   =    -300.36501454 Ry
     estimated scf accuracy    <       0.00001115 Ry

     iteration #  9     ecut=    58.80 Ry     beta=0.10
     Davidson diagonalization with overlap
     ethr =  2.31E-08,  avg # of iterations =  1.2

     negative rho (up, down):  2.021E-01 0.000E+00

     End of self-consistent calculation

          k = 0.0000 0.0000 0.0000 (  3463 PWs)   bands (ev):

   -54.3443 -54.2352 -20.9890 -20.9890 -20.8596 -20.6633 -20.2495 -20.2495
     3.8629   9.0695  10.2603  11.4324  12.5802  12.6094  12.6094  13.0192
    13.1608  13.1608  16.7077  16.7077  18.6018  19.0246  19.0922  21.0124
    21.3356  21.7733  21.7733  23.0056  23.0947  24.2164  24.2164  26.8208
    27.2196  29.4631  29.4631  31.5905

[...]

          k = 0.1110 0.1110 0.1065 (  3444 PWs)   bands (ev):

   -54.2907 -54.2874 -21.0986 -21.0777 -20.7762 -20.7701 -20.1982 -20.1746
     7.7282   7.8842  10.2911  10.3576  11.0964  11.2704  12.4074  12.6705
    14.8888  14.9099  15.8289  15.8414  16.9808  17.0218  18.6195  18.6897
    22.0102  22.2520  24.0016  25.2816  25.3148  26.0385  26.5210  27.3347
    27.5196  28.1410  28.7576  29.1635

     the Fermi energy is    13.9450 ev

!    total energy              =    -300.36502331 Ry
     Harris-Foulkes estimate   =    -300.36502018 Ry
     estimated scf accuracy    <       0.00000038 Ry

     The total energy is the sum of the following terms:

     one-electron contribution =     -70.93933704 Ry
     hartree contribution      =      48.27218491 Ry
     xc contribution           =     -96.43390292 Ry
     ewald contribution        =    -181.25954258 Ry
     smearing contrib. (-TS)   =      -0.00442569 Ry

     convergence has been achieved in   9 iterations

     Forces acting on atoms (Ry/au):

     negative rho (up, down):  2.021E-01 0.000E+00
     atom    1 type  1   force =     0.00000000    0.00000000    0.00000000
     atom    2 type  1   force =     0.00000000    0.00000000    0.00000000
     atom    3 type  2   force =     0.00000000    0.00000000    0.00000000
     atom    4 type  2   force =     0.00000000    0.00000000    0.00000000

     Total force =     0.000000     Total SCF correction =     0.000000

     General routines

     Parallel routines

   This run was terminated on:   1: 5:37  14Nov2017

   JOB DONE.