     Program PWSCF v.5.1rc2 starts on 14Nov2017 at  9:38:12

     Current dimensions of program PWSCF are:
     Max number of different atomic species (ntypx) = 10
     Max number of k-points (npk) =  40000
     Max angular momentum in pseudopotentials (lmaxx) =  3

     IMPORTANT: XC functional enforced from input :
     Exchange-correlation      = BEEF-VDW ( 1  4 27 13 2)
     Any further DFT definition will be discarded
     Please, verify this is what you really want

     Found symmetry operation: I + ( -0.5000 -0.5000  0.0000)
     This is a supercell, fractional translations are disabled

     bravais-lattice index     =            0
     lattice parameter (alat)  =       1.8897  a.u.
     unit-cell volume          =     376.7047 (a.u.)^3
     number of atoms/cell      =            4
     number of atomic types    =            2
     number of electrons       =        72.00
     number of Kohn-Sham states=           56
     kinetic-energy cutoff     =      58.7989  Ry
     charge density cutoff     =     587.9892  Ry
     convergence threshold     =      1.0E-06
     mixing beta               =       0.1000
     number of iterations used =           10  plain     mixing
     Exchange-correlation      = BEEF-VDW ( 1  4 27 13 2)

     celldm(1)=   1.889726  celldm(2)=   0.000000  celldm(3)=   0.000000
     celldm(4)=   0.000000  celldm(5)=   0.000000  celldm(6)=   0.000000

     crystal axes: (cart. coord. in units of alat)
               a(1) = (   4.281103   0.000000   0.000000 )
               a(2) = (   0.000000   4.281103   0.000000 )
               a(3) = (   0.000000   0.000000   3.045742 )

     reciprocal axes: (cart. coord. in units 2 pi/alat)
               b(1) = (  0.233585  0.000000  0.000000 )
               b(2) = (  0.000000  0.233585  0.000000 )
               b(3) = (  0.000000  0.000000  0.328327 )

     PseudoPot. # 1 for Zn read from file:
     /home/users/vossj/suncat/psp/gbrv1.5pbe/Zn.UPF
     MD5 check sum: df62231357ef9e81f77b2b3087fa5675
     Pseudo is Ultrasoft, Zval = 20.0
     Generated by new atomic code, or converted to UPF format
     Using radial grid of  943 points,  6 beta functions with:
                l(1) =   0
                l(2) =   0
                l(3) =   1
                l(4) =   1
                l(5) =   2
                l(6) =   2
     Q(r) pseudized with  8 coefficients,  rinner =    1.100   1.100   1.100
                                                       1.100   1.100

     PseudoPot. # 2 for Ru read from file:
     /home/users/vossj/suncat/psp/gbrv1.5pbe/Ru.UPF
     MD5 check sum: 7158a806dd851261a58e6920c40ebe78
     Pseudo is Ultrasoft + core correction, Zval = 16.0
     Generated by new atomic code, or converted to UPF format
     Using radial grid of  967 points,  6 beta functions with:
                l(1) =   0
                l(2) =   0
                l(3) =   1
                l(4) =   1
                l(5) =   2
                l(6) =   2
     Q(r) pseudized with  8 coefficients,  rinner =    1.300   1.300   1.300
                                                       1.300   1.300

     vdW kernel table read from file vdW_kernel_table
     MD5 check sum: 095c7af220d748ca6e76c0b4c6cfb241

     atomic species   valence    mass     pseudopotential
        Zn1           20.00    65.39000     Zn( 1.00)
        Ru1           16.00   101.07000     Ru( 1.00)

     16 Sym. Ops., with inversion, found

   Cartesian axes

     site n.     atom                  positions (alat units)
         1           Zn1 tau(   1) = (   0.0000000   0.0000000   0.0000000  )
         2           Zn1 tau(   2) = (   2.1405514   2.1405514   0.0000000  )
         3           Ru1 tau(   3) = (   2.1405514   0.0000000   1.5228709  )
         4           Ru1 tau(   4) = (   0.0000000   2.1405514   1.5228709  )

     number of k points=    75  Fermi-Dirac smearing, width (Ry)=  0.0073
                       cart. coord. in units 2pi/alat
        k(    1) = (   0.0000000   0.0000000   0.0000000), wk =   0.0027435
        k(    2) = (   0.0000000   0.0000000   0.0364808), wk =   0.0054870
        k(    3) = (   0.0000000   0.0000000   0.0729616), wk =   0.0054870
        k(    4) = (   0.0000000   0.0000000   0.1094424), wk =   0.0054870
        k(    5) = (   0.0000000   0.0000000   0.1459232), wk =   0.0054870
        k(    6) = (   0.0000000   0.0259539   0.0000000), wk =   0.0109739
        k(    7) = (   0.0000000   0.0259539   0.0364808), wk =   0.0219479
        k(    8) = (   0.0000000   0.0259539   0.0729616), wk =   0.0219479
        k(    9) = (   0.0000000   0.0259539   0.1094424), wk =   0.0219479
        k(   10) = (   0.0000000   0.0259539   0.1459232), wk =   0.0219479
        k(   11) = (   0.0000000   0.0519077   0.0000000), wk =   0.0109739
        k(   12) = (   0.0000000   0.0519077   0.0364808), wk =   0.0219479
        k(   13) = (   0.0000000   0.0519077   0.0729616), wk =   0.0219479
        k(   14) = (   0.0000000   0.0519077   0.1094424), wk =   0.0219479
        k(   15) = (   0.0000000   0.0519077   0.1459232), wk =   0.0219479
        k(   16) = (   0.0000000   0.0778616   0.0000000), wk =   0.0109739
        k(   17) = (   0.0000000   0.0778616   0.0364808), wk =   0.0219479
        k(   18) = (   0.0000000   0.0778616   0.0729616), wk =   0.0219479
        k(   19) = (   0.0000000   0.0778616   0.1094424), wk =   0.0219479
        k(   20) = (   0.0000000   0.0778616   0.1459232), wk =   0.0219479
        k(   21) = (   0.0000000   0.1038154   0.0000000), wk =   0.0109739
        k(   22) = (   0.0000000   0.1038154   0.0364808), wk =   0.0219479
        k(   23) = (   0.0000000   0.1038154   0.0729616), wk =   0.0219479
        k(   24) = (   0.0000000   0.1038154   0.1094424), wk =   0.0219479
        k(   25) = (   0.0000000   0.1038154   0.1459232), wk =   0.0219479
        k(   26) = (   0.0259539   0.0259539   0.0000000), wk =   0.0109739
        k(   27) = (   0.0259539   0.0259539   0.0364808), wk =   0.0219479
        k(   28) = (   0.0259539   0.0259539   0.0729616), wk =   0.0219479
        k(   29) = (   0.0259539   0.0259539   0.1094424), wk =   0.0219479
        k(   30) = (   0.0259539   0.0259539   0.1459232), wk =   0.0219479
        k(   31) = (   0.0259539   0.0519077   0.0000000), wk =   0.0219479
        k(   32) = (   0.0259539   0.0519077   0.0364808), wk =   0.0438957
        k(   33) = (   0.0259539   0.0519077   0.0729616), wk =   0.0438957
        k(   34) = (   0.0259539   0.0519077   0.1094424), wk =   0.0438957
        k(   35) = (   0.0259539   0.0519077   0.1459232), wk =   0.0438957
        k(   36) = (   0.0259539   0.0778616   0.0000000), wk =   0.0219479
        k(   37) = (   0.0259539   0.0778616   0.0364808), wk =   0.0438957
        k(   38) = (   0.0259539   0.0778616   0.0729616), wk =   0.0438957
        k(   39) = (   0.0259539   0.0778616   0.1094424), wk =   0.0438957
        k(   40) = (   0.0259539   0.0778616   0.1459232), wk =   0.0438957
        k(   41) = (   0.0259539   0.1038154   0.0000000), wk =   0.0219479
        k(   42) = (   0.0259539   0.1038154   0.0364808), wk =   0.0438957
        k(   43) = (   0.0259539   0.1038154   0.0729616), wk =   0.0438957
        k(   44) = (   0.0259539   0.1038154   0.1094424), wk =   0.0438957
        k(   45) = (   0.0259539   0.1038154   0.1459232), wk =   0.0438957
        k(   46) = (   0.0519077   0.0519077   0.0000000), wk =   0.0109739
        k(   47) = (   0.0519077   0.0519077   0.0364808), wk =   0.0219479
        k(   48) = (   0.0519077   0.0519077   0.0729616), wk =   0.0219479
        k(   49) = (   0.0519077   0.0519077   0.1094424), wk =   0.0219479
        k(   50) = (   0.0519077   0.0519077   0.1459232), wk =   0.0219479
        k(   51) = (   0.0519077   0.0778616   0.0000000), wk =   0.0219479
        k(   52) = (   0.0519077   0.0778616   0.0364808), wk =   0.0438957
        k(   53) = (   0.0519077   0.0778616   0.0729616), wk =   0.0438957
        k(   54) = (   0.0519077   0.0778616   0.1094424), wk =   0.0438957
        k(   55) = (   0.0519077   0.0778616   0.1459232), wk =   0.0438957
        k(   56) = (   0.0519077   0.1038154   0.0000000), wk =   0.0219479
        k(   57) = (   0.0519077   0.1038154   0.0364808), wk =   0.0438957
        k(   58) = (   0.0519077   0.1038154   0.0729616), wk =   0.0438957
        k(   59) = (   0.0519077   0.1038154   0.1094424), wk =   0.0438957
        k(   60) = (   0.0519077   0.1038154   0.1459232), wk =   0.0438957
        k(   61) = (   0.0778616   0.0778616   0.0000000), wk =   0.0109739
        k(   62) = (   0.0778616   0.0778616   0.0364808), wk =   0.0219479
        k(   63) = (   0.0778616   0.0778616   0.0729616), wk =   0.0219479
        k(   64) = (   0.0778616   0.0778616   0.1094424), wk =   0.0219479
        k(   65) = (   0.0778616   0.0778616   0.1459232), wk =   0.0219479
        k(   66) = (   0.0778616   0.1038154   0.0000000), wk =   0.0219479
        k(   67) = (   0.0778616   0.1038154   0.0364808), wk =   0.0438957
        k(   68) = (   0.0778616   0.1038154   0.0729616), wk =   0.0438957
        k(   69) = (   0.0778616   0.1038154   0.1094424), wk =   0.0438957
        k(   70) = (   0.0778616   0.1038154   0.1459232), wk =   0.0438957
        k(   71) = (   0.1038154   0.1038154   0.0000000), wk =   0.0109739
        k(   72) = (   0.1038154   0.1038154   0.0364808), wk =   0.0219479
        k(   73) = (   0.1038154   0.1038154   0.0729616), wk =   0.0219479
        k(   74) = (   0.1038154   0.1038154   0.1094424), wk =   0.0219479
        k(   75) = (   0.1038154   0.1038154   0.1459232), wk =   0.0219479

     Largest allocated arrays     est. size (Mb)     dimensions
     Largest temporary arrays     est. size (Mb)     dimensions

     Initial potential from superposition of free atoms
     Check: negative starting charge=   -0.144724

     starting charge   69.99969, renormalised to   72.00000

     negative rho (up, down):  1.489E-01 0.000E+00

     *
     * You are using vdW-DF for exchange-correlation in this calculation.
     * Please cite the following three references that made this development
     * possible:
     *
     *   M. Dion, H. Rydberg, E. Schroder, D. C. Langreth, and
     *   B. I. Lundqvist, Phys. Rev. Lett. 92, 246401 (2004).
     *
     *   T. Thonhauser, V. R. Cooper, S. Li, A. Puzder, P. Hyldgaard, and
     *   D. C. Langreth, Phys. Rev. B 76, 125112 (2007).
     *
     *   G. Roman-Perez and J. M. Soler, Phys. Rev. Lett. 103, 096102 (2009).
     *
     *
     * If you are using vdW-DF2, please also cite:
     *
     *   K. Lee, E. D. Murray, L. Kong, B. I. Lundqvist, and
     *   D. C. Langreth, Phys. Rev. B 82, 081101(R) (2010).
     *
     *
     * If you are calculating the stress with vdW-DF, please also cite:
     *
     *   R. Sabatini, E. Kucukbenli, B. Kolb, T. Thonhauser, and
     *   S. de Gironcoli, J. Phys.: Condens. Matter 24, 424209 (2012).
     *

     Carrying out vdW-DF run using the following parameters:

     Nqs =      20    Nr_points =    1024   r_max =   100.000
     q_mesh =
               0.00001000     0.04494208     0.09755937     0.15916263
               0.23128650     0.31572767     0.41458969     0.53033537
               0.66584808     0.82450364     1.01025438     1.22772762
               1.48234092     1.78043706     2.12944203     2.53805004
               3.01644009     3.57652955     4.23227104     5.00000000

     Gradients computed in reciprocal space

     Starting wfc are   52 randomized atomic wfcs +    4 random wfc

     Self-consistent Calculation

     iteration #  1     ecut=    58.80 Ry     beta=0.10
     Davidson diagonalization with overlap
     ethr =  1.00E-02,  avg # of iterations =  4.5

[...]

     total energy              =   -1312.86613239 Ry
     Harris-Foulkes estimate   =   -1318.51390643 Ry
     estimated scf accuracy    <      31.16242776 Ry

[...]

     total energy              =   -1315.83942835 Ry
     Harris-Foulkes estimate   =   -1315.83943058 Ry
     estimated scf accuracy    <       0.00000695 Ry

     iteration # 12     ecut=    58.80 Ry     beta=0.10
     Davidson diagonalization with overlap
     ethr =  9.66E-09,  avg # of iterations =  2.0

     negative rho (up, down):  1.474E-01 0.000E+00

     End of self-consistent calculation

          k = 0.0000 0.0000 0.0000 (  2835 PWs)   bands (ev):

  -107.8584-107.8581 -62.0388 -62.0388 -62.0356 -62.0356 -62.0346 -62.0341
   -54.3403 -54.3155 -24.3886 -24.3886 -24.2447 -24.2384 -24.2384 -24.2160
     9.1825  10.5735  10.5739  10.5746  10.6088  10.9653  10.9653  11.2693
    11.2693  11.2776  11.5856  13.4167  15.4725  15.4910  16.1068  17.5479
    17.5479  17.7741  17.7741  18.2730  18.2730  18.2953  19.1692  23.9758
    24.7060  25.1529  25.3415  25.3415  30.2547  32.5873  32.6843  32.7910
    32.7910  32.8680  37.4065  37.7795  37.8985  37.8985  38.9163  39.9737

[...]

          k = 0.1038 0.1038 0.1459 (  2873 PWs)   bands (ev):

  -107.8581-107.8581 -62.0389 -62.0388 -62.0374 -62.0374 -62.0353 -62.0352
   -54.3171 -54.3164 -24.3899 -24.3855 -24.3808 -24.3797 -24.2162 -24.2117
    10.6028  10.6058  10.6262  10.6408  10.9828  10.9888  10.9899  11.0051
    11.5486  11.5645  13.3746  13.3972  15.8941  16.0251  16.9402  16.9451
    17.4728  17.5031  17.5297  17.5967  18.1599  18.3615  19.3514  19.4618
    24.0094  24.0802  24.7989  25.0413  30.1618  30.4940  32.7130  32.8016
    32.8322  33.0572  37.7336  37.8554  37.9509  38.0851  40.0035  40.3020

     the Fermi energy is    17.8949 ev

!    total energy              =   -1315.83943021 Ry
     Harris-Foulkes estimate   =   -1315.83942945 Ry
     estimated scf accuracy    <       0.00000054 Ry

     The total energy is the sum of the following terms:

     one-electron contribution =    -777.68026185 Ry
     hartree contribution      =     431.16103979 Ry
     xc contribution           =    -140.83012378 Ry
     ewald contribution        =    -828.47469455 Ry
     smearing contrib. (-TS)   =      -0.01538982 Ry

     convergence has been achieved in  12 iterations

     Forces acting on atoms (Ry/au):

     negative rho (up, down):  1.474E-01 0.000E+00
     atom    1 type  1   force =     0.00000000    0.00000000    0.00000000
     atom    2 type  1   force =     0.00000000    0.00000000    0.00000000
     atom    3 type  2   force =     0.00000000    0.00000000    0.00000000
     atom    4 type  2   force =     0.00000000    0.00000000    0.00000000

     Total force =     0.000000     Total SCF correction =     0.000000

     General routines

     Parallel routines

   This run was terminated on:   9:38:56  14Nov2017

   JOB DONE.