     Program PWSCF v.5.1rc2 starts on 15Nov2017 at  8:33:54

     Current dimensions of program PWSCF are:
     Max number of different atomic species (ntypx) = 10
     Max number of k-points (npk) =  40000
     Max angular momentum in pseudopotentials (lmaxx) =  3

     IMPORTANT: XC functional enforced from input :
     Exchange-correlation      = BEEF-VDW ( 1  4 27 13 2)
     Any further DFT definition will be discarded
     Please, verify this is what you really want

     Found symmetry operation: I + ( -0.5000 -0.5000  0.0000)
     This is a supercell, fractional translations are disabled

     Generating pointlists ...
     new r_m :   0.4125 (alat units)  0.7795 (a.u.) for type    1
     new r_m :   0.4125 (alat units)  0.7795 (a.u.) for type    2

     bravais-lattice index     =            0
     lattice parameter (alat)  =       1.8897  a.u.
     unit-cell volume          =     444.2184 (a.u.)^3
     number of atoms/cell      =            4
     number of atomic types    =            2
     number of electrons       =        54.00
     number of Kohn-Sham states=           47
     kinetic-energy cutoff     =      58.7989  Ry
     charge density cutoff     =     587.9892  Ry
     convergence threshold     =      1.0E-06
     mixing beta               =       0.1000
     number of iterations used =           10  plain     mixing
     Exchange-correlation      = BEEF-VDW ( 1  4 27 13 2)

     celldm(1)=   1.889726  celldm(2)=   0.000000  celldm(3)=   0.000000
     celldm(4)=   0.000000  celldm(5)=   0.000000  celldm(6)=   0.000000

     crystal axes: (cart. coord. in units of alat)
               a(1) = (   4.532658   0.000000   0.000000 )
               a(2) = (   0.000000   4.532658   0.000000 )
               a(3) = (   0.000000   0.000000   3.204012 )

     reciprocal axes: (cart. coord. in units 2 pi/alat)
               b(1) = (  0.220621  0.000000  0.000000 )
               b(2) = (  0.000000  0.220621  0.000000 )
               b(3) = (  0.000000  0.000000  0.312109 )

     PseudoPot. # 1 for Mn read from file:
     /home/users/vossj/suncat/psp/gbrv1.5pbe/Mn.UPF
     MD5 check sum: 82ef2b46521d7a7d9e736dc3972e4928
     Pseudo is Ultrasoft + core correction, Zval = 15.0
     Generated by new atomic code, or converted to UPF format
     Using radial grid of  859 points,  6 beta functions with:
                l(1) =   0
                l(2) =   0
                l(3) =   1
                l(4) =   1
                l(5) =   2
                l(6) =   2
     Q(r) pseudized with  8 coefficients,  rinner =    0.950   0.950   0.950
                                                       0.950   0.950

     PseudoPot. # 2 for Zr read from file:
     /home/users/vossj/suncat/psp/gbrv1.5pbe/Zr.UPF
     MD5 check sum: 5db81b1e868ab7776c4564c113de050b
     Pseudo is Ultrasoft + core correction, Zval = 12.0
     Generated by new atomic code, or converted to UPF format
     Using radial grid of  887 points,  6 beta functions with:
                l(1) =   0
                l(2) =   0
                l(3) =   1
                l(4) =   1
                l(5) =   2
                l(6) =   2
     Q(r) pseudized with  6 coefficients,  rinner =    1.200   1.200   1.200
                                                       1.200   1.200

     vdW kernel table read from file vdW_kernel_table
     MD5 check sum: 095c7af220d748ca6e76c0b4c6cfb241

     atomic species   valence    mass     pseudopotential
        Mn1           15.00    54.93800     Mn( 1.00)
        Zr1           12.00    91.22400     Zr( 1.00)

     Starting magnetic structure
     atomic species   magnetization
        Mn1          0.133
        Zr1          0.167

     16 Sym. Ops., with inversion, found

   Cartesian axes

     site n.     atom                  positions (alat units)
         1           Mn1 tau(   1) = (   0.0000000   0.0000000   0.0000000  )
         2           Mn1 tau(   2) = (   2.2663290   2.2663290   0.0000000  )
         3           Zr1 tau(   3) = (   2.2663290   0.0000000   1.6020058  )
         4           Zr1 tau(   4) = (   0.0000000   2.2663290   1.6020058  )

     number of k points=   150  Fermi-Dirac smearing, width (Ry)=  0.0073

     Number of k-points >= 100: set verbosity='high' to print them.

     Largest allocated arrays     est. size (Mb)     dimensions
     Largest temporary arrays     est. size (Mb)     dimensions

     Check: negative/imaginary core charge=   -0.000031    0.000000

     Initial potential from superposition of free atoms
     Check: negative starting charge=(component1):   -0.070684
     Check: negative starting charge=(component2):   -0.050459

     starting charge   52.99553, renormalised to   54.00000

     negative rho (up, down):  7.202E-02 5.142E-02

     *
     * You are using vdW-DF for exchange-correlation in this calculation.
     * Please cite the following three references that made this development
     * possible:
     *
     *   M. Dion, H. Rydberg, E. Schroder, D. C. Langreth, and
     *   B. I. Lundqvist, Phys. Rev. Lett. 92, 246401 (2004).
     *
     *   T. Thonhauser, V. R. Cooper, S. Li, A. Puzder, P. Hyldgaard, and
     *   D. C. Langreth, Phys. Rev. B 76, 125112 (2007).
     *
     *   G. Roman-Perez and J. M. Soler, Phys. Rev. Lett. 103, 096102 (2009).
     *
     *
     * If you are using vdW-DF2, please also cite:
     *
     *   K. Lee, E. D. Murray, L. Kong, B. I. Lundqvist, and
     *   D. C. Langreth, Phys. Rev. B 82, 081101(R) (2010).
     *
     *
     * If you are calculating the stress with vdW-DF, please also cite:
     *
     *   R. Sabatini, E. Kucukbenli, B. Kolb, T. Thonhauser, and
     *   S. de Gironcoli, J. Phys.: Condens. Matter 24, 424209 (2012).
     *

     Carrying out vdW-DF run using the following parameters:

     Nqs =      20    Nr_points =    1024   r_max =   100.000
     q_mesh =
               0.00001000     0.04494208     0.09755937     0.15916263
               0.23128650     0.31572767     0.41458969     0.53033537
               0.66584808     0.82450364     1.01025438     1.22772762
               1.48234092     1.78043706     2.12944203     2.53805004
               3.01644009     3.57652955     4.23227104     5.00000000

     Gradients computed in reciprocal space

     Starting wfc are   52 randomized atomic wfcs

     Self-consistent Calculation

     iteration #  1     ecut=    58.80 Ry     beta=0.10
     Davidson diagonalization with overlap
     ethr =  1.00E-02,  avg # of iterations =  4.2

[...]

     Magnetic moment per site:
     atom:    1    charge:    6.0294    magn:    0.7731    constr:    0.0000
     atom:    2    charge:    6.0294    magn:    0.7731    constr:    0.0000
     atom:    3    charge:    1.1343    magn:    0.1712    constr:    0.0000
     atom:    4    charge:    1.1343    magn:    0.1712    constr:    0.0000

     total energy              =    -623.61825268 Ry
     Harris-Foulkes estimate   =    -624.02465563 Ry
     estimated scf accuracy    <       2.64185264 Ry

     total magnetization       =     2.46 Bohr mag/cell
     absolute magnetization    =     2.47 Bohr mag/cell

[...]

     total energy              =    -623.88854231 Ry
     Harris-Foulkes estimate   =    -623.88853876 Ry
     estimated scf accuracy    <       0.00000114 Ry

[...]

     iteration # 14     ecut=    58.80 Ry     beta=0.10
     Davidson diagonalization with overlap
     ethr =  2.11E-09,  avg # of iterations =  2.0

     negative rho (up, down):  6.378E-02 6.225E-02

     Magnetic moment per site:
     atom:    1    charge:    5.9846    magn:    0.4417    constr:    0.0000
     atom:    2    charge:    5.9846    magn:    0.4417    constr:    0.0000
     atom:    3    charge:    1.1137    magn:   -0.0103    constr:    0.0000
     atom:    4    charge:    1.1137    magn:   -0.0103    constr:    0.0000

     End of self-consistent calculation

     Number of k-points >= 100: set verbosity='high' to print the bands.

     the Fermi energy is    16.0213 ev

!    total energy              =    -623.88855855 Ry
     Harris-Foulkes estimate   =    -623.88854267 Ry
     estimated scf accuracy    <       0.00000041 Ry

     The total energy is the sum of the following terms:

     one-electron contribution =    -237.21320872 Ry
     hartree contribution      =     146.55729899 Ry
     xc contribution           =     -92.12097536 Ry
     ewald contribution        =    -441.09989997 Ry
     smearing contrib. (-TS)   =      -0.01177349 Ry

     total magnetization       =     1.47 Bohr mag/cell
     absolute magnetization    =     2.90 Bohr mag/cell

     convergence has been achieved in  14 iterations

     Forces acting on atoms (Ry/au):

     negative rho (up, down):  6.378E-02 6.225E-02
     atom    1 type  1   force =     0.00000000    0.00000000    0.00000000
     atom    2 type  1   force =     0.00000000    0.00000000    0.00000000
     atom    3 type  2   force =     0.00000000    0.00000000    0.00000000
     atom    4 type  2   force =     0.00000000    0.00000000    0.00000000

     Total force =     0.000000     Total SCF correction =     0.000000

     General routines

     Parallel routines

   This run was terminated on:   8:35:10  15Nov2017

   JOB DONE.