     Program PWSCF v.5.1rc2 starts on 14Nov2017 at  9:50: 9

     Current dimensions of program PWSCF are:
     Max number of different atomic species (ntypx) = 10
     Max number of k-points (npk) =  40000
     Max angular momentum in pseudopotentials (lmaxx) =  3

     IMPORTANT: XC functional enforced from input :
     Exchange-correlation      = BEEF-VDW ( 1  4 27 13 2)
     Any further DFT definition will be discarded
     Please, verify this is what you really want

     Found symmetry operation: I + ( -0.5000 -0.5000  0.0000)
     This is a supercell, fractional translations are disabled

     bravais-lattice index     =            0
     lattice parameter (alat)  =       1.8897  a.u.
     unit-cell volume          =     401.8632 (a.u.)^3
     number of atoms/cell      =            4
     number of atomic types    =            2
     number of electrons       =        72.00
     number of Kohn-Sham states=           56
     kinetic-energy cutoff     =      58.7989  Ry
     charge density cutoff     =     587.9892  Ry
     convergence threshold     =      1.0E-06
     mixing beta               =       0.1000
     number of iterations used =           10  plain     mixing
     Exchange-correlation      = BEEF-VDW ( 1  4 27 13 2)

     celldm(1)=   1.889726  celldm(2)=   0.000000  celldm(3)=   0.000000
     celldm(4)=   0.000000  celldm(5)=   0.000000  celldm(6)=   0.000000

     crystal axes: (cart. coord. in units of alat)
               a(1) = (   4.113594   0.000000   0.000000 )
               a(2) = (   0.000000   4.113594   0.000000 )
               a(3) = (   0.000000   0.000000   3.519159 )

     reciprocal axes: (cart. coord. in units 2 pi/alat)
               b(1) = (  0.243096  0.000000  0.000000 )
               b(2) = (  0.000000  0.243096  0.000000 )
               b(3) = (  0.000000  0.000000  0.284159 )

     PseudoPot. # 1 for Zn read from file:
     /home/users/vossj/suncat/psp/gbrv1.5pbe/Zn.UPF
     MD5 check sum: df62231357ef9e81f77b2b3087fa5675
     Pseudo is Ultrasoft, Zval = 20.0
     Generated by new atomic code, or converted to UPF format
     Using radial grid of  943 points,  6 beta functions with:
                l(1) =   0
                l(2) =   0
                l(3) =   1
                l(4) =   1
                l(5) =   2
                l(6) =   2
     Q(r) pseudized with  8 coefficients,  rinner =    1.100   1.100   1.100
                                                       1.100   1.100

     PseudoPot. # 2 for Pt read from file:
     /home/users/vossj/suncat/psp/gbrv1.5pbe/Pt.UPF
     MD5 check sum: f09d6de1a584b5a045c4fc126da2d0c4
     Pseudo is Ultrasoft + core correction, Zval = 16.0
     Generated by new atomic code, or converted to UPF format
     Using radial grid of  985 points,  6 beta functions with:
                l(1) =   0
                l(2) =   0
                l(3) =   1
                l(4) =   1
                l(5) =   2
                l(6) =   2
     Q(r) pseudized with  8 coefficients,  rinner =    1.300   1.300   1.300
                                                       1.300   1.300

     vdW kernel table read from file vdW_kernel_table
     MD5 check sum: 095c7af220d748ca6e76c0b4c6cfb241

     atomic species   valence    mass     pseudopotential
        Zn1           20.00    65.39000     Zn( 1.00)
        Pt1           16.00   195.08000     Pt( 1.00)

     16 Sym. Ops., with inversion, found

   Cartesian axes

     site n.     atom                  positions (alat units)
         1           Zn1 tau(   1) = (   0.0000000   0.0000000   0.0000000  )
         2           Zn1 tau(   2) = (   2.0567968   2.0567968   0.0000000  )
         3           Pt1 tau(   3) = (   2.0567968   0.0000000   1.7595793  )
         4           Pt1 tau(   4) = (   0.0000000   2.0567968   1.7595793  )

     number of k points=    75  Fermi-Dirac smearing, width (Ry)=  0.0073
                       cart. coord. in units 2pi/alat
        k(    1) = (   0.0000000   0.0000000   0.0000000), wk =   0.0027435
        k(    2) = (   0.0000000   0.0000000   0.0315732), wk =   0.0054870
        k(    3) = (   0.0000000   0.0000000   0.0631464), wk =   0.0054870
        k(    4) = (   0.0000000   0.0000000   0.0947196), wk =   0.0054870
        k(    5) = (   0.0000000   0.0000000   0.1262928), wk =   0.0054870
        k(    6) = (   0.0000000   0.0270107   0.0000000), wk =   0.0109739
        k(    7) = (   0.0000000   0.0270107   0.0315732), wk =   0.0219479
        k(    8) = (   0.0000000   0.0270107   0.0631464), wk =   0.0219479
        k(    9) = (   0.0000000   0.0270107   0.0947196), wk =   0.0219479
        k(   10) = (   0.0000000   0.0270107   0.1262928), wk =   0.0219479
        k(   11) = (   0.0000000   0.0540214   0.0000000), wk =   0.0109739
        k(   12) = (   0.0000000   0.0540214   0.0315732), wk =   0.0219479
        k(   13) = (   0.0000000   0.0540214   0.0631464), wk =   0.0219479
        k(   14) = (   0.0000000   0.0540214   0.0947196), wk =   0.0219479
        k(   15) = (   0.0000000   0.0540214   0.1262928), wk =   0.0219479
        k(   16) = (   0.0000000   0.0810321   0.0000000), wk =   0.0109739
        k(   17) = (   0.0000000   0.0810321   0.0315732), wk =   0.0219479
        k(   18) = (   0.0000000   0.0810321   0.0631464), wk =   0.0219479
        k(   19) = (   0.0000000   0.0810321   0.0947196), wk =   0.0219479
        k(   20) = (   0.0000000   0.0810321   0.1262928), wk =   0.0219479
        k(   21) = (   0.0000000   0.1080429   0.0000000), wk =   0.0109739
        k(   22) = (   0.0000000   0.1080429   0.0315732), wk =   0.0219479
        k(   23) = (   0.0000000   0.1080429   0.0631464), wk =   0.0219479
        k(   24) = (   0.0000000   0.1080429   0.0947196), wk =   0.0219479
        k(   25) = (   0.0000000   0.1080429   0.1262928), wk =   0.0219479
        k(   26) = (   0.0270107   0.0270107   0.0000000), wk =   0.0109739
        k(   27) = (   0.0270107   0.0270107   0.0315732), wk =   0.0219479
        k(   28) = (   0.0270107   0.0270107   0.0631464), wk =   0.0219479
        k(   29) = (   0.0270107   0.0270107   0.0947196), wk =   0.0219479
        k(   30) = (   0.0270107   0.0270107   0.1262928), wk =   0.0219479
        k(   31) = (   0.0270107   0.0540214   0.0000000), wk =   0.0219479
        k(   32) = (   0.0270107   0.0540214   0.0315732), wk =   0.0438957
        k(   33) = (   0.0270107   0.0540214   0.0631464), wk =   0.0438957
        k(   34) = (   0.0270107   0.0540214   0.0947196), wk =   0.0438957
        k(   35) = (   0.0270107   0.0540214   0.1262928), wk =   0.0438957
        k(   36) = (   0.0270107   0.0810321   0.0000000), wk =   0.0219479
        k(   37) = (   0.0270107   0.0810321   0.0315732), wk =   0.0438957
        k(   38) = (   0.0270107   0.0810321   0.0631464), wk =   0.0438957
        k(   39) = (   0.0270107   0.0810321   0.0947196), wk =   0.0438957
        k(   40) = (   0.0270107   0.0810321   0.1262928), wk =   0.0438957
        k(   41) = (   0.0270107   0.1080429   0.0000000), wk =   0.0219479
        k(   42) = (   0.0270107   0.1080429   0.0315732), wk =   0.0438957
        k(   43) = (   0.0270107   0.1080429   0.0631464), wk =   0.0438957
        k(   44) = (   0.0270107   0.1080429   0.0947196), wk =   0.0438957
        k(   45) = (   0.0270107   0.1080429   0.1262928), wk =   0.0438957
        k(   46) = (   0.0540214   0.0540214   0.0000000), wk =   0.0109739
        k(   47) = (   0.0540214   0.0540214   0.0315732), wk =   0.0219479
        k(   48) = (   0.0540214   0.0540214   0.0631464), wk =   0.0219479
        k(   49) = (   0.0540214   0.0540214   0.0947196), wk =   0.0219479
        k(   50) = (   0.0540214   0.0540214   0.1262928), wk =   0.0219479
        k(   51) = (   0.0540214   0.0810321   0.0000000), wk =   0.0219479
        k(   52) = (   0.0540214   0.0810321   0.0315732), wk =   0.0438957
        k(   53) = (   0.0540214   0.0810321   0.0631464), wk =   0.0438957
        k(   54) = (   0.0540214   0.0810321   0.0947196), wk =   0.0438957
        k(   55) = (   0.0540214   0.0810321   0.1262928), wk =   0.0438957
        k(   56) = (   0.0540214   0.1080429   0.0000000), wk =   0.0219479
        k(   57) = (   0.0540214   0.1080429   0.0315732), wk =   0.0438957
        k(   58) = (   0.0540214   0.1080429   0.0631464), wk =   0.0438957
        k(   59) = (   0.0540214   0.1080429   0.0947196), wk =   0.0438957
        k(   60) = (   0.0540214   0.1080429   0.1262928), wk =   0.0438957
        k(   61) = (   0.0810321   0.0810321   0.0000000), wk =   0.0109739
        k(   62) = (   0.0810321   0.0810321   0.0315732), wk =   0.0219479
        k(   63) = (   0.0810321   0.0810321   0.0631464), wk =   0.0219479
        k(   64) = (   0.0810321   0.0810321   0.0947196), wk =   0.0219479
        k(   65) = (   0.0810321   0.0810321   0.1262928), wk =   0.0219479
        k(   66) = (   0.0810321   0.1080429   0.0000000), wk =   0.0219479
        k(   67) = (   0.0810321   0.1080429   0.0315732), wk =   0.0438957
        k(   68) = (   0.0810321   0.1080429   0.0631464), wk =   0.0438957
        k(   69) = (   0.0810321   0.1080429   0.0947196), wk =   0.0438957
        k(   70) = (   0.0810321   0.1080429   0.1262928), wk =   0.0438957
        k(   71) = (   0.1080429   0.1080429   0.0000000), wk =   0.0109739
        k(   72) = (   0.1080429   0.1080429   0.0315732), wk =   0.0219479
        k(   73) = (   0.1080429   0.1080429   0.0631464), wk =   0.0219479
        k(   74) = (   0.1080429   0.1080429   0.0947196), wk =   0.0219479
        k(   75) = (   0.1080429   0.1080429   0.1262928), wk =   0.0219479

     Largest allocated arrays     est. size (Mb)     dimensions
     Largest temporary arrays     est. size (Mb)     dimensions

     Initial potential from superposition of free atoms
     Check: negative starting charge=   -0.368951

     starting charge   70.99970, renormalised to   72.00000

     negative rho (up, down):  3.741E-01 0.000E+00

     *
     * You are using vdW-DF for exchange-correlation in this calculation.
     * Please cite the following three references that made this development
     * possible:
     *
     *   M. Dion, H. Rydberg, E. Schroder, D. C. Langreth, and
     *   B. I. Lundqvist, Phys. Rev. Lett. 92, 246401 (2004).
     *
     *   T. Thonhauser, V. R. Cooper, S. Li, A. Puzder, P. Hyldgaard, and
     *   D. C. Langreth, Phys. Rev. B 76, 125112 (2007).
     *
     *   G. Roman-Perez and J. M. Soler, Phys. Rev. Lett. 103, 096102 (2009).
     *
     *
     * If you are using vdW-DF2, please also cite:
     *
     *   K. Lee, E. D. Murray, L. Kong, B. I. Lundqvist, and
     *   D. C. Langreth, Phys. Rev. B 82, 081101(R) (2010).
     *
     *
     * If you are calculating the stress with vdW-DF, please also cite:
     *
     *   R. Sabatini, E. Kucukbenli, B. Kolb, T. Thonhauser, and
     *   S. de Gironcoli, J. Phys.: Condens. Matter 24, 424209 (2012).
     *

     Carrying out vdW-DF run using the following parameters:

     Nqs =      20    Nr_points =    1024   r_max =   100.000
     q_mesh =
               0.00001000     0.04494208     0.09755937     0.15916263
               0.23128650     0.31572767     0.41458969     0.53033537
               0.66584808     0.82450364     1.01025438     1.22772762
               1.48234092     1.78043706     2.12944203     2.53805004
               3.01644009     3.57652955     4.23227104     5.00000000

     Gradients computed in reciprocal space

     Starting wfc are   50 randomized atomic wfcs +    6 random wfc

     Self-consistent Calculation

     iteration #  1     ecut=    58.80 Ry     beta=0.10
     Davidson diagonalization with overlap
     ethr =  1.00E-02,  avg # of iterations =  4.7

[...]

     total energy              =   -1350.65185564 Ry
     Harris-Foulkes estimate   =   -1350.98980604 Ry
     estimated scf accuracy    <       2.06454075 Ry

[...]

     total energy              =   -1350.48246231 Ry
     Harris-Foulkes estimate   =   -1350.48246098 Ry
     estimated scf accuracy    <       0.00000261 Ry

     iteration # 11     ecut=    58.80 Ry     beta=0.10
     Davidson diagonalization with overlap
     ethr =  3.62E-09,  avg # of iterations =  1.8

     negative rho (up, down):  3.571E-01 0.000E+00

     End of self-consistent calculation

          k = 0.0000 0.0000 0.0000 (  3061 PWs)   bands (ev):

  -108.3709-108.3703 -62.5691 -62.5691 -62.5635 -62.5635 -62.5433 -62.5423
   -34.9613 -34.9613 -34.8842 -34.8585 -34.8314 -34.8314   7.8361   9.8825
    10.0373  10.0478  10.1322  10.1773  10.1773  10.6895  10.6895  10.8733
    11.1167  12.7210  13.4141  13.9165  15.1688  15.2516  15.2516  16.2390
    16.2390  16.7304  17.5259  17.5259  17.7878  20.5460  22.5856  22.9283
    25.9823  25.9823  26.5077  26.9669  29.7029  29.7029  32.5276  32.7946
    32.8597  35.1792  35.3118  37.2056  37.2056  37.8136  37.8136  38.4086

[...]

          k = 0.1080 0.1080 0.1263 (  3064 PWs)   bands (ev):

  -108.3706-108.3705 -62.5695 -62.5693 -62.5633 -62.5631 -62.5432 -62.5431
   -34.9738 -34.9699 -34.8850 -34.8841 -34.8233 -34.8194   9.9289   9.9397
    10.0257  10.0455  10.5422  10.5603  10.6225  10.6345  10.8642  10.8716
    12.2242  12.2801  13.6673  13.7988  15.3095  15.3823  15.6535  15.6996
    16.1292  16.2660  16.3058  17.0493  17.1696  17.2775  20.8435  21.0711
    21.8063  22.1145  30.5585  31.0316  32.7222  32.7967  32.8183  33.0811
    36.7035  36.7331  36.8392  36.9023  38.2312  38.3930  39.3299  39.4769

     the Fermi energy is    17.8016 ev

!    total energy              =   -1350.48247133 Ry
     Harris-Foulkes estimate   =   -1350.48246255 Ry
     estimated scf accuracy    <       0.00000045 Ry

     The total energy is the sum of the following terms:

     one-electron contribution =    -765.73470434 Ry
     hartree contribution      =     430.15929815 Ry
     xc contribution           =    -204.41532958 Ry
     ewald contribution        =    -810.48956137 Ry
     smearing contrib. (-TS)   =      -0.00217419 Ry

     convergence has been achieved in  11 iterations

     Forces acting on atoms (Ry/au):

     negative rho (up, down):  3.571E-01 0.000E+00
     atom    1 type  1   force =     0.00000000    0.00000000    0.00000000
     atom    2 type  1   force =     0.00000000    0.00000000    0.00000000
     atom    3 type  2   force =     0.00000000    0.00000000    0.00000000
     atom    4 type  2   force =     0.00000000    0.00000000    0.00000000

     Total force =     0.000000     Total SCF correction =     0.000000

     General routines

     Parallel routines

   This run was terminated on:   9:50:53  14Nov2017

   JOB DONE.