     Program PWSCF v.5.1rc2 (svn rev. ) starts on 15Nov2017 at  0: 3:21

     Current dimensions of program PWSCF are:
     Max number of different atomic species (ntypx) = 10
     Max number of k-points (npk) =  40000
     Max angular momentum in pseudopotentials (lmaxx) =  3

     IMPORTANT: XC functional enforced from input :
     Exchange-correlation      = BEEF-VDW ( 1  4 27 13 2)
     Any further DFT definition will be discarded
     Please, verify this is what you really want

     Subspace diagonalization in iterative solution of the eigenvalue problem:
     a serial algorithm will be used

     Found symmetry operation: I + ( -0.5000 -0.5000  0.0000)
     This is a supercell, fractional translations are disabled

     bravais-lattice index     =            0
     lattice parameter (alat)  =       1.8897  a.u.
     unit-cell volume          =     390.0091 (a.u.)^3
     number of atoms/cell      =            4
     number of atomic types    =            2
     number of electrons       =        62.00
     number of Kohn-Sham states=           51
     kinetic-energy cutoff     =      58.7989  Ry
     charge density cutoff     =     587.9892  Ry
     convergence threshold     =      1.0E-06
     mixing beta               =       0.1000
     number of iterations used =           10  plain     mixing
     Exchange-correlation      = BEEF-VDW ( 1  4 27 13 2)

     celldm(1)=   1.889726  celldm(2)=   0.000000  celldm(3)=   0.000000
     celldm(4)=   0.000000  celldm(5)=   0.000000  celldm(6)=   0.000000

     crystal axes: (cart. coord. in units of alat)
               a(1) = (   3.862404   0.000000   0.000000 )
               a(2) = (   0.000000   3.862404   0.000000 )
               a(3) = (   0.000000   0.000000   3.874028 )

     reciprocal axes: (cart. coord. in units 2 pi/alat)
               b(1) = (  0.258906  0.000000  0.000000 )
               b(2) = (  0.000000  0.258906  0.000000 )
               b(3) = (  0.000000  0.000000  0.258129 )

     PseudoPot. # 1 for Tc read from file:
     /home/vossj/suncat/psp/gbrv1.5pbe/Tc.UPF
     MD5 check sum: 9eb49e5b028550b2339a02317eb7b844
     Pseudo is Ultrasoft + core correction, Zval = 15.0
     Generated by new atomic code, or converted to UPF format
     Using radial grid of  965 points,  6 beta functions with:
                l(1) =   0
                l(2) =   0
                l(3) =   1
                l(4) =   1
                l(5) =   2
                l(6) =   2
     Q(r) pseudized with  8 coefficients,  rinner =    1.300   1.300   1.300
                                                       1.300   1.300

     PseudoPot. # 2 for Os read from file:
     /home/vossj/suncat/psp/gbrv1.5pbe/Os.UPF
     MD5 check sum: a3fb40a04f0c37c25c34bbc47164c9a8
     Pseudo is Ultrasoft + core correction, Zval = 16.0
     Generated by new atomic code, or converted to UPF format
     Using radial grid of  983 points,  8 beta functions with:
                l(1) =   0
                l(2) =   0
                l(3) =   1
                l(4) =   1
                l(5) =   2
                l(6) =   2
                l(7) =   3
                l(8) =   3
     Q(r) pseudized with  8 coefficients,  rinner =    1.150   1.150   1.150
                                                       1.150   1.150   1.150
                                                       1.150

     vdW kernel table read from file vdW_kernel_table
     MD5 check sum: 095c7af220d748ca6e76c0b4c6cfb241

     atomic species   valence    mass     pseudopotential
        Tc1           15.00    97.90721     Tc( 1.00)
        Os1           16.00   190.23000     Os( 1.00)

     16 Sym. Ops., with inversion, found

   Cartesian axes

     site n.     atom                  positions (alat units)
         1           Tc1 tau(   1) = (   0.0000000   0.0000000   0.0000000  )
         2           Tc1 tau(   2) = (   1.9312020   1.9312020   0.0000000  )
         3           Os1 tau(   3) = (   1.9312020   0.0000000   1.9370138  )
         4           Os1 tau(   4) = (   0.0000000   1.9312020   1.9370138  )

     number of k points=    75  Fermi-Dirac smearing, width (Ry)=  0.0073
                       cart. coord. in units 2pi/alat
        k(    1) = (   0.0000000   0.0000000   0.0000000), wk =   0.0027435
        k(    2) = (   0.0000000   0.0000000   0.0286810), wk =   0.0054870
        k(    3) = (   0.0000000   0.0000000   0.0573621), wk =   0.0054870
        k(    4) = (   0.0000000   0.0000000   0.0860431), wk =   0.0054870
        k(    5) = (   0.0000000   0.0000000   0.1147241), wk =   0.0054870
        k(    6) = (   0.0000000   0.0287673   0.0000000), wk =   0.0109739
        k(    7) = (   0.0000000   0.0287673   0.0286810), wk =   0.0219479
        k(    8) = (   0.0000000   0.0287673   0.0573621), wk =   0.0219479
        k(    9) = (   0.0000000   0.0287673   0.0860431), wk =   0.0219479
        k(   10) = (   0.0000000   0.0287673   0.1147241), wk =   0.0219479
        k(   11) = (   0.0000000   0.0575347   0.0000000), wk =   0.0109739
        k(   12) = (   0.0000000   0.0575347   0.0286810), wk =   0.0219479
        k(   13) = (   0.0000000   0.0575347   0.0573621), wk =   0.0219479
        k(   14) = (   0.0000000   0.0575347   0.0860431), wk =   0.0219479
        k(   15) = (   0.0000000   0.0575347   0.1147241), wk =   0.0219479
        k(   16) = (   0.0000000   0.0863020   0.0000000), wk =   0.0109739
        k(   17) = (   0.0000000   0.0863020   0.0286810), wk =   0.0219479
        k(   18) = (   0.0000000   0.0863020   0.0573621), wk =   0.0219479
        k(   19) = (   0.0000000   0.0863020   0.0860431), wk =   0.0219479
        k(   20) = (   0.0000000   0.0863020   0.1147241), wk =   0.0219479
        k(   21) = (   0.0000000   0.1150694   0.0000000), wk =   0.0109739
        k(   22) = (   0.0000000   0.1150694   0.0286810), wk =   0.0219479
        k(   23) = (   0.0000000   0.1150694   0.0573621), wk =   0.0219479
        k(   24) = (   0.0000000   0.1150694   0.0860431), wk =   0.0219479
        k(   25) = (   0.0000000   0.1150694   0.1147241), wk =   0.0219479
        k(   26) = (   0.0287673   0.0287673   0.0000000), wk =   0.0109739
        k(   27) = (   0.0287673   0.0287673   0.0286810), wk =   0.0219479
        k(   28) = (   0.0287673   0.0287673   0.0573621), wk =   0.0219479
        k(   29) = (   0.0287673   0.0287673   0.0860431), wk =   0.0219479
        k(   30) = (   0.0287673   0.0287673   0.1147241), wk =   0.0219479
        k(   31) = (   0.0287673   0.0575347   0.0000000), wk =   0.0219479
        k(   32) = (   0.0287673   0.0575347   0.0286810), wk =   0.0438957
        k(   33) = (   0.0287673   0.0575347   0.0573621), wk =   0.0438957
        k(   34) = (   0.0287673   0.0575347   0.0860431), wk =   0.0438957
        k(   35) = (   0.0287673   0.0575347   0.1147241), wk =   0.0438957
        k(   36) = (   0.0287673   0.0863020   0.0000000), wk =   0.0219479
        k(   37) = (   0.0287673   0.0863020   0.0286810), wk =   0.0438957
        k(   38) = (   0.0287673   0.0863020   0.0573621), wk =   0.0438957
        k(   39) = (   0.0287673   0.0863020   0.0860431), wk =   0.0438957
        k(   40) = (   0.0287673   0.0863020   0.1147241), wk =   0.0438957
        k(   41) = (   0.0287673   0.1150694   0.0000000), wk =   0.0219479
        k(   42) = (   0.0287673   0.1150694   0.0286810), wk =   0.0438957
        k(   43) = (   0.0287673   0.1150694   0.0573621), wk =   0.0438957
        k(   44) = (   0.0287673   0.1150694   0.0860431), wk =   0.0438957
        k(   45) = (   0.0287673   0.1150694   0.1147241), wk =   0.0438957
        k(   46) = (   0.0575347   0.0575347   0.0000000), wk =   0.0109739
        k(   47) = (   0.0575347   0.0575347   0.0286810), wk =   0.0219479
        k(   48) = (   0.0575347   0.0575347   0.0573621), wk =   0.0219479
        k(   49) = (   0.0575347   0.0575347   0.0860431), wk =   0.0219479
        k(   50) = (   0.0575347   0.0575347   0.1147241), wk =   0.0219479
        k(   51) = (   0.0575347   0.0863020   0.0000000), wk =   0.0219479
        k(   52) = (   0.0575347   0.0863020   0.0286810), wk =   0.0438957
        k(   53) = (   0.0575347   0.0863020   0.0573621), wk =   0.0438957
        k(   54) = (   0.0575347   0.0863020   0.0860431), wk =   0.0438957
        k(   55) = (   0.0575347   0.0863020   0.1147241), wk =   0.0438957
        k(   56) = (   0.0575347   0.1150694   0.0000000), wk =   0.0219479
        k(   57) = (   0.0575347   0.1150694   0.0286810), wk =   0.0438957
        k(   58) = (   0.0575347   0.1150694   0.0573621), wk =   0.0438957
        k(   59) = (   0.0575347   0.1150694   0.0860431), wk =   0.0438957
        k(   60) = (   0.0575347   0.1150694   0.1147241), wk =   0.0438957
        k(   61) = (   0.0863020   0.0863020   0.0000000), wk =   0.0109739
        k(   62) = (   0.0863020   0.0863020   0.0286810), wk =   0.0219479
        k(   63) = (   0.0863020   0.0863020   0.0573621), wk =   0.0219479
        k(   64) = (   0.0863020   0.0863020   0.0860431), wk =   0.0219479
        k(   65) = (   0.0863020   0.0863020   0.1147241), wk =   0.0219479
        k(   66) = (   0.0863020   0.1150694   0.0000000), wk =   0.0219479
        k(   67) = (   0.0863020   0.1150694   0.0286810), wk =   0.0438957
        k(   68) = (   0.0863020   0.1150694   0.0573621), wk =   0.0438957
        k(   69) = (   0.0863020   0.1150694   0.0860431), wk =   0.0438957
        k(   70) = (   0.0863020   0.1150694   0.1147241), wk =   0.0438957
        k(   71) = (   0.1150694   0.1150694   0.0000000), wk =   0.0109739
        k(   72) = (   0.1150694   0.1150694   0.0286810), wk =   0.0219479
        k(   73) = (   0.1150694   0.1150694   0.0573621), wk =   0.0219479
        k(   74) = (   0.1150694   0.1150694   0.0860431), wk =   0.0219479
        k(   75) = (   0.1150694   0.1150694   0.1147241), wk =   0.0219479

     Largest allocated arrays     est. size (Mb)     dimensions
     Largest temporary arrays     est. size (Mb)     dimensions

     Check: negative/imaginary core charge=   -0.000005    0.000000

     Initial potential from superposition of free atoms
     Check: negative starting charge=   -0.496438

     starting charge   58.99987, renormalised to   62.00000

     negative rho (up, down):  5.217E-01 0.000E+00

     *
     * You are using vdW-DF for exchange-correlation in this calculation.
     * Please cite the following three references that made this development
     * possible:
     *
     *   M. Dion, H. Rydberg, E. Schroder, D. C. Langreth, and
     *   B. I. Lundqvist, Phys. Rev. Lett. 92, 246401 (2004).
     *
     *   T. Thonhauser, V. R. Cooper, S. Li, A. Puzder, P. Hyldgaard, and
     *   D. C. Langreth, Phys. Rev. B 76, 125112 (2007).
     *
     *   G. Roman-Perez and J. M. Soler, Phys. Rev. Lett. 103, 096102 (2009).
     *
     *
     * If you are using vdW-DF2, please also cite:
     *
     *   K. Lee, E. D. Murray, L. Kong, B. I. Lundqvist, and
     *   D. C. Langreth, Phys. Rev. B 82, 081101(R) (2010).
     *
     *
     * If you are calculating the stress with vdW-DF, please also cite:
     *
     *   R. Sabatini, E. Kucukbenli, B. Kolb, T. Thonhauser, and
     *   S. de Gironcoli, J. Phys.: Condens. Matter 24, 424209 (2012).
     *

     Carrying out vdW-DF run using the following parameters:

     Nqs =      20    Nr_points =    1024   r_max =   100.000
     q_mesh =
               0.00001000     0.04494208     0.09755937     0.15916263
               0.23128650     0.31572767     0.41458969     0.53033537
               0.66584808     0.82450364     1.01025438     1.22772762
               1.48234092     1.78043706     2.12944203     2.53805004
               3.01644009     3.57652955     4.23227104     5.00000000

     Gradients computed in reciprocal space

     Starting wfc are   52 randomized atomic wfcs

     Self-consistent Calculation

     iteration #  1     ecut=    58.80 Ry     beta=0.10
     Davidson diagonalization with overlap
     ethr =  1.00E-02,  avg # of iterations =  4.5

[...]

     total energy              =    -750.74374445 Ry
     Harris-Foulkes estimate   =    -751.00840589 Ry
     estimated scf accuracy    <       1.82630811 Ry

[...]

     total energy              =    -750.32130618 Ry
     Harris-Foulkes estimate   =    -750.32130602 Ry
     estimated scf accuracy    <       0.00000522 Ry

     iteration # 11     ecut=    58.80 Ry     beta=0.10
     Davidson diagonalization with overlap
     ethr =  5.33E-09,  avg # of iterations =  1.8

     negative rho (up, down):  5.138E-01 0.000E+00

     End of self-consistent calculation

          k = 0.0000 0.0000 0.0000 (  2945 PWs)   bands (ev):

   -63.0151 -62.9581 -43.7525 -43.6120 -22.5004 -22.5004 -22.3232 -22.1894
   -22.0450 -22.0450 -15.9433 -15.9433 -15.7251 -15.6275 -15.3827 -15.3827
    14.5661  17.0259  17.1426  17.1707  17.6828  17.7187  17.7187  21.3220
    21.3220  21.3293  24.0140  24.0469  26.0984  26.1060  26.1076  26.6874
    26.7286  26.7286  26.7320  26.7320  26.7485  26.7485  26.7497  26.7921
    35.3074  35.7151  36.1453  36.1453  36.1559  36.1559  36.4535  36.8076
    37.3638  38.2743  42.8288

[...]

          k = 0.1151 0.1151 0.1147 (  2986 PWs)   bands (ev):

   -62.9871 -62.9854 -43.6834 -43.6791 -22.5652 -22.5521 -22.2723 -22.2693
   -22.0121 -21.9981 -16.0063 -15.9897 -15.6828 -15.6785 -15.3505 -15.3325
    16.9179  16.9904  17.6145  17.6374  20.8536  20.9145  20.9892  21.1633
    21.2274  21.3282  21.3568  21.4625  23.4836  23.5276  23.7842  23.9186
    25.9836  26.0026  26.1516  26.1567  26.1751  26.5811  26.6502  26.6982
    32.1355  32.3969  34.5471  34.7591  37.2731  37.2888  37.2973  37.3102
    43.0766  43.1755  43.2718

     the Fermi energy is    23.5647 ev

!    total energy              =    -750.32131038 Ry
     Harris-Foulkes estimate   =    -750.32130659 Ry
     estimated scf accuracy    <       0.00000011 Ry

     The total energy is the sum of the following terms:

     one-electron contribution =     -94.33157224 Ry
     hartree contribution      =      91.26906098 Ry
     xc contribution           =    -143.88436901 Ry
     ewald contribution        =    -603.36437862 Ry
     smearing contrib. (-TS)   =      -0.01005148 Ry

     convergence has been achieved in  11 iterations

     Forces acting on atoms (Ry/au):

     negative rho (up, down):  5.138E-01 0.000E+00
     atom    1 type  1   force =     0.00000000    0.00000000    0.00000000
     atom    2 type  1   force =     0.00000000    0.00000000    0.00000000
     atom    3 type  2   force =     0.00000000    0.00000000    0.00000000
     atom    4 type  2   force =     0.00000000    0.00000000    0.00000000

     Total force =     0.000000     Total SCF correction =     0.000000

     General routines

     Parallel routines

   This run was terminated on:   0:55:36  15Nov2017

   JOB DONE.