     Program PWSCF v.5.1rc2 starts on 14Nov2017 at 15:50:36

     Current dimensions of program PWSCF are:
     Max number of different atomic species (ntypx) = 10
     Max number of k-points (npk) =  40000
     Max angular momentum in pseudopotentials (lmaxx) =  3

     IMPORTANT: XC functional enforced from input :
     Exchange-correlation      = BEEF-VDW ( 1  4 27 13 2)
     Any further DFT definition will be discarded
     Please, verify this is what you really want

     Found symmetry operation: I + ( -0.5000 -0.5000  0.0000)
     This is a supercell, fractional translations are disabled

     bravais-lattice index     =            0
     lattice parameter (alat)  =       1.8897  a.u.
     unit-cell volume          =     500.4935 (a.u.)^3
     number of atoms/cell      =            4
     number of atomic types    =            2
     number of electrons       =        56.00
     number of Kohn-Sham states=           48
     kinetic-energy cutoff     =      58.7989  Ry
     charge density cutoff     =     587.9892  Ry
     convergence threshold     =      1.0E-06
     mixing beta               =       0.1000
     number of iterations used =           10  plain     mixing
     Exchange-correlation      = BEEF-VDW ( 1  4 27 13 2)

     celldm(1)=   1.889726  celldm(2)=   0.000000  celldm(3)=   0.000000
     celldm(4)=   0.000000  celldm(5)=   0.000000  celldm(6)=   0.000000

     crystal axes: (cart. coord. in units of alat)
               a(1) = (   4.718569   0.000000   0.000000 )
               a(2) = (   0.000000   4.718569   0.000000 )
               a(3) = (   0.000000   0.000000   3.331050 )

     reciprocal axes: (cart. coord. in units 2 pi/alat)
               b(1) = (  0.211929  0.000000  0.000000 )
               b(2) = (  0.000000  0.211929  0.000000 )
               b(3) = (  0.000000  0.000000  0.300206 )

     PseudoPot. # 1 for Mo read from file:
     /home/users/vossj/suncat/psp/gbrv1.5pbe/Mo.UPF
     MD5 check sum: 30c4dcd161f5d35cd49bb5239c51a633
     Pseudo is Ultrasoft + core correction, Zval = 14.0
     Generated by new atomic code, or converted to UPF format
     Using radial grid of  889 points,  6 beta functions with:
                l(1) =   0
                l(2) =   0
                l(3) =   1
                l(4) =   1
                l(5) =   2
                l(6) =   2
     Q(r) pseudized with  6 coefficients,  rinner =    1.000   1.000   1.000
                                                       1.000   1.000

     PseudoPot. # 2 for Sn read from file:
     /home/users/vossj/suncat/psp/gbrv1.5pbe/Sn.UPF
     MD5 check sum: 469debedee59599fedebd795477fea03
     Pseudo is Ultrasoft + core correction, Zval = 14.0
     Generated by new atomic code, or converted to UPF format
     Using radial grid of  891 points,  6 beta functions with:
                l(1) =   0
                l(2) =   0
                l(3) =   1
                l(4) =   1
                l(5) =   2
                l(6) =   2
     Q(r) pseudized with  8 coefficients,  rinner =    1.350   1.350   1.350
                                                       1.350   1.350

     vdW kernel table read from file vdW_kernel_table
     MD5 check sum: 095c7af220d748ca6e76c0b4c6cfb241

     atomic species   valence    mass     pseudopotential
        Mo1           14.00    95.94000     Mo( 1.00)
        Sn1           14.00   118.71000     Sn( 1.00)

     16 Sym. Ops., with inversion, found

   Cartesian axes

     site n.     atom                  positions (alat units)
         1           Mo1 tau(   1) = (   0.0000000   0.0000000   0.0000000  )
         2           Mo1 tau(   2) = (   2.3592844   2.3592844   0.0000000  )
         3           Sn1 tau(   3) = (   2.3592844   0.0000000   1.6655252  )
         4           Sn1 tau(   4) = (   0.0000000   2.3592844   1.6655252  )

     number of k points=    75  Fermi-Dirac smearing, width (Ry)=  0.0073
                       cart. coord. in units 2pi/alat
        k(    1) = (   0.0000000   0.0000000   0.0000000), wk =   0.0027435
        k(    2) = (   0.0000000   0.0000000   0.0333562), wk =   0.0054870
        k(    3) = (   0.0000000   0.0000000   0.0667124), wk =   0.0054870
        k(    4) = (   0.0000000   0.0000000   0.1000685), wk =   0.0054870
        k(    5) = (   0.0000000   0.0000000   0.1334247), wk =   0.0054870
        k(    6) = (   0.0000000   0.0235476   0.0000000), wk =   0.0109739
        k(    7) = (   0.0000000   0.0235476   0.0333562), wk =   0.0219479
        k(    8) = (   0.0000000   0.0235476   0.0667124), wk =   0.0219479
        k(    9) = (   0.0000000   0.0235476   0.1000685), wk =   0.0219479
        k(   10) = (   0.0000000   0.0235476   0.1334247), wk =   0.0219479
        k(   11) = (   0.0000000   0.0470953   0.0000000), wk =   0.0109739
        k(   12) = (   0.0000000   0.0470953   0.0333562), wk =   0.0219479
        k(   13) = (   0.0000000   0.0470953   0.0667124), wk =   0.0219479
        k(   14) = (   0.0000000   0.0470953   0.1000685), wk =   0.0219479
        k(   15) = (   0.0000000   0.0470953   0.1334247), wk =   0.0219479
        k(   16) = (   0.0000000   0.0706429   0.0000000), wk =   0.0109739
        k(   17) = (   0.0000000   0.0706429   0.0333562), wk =   0.0219479
        k(   18) = (   0.0000000   0.0706429   0.0667124), wk =   0.0219479
        k(   19) = (   0.0000000   0.0706429   0.1000685), wk =   0.0219479
        k(   20) = (   0.0000000   0.0706429   0.1334247), wk =   0.0219479
        k(   21) = (   0.0000000   0.0941905   0.0000000), wk =   0.0109739
        k(   22) = (   0.0000000   0.0941905   0.0333562), wk =   0.0219479
        k(   23) = (   0.0000000   0.0941905   0.0667124), wk =   0.0219479
        k(   24) = (   0.0000000   0.0941905   0.1000685), wk =   0.0219479
        k(   25) = (   0.0000000   0.0941905   0.1334247), wk =   0.0219479
        k(   26) = (   0.0235476   0.0235476   0.0000000), wk =   0.0109739
        k(   27) = (   0.0235476   0.0235476   0.0333562), wk =   0.0219479
        k(   28) = (   0.0235476   0.0235476   0.0667124), wk =   0.0219479
        k(   29) = (   0.0235476   0.0235476   0.1000685), wk =   0.0219479
        k(   30) = (   0.0235476   0.0235476   0.1334247), wk =   0.0219479
        k(   31) = (   0.0235476   0.0470953   0.0000000), wk =   0.0219479
        k(   32) = (   0.0235476   0.0470953   0.0333562), wk =   0.0438957
        k(   33) = (   0.0235476   0.0470953   0.0667124), wk =   0.0438957
        k(   34) = (   0.0235476   0.0470953   0.1000685), wk =   0.0438957
        k(   35) = (   0.0235476   0.0470953   0.1334247), wk =   0.0438957
        k(   36) = (   0.0235476   0.0706429   0.0000000), wk =   0.0219479
        k(   37) = (   0.0235476   0.0706429   0.0333562), wk =   0.0438957
        k(   38) = (   0.0235476   0.0706429   0.0667124), wk =   0.0438957
        k(   39) = (   0.0235476   0.0706429   0.1000685), wk =   0.0438957
        k(   40) = (   0.0235476   0.0706429   0.1334247), wk =   0.0438957
        k(   41) = (   0.0235476   0.0941905   0.0000000), wk =   0.0219479
        k(   42) = (   0.0235476   0.0941905   0.0333562), wk =   0.0438957
        k(   43) = (   0.0235476   0.0941905   0.0667124), wk =   0.0438957
        k(   44) = (   0.0235476   0.0941905   0.1000685), wk =   0.0438957
        k(   45) = (   0.0235476   0.0941905   0.1334247), wk =   0.0438957
        k(   46) = (   0.0470953   0.0470953   0.0000000), wk =   0.0109739
        k(   47) = (   0.0470953   0.0470953   0.0333562), wk =   0.0219479
        k(   48) = (   0.0470953   0.0470953   0.0667124), wk =   0.0219479
        k(   49) = (   0.0470953   0.0470953   0.1000685), wk =   0.0219479
        k(   50) = (   0.0470953   0.0470953   0.1334247), wk =   0.0219479
        k(   51) = (   0.0470953   0.0706429   0.0000000), wk =   0.0219479
        k(   52) = (   0.0470953   0.0706429   0.0333562), wk =   0.0438957
        k(   53) = (   0.0470953   0.0706429   0.0667124), wk =   0.0438957
        k(   54) = (   0.0470953   0.0706429   0.1000685), wk =   0.0438957
        k(   55) = (   0.0470953   0.0706429   0.1334247), wk =   0.0438957
        k(   56) = (   0.0470953   0.0941905   0.0000000), wk =   0.0219479
        k(   57) = (   0.0470953   0.0941905   0.0333562), wk =   0.0438957
        k(   58) = (   0.0470953   0.0941905   0.0667124), wk =   0.0438957
        k(   59) = (   0.0470953   0.0941905   0.1000685), wk =   0.0438957
        k(   60) = (   0.0470953   0.0941905   0.1334247), wk =   0.0438957
        k(   61) = (   0.0706429   0.0706429   0.0000000), wk =   0.0109739
        k(   62) = (   0.0706429   0.0706429   0.0333562), wk =   0.0219479
        k(   63) = (   0.0706429   0.0706429   0.0667124), wk =   0.0219479
        k(   64) = (   0.0706429   0.0706429   0.1000685), wk =   0.0219479
        k(   65) = (   0.0706429   0.0706429   0.1334247), wk =   0.0219479
        k(   66) = (   0.0706429   0.0941905   0.0000000), wk =   0.0219479
        k(   67) = (   0.0706429   0.0941905   0.0333562), wk =   0.0438957
        k(   68) = (   0.0706429   0.0941905   0.0667124), wk =   0.0438957
        k(   69) = (   0.0706429   0.0941905   0.1000685), wk =   0.0438957
        k(   70) = (   0.0706429   0.0941905   0.1334247), wk =   0.0438957
        k(   71) = (   0.0941905   0.0941905   0.0000000), wk =   0.0109739
        k(   72) = (   0.0941905   0.0941905   0.0333562), wk =   0.0219479
        k(   73) = (   0.0941905   0.0941905   0.0667124), wk =   0.0219479
        k(   74) = (   0.0941905   0.0941905   0.1000685), wk =   0.0219479
        k(   75) = (   0.0941905   0.0941905   0.1334247), wk =   0.0219479

     Largest allocated arrays     est. size (Mb)     dimensions
     Largest temporary arrays     est. size (Mb)     dimensions

     Initial potential from superposition of free atoms

     starting charge   53.99778, renormalised to   56.00000

     *
     * You are using vdW-DF for exchange-correlation in this calculation.
     * Please cite the following three references that made this development
     * possible:
     *
     *   M. Dion, H. Rydberg, E. Schroder, D. C. Langreth, and
     *   B. I. Lundqvist, Phys. Rev. Lett. 92, 246401 (2004).
     *
     *   T. Thonhauser, V. R. Cooper, S. Li, A. Puzder, P. Hyldgaard, and
     *   D. C. Langreth, Phys. Rev. B 76, 125112 (2007).
     *
     *   G. Roman-Perez and J. M. Soler, Phys. Rev. Lett. 103, 096102 (2009).
     *
     *
     * If you are using vdW-DF2, please also cite:
     *
     *   K. Lee, E. D. Murray, L. Kong, B. I. Lundqvist, and
     *   D. C. Langreth, Phys. Rev. B 82, 081101(R) (2010).
     *
     *
     * If you are calculating the stress with vdW-DF, please also cite:
     *
     *   R. Sabatini, E. Kucukbenli, B. Kolb, T. Thonhauser, and
     *   S. de Gironcoli, J. Phys.: Condens. Matter 24, 424209 (2012).
     *

     Carrying out vdW-DF run using the following parameters:

     Nqs =      20    Nr_points =    1024   r_max =   100.000
     q_mesh =
               0.00001000     0.04494208     0.09755937     0.15916263
               0.23128650     0.31572767     0.41458969     0.53033537
               0.66584808     0.82450364     1.01025438     1.22772762
               1.48234092     1.78043706     2.12944203     2.53805004
               3.01644009     3.57652955     4.23227104     5.00000000

     Gradients computed in reciprocal space

     Starting wfc are   44 randomized atomic wfcs +    4 random wfc

     Self-consistent Calculation

     iteration #  1     ecut=    58.80 Ry     beta=0.10
     Davidson diagonalization with overlap
     ethr =  1.00E-02,  avg # of iterations =  5.1

     total energy              =    -601.56882535 Ry
     Harris-Foulkes estimate   =    -601.70115664 Ry
     estimated scf accuracy    <       0.83625379 Ry

[...]

     total energy              =    -601.33538537 Ry
     Harris-Foulkes estimate   =    -601.33537222 Ry
     estimated scf accuracy    <       0.00000391 Ry

     iteration # 10     ecut=    58.80 Ry     beta=0.10
     Davidson diagonalization with overlap
     ethr =  6.98E-09,  avg # of iterations =  2.0

     End of self-consistent calculation

          k = 0.0000 0.0000 0.0000 (  3859 PWs)   bands (ev):

   -43.9817 -43.9628 -18.1111 -18.1111 -17.9837 -17.9818 -17.9818 -17.9576
    -4.7408  -4.7394  -4.7080  -4.6530  -4.6422  -4.6422  -4.5900  -4.5894
    -4.5894  -4.4809   5.9898   9.5121  13.9444  13.9444  14.6116  14.6149
    14.8562  16.7585  16.7585  17.7993  17.8053  17.8053  18.9305  19.7458
    19.7458  19.7872  20.1987  21.5436  23.2088  25.3869  27.2174  27.2174
    27.5453  27.5471  30.3023  31.1660  31.1660  31.1954  32.2681  33.9708

[...]

          k = 0.0942 0.0942 0.1334 (  3835 PWs)   bands (ev):

   -43.9632 -43.9626 -18.1118 -18.1111 -18.1107 -18.1073 -17.9603 -17.9564
    -4.7046  -4.7033  -4.6534  -4.6471  -4.6429  -4.6420  -4.6413  -4.6397
    -4.4882  -4.4841   9.4600   9.5340  13.5691  13.6382  13.9217  13.9749
    15.1071  15.2008  16.6833  16.7744  16.8194  16.8708  18.9289  18.9415
    20.0285  20.3034  21.6190  21.6879  23.2682  23.3327  27.0344  27.1102
    27.2477  27.3657  30.5553  30.6590  31.4879  31.6074  33.8781  34.0163

     the Fermi energy is    16.9505 ev

!    total energy              =    -601.33542910 Ry
     Harris-Foulkes estimate   =    -601.33538646 Ry
     estimated scf accuracy    <       0.00000100 Ry

     The total energy is the sum of the following terms:

     one-electron contribution =    -121.38494293 Ry
     hartree contribution      =     102.33347588 Ry
     xc contribution           =    -129.50885039 Ry
     ewald contribution        =    -452.76184622 Ry
     smearing contrib. (-TS)   =      -0.01326544 Ry

     convergence has been achieved in  10 iterations

     Forces acting on atoms (Ry/au):

     atom    1 type  1   force =     0.00000000    0.00000000    0.00000000
     atom    2 type  1   force =     0.00000000    0.00000000    0.00000000
     atom    3 type  2   force =     0.00000000    0.00000000    0.00000000
     atom    4 type  2   force =     0.00000000    0.00000000    0.00000000

     Total force =     0.000000     Total SCF correction =     0.000000

     General routines

     Parallel routines

   This run was terminated on:  15:51:11  14Nov2017

   JOB DONE.