     Program PWSCF v.5.1rc2 starts on 14Nov2017 at  9:35:40

     Current dimensions of program PWSCF are:
     Max number of different atomic species (ntypx) = 10
     Max number of k-points (npk) =  40000
     Max angular momentum in pseudopotentials (lmaxx) =  3

     IMPORTANT: XC functional enforced from input :
     Exchange-correlation      = BEEF-VDW ( 1  4 27 13 2)
     Any further DFT definition will be discarded
     Please, verify this is what you really want

     Found symmetry operation: I + ( -0.5000 -0.5000  0.0000)
     This is a supercell, fractional translations are disabled

     bravais-lattice index     =            0
     lattice parameter (alat)  =       1.8897  a.u.
     unit-cell volume          =     378.1394 (a.u.)^3
     number of atoms/cell      =            4
     number of atomic types    =            2
     number of electrons       =        70.00
     number of Kohn-Sham states=           55
     kinetic-energy cutoff     =      58.7989  Ry
     charge density cutoff     =     587.9892  Ry
     convergence threshold     =      1.0E-06
     mixing beta               =       0.1000
     number of iterations used =           10  plain     mixing
     Exchange-correlation      = BEEF-VDW ( 1  4 27 13 2)

     celldm(1)=   1.889726  celldm(2)=   0.000000  celldm(3)=   0.000000
     celldm(4)=   0.000000  celldm(5)=   0.000000  celldm(6)=   0.000000

     crystal axes: (cart. coord. in units of alat)
               a(1) = (   4.295211   0.000000   0.000000 )
               a(2) = (   0.000000   4.295211   0.000000 )
               a(3) = (   0.000000   0.000000   3.037291 )

     reciprocal axes: (cart. coord. in units 2 pi/alat)
               b(1) = (  0.232817  0.000000  0.000000 )
               b(2) = (  0.000000  0.232817  0.000000 )
               b(3) = (  0.000000  0.000000  0.329241 )

     PseudoPot. # 1 for Zn read from file:
     /home/users/vossj/suncat/psp/gbrv1.5pbe/Zn.UPF
     MD5 check sum: df62231357ef9e81f77b2b3087fa5675
     Pseudo is Ultrasoft, Zval = 20.0
     Generated by new atomic code, or converted to UPF format
     Using radial grid of  943 points,  6 beta functions with:
                l(1) =   0
                l(2) =   0
                l(3) =   1
                l(4) =   1
                l(5) =   2
                l(6) =   2
     Q(r) pseudized with  8 coefficients,  rinner =    1.100   1.100   1.100
                                                       1.100   1.100

     PseudoPot. # 2 for Rh read from file:
     /home/users/vossj/suncat/psp/gbrv1.5pbe/Rh.UPF
     MD5 check sum: 761627e959a2e3a1f56b0b5fe687810e
     Pseudo is Ultrasoft + core correction, Zval = 15.0
     Generated by new atomic code, or converted to UPF format
     Using radial grid of  969 points,  7 beta functions with:
                l(1) =   0
                l(2) =   0
                l(3) =   1
                l(4) =   1
                l(5) =   2
                l(6) =   2
                l(7) =   2
     Q(r) pseudized with  8 coefficients,  rinner =    1.200   1.200   1.200
                                                       1.200   1.200

     vdW kernel table read from file vdW_kernel_table
     MD5 check sum: 095c7af220d748ca6e76c0b4c6cfb241

     atomic species   valence    mass     pseudopotential
        Zn1           20.00    65.39000     Zn( 1.00)
        Rh1           15.00   102.90550     Rh( 1.00)

     16 Sym. Ops., with inversion, found

   Cartesian axes

     site n.     atom                  positions (alat units)
         1           Zn1 tau(   1) = (   0.0000000   0.0000000   0.0000000  )
         2           Zn1 tau(   2) = (   2.1476054   2.1476054   0.0000000  )
         3           Rh1 tau(   3) = (   2.1476054   0.0000000   1.5186453  )
         4           Rh1 tau(   4) = (   0.0000000   2.1476054   1.5186453  )

     number of k points=    75  Fermi-Dirac smearing, width (Ry)=  0.0073
                       cart. coord. in units 2pi/alat
        k(    1) = (   0.0000000   0.0000000   0.0000000), wk =   0.0027435
        k(    2) = (   0.0000000   0.0000000   0.0365823), wk =   0.0054870
        k(    3) = (   0.0000000   0.0000000   0.0731646), wk =   0.0054870
        k(    4) = (   0.0000000   0.0000000   0.1097469), wk =   0.0054870
        k(    5) = (   0.0000000   0.0000000   0.1463292), wk =   0.0054870
        k(    6) = (   0.0000000   0.0258686   0.0000000), wk =   0.0109739
        k(    7) = (   0.0000000   0.0258686   0.0365823), wk =   0.0219479
        k(    8) = (   0.0000000   0.0258686   0.0731646), wk =   0.0219479
        k(    9) = (   0.0000000   0.0258686   0.1097469), wk =   0.0219479
        k(   10) = (   0.0000000   0.0258686   0.1463292), wk =   0.0219479
        k(   11) = (   0.0000000   0.0517372   0.0000000), wk =   0.0109739
        k(   12) = (   0.0000000   0.0517372   0.0365823), wk =   0.0219479
        k(   13) = (   0.0000000   0.0517372   0.0731646), wk =   0.0219479
        k(   14) = (   0.0000000   0.0517372   0.1097469), wk =   0.0219479
        k(   15) = (   0.0000000   0.0517372   0.1463292), wk =   0.0219479
        k(   16) = (   0.0000000   0.0776058   0.0000000), wk =   0.0109739
        k(   17) = (   0.0000000   0.0776058   0.0365823), wk =   0.0219479
        k(   18) = (   0.0000000   0.0776058   0.0731646), wk =   0.0219479
        k(   19) = (   0.0000000   0.0776058   0.1097469), wk =   0.0219479
        k(   20) = (   0.0000000   0.0776058   0.1463292), wk =   0.0219479
        k(   21) = (   0.0000000   0.1034744   0.0000000), wk =   0.0109739
        k(   22) = (   0.0000000   0.1034744   0.0365823), wk =   0.0219479
        k(   23) = (   0.0000000   0.1034744   0.0731646), wk =   0.0219479
        k(   24) = (   0.0000000   0.1034744   0.1097469), wk =   0.0219479
        k(   25) = (   0.0000000   0.1034744   0.1463292), wk =   0.0219479
        k(   26) = (   0.0258686   0.0258686   0.0000000), wk =   0.0109739
        k(   27) = (   0.0258686   0.0258686   0.0365823), wk =   0.0219479
        k(   28) = (   0.0258686   0.0258686   0.0731646), wk =   0.0219479
        k(   29) = (   0.0258686   0.0258686   0.1097469), wk =   0.0219479
        k(   30) = (   0.0258686   0.0258686   0.1463292), wk =   0.0219479
        k(   31) = (   0.0258686   0.0517372   0.0000000), wk =   0.0219479
        k(   32) = (   0.0258686   0.0517372   0.0365823), wk =   0.0438957
        k(   33) = (   0.0258686   0.0517372   0.0731646), wk =   0.0438957
        k(   34) = (   0.0258686   0.0517372   0.1097469), wk =   0.0438957
        k(   35) = (   0.0258686   0.0517372   0.1463292), wk =   0.0438957
        k(   36) = (   0.0258686   0.0776058   0.0000000), wk =   0.0219479
        k(   37) = (   0.0258686   0.0776058   0.0365823), wk =   0.0438957
        k(   38) = (   0.0258686   0.0776058   0.0731646), wk =   0.0438957
        k(   39) = (   0.0258686   0.0776058   0.1097469), wk =   0.0438957
        k(   40) = (   0.0258686   0.0776058   0.1463292), wk =   0.0438957
        k(   41) = (   0.0258686   0.1034744   0.0000000), wk =   0.0219479
        k(   42) = (   0.0258686   0.1034744   0.0365823), wk =   0.0438957
        k(   43) = (   0.0258686   0.1034744   0.0731646), wk =   0.0438957
        k(   44) = (   0.0258686   0.1034744   0.1097469), wk =   0.0438957
        k(   45) = (   0.0258686   0.1034744   0.1463292), wk =   0.0438957
        k(   46) = (   0.0517372   0.0517372   0.0000000), wk =   0.0109739
        k(   47) = (   0.0517372   0.0517372   0.0365823), wk =   0.0219479
        k(   48) = (   0.0517372   0.0517372   0.0731646), wk =   0.0219479
        k(   49) = (   0.0517372   0.0517372   0.1097469), wk =   0.0219479
        k(   50) = (   0.0517372   0.0517372   0.1463292), wk =   0.0219479
        k(   51) = (   0.0517372   0.0776058   0.0000000), wk =   0.0219479
        k(   52) = (   0.0517372   0.0776058   0.0365823), wk =   0.0438957
        k(   53) = (   0.0517372   0.0776058   0.0731646), wk =   0.0438957
        k(   54) = (   0.0517372   0.0776058   0.1097469), wk =   0.0438957
        k(   55) = (   0.0517372   0.0776058   0.1463292), wk =   0.0438957
        k(   56) = (   0.0517372   0.1034744   0.0000000), wk =   0.0219479
        k(   57) = (   0.0517372   0.1034744   0.0365823), wk =   0.0438957
        k(   58) = (   0.0517372   0.1034744   0.0731646), wk =   0.0438957
        k(   59) = (   0.0517372   0.1034744   0.1097469), wk =   0.0438957
        k(   60) = (   0.0517372   0.1034744   0.1463292), wk =   0.0438957
        k(   61) = (   0.0776058   0.0776058   0.0000000), wk =   0.0109739
        k(   62) = (   0.0776058   0.0776058   0.0365823), wk =   0.0219479
        k(   63) = (   0.0776058   0.0776058   0.0731646), wk =   0.0219479
        k(   64) = (   0.0776058   0.0776058   0.1097469), wk =   0.0219479
        k(   65) = (   0.0776058   0.0776058   0.1463292), wk =   0.0219479
        k(   66) = (   0.0776058   0.1034744   0.0000000), wk =   0.0219479
        k(   67) = (   0.0776058   0.1034744   0.0365823), wk =   0.0438957
        k(   68) = (   0.0776058   0.1034744   0.0731646), wk =   0.0438957
        k(   69) = (   0.0776058   0.1034744   0.1097469), wk =   0.0438957
        k(   70) = (   0.0776058   0.1034744   0.1463292), wk =   0.0438957
        k(   71) = (   0.1034744   0.1034744   0.0000000), wk =   0.0109739
        k(   72) = (   0.1034744   0.1034744   0.0365823), wk =   0.0219479
        k(   73) = (   0.1034744   0.1034744   0.0731646), wk =   0.0219479
        k(   74) = (   0.1034744   0.1034744   0.1097469), wk =   0.0219479
        k(   75) = (   0.1034744   0.1034744   0.1463292), wk =   0.0219479

     Largest allocated arrays     est. size (Mb)     dimensions
     Largest temporary arrays     est. size (Mb)     dimensions

     Initial potential from superposition of free atoms
     Check: negative starting charge=   -0.109797

     starting charge   68.99952, renormalised to   70.00000

     negative rho (up, down):  1.114E-01 0.000E+00

     *
     * You are using vdW-DF for exchange-correlation in this calculation.
     * Please cite the following three references that made this development
     * possible:
     *
     *   M. Dion, H. Rydberg, E. Schroder, D. C. Langreth, and
     *   B. I. Lundqvist, Phys. Rev. Lett. 92, 246401 (2004).
     *
     *   T. Thonhauser, V. R. Cooper, S. Li, A. Puzder, P. Hyldgaard, and
     *   D. C. Langreth, Phys. Rev. B 76, 125112 (2007).
     *
     *   G. Roman-Perez and J. M. Soler, Phys. Rev. Lett. 103, 096102 (2009).
     *
     *
     * If you are using vdW-DF2, please also cite:
     *
     *   K. Lee, E. D. Murray, L. Kong, B. I. Lundqvist, and
     *   D. C. Langreth, Phys. Rev. B 82, 081101(R) (2010).
     *
     *
     * If you are calculating the stress with vdW-DF, please also cite:
     *
     *   R. Sabatini, E. Kucukbenli, B. Kolb, T. Thonhauser, and
     *   S. de Gironcoli, J. Phys.: Condens. Matter 24, 424209 (2012).
     *

     Carrying out vdW-DF run using the following parameters:

     Nqs =      20    Nr_points =    1024   r_max =   100.000
     q_mesh =
               0.00001000     0.04494208     0.09755937     0.15916263
               0.23128650     0.31572767     0.41458969     0.53033537
               0.66584808     0.82450364     1.01025438     1.22772762
               1.48234092     1.78043706     2.12944203     2.53805004
               3.01644009     3.57652955     4.23227104     5.00000000

     Gradients computed in reciprocal space

     Starting wfc are   50 randomized atomic wfcs +    5 random wfc

     Self-consistent Calculation

     iteration #  1     ecut=    58.80 Ry     beta=0.10
     Davidson diagonalization with overlap
     ethr =  1.00E-02,  avg # of iterations =  4.3

[...]

     total energy              =   -1270.06770896 Ry
     Harris-Foulkes estimate   =   -1270.75493772 Ry
     estimated scf accuracy    <       3.81930146 Ry

[...]

     total energy              =   -1270.16416806 Ry
     Harris-Foulkes estimate   =   -1270.16416911 Ry
     estimated scf accuracy    <       0.00000414 Ry

     iteration # 11     ecut=    58.80 Ry     beta=0.10
     Davidson diagonalization with overlap
     ethr =  5.91E-09,  avg # of iterations =  1.7

     negative rho (up, down):  1.127E-01 0.000E+00

     End of self-consistent calculation

          k = 0.0000 0.0000 0.0000 (  2871 PWs)   bands (ev):

  -108.8413-108.8410 -63.0266 -63.0266 -63.0250 -63.0245 -63.0236 -63.0236
   -29.0252 -29.0252 -28.9260 -28.9260 -28.9213 -28.9030   8.1814   9.5897
     9.5978   9.5987   9.6364   9.9886   9.9886  10.2784  10.2784  10.2799
    10.5778  12.3512  14.1872  14.1919  14.7294  15.9847  15.9847  16.5512
    16.5547  16.5547  16.6793  16.6793  17.2633  22.1596  22.9206  24.2760
    24.2784  24.2784  29.6570  31.2146  31.2159  31.3283  32.2724  32.2724
    36.4572  37.3430  37.8713  37.8727  37.8727  38.5679  38.5679

[...]

          k = 0.1035 0.1035 0.1463 (  2894 PWs)   bands (ev):

  -108.8410-108.8410 -63.0279 -63.0279 -63.0266 -63.0265 -63.0232 -63.0231
   -29.0253 -29.0224 -29.0176 -29.0169 -28.9113 -28.9083   9.6121   9.6128
     9.6596   9.6759   9.9949   9.9969   9.9987  10.0144  10.5453  10.5611
    12.3404  12.3603  14.5968  14.7058  15.5655  15.5811  15.9412  15.9975
    16.2537  16.3362  16.6967  17.0596  17.6319  17.7826  22.2807  22.3346
    23.1209  23.3879  29.3509  29.7131  32.0250  32.1182  32.1227  32.4379
    36.2928  36.4729  36.7631  36.9504  38.5452  38.9168  39.2727

     the Fermi energy is    16.6859 ev

!    total energy              =   -1270.16417082 Ry
     Harris-Foulkes estimate   =   -1270.16416881 Ry
     estimated scf accuracy    <       0.00000002 Ry

     The total energy is the sum of the following terms:

     one-electron contribution =    -762.73614542 Ry
     hartree contribution      =     427.44869657 Ry
     xc contribution           =    -149.27108772 Ry
     ewald contribution        =    -785.59908002 Ry
     smearing contrib. (-TS)   =      -0.00655424 Ry

     convergence has been achieved in  11 iterations

     Forces acting on atoms (Ry/au):

     negative rho (up, down):  1.127E-01 0.000E+00
     atom    1 type  1   force =     0.00000000    0.00000000    0.00000000
     atom    2 type  1   force =     0.00000000    0.00000000    0.00000000
     atom    3 type  2   force =     0.00000000    0.00000000    0.00000000
     atom    4 type  2   force =     0.00000000    0.00000000    0.00000000

     Total force =     0.000000     Total SCF correction =     0.000000

     General routines

     Parallel routines

   This run was terminated on:   9:36:18  14Nov2017

   JOB DONE.