     Program PWSCF v.5.1rc2 starts on 13Nov2017 at 18: 0:47

     Current dimensions of program PWSCF are:
     Max number of different atomic species (ntypx) = 10
     Max number of k-points (npk) =  40000
     Max angular momentum in pseudopotentials (lmaxx) =  3

     IMPORTANT: XC functional enforced from input :
     Exchange-correlation      = BEEF-VDW ( 1  4 27 13 2)
     Any further DFT definition will be discarded
     Please, verify this is what you really want

     Found symmetry operation: I + ( -0.5000 -0.5000  0.0000)
     This is a supercell, fractional translations are disabled

     bravais-lattice index     =            0
     lattice parameter (alat)  =       1.8897  a.u.
     unit-cell volume          =     444.4591 (a.u.)^3
     number of atoms/cell      =            4
     number of atomic types    =            2
     number of electrons       =        68.00
     number of Kohn-Sham states=           54
     kinetic-energy cutoff     =      58.7989  Ry
     charge density cutoff     =     587.9892  Ry
     convergence threshold     =      1.0E-06
     mixing beta               =       0.1000
     number of iterations used =           10  plain     mixing
     Exchange-correlation      = BEEF-VDW ( 1  4 27 13 2)

     celldm(1)=   1.889726  celldm(2)=   0.000000  celldm(3)=   0.000000
     celldm(4)=   0.000000  celldm(5)=   0.000000  celldm(6)=   0.000000

     crystal axes: (cart. coord. in units of alat)
               a(1) = (   3.834932   0.000000   0.000000 )
               a(2) = (   0.000000   3.834932   0.000000 )
               a(3) = (   0.000000   0.000000   4.478369 )

     reciprocal axes: (cart. coord. in units 2 pi/alat)
               b(1) = (  0.260761  0.000000  0.000000 )
               b(2) = (  0.000000  0.260761  0.000000 )
               b(3) = (  0.000000  0.000000  0.223296 )

     PseudoPot. # 1 for Ag read from file:
     /home/users/vossj/suncat/psp/gbrv1.5pbe/Ag.UPF
     MD5 check sum: d66d668201baa78d5eb5b04ef7011058
     Pseudo is Ultrasoft + core correction, Zval = 19.0
     Generated by new atomic code, or converted to UPF format
     Using radial grid of  887 points,  6 beta functions with:
                l(1) =   0
                l(2) =   0
                l(3) =   1
                l(4) =   1
                l(5) =   2
                l(6) =   2
     Q(r) pseudized with  6 coefficients,  rinner =    1.300   1.300   1.300
                                                       1.300   1.300

     PseudoPot. # 2 for Ir read from file:
     /home/users/vossj/suncat/psp/gbrv1.5pbe/Ir.UPF
     MD5 check sum: 8836f839c3459d2b385c504ce6d91f2c
     Pseudo is Ultrasoft + core correction, Zval = 15.0
     Generated by new atomic code, or converted to UPF format
     Using radial grid of  983 points,  7 beta functions with:
                l(1) =   0
                l(2) =   0
                l(3) =   1
                l(4) =   1
                l(5) =   1
                l(6) =   2
                l(7) =   2
     Q(r) pseudized with  8 coefficients,  rinner =    1.400   1.400   1.400
                                                       1.400   1.400

     vdW kernel table read from file vdW_kernel_table
     MD5 check sum: 095c7af220d748ca6e76c0b4c6cfb241

     atomic species   valence    mass     pseudopotential
        Ag1           19.00   107.86800     Ag( 1.00)
        Ir1           15.00   192.22000     Ir( 1.00)

     16 Sym. Ops., with inversion, found

   Cartesian axes

     site n.     atom                  positions (alat units)
         1           Ag1 tau(   1) = (   0.0000000   0.0000000   0.0000000  )
         2           Ag1 tau(   2) = (   1.9174659   1.9174659   0.0000000  )
         3           Ir1 tau(   3) = (   1.9174659   0.0000000   2.2391845  )
         4           Ir1 tau(   4) = (   0.0000000   1.9174659   2.2391845  )

     number of k points=    75  Fermi-Dirac smearing, width (Ry)=  0.0073
                       cart. coord. in units 2pi/alat
        k(    1) = (   0.0000000   0.0000000   0.0000000), wk =   0.0027435
        k(    2) = (   0.0000000   0.0000000   0.0248106), wk =   0.0054870
        k(    3) = (   0.0000000   0.0000000   0.0496212), wk =   0.0054870
        k(    4) = (   0.0000000   0.0000000   0.0744319), wk =   0.0054870
        k(    5) = (   0.0000000   0.0000000   0.0992425), wk =   0.0054870
        k(    6) = (   0.0000000   0.0289734   0.0000000), wk =   0.0109739
        k(    7) = (   0.0000000   0.0289734   0.0248106), wk =   0.0219479
        k(    8) = (   0.0000000   0.0289734   0.0496212), wk =   0.0219479
        k(    9) = (   0.0000000   0.0289734   0.0744319), wk =   0.0219479
        k(   10) = (   0.0000000   0.0289734   0.0992425), wk =   0.0219479
        k(   11) = (   0.0000000   0.0579468   0.0000000), wk =   0.0109739
        k(   12) = (   0.0000000   0.0579468   0.0248106), wk =   0.0219479
        k(   13) = (   0.0000000   0.0579468   0.0496212), wk =   0.0219479
        k(   14) = (   0.0000000   0.0579468   0.0744319), wk =   0.0219479
        k(   15) = (   0.0000000   0.0579468   0.0992425), wk =   0.0219479
        k(   16) = (   0.0000000   0.0869203   0.0000000), wk =   0.0109739
        k(   17) = (   0.0000000   0.0869203   0.0248106), wk =   0.0219479
        k(   18) = (   0.0000000   0.0869203   0.0496212), wk =   0.0219479
        k(   19) = (   0.0000000   0.0869203   0.0744319), wk =   0.0219479
        k(   20) = (   0.0000000   0.0869203   0.0992425), wk =   0.0219479
        k(   21) = (   0.0000000   0.1158937   0.0000000), wk =   0.0109739
        k(   22) = (   0.0000000   0.1158937   0.0248106), wk =   0.0219479
        k(   23) = (   0.0000000   0.1158937   0.0496212), wk =   0.0219479
        k(   24) = (   0.0000000   0.1158937   0.0744319), wk =   0.0219479
        k(   25) = (   0.0000000   0.1158937   0.0992425), wk =   0.0219479
        k(   26) = (   0.0289734   0.0289734   0.0000000), wk =   0.0109739
        k(   27) = (   0.0289734   0.0289734   0.0248106), wk =   0.0219479
        k(   28) = (   0.0289734   0.0289734   0.0496212), wk =   0.0219479
        k(   29) = (   0.0289734   0.0289734   0.0744319), wk =   0.0219479
        k(   30) = (   0.0289734   0.0289734   0.0992425), wk =   0.0219479
        k(   31) = (   0.0289734   0.0579468   0.0000000), wk =   0.0219479
        k(   32) = (   0.0289734   0.0579468   0.0248106), wk =   0.0438957
        k(   33) = (   0.0289734   0.0579468   0.0496212), wk =   0.0438957
        k(   34) = (   0.0289734   0.0579468   0.0744319), wk =   0.0438957
        k(   35) = (   0.0289734   0.0579468   0.0992425), wk =   0.0438957
        k(   36) = (   0.0289734   0.0869203   0.0000000), wk =   0.0219479
        k(   37) = (   0.0289734   0.0869203   0.0248106), wk =   0.0438957
        k(   38) = (   0.0289734   0.0869203   0.0496212), wk =   0.0438957
        k(   39) = (   0.0289734   0.0869203   0.0744319), wk =   0.0438957
        k(   40) = (   0.0289734   0.0869203   0.0992425), wk =   0.0438957
        k(   41) = (   0.0289734   0.1158937   0.0000000), wk =   0.0219479
        k(   42) = (   0.0289734   0.1158937   0.0248106), wk =   0.0438957
        k(   43) = (   0.0289734   0.1158937   0.0496212), wk =   0.0438957
        k(   44) = (   0.0289734   0.1158937   0.0744319), wk =   0.0438957
        k(   45) = (   0.0289734   0.1158937   0.0992425), wk =   0.0438957
        k(   46) = (   0.0579468   0.0579468   0.0000000), wk =   0.0109739
        k(   47) = (   0.0579468   0.0579468   0.0248106), wk =   0.0219479
        k(   48) = (   0.0579468   0.0579468   0.0496212), wk =   0.0219479
        k(   49) = (   0.0579468   0.0579468   0.0744319), wk =   0.0219479
        k(   50) = (   0.0579468   0.0579468   0.0992425), wk =   0.0219479
        k(   51) = (   0.0579468   0.0869203   0.0000000), wk =   0.0219479
        k(   52) = (   0.0579468   0.0869203   0.0248106), wk =   0.0438957
        k(   53) = (   0.0579468   0.0869203   0.0496212), wk =   0.0438957
        k(   54) = (   0.0579468   0.0869203   0.0744319), wk =   0.0438957
        k(   55) = (   0.0579468   0.0869203   0.0992425), wk =   0.0438957
        k(   56) = (   0.0579468   0.1158937   0.0000000), wk =   0.0219479
        k(   57) = (   0.0579468   0.1158937   0.0248106), wk =   0.0438957
        k(   58) = (   0.0579468   0.1158937   0.0496212), wk =   0.0438957
        k(   59) = (   0.0579468   0.1158937   0.0744319), wk =   0.0438957
        k(   60) = (   0.0579468   0.1158937   0.0992425), wk =   0.0438957
        k(   61) = (   0.0869203   0.0869203   0.0000000), wk =   0.0109739
        k(   62) = (   0.0869203   0.0869203   0.0248106), wk =   0.0219479
        k(   63) = (   0.0869203   0.0869203   0.0496212), wk =   0.0219479
        k(   64) = (   0.0869203   0.0869203   0.0744319), wk =   0.0219479
        k(   65) = (   0.0869203   0.0869203   0.0992425), wk =   0.0219479
        k(   66) = (   0.0869203   0.1158937   0.0000000), wk =   0.0219479
        k(   67) = (   0.0869203   0.1158937   0.0248106), wk =   0.0438957
        k(   68) = (   0.0869203   0.1158937   0.0496212), wk =   0.0438957
        k(   69) = (   0.0869203   0.1158937   0.0744319), wk =   0.0438957
        k(   70) = (   0.0869203   0.1158937   0.0992425), wk =   0.0438957
        k(   71) = (   0.1158937   0.1158937   0.0000000), wk =   0.0109739
        k(   72) = (   0.1158937   0.1158937   0.0248106), wk =   0.0219479
        k(   73) = (   0.1158937   0.1158937   0.0496212), wk =   0.0219479
        k(   74) = (   0.1158937   0.1158937   0.0744319), wk =   0.0219479
        k(   75) = (   0.1158937   0.1158937   0.0992425), wk =   0.0219479

     Largest allocated arrays     est. size (Mb)     dimensions
     Largest temporary arrays     est. size (Mb)     dimensions

     Initial potential from superposition of free atoms
     Check: negative starting charge=   -0.729348

     starting charge   65.99984, renormalised to   68.00000

     negative rho (up, down):  7.515E-01 0.000E+00

     *
     * You are using vdW-DF for exchange-correlation in this calculation.
     * Please cite the following three references that made this development
     * possible:
     *
     *   M. Dion, H. Rydberg, E. Schroder, D. C. Langreth, and
     *   B. I. Lundqvist, Phys. Rev. Lett. 92, 246401 (2004).
     *
     *   T. Thonhauser, V. R. Cooper, S. Li, A. Puzder, P. Hyldgaard, and
     *   D. C. Langreth, Phys. Rev. B 76, 125112 (2007).
     *
     *   G. Roman-Perez and J. M. Soler, Phys. Rev. Lett. 103, 096102 (2009).
     *
     *
     * If you are using vdW-DF2, please also cite:
     *
     *   K. Lee, E. D. Murray, L. Kong, B. I. Lundqvist, and
     *   D. C. Langreth, Phys. Rev. B 82, 081101(R) (2010).
     *
     *
     * If you are calculating the stress with vdW-DF, please also cite:
     *
     *   R. Sabatini, E. Kucukbenli, B. Kolb, T. Thonhauser, and
     *   S. de Gironcoli, J. Phys.: Condens. Matter 24, 424209 (2012).
     *

     Carrying out vdW-DF run using the following parameters:

     Nqs =      20    Nr_points =    1024   r_max =   100.000
     q_mesh =
               0.00001000     0.04494208     0.09755937     0.15916263
               0.23128650     0.31572767     0.41458969     0.53033537
               0.66584808     0.82450364     1.01025438     1.22772762
               1.48234092     1.78043706     2.12944203     2.53805004
               3.01644009     3.57652955     4.23227104     5.00000000

     Gradients computed in reciprocal space

     Starting wfc are   50 randomized atomic wfcs +    4 random wfc

     Self-consistent Calculation

     iteration #  1     ecut=    58.80 Ry     beta=0.10
     Davidson diagonalization with overlap
     ethr =  1.00E-02,  avg # of iterations =  4.8

[...]

     total energy              =    -960.25565334 Ry
     Harris-Foulkes estimate   =    -960.91451456 Ry
     estimated scf accuracy    <       4.15178591 Ry

[...]

     total energy              =    -959.90647016 Ry
     Harris-Foulkes estimate   =    -959.90646724 Ry
     estimated scf accuracy    <       0.00000427 Ry

     iteration # 12     ecut=    58.80 Ry     beta=0.10
     Davidson diagonalization with overlap
     ethr =  6.28E-09,  avg # of iterations =  2.0

     negative rho (up, down):  6.615E-01 0.000E+00

     End of self-consistent calculation

          k = 0.0000 0.0000 0.0000 (  3381 PWs)   bands (ev):

   -73.3425 -73.3143 -36.9126 -36.9126 -36.8067 -36.7736 -36.7569 -36.7569
   -30.2306 -30.2306 -29.9107 -29.8659 -29.8659 -29.8326  10.4310  12.2689
    12.4518  12.5475  12.8378  12.8816  12.8816  14.4739  14.8518  14.8518
    15.6778  15.7407  16.4132  16.5121  17.6398  17.6398  18.7520  18.9470
    18.9470  19.2954  19.6764  21.2575  21.9304  21.9304  24.8279  28.2572
    28.6182  29.0698  29.7621  29.7621  29.9124  30.3595  30.3627  32.0966
    32.0966  34.7348  36.2413  36.7031  38.3268  38.3870

[...]

          k = 0.1159 0.1159 0.0992 (  3406 PWs)   bands (ev):

   -73.3287 -73.3279 -36.9300 -36.9252 -36.7905 -36.7895 -36.7482 -36.7436
   -30.2731 -30.2623 -29.8728 -29.8703 -29.8444 -29.8331  12.3140  12.3421
    12.7676  12.8271  13.7222  13.7477  14.5053  14.6173  15.0028  15.0112
    15.0623  15.1331  16.6704  16.8366  17.4870  17.9710  18.0809  18.1364
    18.7086  18.9287  19.0015  19.4007  19.4976  19.7656  24.4753  24.6172
    24.6338  25.1553  30.3596  30.3597  32.4244  32.5474  33.0400  33.1954
    36.5554  36.8239  37.4678  37.8918  38.1270  38.7531

     the Fermi energy is    18.7139 ev

!    total energy              =    -959.90649022 Ry
     Harris-Foulkes estimate   =    -959.90647085 Ry
     estimated scf accuracy    <       0.00000007 Ry

     The total energy is the sum of the following terms:

     one-electron contribution =    -288.31132243 Ry
     hartree contribution      =     190.56362708 Ry
     xc contribution           =    -164.23957604 Ry
     ewald contribution        =    -697.90466183 Ry
     smearing contrib. (-TS)   =      -0.01455700 Ry

     convergence has been achieved in  12 iterations

     Forces acting on atoms (Ry/au):

     negative rho (up, down):  6.615E-01 0.000E+00
     atom    1 type  1   force =     0.00000000    0.00000000    0.00000000
     atom    2 type  1   force =     0.00000000    0.00000000    0.00000000
     atom    3 type  2   force =     0.00000000    0.00000000    0.00000000
     atom    4 type  2   force =     0.00000000    0.00000000    0.00000000

     Total force =     0.000000     Total SCF correction =     0.000000

     General routines

     Parallel routines

   This run was terminated on:  18: 1:32  13Nov2017

   JOB DONE.