     Program PWSCF v.5.1rc2 starts on 15Nov2017 at  6:28:13

     Current dimensions of program PWSCF are:
     Max number of different atomic species (ntypx) = 10
     Max number of k-points (npk) =  40000
     Max angular momentum in pseudopotentials (lmaxx) =  3

     IMPORTANT: XC functional enforced from input :
     Exchange-correlation      = BEEF-VDW ( 1  4 27 13 2)
     Any further DFT definition will be discarded
     Please, verify this is what you really want

     Found symmetry operation: I + ( -0.5000 -0.5000  0.0000)
     This is a supercell, fractional translations are disabled

     bravais-lattice index     =            0
     lattice parameter (alat)  =       1.8897  a.u.
     unit-cell volume          =     421.8985 (a.u.)^3
     number of atoms/cell      =            4
     number of atomic types    =            2
     number of electrons       =        56.00
     number of Kohn-Sham states=           48
     kinetic-energy cutoff     =      58.7989  Ry
     charge density cutoff     =     587.9892  Ry
     convergence threshold     =      1.0E-06
     mixing beta               =       0.1000
     number of iterations used =           10  plain     mixing
     Exchange-correlation      = BEEF-VDW ( 1  4 27 13 2)

     celldm(1)=   1.889726  celldm(2)=   0.000000  celldm(3)=   0.000000
     celldm(4)=   0.000000  celldm(5)=   0.000000  celldm(6)=   0.000000

     crystal axes: (cart. coord. in units of alat)
               a(1) = (   4.006346   0.000000   0.000000 )
               a(2) = (   0.000000   4.006346   0.000000 )
               a(3) = (   0.000000   0.000000   3.895064 )

     reciprocal axes: (cart. coord. in units 2 pi/alat)
               b(1) = (  0.249604  0.000000  0.000000 )
               b(2) = (  0.000000  0.249604  0.000000 )
               b(3) = (  0.000000  0.000000  0.256735 )

     PseudoPot. # 1 for Ti read from file:
     /home/users/vossj/suncat/psp/gbrv1.5pbe/Ti.UPF
     MD5 check sum: 88a00a6731bd790ddea75d31a80cb452
     Pseudo is Ultrasoft + core correction, Zval = 12.0
     Generated by new atomic code, or converted to UPF format
     Using radial grid of  851 points,  6 beta functions with:
                l(1) =   0
                l(2) =   0
                l(3) =   1
                l(4) =   1
                l(5) =   2
                l(6) =   2
     Q(r) pseudized with  6 coefficients,  rinner =    1.000   1.000   1.000
                                                       1.000   1.000

     PseudoPot. # 2 for Pt read from file:
     /home/users/vossj/suncat/psp/gbrv1.5pbe/Pt.UPF
     MD5 check sum: f09d6de1a584b5a045c4fc126da2d0c4
     Pseudo is Ultrasoft + core correction, Zval = 16.0
     Generated by new atomic code, or converted to UPF format
     Using radial grid of  985 points,  6 beta functions with:
                l(1) =   0
                l(2) =   0
                l(3) =   1
                l(4) =   1
                l(5) =   2
                l(6) =   2
     Q(r) pseudized with  8 coefficients,  rinner =    1.300   1.300   1.300
                                                       1.300   1.300

     vdW kernel table read from file vdW_kernel_table
     MD5 check sum: 095c7af220d748ca6e76c0b4c6cfb241

     atomic species   valence    mass     pseudopotential
        Ti1           12.00    47.88000     Ti( 1.00)
        Pt1           16.00   195.08000     Pt( 1.00)

     16 Sym. Ops., with inversion, found

   Cartesian axes

     site n.     atom                  positions (alat units)
         1           Ti1 tau(   1) = (   0.0000000   0.0000000   0.0000000  )
         2           Ti1 tau(   2) = (   2.0031728   2.0031728   0.0000000  )
         3           Pt1 tau(   3) = (   2.0031728   0.0000000   1.9475319  )
         4           Pt1 tau(   4) = (   0.0000000   2.0031728   1.9475319  )

     number of k points=    75  Fermi-Dirac smearing, width (Ry)=  0.0073
                       cart. coord. in units 2pi/alat
        k(    1) = (   0.0000000   0.0000000   0.0000000), wk =   0.0027435
        k(    2) = (   0.0000000   0.0000000   0.0285261), wk =   0.0054870
        k(    3) = (   0.0000000   0.0000000   0.0570523), wk =   0.0054870
        k(    4) = (   0.0000000   0.0000000   0.0855784), wk =   0.0054870
        k(    5) = (   0.0000000   0.0000000   0.1141045), wk =   0.0054870
        k(    6) = (   0.0000000   0.0277338   0.0000000), wk =   0.0109739
        k(    7) = (   0.0000000   0.0277338   0.0285261), wk =   0.0219479
        k(    8) = (   0.0000000   0.0277338   0.0570523), wk =   0.0219479
        k(    9) = (   0.0000000   0.0277338   0.0855784), wk =   0.0219479
        k(   10) = (   0.0000000   0.0277338   0.1141045), wk =   0.0219479
        k(   11) = (   0.0000000   0.0554676   0.0000000), wk =   0.0109739
        k(   12) = (   0.0000000   0.0554676   0.0285261), wk =   0.0219479
        k(   13) = (   0.0000000   0.0554676   0.0570523), wk =   0.0219479
        k(   14) = (   0.0000000   0.0554676   0.0855784), wk =   0.0219479
        k(   15) = (   0.0000000   0.0554676   0.1141045), wk =   0.0219479
        k(   16) = (   0.0000000   0.0832013   0.0000000), wk =   0.0109739
        k(   17) = (   0.0000000   0.0832013   0.0285261), wk =   0.0219479
        k(   18) = (   0.0000000   0.0832013   0.0570523), wk =   0.0219479
        k(   19) = (   0.0000000   0.0832013   0.0855784), wk =   0.0219479
        k(   20) = (   0.0000000   0.0832013   0.1141045), wk =   0.0219479
        k(   21) = (   0.0000000   0.1109351   0.0000000), wk =   0.0109739
        k(   22) = (   0.0000000   0.1109351   0.0285261), wk =   0.0219479
        k(   23) = (   0.0000000   0.1109351   0.0570523), wk =   0.0219479
        k(   24) = (   0.0000000   0.1109351   0.0855784), wk =   0.0219479
        k(   25) = (   0.0000000   0.1109351   0.1141045), wk =   0.0219479
        k(   26) = (   0.0277338   0.0277338   0.0000000), wk =   0.0109739
        k(   27) = (   0.0277338   0.0277338   0.0285261), wk =   0.0219479
        k(   28) = (   0.0277338   0.0277338   0.0570523), wk =   0.0219479
        k(   29) = (   0.0277338   0.0277338   0.0855784), wk =   0.0219479
        k(   30) = (   0.0277338   0.0277338   0.1141045), wk =   0.0219479
        k(   31) = (   0.0277338   0.0554676   0.0000000), wk =   0.0219479
        k(   32) = (   0.0277338   0.0554676   0.0285261), wk =   0.0438957
        k(   33) = (   0.0277338   0.0554676   0.0570523), wk =   0.0438957
        k(   34) = (   0.0277338   0.0554676   0.0855784), wk =   0.0438957
        k(   35) = (   0.0277338   0.0554676   0.1141045), wk =   0.0438957
        k(   36) = (   0.0277338   0.0832013   0.0000000), wk =   0.0219479
        k(   37) = (   0.0277338   0.0832013   0.0285261), wk =   0.0438957
        k(   38) = (   0.0277338   0.0832013   0.0570523), wk =   0.0438957
        k(   39) = (   0.0277338   0.0832013   0.0855784), wk =   0.0438957
        k(   40) = (   0.0277338   0.0832013   0.1141045), wk =   0.0438957
        k(   41) = (   0.0277338   0.1109351   0.0000000), wk =   0.0219479
        k(   42) = (   0.0277338   0.1109351   0.0285261), wk =   0.0438957
        k(   43) = (   0.0277338   0.1109351   0.0570523), wk =   0.0438957
        k(   44) = (   0.0277338   0.1109351   0.0855784), wk =   0.0438957
        k(   45) = (   0.0277338   0.1109351   0.1141045), wk =   0.0438957
        k(   46) = (   0.0554676   0.0554676   0.0000000), wk =   0.0109739
        k(   47) = (   0.0554676   0.0554676   0.0285261), wk =   0.0219479
        k(   48) = (   0.0554676   0.0554676   0.0570523), wk =   0.0219479
        k(   49) = (   0.0554676   0.0554676   0.0855784), wk =   0.0219479
        k(   50) = (   0.0554676   0.0554676   0.1141045), wk =   0.0219479
        k(   51) = (   0.0554676   0.0832013   0.0000000), wk =   0.0219479
        k(   52) = (   0.0554676   0.0832013   0.0285261), wk =   0.0438957
        k(   53) = (   0.0554676   0.0832013   0.0570523), wk =   0.0438957
        k(   54) = (   0.0554676   0.0832013   0.0855784), wk =   0.0438957
        k(   55) = (   0.0554676   0.0832013   0.1141045), wk =   0.0438957
        k(   56) = (   0.0554676   0.1109351   0.0000000), wk =   0.0219479
        k(   57) = (   0.0554676   0.1109351   0.0285261), wk =   0.0438957
        k(   58) = (   0.0554676   0.1109351   0.0570523), wk =   0.0438957
        k(   59) = (   0.0554676   0.1109351   0.0855784), wk =   0.0438957
        k(   60) = (   0.0554676   0.1109351   0.1141045), wk =   0.0438957
        k(   61) = (   0.0832013   0.0832013   0.0000000), wk =   0.0109739
        k(   62) = (   0.0832013   0.0832013   0.0285261), wk =   0.0219479
        k(   63) = (   0.0832013   0.0832013   0.0570523), wk =   0.0219479
        k(   64) = (   0.0832013   0.0832013   0.0855784), wk =   0.0219479
        k(   65) = (   0.0832013   0.0832013   0.1141045), wk =   0.0219479
        k(   66) = (   0.0832013   0.1109351   0.0000000), wk =   0.0219479
        k(   67) = (   0.0832013   0.1109351   0.0285261), wk =   0.0438957
        k(   68) = (   0.0832013   0.1109351   0.0570523), wk =   0.0438957
        k(   69) = (   0.0832013   0.1109351   0.0855784), wk =   0.0438957
        k(   70) = (   0.0832013   0.1109351   0.1141045), wk =   0.0438957
        k(   71) = (   0.1109351   0.1109351   0.0000000), wk =   0.0109739
        k(   72) = (   0.1109351   0.1109351   0.0285261), wk =   0.0219479
        k(   73) = (   0.1109351   0.1109351   0.0570523), wk =   0.0219479
        k(   74) = (   0.1109351   0.1109351   0.0855784), wk =   0.0219479
        k(   75) = (   0.1109351   0.1109351   0.1141045), wk =   0.0219479

     Largest allocated arrays     est. size (Mb)     dimensions
     Largest temporary arrays     est. size (Mb)     dimensions

     Check: negative/imaginary core charge=   -0.000002    0.000000

     Initial potential from superposition of free atoms
     Check: negative starting charge=   -0.370758

     starting charge   52.99989, renormalised to   56.00000

     negative rho (up, down):  3.917E-01 0.000E+00

     *
     * You are using vdW-DF for exchange-correlation in this calculation.
     * Please cite the following three references that made this development
     * possible:
     *
     *   M. Dion, H. Rydberg, E. Schroder, D. C. Langreth, and
     *   B. I. Lundqvist, Phys. Rev. Lett. 92, 246401 (2004).
     *
     *   T. Thonhauser, V. R. Cooper, S. Li, A. Puzder, P. Hyldgaard, and
     *   D. C. Langreth, Phys. Rev. B 76, 125112 (2007).
     *
     *   G. Roman-Perez and J. M. Soler, Phys. Rev. Lett. 103, 096102 (2009).
     *
     *
     * If you are using vdW-DF2, please also cite:
     *
     *   K. Lee, E. D. Murray, L. Kong, B. I. Lundqvist, and
     *   D. C. Langreth, Phys. Rev. B 82, 081101(R) (2010).
     *
     *
     * If you are calculating the stress with vdW-DF, please also cite:
     *
     *   R. Sabatini, E. Kucukbenli, B. Kolb, T. Thonhauser, and
     *   S. de Gironcoli, J. Phys.: Condens. Matter 24, 424209 (2012).
     *

     Carrying out vdW-DF run using the following parameters:

     Nqs =      20    Nr_points =    1024   r_max =   100.000
     q_mesh =
               0.00001000     0.04494208     0.09755937     0.15916263
               0.23128650     0.31572767     0.41458969     0.53033537
               0.66584808     0.82450364     1.01025438     1.22772762
               1.48234092     1.78043706     2.12944203     2.53805004
               3.01644009     3.57652955     4.23227104     5.00000000

     Gradients computed in reciprocal space

     Starting wfc are   44 randomized atomic wfcs +    4 random wfc

     Self-consistent Calculation

     iteration #  1     ecut=    58.80 Ry     beta=0.10
     Davidson diagonalization with overlap
     ethr =  1.00E-02,  avg # of iterations =  4.1

[...]

     total energy              =    -661.54011384 Ry
     Harris-Foulkes estimate   =    -668.75758496 Ry
     estimated scf accuracy    <      40.57808940 Ry

[...]

     total energy              =    -664.83999506 Ry
     Harris-Foulkes estimate   =    -664.83999561 Ry
     estimated scf accuracy    <       0.00000254 Ry

     iteration # 12     ecut=    58.80 Ry     beta=0.10
     Davidson diagonalization with overlap
     ethr =  4.41E-09,  avg # of iterations =  1.1

     negative rho (up, down):  3.521E-01 0.000E+00

     End of self-consistent calculation

          k = 0.0000 0.0000 0.0000 (  3205 PWs)   bands (ev):

   -39.0002 -38.8932 -35.2019 -35.2019 -35.1215 -35.0847 -35.0302 -35.0302
   -15.3209 -15.3209 -15.2724 -15.1798 -14.9397 -14.9397   9.7440  12.0942
    12.5518  12.5536  13.1070  13.1070  13.1305  15.4077  15.4077  16.7053
    17.8375  18.0498  19.1324  19.1765  20.4464  20.4464  20.8455  20.8455
    20.9615  21.0337  21.0427  21.0427  21.1765  21.8768  26.3333  29.0652
    29.7772  29.7772  29.8971  30.1202  30.2359  30.2359  30.9532  33.4081

[...]

          k = 0.1109 0.1109 0.1141 (  3202 PWs)   bands (ev):

   -38.9469 -38.9435 -35.2206 -35.2155 -35.1068 -35.1060 -35.0200 -35.0148
   -15.3755 -15.3643 -15.2411 -15.2379 -14.9140 -14.9021  12.2334  12.3415
    12.6142  12.6241  14.8764  14.9253  14.9464  15.0278  15.4359  15.5083
    17.3359  18.0144  18.0724  18.2697  18.3229  18.5003  18.7933  19.2706
    20.5686  20.8237  20.9340  21.0294  21.1969  21.2638  24.2949  24.5195
    27.2448  27.4554  32.8152  32.8603  32.9332  32.9411  36.7313  36.9769

     the Fermi energy is    18.2792 ev

!    total energy              =    -664.84000524 Ry
     Harris-Foulkes estimate   =    -664.83999517 Ry
     estimated scf accuracy    <       0.00000072 Ry

     The total energy is the sum of the following terms:

     one-electron contribution =    -125.70807184 Ry
     hartree contribution      =      99.98749191 Ry
     xc contribution           =    -154.93363218 Ry
     ewald contribution        =    -484.17493515 Ry
     smearing contrib. (-TS)   =      -0.01085798 Ry

     convergence has been achieved in  12 iterations

     Forces acting on atoms (Ry/au):

     negative rho (up, down):  3.521E-01 0.000E+00
     atom    1 type  1   force =     0.00000000    0.00000000    0.00000000
     atom    2 type  1   force =     0.00000000    0.00000000    0.00000000
     atom    3 type  2   force =     0.00000000    0.00000000    0.00000000
     atom    4 type  2   force =     0.00000000    0.00000000    0.00000000

     Total force =     0.000000     Total SCF correction =     0.000000

     General routines

     Parallel routines

   This run was terminated on:   6:28:50  15Nov2017

   JOB DONE.