     Program PWSCF v.5.1rc2 (svn rev. ) starts on 18Feb2018 at 17:11:53

     Current dimensions of program PWSCF are:
     Max number of different atomic species (ntypx) = 10
     Max number of k-points (npk) =  40000
     Max angular momentum in pseudopotentials (lmaxx) =  3

     IMPORTANT: XC functional enforced from input :
     Exchange-correlation      = BEEF-VDW ( 1  4 27 13 2)
     Any further DFT definition will be discarded
     Please, verify this is what you really want

     Subspace diagonalization in iterative solution of the eigenvalue problem:
     a serial algorithm will be used

     Found symmetry operation: I + ( -0.5000 -0.5000  0.0000)
     This is a supercell, fractional translations are disabled

     bravais-lattice index     =            0
     lattice parameter (alat)  =       1.8897  a.u.
     unit-cell volume          =     537.1382 (a.u.)^3
     number of atoms/cell      =            4
     number of atomic types    =            2
     number of electrons       =        62.00
     number of Kohn-Sham states=           51
     kinetic-energy cutoff     =      58.7989  Ry
     charge density cutoff     =     587.9892  Ry
     convergence threshold     =      1.0E-06
     mixing beta               =       0.1000
     number of iterations used =           10  plain     mixing
     Exchange-correlation      = BEEF-VDW ( 1  4 27 13 2)

     celldm(1)=   1.889726  celldm(2)=   0.000000  celldm(3)=   0.000000
     celldm(4)=   0.000000  celldm(5)=   0.000000  celldm(6)=   0.000000

     crystal axes: (cart. coord. in units of alat)
               a(1) = (   4.818520   0.000000   0.000000 )
               a(2) = (   0.000000   4.818520   0.000000 )
               a(3) = (   0.000000   0.000000   3.428168 )

     reciprocal axes: (cart. coord. in units 2 pi/alat)
               b(1) = (  0.207533  0.000000  0.000000 )
               b(2) = (  0.000000  0.207533  0.000000 )
               b(3) = (  0.000000  0.000000  0.291701 )

     PseudoPot. # 1 for Ru read from file:
     /home/mamunm/src/pseudo/gbrv1.5pbe/Ru.UPF
     MD5 check sum: 7158a806dd851261a58e6920c40ebe78
     Pseudo is Ultrasoft + core correction, Zval = 16.0
     Generated by new atomic code, or converted to UPF format
     Using radial grid of  967 points,  6 beta functions with:
                l(1) =   0
                l(2) =   0
                l(3) =   1
                l(4) =   1
                l(5) =   2
                l(6) =   2
     Q(r) pseudized with  8 coefficients,  rinner =    1.300   1.300   1.300
                                                       1.300   1.300

     PseudoPot. # 2 for Bi read from file:
     /home/mamunm/src/pseudo/gbrv1.5pbe/Bi.UPF
     MD5 check sum: 81103212dc04adf40945787f699eab19
     Pseudo is Ultrasoft + core correction, Zval = 15.0
     Generated by new atomic code, or converted to UPF format
     Using radial grid of  899 points,  6 beta functions with:
                l(1) =   0
                l(2) =   0
                l(3) =   1
                l(4) =   1
                l(5) =   2
                l(6) =   2
     Q(r) pseudized with  6 coefficients,  rinner =    1.000   1.000   1.000
                                                       1.000   1.000

     vdW kernel table read from file vdW_kernel_table
     MD5 check sum: 095c7af220d748ca6e76c0b4c6cfb241

     atomic species   valence    mass     pseudopotential
        Ru1           16.00   101.07000     Ru( 1.00)
        Bi1           15.00   208.98040     Bi( 1.00)

     16 Sym. Ops., with inversion, found

   Cartesian axes

     site n.     atom                  positions (alat units)
         1           Ru1 tau(   1) = (   0.0000000   0.0000000   0.0000000  )
         2           Ru1 tau(   2) = (   2.4092602   2.4092602   0.0000000  )
         3           Bi1 tau(   3) = (   2.4092602   0.0000000   1.7140839  )
         4           Bi1 tau(   4) = (   0.0000000   2.4092602   1.7140839  )

     number of k points=    75  Fermi-Dirac smearing, width (Ry)=  0.0073
                       cart. coord. in units 2pi/alat
        k(    1) = (   0.0000000   0.0000000   0.0000000), wk =   0.0027435
        k(    2) = (   0.0000000   0.0000000   0.0324112), wk =   0.0054870
        k(    3) = (   0.0000000   0.0000000   0.0648224), wk =   0.0054870
        k(    4) = (   0.0000000   0.0000000   0.0972337), wk =   0.0054870
        k(    5) = (   0.0000000   0.0000000   0.1296449), wk =   0.0054870
        k(    6) = (   0.0000000   0.0230592   0.0000000), wk =   0.0109739
        k(    7) = (   0.0000000   0.0230592   0.0324112), wk =   0.0219479
        k(    8) = (   0.0000000   0.0230592   0.0648224), wk =   0.0219479
        k(    9) = (   0.0000000   0.0230592   0.0972337), wk =   0.0219479
        k(   10) = (   0.0000000   0.0230592   0.1296449), wk =   0.0219479
        k(   11) = (   0.0000000   0.0461184   0.0000000), wk =   0.0109739
        k(   12) = (   0.0000000   0.0461184   0.0324112), wk =   0.0219479
        k(   13) = (   0.0000000   0.0461184   0.0648224), wk =   0.0219479
        k(   14) = (   0.0000000   0.0461184   0.0972337), wk =   0.0219479
        k(   15) = (   0.0000000   0.0461184   0.1296449), wk =   0.0219479
        k(   16) = (   0.0000000   0.0691775   0.0000000), wk =   0.0109739
        k(   17) = (   0.0000000   0.0691775   0.0324112), wk =   0.0219479
        k(   18) = (   0.0000000   0.0691775   0.0648224), wk =   0.0219479
        k(   19) = (   0.0000000   0.0691775   0.0972337), wk =   0.0219479
        k(   20) = (   0.0000000   0.0691775   0.1296449), wk =   0.0219479
        k(   21) = (   0.0000000   0.0922367   0.0000000), wk =   0.0109739
        k(   22) = (   0.0000000   0.0922367   0.0324112), wk =   0.0219479
        k(   23) = (   0.0000000   0.0922367   0.0648224), wk =   0.0219479
        k(   24) = (   0.0000000   0.0922367   0.0972337), wk =   0.0219479
        k(   25) = (   0.0000000   0.0922367   0.1296449), wk =   0.0219479
        k(   26) = (   0.0230592   0.0230592   0.0000000), wk =   0.0109739
        k(   27) = (   0.0230592   0.0230592   0.0324112), wk =   0.0219479
        k(   28) = (   0.0230592   0.0230592   0.0648224), wk =   0.0219479
        k(   29) = (   0.0230592   0.0230592   0.0972337), wk =   0.0219479
        k(   30) = (   0.0230592   0.0230592   0.1296449), wk =   0.0219479
        k(   31) = (   0.0230592   0.0461184   0.0000000), wk =   0.0219479
        k(   32) = (   0.0230592   0.0461184   0.0324112), wk =   0.0438957
        k(   33) = (   0.0230592   0.0461184   0.0648224), wk =   0.0438957
        k(   34) = (   0.0230592   0.0461184   0.0972337), wk =   0.0438957
        k(   35) = (   0.0230592   0.0461184   0.1296449), wk =   0.0438957
        k(   36) = (   0.0230592   0.0691775   0.0000000), wk =   0.0219479
        k(   37) = (   0.0230592   0.0691775   0.0324112), wk =   0.0438957
        k(   38) = (   0.0230592   0.0691775   0.0648224), wk =   0.0438957
        k(   39) = (   0.0230592   0.0691775   0.0972337), wk =   0.0438957
        k(   40) = (   0.0230592   0.0691775   0.1296449), wk =   0.0438957
        k(   41) = (   0.0230592   0.0922367   0.0000000), wk =   0.0219479
        k(   42) = (   0.0230592   0.0922367   0.0324112), wk =   0.0438957
        k(   43) = (   0.0230592   0.0922367   0.0648224), wk =   0.0438957
        k(   44) = (   0.0230592   0.0922367   0.0972337), wk =   0.0438957
        k(   45) = (   0.0230592   0.0922367   0.1296449), wk =   0.0438957
        k(   46) = (   0.0461184   0.0461184   0.0000000), wk =   0.0109739
        k(   47) = (   0.0461184   0.0461184   0.0324112), wk =   0.0219479
        k(   48) = (   0.0461184   0.0461184   0.0648224), wk =   0.0219479
        k(   49) = (   0.0461184   0.0461184   0.0972337), wk =   0.0219479
        k(   50) = (   0.0461184   0.0461184   0.1296449), wk =   0.0219479
        k(   51) = (   0.0461184   0.0691775   0.0000000), wk =   0.0219479
        k(   52) = (   0.0461184   0.0691775   0.0324112), wk =   0.0438957
        k(   53) = (   0.0461184   0.0691775   0.0648224), wk =   0.0438957
        k(   54) = (   0.0461184   0.0691775   0.0972337), wk =   0.0438957
        k(   55) = (   0.0461184   0.0691775   0.1296449), wk =   0.0438957
        k(   56) = (   0.0461184   0.0922367   0.0000000), wk =   0.0219479
        k(   57) = (   0.0461184   0.0922367   0.0324112), wk =   0.0438957
        k(   58) = (   0.0461184   0.0922367   0.0648224), wk =   0.0438957
        k(   59) = (   0.0461184   0.0922367   0.0972337), wk =   0.0438957
        k(   60) = (   0.0461184   0.0922367   0.1296449), wk =   0.0438957
        k(   61) = (   0.0691775   0.0691775   0.0000000), wk =   0.0109739
        k(   62) = (   0.0691775   0.0691775   0.0324112), wk =   0.0219479
        k(   63) = (   0.0691775   0.0691775   0.0648224), wk =   0.0219479
        k(   64) = (   0.0691775   0.0691775   0.0972337), wk =   0.0219479
        k(   65) = (   0.0691775   0.0691775   0.1296449), wk =   0.0219479
        k(   66) = (   0.0691775   0.0922367   0.0000000), wk =   0.0219479
        k(   67) = (   0.0691775   0.0922367   0.0324112), wk =   0.0438957
        k(   68) = (   0.0691775   0.0922367   0.0648224), wk =   0.0438957
        k(   69) = (   0.0691775   0.0922367   0.0972337), wk =   0.0438957
        k(   70) = (   0.0691775   0.0922367   0.1296449), wk =   0.0438957
        k(   71) = (   0.0922367   0.0922367   0.0000000), wk =   0.0109739
        k(   72) = (   0.0922367   0.0922367   0.0324112), wk =   0.0219479
        k(   73) = (   0.0922367   0.0922367   0.0648224), wk =   0.0219479
        k(   74) = (   0.0922367   0.0922367   0.0972337), wk =   0.0219479
        k(   75) = (   0.0922367   0.0922367   0.1296449), wk =   0.0219479

     Largest allocated arrays     est. size (Mb)     dimensions
     Largest temporary arrays     est. size (Mb)     dimensions

     Initial potential from superposition of free atoms
     Check: negative starting charge=   -0.235527

     starting charge   57.99989, renormalised to   62.00000

     negative rho (up, down):  2.518E-01 0.000E+00

     *
     * You are using vdW-DF for exchange-correlation in this calculation.
     * Please cite the following three references that made this development
     * possible:
     *
     *   M. Dion, H. Rydberg, E. Schroder, D. C. Langreth, and
     *   B. I. Lundqvist, Phys. Rev. Lett. 92, 246401 (2004).
     *
     *   T. Thonhauser, V. R. Cooper, S. Li, A. Puzder, P. Hyldgaard, and
     *   D. C. Langreth, Phys. Rev. B 76, 125112 (2007).
     *
     *   G. Roman-Perez and J. M. Soler, Phys. Rev. Lett. 103, 096102 (2009).
     *
     *
     * If you are using vdW-DF2, please also cite:
     *
     *   K. Lee, E. D. Murray, L. Kong, B. I. Lundqvist, and
     *   D. C. Langreth, Phys. Rev. B 82, 081101(R) (2010).
     *
     *
     * If you are calculating the stress with vdW-DF, please also cite:
     *
     *   R. Sabatini, E. Kucukbenli, B. Kolb, T. Thonhauser, and
     *   S. de Gironcoli, J. Phys.: Condens. Matter 24, 424209 (2012).
     *

     Carrying out vdW-DF run using the following parameters:

     Nqs =      20    Nr_points =    1024   r_max =   100.000
     q_mesh =
               0.00001000     0.04494208     0.09755937     0.15916263
               0.23128650     0.31572767     0.41458969     0.53033537
               0.66584808     0.82450364     1.01025438     1.22772762
               1.48234092     1.78043706     2.12944203     2.53805004
               3.01644009     3.57652955     4.23227104     5.00000000

     Gradients computed in reciprocal space

     Starting wfc are   44 randomized atomic wfcs +    7 random wfc

     Self-consistent Calculation

     iteration #  1     ecut=    58.80 Ry     beta=0.10
     Davidson diagonalization with overlap
     ethr =  1.00E-02,  avg # of iterations =  5.5

[...]

     total energy              =    -765.14058884 Ry
     Harris-Foulkes estimate   =    -765.75425368 Ry
     estimated scf accuracy    <       3.91122845 Ry

[...]

     total energy              =    -764.51158246 Ry
     Harris-Foulkes estimate   =    -764.51156789 Ry
     estimated scf accuracy    <       0.00000124 Ry

     iteration # 11     ecut=    58.80 Ry     beta=0.10
     Davidson diagonalization with overlap
     ethr =  1.99E-09,  avg # of iterations =  2.0

     negative rho (up, down):  2.415E-01 0.000E+00

     End of self-consistent calculation

          k = 0.0000 0.0000 0.0000 (  4103 PWs)   bands (ev):

   -54.8727 -54.8681 -24.9102 -24.9102 -24.8684 -24.8684 -24.8636 -24.8557
    -6.0492  -6.0405  -5.9783  -5.9441  -5.9052  -5.9052  -5.8506  -5.8506
    -5.8505  -5.7629   3.8703   6.7474  13.3347  13.3347  14.7052  14.7109
    14.8839  16.0885  16.0885  16.7356  16.7356  16.7522  17.3824  17.5031
    18.5819  18.7229  18.7229  20.1000  21.3706  21.7790  26.5706  26.5706
    26.6172  26.6476  29.1359  29.8927  30.7801  30.8802  30.8802  32.6133
    32.6133  34.0612  34.1672

[...]

          k = 0.0922 0.0922 0.1296 (  4091 PWs)   bands (ev):

   -54.8684 -54.8683 -24.9106 -24.9094 -24.9012 -24.9009 -24.8624 -24.8611
    -5.9714  -5.9698  -5.9563  -5.9492  -5.9065  -5.9032  -5.9010  -5.8992
    -5.7728  -5.7682   6.6148   6.6939  13.0961  13.1066  13.3671  13.3738
    15.0041  15.0448  16.0551  16.1327  16.1565  16.2118  17.3287  17.4904
    17.4947  17.5243  20.1293  20.2237  21.8324  21.9730  26.4538  26.4685
    26.5482  26.7847  29.4871  29.5738  29.6103  29.6612  32.6568  32.8874
    32.9384  33.2053  34.9835

     the Fermi energy is    17.4583 ev

!    total energy              =    -764.51164436 Ry
     Harris-Foulkes estimate   =    -764.51158256 Ry
     estimated scf accuracy    <       0.00000043 Ry

     The total energy is the sum of the following terms:

     one-electron contribution =    -159.97169214 Ry
     hartree contribution      =     125.17450524 Ry
     xc contribution           =    -187.32500346 Ry
     ewald contribution        =    -542.37582929 Ry
     smearing contrib. (-TS)   =      -0.01362471 Ry

     convergence has been achieved in  11 iterations

     Forces acting on atoms (Ry/au):

     negative rho (up, down):  2.415E-01 0.000E+00
     atom    1 type  1   force =     0.00000000    0.00000000    0.00000000
     atom    2 type  1   force =     0.00000000    0.00000000    0.00000000
     atom    3 type  2   force =     0.00000000    0.00000000    0.00000000
     atom    4 type  2   force =     0.00000000    0.00000000    0.00000000

     Total force =     0.000000     Total SCF correction =     0.000000

     General routines

     Parallel routines

   This run was terminated on:  17:12:46  18Feb2018

   JOB DONE.