     Program PWSCF v.5.1rc2 starts on 14Nov2017 at 17:51:10

     Current dimensions of program PWSCF are:
     Max number of different atomic species (ntypx) = 10
     Max number of k-points (npk) =  40000
     Max angular momentum in pseudopotentials (lmaxx) =  3

     IMPORTANT: XC functional enforced from input :
     Exchange-correlation      = BEEF-VDW ( 1  4 27 13 2)
     Any further DFT definition will be discarded
     Please, verify this is what you really want

     Found symmetry operation: I + (  0.5000  0.5000  0.0000)
     This is a supercell, fractional translations are disabled

     bravais-lattice index     =            0
     lattice parameter (alat)  =       1.8897  a.u.
     unit-cell volume          =     442.8878 (a.u.)^3
     number of atoms/cell      =            4
     number of atomic types    =            2
     number of electrons       =        56.00
     number of Kohn-Sham states=           48
     kinetic-energy cutoff     =      58.7989  Ry
     charge density cutoff     =     587.9892  Ry
     convergence threshold     =      1.0E-06
     mixing beta               =       0.1000
     number of iterations used =           10  plain     mixing
     Exchange-correlation      = BEEF-VDW ( 1  4 27 13 2)

     celldm(1)=   1.889726  celldm(2)=   0.000000  celldm(3)=   0.000000
     celldm(4)=   0.000000  celldm(5)=   0.000000  celldm(6)=   0.000000

     crystal axes: (cart. coord. in units of alat)
               a(1) = (   4.524939   0.000000   0.000000 )
               a(2) = (   0.000000   4.524939   0.000000 )
               a(3) = (   0.000000   0.000000   3.205322 )

     reciprocal axes: (cart. coord. in units 2 pi/alat)
               b(1) = (  0.220997  0.000000  0.000000 )
               b(2) = (  0.000000  0.220997  0.000000 )
               b(3) = (  0.000000  0.000000  0.311981 )

     PseudoPot. # 1 for Nb read from file:
     /home/users/vossj/suncat/psp/gbrv1.5pbe/Nb.UPF
     MD5 check sum: 573aab8a2fa660278ed4a62cd769473f
     Pseudo is Ultrasoft + core correction, Zval = 13.0
     Generated by new atomic code, or converted to UPF format
     Using radial grid of  887 points,  6 beta functions with:
                l(1) =   0
                l(2) =   0
                l(3) =   1
                l(4) =   1
                l(5) =   2
                l(6) =   2
     Q(r) pseudized with  6 coefficients,  rinner =    1.000   1.000   1.000
                                                       1.000   1.000

     PseudoPot. # 2 for Re read from file:
     /home/users/vossj/suncat/psp/gbrv1.5pbe/Re.UPF
     MD5 check sum: 85f993410f3e006da9d71c142b4ad953
     Pseudo is Ultrasoft + core correction, Zval = 15.0
     Generated by new atomic code, or converted to UPF format
     Using radial grid of  981 points,  8 beta functions with:
                l(1) =   0
                l(2) =   0
                l(3) =   1
                l(4) =   1
                l(5) =   2
                l(6) =   2
                l(7) =   3
                l(8) =   3
     Q(r) pseudized with  8 coefficients,  rinner =    1.150   1.150   1.150
                                                       1.150   1.150   1.150
                                                       1.150

     vdW kernel table read from file vdW_kernel_table
     MD5 check sum: 095c7af220d748ca6e76c0b4c6cfb241

     atomic species   valence    mass     pseudopotential
        Nb1           13.00    92.90640     Nb( 1.00)
        Re1           15.00   186.20700     Re( 1.00)

     16 Sym. Ops., with inversion, found

   Cartesian axes

     site n.     atom                  positions (alat units)
         1           Nb1 tau(   1) = (   0.0000000   0.0000000   0.0000000  )
         2           Nb1 tau(   2) = (   2.2624695   2.2624695   0.0000000  )
         3           Re1 tau(   3) = (   2.2624695   0.0000000   1.6026609  )
         4           Re1 tau(   4) = (   0.0000000   2.2624695   1.6026609  )

     number of k points=    75  Fermi-Dirac smearing, width (Ry)=  0.0073
                       cart. coord. in units 2pi/alat
        k(    1) = (   0.0000000   0.0000000   0.0000000), wk =   0.0027435
        k(    2) = (   0.0000000   0.0000000   0.0346646), wk =   0.0054870
        k(    3) = (   0.0000000   0.0000000   0.0693291), wk =   0.0054870
        k(    4) = (   0.0000000   0.0000000   0.1039937), wk =   0.0054870
        k(    5) = (   0.0000000   0.0000000   0.1386583), wk =   0.0054870
        k(    6) = (   0.0000000   0.0245553   0.0000000), wk =   0.0109739
        k(    7) = (   0.0000000   0.0245553   0.0346646), wk =   0.0219479
        k(    8) = (   0.0000000   0.0245553   0.0693291), wk =   0.0219479
        k(    9) = (   0.0000000   0.0245553   0.1039937), wk =   0.0219479
        k(   10) = (   0.0000000   0.0245553   0.1386583), wk =   0.0219479
        k(   11) = (   0.0000000   0.0491105   0.0000000), wk =   0.0109739
        k(   12) = (   0.0000000   0.0491105   0.0346646), wk =   0.0219479
        k(   13) = (   0.0000000   0.0491105   0.0693291), wk =   0.0219479
        k(   14) = (   0.0000000   0.0491105   0.1039937), wk =   0.0219479
        k(   15) = (   0.0000000   0.0491105   0.1386583), wk =   0.0219479
        k(   16) = (   0.0000000   0.0736658   0.0000000), wk =   0.0109739
        k(   17) = (   0.0000000   0.0736658   0.0346646), wk =   0.0219479
        k(   18) = (   0.0000000   0.0736658   0.0693291), wk =   0.0219479
        k(   19) = (   0.0000000   0.0736658   0.1039937), wk =   0.0219479
        k(   20) = (   0.0000000   0.0736658   0.1386583), wk =   0.0219479
        k(   21) = (   0.0000000   0.0982211   0.0000000), wk =   0.0109739
        k(   22) = (   0.0000000   0.0982211   0.0346646), wk =   0.0219479
        k(   23) = (   0.0000000   0.0982211   0.0693291), wk =   0.0219479
        k(   24) = (   0.0000000   0.0982211   0.1039937), wk =   0.0219479
        k(   25) = (   0.0000000   0.0982211   0.1386583), wk =   0.0219479
        k(   26) = (   0.0245553   0.0245553   0.0000000), wk =   0.0109739
        k(   27) = (   0.0245553   0.0245553   0.0346646), wk =   0.0219479
        k(   28) = (   0.0245553   0.0245553   0.0693291), wk =   0.0219479
        k(   29) = (   0.0245553   0.0245553   0.1039937), wk =   0.0219479
        k(   30) = (   0.0245553   0.0245553   0.1386583), wk =   0.0219479
        k(   31) = (   0.0245553   0.0491105   0.0000000), wk =   0.0219479
        k(   32) = (   0.0245553   0.0491105   0.0346646), wk =   0.0438957
        k(   33) = (   0.0245553   0.0491105   0.0693291), wk =   0.0438957
        k(   34) = (   0.0245553   0.0491105   0.1039937), wk =   0.0438957
        k(   35) = (   0.0245553   0.0491105   0.1386583), wk =   0.0438957
        k(   36) = (   0.0245553   0.0736658   0.0000000), wk =   0.0219479
        k(   37) = (   0.0245553   0.0736658   0.0346646), wk =   0.0438957
        k(   38) = (   0.0245553   0.0736658   0.0693291), wk =   0.0438957
        k(   39) = (   0.0245553   0.0736658   0.1039937), wk =   0.0438957
        k(   40) = (   0.0245553   0.0736658   0.1386583), wk =   0.0438957
        k(   41) = (   0.0245553   0.0982211   0.0000000), wk =   0.0219479
        k(   42) = (   0.0245553   0.0982211   0.0346646), wk =   0.0438957
        k(   43) = (   0.0245553   0.0982211   0.0693291), wk =   0.0438957
        k(   44) = (   0.0245553   0.0982211   0.1039937), wk =   0.0438957
        k(   45) = (   0.0245553   0.0982211   0.1386583), wk =   0.0438957
        k(   46) = (   0.0491105   0.0491105   0.0000000), wk =   0.0109739
        k(   47) = (   0.0491105   0.0491105   0.0346646), wk =   0.0219479
        k(   48) = (   0.0491105   0.0491105   0.0693291), wk =   0.0219479
        k(   49) = (   0.0491105   0.0491105   0.1039937), wk =   0.0219479
        k(   50) = (   0.0491105   0.0491105   0.1386583), wk =   0.0219479
        k(   51) = (   0.0491105   0.0736658   0.0000000), wk =   0.0219479
        k(   52) = (   0.0491105   0.0736658   0.0346646), wk =   0.0438957
        k(   53) = (   0.0491105   0.0736658   0.0693291), wk =   0.0438957
        k(   54) = (   0.0491105   0.0736658   0.1039937), wk =   0.0438957
        k(   55) = (   0.0491105   0.0736658   0.1386583), wk =   0.0438957
        k(   56) = (   0.0491105   0.0982211   0.0000000), wk =   0.0219479
        k(   57) = (   0.0491105   0.0982211   0.0346646), wk =   0.0438957
        k(   58) = (   0.0491105   0.0982211   0.0693291), wk =   0.0438957
        k(   59) = (   0.0491105   0.0982211   0.1039937), wk =   0.0438957
        k(   60) = (   0.0491105   0.0982211   0.1386583), wk =   0.0438957
        k(   61) = (   0.0736658   0.0736658   0.0000000), wk =   0.0109739
        k(   62) = (   0.0736658   0.0736658   0.0346646), wk =   0.0219479
        k(   63) = (   0.0736658   0.0736658   0.0693291), wk =   0.0219479
        k(   64) = (   0.0736658   0.0736658   0.1039937), wk =   0.0219479
        k(   65) = (   0.0736658   0.0736658   0.1386583), wk =   0.0219479
        k(   66) = (   0.0736658   0.0982211   0.0000000), wk =   0.0219479
        k(   67) = (   0.0736658   0.0982211   0.0346646), wk =   0.0438957
        k(   68) = (   0.0736658   0.0982211   0.0693291), wk =   0.0438957
        k(   69) = (   0.0736658   0.0982211   0.1039937), wk =   0.0438957
        k(   70) = (   0.0736658   0.0982211   0.1386583), wk =   0.0438957
        k(   71) = (   0.0982211   0.0982211   0.0000000), wk =   0.0109739
        k(   72) = (   0.0982211   0.0982211   0.0346646), wk =   0.0219479
        k(   73) = (   0.0982211   0.0982211   0.0693291), wk =   0.0219479
        k(   74) = (   0.0982211   0.0982211   0.1039937), wk =   0.0219479
        k(   75) = (   0.0982211   0.0982211   0.1386583), wk =   0.0219479

     Largest allocated arrays     est. size (Mb)     dimensions
     Largest temporary arrays     est. size (Mb)     dimensions

     Initial potential from superposition of free atoms
     Check: negative starting charge=   -0.257144

     starting charge   54.99444, renormalised to   56.00000

     negative rho (up, down):  2.618E-01 0.000E+00

     *
     * You are using vdW-DF for exchange-correlation in this calculation.
     * Please cite the following three references that made this development
     * possible:
     *
     *   M. Dion, H. Rydberg, E. Schroder, D. C. Langreth, and
     *   B. I. Lundqvist, Phys. Rev. Lett. 92, 246401 (2004).
     *
     *   T. Thonhauser, V. R. Cooper, S. Li, A. Puzder, P. Hyldgaard, and
     *   D. C. Langreth, Phys. Rev. B 76, 125112 (2007).
     *
     *   G. Roman-Perez and J. M. Soler, Phys. Rev. Lett. 103, 096102 (2009).
     *
     *
     * If you are using vdW-DF2, please also cite:
     *
     *   K. Lee, E. D. Murray, L. Kong, B. I. Lundqvist, and
     *   D. C. Langreth, Phys. Rev. B 82, 081101(R) (2010).
     *
     *
     * If you are calculating the stress with vdW-DF, please also cite:
     *
     *   R. Sabatini, E. Kucukbenli, B. Kolb, T. Thonhauser, and
     *   S. de Gironcoli, J. Phys.: Condens. Matter 24, 424209 (2012).
     *

     Carrying out vdW-DF run using the following parameters:

     Nqs =      20    Nr_points =    1024   r_max =   100.000
     q_mesh =
               0.00001000     0.04494208     0.09755937     0.15916263
               0.23128650     0.31572767     0.41458969     0.53033537
               0.66584808     0.82450364     1.01025438     1.22772762
               1.48234092     1.78043706     2.12944203     2.53805004
               3.01644009     3.57652955     4.23227104     5.00000000

     Gradients computed in reciprocal space

     Starting wfc are   52 randomized atomic wfcs

     Self-consistent Calculation

     iteration #  1     ecut=    58.80 Ry     beta=0.10
     Davidson diagonalization with overlap
     ethr =  1.00E-02,  avg # of iterations =  4.7

[...]

     total energy              =    -621.76186978 Ry
     Harris-Foulkes estimate   =    -621.97141590 Ry
     estimated scf accuracy    <       1.32995907 Ry

[...]

     total energy              =    -621.66592905 Ry
     Harris-Foulkes estimate   =    -621.66594131 Ry
     estimated scf accuracy    <       0.00005862 Ry

     iteration # 10     ecut=    58.80 Ry     beta=0.10
     Davidson diagonalization with overlap
     ethr =  2.89E-08,  avg # of iterations =  1.4

     negative rho (up, down):  2.743E-01 0.000E+00

     End of self-consistent calculation

          k = 0.0000 0.0000 0.0000 (  3411 PWs)   bands (ev):

   -59.4981 -59.4886 -34.4013 -34.3469 -21.2845 -21.2845 -21.1563 -21.1516
   -21.1516 -21.1234 -10.5233 -10.5233 -10.2490 -10.2480 -10.2480 -10.2118
    12.7518  15.0862  15.6143  15.6201  15.7672  17.6263  17.6263  19.6715
    19.6715  19.6929  22.0913  22.0913  22.3882  22.8266  22.9514  22.9788
    23.2941  24.4776  25.4638  25.4703  25.4703  26.2334  26.2334  29.3343
    29.3808  29.3808  30.8539  32.5045  32.5045  33.1136  35.3405  35.3732

[...]

          k = 0.0982 0.0982 0.1387 (  3352 PWs)   bands (ev):

   -59.4890 -59.4887 -34.3494 -34.3476 -21.2835 -21.2822 -21.2814 -21.2794
   -21.1236 -21.1198 -10.5279 -10.5204 -10.5127 -10.5118 -10.2230 -10.2136
    15.1608  15.2000  15.8425  15.8675  17.6879  17.6887  17.6982  17.7826
    21.2623  21.4143  21.4947  21.7118  22.4104  22.4590  23.1229  23.1324
    23.2060  23.2756  24.5664  24.7856  25.8907  26.2035  26.3205  26.3570
    30.8201  31.0170  32.6895  32.7136  32.7213  32.8287  33.1793  33.3910

     the Fermi energy is    20.9399 ev

!    total energy              =    -621.66595036 Ry
     Harris-Foulkes estimate   =    -621.66593520 Ry
     estimated scf accuracy    <       0.00000049 Ry

     The total energy is the sum of the following terms:

     one-electron contribution =     -71.75644004 Ry
     hartree contribution      =      69.64680551 Ry
     xc contribution           =    -146.60970907 Ry
     ewald contribution        =    -472.94307157 Ry
     smearing contrib. (-TS)   =      -0.00353520 Ry

     convergence has been achieved in  10 iterations

     Forces acting on atoms (Ry/au):

     negative rho (up, down):  2.743E-01 0.000E+00
     atom    1 type  1   force =     0.00000000    0.00000000    0.00000000
     atom    2 type  1   force =     0.00000000    0.00000000    0.00000000
     atom    3 type  2   force =     0.00000000    0.00000000    0.00000000
     atom    4 type  2   force =     0.00000000    0.00000000    0.00000000

     Total force =     0.000000     Total SCF correction =     0.000000

     General routines

     Parallel routines

   This run was terminated on:  17:51:46  14Nov2017

   JOB DONE.