     Program PWSCF v.5.1rc2 starts on 14Nov2017 at 14:22:30

     Current dimensions of program PWSCF are:
     Max number of different atomic species (ntypx) = 10
     Max number of k-points (npk) =  40000
     Max angular momentum in pseudopotentials (lmaxx) =  3

     IMPORTANT: XC functional enforced from input :
     Exchange-correlation      = BEEF-VDW ( 1  4 27 13 2)
     Any further DFT definition will be discarded
     Please, verify this is what you really want

     Found symmetry operation: I + ( -0.5000 -0.5000  0.0000)
     This is a supercell, fractional translations are disabled

     bravais-lattice index     =            0
     lattice parameter (alat)  =       1.8897  a.u.
     unit-cell volume          =     612.7983 (a.u.)^3
     number of atoms/cell      =            4
     number of atomic types    =            2
     number of electrons       =        48.00
     number of Kohn-Sham states=           44
     kinetic-energy cutoff     =      58.7989  Ry
     charge density cutoff     =     587.9892  Ry
     convergence threshold     =      1.0E-06
     mixing beta               =       0.1000
     number of iterations used =           10  plain     mixing
     Exchange-correlation      = BEEF-VDW ( 1  4 27 13 2)

     celldm(1)=   1.889726  celldm(2)=   0.000000  celldm(3)=   0.000000
     celldm(4)=   0.000000  celldm(5)=   0.000000  celldm(6)=   0.000000

     crystal axes: (cart. coord. in units of alat)
               a(1) = (   5.120349   0.000000   0.000000 )
               a(2) = (   0.000000   5.120349   0.000000 )
               a(3) = (   0.000000   0.000000   3.463553 )

     reciprocal axes: (cart. coord. in units 2 pi/alat)
               b(1) = (  0.195299  0.000000  0.000000 )
               b(2) = (  0.000000  0.195299  0.000000 )
               b(3) = (  0.000000  0.000000  0.288721 )

     PseudoPot. # 1 for In read from file:
     /home/users/vossj/suncat/psp/gbrv1.5pbe/In.UPF
     MD5 check sum: 90777abd96fbb83f2e67db2a40c566b9
     Pseudo is Ultrasoft + core correction, Zval = 13.0
     Generated by new atomic code, or converted to UPF format
     Using radial grid of  889 points,  6 beta functions with:
                l(1) =   0
                l(2) =   0
                l(3) =   1
                l(4) =   1
                l(5) =   2
                l(6) =   2
     Q(r) pseudized with  6 coefficients,  rinner =    1.400   1.400   1.400
                                                       1.400   1.400

     PseudoPot. # 2 for Au read from file:
     /home/users/vossj/suncat/psp/gbrv1.5pbe/Au.UPF
     MD5 check sum: 9d7f43293ad2c663164586bc4b293ffc
     Pseudo is Ultrasoft + core correction, Zval = 11.0
     Generated by new atomic code, or converted to UPF format
     Using radial grid of  985 points,  7 beta functions with:
                l(1) =   0
                l(2) =   0
                l(3) =   1
                l(4) =   1
                l(5) =   2
                l(6) =   2
                l(7) =   3
     Q(r) pseudized with  6 coefficients,  rinner =    1.900   1.900   1.900
                                                       1.900   1.900   1.900
                                                       1.900

     vdW kernel table read from file vdW_kernel_table
     MD5 check sum: 095c7af220d748ca6e76c0b4c6cfb241

     atomic species   valence    mass     pseudopotential
        In1           13.00   114.82000     In( 1.00)
        Au1           11.00   196.96650     Au( 1.00)

     16 Sym. Ops., with inversion, found

   Cartesian axes

     site n.     atom                  positions (alat units)
         1           In1 tau(   1) = (   0.0000000   0.0000000   0.0000000  )
         2           In1 tau(   2) = (   2.5601743   2.5601743   0.0000000  )
         3           Au1 tau(   3) = (   2.5601743   0.0000000   1.7317766  )
         4           Au1 tau(   4) = (   0.0000000   2.5601743   1.7317766  )

     number of k points=    75  Fermi-Dirac smearing, width (Ry)=  0.0073
                       cart. coord. in units 2pi/alat
        k(    1) = (   0.0000000   0.0000000   0.0000000), wk =   0.0027435
        k(    2) = (   0.0000000   0.0000000   0.0320801), wk =   0.0054870
        k(    3) = (   0.0000000   0.0000000   0.0641602), wk =   0.0054870
        k(    4) = (   0.0000000   0.0000000   0.0962403), wk =   0.0054870
        k(    5) = (   0.0000000   0.0000000   0.1283204), wk =   0.0054870
        k(    6) = (   0.0000000   0.0216999   0.0000000), wk =   0.0109739
        k(    7) = (   0.0000000   0.0216999   0.0320801), wk =   0.0219479
        k(    8) = (   0.0000000   0.0216999   0.0641602), wk =   0.0219479
        k(    9) = (   0.0000000   0.0216999   0.0962403), wk =   0.0219479
        k(   10) = (   0.0000000   0.0216999   0.1283204), wk =   0.0219479
        k(   11) = (   0.0000000   0.0433998   0.0000000), wk =   0.0109739
        k(   12) = (   0.0000000   0.0433998   0.0320801), wk =   0.0219479
        k(   13) = (   0.0000000   0.0433998   0.0641602), wk =   0.0219479
        k(   14) = (   0.0000000   0.0433998   0.0962403), wk =   0.0219479
        k(   15) = (   0.0000000   0.0433998   0.1283204), wk =   0.0219479
        k(   16) = (   0.0000000   0.0650997   0.0000000), wk =   0.0109739
        k(   17) = (   0.0000000   0.0650997   0.0320801), wk =   0.0219479
        k(   18) = (   0.0000000   0.0650997   0.0641602), wk =   0.0219479
        k(   19) = (   0.0000000   0.0650997   0.0962403), wk =   0.0219479
        k(   20) = (   0.0000000   0.0650997   0.1283204), wk =   0.0219479
        k(   21) = (   0.0000000   0.0867996   0.0000000), wk =   0.0109739
        k(   22) = (   0.0000000   0.0867996   0.0320801), wk =   0.0219479
        k(   23) = (   0.0000000   0.0867996   0.0641602), wk =   0.0219479
        k(   24) = (   0.0000000   0.0867996   0.0962403), wk =   0.0219479
        k(   25) = (   0.0000000   0.0867996   0.1283204), wk =   0.0219479
        k(   26) = (   0.0216999   0.0216999   0.0000000), wk =   0.0109739
        k(   27) = (   0.0216999   0.0216999   0.0320801), wk =   0.0219479
        k(   28) = (   0.0216999   0.0216999   0.0641602), wk =   0.0219479
        k(   29) = (   0.0216999   0.0216999   0.0962403), wk =   0.0219479
        k(   30) = (   0.0216999   0.0216999   0.1283204), wk =   0.0219479
        k(   31) = (   0.0216999   0.0433998   0.0000000), wk =   0.0219479
        k(   32) = (   0.0216999   0.0433998   0.0320801), wk =   0.0438957
        k(   33) = (   0.0216999   0.0433998   0.0641602), wk =   0.0438957
        k(   34) = (   0.0216999   0.0433998   0.0962403), wk =   0.0438957
        k(   35) = (   0.0216999   0.0433998   0.1283204), wk =   0.0438957
        k(   36) = (   0.0216999   0.0650997   0.0000000), wk =   0.0219479
        k(   37) = (   0.0216999   0.0650997   0.0320801), wk =   0.0438957
        k(   38) = (   0.0216999   0.0650997   0.0641602), wk =   0.0438957
        k(   39) = (   0.0216999   0.0650997   0.0962403), wk =   0.0438957
        k(   40) = (   0.0216999   0.0650997   0.1283204), wk =   0.0438957
        k(   41) = (   0.0216999   0.0867996   0.0000000), wk =   0.0219479
        k(   42) = (   0.0216999   0.0867996   0.0320801), wk =   0.0438957
        k(   43) = (   0.0216999   0.0867996   0.0641602), wk =   0.0438957
        k(   44) = (   0.0216999   0.0867996   0.0962403), wk =   0.0438957
        k(   45) = (   0.0216999   0.0867996   0.1283204), wk =   0.0438957
        k(   46) = (   0.0433998   0.0433998   0.0000000), wk =   0.0109739
        k(   47) = (   0.0433998   0.0433998   0.0320801), wk =   0.0219479
        k(   48) = (   0.0433998   0.0433998   0.0641602), wk =   0.0219479
        k(   49) = (   0.0433998   0.0433998   0.0962403), wk =   0.0219479
        k(   50) = (   0.0433998   0.0433998   0.1283204), wk =   0.0219479
        k(   51) = (   0.0433998   0.0650997   0.0000000), wk =   0.0219479
        k(   52) = (   0.0433998   0.0650997   0.0320801), wk =   0.0438957
        k(   53) = (   0.0433998   0.0650997   0.0641602), wk =   0.0438957
        k(   54) = (   0.0433998   0.0650997   0.0962403), wk =   0.0438957
        k(   55) = (   0.0433998   0.0650997   0.1283204), wk =   0.0438957
        k(   56) = (   0.0433998   0.0867996   0.0000000), wk =   0.0219479
        k(   57) = (   0.0433998   0.0867996   0.0320801), wk =   0.0438957
        k(   58) = (   0.0433998   0.0867996   0.0641602), wk =   0.0438957
        k(   59) = (   0.0433998   0.0867996   0.0962403), wk =   0.0438957
        k(   60) = (   0.0433998   0.0867996   0.1283204), wk =   0.0438957
        k(   61) = (   0.0650997   0.0650997   0.0000000), wk =   0.0109739
        k(   62) = (   0.0650997   0.0650997   0.0320801), wk =   0.0219479
        k(   63) = (   0.0650997   0.0650997   0.0641602), wk =   0.0219479
        k(   64) = (   0.0650997   0.0650997   0.0962403), wk =   0.0219479
        k(   65) = (   0.0650997   0.0650997   0.1283204), wk =   0.0219479
        k(   66) = (   0.0650997   0.0867996   0.0000000), wk =   0.0219479
        k(   67) = (   0.0650997   0.0867996   0.0320801), wk =   0.0438957
        k(   68) = (   0.0650997   0.0867996   0.0641602), wk =   0.0438957
        k(   69) = (   0.0650997   0.0867996   0.0962403), wk =   0.0438957
        k(   70) = (   0.0650997   0.0867996   0.1283204), wk =   0.0438957
        k(   71) = (   0.0867996   0.0867996   0.0000000), wk =   0.0109739
        k(   72) = (   0.0867996   0.0867996   0.0320801), wk =   0.0219479
        k(   73) = (   0.0867996   0.0867996   0.0641602), wk =   0.0219479
        k(   74) = (   0.0867996   0.0867996   0.0962403), wk =   0.0219479
        k(   75) = (   0.0867996   0.0867996   0.1283204), wk =   0.0219479

     Largest allocated arrays     est. size (Mb)     dimensions
     Largest temporary arrays     est. size (Mb)     dimensions

     Initial potential from superposition of free atoms

     starting charge   44.99975, renormalised to   48.00000

     *
     * You are using vdW-DF for exchange-correlation in this calculation.
     * Please cite the following three references that made this development
     * possible:
     *
     *   M. Dion, H. Rydberg, E. Schroder, D. C. Langreth, and
     *   B. I. Lundqvist, Phys. Rev. Lett. 92, 246401 (2004).
     *
     *   T. Thonhauser, V. R. Cooper, S. Li, A. Puzder, P. Hyldgaard, and
     *   D. C. Langreth, Phys. Rev. B 76, 125112 (2007).
     *
     *   G. Roman-Perez and J. M. Soler, Phys. Rev. Lett. 103, 096102 (2009).
     *
     *
     * If you are using vdW-DF2, please also cite:
     *
     *   K. Lee, E. D. Murray, L. Kong, B. I. Lundqvist, and
     *   D. C. Langreth, Phys. Rev. B 82, 081101(R) (2010).
     *
     *
     * If you are calculating the stress with vdW-DF, please also cite:
     *
     *   R. Sabatini, E. Kucukbenli, B. Kolb, T. Thonhauser, and
     *   S. de Gironcoli, J. Phys.: Condens. Matter 24, 424209 (2012).
     *

     Carrying out vdW-DF run using the following parameters:

     Nqs =      20    Nr_points =    1024   r_max =   100.000
     q_mesh =
               0.00001000     0.04494208     0.09755937     0.15916263
               0.23128650     0.31572767     0.41458969     0.53033537
               0.66584808     0.82450364     1.01025438     1.22772762
               1.48234092     1.78043706     2.12944203     2.53805004
               3.01644009     3.57652955     4.23227104     5.00000000

     Gradients computed in reciprocal space

     Starting wfc are   36 randomized atomic wfcs +    8 random wfc

     Self-consistent Calculation

     iteration #  1     ecut=    58.80 Ry     beta=0.10
     Davidson diagonalization with overlap
     ethr =  1.00E-02,  avg # of iterations =  5.3

     total energy              =    -503.59524307 Ry
     Harris-Foulkes estimate   =    -504.18736046 Ry
     estimated scf accuracy    <       3.66025035 Ry

[...]

     total energy              =    -503.06065966 Ry
     Harris-Foulkes estimate   =    -503.06066416 Ry
     estimated scf accuracy    <       0.00000957 Ry

     iteration # 11     ecut=    58.80 Ry     beta=0.10
     Davidson diagonalization with overlap
     ethr =  1.99E-08,  avg # of iterations =  2.0

     End of self-consistent calculation

          k = 0.0000 0.0000 0.0000 (  4659 PWs)   bands (ev):

    -3.6613  -3.6247  -3.6069  -3.5823  -3.4983  -3.4983  -3.4624  -3.4480
    -3.4480  -3.3764   2.1835   5.0867   6.6529   6.7122   6.7312   7.4719
     7.4719   7.6309   7.7116   7.7116   8.0172   9.2791   9.2791  10.3170
    10.6579  14.2118  14.2118  15.2457  15.3436  19.1510  20.1138  20.6653
    21.6377  21.6377  22.6445  24.6056  25.6388  25.6388  26.3953  26.3953
    26.4561  26.5867  26.6390  27.0733

[...]

          k = 0.0868 0.0868 0.1283 (  4688 PWs)   bands (ev):

    -3.6159  -3.6140  -3.5361  -3.5301  -3.5284  -3.5264  -3.5143  -3.5107
    -3.3649  -3.3610   5.2576   5.2787   6.8310   6.8889   7.2897   7.3099
     7.3403   7.3882   7.9777   8.0603   8.6673   9.2444   9.3016   9.6506
    10.8119  11.1691  11.2041  11.8137  18.1908  18.4307  20.5817  20.5998
    20.6765  20.9932  21.4836  21.5776  24.2939  24.4182  25.6610  25.8997
    26.1142  26.1796  26.6284  26.6378

     the Fermi energy is    11.3395 ev

!    total energy              =    -503.06067218 Ry
     Harris-Foulkes estimate   =    -503.06066154 Ry
     estimated scf accuracy    <       0.00000006 Ry

     The total energy is the sum of the following terms:

     one-electron contribution =     -65.56570191 Ry
     hartree contribution      =      80.98831780 Ry
     xc contribution           =    -206.35345961 Ry
     ewald contribution        =    -312.12680871 Ry
     smearing contrib. (-TS)   =      -0.00301974 Ry

     convergence has been achieved in  11 iterations

     Forces acting on atoms (Ry/au):

     atom    1 type  1   force =     0.00000000    0.00000000    0.00000000
     atom    2 type  1   force =     0.00000000    0.00000000    0.00000000
     atom    3 type  2   force =     0.00000000    0.00000000    0.00000000
     atom    4 type  2   force =     0.00000000    0.00000000    0.00000000

     Total force =     0.000000     Total SCF correction =     0.000000

     General routines

     Parallel routines

   This run was terminated on:  14:23:14  14Nov2017

   JOB DONE.