     Program PWSCF v.5.1rc2 starts on 14Nov2017 at 13:23: 3

     Current dimensions of program PWSCF are:
     Max number of different atomic species (ntypx) = 10
     Max number of k-points (npk) =  40000
     Max angular momentum in pseudopotentials (lmaxx) =  3

     IMPORTANT: XC functional enforced from input :
     Exchange-correlation      = BEEF-VDW ( 1  4 27 13 2)
     Any further DFT definition will be discarded
     Please, verify this is what you really want

     Found symmetry operation: I + ( -0.5000 -0.5000  0.0000)
     This is a supercell, fractional translations are disabled

     bravais-lattice index     =            0
     lattice parameter (alat)  =       1.8897  a.u.
     unit-cell volume          =     450.9502 (a.u.)^3
     number of atoms/cell      =            4
     number of atomic types    =            2
     number of electrons       =        64.00
     number of Kohn-Sham states=           52
     kinetic-energy cutoff     =      58.7989  Ry
     charge density cutoff     =     587.9892  Ry
     convergence threshold     =      1.0E-06
     mixing beta               =       0.1000
     number of iterations used =           10  plain     mixing
     Exchange-correlation      = BEEF-VDW ( 1  4 27 13 2)

     celldm(1)=   1.889726  celldm(2)=   0.000000  celldm(3)=   0.000000
     celldm(4)=   0.000000  celldm(5)=   0.000000  celldm(6)=   0.000000

     crystal axes: (cart. coord. in units of alat)
               a(1) = (   4.028882   0.000000   0.000000 )
               a(2) = (   0.000000   4.028882   0.000000 )
               a(3) = (   0.000000   0.000000   4.116829 )

     reciprocal axes: (cart. coord. in units 2 pi/alat)
               b(1) = (  0.248208  0.000000  0.000000 )
               b(2) = (  0.000000  0.248208  0.000000 )
               b(3) = (  0.000000  0.000000  0.242905 )

     PseudoPot. # 1 for Ga read from file:
     /home/users/vossj/suncat/psp/gbrv1.5pbe/Ga.UPF
     MD5 check sum: ccd671392a58a050fbb373893b4fcd66
     Pseudo is Ultrasoft + core correction, Zval = 19.0
     Generated by new atomic code, or converted to UPF format
     Using radial grid of  871 points,  6 beta functions with:
                l(1) =   0
                l(2) =   0
                l(3) =   1
                l(4) =   1
                l(5) =   2
                l(6) =   2
     Q(r) pseudized with  8 coefficients,  rinner =    1.250   1.250   1.250
                                                       1.250   1.250

     PseudoPot. # 2 for Nb read from file:
     /home/users/vossj/suncat/psp/gbrv1.5pbe/Nb.UPF
     MD5 check sum: 573aab8a2fa660278ed4a62cd769473f
     Pseudo is Ultrasoft + core correction, Zval = 13.0
     Generated by new atomic code, or converted to UPF format
     Using radial grid of  887 points,  6 beta functions with:
                l(1) =   0
                l(2) =   0
                l(3) =   1
                l(4) =   1
                l(5) =   2
                l(6) =   2
     Q(r) pseudized with  6 coefficients,  rinner =    1.000   1.000   1.000
                                                       1.000   1.000

     vdW kernel table read from file vdW_kernel_table
     MD5 check sum: 095c7af220d748ca6e76c0b4c6cfb241

     atomic species   valence    mass     pseudopotential
        Ga1           19.00    69.72300     Ga( 1.00)
        Nb1           13.00    92.90640     Nb( 1.00)

     16 Sym. Ops., with inversion, found

   Cartesian axes

     site n.     atom                  positions (alat units)
         1           Ga1 tau(   1) = (   0.0000000   0.0000000   0.0000000  )
         2           Ga1 tau(   2) = (   2.0144410   2.0144410   0.0000000  )
         3           Nb1 tau(   3) = (   2.0144410   0.0000000   2.0584147  )
         4           Nb1 tau(   4) = (   0.0000000   2.0144410   2.0584147  )

     number of k points=    75  Fermi-Dirac smearing, width (Ry)=  0.0073
                       cart. coord. in units 2pi/alat
        k(    1) = (   0.0000000   0.0000000   0.0000000), wk =   0.0027435
        k(    2) = (   0.0000000   0.0000000   0.0269895), wk =   0.0054870
        k(    3) = (   0.0000000   0.0000000   0.0539790), wk =   0.0054870
        k(    4) = (   0.0000000   0.0000000   0.0809685), wk =   0.0054870
        k(    5) = (   0.0000000   0.0000000   0.1079579), wk =   0.0054870
        k(    6) = (   0.0000000   0.0275786   0.0000000), wk =   0.0109739
        k(    7) = (   0.0000000   0.0275786   0.0269895), wk =   0.0219479
        k(    8) = (   0.0000000   0.0275786   0.0539790), wk =   0.0219479
        k(    9) = (   0.0000000   0.0275786   0.0809685), wk =   0.0219479
        k(   10) = (   0.0000000   0.0275786   0.1079579), wk =   0.0219479
        k(   11) = (   0.0000000   0.0551573   0.0000000), wk =   0.0109739
        k(   12) = (   0.0000000   0.0551573   0.0269895), wk =   0.0219479
        k(   13) = (   0.0000000   0.0551573   0.0539790), wk =   0.0219479
        k(   14) = (   0.0000000   0.0551573   0.0809685), wk =   0.0219479
        k(   15) = (   0.0000000   0.0551573   0.1079579), wk =   0.0219479
        k(   16) = (   0.0000000   0.0827359   0.0000000), wk =   0.0109739
        k(   17) = (   0.0000000   0.0827359   0.0269895), wk =   0.0219479
        k(   18) = (   0.0000000   0.0827359   0.0539790), wk =   0.0219479
        k(   19) = (   0.0000000   0.0827359   0.0809685), wk =   0.0219479
        k(   20) = (   0.0000000   0.0827359   0.1079579), wk =   0.0219479
        k(   21) = (   0.0000000   0.1103146   0.0000000), wk =   0.0109739
        k(   22) = (   0.0000000   0.1103146   0.0269895), wk =   0.0219479
        k(   23) = (   0.0000000   0.1103146   0.0539790), wk =   0.0219479
        k(   24) = (   0.0000000   0.1103146   0.0809685), wk =   0.0219479
        k(   25) = (   0.0000000   0.1103146   0.1079579), wk =   0.0219479
        k(   26) = (   0.0275786   0.0275786   0.0000000), wk =   0.0109739
        k(   27) = (   0.0275786   0.0275786   0.0269895), wk =   0.0219479
        k(   28) = (   0.0275786   0.0275786   0.0539790), wk =   0.0219479
        k(   29) = (   0.0275786   0.0275786   0.0809685), wk =   0.0219479
        k(   30) = (   0.0275786   0.0275786   0.1079579), wk =   0.0219479
        k(   31) = (   0.0275786   0.0551573   0.0000000), wk =   0.0219479
        k(   32) = (   0.0275786   0.0551573   0.0269895), wk =   0.0438957
        k(   33) = (   0.0275786   0.0551573   0.0539790), wk =   0.0438957
        k(   34) = (   0.0275786   0.0551573   0.0809685), wk =   0.0438957
        k(   35) = (   0.0275786   0.0551573   0.1079579), wk =   0.0438957
        k(   36) = (   0.0275786   0.0827359   0.0000000), wk =   0.0219479
        k(   37) = (   0.0275786   0.0827359   0.0269895), wk =   0.0438957
        k(   38) = (   0.0275786   0.0827359   0.0539790), wk =   0.0438957
        k(   39) = (   0.0275786   0.0827359   0.0809685), wk =   0.0438957
        k(   40) = (   0.0275786   0.0827359   0.1079579), wk =   0.0438957
        k(   41) = (   0.0275786   0.1103146   0.0000000), wk =   0.0219479
        k(   42) = (   0.0275786   0.1103146   0.0269895), wk =   0.0438957
        k(   43) = (   0.0275786   0.1103146   0.0539790), wk =   0.0438957
        k(   44) = (   0.0275786   0.1103146   0.0809685), wk =   0.0438957
        k(   45) = (   0.0275786   0.1103146   0.1079579), wk =   0.0438957
        k(   46) = (   0.0551573   0.0551573   0.0000000), wk =   0.0109739
        k(   47) = (   0.0551573   0.0551573   0.0269895), wk =   0.0219479
        k(   48) = (   0.0551573   0.0551573   0.0539790), wk =   0.0219479
        k(   49) = (   0.0551573   0.0551573   0.0809685), wk =   0.0219479
        k(   50) = (   0.0551573   0.0551573   0.1079579), wk =   0.0219479
        k(   51) = (   0.0551573   0.0827359   0.0000000), wk =   0.0219479
        k(   52) = (   0.0551573   0.0827359   0.0269895), wk =   0.0438957
        k(   53) = (   0.0551573   0.0827359   0.0539790), wk =   0.0438957
        k(   54) = (   0.0551573   0.0827359   0.0809685), wk =   0.0438957
        k(   55) = (   0.0551573   0.0827359   0.1079579), wk =   0.0438957
        k(   56) = (   0.0551573   0.1103146   0.0000000), wk =   0.0219479
        k(   57) = (   0.0551573   0.1103146   0.0269895), wk =   0.0438957
        k(   58) = (   0.0551573   0.1103146   0.0539790), wk =   0.0438957
        k(   59) = (   0.0551573   0.1103146   0.0809685), wk =   0.0438957
        k(   60) = (   0.0551573   0.1103146   0.1079579), wk =   0.0438957
        k(   61) = (   0.0827359   0.0827359   0.0000000), wk =   0.0109739
        k(   62) = (   0.0827359   0.0827359   0.0269895), wk =   0.0219479
        k(   63) = (   0.0827359   0.0827359   0.0539790), wk =   0.0219479
        k(   64) = (   0.0827359   0.0827359   0.0809685), wk =   0.0219479
        k(   65) = (   0.0827359   0.0827359   0.1079579), wk =   0.0219479
        k(   66) = (   0.0827359   0.1103146   0.0000000), wk =   0.0219479
        k(   67) = (   0.0827359   0.1103146   0.0269895), wk =   0.0438957
        k(   68) = (   0.0827359   0.1103146   0.0539790), wk =   0.0438957
        k(   69) = (   0.0827359   0.1103146   0.0809685), wk =   0.0438957
        k(   70) = (   0.0827359   0.1103146   0.1079579), wk =   0.0438957
        k(   71) = (   0.1103146   0.1103146   0.0000000), wk =   0.0109739
        k(   72) = (   0.1103146   0.1103146   0.0269895), wk =   0.0219479
        k(   73) = (   0.1103146   0.1103146   0.0539790), wk =   0.0219479
        k(   74) = (   0.1103146   0.1103146   0.0809685), wk =   0.0219479
        k(   75) = (   0.1103146   0.1103146   0.1079579), wk =   0.0219479

     Largest allocated arrays     est. size (Mb)     dimensions
     Largest temporary arrays     est. size (Mb)     dimensions

     Initial potential from superposition of free atoms

     starting charge   61.99453, renormalised to   64.00000

     *
     * You are using vdW-DF for exchange-correlation in this calculation.
     * Please cite the following three references that made this development
     * possible:
     *
     *   M. Dion, H. Rydberg, E. Schroder, D. C. Langreth, and
     *   B. I. Lundqvist, Phys. Rev. Lett. 92, 246401 (2004).
     *
     *   T. Thonhauser, V. R. Cooper, S. Li, A. Puzder, P. Hyldgaard, and
     *   D. C. Langreth, Phys. Rev. B 76, 125112 (2007).
     *
     *   G. Roman-Perez and J. M. Soler, Phys. Rev. Lett. 103, 096102 (2009).
     *
     *
     * If you are using vdW-DF2, please also cite:
     *
     *   K. Lee, E. D. Murray, L. Kong, B. I. Lundqvist, and
     *   D. C. Langreth, Phys. Rev. B 82, 081101(R) (2010).
     *
     *
     * If you are calculating the stress with vdW-DF, please also cite:
     *
     *   R. Sabatini, E. Kucukbenli, B. Kolb, T. Thonhauser, and
     *   S. de Gironcoli, J. Phys.: Condens. Matter 24, 424209 (2012).
     *

     Carrying out vdW-DF run using the following parameters:

     Nqs =      20    Nr_points =    1024   r_max =   100.000
     q_mesh =
               0.00001000     0.04494208     0.09755937     0.15916263
               0.23128650     0.31572767     0.41458969     0.53033537
               0.66584808     0.82450364     1.01025438     1.22772762
               1.48234092     1.78043706     2.12944203     2.53805004
               3.01644009     3.57652955     4.23227104     5.00000000

     Gradients computed in reciprocal space

     Starting wfc are   50 randomized atomic wfcs +    2 random wfc

     Self-consistent Calculation

     iteration #  1     ecut=    58.80 Ry     beta=0.10
     Davidson diagonalization with overlap
     ethr =  1.00E-02,  avg # of iterations =  4.5

     total energy              =   -1070.94429590 Ry
     Harris-Foulkes estimate   =   -1071.83366948 Ry
     estimated scf accuracy    <       5.18798753 Ry

[...]

     total energy              =   -1070.41846191 Ry
     Harris-Foulkes estimate   =   -1070.41846230 Ry
     estimated scf accuracy    <       0.00000582 Ry

     iteration # 12     ecut=    58.80 Ry     beta=0.10
     Davidson diagonalization with overlap
     ethr =  9.09E-09,  avg # of iterations =  2.1

     End of self-consistent calculation

          k = 0.0000 0.0000 0.0000 (  3439 PWs)   bands (ev):

   -78.2680 -78.2680 -78.2644 -78.2644 -78.2170 -78.2165 -38.9533 -38.7409
   -15.2583 -15.2583 -15.0818 -14.8566 -14.4535 -14.4535   1.1451   1.2006
     1.3053   1.3122   1.3122   1.4618   1.4618   1.4850   1.5035   1.6276
     6.0875  11.1795  13.4020  13.8268  15.4106  15.4106  15.4971  15.4971
    15.7678  16.0000  18.5615  18.5615  19.1446  20.2809  20.7396  22.0285
    23.4897  23.8010  23.8010  25.4481  27.0401  27.0401  28.6956  29.9952
    30.2804  30.6353  33.0267  33.2932

[...]

          k = 0.1103 0.1103 0.1080 (  3434 PWs)   bands (ev):

   -78.2682 -78.2681 -78.2643 -78.2642 -78.2167 -78.2167 -38.8477 -38.8413
   -15.3849 -15.3621 -14.9937 -14.9864 -14.3951 -14.3694   1.2627   1.2747
     1.2982   1.3014   1.3868   1.3950   1.4713   1.4750   1.5188   1.5265
     9.3661   9.5247  13.0731  13.1920  14.1377  14.4560  15.0167  15.2717
    17.6667  17.6869  17.7424  17.8473  18.7628  18.7824  19.8714  19.9927
    24.2037  24.2655  26.4617  27.1173  28.4979  28.6257  29.5066  29.7208
    30.9470  31.3157  32.1227  32.3479

     the Fermi energy is    16.4986 ev

!    total energy              =   -1070.41846954 Ry
     Harris-Foulkes estimate   =   -1070.41846260 Ry
     estimated scf accuracy    <       0.00000087 Ry

     The total energy is the sum of the following terms:

     one-electron contribution =    -691.04334190 Ry
     hartree contribution      =     381.23980301 Ry
     xc contribution           =    -137.99404877 Ry
     ewald contribution        =    -622.61557017 Ry
     smearing contrib. (-TS)   =      -0.00531172 Ry

     convergence has been achieved in  12 iterations

     Forces acting on atoms (Ry/au):

     atom    1 type  1   force =     0.00000000    0.00000000    0.00000000
     atom    2 type  1   force =     0.00000000    0.00000000    0.00000000
     atom    3 type  2   force =     0.00000000    0.00000000    0.00000000
     atom    4 type  2   force =     0.00000000    0.00000000    0.00000000

     Total force =     0.000000     Total SCF correction =     0.000000

     General routines

     Parallel routines

   This run was terminated on:  13:23:47  14Nov2017

   JOB DONE.