     Program PWSCF v.5.1rc2 starts on 14Nov2017 at 14:38:33

     Current dimensions of program PWSCF are:
     Max number of different atomic species (ntypx) = 10
     Max number of k-points (npk) =  40000
     Max angular momentum in pseudopotentials (lmaxx) =  3

     IMPORTANT: XC functional enforced from input :
     Exchange-correlation      = BEEF-VDW ( 1  4 27 13 2)
     Any further DFT definition will be discarded
     Please, verify this is what you really want

     Found symmetry operation: I + (  0.5000  0.5000  0.0000)
     This is a supercell, fractional translations are disabled

     bravais-lattice index     =            0
     lattice parameter (alat)  =       1.8897  a.u.
     unit-cell volume          =     644.8265 (a.u.)^3
     number of atoms/cell      =            4
     number of atomic types    =            2
     number of electrons       =        52.00
     number of Kohn-Sham states=           46
     kinetic-energy cutoff     =      58.7989  Ry
     charge density cutoff     =     587.9892  Ry
     convergence threshold     =      1.0E-06
     mixing beta               =       0.1000
     number of iterations used =           10  plain     mixing
     Exchange-correlation      = BEEF-VDW ( 1  4 27 13 2)

     celldm(1)=   1.889726  celldm(2)=   0.000000  celldm(3)=   0.000000
     celldm(4)=   0.000000  celldm(5)=   0.000000  celldm(6)=   0.000000

     crystal axes: (cart. coord. in units of alat)
               a(1) = (   4.666588   0.000000   0.000000 )
               a(2) = (   0.000000   4.666588   0.000000 )
               a(3) = (   0.000000   0.000000   4.387806 )

     reciprocal axes: (cart. coord. in units 2 pi/alat)
               b(1) = (  0.214289  0.000000  0.000000 )
               b(2) = (  0.000000  0.214289  0.000000 )
               b(3) = (  0.000000  0.000000  0.227904 )

     PseudoPot. # 1 for Hf read from file:
     /home/users/vossj/suncat/psp/gbrv1.5pbe/Hf.UPF
     MD5 check sum: 8ee9378dfe14276e333edf04c5e4aa26
     Pseudo is Ultrasoft + core correction, Zval = 12.0
     Generated by new atomic code, or converted to UPF format
     Using radial grid of  921 points,  8 beta functions with:
                l(1) =   0
                l(2) =   0
                l(3) =   0
                l(4) =   1
                l(5) =   1
                l(6) =   2
                l(7) =   2
                l(8) =   3
     Q(r) pseudized with  6 coefficients,  rinner =    1.200   1.200   1.200
                                                       1.200   1.200   1.200
                                                       1.200

     PseudoPot. # 2 for Pb read from file:
     /home/users/vossj/suncat/psp/gbrv1.5pbe/Pb.UPF
     MD5 check sum: 3d1c1779aa92214d1e8f3a7db79003e2
     Pseudo is Ultrasoft + core correction, Zval = 14.0
     Generated by new atomic code, or converted to UPF format
     Using radial grid of  899 points,  6 beta functions with:
                l(1) =   0
                l(2) =   0
                l(3) =   1
                l(4) =   1
                l(5) =   2
                l(6) =   2
     Q(r) pseudized with  6 coefficients,  rinner =    1.000   1.000   1.000
                                                       1.000   1.000

     vdW kernel table read from file vdW_kernel_table
     MD5 check sum: 095c7af220d748ca6e76c0b4c6cfb241

     atomic species   valence    mass     pseudopotential
        Hf1           12.00   178.49000     Hf( 1.00)
        Pb1           14.00   207.20000     Pb( 1.00)

     16 Sym. Ops., with inversion, found

   Cartesian axes

     site n.     atom                  positions (alat units)
         1           Hf1 tau(   1) = (   0.0000000   0.0000000   0.0000000  )
         2           Hf1 tau(   2) = (   2.3332938   2.3332938   0.0000000  )
         3           Pb1 tau(   3) = (   2.3332938   0.0000000   2.1939030  )
         4           Pb1 tau(   4) = (   0.0000000   2.3332938   2.1939030  )

     number of k points=    75  Fermi-Dirac smearing, width (Ry)=  0.0073
                       cart. coord. in units 2pi/alat
        k(    1) = (   0.0000000   0.0000000   0.0000000), wk =   0.0027435
        k(    2) = (   0.0000000   0.0000000   0.0253227), wk =   0.0054870
        k(    3) = (   0.0000000   0.0000000   0.0506454), wk =   0.0054870
        k(    4) = (   0.0000000   0.0000000   0.0759681), wk =   0.0054870
        k(    5) = (   0.0000000   0.0000000   0.1012908), wk =   0.0054870
        k(    6) = (   0.0000000   0.0238099   0.0000000), wk =   0.0109739
        k(    7) = (   0.0000000   0.0238099   0.0253227), wk =   0.0219479
        k(    8) = (   0.0000000   0.0238099   0.0506454), wk =   0.0219479
        k(    9) = (   0.0000000   0.0238099   0.0759681), wk =   0.0219479
        k(   10) = (   0.0000000   0.0238099   0.1012908), wk =   0.0219479
        k(   11) = (   0.0000000   0.0476199   0.0000000), wk =   0.0109739
        k(   12) = (   0.0000000   0.0476199   0.0253227), wk =   0.0219479
        k(   13) = (   0.0000000   0.0476199   0.0506454), wk =   0.0219479
        k(   14) = (   0.0000000   0.0476199   0.0759681), wk =   0.0219479
        k(   15) = (   0.0000000   0.0476199   0.1012908), wk =   0.0219479
        k(   16) = (   0.0000000   0.0714298   0.0000000), wk =   0.0109739
        k(   17) = (   0.0000000   0.0714298   0.0253227), wk =   0.0219479
        k(   18) = (   0.0000000   0.0714298   0.0506454), wk =   0.0219479
        k(   19) = (   0.0000000   0.0714298   0.0759681), wk =   0.0219479
        k(   20) = (   0.0000000   0.0714298   0.1012908), wk =   0.0219479
        k(   21) = (   0.0000000   0.0952397   0.0000000), wk =   0.0109739
        k(   22) = (   0.0000000   0.0952397   0.0253227), wk =   0.0219479
        k(   23) = (   0.0000000   0.0952397   0.0506454), wk =   0.0219479
        k(   24) = (   0.0000000   0.0952397   0.0759681), wk =   0.0219479
        k(   25) = (   0.0000000   0.0952397   0.1012908), wk =   0.0219479
        k(   26) = (   0.0238099   0.0238099   0.0000000), wk =   0.0109739
        k(   27) = (   0.0238099   0.0238099   0.0253227), wk =   0.0219479
        k(   28) = (   0.0238099   0.0238099   0.0506454), wk =   0.0219479
        k(   29) = (   0.0238099   0.0238099   0.0759681), wk =   0.0219479
        k(   30) = (   0.0238099   0.0238099   0.1012908), wk =   0.0219479
        k(   31) = (   0.0238099   0.0476199   0.0000000), wk =   0.0219479
        k(   32) = (   0.0238099   0.0476199   0.0253227), wk =   0.0438957
        k(   33) = (   0.0238099   0.0476199   0.0506454), wk =   0.0438957
        k(   34) = (   0.0238099   0.0476199   0.0759681), wk =   0.0438957
        k(   35) = (   0.0238099   0.0476199   0.1012908), wk =   0.0438957
        k(   36) = (   0.0238099   0.0714298   0.0000000), wk =   0.0219479
        k(   37) = (   0.0238099   0.0714298   0.0253227), wk =   0.0438957
        k(   38) = (   0.0238099   0.0714298   0.0506454), wk =   0.0438957
        k(   39) = (   0.0238099   0.0714298   0.0759681), wk =   0.0438957
        k(   40) = (   0.0238099   0.0714298   0.1012908), wk =   0.0438957
        k(   41) = (   0.0238099   0.0952397   0.0000000), wk =   0.0219479
        k(   42) = (   0.0238099   0.0952397   0.0253227), wk =   0.0438957
        k(   43) = (   0.0238099   0.0952397   0.0506454), wk =   0.0438957
        k(   44) = (   0.0238099   0.0952397   0.0759681), wk =   0.0438957
        k(   45) = (   0.0238099   0.0952397   0.1012908), wk =   0.0438957
        k(   46) = (   0.0476199   0.0476199   0.0000000), wk =   0.0109739
        k(   47) = (   0.0476199   0.0476199   0.0253227), wk =   0.0219479
        k(   48) = (   0.0476199   0.0476199   0.0506454), wk =   0.0219479
        k(   49) = (   0.0476199   0.0476199   0.0759681), wk =   0.0219479
        k(   50) = (   0.0476199   0.0476199   0.1012908), wk =   0.0219479
        k(   51) = (   0.0476199   0.0714298   0.0000000), wk =   0.0219479
        k(   52) = (   0.0476199   0.0714298   0.0253227), wk =   0.0438957
        k(   53) = (   0.0476199   0.0714298   0.0506454), wk =   0.0438957
        k(   54) = (   0.0476199   0.0714298   0.0759681), wk =   0.0438957
        k(   55) = (   0.0476199   0.0714298   0.1012908), wk =   0.0438957
        k(   56) = (   0.0476199   0.0952397   0.0000000), wk =   0.0219479
        k(   57) = (   0.0476199   0.0952397   0.0253227), wk =   0.0438957
        k(   58) = (   0.0476199   0.0952397   0.0506454), wk =   0.0438957
        k(   59) = (   0.0476199   0.0952397   0.0759681), wk =   0.0438957
        k(   60) = (   0.0476199   0.0952397   0.1012908), wk =   0.0438957
        k(   61) = (   0.0714298   0.0714298   0.0000000), wk =   0.0109739
        k(   62) = (   0.0714298   0.0714298   0.0253227), wk =   0.0219479
        k(   63) = (   0.0714298   0.0714298   0.0506454), wk =   0.0219479
        k(   64) = (   0.0714298   0.0714298   0.0759681), wk =   0.0219479
        k(   65) = (   0.0714298   0.0714298   0.1012908), wk =   0.0219479
        k(   66) = (   0.0714298   0.0952397   0.0000000), wk =   0.0219479
        k(   67) = (   0.0714298   0.0952397   0.0253227), wk =   0.0438957
        k(   68) = (   0.0714298   0.0952397   0.0506454), wk =   0.0438957
        k(   69) = (   0.0714298   0.0952397   0.0759681), wk =   0.0438957
        k(   70) = (   0.0714298   0.0952397   0.1012908), wk =   0.0438957
        k(   71) = (   0.0952397   0.0952397   0.0000000), wk =   0.0109739
        k(   72) = (   0.0952397   0.0952397   0.0253227), wk =   0.0219479
        k(   73) = (   0.0952397   0.0952397   0.0506454), wk =   0.0219479
        k(   74) = (   0.0952397   0.0952397   0.0759681), wk =   0.0219479
        k(   75) = (   0.0952397   0.0952397   0.1012908), wk =   0.0219479

     Largest allocated arrays     est. size (Mb)     dimensions
     Largest temporary arrays     est. size (Mb)     dimensions

     Initial potential from superposition of free atoms
     Check: negative starting charge=   -0.245666

     starting charge   47.99529, renormalised to   52.00000

     negative rho (up, down):  2.662E-01 0.000E+00

     *
     * You are using vdW-DF for exchange-correlation in this calculation.
     * Please cite the following three references that made this development
     * possible:
     *
     *   M. Dion, H. Rydberg, E. Schroder, D. C. Langreth, and
     *   B. I. Lundqvist, Phys. Rev. Lett. 92, 246401 (2004).
     *
     *   T. Thonhauser, V. R. Cooper, S. Li, A. Puzder, P. Hyldgaard, and
     *   D. C. Langreth, Phys. Rev. B 76, 125112 (2007).
     *
     *   G. Roman-Perez and J. M. Soler, Phys. Rev. Lett. 103, 096102 (2009).
     *
     *
     * If you are using vdW-DF2, please also cite:
     *
     *   K. Lee, E. D. Murray, L. Kong, B. I. Lundqvist, and
     *   D. C. Langreth, Phys. Rev. B 82, 081101(R) (2010).
     *
     *
     * If you are calculating the stress with vdW-DF, please also cite:
     *
     *   R. Sabatini, E. Kucukbenli, B. Kolb, T. Thonhauser, and
     *   S. de Gironcoli, J. Phys.: Condens. Matter 24, 424209 (2012).
     *

     Carrying out vdW-DF run using the following parameters:

     Nqs =      20    Nr_points =    1024   r_max =   100.000
     q_mesh =
               0.00001000     0.04494208     0.09755937     0.15916263
               0.23128650     0.31572767     0.41458969     0.53033537
               0.66584808     0.82450364     1.01025438     1.22772762
               1.48234092     1.78043706     2.12944203     2.53805004
               3.01644009     3.57652955     4.23227104     5.00000000

     Gradients computed in reciprocal space

     Starting wfc are   44 randomized atomic wfcs +    2 random wfc

     Self-consistent Calculation

     iteration #  1     ecut=    58.80 Ry     beta=0.10
     Davidson diagonalization with overlap
     ethr =  1.00E-02,  avg # of iterations =  4.1

[...]

     total energy              =    -654.03395418 Ry
     Harris-Foulkes estimate   =    -654.47753551 Ry
     estimated scf accuracy    <       3.15058422 Ry

[...]

     total energy              =    -653.19459634 Ry
     Harris-Foulkes estimate   =    -653.19443964 Ry
     estimated scf accuracy    <       0.00000370 Ry

     iteration # 11     ecut=    58.80 Ry     beta=0.10
     Davidson diagonalization with overlap
     ethr =  7.12E-09,  avg # of iterations =  2.5

     negative rho (up, down):  2.701E-01 0.000E+00

     End of self-consistent calculation

          k = 0.0000 0.0000 0.0000 (  4873 PWs)   bands (ev):

   -48.6165 -48.5945 -17.2823 -17.2245 -17.1728 -17.1728 -16.9307 -16.9307
    -3.1752  -3.0719  -2.9388  -2.9282  -2.9282  -2.7688  -2.7688  -2.7300
    -2.7009  -2.5373   2.8344   7.3022  11.9897  11.9897  12.2306  13.0644
    13.3176  13.7398  14.6737  14.6737  15.3726  16.9851  16.9851  17.2471
    17.6838  18.3246  18.3246  18.3497  19.7787  21.0464  21.3642  21.3642
    23.4942  24.7688  24.9282  24.9674  25.2047  25.6251

[...]

          k = 0.0952 0.0952 0.1013 (  4915 PWs)   bands (ev):

   -48.6056 -48.6050 -17.2660 -17.2641 -17.2034 -17.1963 -16.9146 -16.9071
    -3.0133  -2.9979  -2.9604  -2.9563  -2.8750  -2.8656  -2.7632  -2.7588
    -2.6518  -2.6410   5.5035   5.6363  10.4076  10.5323  11.5035  11.8973
    12.5357  12.8403  16.0896  16.0968  16.3190  16.3459  16.9016  16.9446
    17.0706  17.2742  20.0277  20.1501  20.9927  21.2735  23.7059  23.7515
    24.4608  24.4622  24.9528  24.9531  25.1854  25.4255

     the Fermi energy is    14.5224 ev

!    total energy              =    -653.19525983 Ry
     Harris-Foulkes estimate   =    -653.19459738 Ry
     estimated scf accuracy    <       0.00000051 Ry

     The total energy is the sum of the following terms:

     one-electron contribution =     -82.55173232 Ry
     hartree contribution      =      74.78694708 Ry
     xc contribution           =    -285.59726666 Ry
     ewald contribution        =    -359.82846626 Ry
     smearing contrib. (-TS)   =      -0.00474166 Ry

     convergence has been achieved in  11 iterations

     Forces acting on atoms (Ry/au):

     negative rho (up, down):  2.701E-01 0.000E+00
     atom    1 type  1   force =     0.00000000    0.00000000    0.00000000
     atom    2 type  1   force =     0.00000000    0.00000000    0.00000000
     atom    3 type  2   force =     0.00000000    0.00000000    0.00000000
     atom    4 type  2   force =     0.00000000    0.00000000    0.00000000

     Total force =     0.000000     Total SCF correction =     0.000000

     General routines

     Parallel routines

   This run was terminated on:  14:39:25  14Nov2017

   JOB DONE.