     Program PWSCF v.5.1rc2 starts on 14Nov2017 at  8:23:58

     Current dimensions of program PWSCF are:
     Max number of different atomic species (ntypx) = 10
     Max number of k-points (npk) =  40000
     Max angular momentum in pseudopotentials (lmaxx) =  3

     IMPORTANT: XC functional enforced from input :
     Exchange-correlation      = BEEF-VDW ( 1  4 27 13 2)
     Any further DFT definition will be discarded
     Please, verify this is what you really want

     Found symmetry operation: I + ( -0.5000 -0.5000  0.0000)
     This is a supercell, fractional translations are disabled

     bravais-lattice index     =            0
     lattice parameter (alat)  =       1.8897  a.u.
     unit-cell volume          =     352.1013 (a.u.)^3
     number of atoms/cell      =            4
     number of atomic types    =            2
     number of electrons       =        58.00
     number of Kohn-Sham states=           49
     kinetic-energy cutoff     =      58.7989  Ry
     charge density cutoff     =     587.9892  Ry
     convergence threshold     =      1.0E-06
     mixing beta               =       0.1000
     number of iterations used =           10  plain     mixing
     Exchange-correlation      = BEEF-VDW ( 1  4 27 13 2)

     celldm(1)=   1.889726  celldm(2)=   0.000000  celldm(3)=   0.000000
     celldm(4)=   0.000000  celldm(5)=   0.000000  celldm(6)=   0.000000

     crystal axes: (cart. coord. in units of alat)
               a(1) = (   3.753181   0.000000   0.000000 )
               a(2) = (   0.000000   3.753181   0.000000 )
               a(3) = (   0.000000   0.000000   3.704008 )

     reciprocal axes: (cart. coord. in units 2 pi/alat)
               b(1) = (  0.266441  0.000000  0.000000 )
               b(2) = (  0.000000  0.266441  0.000000 )
               b(3) = (  0.000000  0.000000  0.269978 )

     PseudoPot. # 1 for Cr read from file:
     /home/users/vossj/suncat/psp/gbrv1.5pbe/Cr.UPF
     MD5 check sum: 0d52af634a40206e4dee301ad30da4bf
     Pseudo is Ultrasoft + core correction, Zval = 14.0
     Generated by new atomic code, or converted to UPF format
     Using radial grid of  857 points,  6 beta functions with:
                l(1) =   0
                l(2) =   0
                l(3) =   1
                l(4) =   1
                l(5) =   2
                l(6) =   2
     Q(r) pseudized with  8 coefficients,  rinner =    0.950   0.950   0.950
                                                       0.950   0.950

     PseudoPot. # 2 for Rh read from file:
     /home/users/vossj/suncat/psp/gbrv1.5pbe/Rh.UPF
     MD5 check sum: 761627e959a2e3a1f56b0b5fe687810e
     Pseudo is Ultrasoft + core correction, Zval = 15.0
     Generated by new atomic code, or converted to UPF format
     Using radial grid of  969 points,  7 beta functions with:
                l(1) =   0
                l(2) =   0
                l(3) =   1
                l(4) =   1
                l(5) =   2
                l(6) =   2
                l(7) =   2
     Q(r) pseudized with  8 coefficients,  rinner =    1.200   1.200   1.200
                                                       1.200   1.200

     vdW kernel table read from file vdW_kernel_table
     MD5 check sum: 095c7af220d748ca6e76c0b4c6cfb241

     atomic species   valence    mass     pseudopotential
        Cr1           14.00    51.99600     Cr( 1.00)
        Rh1           15.00   102.90550     Rh( 1.00)

     16 Sym. Ops., with inversion, found

   Cartesian axes

     site n.     atom                  positions (alat units)
         1           Cr1 tau(   1) = (   0.0000000   0.0000000   0.0000000  )
         2           Cr1 tau(   2) = (   1.8765907   1.8765907   0.0000000  )
         3           Rh1 tau(   3) = (   1.8765907   0.0000000   1.8520039  )
         4           Rh1 tau(   4) = (   0.0000000   1.8765907   1.8520039  )

     number of k points=    75  Fermi-Dirac smearing, width (Ry)=  0.0073
                       cart. coord. in units 2pi/alat
        k(    1) = (   0.0000000   0.0000000   0.0000000), wk =   0.0027435
        k(    2) = (   0.0000000   0.0000000   0.0299975), wk =   0.0054870
        k(    3) = (   0.0000000   0.0000000   0.0599951), wk =   0.0054870
        k(    4) = (   0.0000000   0.0000000   0.0899926), wk =   0.0054870
        k(    5) = (   0.0000000   0.0000000   0.1199901), wk =   0.0054870
        k(    6) = (   0.0000000   0.0296045   0.0000000), wk =   0.0109739
        k(    7) = (   0.0000000   0.0296045   0.0299975), wk =   0.0219479
        k(    8) = (   0.0000000   0.0296045   0.0599951), wk =   0.0219479
        k(    9) = (   0.0000000   0.0296045   0.0899926), wk =   0.0219479
        k(   10) = (   0.0000000   0.0296045   0.1199901), wk =   0.0219479
        k(   11) = (   0.0000000   0.0592090   0.0000000), wk =   0.0109739
        k(   12) = (   0.0000000   0.0592090   0.0299975), wk =   0.0219479
        k(   13) = (   0.0000000   0.0592090   0.0599951), wk =   0.0219479
        k(   14) = (   0.0000000   0.0592090   0.0899926), wk =   0.0219479
        k(   15) = (   0.0000000   0.0592090   0.1199901), wk =   0.0219479
        k(   16) = (   0.0000000   0.0888135   0.0000000), wk =   0.0109739
        k(   17) = (   0.0000000   0.0888135   0.0299975), wk =   0.0219479
        k(   18) = (   0.0000000   0.0888135   0.0599951), wk =   0.0219479
        k(   19) = (   0.0000000   0.0888135   0.0899926), wk =   0.0219479
        k(   20) = (   0.0000000   0.0888135   0.1199901), wk =   0.0219479
        k(   21) = (   0.0000000   0.1184181   0.0000000), wk =   0.0109739
        k(   22) = (   0.0000000   0.1184181   0.0299975), wk =   0.0219479
        k(   23) = (   0.0000000   0.1184181   0.0599951), wk =   0.0219479
        k(   24) = (   0.0000000   0.1184181   0.0899926), wk =   0.0219479
        k(   25) = (   0.0000000   0.1184181   0.1199901), wk =   0.0219479
        k(   26) = (   0.0296045   0.0296045   0.0000000), wk =   0.0109739
        k(   27) = (   0.0296045   0.0296045   0.0299975), wk =   0.0219479
        k(   28) = (   0.0296045   0.0296045   0.0599951), wk =   0.0219479
        k(   29) = (   0.0296045   0.0296045   0.0899926), wk =   0.0219479
        k(   30) = (   0.0296045   0.0296045   0.1199901), wk =   0.0219479
        k(   31) = (   0.0296045   0.0592090   0.0000000), wk =   0.0219479
        k(   32) = (   0.0296045   0.0592090   0.0299975), wk =   0.0438957
        k(   33) = (   0.0296045   0.0592090   0.0599951), wk =   0.0438957
        k(   34) = (   0.0296045   0.0592090   0.0899926), wk =   0.0438957
        k(   35) = (   0.0296045   0.0592090   0.1199901), wk =   0.0438957
        k(   36) = (   0.0296045   0.0888135   0.0000000), wk =   0.0219479
        k(   37) = (   0.0296045   0.0888135   0.0299975), wk =   0.0438957
        k(   38) = (   0.0296045   0.0888135   0.0599951), wk =   0.0438957
        k(   39) = (   0.0296045   0.0888135   0.0899926), wk =   0.0438957
        k(   40) = (   0.0296045   0.0888135   0.1199901), wk =   0.0438957
        k(   41) = (   0.0296045   0.1184181   0.0000000), wk =   0.0219479
        k(   42) = (   0.0296045   0.1184181   0.0299975), wk =   0.0438957
        k(   43) = (   0.0296045   0.1184181   0.0599951), wk =   0.0438957
        k(   44) = (   0.0296045   0.1184181   0.0899926), wk =   0.0438957
        k(   45) = (   0.0296045   0.1184181   0.1199901), wk =   0.0438957
        k(   46) = (   0.0592090   0.0592090   0.0000000), wk =   0.0109739
        k(   47) = (   0.0592090   0.0592090   0.0299975), wk =   0.0219479
        k(   48) = (   0.0592090   0.0592090   0.0599951), wk =   0.0219479
        k(   49) = (   0.0592090   0.0592090   0.0899926), wk =   0.0219479
        k(   50) = (   0.0592090   0.0592090   0.1199901), wk =   0.0219479
        k(   51) = (   0.0592090   0.0888135   0.0000000), wk =   0.0219479
        k(   52) = (   0.0592090   0.0888135   0.0299975), wk =   0.0438957
        k(   53) = (   0.0592090   0.0888135   0.0599951), wk =   0.0438957
        k(   54) = (   0.0592090   0.0888135   0.0899926), wk =   0.0438957
        k(   55) = (   0.0592090   0.0888135   0.1199901), wk =   0.0438957
        k(   56) = (   0.0592090   0.1184181   0.0000000), wk =   0.0219479
        k(   57) = (   0.0592090   0.1184181   0.0299975), wk =   0.0438957
        k(   58) = (   0.0592090   0.1184181   0.0599951), wk =   0.0438957
        k(   59) = (   0.0592090   0.1184181   0.0899926), wk =   0.0438957
        k(   60) = (   0.0592090   0.1184181   0.1199901), wk =   0.0438957
        k(   61) = (   0.0888135   0.0888135   0.0000000), wk =   0.0109739
        k(   62) = (   0.0888135   0.0888135   0.0299975), wk =   0.0219479
        k(   63) = (   0.0888135   0.0888135   0.0599951), wk =   0.0219479
        k(   64) = (   0.0888135   0.0888135   0.0899926), wk =   0.0219479
        k(   65) = (   0.0888135   0.0888135   0.1199901), wk =   0.0219479
        k(   66) = (   0.0888135   0.1184181   0.0000000), wk =   0.0219479
        k(   67) = (   0.0888135   0.1184181   0.0299975), wk =   0.0438957
        k(   68) = (   0.0888135   0.1184181   0.0599951), wk =   0.0438957
        k(   69) = (   0.0888135   0.1184181   0.0899926), wk =   0.0438957
        k(   70) = (   0.0888135   0.1184181   0.1199901), wk =   0.0438957
        k(   71) = (   0.1184181   0.1184181   0.0000000), wk =   0.0109739
        k(   72) = (   0.1184181   0.1184181   0.0299975), wk =   0.0219479
        k(   73) = (   0.1184181   0.1184181   0.0599951), wk =   0.0219479
        k(   74) = (   0.1184181   0.1184181   0.0899926), wk =   0.0219479
        k(   75) = (   0.1184181   0.1184181   0.1199901), wk =   0.0219479

     Largest allocated arrays     est. size (Mb)     dimensions
     Largest temporary arrays     est. size (Mb)     dimensions

     Check: negative/imaginary core charge=   -0.000004    0.000000

     Initial potential from superposition of free atoms
     Check: negative starting charge=   -0.112169

     starting charge   54.99977, renormalised to   58.00000

     negative rho (up, down):  1.183E-01 0.000E+00

     *
     * You are using vdW-DF for exchange-correlation in this calculation.
     * Please cite the following three references that made this development
     * possible:
     *
     *   M. Dion, H. Rydberg, E. Schroder, D. C. Langreth, and
     *   B. I. Lundqvist, Phys. Rev. Lett. 92, 246401 (2004).
     *
     *   T. Thonhauser, V. R. Cooper, S. Li, A. Puzder, P. Hyldgaard, and
     *   D. C. Langreth, Phys. Rev. B 76, 125112 (2007).
     *
     *   G. Roman-Perez and J. M. Soler, Phys. Rev. Lett. 103, 096102 (2009).
     *
     *
     * If you are using vdW-DF2, please also cite:
     *
     *   K. Lee, E. D. Murray, L. Kong, B. I. Lundqvist, and
     *   D. C. Langreth, Phys. Rev. B 82, 081101(R) (2010).
     *
     *
     * If you are calculating the stress with vdW-DF, please also cite:
     *
     *   R. Sabatini, E. Kucukbenli, B. Kolb, T. Thonhauser, and
     *   S. de Gironcoli, J. Phys.: Condens. Matter 24, 424209 (2012).
     *

     Carrying out vdW-DF run using the following parameters:

     Nqs =      20    Nr_points =    1024   r_max =   100.000
     q_mesh =
               0.00001000     0.04494208     0.09755937     0.15916263
               0.23128650     0.31572767     0.41458969     0.53033537
               0.66584808     0.82450364     1.01025438     1.22772762
               1.48234092     1.78043706     2.12944203     2.53805004
               3.01644009     3.57652955     4.23227104     5.00000000

     Gradients computed in reciprocal space

     Starting wfc are   44 randomized atomic wfcs +    5 random wfc

     Self-consistent Calculation

     iteration #  1     ecut=    58.80 Ry     beta=0.10
     Davidson diagonalization with overlap
     ethr =  1.00E-02,  avg # of iterations =  4.5

[...]

     total energy              =    -697.44370262 Ry
     Harris-Foulkes estimate   =    -698.42292208 Ry
     estimated scf accuracy    <       5.97072859 Ry

[...]

     total energy              =    -697.10844767 Ry
     Harris-Foulkes estimate   =    -697.10844913 Ry
     estimated scf accuracy    <       0.00001489 Ry

     iteration # 14     ecut=    58.80 Ry     beta=0.10
     Davidson diagonalization with overlap
     ethr =  4.66E-09,  avg # of iterations =  1.1

     negative rho (up, down):  1.201E-01 0.000E+00

     End of self-consistent calculation

          k = 0.0000 0.0000 0.0000 (  2681 PWs)   bands (ev):

   -52.5229 -52.4494 -27.4870 -27.4870 -27.3727 -27.2529 -27.0939 -27.0939
   -23.8633 -23.8633 -23.8378 -23.8078 -23.5962 -23.5962  11.8149  13.5325
    13.9997  14.3021  14.6567  14.6567  14.7296  17.3755  17.3755  18.1999
    19.1153  19.7239  20.6603  20.6870  21.0701  21.0701  21.2870  21.2870
    21.3088  21.3088  21.5445  22.7818  22.7818  23.0736  30.8818  31.7049
    31.9586  32.9567  33.4304  33.4304  33.6723  33.6723  34.6133  37.4595
    40.4207

[...]

          k = 0.1184 0.1184 0.1200 (  2662 PWs)   bands (ev):

   -52.4866 -52.4844 -27.5450 -27.5337 -27.3303 -27.3276 -27.0641 -27.0522
   -23.8870 -23.8790 -23.8231 -23.8212 -23.5839 -23.5754  14.0162  14.0198
    14.4899  14.5834  16.8590  16.8879  16.9127  17.0788  17.4189  17.4918
    18.4358  18.5209  19.4889  19.5058  19.8009  19.8086  20.6466  20.7739
    20.9136  21.0356  21.1206  21.5198  21.5871  21.6794  27.9840  28.1435
    28.5230  28.8530  36.6598  36.7075  36.7349  36.7590  40.9133  41.4209
    41.5461

     the Fermi energy is    19.4992 ev

!    total energy              =    -697.10845043 Ry
     Harris-Foulkes estimate   =    -697.10844851 Ry
     estimated scf accuracy    <       0.00000013 Ry

     The total energy is the sum of the following terms:

     one-electron contribution =    -169.93068166 Ry
     hartree contribution      =     127.94165073 Ry
     xc contribution           =    -108.73692402 Ry
     ewald contribution        =    -546.37223374 Ry
     smearing contrib. (-TS)   =      -0.01026174 Ry

     convergence has been achieved in  14 iterations

     Forces acting on atoms (Ry/au):

     negative rho (up, down):  1.201E-01 0.000E+00
     atom    1 type  1   force =     0.00000000    0.00000000    0.00000000
     atom    2 type  1   force =     0.00000000    0.00000000    0.00000000
     atom    3 type  2   force =     0.00000000    0.00000000    0.00000000
     atom    4 type  2   force =     0.00000000    0.00000000    0.00000000

     Total force =     0.000000     Total SCF correction =     0.000000

     General routines

     Parallel routines

   This run was terminated on:   8:24:40  14Nov2017

   JOB DONE.