     Program PWSCF v.5.1rc2 starts on 14Nov2017 at  9:44:26

     Current dimensions of program PWSCF are:
     Max number of different atomic species (ntypx) = 10
     Max number of k-points (npk) =  40000
     Max angular momentum in pseudopotentials (lmaxx) =  3

     IMPORTANT: XC functional enforced from input :
     Exchange-correlation      = BEEF-VDW ( 1  4 27 13 2)
     Any further DFT definition will be discarded
     Please, verify this is what you really want

     Found symmetry operation: I + ( -0.5000 -0.5000  0.0000)
     This is a supercell, fractional translations are disabled

     bravais-lattice index     =            0
     lattice parameter (alat)  =       1.8897  a.u.
     unit-cell volume          =     451.1813 (a.u.)^3
     number of atoms/cell      =            4
     number of atomic types    =            2
     number of electrons       =        78.00
     number of Kohn-Sham states=           59
     kinetic-energy cutoff     =      58.7989  Ry
     charge density cutoff     =     587.9892  Ry
     convergence threshold     =      1.0E-06
     mixing beta               =       0.1000
     number of iterations used =           10  plain     mixing
     Exchange-correlation      = BEEF-VDW ( 1  4 27 13 2)

     celldm(1)=   1.889726  celldm(2)=   0.000000  celldm(3)=   0.000000
     celldm(4)=   0.000000  celldm(5)=   0.000000  celldm(6)=   0.000000

     crystal axes: (cart. coord. in units of alat)
               a(1) = (   4.468720   0.000000   0.000000 )
               a(2) = (   0.000000   4.468720   0.000000 )
               a(3) = (   0.000000   0.000000   3.348021 )

     reciprocal axes: (cart. coord. in units 2 pi/alat)
               b(1) = (  0.223778  0.000000  0.000000 )
               b(2) = (  0.000000  0.223778  0.000000 )
               b(3) = (  0.000000  0.000000  0.298684 )

     PseudoPot. # 1 for Zn read from file:
     /home/users/vossj/suncat/psp/gbrv1.5pbe/Zn.UPF
     MD5 check sum: df62231357ef9e81f77b2b3087fa5675
     Pseudo is Ultrasoft, Zval = 20.0
     Generated by new atomic code, or converted to UPF format
     Using radial grid of  943 points,  6 beta functions with:
                l(1) =   0
                l(2) =   0
                l(3) =   1
                l(4) =   1
                l(5) =   2
                l(6) =   2
     Q(r) pseudized with  8 coefficients,  rinner =    1.100   1.100   1.100
                                                       1.100   1.100

     PseudoPot. # 2 for Ag read from file:
     /home/users/vossj/suncat/psp/gbrv1.5pbe/Ag.UPF
     MD5 check sum: d66d668201baa78d5eb5b04ef7011058
     Pseudo is Ultrasoft + core correction, Zval = 19.0
     Generated by new atomic code, or converted to UPF format
     Using radial grid of  887 points,  6 beta functions with:
                l(1) =   0
                l(2) =   0
                l(3) =   1
                l(4) =   1
                l(5) =   2
                l(6) =   2
     Q(r) pseudized with  6 coefficients,  rinner =    1.300   1.300   1.300
                                                       1.300   1.300

     vdW kernel table read from file vdW_kernel_table
     MD5 check sum: 095c7af220d748ca6e76c0b4c6cfb241

     atomic species   valence    mass     pseudopotential
        Zn1           20.00    65.39000     Zn( 1.00)
        Ag1           19.00   107.86800     Ag( 1.00)

     16 Sym. Ops., with inversion, found

   Cartesian axes

     site n.     atom                  positions (alat units)
         1           Zn1 tau(   1) = (   0.0000000   0.0000000   0.0000000  )
         2           Zn1 tau(   2) = (   2.2343600   2.2343600   0.0000000  )
         3           Ag1 tau(   3) = (   2.2343600   0.0000000   1.6740104  )
         4           Ag1 tau(   4) = (   0.0000000   2.2343600   1.6740104  )

     number of k points=    75  Fermi-Dirac smearing, width (Ry)=  0.0073
                       cart. coord. in units 2pi/alat
        k(    1) = (   0.0000000   0.0000000   0.0000000), wk =   0.0027435
        k(    2) = (   0.0000000   0.0000000   0.0331871), wk =   0.0054870
        k(    3) = (   0.0000000   0.0000000   0.0663742), wk =   0.0054870
        k(    4) = (   0.0000000   0.0000000   0.0995613), wk =   0.0054870
        k(    5) = (   0.0000000   0.0000000   0.1327484), wk =   0.0054870
        k(    6) = (   0.0000000   0.0248642   0.0000000), wk =   0.0109739
        k(    7) = (   0.0000000   0.0248642   0.0331871), wk =   0.0219479
        k(    8) = (   0.0000000   0.0248642   0.0663742), wk =   0.0219479
        k(    9) = (   0.0000000   0.0248642   0.0995613), wk =   0.0219479
        k(   10) = (   0.0000000   0.0248642   0.1327484), wk =   0.0219479
        k(   11) = (   0.0000000   0.0497284   0.0000000), wk =   0.0109739
        k(   12) = (   0.0000000   0.0497284   0.0331871), wk =   0.0219479
        k(   13) = (   0.0000000   0.0497284   0.0663742), wk =   0.0219479
        k(   14) = (   0.0000000   0.0497284   0.0995613), wk =   0.0219479
        k(   15) = (   0.0000000   0.0497284   0.1327484), wk =   0.0219479
        k(   16) = (   0.0000000   0.0745926   0.0000000), wk =   0.0109739
        k(   17) = (   0.0000000   0.0745926   0.0331871), wk =   0.0219479
        k(   18) = (   0.0000000   0.0745926   0.0663742), wk =   0.0219479
        k(   19) = (   0.0000000   0.0745926   0.0995613), wk =   0.0219479
        k(   20) = (   0.0000000   0.0745926   0.1327484), wk =   0.0219479
        k(   21) = (   0.0000000   0.0994568   0.0000000), wk =   0.0109739
        k(   22) = (   0.0000000   0.0994568   0.0331871), wk =   0.0219479
        k(   23) = (   0.0000000   0.0994568   0.0663742), wk =   0.0219479
        k(   24) = (   0.0000000   0.0994568   0.0995613), wk =   0.0219479
        k(   25) = (   0.0000000   0.0994568   0.1327484), wk =   0.0219479
        k(   26) = (   0.0248642   0.0248642   0.0000000), wk =   0.0109739
        k(   27) = (   0.0248642   0.0248642   0.0331871), wk =   0.0219479
        k(   28) = (   0.0248642   0.0248642   0.0663742), wk =   0.0219479
        k(   29) = (   0.0248642   0.0248642   0.0995613), wk =   0.0219479
        k(   30) = (   0.0248642   0.0248642   0.1327484), wk =   0.0219479
        k(   31) = (   0.0248642   0.0497284   0.0000000), wk =   0.0219479
        k(   32) = (   0.0248642   0.0497284   0.0331871), wk =   0.0438957
        k(   33) = (   0.0248642   0.0497284   0.0663742), wk =   0.0438957
        k(   34) = (   0.0248642   0.0497284   0.0995613), wk =   0.0438957
        k(   35) = (   0.0248642   0.0497284   0.1327484), wk =   0.0438957
        k(   36) = (   0.0248642   0.0745926   0.0000000), wk =   0.0219479
        k(   37) = (   0.0248642   0.0745926   0.0331871), wk =   0.0438957
        k(   38) = (   0.0248642   0.0745926   0.0663742), wk =   0.0438957
        k(   39) = (   0.0248642   0.0745926   0.0995613), wk =   0.0438957
        k(   40) = (   0.0248642   0.0745926   0.1327484), wk =   0.0438957
        k(   41) = (   0.0248642   0.0994568   0.0000000), wk =   0.0219479
        k(   42) = (   0.0248642   0.0994568   0.0331871), wk =   0.0438957
        k(   43) = (   0.0248642   0.0994568   0.0663742), wk =   0.0438957
        k(   44) = (   0.0248642   0.0994568   0.0995613), wk =   0.0438957
        k(   45) = (   0.0248642   0.0994568   0.1327484), wk =   0.0438957
        k(   46) = (   0.0497284   0.0497284   0.0000000), wk =   0.0109739
        k(   47) = (   0.0497284   0.0497284   0.0331871), wk =   0.0219479
        k(   48) = (   0.0497284   0.0497284   0.0663742), wk =   0.0219479
        k(   49) = (   0.0497284   0.0497284   0.0995613), wk =   0.0219479
        k(   50) = (   0.0497284   0.0497284   0.1327484), wk =   0.0219479
        k(   51) = (   0.0497284   0.0745926   0.0000000), wk =   0.0219479
        k(   52) = (   0.0497284   0.0745926   0.0331871), wk =   0.0438957
        k(   53) = (   0.0497284   0.0745926   0.0663742), wk =   0.0438957
        k(   54) = (   0.0497284   0.0745926   0.0995613), wk =   0.0438957
        k(   55) = (   0.0497284   0.0745926   0.1327484), wk =   0.0438957
        k(   56) = (   0.0497284   0.0994568   0.0000000), wk =   0.0219479
        k(   57) = (   0.0497284   0.0994568   0.0331871), wk =   0.0438957
        k(   58) = (   0.0497284   0.0994568   0.0663742), wk =   0.0438957
        k(   59) = (   0.0497284   0.0994568   0.0995613), wk =   0.0438957
        k(   60) = (   0.0497284   0.0994568   0.1327484), wk =   0.0438957
        k(   61) = (   0.0745926   0.0745926   0.0000000), wk =   0.0109739
        k(   62) = (   0.0745926   0.0745926   0.0331871), wk =   0.0219479
        k(   63) = (   0.0745926   0.0745926   0.0663742), wk =   0.0219479
        k(   64) = (   0.0745926   0.0745926   0.0995613), wk =   0.0219479
        k(   65) = (   0.0745926   0.0745926   0.1327484), wk =   0.0219479
        k(   66) = (   0.0745926   0.0994568   0.0000000), wk =   0.0219479
        k(   67) = (   0.0745926   0.0994568   0.0331871), wk =   0.0438957
        k(   68) = (   0.0745926   0.0994568   0.0663742), wk =   0.0438957
        k(   69) = (   0.0745926   0.0994568   0.0995613), wk =   0.0438957
        k(   70) = (   0.0745926   0.0994568   0.1327484), wk =   0.0438957
        k(   71) = (   0.0994568   0.0994568   0.0000000), wk =   0.0109739
        k(   72) = (   0.0994568   0.0994568   0.0331871), wk =   0.0219479
        k(   73) = (   0.0994568   0.0994568   0.0663742), wk =   0.0219479
        k(   74) = (   0.0994568   0.0994568   0.0995613), wk =   0.0219479
        k(   75) = (   0.0994568   0.0994568   0.1327484), wk =   0.0219479

     Largest allocated arrays     est. size (Mb)     dimensions
     Largest temporary arrays     est. size (Mb)     dimensions

     Initial potential from superposition of free atoms

     starting charge   76.99962, renormalised to   78.00000

     *
     * You are using vdW-DF for exchange-correlation in this calculation.
     * Please cite the following three references that made this development
     * possible:
     *
     *   M. Dion, H. Rydberg, E. Schroder, D. C. Langreth, and
     *   B. I. Lundqvist, Phys. Rev. Lett. 92, 246401 (2004).
     *
     *   T. Thonhauser, V. R. Cooper, S. Li, A. Puzder, P. Hyldgaard, and
     *   D. C. Langreth, Phys. Rev. B 76, 125112 (2007).
     *
     *   G. Roman-Perez and J. M. Soler, Phys. Rev. Lett. 103, 096102 (2009).
     *
     *
     * If you are using vdW-DF2, please also cite:
     *
     *   K. Lee, E. D. Murray, L. Kong, B. I. Lundqvist, and
     *   D. C. Langreth, Phys. Rev. B 82, 081101(R) (2010).
     *
     *
     * If you are calculating the stress with vdW-DF, please also cite:
     *
     *   R. Sabatini, E. Kucukbenli, B. Kolb, T. Thonhauser, and
     *   S. de Gironcoli, J. Phys.: Condens. Matter 24, 424209 (2012).
     *

     Carrying out vdW-DF run using the following parameters:

     Nqs =      20    Nr_points =    1024   r_max =   100.000
     q_mesh =
               0.00001000     0.04494208     0.09755937     0.15916263
               0.23128650     0.31572767     0.41458969     0.53033537
               0.66584808     0.82450364     1.01025438     1.22772762
               1.48234092     1.78043706     2.12944203     2.53805004
               3.01644009     3.57652955     4.23227104     5.00000000

     Gradients computed in reciprocal space

     Starting wfc are   52 randomized atomic wfcs +    7 random wfc

     Self-consistent Calculation

     iteration #  1     ecut=    58.80 Ry     beta=0.10
     Davidson diagonalization with overlap
     ethr =  1.00E-02,  avg # of iterations =  4.7

     total energy              =   -1519.07811542 Ry
     Harris-Foulkes estimate   =   -1519.40644816 Ry
     estimated scf accuracy    <       1.96821851 Ry

[...]

     total energy              =   -1518.92552027 Ry
     Harris-Foulkes estimate   =   -1518.92552429 Ry
     estimated scf accuracy    <       0.00000896 Ry

     iteration # 10     ecut=    58.80 Ry     beta=0.10
     Davidson diagonalization with overlap
     ethr =  1.15E-08,  avg # of iterations =  2.0

     End of self-consistent calculation

          k = 0.0000 0.0000 0.0000 (  3467 PWs)   bands (ev):

  -111.7680-111.7679 -77.8771 -77.8743 -65.9521 -65.9518 -65.9511 -65.9511
   -65.9494 -65.9494 -41.3691 -41.3691 -41.3573 -41.3530 -41.3436 -41.3436
     5.9072   6.8466   6.8933   6.8941   6.9504   7.0713   7.0713   7.3347
     7.3347   7.3958   7.6083   8.7249   9.3516   9.4816   9.9008  10.2190
    10.2190  10.4571  10.4571  10.5223  10.9000  13.7201  13.7201  16.1342
    17.3174  19.0617  20.6756  20.6756  23.6978  24.5444  25.6999  25.9337
    27.1138  27.1138  29.0347  30.4790  31.3874  31.3874  33.3027  34.0792
    34.0792  34.8595  35.3794

[...]

          k = 0.0995 0.0995 0.1327 (  3425 PWs)   bands (ev):

  -111.7679-111.7679 -77.8752 -77.8751 -65.9526 -65.9526 -65.9512 -65.9511
   -65.9493 -65.9493 -41.3703 -41.3695 -41.3679 -41.3678 -41.3412 -41.3404
     6.8845   6.8847   6.9371   6.9496   7.1665   7.1745   7.1830   7.1925
     7.5419   7.5510   8.6100   8.6163   9.6249   9.6704  10.1845  10.2600
    10.2606  10.3282  10.6518  10.7079  12.6740  13.3751  13.3796  13.6148
    15.9784  16.0128  16.9944  17.3673  25.2649  25.6375  27.7744  27.8902
    28.0222  28.3935  29.8572  29.8573  31.6869  31.8214  32.4328  32.9350
    33.2126  33.3080  36.5663

     the Fermi energy is    14.8897 ev

!    total energy              =   -1518.92555214 Ry
     Harris-Foulkes estimate   =   -1518.92552191 Ry
     estimated scf accuracy    <       0.00000023 Ry

     The total energy is the sum of the following terms:

     one-electron contribution =    -992.47291943 Ry
     hartree contribution      =     530.22096631 Ry
     xc contribution           =    -147.09560434 Ry
     ewald contribution        =    -909.57598540 Ry
     smearing contrib. (-TS)   =      -0.00200928 Ry

     convergence has been achieved in  10 iterations

     Forces acting on atoms (Ry/au):

     atom    1 type  1   force =     0.00000000    0.00000000    0.00000000
     atom    2 type  1   force =     0.00000000    0.00000000    0.00000000
     atom    3 type  2   force =     0.00000000    0.00000000    0.00000000
     atom    4 type  2   force =     0.00000000    0.00000000    0.00000000

     Total force =     0.000000     Total SCF correction =     0.000000

     General routines

     Parallel routines

   This run was terminated on:   9:45: 9  14Nov2017

   JOB DONE.