     Program PWSCF v.5.1rc2 (svn rev. ) starts on 18Feb2018 at 18:56:24

     Current dimensions of program PWSCF are:
     Max number of different atomic species (ntypx) = 10
     Max number of k-points (npk) =  40000
     Max angular momentum in pseudopotentials (lmaxx) =  3

     IMPORTANT: XC functional enforced from input :
     Exchange-correlation      = BEEF-VDW ( 1  4 27 13 2)
     Any further DFT definition will be discarded
     Please, verify this is what you really want

     Subspace diagonalization in iterative solution of the eigenvalue problem:
     a serial algorithm will be used

     Found symmetry operation: I + ( -0.5000 -0.5000  0.0000)
     This is a supercell, fractional translations are disabled

     bravais-lattice index     =            0
     lattice parameter (alat)  =       1.8897  a.u.
     unit-cell volume          =     836.5845 (a.u.)^3
     number of atoms/cell      =            4
     number of atomic types    =            2
     number of electrons       =        54.00
     number of Kohn-Sham states=           47
     kinetic-energy cutoff     =      58.7989  Ry
     charge density cutoff     =     587.9892  Ry
     convergence threshold     =      1.0E-06
     mixing beta               =       0.1000
     number of iterations used =           10  plain     mixing
     Exchange-correlation      = BEEF-VDW ( 1  4 27 13 2)

     celldm(1)=   1.889726  celldm(2)=   0.000000  celldm(3)=   0.000000
     celldm(4)=   0.000000  celldm(5)=   0.000000  celldm(6)=   0.000000

     crystal axes: (cart. coord. in units of alat)
               a(1) = (   4.754200   0.000000   0.000000 )
               a(2) = (   0.000000   4.754200   0.000000 )
               a(3) = (   0.000000   0.000000   5.484769 )

     reciprocal axes: (cart. coord. in units 2 pi/alat)
               b(1) = (  0.210340  0.000000  0.000000 )
               b(2) = (  0.000000  0.210340  0.000000 )
               b(3) = (  0.000000  0.000000  0.182323 )

     PseudoPot. # 1 for Hg read from file:
     /home/mamunm/src/pseudo/gbrv1.5pbe/Hg.UPF
     MD5 check sum: 8f42caffe07f7fd9c0a564347f8c5498
     Pseudo is Ultrasoft + core correction, Zval = 12.0
     Generated by new atomic code, or converted to UPF format
     Using radial grid of  985 points,  6 beta functions with:
                l(1) =   0
                l(2) =   0
                l(3) =   1
                l(4) =   1
                l(5) =   2
                l(6) =   2
     Q(r) pseudized with  8 coefficients,  rinner =    2.000   2.000   2.000
                                                       2.000   2.000

     PseudoPot. # 2 for Bi read from file:
     /home/mamunm/src/pseudo/gbrv1.5pbe/Bi.UPF
     MD5 check sum: 81103212dc04adf40945787f699eab19
     Pseudo is Ultrasoft + core correction, Zval = 15.0
     Generated by new atomic code, or converted to UPF format
     Using radial grid of  899 points,  6 beta functions with:
                l(1) =   0
                l(2) =   0
                l(3) =   1
                l(4) =   1
                l(5) =   2
                l(6) =   2
     Q(r) pseudized with  6 coefficients,  rinner =    1.000   1.000   1.000
                                                       1.000   1.000

     vdW kernel table read from file vdW_kernel_table
     MD5 check sum: 095c7af220d748ca6e76c0b4c6cfb241

     atomic species   valence    mass     pseudopotential
        Hg1           12.00   200.59200     Hg( 1.00)
        Bi1           15.00   208.98040     Bi( 1.00)

     16 Sym. Ops., with inversion, found

   Cartesian axes

     site n.     atom                  positions (alat units)
         1           Hg1 tau(   1) = (   0.0000000   0.0000000   0.0000000  )
         2           Hg1 tau(   2) = (   2.3771000   2.3771000   0.0000000  )
         3           Bi1 tau(   3) = (   2.3771000   0.0000000   2.7423844  )
         4           Bi1 tau(   4) = (   0.0000000   2.3771000   2.7423844  )

     number of k points=    75  Fermi-Dirac smearing, width (Ry)=  0.0073
                       cart. coord. in units 2pi/alat
        k(    1) = (   0.0000000   0.0000000   0.0000000), wk =   0.0027435
        k(    2) = (   0.0000000   0.0000000   0.0202581), wk =   0.0054870
        k(    3) = (   0.0000000   0.0000000   0.0405162), wk =   0.0054870
        k(    4) = (   0.0000000   0.0000000   0.0607744), wk =   0.0054870
        k(    5) = (   0.0000000   0.0000000   0.0810325), wk =   0.0054870
        k(    6) = (   0.0000000   0.0233711   0.0000000), wk =   0.0109739
        k(    7) = (   0.0000000   0.0233711   0.0202581), wk =   0.0219479
        k(    8) = (   0.0000000   0.0233711   0.0405162), wk =   0.0219479
        k(    9) = (   0.0000000   0.0233711   0.0607744), wk =   0.0219479
        k(   10) = (   0.0000000   0.0233711   0.0810325), wk =   0.0219479
        k(   11) = (   0.0000000   0.0467423   0.0000000), wk =   0.0109739
        k(   12) = (   0.0000000   0.0467423   0.0202581), wk =   0.0219479
        k(   13) = (   0.0000000   0.0467423   0.0405162), wk =   0.0219479
        k(   14) = (   0.0000000   0.0467423   0.0607744), wk =   0.0219479
        k(   15) = (   0.0000000   0.0467423   0.0810325), wk =   0.0219479
        k(   16) = (   0.0000000   0.0701134   0.0000000), wk =   0.0109739
        k(   17) = (   0.0000000   0.0701134   0.0202581), wk =   0.0219479
        k(   18) = (   0.0000000   0.0701134   0.0405162), wk =   0.0219479
        k(   19) = (   0.0000000   0.0701134   0.0607744), wk =   0.0219479
        k(   20) = (   0.0000000   0.0701134   0.0810325), wk =   0.0219479
        k(   21) = (   0.0000000   0.0934846   0.0000000), wk =   0.0109739
        k(   22) = (   0.0000000   0.0934846   0.0202581), wk =   0.0219479
        k(   23) = (   0.0000000   0.0934846   0.0405162), wk =   0.0219479
        k(   24) = (   0.0000000   0.0934846   0.0607744), wk =   0.0219479
        k(   25) = (   0.0000000   0.0934846   0.0810325), wk =   0.0219479
        k(   26) = (   0.0233711   0.0233711   0.0000000), wk =   0.0109739
        k(   27) = (   0.0233711   0.0233711   0.0202581), wk =   0.0219479
        k(   28) = (   0.0233711   0.0233711   0.0405162), wk =   0.0219479
        k(   29) = (   0.0233711   0.0233711   0.0607744), wk =   0.0219479
        k(   30) = (   0.0233711   0.0233711   0.0810325), wk =   0.0219479
        k(   31) = (   0.0233711   0.0467423   0.0000000), wk =   0.0219479
        k(   32) = (   0.0233711   0.0467423   0.0202581), wk =   0.0438957
        k(   33) = (   0.0233711   0.0467423   0.0405162), wk =   0.0438957
        k(   34) = (   0.0233711   0.0467423   0.0607744), wk =   0.0438957
        k(   35) = (   0.0233711   0.0467423   0.0810325), wk =   0.0438957
        k(   36) = (   0.0233711   0.0701134   0.0000000), wk =   0.0219479
        k(   37) = (   0.0233711   0.0701134   0.0202581), wk =   0.0438957
        k(   38) = (   0.0233711   0.0701134   0.0405162), wk =   0.0438957
        k(   39) = (   0.0233711   0.0701134   0.0607744), wk =   0.0438957
        k(   40) = (   0.0233711   0.0701134   0.0810325), wk =   0.0438957
        k(   41) = (   0.0233711   0.0934846   0.0000000), wk =   0.0219479
        k(   42) = (   0.0233711   0.0934846   0.0202581), wk =   0.0438957
        k(   43) = (   0.0233711   0.0934846   0.0405162), wk =   0.0438957
        k(   44) = (   0.0233711   0.0934846   0.0607744), wk =   0.0438957
        k(   45) = (   0.0233711   0.0934846   0.0810325), wk =   0.0438957
        k(   46) = (   0.0467423   0.0467423   0.0000000), wk =   0.0109739
        k(   47) = (   0.0467423   0.0467423   0.0202581), wk =   0.0219479
        k(   48) = (   0.0467423   0.0467423   0.0405162), wk =   0.0219479
        k(   49) = (   0.0467423   0.0467423   0.0607744), wk =   0.0219479
        k(   50) = (   0.0467423   0.0467423   0.0810325), wk =   0.0219479
        k(   51) = (   0.0467423   0.0701134   0.0000000), wk =   0.0219479
        k(   52) = (   0.0467423   0.0701134   0.0202581), wk =   0.0438957
        k(   53) = (   0.0467423   0.0701134   0.0405162), wk =   0.0438957
        k(   54) = (   0.0467423   0.0701134   0.0607744), wk =   0.0438957
        k(   55) = (   0.0467423   0.0701134   0.0810325), wk =   0.0438957
        k(   56) = (   0.0467423   0.0934846   0.0000000), wk =   0.0219479
        k(   57) = (   0.0467423   0.0934846   0.0202581), wk =   0.0438957
        k(   58) = (   0.0467423   0.0934846   0.0405162), wk =   0.0438957
        k(   59) = (   0.0467423   0.0934846   0.0607744), wk =   0.0438957
        k(   60) = (   0.0467423   0.0934846   0.0810325), wk =   0.0438957
        k(   61) = (   0.0701134   0.0701134   0.0000000), wk =   0.0109739
        k(   62) = (   0.0701134   0.0701134   0.0202581), wk =   0.0219479
        k(   63) = (   0.0701134   0.0701134   0.0405162), wk =   0.0219479
        k(   64) = (   0.0701134   0.0701134   0.0607744), wk =   0.0219479
        k(   65) = (   0.0701134   0.0701134   0.0810325), wk =   0.0219479
        k(   66) = (   0.0701134   0.0934846   0.0000000), wk =   0.0219479
        k(   67) = (   0.0701134   0.0934846   0.0202581), wk =   0.0438957
        k(   68) = (   0.0701134   0.0934846   0.0405162), wk =   0.0438957
        k(   69) = (   0.0701134   0.0934846   0.0607744), wk =   0.0438957
        k(   70) = (   0.0701134   0.0934846   0.0810325), wk =   0.0438957
        k(   71) = (   0.0934846   0.0934846   0.0000000), wk =   0.0109739
        k(   72) = (   0.0934846   0.0934846   0.0202581), wk =   0.0219479
        k(   73) = (   0.0934846   0.0934846   0.0405162), wk =   0.0219479
        k(   74) = (   0.0934846   0.0934846   0.0607744), wk =   0.0219479
        k(   75) = (   0.0934846   0.0934846   0.0810325), wk =   0.0219479

     Largest allocated arrays     est. size (Mb)     dimensions
     Largest temporary arrays     est. size (Mb)     dimensions

     Initial potential from superposition of free atoms
     Check: negative starting charge=   -0.083288

     starting charge   51.99980, renormalised to   54.00000

     negative rho (up, down):  8.649E-02 0.000E+00

     *
     * You are using vdW-DF for exchange-correlation in this calculation.
     * Please cite the following three references that made this development
     * possible:
     *
     *   M. Dion, H. Rydberg, E. Schroder, D. C. Langreth, and
     *   B. I. Lundqvist, Phys. Rev. Lett. 92, 246401 (2004).
     *
     *   T. Thonhauser, V. R. Cooper, S. Li, A. Puzder, P. Hyldgaard, and
     *   D. C. Langreth, Phys. Rev. B 76, 125112 (2007).
     *
     *   G. Roman-Perez and J. M. Soler, Phys. Rev. Lett. 103, 096102 (2009).
     *
     *
     * If you are using vdW-DF2, please also cite:
     *
     *   K. Lee, E. D. Murray, L. Kong, B. I. Lundqvist, and
     *   D. C. Langreth, Phys. Rev. B 82, 081101(R) (2010).
     *
     *
     * If you are calculating the stress with vdW-DF, please also cite:
     *
     *   R. Sabatini, E. Kucukbenli, B. Kolb, T. Thonhauser, and
     *   S. de Gironcoli, J. Phys.: Condens. Matter 24, 424209 (2012).
     *

     Carrying out vdW-DF run using the following parameters:

     Nqs =      20    Nr_points =    1024   r_max =   100.000
     q_mesh =
               0.00001000     0.04494208     0.09755937     0.15916263
               0.23128650     0.31572767     0.41458969     0.53033537
               0.66584808     0.82450364     1.01025438     1.22772762
               1.48234092     1.78043706     2.12944203     2.53805004
               3.01644009     3.57652955     4.23227104     5.00000000

     Gradients computed in reciprocal space

     Starting wfc are   36 randomized atomic wfcs +   11 random wfc

     Self-consistent Calculation

     iteration #  1     ecut=    58.80 Ry     beta=0.10
     Davidson diagonalization with overlap
     ethr =  1.00E-02,  avg # of iterations =  5.8

[...]

     total energy              =    -592.73239765 Ry
     Harris-Foulkes estimate   =    -592.98657456 Ry
     estimated scf accuracy    <       1.51511258 Ry

[...]

     iteration #  6     ecut=    58.80 Ry     beta=0.10
     Davidson diagonalization with overlap
     c_bands:  1 eigenvalues not converged
     ethr =  5.90E-06,  avg # of iterations =  4.1

[...]

     total energy              =    -592.54210224 Ry
     Harris-Foulkes estimate   =    -592.54206846 Ry
     estimated scf accuracy    <       0.00000112 Ry

     iteration # 13     ecut=    58.80 Ry     beta=0.10
     Davidson diagonalization with overlap
     ethr =  2.07E-09,  avg # of iterations =  2.0

     negative rho (up, down):  8.704E-02 0.000E+00

     End of self-consistent calculation

          k = 0.0000 0.0000 0.0000 (  6397 PWs)   bands (ev):

   -13.9820 -13.9384 -13.8915 -13.8915 -13.8905 -13.8352 -13.8352 -13.8301
   -13.7660 -13.6800  -2.7344   0.4443   2.4946   2.6584   2.8221   2.8995
     2.8995   3.2405   3.2757   3.2757   3.4766   3.7998   5.1343   6.5323
     6.9164   6.9164   8.9780  10.6652  12.5775  12.5775  13.0511  13.0511
    14.7376  15.4249  16.8520  17.0976  17.2783  17.2783  17.6695  18.1213
    19.4743  19.4743  20.6507  22.2431  22.9313  23.3765  23.3765

[...]

          k = 0.0935 0.0935 0.0810 (  6385 PWs)   bands (ev):

   -13.9448 -13.9393 -13.8989 -13.8973 -13.8318 -13.8301 -13.8236 -13.8198
   -13.7791 -13.7721  -1.1369  -1.0366   2.6598   2.6936   3.0467   3.0530
     3.1478   3.1773   3.2756   3.2836   3.3011   3.3135   5.3861   5.4980
     6.2114   6.8592   7.2611   7.8834  13.9982  14.1383  14.2204  14.3738
    15.8191  15.8563  19.2599  19.2612  19.4260  19.4382  19.5179  19.9248
    20.3266  20.3558  20.3596  20.5667  20.8089  21.1019  22.1345

     the Fermi energy is     9.5085 ev

!    total energy              =    -592.54224739 Ry
     Harris-Foulkes estimate   =    -592.54210241 Ry
     estimated scf accuracy    <       0.00000004 Ry

     The total energy is the sum of the following terms:

     one-electron contribution =    -127.84400421 Ry
     hartree contribution      =     105.59200438 Ry
     xc contribution           =    -213.95877770 Ry
     ewald contribution        =    -356.32536252 Ry
     smearing contrib. (-TS)   =      -0.00610734 Ry

     convergence has been achieved in  13 iterations

     Forces acting on atoms (Ry/au):

     negative rho (up, down):  8.704E-02 0.000E+00
     atom    1 type  1   force =     0.00000000    0.00000000    0.00000000
     atom    2 type  1   force =     0.00000000    0.00000000    0.00000000
     atom    3 type  2   force =     0.00000000    0.00000000    0.00000000
     atom    4 type  2   force =     0.00000000    0.00000000    0.00000000

     Total force =     0.000000     Total SCF correction =     0.000000

     General routines

     Parallel routines

   This run was terminated on:  18:57:44  18Feb2018

   JOB DONE.