     Program PWSCF v.5.1rc2 starts on 15Nov2017 at  4:11:19

     Current dimensions of program PWSCF are:
     Max number of different atomic species (ntypx) = 10
     Max number of k-points (npk) =  40000
     Max angular momentum in pseudopotentials (lmaxx) =  3

     IMPORTANT: XC functional enforced from input :
     Exchange-correlation      = BEEF-VDW ( 1  4 27 13 2)
     Any further DFT definition will be discarded
     Please, verify this is what you really want

     Found symmetry operation: I + ( -0.5000 -0.5000  0.0000)
     This is a supercell, fractional translations are disabled

     bravais-lattice index     =            0
     lattice parameter (alat)  =       1.8897  a.u.
     unit-cell volume          =     517.0500 (a.u.)^3
     number of atoms/cell      =            4
     number of atomic types    =            2
     number of electrons       =        56.00
     number of Kohn-Sham states=           48
     kinetic-energy cutoff     =      58.7989  Ry
     charge density cutoff     =     587.9892  Ry
     convergence threshold     =      1.0E-06
     mixing beta               =       0.1000
     number of iterations used =           10  plain     mixing
     Exchange-correlation      = BEEF-VDW ( 1  4 27 13 2)

     celldm(1)=   1.889726  celldm(2)=   0.000000  celldm(3)=   0.000000
     celldm(4)=   0.000000  celldm(5)=   0.000000  celldm(6)=   0.000000

     crystal axes: (cart. coord. in units of alat)
               a(1) = (   4.149073   0.000000   0.000000 )
               a(2) = (   0.000000   4.149073   0.000000 )
               a(3) = (   0.000000   0.000000   4.450757 )

     reciprocal axes: (cart. coord. in units 2 pi/alat)
               b(1) = (  0.241018  0.000000  0.000000 )
               b(2) = (  0.000000  0.241018  0.000000 )
               b(3) = (  0.000000  0.000000  0.224681 )

     PseudoPot. # 1 for Re read from file:
     /home/users/vossj/suncat/psp/gbrv1.5pbe/Re.UPF
     MD5 check sum: 85f993410f3e006da9d71c142b4ad953
     Pseudo is Ultrasoft + core correction, Zval = 15.0
     Generated by new atomic code, or converted to UPF format
     Using radial grid of  981 points,  8 beta functions with:
                l(1) =   0
                l(2) =   0
                l(3) =   1
                l(4) =   1
                l(5) =   2
                l(6) =   2
                l(7) =   3
                l(8) =   3
     Q(r) pseudized with  8 coefficients,  rinner =    1.150   1.150   1.150
                                                       1.150   1.150   1.150
                                                       1.150

     PseudoPot. # 2 for Tl read from file:
     /home/users/vossj/suncat/psp/gbrv1.5pbe/Tl.UPF
     MD5 check sum: b76cf1f7e72655a2b2c53cf6385d7059
     Pseudo is Ultrasoft + core correction, Zval = 13.0
     Generated by new atomic code, or converted to UPF format
     Using radial grid of  899 points,  6 beta functions with:
                l(1) =   0
                l(2) =   0
                l(3) =   1
                l(4) =   1
                l(5) =   2
                l(6) =   2
     Q(r) pseudized with  6 coefficients,  rinner =    1.100   1.100   1.100
                                                       1.100   1.100

     vdW kernel table read from file vdW_kernel_table
     MD5 check sum: 095c7af220d748ca6e76c0b4c6cfb241

     atomic species   valence    mass     pseudopotential
        Re1           15.00   186.20700     Re( 1.00)
        Tl1           13.00   204.38300     Tl( 1.00)

     16 Sym. Ops., with inversion, found

   Cartesian axes

     site n.     atom                  positions (alat units)
         1           Re1 tau(   1) = (   0.0000000   0.0000000   0.0000000  )
         2           Re1 tau(   2) = (   2.0745363   2.0745363   0.0000000  )
         3           Tl1 tau(   3) = (   2.0745363   0.0000000   2.2253786  )
         4           Tl1 tau(   4) = (   0.0000000   2.0745363   2.2253786  )

     number of k points=    75  Fermi-Dirac smearing, width (Ry)=  0.0073
                       cart. coord. in units 2pi/alat
        k(    1) = (   0.0000000   0.0000000   0.0000000), wk =   0.0027435
        k(    2) = (   0.0000000   0.0000000   0.0249645), wk =   0.0054870
        k(    3) = (   0.0000000   0.0000000   0.0499291), wk =   0.0054870
        k(    4) = (   0.0000000   0.0000000   0.0748936), wk =   0.0054870
        k(    5) = (   0.0000000   0.0000000   0.0998582), wk =   0.0054870
        k(    6) = (   0.0000000   0.0267797   0.0000000), wk =   0.0109739
        k(    7) = (   0.0000000   0.0267797   0.0249645), wk =   0.0219479
        k(    8) = (   0.0000000   0.0267797   0.0499291), wk =   0.0219479
        k(    9) = (   0.0000000   0.0267797   0.0748936), wk =   0.0219479
        k(   10) = (   0.0000000   0.0267797   0.0998582), wk =   0.0219479
        k(   11) = (   0.0000000   0.0535595   0.0000000), wk =   0.0109739
        k(   12) = (   0.0000000   0.0535595   0.0249645), wk =   0.0219479
        k(   13) = (   0.0000000   0.0535595   0.0499291), wk =   0.0219479
        k(   14) = (   0.0000000   0.0535595   0.0748936), wk =   0.0219479
        k(   15) = (   0.0000000   0.0535595   0.0998582), wk =   0.0219479
        k(   16) = (   0.0000000   0.0803392   0.0000000), wk =   0.0109739
        k(   17) = (   0.0000000   0.0803392   0.0249645), wk =   0.0219479
        k(   18) = (   0.0000000   0.0803392   0.0499291), wk =   0.0219479
        k(   19) = (   0.0000000   0.0803392   0.0748936), wk =   0.0219479
        k(   20) = (   0.0000000   0.0803392   0.0998582), wk =   0.0219479
        k(   21) = (   0.0000000   0.1071190   0.0000000), wk =   0.0109739
        k(   22) = (   0.0000000   0.1071190   0.0249645), wk =   0.0219479
        k(   23) = (   0.0000000   0.1071190   0.0499291), wk =   0.0219479
        k(   24) = (   0.0000000   0.1071190   0.0748936), wk =   0.0219479
        k(   25) = (   0.0000000   0.1071190   0.0998582), wk =   0.0219479
        k(   26) = (   0.0267797   0.0267797   0.0000000), wk =   0.0109739
        k(   27) = (   0.0267797   0.0267797   0.0249645), wk =   0.0219479
        k(   28) = (   0.0267797   0.0267797   0.0499291), wk =   0.0219479
        k(   29) = (   0.0267797   0.0267797   0.0748936), wk =   0.0219479
        k(   30) = (   0.0267797   0.0267797   0.0998582), wk =   0.0219479
        k(   31) = (   0.0267797   0.0535595   0.0000000), wk =   0.0219479
        k(   32) = (   0.0267797   0.0535595   0.0249645), wk =   0.0438957
        k(   33) = (   0.0267797   0.0535595   0.0499291), wk =   0.0438957
        k(   34) = (   0.0267797   0.0535595   0.0748936), wk =   0.0438957
        k(   35) = (   0.0267797   0.0535595   0.0998582), wk =   0.0438957
        k(   36) = (   0.0267797   0.0803392   0.0000000), wk =   0.0219479
        k(   37) = (   0.0267797   0.0803392   0.0249645), wk =   0.0438957
        k(   38) = (   0.0267797   0.0803392   0.0499291), wk =   0.0438957
        k(   39) = (   0.0267797   0.0803392   0.0748936), wk =   0.0438957
        k(   40) = (   0.0267797   0.0803392   0.0998582), wk =   0.0438957
        k(   41) = (   0.0267797   0.1071190   0.0000000), wk =   0.0219479
        k(   42) = (   0.0267797   0.1071190   0.0249645), wk =   0.0438957
        k(   43) = (   0.0267797   0.1071190   0.0499291), wk =   0.0438957
        k(   44) = (   0.0267797   0.1071190   0.0748936), wk =   0.0438957
        k(   45) = (   0.0267797   0.1071190   0.0998582), wk =   0.0438957
        k(   46) = (   0.0535595   0.0535595   0.0000000), wk =   0.0109739
        k(   47) = (   0.0535595   0.0535595   0.0249645), wk =   0.0219479
        k(   48) = (   0.0535595   0.0535595   0.0499291), wk =   0.0219479
        k(   49) = (   0.0535595   0.0535595   0.0748936), wk =   0.0219479
        k(   50) = (   0.0535595   0.0535595   0.0998582), wk =   0.0219479
        k(   51) = (   0.0535595   0.0803392   0.0000000), wk =   0.0219479
        k(   52) = (   0.0535595   0.0803392   0.0249645), wk =   0.0438957
        k(   53) = (   0.0535595   0.0803392   0.0499291), wk =   0.0438957
        k(   54) = (   0.0535595   0.0803392   0.0748936), wk =   0.0438957
        k(   55) = (   0.0535595   0.0803392   0.0998582), wk =   0.0438957
        k(   56) = (   0.0535595   0.1071190   0.0000000), wk =   0.0219479
        k(   57) = (   0.0535595   0.1071190   0.0249645), wk =   0.0438957
        k(   58) = (   0.0535595   0.1071190   0.0499291), wk =   0.0438957
        k(   59) = (   0.0535595   0.1071190   0.0748936), wk =   0.0438957
        k(   60) = (   0.0535595   0.1071190   0.0998582), wk =   0.0438957
        k(   61) = (   0.0803392   0.0803392   0.0000000), wk =   0.0109739
        k(   62) = (   0.0803392   0.0803392   0.0249645), wk =   0.0219479
        k(   63) = (   0.0803392   0.0803392   0.0499291), wk =   0.0219479
        k(   64) = (   0.0803392   0.0803392   0.0748936), wk =   0.0219479
        k(   65) = (   0.0803392   0.0803392   0.0998582), wk =   0.0219479
        k(   66) = (   0.0803392   0.1071190   0.0000000), wk =   0.0219479
        k(   67) = (   0.0803392   0.1071190   0.0249645), wk =   0.0438957
        k(   68) = (   0.0803392   0.1071190   0.0499291), wk =   0.0438957
        k(   69) = (   0.0803392   0.1071190   0.0748936), wk =   0.0438957
        k(   70) = (   0.0803392   0.1071190   0.0998582), wk =   0.0438957
        k(   71) = (   0.1071190   0.1071190   0.0000000), wk =   0.0109739
        k(   72) = (   0.1071190   0.1071190   0.0249645), wk =   0.0219479
        k(   73) = (   0.1071190   0.1071190   0.0499291), wk =   0.0219479
        k(   74) = (   0.1071190   0.1071190   0.0748936), wk =   0.0219479
        k(   75) = (   0.1071190   0.1071190   0.0998582), wk =   0.0219479

     Largest allocated arrays     est. size (Mb)     dimensions
     Largest temporary arrays     est. size (Mb)     dimensions

     Initial potential from superposition of free atoms
     Check: negative starting charge=   -0.357117

     starting charge   54.99018, renormalised to   56.00000

     negative rho (up, down):  3.637E-01 0.000E+00

     *
     * You are using vdW-DF for exchange-correlation in this calculation.
     * Please cite the following three references that made this development
     * possible:
     *
     *   M. Dion, H. Rydberg, E. Schroder, D. C. Langreth, and
     *   B. I. Lundqvist, Phys. Rev. Lett. 92, 246401 (2004).
     *
     *   T. Thonhauser, V. R. Cooper, S. Li, A. Puzder, P. Hyldgaard, and
     *   D. C. Langreth, Phys. Rev. B 76, 125112 (2007).
     *
     *   G. Roman-Perez and J. M. Soler, Phys. Rev. Lett. 103, 096102 (2009).
     *
     *
     * If you are using vdW-DF2, please also cite:
     *
     *   K. Lee, E. D. Murray, L. Kong, B. I. Lundqvist, and
     *   D. C. Langreth, Phys. Rev. B 82, 081101(R) (2010).
     *
     *
     * If you are calculating the stress with vdW-DF, please also cite:
     *
     *   R. Sabatini, E. Kucukbenli, B. Kolb, T. Thonhauser, and
     *   S. de Gironcoli, J. Phys.: Condens. Matter 24, 424209 (2012).
     *

     Carrying out vdW-DF run using the following parameters:

     Nqs =      20    Nr_points =    1024   r_max =   100.000
     q_mesh =
               0.00001000     0.04494208     0.09755937     0.15916263
               0.23128650     0.31572767     0.41458969     0.53033537
               0.66584808     0.82450364     1.01025438     1.22772762
               1.48234092     1.78043706     2.12944203     2.53805004
               3.01644009     3.57652955     4.23227104     5.00000000

     Gradients computed in reciprocal space

     Starting wfc are   44 randomized atomic wfcs +    4 random wfc

     Self-consistent Calculation

     iteration #  1     ecut=    58.80 Ry     beta=0.10
     Davidson diagonalization with overlap
     ethr =  1.00E-02,  avg # of iterations =  4.7

[...]

     total energy              =    -677.65051269 Ry
     Harris-Foulkes estimate   =    -677.74365590 Ry
     estimated scf accuracy    <       0.56290871 Ry

[...]

     total energy              =    -677.59412417 Ry
     Harris-Foulkes estimate   =    -677.59406164 Ry
     estimated scf accuracy    <       0.00000130 Ry

     iteration # 12     ecut=    58.80 Ry     beta=0.10
     Davidson diagonalization with overlap
     ethr =  2.32E-09,  avg # of iterations =  2.0

     negative rho (up, down):  3.749E-01 0.000E+00

     End of self-consistent calculation

          k = 0.0000 0.0000 0.0000 (  3921 PWs)   bands (ev):

   -62.6624 -62.6314 -24.4932 -24.4932 -24.3629 -24.2970 -24.2037 -24.2037
     4.5270   4.7463   4.9699   5.2745   5.2745   5.9415   5.9761   5.9761
     6.2250   6.5390   6.7492  13.0299  14.1552  14.5612  16.2419  16.4526
    16.4526  16.9086  16.9086  17.1631  18.4667  18.4667  19.3055  19.5853
    21.0935  21.2498  23.2975  24.7520  25.6013  25.6013  25.6458  25.6458
    26.6112  29.8786  32.1513  32.2362  32.8287  33.3835  33.3938  34.0502

[...]

          k = 0.1071 0.1071 0.0999 (  3928 PWs)   bands (ev):

   -62.6473 -62.6463 -24.5281 -24.5196 -24.3324 -24.3304 -24.1861 -24.1772
     4.8857   4.9404   5.0990   5.1130   5.6555   5.6999   6.0287   6.0500
     6.0518   6.0808  10.8832  11.1985  14.1090  14.1114  14.7487  14.7819
    15.7389  15.8586  17.5860  17.5973  17.7665  17.8899  18.6234  18.6490
    19.3918  19.5379  22.6345  22.7506  28.7082  28.7487  29.2832  29.3858
    30.0390  30.4990  31.3925  31.5028  31.5653  31.9819  34.0495  34.2989

     the Fermi energy is    17.8181 ev

!    total energy              =    -677.59439175 Ry
     Harris-Foulkes estimate   =    -677.59412430 Ry
     estimated scf accuracy    <       0.00000041 Ry

     The total energy is the sum of the following terms:

     one-electron contribution =     -71.57659146 Ry
     hartree contribution      =      79.30558645 Ry
     xc contribution           =    -236.46061143 Ry
     ewald contribution        =    -448.84916789 Ry
     smearing contrib. (-TS)   =      -0.01360742 Ry

     convergence has been achieved in  12 iterations

     Forces acting on atoms (Ry/au):

     negative rho (up, down):  3.749E-01 0.000E+00
     atom    1 type  1   force =     0.00000000    0.00000000    0.00000000
     atom    2 type  1   force =     0.00000000    0.00000000    0.00000000
     atom    3 type  2   force =     0.00000000    0.00000000    0.00000000
     atom    4 type  2   force =     0.00000000    0.00000000    0.00000000

     Total force =     0.000000     Total SCF correction =     0.000000

     General routines

     Parallel routines

   This run was terminated on:   4:12: 5  15Nov2017

   JOB DONE.