     Program PWSCF v.5.1rc2 starts on 13Nov2017 at 18:50:15

     Current dimensions of program PWSCF are:
     Max number of different atomic species (ntypx) = 10
     Max number of k-points (npk) =  40000
     Max angular momentum in pseudopotentials (lmaxx) =  3

     IMPORTANT: XC functional enforced from input :
     Exchange-correlation      = BEEF-VDW ( 1  4 27 13 2)
     Any further DFT definition will be discarded
     Please, verify this is what you really want

     Found symmetry operation: I + ( -0.5000 -0.5000  0.0000)
     This is a supercell, fractional translations are disabled

     bravais-lattice index     =            0
     lattice parameter (alat)  =       1.8897  a.u.
     unit-cell volume          =     727.3646 (a.u.)^3
     number of atoms/cell      =            4
     number of atomic types    =            2
     number of electrons       =        52.00
     number of Kohn-Sham states=           46
     kinetic-energy cutoff     =      58.7989  Ry
     charge density cutoff     =     587.9892  Ry
     convergence threshold     =      1.0E-06
     mixing beta               =       0.1000
     number of iterations used =           10  plain     mixing
     Exchange-correlation      = BEEF-VDW ( 1  4 27 13 2)

     celldm(1)=   1.889726  celldm(2)=   0.000000  celldm(3)=   0.000000
     celldm(4)=   0.000000  celldm(5)=   0.000000  celldm(6)=   0.000000

     crystal axes: (cart. coord. in units of alat)
               a(1) = (   4.671404   0.000000   0.000000 )
               a(2) = (   0.000000   4.671404   0.000000 )
               a(3) = (   0.000000   0.000000   4.939247 )

     reciprocal axes: (cart. coord. in units 2 pi/alat)
               b(1) = (  0.214068  0.000000  0.000000 )
               b(2) = (  0.000000  0.214068  0.000000 )
               b(3) = (  0.000000  0.000000  0.202460 )

     PseudoPot. # 1 for Cd read from file:
     /home/users/vossj/suncat/psp/gbrv1.5pbe/Cd.UPF
     MD5 check sum: 17164a7926edb8e0dc231208abae86a6
     Pseudo is Ultrasoft + core correction, Zval = 12.0
     Generated by new atomic code, or converted to UPF format
     Using radial grid of  889 points,  6 beta functions with:
                l(1) =   0
                l(2) =   0
                l(3) =   1
                l(4) =   1
                l(5) =   2
                l(6) =   2
     Q(r) pseudized with  6 coefficients,  rinner =    1.000   1.000   1.000
                                                       1.000   1.000

     PseudoPot. # 2 for Sn read from file:
     /home/users/vossj/suncat/psp/gbrv1.5pbe/Sn.UPF
     MD5 check sum: 469debedee59599fedebd795477fea03
     Pseudo is Ultrasoft + core correction, Zval = 14.0
     Generated by new atomic code, or converted to UPF format
     Using radial grid of  891 points,  6 beta functions with:
                l(1) =   0
                l(2) =   0
                l(3) =   1
                l(4) =   1
                l(5) =   2
                l(6) =   2
     Q(r) pseudized with  8 coefficients,  rinner =    1.350   1.350   1.350
                                                       1.350   1.350

     vdW kernel table read from file vdW_kernel_table
     MD5 check sum: 095c7af220d748ca6e76c0b4c6cfb241

     atomic species   valence    mass     pseudopotential
        Cd1           12.00   112.41000     Cd( 1.00)
        Sn1           14.00   118.71000     Sn( 1.00)

     16 Sym. Ops., with inversion, found

   Cartesian axes

     site n.     atom                  positions (alat units)
         1           Cd1 tau(   1) = (   0.0000000   0.0000000   0.0000000  )
         2           Cd1 tau(   2) = (   2.3357019   2.3357019   0.0000000  )
         3           Sn1 tau(   3) = (   2.3357019   0.0000000   2.4696235  )
         4           Sn1 tau(   4) = (   0.0000000   2.3357019   2.4696235  )

     number of k points=    75  Fermi-Dirac smearing, width (Ry)=  0.0073
                       cart. coord. in units 2pi/alat
        k(    1) = (   0.0000000   0.0000000   0.0000000), wk =   0.0027435
        k(    2) = (   0.0000000   0.0000000   0.0224956), wk =   0.0054870
        k(    3) = (   0.0000000   0.0000000   0.0449911), wk =   0.0054870
        k(    4) = (   0.0000000   0.0000000   0.0674867), wk =   0.0054870
        k(    5) = (   0.0000000   0.0000000   0.0899822), wk =   0.0054870
        k(    6) = (   0.0000000   0.0237854   0.0000000), wk =   0.0109739
        k(    7) = (   0.0000000   0.0237854   0.0224956), wk =   0.0219479
        k(    8) = (   0.0000000   0.0237854   0.0449911), wk =   0.0219479
        k(    9) = (   0.0000000   0.0237854   0.0674867), wk =   0.0219479
        k(   10) = (   0.0000000   0.0237854   0.0899822), wk =   0.0219479
        k(   11) = (   0.0000000   0.0475708   0.0000000), wk =   0.0109739
        k(   12) = (   0.0000000   0.0475708   0.0224956), wk =   0.0219479
        k(   13) = (   0.0000000   0.0475708   0.0449911), wk =   0.0219479
        k(   14) = (   0.0000000   0.0475708   0.0674867), wk =   0.0219479
        k(   15) = (   0.0000000   0.0475708   0.0899822), wk =   0.0219479
        k(   16) = (   0.0000000   0.0713561   0.0000000), wk =   0.0109739
        k(   17) = (   0.0000000   0.0713561   0.0224956), wk =   0.0219479
        k(   18) = (   0.0000000   0.0713561   0.0449911), wk =   0.0219479
        k(   19) = (   0.0000000   0.0713561   0.0674867), wk =   0.0219479
        k(   20) = (   0.0000000   0.0713561   0.0899822), wk =   0.0219479
        k(   21) = (   0.0000000   0.0951415   0.0000000), wk =   0.0109739
        k(   22) = (   0.0000000   0.0951415   0.0224956), wk =   0.0219479
        k(   23) = (   0.0000000   0.0951415   0.0449911), wk =   0.0219479
        k(   24) = (   0.0000000   0.0951415   0.0674867), wk =   0.0219479
        k(   25) = (   0.0000000   0.0951415   0.0899822), wk =   0.0219479
        k(   26) = (   0.0237854   0.0237854   0.0000000), wk =   0.0109739
        k(   27) = (   0.0237854   0.0237854   0.0224956), wk =   0.0219479
        k(   28) = (   0.0237854   0.0237854   0.0449911), wk =   0.0219479
        k(   29) = (   0.0237854   0.0237854   0.0674867), wk =   0.0219479
        k(   30) = (   0.0237854   0.0237854   0.0899822), wk =   0.0219479
        k(   31) = (   0.0237854   0.0475708   0.0000000), wk =   0.0219479
        k(   32) = (   0.0237854   0.0475708   0.0224956), wk =   0.0438957
        k(   33) = (   0.0237854   0.0475708   0.0449911), wk =   0.0438957
        k(   34) = (   0.0237854   0.0475708   0.0674867), wk =   0.0438957
        k(   35) = (   0.0237854   0.0475708   0.0899822), wk =   0.0438957
        k(   36) = (   0.0237854   0.0713561   0.0000000), wk =   0.0219479
        k(   37) = (   0.0237854   0.0713561   0.0224956), wk =   0.0438957
        k(   38) = (   0.0237854   0.0713561   0.0449911), wk =   0.0438957
        k(   39) = (   0.0237854   0.0713561   0.0674867), wk =   0.0438957
        k(   40) = (   0.0237854   0.0713561   0.0899822), wk =   0.0438957
        k(   41) = (   0.0237854   0.0951415   0.0000000), wk =   0.0219479
        k(   42) = (   0.0237854   0.0951415   0.0224956), wk =   0.0438957
        k(   43) = (   0.0237854   0.0951415   0.0449911), wk =   0.0438957
        k(   44) = (   0.0237854   0.0951415   0.0674867), wk =   0.0438957
        k(   45) = (   0.0237854   0.0951415   0.0899822), wk =   0.0438957
        k(   46) = (   0.0475708   0.0475708   0.0000000), wk =   0.0109739
        k(   47) = (   0.0475708   0.0475708   0.0224956), wk =   0.0219479
        k(   48) = (   0.0475708   0.0475708   0.0449911), wk =   0.0219479
        k(   49) = (   0.0475708   0.0475708   0.0674867), wk =   0.0219479
        k(   50) = (   0.0475708   0.0475708   0.0899822), wk =   0.0219479
        k(   51) = (   0.0475708   0.0713561   0.0000000), wk =   0.0219479
        k(   52) = (   0.0475708   0.0713561   0.0224956), wk =   0.0438957
        k(   53) = (   0.0475708   0.0713561   0.0449911), wk =   0.0438957
        k(   54) = (   0.0475708   0.0713561   0.0674867), wk =   0.0438957
        k(   55) = (   0.0475708   0.0713561   0.0899822), wk =   0.0438957
        k(   56) = (   0.0475708   0.0951415   0.0000000), wk =   0.0219479
        k(   57) = (   0.0475708   0.0951415   0.0224956), wk =   0.0438957
        k(   58) = (   0.0475708   0.0951415   0.0449911), wk =   0.0438957
        k(   59) = (   0.0475708   0.0951415   0.0674867), wk =   0.0438957
        k(   60) = (   0.0475708   0.0951415   0.0899822), wk =   0.0438957
        k(   61) = (   0.0713561   0.0713561   0.0000000), wk =   0.0109739
        k(   62) = (   0.0713561   0.0713561   0.0224956), wk =   0.0219479
        k(   63) = (   0.0713561   0.0713561   0.0449911), wk =   0.0219479
        k(   64) = (   0.0713561   0.0713561   0.0674867), wk =   0.0219479
        k(   65) = (   0.0713561   0.0713561   0.0899822), wk =   0.0219479
        k(   66) = (   0.0713561   0.0951415   0.0000000), wk =   0.0219479
        k(   67) = (   0.0713561   0.0951415   0.0224956), wk =   0.0438957
        k(   68) = (   0.0713561   0.0951415   0.0449911), wk =   0.0438957
        k(   69) = (   0.0713561   0.0951415   0.0674867), wk =   0.0438957
        k(   70) = (   0.0713561   0.0951415   0.0899822), wk =   0.0438957
        k(   71) = (   0.0951415   0.0951415   0.0000000), wk =   0.0109739
        k(   72) = (   0.0951415   0.0951415   0.0224956), wk =   0.0219479
        k(   73) = (   0.0951415   0.0951415   0.0449911), wk =   0.0219479
        k(   74) = (   0.0951415   0.0951415   0.0674867), wk =   0.0219479
        k(   75) = (   0.0951415   0.0951415   0.0899822), wk =   0.0219479

     Largest allocated arrays     est. size (Mb)     dimensions
     Largest temporary arrays     est. size (Mb)     dimensions

     Initial potential from superposition of free atoms
     Check: negative starting charge=   -0.041297

     starting charge   48.99983, renormalised to   52.00000

     negative rho (up, down):  4.383E-02 0.000E+00

     *
     * You are using vdW-DF for exchange-correlation in this calculation.
     * Please cite the following three references that made this development
     * possible:
     *
     *   M. Dion, H. Rydberg, E. Schroder, D. C. Langreth, and
     *   B. I. Lundqvist, Phys. Rev. Lett. 92, 246401 (2004).
     *
     *   T. Thonhauser, V. R. Cooper, S. Li, A. Puzder, P. Hyldgaard, and
     *   D. C. Langreth, Phys. Rev. B 76, 125112 (2007).
     *
     *   G. Roman-Perez and J. M. Soler, Phys. Rev. Lett. 103, 096102 (2009).
     *
     *
     * If you are using vdW-DF2, please also cite:
     *
     *   K. Lee, E. D. Murray, L. Kong, B. I. Lundqvist, and
     *   D. C. Langreth, Phys. Rev. B 82, 081101(R) (2010).
     *
     *
     * If you are calculating the stress with vdW-DF, please also cite:
     *
     *   R. Sabatini, E. Kucukbenli, B. Kolb, T. Thonhauser, and
     *   S. de Gironcoli, J. Phys.: Condens. Matter 24, 424209 (2012).
     *

     Carrying out vdW-DF run using the following parameters:

     Nqs =      20    Nr_points =    1024   r_max =   100.000
     q_mesh =
               0.00001000     0.04494208     0.09755937     0.15916263
               0.23128650     0.31572767     0.41458969     0.53033537
               0.66584808     0.82450364     1.01025438     1.22772762
               1.48234092     1.78043706     2.12944203     2.53805004
               3.01644009     3.57652955     4.23227104     5.00000000

     Gradients computed in reciprocal space

     Starting wfc are   36 randomized atomic wfcs +   10 random wfc

     Self-consistent Calculation

     iteration #  1     ecut=    58.80 Ry     beta=0.10
     Davidson diagonalization with overlap
     ethr =  1.00E-02,  avg # of iterations =  5.5

[...]

     total energy              =    -554.06242527 Ry
     Harris-Foulkes estimate   =    -554.36031524 Ry
     estimated scf accuracy    <       1.79909996 Ry

[...]

     total energy              =    -553.61909906 Ry
     Harris-Foulkes estimate   =    -553.61904951 Ry
     estimated scf accuracy    <       0.00000256 Ry

     iteration # 11     ecut=    58.80 Ry     beta=0.10
     Davidson diagonalization with overlap
     ethr =  4.92E-09,  avg # of iterations =  2.1

     negative rho (up, down):  4.265E-02 0.000E+00

     End of self-consistent calculation

          k = 0.0000 0.0000 0.0000 (  5531 PWs)   bands (ev):

   -12.4167 -12.3513 -12.3465 -12.3227 -12.3227 -12.2725 -12.2725 -12.2604
   -12.2362 -12.1659  -0.2269   0.4206   0.4569   0.6462   0.7117   0.7117
     0.9465   0.9465   0.9484   1.0701   1.2806   5.4974   7.1357   7.3391
     7.4307   7.4307   9.7510  12.1140  13.5950  13.5950  13.7070  13.7070
    15.0462  16.9574  17.1611  17.1976  17.1976  17.3611  17.4302  20.0067
    20.3890  20.3890  21.5078  23.5567  23.5567  24.1867

[...]

          k = 0.0951 0.0951 0.0900 (  5559 PWs)   bands (ev):

   -12.3675 -12.3625 -12.3309 -12.3294 -12.2859 -12.2825 -12.2694 -12.2678
   -12.2345 -12.2293   0.3700   0.3744   0.5802   0.5998   0.8609   0.8795
     0.9573   0.9671   1.0130   1.0285   3.2811   3.5291   5.8461   6.0742
     6.4042   7.0407   7.4868   8.1476  15.7592  16.1337  16.3532  16.4536
    17.5770  17.6979  19.7294  20.0295  20.1911  20.1966  20.4881  21.0308
    21.2726  21.4068  21.8666  22.0325  22.0488  22.1931

     the Fermi energy is     9.6730 ev

!    total energy              =    -553.61931295 Ry
     Harris-Foulkes estimate   =    -553.61909972 Ry
     estimated scf accuracy    <       0.00000008 Ry

     The total energy is the sum of the following terms:

     one-electron contribution =    -161.48032640 Ry
     hartree contribution      =     124.01224399 Ry
     xc contribution           =    -170.58576202 Ry
     ewald contribution        =    -345.56134553 Ry
     smearing contrib. (-TS)   =      -0.00412298 Ry

     convergence has been achieved in  11 iterations

     Forces acting on atoms (Ry/au):

     negative rho (up, down):  4.265E-02 0.000E+00
     atom    1 type  1   force =     0.00000000    0.00000000    0.00000000
     atom    2 type  1   force =     0.00000000    0.00000000    0.00000000
     atom    3 type  2   force =     0.00000000    0.00000000    0.00000000
     atom    4 type  2   force =     0.00000000    0.00000000    0.00000000

     Total force =     0.000000     Total SCF correction =     0.000000

     General routines

     Parallel routines

   This run was terminated on:  18:51: 8  13Nov2017

   JOB DONE.