     Program PWSCF v.5.1rc2 (svn rev. ) starts on 14Nov2017 at 20:16:33

     Current dimensions of program PWSCF are:
     Max number of different atomic species (ntypx) = 10
     Max number of k-points (npk) =  40000
     Max angular momentum in pseudopotentials (lmaxx) =  3

     IMPORTANT: XC functional enforced from input :
     Exchange-correlation      = BEEF-VDW ( 1  4 27 13 2)
     Any further DFT definition will be discarded
     Please, verify this is what you really want

     Subspace diagonalization in iterative solution of the eigenvalue problem:
     a serial algorithm will be used

     Found symmetry operation: I + ( -0.5000 -0.5000  0.0000)
     This is a supercell, fractional translations are disabled

     bravais-lattice index     =            0
     lattice parameter (alat)  =       1.8897  a.u.
     unit-cell volume          =     392.1521 (a.u.)^3
     number of atoms/cell      =            4
     number of atomic types    =            2
     number of electrons       =        68.00
     number of Kohn-Sham states=           54
     kinetic-energy cutoff     =      58.7989  Ry
     charge density cutoff     =     587.9892  Ry
     convergence threshold     =      1.0E-06
     mixing beta               =       0.1000
     number of iterations used =           10  plain     mixing
     Exchange-correlation      = BEEF-VDW ( 1  4 27 13 2)

     celldm(1)=   1.889726  celldm(2)=   0.000000  celldm(3)=   0.000000
     celldm(4)=   0.000000  celldm(5)=   0.000000  celldm(6)=   0.000000

     crystal axes: (cart. coord. in units of alat)
               a(1) = (   4.387806   0.000000   0.000000 )
               a(2) = (   0.000000   4.387806   0.000000 )
               a(3) = (   0.000000   0.000000   3.018305 )

     reciprocal axes: (cart. coord. in units 2 pi/alat)
               b(1) = (  0.227904  0.000000  0.000000 )
               b(2) = (  0.000000  0.227904  0.000000 )
               b(3) = (  0.000000  0.000000  0.331312 )

     PseudoPot. # 1 for Ga read from file:
     /home/vossj/suncat/psp/gbrv1.5pbe/Ga.UPF
     MD5 check sum: ccd671392a58a050fbb373893b4fcd66
     Pseudo is Ultrasoft + core correction, Zval = 19.0
     Generated by new atomic code, or converted to UPF format
     Using radial grid of  871 points,  6 beta functions with:
                l(1) =   0
                l(2) =   0
                l(3) =   1
                l(4) =   1
                l(5) =   2
                l(6) =   2
     Q(r) pseudized with  8 coefficients,  rinner =    1.250   1.250   1.250
                                                       1.250   1.250

     PseudoPot. # 2 for Tc read from file:
     /home/vossj/suncat/psp/gbrv1.5pbe/Tc.UPF
     MD5 check sum: 9eb49e5b028550b2339a02317eb7b844
     Pseudo is Ultrasoft + core correction, Zval = 15.0
     Generated by new atomic code, or converted to UPF format
     Using radial grid of  965 points,  6 beta functions with:
                l(1) =   0
                l(2) =   0
                l(3) =   1
                l(4) =   1
                l(5) =   2
                l(6) =   2
     Q(r) pseudized with  8 coefficients,  rinner =    1.300   1.300   1.300
                                                       1.300   1.300

     vdW kernel table read from file vdW_kernel_table
     MD5 check sum: 095c7af220d748ca6e76c0b4c6cfb241

     atomic species   valence    mass     pseudopotential
        Ga1           19.00    69.72300     Ga( 1.00)
        Tc1           15.00    97.90721     Tc( 1.00)

     16 Sym. Ops., with inversion, found

   Cartesian axes

     site n.     atom                  positions (alat units)
         1           Ga1 tau(   1) = (   0.0000000   0.0000000   0.0000000  )
         2           Ga1 tau(   2) = (   2.1939030   2.1939030   0.0000000  )
         3           Tc1 tau(   3) = (   2.1939030   0.0000000   1.5091526  )
         4           Tc1 tau(   4) = (   0.0000000   2.1939030   1.5091526  )

     number of k points=    75  Fermi-Dirac smearing, width (Ry)=  0.0073
                       cart. coord. in units 2pi/alat
        k(    1) = (   0.0000000   0.0000000   0.0000000), wk =   0.0027435
        k(    2) = (   0.0000000   0.0000000   0.0368124), wk =   0.0054870
        k(    3) = (   0.0000000   0.0000000   0.0736248), wk =   0.0054870
        k(    4) = (   0.0000000   0.0000000   0.1104373), wk =   0.0054870
        k(    5) = (   0.0000000   0.0000000   0.1472497), wk =   0.0054870
        k(    6) = (   0.0000000   0.0253227   0.0000000), wk =   0.0109739
        k(    7) = (   0.0000000   0.0253227   0.0368124), wk =   0.0219479
        k(    8) = (   0.0000000   0.0253227   0.0736248), wk =   0.0219479
        k(    9) = (   0.0000000   0.0253227   0.1104373), wk =   0.0219479
        k(   10) = (   0.0000000   0.0253227   0.1472497), wk =   0.0219479
        k(   11) = (   0.0000000   0.0506454   0.0000000), wk =   0.0109739
        k(   12) = (   0.0000000   0.0506454   0.0368124), wk =   0.0219479
        k(   13) = (   0.0000000   0.0506454   0.0736248), wk =   0.0219479
        k(   14) = (   0.0000000   0.0506454   0.1104373), wk =   0.0219479
        k(   15) = (   0.0000000   0.0506454   0.1472497), wk =   0.0219479
        k(   16) = (   0.0000000   0.0759681   0.0000000), wk =   0.0109739
        k(   17) = (   0.0000000   0.0759681   0.0368124), wk =   0.0219479
        k(   18) = (   0.0000000   0.0759681   0.0736248), wk =   0.0219479
        k(   19) = (   0.0000000   0.0759681   0.1104373), wk =   0.0219479
        k(   20) = (   0.0000000   0.0759681   0.1472497), wk =   0.0219479
        k(   21) = (   0.0000000   0.1012908   0.0000000), wk =   0.0109739
        k(   22) = (   0.0000000   0.1012908   0.0368124), wk =   0.0219479
        k(   23) = (   0.0000000   0.1012908   0.0736248), wk =   0.0219479
        k(   24) = (   0.0000000   0.1012908   0.1104373), wk =   0.0219479
        k(   25) = (   0.0000000   0.1012908   0.1472497), wk =   0.0219479
        k(   26) = (   0.0253227   0.0253227   0.0000000), wk =   0.0109739
        k(   27) = (   0.0253227   0.0253227   0.0368124), wk =   0.0219479
        k(   28) = (   0.0253227   0.0253227   0.0736248), wk =   0.0219479
        k(   29) = (   0.0253227   0.0253227   0.1104373), wk =   0.0219479
        k(   30) = (   0.0253227   0.0253227   0.1472497), wk =   0.0219479
        k(   31) = (   0.0253227   0.0506454   0.0000000), wk =   0.0219479
        k(   32) = (   0.0253227   0.0506454   0.0368124), wk =   0.0438957
        k(   33) = (   0.0253227   0.0506454   0.0736248), wk =   0.0438957
        k(   34) = (   0.0253227   0.0506454   0.1104373), wk =   0.0438957
        k(   35) = (   0.0253227   0.0506454   0.1472497), wk =   0.0438957
        k(   36) = (   0.0253227   0.0759681   0.0000000), wk =   0.0219479
        k(   37) = (   0.0253227   0.0759681   0.0368124), wk =   0.0438957
        k(   38) = (   0.0253227   0.0759681   0.0736248), wk =   0.0438957
        k(   39) = (   0.0253227   0.0759681   0.1104373), wk =   0.0438957
        k(   40) = (   0.0253227   0.0759681   0.1472497), wk =   0.0438957
        k(   41) = (   0.0253227   0.1012908   0.0000000), wk =   0.0219479
        k(   42) = (   0.0253227   0.1012908   0.0368124), wk =   0.0438957
        k(   43) = (   0.0253227   0.1012908   0.0736248), wk =   0.0438957
        k(   44) = (   0.0253227   0.1012908   0.1104373), wk =   0.0438957
        k(   45) = (   0.0253227   0.1012908   0.1472497), wk =   0.0438957
        k(   46) = (   0.0506454   0.0506454   0.0000000), wk =   0.0109739
        k(   47) = (   0.0506454   0.0506454   0.0368124), wk =   0.0219479
        k(   48) = (   0.0506454   0.0506454   0.0736248), wk =   0.0219479
        k(   49) = (   0.0506454   0.0506454   0.1104373), wk =   0.0219479
        k(   50) = (   0.0506454   0.0506454   0.1472497), wk =   0.0219479
        k(   51) = (   0.0506454   0.0759681   0.0000000), wk =   0.0219479
        k(   52) = (   0.0506454   0.0759681   0.0368124), wk =   0.0438957
        k(   53) = (   0.0506454   0.0759681   0.0736248), wk =   0.0438957
        k(   54) = (   0.0506454   0.0759681   0.1104373), wk =   0.0438957
        k(   55) = (   0.0506454   0.0759681   0.1472497), wk =   0.0438957
        k(   56) = (   0.0506454   0.1012908   0.0000000), wk =   0.0219479
        k(   57) = (   0.0506454   0.1012908   0.0368124), wk =   0.0438957
        k(   58) = (   0.0506454   0.1012908   0.0736248), wk =   0.0438957
        k(   59) = (   0.0506454   0.1012908   0.1104373), wk =   0.0438957
        k(   60) = (   0.0506454   0.1012908   0.1472497), wk =   0.0438957
        k(   61) = (   0.0759681   0.0759681   0.0000000), wk =   0.0109739
        k(   62) = (   0.0759681   0.0759681   0.0368124), wk =   0.0219479
        k(   63) = (   0.0759681   0.0759681   0.0736248), wk =   0.0219479
        k(   64) = (   0.0759681   0.0759681   0.1104373), wk =   0.0219479
        k(   65) = (   0.0759681   0.0759681   0.1472497), wk =   0.0219479
        k(   66) = (   0.0759681   0.1012908   0.0000000), wk =   0.0219479
        k(   67) = (   0.0759681   0.1012908   0.0368124), wk =   0.0438957
        k(   68) = (   0.0759681   0.1012908   0.0736248), wk =   0.0438957
        k(   69) = (   0.0759681   0.1012908   0.1104373), wk =   0.0438957
        k(   70) = (   0.0759681   0.1012908   0.1472497), wk =   0.0438957
        k(   71) = (   0.1012908   0.1012908   0.0000000), wk =   0.0109739
        k(   72) = (   0.1012908   0.1012908   0.0368124), wk =   0.0219479
        k(   73) = (   0.1012908   0.1012908   0.0736248), wk =   0.0219479
        k(   74) = (   0.1012908   0.1012908   0.1104373), wk =   0.0219479
        k(   75) = (   0.1012908   0.1012908   0.1472497), wk =   0.0219479

     Largest allocated arrays     est. size (Mb)     dimensions
     Largest temporary arrays     est. size (Mb)     dimensions

     Check: negative/imaginary core charge=   -0.000007    0.000000

     Initial potential from superposition of free atoms
     Check: negative starting charge=   -0.251424

     starting charge   63.99994, renormalised to   68.00000

     negative rho (up, down):  2.671E-01 0.000E+00

     *
     * You are using vdW-DF for exchange-correlation in this calculation.
     * Please cite the following three references that made this development
     * possible:
     *
     *   M. Dion, H. Rydberg, E. Schroder, D. C. Langreth, and
     *   B. I. Lundqvist, Phys. Rev. Lett. 92, 246401 (2004).
     *
     *   T. Thonhauser, V. R. Cooper, S. Li, A. Puzder, P. Hyldgaard, and
     *   D. C. Langreth, Phys. Rev. B 76, 125112 (2007).
     *
     *   G. Roman-Perez and J. M. Soler, Phys. Rev. Lett. 103, 096102 (2009).
     *
     *
     * If you are using vdW-DF2, please also cite:
     *
     *   K. Lee, E. D. Murray, L. Kong, B. I. Lundqvist, and
     *   D. C. Langreth, Phys. Rev. B 82, 081101(R) (2010).
     *
     *
     * If you are calculating the stress with vdW-DF, please also cite:
     *
     *   R. Sabatini, E. Kucukbenli, B. Kolb, T. Thonhauser, and
     *   S. de Gironcoli, J. Phys.: Condens. Matter 24, 424209 (2012).
     *

     Carrying out vdW-DF run using the following parameters:

     Nqs =      20    Nr_points =    1024   r_max =   100.000
     q_mesh =
               0.00001000     0.04494208     0.09755937     0.15916263
               0.23128650     0.31572767     0.41458969     0.53033537
               0.66584808     0.82450364     1.01025438     1.22772762
               1.48234092     1.78043706     2.12944203     2.53805004
               3.01644009     3.57652955     4.23227104     5.00000000

     Gradients computed in reciprocal space

     Starting wfc are   50 randomized atomic wfcs +    4 random wfc

     Self-consistent Calculation

     iteration #  1     ecut=    58.80 Ry     beta=0.10
     Davidson diagonalization with overlap
     ethr =  1.00E-02,  avg # of iterations =  4.5

[...]

     total energy              =   -1179.92765588 Ry
     Harris-Foulkes estimate   =   -1190.09328538 Ry
     estimated scf accuracy    <      56.35220787 Ry

[...]

     total energy              =   -1183.85740066 Ry
     Harris-Foulkes estimate   =   -1183.85740609 Ry
     estimated scf accuracy    <       0.00001182 Ry

     iteration # 11     ecut=    58.80 Ry     beta=0.10
     Davidson diagonalization with overlap
     ethr =  1.74E-08,  avg # of iterations =  2.0

     negative rho (up, down):  2.573E-01 0.000E+00

     End of self-consistent calculation

          k = 0.0000 0.0000 0.0000 (  2985 PWs)   bands (ev):

   -76.0317 -76.0315 -76.0304 -76.0304 -76.0295 -76.0295 -48.3470 -48.3171
   -20.4739 -20.4739 -20.2954 -20.2954 -20.2653 -20.2309   3.4237   3.4414
     3.4607   3.5168   3.5691   3.5691   3.6306   3.6431   3.6431   3.7578
     7.7893  11.3810  15.3607  15.3953  15.8240  16.3710  16.3710  17.9679
    17.9679  18.8705  19.0220  19.0220  20.0653  22.7918  22.9974  22.9974
    23.7916  24.1795  27.5170  29.9572  31.1103  31.3071  31.8576  31.8576
    34.7026  36.2588  36.2588  36.8197  38.8056  38.8056

[...]

          k = 0.1013 0.1013 0.1472 (  3000 PWs)   bands (ev):

   -76.0331 -76.0331 -76.0303 -76.0303 -76.0293 -76.0293 -48.3118 -48.3110
   -20.4982 -20.4967 -20.4667 -20.4616 -20.2601 -20.2548   3.4568   3.4585
     3.5421   3.5483   3.5493   3.5501   3.5554   3.5593   3.7592   3.7641
    11.5493  11.5921  15.4947  15.6987  16.1770  16.4547  16.5595  16.8090
    17.6837  17.8065  18.0360  18.0591  20.2580  20.2893  22.7152  22.9519
    24.6692  24.7736  26.9212  27.0586  31.1597  31.2620  31.5580  31.6898
    34.9165  34.9967  36.6104  37.1030  38.3600  38.3764

     the Fermi energy is    18.2661 ev

!    total energy              =   -1183.85740821 Ry
     Harris-Foulkes estimate   =   -1183.85740257 Ry
     estimated scf accuracy    <       0.00000090 Ry

     The total energy is the sum of the following terms:

     one-electron contribution =    -664.31437292 Ry
     hartree contribution      =     376.39708826 Ry
     xc contribution           =    -166.19136842 Ry
     ewald contribution        =    -729.73633390 Ry
     smearing contrib. (-TS)   =      -0.01242123 Ry

     convergence has been achieved in  11 iterations

     Forces acting on atoms (Ry/au):

     negative rho (up, down):  2.573E-01 0.000E+00
     atom    1 type  1   force =     0.00000000    0.00000000    0.00000000
     atom    2 type  1   force =     0.00000000    0.00000000    0.00000000
     atom    3 type  2   force =     0.00000000    0.00000000    0.00000000
     atom    4 type  2   force =     0.00000000    0.00000000    0.00000000

     Total force =     0.000000     Total SCF correction =     0.000000

     General routines

     Parallel routines

   This run was terminated on:  20:17:23  14Nov2017

   JOB DONE.