     Program PWSCF v.5.1rc2 starts on 14Nov2017 at 14:15:22

     Current dimensions of program PWSCF are:
     Max number of different atomic species (ntypx) = 10
     Max number of k-points (npk) =  40000
     Max angular momentum in pseudopotentials (lmaxx) =  3

     IMPORTANT: XC functional enforced from input :
     Exchange-correlation      = BEEF-VDW ( 1  4 27 13 2)
     Any further DFT definition will be discarded
     Please, verify this is what you really want

     Found symmetry operation: I + ( -0.5000 -0.5000  0.0000)
     This is a supercell, fractional translations are disabled

     bravais-lattice index     =            0
     lattice parameter (alat)  =       1.8897  a.u.
     unit-cell volume          =     662.7640 (a.u.)^3
     number of atoms/cell      =            4
     number of atomic types    =            2
     number of electrons       =        66.00
     number of Kohn-Sham states=           53
     kinetic-energy cutoff     =      58.7989  Ry
     charge density cutoff     =     587.9892  Ry
     convergence threshold     =      1.0E-06
     mixing beta               =       0.1000
     number of iterations used =           10  plain     mixing
     Exchange-correlation      = BEEF-VDW ( 1  4 27 13 2)

     celldm(1)=   1.889726  celldm(2)=   0.000000  celldm(3)=   0.000000
     celldm(4)=   0.000000  celldm(5)=   0.000000  celldm(6)=   0.000000

     crystal axes: (cart. coord. in units of alat)
               a(1) = (   4.936285   0.000000   0.000000 )
               a(2) = (   0.000000   4.936285   0.000000 )
               a(3) = (   0.000000   0.000000   4.030527 )

     reciprocal axes: (cart. coord. in units 2 pi/alat)
               b(1) = (  0.202581  0.000000  0.000000 )
               b(2) = (  0.000000  0.202581  0.000000 )
               b(3) = (  0.000000  0.000000  0.248107 )

     PseudoPot. # 1 for Ga read from file:
     /home/users/vossj/suncat/psp/gbrv1.5pbe/Ga.UPF
     MD5 check sum: ccd671392a58a050fbb373893b4fcd66
     Pseudo is Ultrasoft + core correction, Zval = 19.0
     Generated by new atomic code, or converted to UPF format
     Using radial grid of  871 points,  6 beta functions with:
                l(1) =   0
                l(2) =   0
                l(3) =   1
                l(4) =   1
                l(5) =   2
                l(6) =   2
     Q(r) pseudized with  8 coefficients,  rinner =    1.250   1.250   1.250
                                                       1.250   1.250

     PseudoPot. # 2 for Sn read from file:
     /home/users/vossj/suncat/psp/gbrv1.5pbe/Sn.UPF
     MD5 check sum: 469debedee59599fedebd795477fea03
     Pseudo is Ultrasoft + core correction, Zval = 14.0
     Generated by new atomic code, or converted to UPF format
     Using radial grid of  891 points,  6 beta functions with:
                l(1) =   0
                l(2) =   0
                l(3) =   1
                l(4) =   1
                l(5) =   2
                l(6) =   2
     Q(r) pseudized with  8 coefficients,  rinner =    1.350   1.350   1.350
                                                       1.350   1.350

     vdW kernel table read from file vdW_kernel_table
     MD5 check sum: 095c7af220d748ca6e76c0b4c6cfb241

     atomic species   valence    mass     pseudopotential
        Ga1           19.00    69.72300     Ga( 1.00)
        Sn1           14.00   118.71000     Sn( 1.00)

     16 Sym. Ops., with inversion, found

   Cartesian axes

     site n.     atom                  positions (alat units)
         1           Ga1 tau(   1) = (   0.0000000   0.0000000   0.0000000  )
         2           Ga1 tau(   2) = (   2.4681426   2.4681426   0.0000000  )
         3           Sn1 tau(   3) = (   2.4681426   0.0000000   2.0152635  )
         4           Sn1 tau(   4) = (   0.0000000   2.4681426   2.0152635  )

     number of k points=    75  Fermi-Dirac smearing, width (Ry)=  0.0073
                       cart. coord. in units 2pi/alat
        k(    1) = (   0.0000000   0.0000000   0.0000000), wk =   0.0027435
        k(    2) = (   0.0000000   0.0000000   0.0275674), wk =   0.0054870
        k(    3) = (   0.0000000   0.0000000   0.0551348), wk =   0.0054870
        k(    4) = (   0.0000000   0.0000000   0.0827022), wk =   0.0054870
        k(    5) = (   0.0000000   0.0000000   0.1102696), wk =   0.0054870
        k(    6) = (   0.0000000   0.0225091   0.0000000), wk =   0.0109739
        k(    7) = (   0.0000000   0.0225091   0.0275674), wk =   0.0219479
        k(    8) = (   0.0000000   0.0225091   0.0551348), wk =   0.0219479
        k(    9) = (   0.0000000   0.0225091   0.0827022), wk =   0.0219479
        k(   10) = (   0.0000000   0.0225091   0.1102696), wk =   0.0219479
        k(   11) = (   0.0000000   0.0450181   0.0000000), wk =   0.0109739
        k(   12) = (   0.0000000   0.0450181   0.0275674), wk =   0.0219479
        k(   13) = (   0.0000000   0.0450181   0.0551348), wk =   0.0219479
        k(   14) = (   0.0000000   0.0450181   0.0827022), wk =   0.0219479
        k(   15) = (   0.0000000   0.0450181   0.1102696), wk =   0.0219479
        k(   16) = (   0.0000000   0.0675272   0.0000000), wk =   0.0109739
        k(   17) = (   0.0000000   0.0675272   0.0275674), wk =   0.0219479
        k(   18) = (   0.0000000   0.0675272   0.0551348), wk =   0.0219479
        k(   19) = (   0.0000000   0.0675272   0.0827022), wk =   0.0219479
        k(   20) = (   0.0000000   0.0675272   0.1102696), wk =   0.0219479
        k(   21) = (   0.0000000   0.0900362   0.0000000), wk =   0.0109739
        k(   22) = (   0.0000000   0.0900362   0.0275674), wk =   0.0219479
        k(   23) = (   0.0000000   0.0900362   0.0551348), wk =   0.0219479
        k(   24) = (   0.0000000   0.0900362   0.0827022), wk =   0.0219479
        k(   25) = (   0.0000000   0.0900362   0.1102696), wk =   0.0219479
        k(   26) = (   0.0225091   0.0225091   0.0000000), wk =   0.0109739
        k(   27) = (   0.0225091   0.0225091   0.0275674), wk =   0.0219479
        k(   28) = (   0.0225091   0.0225091   0.0551348), wk =   0.0219479
        k(   29) = (   0.0225091   0.0225091   0.0827022), wk =   0.0219479
        k(   30) = (   0.0225091   0.0225091   0.1102696), wk =   0.0219479
        k(   31) = (   0.0225091   0.0450181   0.0000000), wk =   0.0219479
        k(   32) = (   0.0225091   0.0450181   0.0275674), wk =   0.0438957
        k(   33) = (   0.0225091   0.0450181   0.0551348), wk =   0.0438957
        k(   34) = (   0.0225091   0.0450181   0.0827022), wk =   0.0438957
        k(   35) = (   0.0225091   0.0450181   0.1102696), wk =   0.0438957
        k(   36) = (   0.0225091   0.0675272   0.0000000), wk =   0.0219479
        k(   37) = (   0.0225091   0.0675272   0.0275674), wk =   0.0438957
        k(   38) = (   0.0225091   0.0675272   0.0551348), wk =   0.0438957
        k(   39) = (   0.0225091   0.0675272   0.0827022), wk =   0.0438957
        k(   40) = (   0.0225091   0.0675272   0.1102696), wk =   0.0438957
        k(   41) = (   0.0225091   0.0900362   0.0000000), wk =   0.0219479
        k(   42) = (   0.0225091   0.0900362   0.0275674), wk =   0.0438957
        k(   43) = (   0.0225091   0.0900362   0.0551348), wk =   0.0438957
        k(   44) = (   0.0225091   0.0900362   0.0827022), wk =   0.0438957
        k(   45) = (   0.0225091   0.0900362   0.1102696), wk =   0.0438957
        k(   46) = (   0.0450181   0.0450181   0.0000000), wk =   0.0109739
        k(   47) = (   0.0450181   0.0450181   0.0275674), wk =   0.0219479
        k(   48) = (   0.0450181   0.0450181   0.0551348), wk =   0.0219479
        k(   49) = (   0.0450181   0.0450181   0.0827022), wk =   0.0219479
        k(   50) = (   0.0450181   0.0450181   0.1102696), wk =   0.0219479
        k(   51) = (   0.0450181   0.0675272   0.0000000), wk =   0.0219479
        k(   52) = (   0.0450181   0.0675272   0.0275674), wk =   0.0438957
        k(   53) = (   0.0450181   0.0675272   0.0551348), wk =   0.0438957
        k(   54) = (   0.0450181   0.0675272   0.0827022), wk =   0.0438957
        k(   55) = (   0.0450181   0.0675272   0.1102696), wk =   0.0438957
        k(   56) = (   0.0450181   0.0900362   0.0000000), wk =   0.0219479
        k(   57) = (   0.0450181   0.0900362   0.0275674), wk =   0.0438957
        k(   58) = (   0.0450181   0.0900362   0.0551348), wk =   0.0438957
        k(   59) = (   0.0450181   0.0900362   0.0827022), wk =   0.0438957
        k(   60) = (   0.0450181   0.0900362   0.1102696), wk =   0.0438957
        k(   61) = (   0.0675272   0.0675272   0.0000000), wk =   0.0109739
        k(   62) = (   0.0675272   0.0675272   0.0275674), wk =   0.0219479
        k(   63) = (   0.0675272   0.0675272   0.0551348), wk =   0.0219479
        k(   64) = (   0.0675272   0.0675272   0.0827022), wk =   0.0219479
        k(   65) = (   0.0675272   0.0675272   0.1102696), wk =   0.0219479
        k(   66) = (   0.0675272   0.0900362   0.0000000), wk =   0.0219479
        k(   67) = (   0.0675272   0.0900362   0.0275674), wk =   0.0438957
        k(   68) = (   0.0675272   0.0900362   0.0551348), wk =   0.0438957
        k(   69) = (   0.0675272   0.0900362   0.0827022), wk =   0.0438957
        k(   70) = (   0.0675272   0.0900362   0.1102696), wk =   0.0438957
        k(   71) = (   0.0900362   0.0900362   0.0000000), wk =   0.0109739
        k(   72) = (   0.0900362   0.0900362   0.0275674), wk =   0.0219479
        k(   73) = (   0.0900362   0.0900362   0.0551348), wk =   0.0219479
        k(   74) = (   0.0900362   0.0900362   0.0827022), wk =   0.0219479
        k(   75) = (   0.0900362   0.0900362   0.1102696), wk =   0.0219479

     Largest allocated arrays     est. size (Mb)     dimensions
     Largest temporary arrays     est. size (Mb)     dimensions

     Initial potential from superposition of free atoms

     starting charge   61.99991, renormalised to   66.00000

     *
     * You are using vdW-DF for exchange-correlation in this calculation.
     * Please cite the following three references that made this development
     * possible:
     *
     *   M. Dion, H. Rydberg, E. Schroder, D. C. Langreth, and
     *   B. I. Lundqvist, Phys. Rev. Lett. 92, 246401 (2004).
     *
     *   T. Thonhauser, V. R. Cooper, S. Li, A. Puzder, P. Hyldgaard, and
     *   D. C. Langreth, Phys. Rev. B 76, 125112 (2007).
     *
     *   G. Roman-Perez and J. M. Soler, Phys. Rev. Lett. 103, 096102 (2009).
     *
     *
     * If you are using vdW-DF2, please also cite:
     *
     *   K. Lee, E. D. Murray, L. Kong, B. I. Lundqvist, and
     *   D. C. Langreth, Phys. Rev. B 82, 081101(R) (2010).
     *
     *
     * If you are calculating the stress with vdW-DF, please also cite:
     *
     *   R. Sabatini, E. Kucukbenli, B. Kolb, T. Thonhauser, and
     *   S. de Gironcoli, J. Phys.: Condens. Matter 24, 424209 (2012).
     *

     Carrying out vdW-DF run using the following parameters:

     Nqs =      20    Nr_points =    1024   r_max =   100.000
     q_mesh =
               0.00001000     0.04494208     0.09755937     0.15916263
               0.23128650     0.31572767     0.41458969     0.53033537
               0.66584808     0.82450364     1.01025438     1.22772762
               1.48234092     1.78043706     2.12944203     2.53805004
               3.01644009     3.57652955     4.23227104     5.00000000

     Gradients computed in reciprocal space

     Starting wfc are   42 randomized atomic wfcs +   11 random wfc

     Self-consistent Calculation

     iteration #  1     ecut=    58.80 Ry     beta=0.10
     Davidson diagonalization with overlap
     ethr =  1.00E-02,  avg # of iterations =  5.2

     total energy              =   -1149.19898189 Ry
     Harris-Foulkes estimate   =   -1161.90833594 Ry
     estimated scf accuracy    <      70.86106047 Ry

[...]

     total energy              =   -1154.62077140 Ry
     Harris-Foulkes estimate   =   -1154.62075401 Ry
     estimated scf accuracy    <       0.00000813 Ry

     iteration # 12     ecut=    58.80 Ry     beta=0.10
     Davidson diagonalization with overlap
     ethr =  1.23E-08,  avg # of iterations =  2.0

     End of self-consistent calculation

          k = 0.0000 0.0000 0.0000 (  5055 PWs)   bands (ev):

   -84.8438 -84.8438 -84.8429 -84.8429 -84.8371 -84.8361 -12.0322 -11.9981
   -11.9812 -11.9626 -11.9626 -11.9328 -11.9328 -11.9290 -11.9271 -11.8807
    -5.2027  -5.2006  -5.1770  -5.1639  -5.1639  -5.1443  -5.1443  -5.1419
    -5.1383  -5.1062  -0.6745   4.5530   5.6335   6.4862   6.4862   8.1284
     8.7512  11.4567  11.4567  13.5584  14.0009  14.7345  15.0655  15.0655
    15.4372  17.6190  17.9283  17.9514  17.9514  18.9004  19.2486  19.2486
    23.1446  23.3156  23.3156  24.2324  25.4435

[...]

          k = 0.0900 0.0900 0.1103 (  5027 PWs)   bands (ev):

   -84.8438 -84.8438 -84.8429 -84.8429 -84.8371 -84.8361 -11.9888 -11.9852
   -11.9772 -11.9763 -11.9593 -11.9573 -11.9368 -11.9358 -11.9016 -11.8989
    -5.1957  -5.1949  -5.1765  -5.1742  -5.1586  -5.1567  -5.1478  -5.1469
    -5.1216  -5.1198   3.2620   3.5057   4.5411   4.6459   6.1061   6.1882
     6.3694   6.8027  14.8849  15.1607  15.3077  15.7047  16.8791  17.0173
    17.0788  17.4999  20.0355  20.2564  20.3285  20.3395  20.3870  20.6803
    20.8788  21.0537  22.9655  23.4324  23.5018

     the Fermi energy is     9.9437 ev

!    total energy              =   -1154.62085520 Ry
     Harris-Foulkes estimate   =   -1154.62077395 Ry
     estimated scf accuracy    <       0.00000087 Ry

     The total energy is the sum of the following terms:

     one-electron contribution =    -841.35793745 Ry
     hartree contribution      =     455.01055341 Ry
     xc contribution           =    -188.44121481 Ry
     ewald contribution        =    -579.82818731 Ry
     smearing contrib. (-TS)   =      -0.00406905 Ry

     convergence has been achieved in  12 iterations

     Forces acting on atoms (Ry/au):

     atom    1 type  1   force =     0.00000000    0.00000000    0.00000000
     atom    2 type  1   force =     0.00000000    0.00000000    0.00000000
     atom    3 type  2   force =     0.00000000    0.00000000    0.00000000
     atom    4 type  2   force =     0.00000000    0.00000000    0.00000000

     Total force =     0.000000     Total SCF correction =     0.000000

     General routines

     Parallel routines

   This run was terminated on:  14:16:24  14Nov2017

   JOB DONE.