     Program PWSCF v.5.1rc2 starts on 15Nov2017 at  8:37: 3

     Current dimensions of program PWSCF are:
     Max number of different atomic species (ntypx) = 10
     Max number of k-points (npk) =  40000
     Max angular momentum in pseudopotentials (lmaxx) =  3

     IMPORTANT: XC functional enforced from input :
     Exchange-correlation      = BEEF-VDW ( 1  4 27 13 2)
     Any further DFT definition will be discarded
     Please, verify this is what you really want

     Found symmetry operation: I + ( -0.5000 -0.5000  0.0000)
     This is a supercell, fractional translations are disabled

     bravais-lattice index     =            0
     lattice parameter (alat)  =       1.8897  a.u.
     unit-cell volume          =     518.5892 (a.u.)^3
     number of atoms/cell      =            4
     number of atomic types    =            2
     number of electrons       =        62.00
     number of Kohn-Sham states=           51
     kinetic-energy cutoff     =      58.7989  Ry
     charge density cutoff     =     587.9892  Ry
     convergence threshold     =      1.0E-06
     mixing beta               =       0.1000
     number of iterations used =           10  plain     mixing
     Exchange-correlation      = BEEF-VDW ( 1  4 27 13 2)

     celldm(1)=   1.889726  celldm(2)=   0.000000  celldm(3)=   0.000000
     celldm(4)=   0.000000  celldm(5)=   0.000000  celldm(6)=   0.000000

     crystal axes: (cart. coord. in units of alat)
               a(1) = (   4.387795   0.000000   0.000000 )
               a(2) = (   0.000000   4.387795   0.000000 )
               a(3) = (   0.000000   0.000000   3.991482 )

     reciprocal axes: (cart. coord. in units 2 pi/alat)
               b(1) = (  0.227905  0.000000  0.000000 )
               b(2) = (  0.000000  0.227905  0.000000 )
               b(3) = (  0.000000  0.000000  0.250534 )

     PseudoPot. # 1 for Ga read from file:
     /home/users/vossj/suncat/psp/gbrv1.5pbe/Ga.UPF
     MD5 check sum: ccd671392a58a050fbb373893b4fcd66
     Pseudo is Ultrasoft + core correction, Zval = 19.0
     Generated by new atomic code, or converted to UPF format
     Using radial grid of  871 points,  6 beta functions with:
                l(1) =   0
                l(2) =   0
                l(3) =   1
                l(4) =   1
                l(5) =   2
                l(6) =   2
     Q(r) pseudized with  8 coefficients,  rinner =    1.250   1.250   1.250
                                                       1.250   1.250

     PseudoPot. # 2 for Zr read from file:
     /home/users/vossj/suncat/psp/gbrv1.5pbe/Zr.UPF
     MD5 check sum: 5db81b1e868ab7776c4564c113de050b
     Pseudo is Ultrasoft + core correction, Zval = 12.0
     Generated by new atomic code, or converted to UPF format
     Using radial grid of  887 points,  6 beta functions with:
                l(1) =   0
                l(2) =   0
                l(3) =   1
                l(4) =   1
                l(5) =   2
                l(6) =   2
     Q(r) pseudized with  6 coefficients,  rinner =    1.200   1.200   1.200
                                                       1.200   1.200

     vdW kernel table read from file vdW_kernel_table
     MD5 check sum: 095c7af220d748ca6e76c0b4c6cfb241

     atomic species   valence    mass     pseudopotential
        Ga1           19.00    69.72300     Ga( 1.00)
        Zr1           12.00    91.22400     Zr( 1.00)

     16 Sym. Ops., with inversion, found

   Cartesian axes

     site n.     atom                  positions (alat units)
         1           Ga1 tau(   1) = (   0.0000000   0.0000000   0.0000000  )
         2           Ga1 tau(   2) = (   2.1938977   2.1938977   0.0000000  )
         3           Zr1 tau(   3) = (   2.1938977   0.0000000   1.9957408  )
         4           Zr1 tau(   4) = (   0.0000000   2.1938977   1.9957408  )

     number of k points=    75  Fermi-Dirac smearing, width (Ry)=  0.0073
                       cart. coord. in units 2pi/alat
        k(    1) = (   0.0000000   0.0000000   0.0000000), wk =   0.0027435
        k(    2) = (   0.0000000   0.0000000   0.0278371), wk =   0.0054870
        k(    3) = (   0.0000000   0.0000000   0.0556741), wk =   0.0054870
        k(    4) = (   0.0000000   0.0000000   0.0835112), wk =   0.0054870
        k(    5) = (   0.0000000   0.0000000   0.1113482), wk =   0.0054870
        k(    6) = (   0.0000000   0.0253228   0.0000000), wk =   0.0109739
        k(    7) = (   0.0000000   0.0253228   0.0278371), wk =   0.0219479
        k(    8) = (   0.0000000   0.0253228   0.0556741), wk =   0.0219479
        k(    9) = (   0.0000000   0.0253228   0.0835112), wk =   0.0219479
        k(   10) = (   0.0000000   0.0253228   0.1113482), wk =   0.0219479
        k(   11) = (   0.0000000   0.0506455   0.0000000), wk =   0.0109739
        k(   12) = (   0.0000000   0.0506455   0.0278371), wk =   0.0219479
        k(   13) = (   0.0000000   0.0506455   0.0556741), wk =   0.0219479
        k(   14) = (   0.0000000   0.0506455   0.0835112), wk =   0.0219479
        k(   15) = (   0.0000000   0.0506455   0.1113482), wk =   0.0219479
        k(   16) = (   0.0000000   0.0759683   0.0000000), wk =   0.0109739
        k(   17) = (   0.0000000   0.0759683   0.0278371), wk =   0.0219479
        k(   18) = (   0.0000000   0.0759683   0.0556741), wk =   0.0219479
        k(   19) = (   0.0000000   0.0759683   0.0835112), wk =   0.0219479
        k(   20) = (   0.0000000   0.0759683   0.1113482), wk =   0.0219479
        k(   21) = (   0.0000000   0.1012911   0.0000000), wk =   0.0109739
        k(   22) = (   0.0000000   0.1012911   0.0278371), wk =   0.0219479
        k(   23) = (   0.0000000   0.1012911   0.0556741), wk =   0.0219479
        k(   24) = (   0.0000000   0.1012911   0.0835112), wk =   0.0219479
        k(   25) = (   0.0000000   0.1012911   0.1113482), wk =   0.0219479
        k(   26) = (   0.0253228   0.0253228   0.0000000), wk =   0.0109739
        k(   27) = (   0.0253228   0.0253228   0.0278371), wk =   0.0219479
        k(   28) = (   0.0253228   0.0253228   0.0556741), wk =   0.0219479
        k(   29) = (   0.0253228   0.0253228   0.0835112), wk =   0.0219479
        k(   30) = (   0.0253228   0.0253228   0.1113482), wk =   0.0219479
        k(   31) = (   0.0253228   0.0506455   0.0000000), wk =   0.0219479
        k(   32) = (   0.0253228   0.0506455   0.0278371), wk =   0.0438957
        k(   33) = (   0.0253228   0.0506455   0.0556741), wk =   0.0438957
        k(   34) = (   0.0253228   0.0506455   0.0835112), wk =   0.0438957
        k(   35) = (   0.0253228   0.0506455   0.1113482), wk =   0.0438957
        k(   36) = (   0.0253228   0.0759683   0.0000000), wk =   0.0219479
        k(   37) = (   0.0253228   0.0759683   0.0278371), wk =   0.0438957
        k(   38) = (   0.0253228   0.0759683   0.0556741), wk =   0.0438957
        k(   39) = (   0.0253228   0.0759683   0.0835112), wk =   0.0438957
        k(   40) = (   0.0253228   0.0759683   0.1113482), wk =   0.0438957
        k(   41) = (   0.0253228   0.1012911   0.0000000), wk =   0.0219479
        k(   42) = (   0.0253228   0.1012911   0.0278371), wk =   0.0438957
        k(   43) = (   0.0253228   0.1012911   0.0556741), wk =   0.0438957
        k(   44) = (   0.0253228   0.1012911   0.0835112), wk =   0.0438957
        k(   45) = (   0.0253228   0.1012911   0.1113482), wk =   0.0438957
        k(   46) = (   0.0506455   0.0506455   0.0000000), wk =   0.0109739
        k(   47) = (   0.0506455   0.0506455   0.0278371), wk =   0.0219479
        k(   48) = (   0.0506455   0.0506455   0.0556741), wk =   0.0219479
        k(   49) = (   0.0506455   0.0506455   0.0835112), wk =   0.0219479
        k(   50) = (   0.0506455   0.0506455   0.1113482), wk =   0.0219479
        k(   51) = (   0.0506455   0.0759683   0.0000000), wk =   0.0219479
        k(   52) = (   0.0506455   0.0759683   0.0278371), wk =   0.0438957
        k(   53) = (   0.0506455   0.0759683   0.0556741), wk =   0.0438957
        k(   54) = (   0.0506455   0.0759683   0.0835112), wk =   0.0438957
        k(   55) = (   0.0506455   0.0759683   0.1113482), wk =   0.0438957
        k(   56) = (   0.0506455   0.1012911   0.0000000), wk =   0.0219479
        k(   57) = (   0.0506455   0.1012911   0.0278371), wk =   0.0438957
        k(   58) = (   0.0506455   0.1012911   0.0556741), wk =   0.0438957
        k(   59) = (   0.0506455   0.1012911   0.0835112), wk =   0.0438957
        k(   60) = (   0.0506455   0.1012911   0.1113482), wk =   0.0438957
        k(   61) = (   0.0759683   0.0759683   0.0000000), wk =   0.0109739
        k(   62) = (   0.0759683   0.0759683   0.0278371), wk =   0.0219479
        k(   63) = (   0.0759683   0.0759683   0.0556741), wk =   0.0219479
        k(   64) = (   0.0759683   0.0759683   0.0835112), wk =   0.0219479
        k(   65) = (   0.0759683   0.0759683   0.1113482), wk =   0.0219479
        k(   66) = (   0.0759683   0.1012911   0.0000000), wk =   0.0219479
        k(   67) = (   0.0759683   0.1012911   0.0278371), wk =   0.0438957
        k(   68) = (   0.0759683   0.1012911   0.0556741), wk =   0.0438957
        k(   69) = (   0.0759683   0.1012911   0.0835112), wk =   0.0438957
        k(   70) = (   0.0759683   0.1012911   0.1113482), wk =   0.0438957
        k(   71) = (   0.1012911   0.1012911   0.0000000), wk =   0.0109739
        k(   72) = (   0.1012911   0.1012911   0.0278371), wk =   0.0219479
        k(   73) = (   0.1012911   0.1012911   0.0556741), wk =   0.0219479
        k(   74) = (   0.1012911   0.1012911   0.0835112), wk =   0.0219479
        k(   75) = (   0.1012911   0.1012911   0.1113482), wk =   0.0219479

     Largest allocated arrays     est. size (Mb)     dimensions
     Largest temporary arrays     est. size (Mb)     dimensions

     Initial potential from superposition of free atoms
     Check: negative starting charge=   -0.122311

     starting charge   59.99570, renormalised to   62.00000

     negative rho (up, down):  1.264E-01 0.000E+00

     *
     * You are using vdW-DF for exchange-correlation in this calculation.
     * Please cite the following three references that made this development
     * possible:
     *
     *   M. Dion, H. Rydberg, E. Schroder, D. C. Langreth, and
     *   B. I. Lundqvist, Phys. Rev. Lett. 92, 246401 (2004).
     *
     *   T. Thonhauser, V. R. Cooper, S. Li, A. Puzder, P. Hyldgaard, and
     *   D. C. Langreth, Phys. Rev. B 76, 125112 (2007).
     *
     *   G. Roman-Perez and J. M. Soler, Phys. Rev. Lett. 103, 096102 (2009).
     *
     *
     * If you are using vdW-DF2, please also cite:
     *
     *   K. Lee, E. D. Murray, L. Kong, B. I. Lundqvist, and
     *   D. C. Langreth, Phys. Rev. B 82, 081101(R) (2010).
     *
     *
     * If you are calculating the stress with vdW-DF, please also cite:
     *
     *   R. Sabatini, E. Kucukbenli, B. Kolb, T. Thonhauser, and
     *   S. de Gironcoli, J. Phys.: Condens. Matter 24, 424209 (2012).
     *

     Carrying out vdW-DF run using the following parameters:

     Nqs =      20    Nr_points =    1024   r_max =   100.000
     q_mesh =
               0.00001000     0.04494208     0.09755937     0.15916263
               0.23128650     0.31572767     0.41458969     0.53033537
               0.66584808     0.82450364     1.01025438     1.22772762
               1.48234092     1.78043706     2.12944203     2.53805004
               3.01644009     3.57652955     4.23227104     5.00000000

     Gradients computed in reciprocal space

     Starting wfc are   50 randomized atomic wfcs +    1 random wfc

     Self-consistent Calculation

     iteration #  1     ecut=    58.80 Ry     beta=0.10
     Davidson diagonalization with overlap
     ethr =  1.00E-02,  avg # of iterations =  4.3

[...]

     total energy              =   -1033.29460392 Ry
     Harris-Foulkes estimate   =   -1034.51426142 Ry
     estimated scf accuracy    <       6.83087898 Ry

[...]

     total energy              =   -1032.90850768 Ry
     Harris-Foulkes estimate   =   -1032.90850660 Ry
     estimated scf accuracy    <       0.00000163 Ry

     iteration # 13     ecut=    58.80 Ry     beta=0.10
     Davidson diagonalization with overlap
     ethr =  2.62E-09,  avg # of iterations =  2.0

     negative rho (up, down):  1.238E-01 0.000E+00

     End of self-consistent calculation

          k = 0.0000 0.0000 0.0000 (  3967 PWs)   bands (ev):

   -80.4661 -80.4661 -80.4652 -80.4652 -80.4231 -80.4230 -35.1514 -35.0186
   -13.3362 -13.3362 -13.2209 -13.0631 -12.7535 -12.7535  -0.9271  -0.9049
    -0.8372  -0.8372  -0.8281  -0.7591  -0.7591  -0.7474  -0.7316  -0.6605
     4.6832   8.9120  12.2530  12.6713  13.0717  13.0717  13.8912  14.3147
    14.3147  14.6752  16.9855  16.9855  17.1773  18.2507  18.3920  19.6716
    19.6716  19.9299  21.7197  22.9189  24.1092  24.1092  25.3522  26.7406
    28.5576  29.0806  31.1029

[...]

          k = 0.1013 0.1013 0.1113 (  3984 PWs)   bands (ev):

   -80.4661 -80.4661 -80.4651 -80.4651 -80.4231 -80.4230 -35.0833 -35.0793
   -13.4220 -13.4055 -13.2040 -13.1985 -12.7080 -12.6896  -0.8529  -0.8462
    -0.8439  -0.8423  -0.8121  -0.8083  -0.7587  -0.7569  -0.6986  -0.6944
     7.4823   7.5863  11.4522  11.5416  12.4654  12.8681  13.0134  13.3683
    16.1064  16.1689  16.7227  16.8094  16.8700  17.0504  18.5154  18.7298
    21.4628  21.5497  21.9823  22.2972  25.6216  25.9383  26.3292  26.4893
    27.2068  27.4594  28.4460

     the Fermi energy is    13.9636 ev

!    total energy              =   -1032.90851738 Ry
     Harris-Foulkes estimate   =   -1032.90850860 Ry
     estimated scf accuracy    <       0.00000069 Ry

     The total energy is the sum of the following terms:

     one-electron contribution =    -726.22398337 Ry
     hartree contribution      =     392.97226766 Ry
     xc contribution           =    -136.60397275 Ry
     ewald contribution        =    -563.04628543 Ry
     smearing contrib. (-TS)   =      -0.00654349 Ry

     convergence has been achieved in  13 iterations

     Forces acting on atoms (Ry/au):

     negative rho (up, down):  1.238E-01 0.000E+00
     atom    1 type  1   force =     0.00000000    0.00000000    0.00000000
     atom    2 type  1   force =     0.00000000    0.00000000    0.00000000
     atom    3 type  2   force =     0.00000000    0.00000000    0.00000000
     atom    4 type  2   force =     0.00000000    0.00000000    0.00000000

     Total force =     0.000000     Total SCF correction =     0.000000

     General routines

     Parallel routines

   This run was terminated on:   8:37:59  15Nov2017

   JOB DONE.