     Program PWSCF v.5.1rc2 (svn rev. ) starts on 14Nov2017 at 20:39:20

     Current dimensions of program PWSCF are:
     Max number of different atomic species (ntypx) = 10
     Max number of k-points (npk) =  40000
     Max angular momentum in pseudopotentials (lmaxx) =  3

     IMPORTANT: XC functional enforced from input :
     Exchange-correlation      = BEEF-VDW ( 1  4 27 13 2)
     Any further DFT definition will be discarded
     Please, verify this is what you really want

     Subspace diagonalization in iterative solution of the eigenvalue problem:
     a serial algorithm will be used

     Found symmetry operation: I + ( -0.5000 -0.5000  0.0000)
     This is a supercell, fractional translations are disabled

     bravais-lattice index     =            0
     lattice parameter (alat)  =       1.8897  a.u.
     unit-cell volume          =     551.1304 (a.u.)^3
     number of atoms/cell      =            4
     number of atomic types    =            2
     number of electrons       =        56.00
     number of Kohn-Sham states=           48
     kinetic-energy cutoff     =      58.7989  Ry
     charge density cutoff     =     587.9892  Ry
     convergence threshold     =      1.0E-06
     mixing beta               =       0.1000
     number of iterations used =           10  plain     mixing
     Exchange-correlation      = BEEF-VDW ( 1  4 27 13 2)

     celldm(1)=   1.889726  celldm(2)=   0.000000  celldm(3)=   0.000000
     celldm(4)=   0.000000  celldm(5)=   0.000000  celldm(6)=   0.000000

     crystal axes: (cart. coord. in units of alat)
               a(1) = (   4.936273   0.000000   0.000000 )
               a(2) = (   0.000000   4.936273   0.000000 )
               a(3) = (   0.000000   0.000000   3.351656 )

     reciprocal axes: (cart. coord. in units 2 pi/alat)
               b(1) = (  0.202582  0.000000  0.000000 )
               b(2) = (  0.000000  0.202582  0.000000 )
               b(3) = (  0.000000  0.000000  0.298360 )

     PseudoPot. # 1 for Mo read from file:
     /home/vossj/suncat/psp/gbrv1.5pbe/Mo.UPF
     MD5 check sum: 30c4dcd161f5d35cd49bb5239c51a633
     Pseudo is Ultrasoft + core correction, Zval = 14.0
     Generated by new atomic code, or converted to UPF format
     Using radial grid of  889 points,  6 beta functions with:
                l(1) =   0
                l(2) =   0
                l(3) =   1
                l(4) =   1
                l(5) =   2
                l(6) =   2
     Q(r) pseudized with  6 coefficients,  rinner =    1.000   1.000   1.000
                                                       1.000   1.000

     PseudoPot. # 2 for Pb read from file:
     /home/vossj/suncat/psp/gbrv1.5pbe/Pb.UPF
     MD5 check sum: 3d1c1779aa92214d1e8f3a7db79003e2
     Pseudo is Ultrasoft + core correction, Zval = 14.0
     Generated by new atomic code, or converted to UPF format
     Using radial grid of  899 points,  6 beta functions with:
                l(1) =   0
                l(2) =   0
                l(3) =   1
                l(4) =   1
                l(5) =   2
                l(6) =   2
     Q(r) pseudized with  6 coefficients,  rinner =    1.000   1.000   1.000
                                                       1.000   1.000

     vdW kernel table read from file vdW_kernel_table
     MD5 check sum: 095c7af220d748ca6e76c0b4c6cfb241

     atomic species   valence    mass     pseudopotential
        Mo1           14.00    95.95000     Mo( 1.00)
        Pb1           14.00   207.20000     Pb( 1.00)

     16 Sym. Ops., with inversion, found

   Cartesian axes

     site n.     atom                  positions (alat units)
         1           Mo1 tau(   1) = (   0.0000000   0.0000000   0.0000000  )
         2           Mo1 tau(   2) = (   2.4681366   2.4681366   0.0000000  )
         3           Pb1 tau(   3) = (   2.4681366   0.0000000   1.6758279  )
         4           Pb1 tau(   4) = (   0.0000000   2.4681366   1.6758279  )

     number of k points=    75  Fermi-Dirac smearing, width (Ry)=  0.0073
                       cart. coord. in units 2pi/alat
        k(    1) = (   0.0000000   0.0000000   0.0000000), wk =   0.0027435
        k(    2) = (   0.0000000   0.0000000   0.0331511), wk =   0.0054870
        k(    3) = (   0.0000000   0.0000000   0.0663022), wk =   0.0054870
        k(    4) = (   0.0000000   0.0000000   0.0994533), wk =   0.0054870
        k(    5) = (   0.0000000   0.0000000   0.1326044), wk =   0.0054870
        k(    6) = (   0.0000000   0.0225091   0.0000000), wk =   0.0109739
        k(    7) = (   0.0000000   0.0225091   0.0331511), wk =   0.0219479
        k(    8) = (   0.0000000   0.0225091   0.0663022), wk =   0.0219479
        k(    9) = (   0.0000000   0.0225091   0.0994533), wk =   0.0219479
        k(   10) = (   0.0000000   0.0225091   0.1326044), wk =   0.0219479
        k(   11) = (   0.0000000   0.0450182   0.0000000), wk =   0.0109739
        k(   12) = (   0.0000000   0.0450182   0.0331511), wk =   0.0219479
        k(   13) = (   0.0000000   0.0450182   0.0663022), wk =   0.0219479
        k(   14) = (   0.0000000   0.0450182   0.0994533), wk =   0.0219479
        k(   15) = (   0.0000000   0.0450182   0.1326044), wk =   0.0219479
        k(   16) = (   0.0000000   0.0675273   0.0000000), wk =   0.0109739
        k(   17) = (   0.0000000   0.0675273   0.0331511), wk =   0.0219479
        k(   18) = (   0.0000000   0.0675273   0.0663022), wk =   0.0219479
        k(   19) = (   0.0000000   0.0675273   0.0994533), wk =   0.0219479
        k(   20) = (   0.0000000   0.0675273   0.1326044), wk =   0.0219479
        k(   21) = (   0.0000000   0.0900364   0.0000000), wk =   0.0109739
        k(   22) = (   0.0000000   0.0900364   0.0331511), wk =   0.0219479
        k(   23) = (   0.0000000   0.0900364   0.0663022), wk =   0.0219479
        k(   24) = (   0.0000000   0.0900364   0.0994533), wk =   0.0219479
        k(   25) = (   0.0000000   0.0900364   0.1326044), wk =   0.0219479
        k(   26) = (   0.0225091   0.0225091   0.0000000), wk =   0.0109739
        k(   27) = (   0.0225091   0.0225091   0.0331511), wk =   0.0219479
        k(   28) = (   0.0225091   0.0225091   0.0663022), wk =   0.0219479
        k(   29) = (   0.0225091   0.0225091   0.0994533), wk =   0.0219479
        k(   30) = (   0.0225091   0.0225091   0.1326044), wk =   0.0219479
        k(   31) = (   0.0225091   0.0450182   0.0000000), wk =   0.0219479
        k(   32) = (   0.0225091   0.0450182   0.0331511), wk =   0.0438957
        k(   33) = (   0.0225091   0.0450182   0.0663022), wk =   0.0438957
        k(   34) = (   0.0225091   0.0450182   0.0994533), wk =   0.0438957
        k(   35) = (   0.0225091   0.0450182   0.1326044), wk =   0.0438957
        k(   36) = (   0.0225091   0.0675273   0.0000000), wk =   0.0219479
        k(   37) = (   0.0225091   0.0675273   0.0331511), wk =   0.0438957
        k(   38) = (   0.0225091   0.0675273   0.0663022), wk =   0.0438957
        k(   39) = (   0.0225091   0.0675273   0.0994533), wk =   0.0438957
        k(   40) = (   0.0225091   0.0675273   0.1326044), wk =   0.0438957
        k(   41) = (   0.0225091   0.0900364   0.0000000), wk =   0.0219479
        k(   42) = (   0.0225091   0.0900364   0.0331511), wk =   0.0438957
        k(   43) = (   0.0225091   0.0900364   0.0663022), wk =   0.0438957
        k(   44) = (   0.0225091   0.0900364   0.0994533), wk =   0.0438957
        k(   45) = (   0.0225091   0.0900364   0.1326044), wk =   0.0438957
        k(   46) = (   0.0450182   0.0450182   0.0000000), wk =   0.0109739
        k(   47) = (   0.0450182   0.0450182   0.0331511), wk =   0.0219479
        k(   48) = (   0.0450182   0.0450182   0.0663022), wk =   0.0219479
        k(   49) = (   0.0450182   0.0450182   0.0994533), wk =   0.0219479
        k(   50) = (   0.0450182   0.0450182   0.1326044), wk =   0.0219479
        k(   51) = (   0.0450182   0.0675273   0.0000000), wk =   0.0219479
        k(   52) = (   0.0450182   0.0675273   0.0331511), wk =   0.0438957
        k(   53) = (   0.0450182   0.0675273   0.0663022), wk =   0.0438957
        k(   54) = (   0.0450182   0.0675273   0.0994533), wk =   0.0438957
        k(   55) = (   0.0450182   0.0675273   0.1326044), wk =   0.0438957
        k(   56) = (   0.0450182   0.0900364   0.0000000), wk =   0.0219479
        k(   57) = (   0.0450182   0.0900364   0.0331511), wk =   0.0438957
        k(   58) = (   0.0450182   0.0900364   0.0663022), wk =   0.0438957
        k(   59) = (   0.0450182   0.0900364   0.0994533), wk =   0.0438957
        k(   60) = (   0.0450182   0.0900364   0.1326044), wk =   0.0438957
        k(   61) = (   0.0675273   0.0675273   0.0000000), wk =   0.0109739
        k(   62) = (   0.0675273   0.0675273   0.0331511), wk =   0.0219479
        k(   63) = (   0.0675273   0.0675273   0.0663022), wk =   0.0219479
        k(   64) = (   0.0675273   0.0675273   0.0994533), wk =   0.0219479
        k(   65) = (   0.0675273   0.0675273   0.1326044), wk =   0.0219479
        k(   66) = (   0.0675273   0.0900364   0.0000000), wk =   0.0219479
        k(   67) = (   0.0675273   0.0900364   0.0331511), wk =   0.0438957
        k(   68) = (   0.0675273   0.0900364   0.0663022), wk =   0.0438957
        k(   69) = (   0.0675273   0.0900364   0.0994533), wk =   0.0438957
        k(   70) = (   0.0675273   0.0900364   0.1326044), wk =   0.0438957
        k(   71) = (   0.0900364   0.0900364   0.0000000), wk =   0.0109739
        k(   72) = (   0.0900364   0.0900364   0.0331511), wk =   0.0219479
        k(   73) = (   0.0900364   0.0900364   0.0663022), wk =   0.0219479
        k(   74) = (   0.0900364   0.0900364   0.0994533), wk =   0.0219479
        k(   75) = (   0.0900364   0.0900364   0.1326044), wk =   0.0219479

     Largest allocated arrays     est. size (Mb)     dimensions
     Largest temporary arrays     est. size (Mb)     dimensions

     Initial potential from superposition of free atoms
     Check: negative starting charge=   -0.031133

     starting charge   55.99317, renormalised to   56.00000

     negative rho (up, down):  3.114E-02 0.000E+00

     *
     * You are using vdW-DF for exchange-correlation in this calculation.
     * Please cite the following three references that made this development
     * possible:
     *
     *   M. Dion, H. Rydberg, E. Schroder, D. C. Langreth, and
     *   B. I. Lundqvist, Phys. Rev. Lett. 92, 246401 (2004).
     *
     *   T. Thonhauser, V. R. Cooper, S. Li, A. Puzder, P. Hyldgaard, and
     *   D. C. Langreth, Phys. Rev. B 76, 125112 (2007).
     *
     *   G. Roman-Perez and J. M. Soler, Phys. Rev. Lett. 103, 096102 (2009).
     *
     *
     * If you are using vdW-DF2, please also cite:
     *
     *   K. Lee, E. D. Murray, L. Kong, B. I. Lundqvist, and
     *   D. C. Langreth, Phys. Rev. B 82, 081101(R) (2010).
     *
     *
     * If you are calculating the stress with vdW-DF, please also cite:
     *
     *   R. Sabatini, E. Kucukbenli, B. Kolb, T. Thonhauser, and
     *   S. de Gironcoli, J. Phys.: Condens. Matter 24, 424209 (2012).
     *

     Carrying out vdW-DF run using the following parameters:

     Nqs =      20    Nr_points =    1024   r_max =   100.000
     q_mesh =
               0.00001000     0.04494208     0.09755937     0.15916263
               0.23128650     0.31572767     0.41458969     0.53033537
               0.66584808     0.82450364     1.01025438     1.22772762
               1.48234092     1.78043706     2.12944203     2.53805004
               3.01644009     3.57652955     4.23227104     5.00000000

     Gradients computed in reciprocal space

     Starting wfc are   44 randomized atomic wfcs +    4 random wfc

     Self-consistent Calculation

     iteration #  1     ecut=    58.80 Ry     beta=0.10
     Davidson diagonalization with overlap
     ethr =  1.00E-02,  avg # of iterations =  4.4

     Threshold (ethr) on eigenvalues was too large:
     Diagonalizing with lowered threshold

     Davidson diagonalization with overlap
     ethr =  3.78E-04,  avg # of iterations =  1.3

[...]

     total energy              =    -611.82094188 Ry
     Harris-Foulkes estimate   =    -611.85625991 Ry
     estimated scf accuracy    <       0.21076154 Ry

[...]

     total energy              =    -611.81226184 Ry
     Harris-Foulkes estimate   =    -611.81211241 Ry
     estimated scf accuracy    <       0.00001156 Ry

     iteration #  9     ecut=    58.80 Ry     beta=0.10
     Davidson diagonalization with overlap
     ethr =  2.06E-08,  avg # of iterations =  2.1

     negative rho (up, down):  3.746E-02 0.000E+00

     End of self-consistent calculation

          k = 0.0000 0.0000 0.0000 (  4179 PWs)   bands (ev):

   -44.5609 -44.5510 -18.6646 -18.6646 -18.5859 -18.5859 -18.5414 -18.5268
    -0.7855  -0.7178  -0.6752  -0.6561  -0.5332  -0.5332  -0.4616  -0.4443
    -0.4443  -0.2823   4.9687   7.9381  13.6290  13.6290  14.5197  14.5441
    14.6498  16.5855  16.5855  17.0915  17.2709  17.2709  17.9552  18.5572
    18.9385  18.9385  19.9105  20.4314  22.4399  23.2678  26.3513  26.3513
    27.3124  27.3546  27.3766  27.6892  29.5254  29.5255  30.2119  30.6324

[...]

          k = 0.0900 0.0900 0.1326 (  4206 PWs)   bands (ev):

   -44.5479 -44.5474 -18.6614 -18.6608 -18.6597 -18.6574 -18.5692 -18.5669
    -0.6983  -0.6957  -0.5793  -0.5767  -0.5731  -0.5626  -0.5512  -0.5461
    -0.2735  -0.2665   8.1978   8.2679  13.4265  13.6033  13.6452  13.8332
    15.0392  15.0935  16.2540  16.3860  16.4334  16.4487  18.1376  18.1438
    18.2951  18.5410  20.9931  21.0622  22.6098  22.6898  25.6984  25.8328
    26.0495  26.0990  27.3169  27.3188  29.4499  29.5153  29.9729  30.1020

     the Fermi energy is    16.5098 ev

!    total energy              =    -611.81288783 Ry
     Harris-Foulkes estimate   =    -611.81226415 Ry
     estimated scf accuracy    <       0.00000081 Ry

     The total energy is the sum of the following terms:

     one-electron contribution =     -87.28273734 Ry
     hartree contribution      =      84.90004551 Ry
     xc contribution           =    -170.98423905 Ry
     ewald contribution        =    -438.43164036 Ry
     smearing contrib. (-TS)   =      -0.01431659 Ry

     convergence has been achieved in   9 iterations

     Forces acting on atoms (Ry/au):

     negative rho (up, down):  3.746E-02 0.000E+00
     atom    1 type  1   force =     0.00000000    0.00000000    0.00000000
     atom    2 type  1   force =     0.00000000    0.00000000    0.00000000
     atom    3 type  2   force =     0.00000000    0.00000000    0.00000000
     atom    4 type  2   force =     0.00000000    0.00000000    0.00000000

     Total force =     0.000000     Total SCF correction =     0.000000

     General routines

     Parallel routines

   This run was terminated on:  20:40: 5  14Nov2017

   JOB DONE.