     Program PWSCF v.5.1rc2 starts on 15Nov2017 at  7:29:55

     Current dimensions of program PWSCF are:
     Max number of different atomic species (ntypx) = 10
     Max number of k-points (npk) =  40000
     Max angular momentum in pseudopotentials (lmaxx) =  3

     IMPORTANT: XC functional enforced from input :
     Exchange-correlation      = BEEF-VDW ( 1  4 27 13 2)
     Any further DFT definition will be discarded
     Please, verify this is what you really want

     Found symmetry operation: I + (  0.5000  0.5000  0.0000)
     This is a supercell, fractional translations are disabled

     bravais-lattice index     =            0
     lattice parameter (alat)  =       1.8897  a.u.
     unit-cell volume          =     557.0993 (a.u.)^3
     number of atoms/cell      =            4
     number of atomic types    =            2
     number of electrons       =        50.00
     number of Kohn-Sham states=           45
     kinetic-energy cutoff     =      58.7989  Ry
     charge density cutoff     =     587.9892  Ry
     convergence threshold     =      1.0E-06
     mixing beta               =       0.1000
     number of iterations used =           10  plain     mixing
     Exchange-correlation      = BEEF-VDW ( 1  4 27 13 2)

     celldm(1)=   1.889726  celldm(2)=   0.000000  celldm(3)=   0.000000
     celldm(4)=   0.000000  celldm(5)=   0.000000  celldm(6)=   0.000000

     crystal axes: (cart. coord. in units of alat)
               a(1) = (   4.089484   0.000000   0.000000 )
               a(2) = (   0.000000   4.089484   0.000000 )
               a(3) = (   0.000000   0.000000   4.936271 )

     reciprocal axes: (cart. coord. in units 2 pi/alat)
               b(1) = (  0.244530  0.000000  0.000000 )
               b(2) = (  0.000000  0.244530  0.000000 )
               b(3) = (  0.000000  0.000000  0.202582 )

     PseudoPot. # 1 for Zr read from file:
     /home/users/vossj/suncat/psp/gbrv1.5pbe/Zr.UPF
     MD5 check sum: 5db81b1e868ab7776c4564c113de050b
     Pseudo is Ultrasoft + core correction, Zval = 12.0
     Generated by new atomic code, or converted to UPF format
     Using radial grid of  887 points,  6 beta functions with:
                l(1) =   0
                l(2) =   0
                l(3) =   1
                l(4) =   1
                l(5) =   2
                l(6) =   2
     Q(r) pseudized with  6 coefficients,  rinner =    1.200   1.200   1.200
                                                       1.200   1.200

     PseudoPot. # 2 for Ta read from file:
     /home/users/vossj/suncat/psp/gbrv1.5pbe/Ta.UPF
     MD5 check sum: f8bbe9446314a3b8ea5d9f3e3836c939
     Pseudo is Ultrasoft + core correction, Zval = 13.0
     Generated by new atomic code, or converted to UPF format
     Using radial grid of  921 points,  7 beta functions with:
                l(1) =   0
                l(2) =   0
                l(3) =   1
                l(4) =   1
                l(5) =   2
                l(6) =   2
                l(7) =   3
     Q(r) pseudized with  6 coefficients,  rinner =    1.300   1.300   1.300
                                                       1.300   1.300   1.300
                                                       1.300

     vdW kernel table read from file vdW_kernel_table
     MD5 check sum: 095c7af220d748ca6e76c0b4c6cfb241

     atomic species   valence    mass     pseudopotential
        Zr1           12.00    91.22400     Zr( 1.00)
        Ta1           13.00   180.94790     Ta( 1.00)

     16 Sym. Ops., with inversion, found

   Cartesian axes

     site n.     atom                  positions (alat units)
         1           Zr1 tau(   1) = (   0.0000000   0.0000000   0.0000000  )
         2           Zr1 tau(   2) = (   2.0447419   2.0447419   0.0000000  )
         3           Ta1 tau(   3) = (   2.0447419   0.0000000   2.4681355  )
         4           Ta1 tau(   4) = (   0.0000000   2.0447419   2.4681355  )

     number of k points=    75  Fermi-Dirac smearing, width (Ry)=  0.0073
                       cart. coord. in units 2pi/alat
        k(    1) = (   0.0000000   0.0000000   0.0000000), wk =   0.0027435
        k(    2) = (   0.0000000   0.0000000   0.0225091), wk =   0.0054870
        k(    3) = (   0.0000000   0.0000000   0.0450182), wk =   0.0054870
        k(    4) = (   0.0000000   0.0000000   0.0675274), wk =   0.0054870
        k(    5) = (   0.0000000   0.0000000   0.0900365), wk =   0.0054870
        k(    6) = (   0.0000000   0.0271700   0.0000000), wk =   0.0109739
        k(    7) = (   0.0000000   0.0271700   0.0225091), wk =   0.0219479
        k(    8) = (   0.0000000   0.0271700   0.0450182), wk =   0.0219479
        k(    9) = (   0.0000000   0.0271700   0.0675274), wk =   0.0219479
        k(   10) = (   0.0000000   0.0271700   0.0900365), wk =   0.0219479
        k(   11) = (   0.0000000   0.0543399   0.0000000), wk =   0.0109739
        k(   12) = (   0.0000000   0.0543399   0.0225091), wk =   0.0219479
        k(   13) = (   0.0000000   0.0543399   0.0450182), wk =   0.0219479
        k(   14) = (   0.0000000   0.0543399   0.0675274), wk =   0.0219479
        k(   15) = (   0.0000000   0.0543399   0.0900365), wk =   0.0219479
        k(   16) = (   0.0000000   0.0815099   0.0000000), wk =   0.0109739
        k(   17) = (   0.0000000   0.0815099   0.0225091), wk =   0.0219479
        k(   18) = (   0.0000000   0.0815099   0.0450182), wk =   0.0219479
        k(   19) = (   0.0000000   0.0815099   0.0675274), wk =   0.0219479
        k(   20) = (   0.0000000   0.0815099   0.0900365), wk =   0.0219479
        k(   21) = (   0.0000000   0.1086798   0.0000000), wk =   0.0109739
        k(   22) = (   0.0000000   0.1086798   0.0225091), wk =   0.0219479
        k(   23) = (   0.0000000   0.1086798   0.0450182), wk =   0.0219479
        k(   24) = (   0.0000000   0.1086798   0.0675274), wk =   0.0219479
        k(   25) = (   0.0000000   0.1086798   0.0900365), wk =   0.0219479
        k(   26) = (   0.0271700   0.0271700   0.0000000), wk =   0.0109739
        k(   27) = (   0.0271700   0.0271700   0.0225091), wk =   0.0219479
        k(   28) = (   0.0271700   0.0271700   0.0450182), wk =   0.0219479
        k(   29) = (   0.0271700   0.0271700   0.0675274), wk =   0.0219479
        k(   30) = (   0.0271700   0.0271700   0.0900365), wk =   0.0219479
        k(   31) = (   0.0271700   0.0543399   0.0000000), wk =   0.0219479
        k(   32) = (   0.0271700   0.0543399   0.0225091), wk =   0.0438957
        k(   33) = (   0.0271700   0.0543399   0.0450182), wk =   0.0438957
        k(   34) = (   0.0271700   0.0543399   0.0675274), wk =   0.0438957
        k(   35) = (   0.0271700   0.0543399   0.0900365), wk =   0.0438957
        k(   36) = (   0.0271700   0.0815099   0.0000000), wk =   0.0219479
        k(   37) = (   0.0271700   0.0815099   0.0225091), wk =   0.0438957
        k(   38) = (   0.0271700   0.0815099   0.0450182), wk =   0.0438957
        k(   39) = (   0.0271700   0.0815099   0.0675274), wk =   0.0438957
        k(   40) = (   0.0271700   0.0815099   0.0900365), wk =   0.0438957
        k(   41) = (   0.0271700   0.1086798   0.0000000), wk =   0.0219479
        k(   42) = (   0.0271700   0.1086798   0.0225091), wk =   0.0438957
        k(   43) = (   0.0271700   0.1086798   0.0450182), wk =   0.0438957
        k(   44) = (   0.0271700   0.1086798   0.0675274), wk =   0.0438957
        k(   45) = (   0.0271700   0.1086798   0.0900365), wk =   0.0438957
        k(   46) = (   0.0543399   0.0543399   0.0000000), wk =   0.0109739
        k(   47) = (   0.0543399   0.0543399   0.0225091), wk =   0.0219479
        k(   48) = (   0.0543399   0.0543399   0.0450182), wk =   0.0219479
        k(   49) = (   0.0543399   0.0543399   0.0675274), wk =   0.0219479
        k(   50) = (   0.0543399   0.0543399   0.0900365), wk =   0.0219479
        k(   51) = (   0.0543399   0.0815099   0.0000000), wk =   0.0219479
        k(   52) = (   0.0543399   0.0815099   0.0225091), wk =   0.0438957
        k(   53) = (   0.0543399   0.0815099   0.0450182), wk =   0.0438957
        k(   54) = (   0.0543399   0.0815099   0.0675274), wk =   0.0438957
        k(   55) = (   0.0543399   0.0815099   0.0900365), wk =   0.0438957
        k(   56) = (   0.0543399   0.1086798   0.0000000), wk =   0.0219479
        k(   57) = (   0.0543399   0.1086798   0.0225091), wk =   0.0438957
        k(   58) = (   0.0543399   0.1086798   0.0450182), wk =   0.0438957
        k(   59) = (   0.0543399   0.1086798   0.0675274), wk =   0.0438957
        k(   60) = (   0.0543399   0.1086798   0.0900365), wk =   0.0438957
        k(   61) = (   0.0815099   0.0815099   0.0000000), wk =   0.0109739
        k(   62) = (   0.0815099   0.0815099   0.0225091), wk =   0.0219479
        k(   63) = (   0.0815099   0.0815099   0.0450182), wk =   0.0219479
        k(   64) = (   0.0815099   0.0815099   0.0675274), wk =   0.0219479
        k(   65) = (   0.0815099   0.0815099   0.0900365), wk =   0.0219479
        k(   66) = (   0.0815099   0.1086798   0.0000000), wk =   0.0219479
        k(   67) = (   0.0815099   0.1086798   0.0225091), wk =   0.0438957
        k(   68) = (   0.0815099   0.1086798   0.0450182), wk =   0.0438957
        k(   69) = (   0.0815099   0.1086798   0.0675274), wk =   0.0438957
        k(   70) = (   0.0815099   0.1086798   0.0900365), wk =   0.0438957
        k(   71) = (   0.1086798   0.1086798   0.0000000), wk =   0.0109739
        k(   72) = (   0.1086798   0.1086798   0.0225091), wk =   0.0219479
        k(   73) = (   0.1086798   0.1086798   0.0450182), wk =   0.0219479
        k(   74) = (   0.1086798   0.1086798   0.0675274), wk =   0.0219479
        k(   75) = (   0.1086798   0.1086798   0.0900365), wk =   0.0219479

     Largest allocated arrays     est. size (Mb)     dimensions
     Largest temporary arrays     est. size (Mb)     dimensions

     Initial potential from superposition of free atoms
     Check: negative starting charge=   -0.305985

     starting charge   49.99348, renormalised to   50.00000

     negative rho (up, down):  3.060E-01 0.000E+00

     *
     * You are using vdW-DF for exchange-correlation in this calculation.
     * Please cite the following three references that made this development
     * possible:
     *
     *   M. Dion, H. Rydberg, E. Schroder, D. C. Langreth, and
     *   B. I. Lundqvist, Phys. Rev. Lett. 92, 246401 (2004).
     *
     *   T. Thonhauser, V. R. Cooper, S. Li, A. Puzder, P. Hyldgaard, and
     *   D. C. Langreth, Phys. Rev. B 76, 125112 (2007).
     *
     *   G. Roman-Perez and J. M. Soler, Phys. Rev. Lett. 103, 096102 (2009).
     *
     *
     * If you are using vdW-DF2, please also cite:
     *
     *   K. Lee, E. D. Murray, L. Kong, B. I. Lundqvist, and
     *   D. C. Langreth, Phys. Rev. B 82, 081101(R) (2010).
     *
     *
     * If you are calculating the stress with vdW-DF, please also cite:
     *
     *   R. Sabatini, E. Kucukbenli, B. Kolb, T. Thonhauser, and
     *   S. de Gironcoli, J. Phys.: Condens. Matter 24, 424209 (2012).
     *

     Carrying out vdW-DF run using the following parameters:

     Nqs =      20    Nr_points =    1024   r_max =   100.000
     q_mesh =
               0.00001000     0.04494208     0.09755937     0.15916263
               0.23128650     0.31572767     0.41458969     0.53033537
               0.66584808     0.82450364     1.01025438     1.22772762
               1.48234092     1.78043706     2.12944203     2.53805004
               3.01644009     3.57652955     4.23227104     5.00000000

     Gradients computed in reciprocal space

     Starting wfc are   52 randomized atomic wfcs

     Self-consistent Calculation

     iteration #  1     ecut=    58.80 Ry     beta=0.10
     Davidson diagonalization with overlap
     ethr =  1.00E-02,  avg # of iterations =  3.9

     Threshold (ethr) on eigenvalues was too large:
     Diagonalizing with lowered threshold

     Davidson diagonalization with overlap
     ethr =  4.80E-04,  avg # of iterations =  1.4

[...]

     total energy              =    -486.02904851 Ry
     Harris-Foulkes estimate   =    -486.06638758 Ry
     estimated scf accuracy    <       0.24176591 Ry

[...]

     total energy              =    -486.03870487 Ry
     Harris-Foulkes estimate   =    -486.03870593 Ry
     estimated scf accuracy    <       0.00000438 Ry

     iteration #  8     ecut=    58.80 Ry     beta=0.10
     Davidson diagonalization with overlap
     ethr =  8.77E-09,  avg # of iterations =  1.9

     negative rho (up, down):  3.228E-01 0.000E+00

     End of self-consistent calculation

          k = 0.0000 0.0000 0.0000 (  4251 PWs)   bands (ev):

   -52.2364 -52.1530 -32.8951 -32.6033 -18.8353 -18.8353 -18.6057 -18.4395
   -18.2286 -18.2286 -11.3202 -11.3202 -10.8065 -10.5280 -10.2902 -10.2902
     9.0753  12.2412  12.3033  12.3328  13.3117  13.3117  13.3604  15.3537
    17.0876  17.4644  17.6444  17.6444  20.0255  20.0255  20.3671  20.4888
    20.4888  20.7421  21.0781  21.8447  21.8447  21.8815  22.9249  23.5724
    24.1566  25.4361  25.9096  27.1322  27.1323

[...]

          k = 0.1087 0.1087 0.0900 (  4224 PWs)   bands (ev):

   -52.1955 -52.1930 -32.7511 -32.7423 -18.9237 -18.9064 -18.5238 -18.5192
   -18.1882 -18.1690 -11.4870 -11.4583 -10.6716 -10.6621 -10.2153 -10.1814
    11.8486  11.9399  12.6698  12.7132  15.1667  15.2933  15.7283  15.8779
    16.3479  16.5172  16.8578  17.1246  17.6042  17.6175  17.7799  17.8101
    20.7186  20.9031  21.1397  21.2024  21.3474  21.4708  21.7823  21.8623
    25.1893  25.2539  26.5878  26.7402  26.8990

     the Fermi energy is    15.7983 ev

!    total energy              =    -486.03872052 Ry
     Harris-Foulkes estimate   =    -486.03870560 Ry
     estimated scf accuracy    <       0.00000062 Ry

     The total energy is the sum of the following terms:

     one-electron contribution =     -71.45317481 Ry
     hartree contribution      =      57.67996869 Ry
     xc contribution           =    -124.23837882 Ry
     ewald contribution        =    -348.01237956 Ry
     smearing contrib. (-TS)   =      -0.01475601 Ry

     convergence has been achieved in   8 iterations

     Forces acting on atoms (Ry/au):

     negative rho (up, down):  3.228E-01 0.000E+00
     atom    1 type  1   force =     0.00000000    0.00000000    0.00000000
     atom    2 type  1   force =     0.00000000    0.00000000    0.00000000
     atom    3 type  2   force =     0.00000000    0.00000000    0.00000000
     atom    4 type  2   force =     0.00000000    0.00000000    0.00000000

     Total force =     0.000000     Total SCF correction =     0.000000

     General routines

     Parallel routines

   This run was terminated on:   7:30:26  15Nov2017

   JOB DONE.