     Program PWSCF v.5.1rc2 starts on 14Nov2017 at 14:31:53

     Current dimensions of program PWSCF are:
     Max number of different atomic species (ntypx) = 10
     Max number of k-points (npk) =  40000
     Max angular momentum in pseudopotentials (lmaxx) =  3

     IMPORTANT: XC functional enforced from input :
     Exchange-correlation      = BEEF-VDW ( 1  4 27 13 2)
     Any further DFT definition will be discarded
     Please, verify this is what you really want

     Found symmetry operation: I + (  0.5000  0.5000  0.0000)
     This is a supercell, fractional translations are disabled

     bravais-lattice index     =            0
     lattice parameter (alat)  =       1.8897  a.u.
     unit-cell volume          =     628.2769 (a.u.)^3
     number of atoms/cell      =            4
     number of atomic types    =            2
     number of electrons       =        54.00
     number of Kohn-Sham states=           47
     kinetic-energy cutoff     =      58.7989  Ry
     charge density cutoff     =     587.9892  Ry
     convergence threshold     =      1.0E-06
     mixing beta               =       0.1000
     number of iterations used =           10  plain     mixing
     Exchange-correlation      = BEEF-VDW ( 1  4 27 13 2)

     celldm(1)=   1.889726  celldm(2)=   0.000000  celldm(3)=   0.000000
     celldm(4)=   0.000000  celldm(5)=   0.000000  celldm(6)=   0.000000

     crystal axes: (cart. coord. in units of alat)
               a(1) = (   5.092747   0.000000   0.000000 )
               a(2) = (   0.000000   5.092747   0.000000 )
               a(3) = (   0.000000   0.000000   3.589636 )

     reciprocal axes: (cart. coord. in units 2 pi/alat)
               b(1) = (  0.196358  0.000000  0.000000 )
               b(2) = (  0.000000  0.196358  0.000000 )
               b(3) = (  0.000000  0.000000  0.278580 )

     PseudoPot. # 1 for La read from file:
     /home/users/vossj/suncat/psp/gbrv1.5pbe/La.UPF
     MD5 check sum: 5937b0c7494ba0601a847275249473aa
     Pseudo is Ultrasoft + core correction, Zval = 11.0
     Generated by new atomic code, or converted to UPF format
     Using radial grid of  995 points,  8 beta functions with:
                l(1) =   0
                l(2) =   0
                l(3) =   1
                l(4) =   1
                l(5) =   2
                l(6) =   2
                l(7) =   3
                l(8) =   3
     Q(r) pseudized with  8 coefficients,  rinner =    1.700   1.700   1.700
                                                       1.700   1.700   1.700
                                                       1.700

     PseudoPot. # 2 for Os read from file:
     /home/users/vossj/suncat/psp/gbrv1.5pbe/Os.UPF
     MD5 check sum: a3fb40a04f0c37c25c34bbc47164c9a8
     Pseudo is Ultrasoft + core correction, Zval = 16.0
     Generated by new atomic code, or converted to UPF format
     Using radial grid of  983 points,  8 beta functions with:
                l(1) =   0
                l(2) =   0
                l(3) =   1
                l(4) =   1
                l(5) =   2
                l(6) =   2
                l(7) =   3
                l(8) =   3
     Q(r) pseudized with  8 coefficients,  rinner =    1.150   1.150   1.150
                                                       1.150   1.150   1.150
                                                       1.150

     vdW kernel table read from file vdW_kernel_table
     MD5 check sum: 095c7af220d748ca6e76c0b4c6cfb241

     atomic species   valence    mass     pseudopotential
        La1           11.00   138.90550     La( 1.00)
        Os1           16.00   190.20000     Os( 1.00)

     16 Sym. Ops., with inversion, found

   Cartesian axes

     site n.     atom                  positions (alat units)
         1           La1 tau(   1) = (   0.0000000   0.0000000   0.0000000  )
         2           La1 tau(   2) = (   2.5463733   2.5463733   0.0000000  )
         3           Os1 tau(   3) = (   2.5463733   0.0000000   1.7948178  )
         4           Os1 tau(   4) = (   0.0000000   2.5463733   1.7948178  )

     number of k points=    75  Fermi-Dirac smearing, width (Ry)=  0.0073
                       cart. coord. in units 2pi/alat
        k(    1) = (   0.0000000   0.0000000   0.0000000), wk =   0.0027435
        k(    2) = (   0.0000000   0.0000000   0.0309533), wk =   0.0054870
        k(    3) = (   0.0000000   0.0000000   0.0619066), wk =   0.0054870
        k(    4) = (   0.0000000   0.0000000   0.0928599), wk =   0.0054870
        k(    5) = (   0.0000000   0.0000000   0.1238133), wk =   0.0054870
        k(    6) = (   0.0000000   0.0218175   0.0000000), wk =   0.0109739
        k(    7) = (   0.0000000   0.0218175   0.0309533), wk =   0.0219479
        k(    8) = (   0.0000000   0.0218175   0.0619066), wk =   0.0219479
        k(    9) = (   0.0000000   0.0218175   0.0928599), wk =   0.0219479
        k(   10) = (   0.0000000   0.0218175   0.1238133), wk =   0.0219479
        k(   11) = (   0.0000000   0.0436350   0.0000000), wk =   0.0109739
        k(   12) = (   0.0000000   0.0436350   0.0309533), wk =   0.0219479
        k(   13) = (   0.0000000   0.0436350   0.0619066), wk =   0.0219479
        k(   14) = (   0.0000000   0.0436350   0.0928599), wk =   0.0219479
        k(   15) = (   0.0000000   0.0436350   0.1238133), wk =   0.0219479
        k(   16) = (   0.0000000   0.0654526   0.0000000), wk =   0.0109739
        k(   17) = (   0.0000000   0.0654526   0.0309533), wk =   0.0219479
        k(   18) = (   0.0000000   0.0654526   0.0619066), wk =   0.0219479
        k(   19) = (   0.0000000   0.0654526   0.0928599), wk =   0.0219479
        k(   20) = (   0.0000000   0.0654526   0.1238133), wk =   0.0219479
        k(   21) = (   0.0000000   0.0872701   0.0000000), wk =   0.0109739
        k(   22) = (   0.0000000   0.0872701   0.0309533), wk =   0.0219479
        k(   23) = (   0.0000000   0.0872701   0.0619066), wk =   0.0219479
        k(   24) = (   0.0000000   0.0872701   0.0928599), wk =   0.0219479
        k(   25) = (   0.0000000   0.0872701   0.1238133), wk =   0.0219479
        k(   26) = (   0.0218175   0.0218175   0.0000000), wk =   0.0109739
        k(   27) = (   0.0218175   0.0218175   0.0309533), wk =   0.0219479
        k(   28) = (   0.0218175   0.0218175   0.0619066), wk =   0.0219479
        k(   29) = (   0.0218175   0.0218175   0.0928599), wk =   0.0219479
        k(   30) = (   0.0218175   0.0218175   0.1238133), wk =   0.0219479
        k(   31) = (   0.0218175   0.0436350   0.0000000), wk =   0.0219479
        k(   32) = (   0.0218175   0.0436350   0.0309533), wk =   0.0438957
        k(   33) = (   0.0218175   0.0436350   0.0619066), wk =   0.0438957
        k(   34) = (   0.0218175   0.0436350   0.0928599), wk =   0.0438957
        k(   35) = (   0.0218175   0.0436350   0.1238133), wk =   0.0438957
        k(   36) = (   0.0218175   0.0654526   0.0000000), wk =   0.0219479
        k(   37) = (   0.0218175   0.0654526   0.0309533), wk =   0.0438957
        k(   38) = (   0.0218175   0.0654526   0.0619066), wk =   0.0438957
        k(   39) = (   0.0218175   0.0654526   0.0928599), wk =   0.0438957
        k(   40) = (   0.0218175   0.0654526   0.1238133), wk =   0.0438957
        k(   41) = (   0.0218175   0.0872701   0.0000000), wk =   0.0219479
        k(   42) = (   0.0218175   0.0872701   0.0309533), wk =   0.0438957
        k(   43) = (   0.0218175   0.0872701   0.0619066), wk =   0.0438957
        k(   44) = (   0.0218175   0.0872701   0.0928599), wk =   0.0438957
        k(   45) = (   0.0218175   0.0872701   0.1238133), wk =   0.0438957
        k(   46) = (   0.0436350   0.0436350   0.0000000), wk =   0.0109739
        k(   47) = (   0.0436350   0.0436350   0.0309533), wk =   0.0219479
        k(   48) = (   0.0436350   0.0436350   0.0619066), wk =   0.0219479
        k(   49) = (   0.0436350   0.0436350   0.0928599), wk =   0.0219479
        k(   50) = (   0.0436350   0.0436350   0.1238133), wk =   0.0219479
        k(   51) = (   0.0436350   0.0654526   0.0000000), wk =   0.0219479
        k(   52) = (   0.0436350   0.0654526   0.0309533), wk =   0.0438957
        k(   53) = (   0.0436350   0.0654526   0.0619066), wk =   0.0438957
        k(   54) = (   0.0436350   0.0654526   0.0928599), wk =   0.0438957
        k(   55) = (   0.0436350   0.0654526   0.1238133), wk =   0.0438957
        k(   56) = (   0.0436350   0.0872701   0.0000000), wk =   0.0219479
        k(   57) = (   0.0436350   0.0872701   0.0309533), wk =   0.0438957
        k(   58) = (   0.0436350   0.0872701   0.0619066), wk =   0.0438957
        k(   59) = (   0.0436350   0.0872701   0.0928599), wk =   0.0438957
        k(   60) = (   0.0436350   0.0872701   0.1238133), wk =   0.0438957
        k(   61) = (   0.0654526   0.0654526   0.0000000), wk =   0.0109739
        k(   62) = (   0.0654526   0.0654526   0.0309533), wk =   0.0219479
        k(   63) = (   0.0654526   0.0654526   0.0619066), wk =   0.0219479
        k(   64) = (   0.0654526   0.0654526   0.0928599), wk =   0.0219479
        k(   65) = (   0.0654526   0.0654526   0.1238133), wk =   0.0219479
        k(   66) = (   0.0654526   0.0872701   0.0000000), wk =   0.0219479
        k(   67) = (   0.0654526   0.0872701   0.0309533), wk =   0.0438957
        k(   68) = (   0.0654526   0.0872701   0.0619066), wk =   0.0438957
        k(   69) = (   0.0654526   0.0872701   0.0928599), wk =   0.0438957
        k(   70) = (   0.0654526   0.0872701   0.1238133), wk =   0.0438957
        k(   71) = (   0.0872701   0.0872701   0.0000000), wk =   0.0109739
        k(   72) = (   0.0872701   0.0872701   0.0309533), wk =   0.0219479
        k(   73) = (   0.0872701   0.0872701   0.0619066), wk =   0.0219479
        k(   74) = (   0.0872701   0.0872701   0.0928599), wk =   0.0219479
        k(   75) = (   0.0872701   0.0872701   0.1238133), wk =   0.0219479

     Largest allocated arrays     est. size (Mb)     dimensions
     Largest temporary arrays     est. size (Mb)     dimensions

     Initial potential from superposition of free atoms
     Check: negative starting charge=   -0.385925

     starting charge   52.93579, renormalised to   54.00000

     negative rho (up, down):  3.937E-01 0.000E+00

     *
     * You are using vdW-DF for exchange-correlation in this calculation.
     * Please cite the following three references that made this development
     * possible:
     *
     *   M. Dion, H. Rydberg, E. Schroder, D. C. Langreth, and
     *   B. I. Lundqvist, Phys. Rev. Lett. 92, 246401 (2004).
     *
     *   T. Thonhauser, V. R. Cooper, S. Li, A. Puzder, P. Hyldgaard, and
     *   D. C. Langreth, Phys. Rev. B 76, 125112 (2007).
     *
     *   G. Roman-Perez and J. M. Soler, Phys. Rev. Lett. 103, 096102 (2009).
     *
     *
     * If you are using vdW-DF2, please also cite:
     *
     *   K. Lee, E. D. Murray, L. Kong, B. I. Lundqvist, and
     *   D. C. Langreth, Phys. Rev. B 82, 081101(R) (2010).
     *
     *
     * If you are calculating the stress with vdW-DF, please also cite:
     *
     *   R. Sabatini, E. Kucukbenli, B. Kolb, T. Thonhauser, and
     *   S. de Gironcoli, J. Phys.: Condens. Matter 24, 424209 (2012).
     *

     Carrying out vdW-DF run using the following parameters:

     Nqs =      20    Nr_points =    1024   r_max =   100.000
     q_mesh =
               0.00001000     0.04494208     0.09755937     0.15916263
               0.23128650     0.31572767     0.41458969     0.53033537
               0.66584808     0.82450364     1.01025438     1.22772762
               1.48234092     1.78043706     2.12944203     2.53805004
               3.01644009     3.57652955     4.23227104     5.00000000

     Gradients computed in reciprocal space

     Starting wfc are   66 randomized atomic wfcs

     Self-consistent Calculation

     iteration #  1     ecut=    58.80 Ry     beta=0.10
     Davidson diagonalization with overlap
     ethr =  1.00E-02,  avg # of iterations =  2.0

     Threshold (ethr) on eigenvalues was too large:
     Diagonalizing with lowered threshold

     Davidson diagonalization with overlap
     ethr =  1.50E-04,  avg # of iterations =  2.5

[...]

     total energy              =    -607.69298642 Ry
     Harris-Foulkes estimate   =    -607.70249718 Ry
     estimated scf accuracy    <       0.09751667 Ry

[...]

     total energy              =    -607.67455252 Ry
     Harris-Foulkes estimate   =    -607.67453331 Ry
     estimated scf accuracy    <       0.00000909 Ry

     iteration # 13     ecut=    58.80 Ry     beta=0.10
     Davidson diagonalization with overlap
     ethr =  1.68E-08,  avg # of iterations =  2.7

     negative rho (up, down):  3.187E-01 0.000E+00

     End of self-consistent calculation

          k = 0.0000 0.0000 0.0000 (  4781 PWs)   bands (ev):

   -69.3264 -69.3256 -28.6662 -28.6662 -28.6476 -28.6446 -28.6446 -28.6436
   -15.9504 -15.7353  -0.0708  -0.0708   0.8653   0.8653   0.8773   1.0921
    10.8753  11.7760  12.6831  12.6866  13.3507  14.1262  14.1262  15.2866
    15.3040  15.3040  16.6309  16.6758  18.2531  18.2531  19.0841  19.1156
    19.1156  19.1225  19.1229  19.1482  19.1775  19.1775  19.1794  19.1794
    19.1870  19.4715  19.6319  19.6796  19.8343  20.3932  20.3932

[...]

          k = 0.0873 0.0873 0.1238 (  4808 PWs)   bands (ev):

   -69.3256 -69.3255 -28.6695 -28.6693 -28.6661 -28.6655 -28.6413 -28.6406
   -15.7374 -15.7314  -0.0747  -0.0690  -0.0548  -0.0466   1.0421   1.0745
    11.8834  11.8876  13.3894  13.4305  14.1314  14.1317  14.1402  14.1924
    16.4209  16.4691  16.4816  16.6593  18.1320  18.2985  18.3649  18.4055
    19.1267  19.1315  19.1362  19.1406  19.1810  19.1926  19.5654  19.6259
    19.6264  19.6832  19.8298  20.0024  20.2262  20.2462  20.3197

     the Fermi energy is    15.8556 ev

!    total energy              =    -607.67464465 Ry
     Harris-Foulkes estimate   =    -607.67455345 Ry
     estimated scf accuracy    <       0.00000095 Ry

     The total energy is the sum of the following terms:

     one-electron contribution =    -117.39508266 Ry
     hartree contribution      =      86.83481436 Ry
     xc contribution           =    -179.35346506 Ry
     ewald contribution        =    -397.75385713 Ry
     smearing contrib. (-TS)   =      -0.00705418 Ry

     convergence has been achieved in  13 iterations

     Forces acting on atoms (Ry/au):

     negative rho (up, down):  3.187E-01 0.000E+00
     atom    1 type  1   force =     0.00000000    0.00000000    0.00000000
     atom    2 type  1   force =     0.00000000    0.00000000    0.00000000
     atom    3 type  2   force =     0.00000000    0.00000000    0.00000000
     atom    4 type  2   force =     0.00000000    0.00000000    0.00000000

     Total force =     0.000000     Total SCF correction =     0.000000

     General routines

     Parallel routines

   This run was terminated on:  14:32:56  14Nov2017

   JOB DONE.