     Program PWSCF v.5.1rc2 starts on 15Nov2017 at  1:50:46

     Current dimensions of program PWSCF are:
     Max number of different atomic species (ntypx) = 10
     Max number of k-points (npk) =  40000
     Max angular momentum in pseudopotentials (lmaxx) =  3

     IMPORTANT: XC functional enforced from input :
     Exchange-correlation      = BEEF-VDW ( 1  4 27 13 2)
     Any further DFT definition will be discarded
     Please, verify this is what you really want

     Found symmetry operation: I + (  0.5000  0.5000  0.0000)
     This is a supercell, fractional translations are disabled

     bravais-lattice index     =            0
     lattice parameter (alat)  =       1.8897  a.u.
     unit-cell volume          =     406.8993 (a.u.)^3
     number of atoms/cell      =            4
     number of atomic types    =            2
     number of electrons       =        62.00
     number of Kohn-Sham states=           51
     kinetic-energy cutoff     =      58.7989  Ry
     charge density cutoff     =     587.9892  Ry
     convergence threshold     =      1.0E-06
     mixing beta               =       0.1000
     number of iterations used =           10  plain     mixing
     Exchange-correlation      = BEEF-VDW ( 1  4 27 13 2)

     celldm(1)=   1.889726  celldm(2)=   0.000000  celldm(3)=   0.000000
     celldm(4)=   0.000000  celldm(5)=   0.000000  celldm(6)=   0.000000

     crystal axes: (cart. coord. in units of alat)
               a(1) = (   3.907573   0.000000   0.000000 )
               a(2) = (   0.000000   3.907573   0.000000 )
               a(3) = (   0.000000   0.000000   3.948900 )

     reciprocal axes: (cart. coord. in units 2 pi/alat)
               b(1) = (  0.255913  0.000000  0.000000 )
               b(2) = (  0.000000  0.255913  0.000000 )
               b(3) = (  0.000000  0.000000  0.253235 )

     PseudoPot. # 1 for Pd read from file:
     /home/users/vossj/suncat/psp/gbrv1.5pbe/Pd.UPF
     MD5 check sum: 2d733d2bc2cbfd217af676df1668a4bc
     Pseudo is Ultrasoft + core correction, Zval = 16.0
     Generated by new atomic code, or converted to UPF format
     Using radial grid of  887 points,  6 beta functions with:
                l(1) =   0
                l(2) =   0
                l(3) =   1
                l(4) =   1
                l(5) =   2
                l(6) =   2
     Q(r) pseudized with  8 coefficients,  rinner =    1.130   1.130   1.130
                                                       1.130   1.130

     PseudoPot. # 2 for Ir read from file:
     /home/users/vossj/suncat/psp/gbrv1.5pbe/Ir.UPF
     MD5 check sum: 8836f839c3459d2b385c504ce6d91f2c
     Pseudo is Ultrasoft + core correction, Zval = 15.0
     Generated by new atomic code, or converted to UPF format
     Using radial grid of  983 points,  7 beta functions with:
                l(1) =   0
                l(2) =   0
                l(3) =   1
                l(4) =   1
                l(5) =   1
                l(6) =   2
                l(7) =   2
     Q(r) pseudized with  8 coefficients,  rinner =    1.400   1.400   1.400
                                                       1.400   1.400

     vdW kernel table read from file vdW_kernel_table
     MD5 check sum: 095c7af220d748ca6e76c0b4c6cfb241

     atomic species   valence    mass     pseudopotential
        Pd1           16.00   106.42000     Pd( 1.00)
        Ir1           15.00   192.22000     Ir( 1.00)

     16 Sym. Ops., with inversion, found

   Cartesian axes

     site n.     atom                  positions (alat units)
         1           Pd1 tau(   1) = (   0.0000000   0.0000000   0.0000000  )
         2           Pd1 tau(   2) = (   1.9537867   1.9537867   0.0000000  )
         3           Ir1 tau(   3) = (   1.9537867   0.0000000   1.9744498  )
         4           Ir1 tau(   4) = (   0.0000000   1.9537867   1.9744498  )

     number of k points=    75  Fermi-Dirac smearing, width (Ry)=  0.0073
                       cart. coord. in units 2pi/alat
        k(    1) = (   0.0000000   0.0000000   0.0000000), wk =   0.0027435
        k(    2) = (   0.0000000   0.0000000   0.0281372), wk =   0.0054870
        k(    3) = (   0.0000000   0.0000000   0.0562745), wk =   0.0054870
        k(    4) = (   0.0000000   0.0000000   0.0844117), wk =   0.0054870
        k(    5) = (   0.0000000   0.0000000   0.1125489), wk =   0.0054870
        k(    6) = (   0.0000000   0.0284348   0.0000000), wk =   0.0109739
        k(    7) = (   0.0000000   0.0284348   0.0281372), wk =   0.0219479
        k(    8) = (   0.0000000   0.0284348   0.0562745), wk =   0.0219479
        k(    9) = (   0.0000000   0.0284348   0.0844117), wk =   0.0219479
        k(   10) = (   0.0000000   0.0284348   0.1125489), wk =   0.0219479
        k(   11) = (   0.0000000   0.0568696   0.0000000), wk =   0.0109739
        k(   12) = (   0.0000000   0.0568696   0.0281372), wk =   0.0219479
        k(   13) = (   0.0000000   0.0568696   0.0562745), wk =   0.0219479
        k(   14) = (   0.0000000   0.0568696   0.0844117), wk =   0.0219479
        k(   15) = (   0.0000000   0.0568696   0.1125489), wk =   0.0219479
        k(   16) = (   0.0000000   0.0853044   0.0000000), wk =   0.0109739
        k(   17) = (   0.0000000   0.0853044   0.0281372), wk =   0.0219479
        k(   18) = (   0.0000000   0.0853044   0.0562745), wk =   0.0219479
        k(   19) = (   0.0000000   0.0853044   0.0844117), wk =   0.0219479
        k(   20) = (   0.0000000   0.0853044   0.1125489), wk =   0.0219479
        k(   21) = (   0.0000000   0.1137392   0.0000000), wk =   0.0109739
        k(   22) = (   0.0000000   0.1137392   0.0281372), wk =   0.0219479
        k(   23) = (   0.0000000   0.1137392   0.0562745), wk =   0.0219479
        k(   24) = (   0.0000000   0.1137392   0.0844117), wk =   0.0219479
        k(   25) = (   0.0000000   0.1137392   0.1125489), wk =   0.0219479
        k(   26) = (   0.0284348   0.0284348   0.0000000), wk =   0.0109739
        k(   27) = (   0.0284348   0.0284348   0.0281372), wk =   0.0219479
        k(   28) = (   0.0284348   0.0284348   0.0562745), wk =   0.0219479
        k(   29) = (   0.0284348   0.0284348   0.0844117), wk =   0.0219479
        k(   30) = (   0.0284348   0.0284348   0.1125489), wk =   0.0219479
        k(   31) = (   0.0284348   0.0568696   0.0000000), wk =   0.0219479
        k(   32) = (   0.0284348   0.0568696   0.0281372), wk =   0.0438957
        k(   33) = (   0.0284348   0.0568696   0.0562745), wk =   0.0438957
        k(   34) = (   0.0284348   0.0568696   0.0844117), wk =   0.0438957
        k(   35) = (   0.0284348   0.0568696   0.1125489), wk =   0.0438957
        k(   36) = (   0.0284348   0.0853044   0.0000000), wk =   0.0219479
        k(   37) = (   0.0284348   0.0853044   0.0281372), wk =   0.0438957
        k(   38) = (   0.0284348   0.0853044   0.0562745), wk =   0.0438957
        k(   39) = (   0.0284348   0.0853044   0.0844117), wk =   0.0438957
        k(   40) = (   0.0284348   0.0853044   0.1125489), wk =   0.0438957
        k(   41) = (   0.0284348   0.1137392   0.0000000), wk =   0.0219479
        k(   42) = (   0.0284348   0.1137392   0.0281372), wk =   0.0438957
        k(   43) = (   0.0284348   0.1137392   0.0562745), wk =   0.0438957
        k(   44) = (   0.0284348   0.1137392   0.0844117), wk =   0.0438957
        k(   45) = (   0.0284348   0.1137392   0.1125489), wk =   0.0438957
        k(   46) = (   0.0568696   0.0568696   0.0000000), wk =   0.0109739
        k(   47) = (   0.0568696   0.0568696   0.0281372), wk =   0.0219479
        k(   48) = (   0.0568696   0.0568696   0.0562745), wk =   0.0219479
        k(   49) = (   0.0568696   0.0568696   0.0844117), wk =   0.0219479
        k(   50) = (   0.0568696   0.0568696   0.1125489), wk =   0.0219479
        k(   51) = (   0.0568696   0.0853044   0.0000000), wk =   0.0219479
        k(   52) = (   0.0568696   0.0853044   0.0281372), wk =   0.0438957
        k(   53) = (   0.0568696   0.0853044   0.0562745), wk =   0.0438957
        k(   54) = (   0.0568696   0.0853044   0.0844117), wk =   0.0438957
        k(   55) = (   0.0568696   0.0853044   0.1125489), wk =   0.0438957
        k(   56) = (   0.0568696   0.1137392   0.0000000), wk =   0.0219479
        k(   57) = (   0.0568696   0.1137392   0.0281372), wk =   0.0438957
        k(   58) = (   0.0568696   0.1137392   0.0562745), wk =   0.0438957
        k(   59) = (   0.0568696   0.1137392   0.0844117), wk =   0.0438957
        k(   60) = (   0.0568696   0.1137392   0.1125489), wk =   0.0438957
        k(   61) = (   0.0853044   0.0853044   0.0000000), wk =   0.0109739
        k(   62) = (   0.0853044   0.0853044   0.0281372), wk =   0.0219479
        k(   63) = (   0.0853044   0.0853044   0.0562745), wk =   0.0219479
        k(   64) = (   0.0853044   0.0853044   0.0844117), wk =   0.0219479
        k(   65) = (   0.0853044   0.0853044   0.1125489), wk =   0.0219479
        k(   66) = (   0.0853044   0.1137392   0.0000000), wk =   0.0219479
        k(   67) = (   0.0853044   0.1137392   0.0281372), wk =   0.0438957
        k(   68) = (   0.0853044   0.1137392   0.0562745), wk =   0.0438957
        k(   69) = (   0.0853044   0.1137392   0.0844117), wk =   0.0438957
        k(   70) = (   0.0853044   0.1137392   0.1125489), wk =   0.0438957
        k(   71) = (   0.1137392   0.1137392   0.0000000), wk =   0.0109739
        k(   72) = (   0.1137392   0.1137392   0.0281372), wk =   0.0219479
        k(   73) = (   0.1137392   0.1137392   0.0562745), wk =   0.0219479
        k(   74) = (   0.1137392   0.1137392   0.0844117), wk =   0.0219479
        k(   75) = (   0.1137392   0.1137392   0.1125489), wk =   0.0219479

     Largest allocated arrays     est. size (Mb)     dimensions
     Largest temporary arrays     est. size (Mb)     dimensions

     Initial potential from superposition of free atoms
     Check: negative starting charge=   -0.886893

     starting charge   59.99992, renormalised to   62.00000

     negative rho (up, down):  9.165E-01 0.000E+00

     *
     * You are using vdW-DF for exchange-correlation in this calculation.
     * Please cite the following three references that made this development
     * possible:
     *
     *   M. Dion, H. Rydberg, E. Schroder, D. C. Langreth, and
     *   B. I. Lundqvist, Phys. Rev. Lett. 92, 246401 (2004).
     *
     *   T. Thonhauser, V. R. Cooper, S. Li, A. Puzder, P. Hyldgaard, and
     *   D. C. Langreth, Phys. Rev. B 76, 125112 (2007).
     *
     *   G. Roman-Perez and J. M. Soler, Phys. Rev. Lett. 103, 096102 (2009).
     *
     *
     * If you are using vdW-DF2, please also cite:
     *
     *   K. Lee, E. D. Murray, L. Kong, B. I. Lundqvist, and
     *   D. C. Langreth, Phys. Rev. B 82, 081101(R) (2010).
     *
     *
     * If you are calculating the stress with vdW-DF, please also cite:
     *
     *   R. Sabatini, E. Kucukbenli, B. Kolb, T. Thonhauser, and
     *   S. de Gironcoli, J. Phys.: Condens. Matter 24, 424209 (2012).
     *

     Carrying out vdW-DF run using the following parameters:

     Nqs =      20    Nr_points =    1024   r_max =   100.000
     q_mesh =
               0.00001000     0.04494208     0.09755937     0.15916263
               0.23128650     0.31572767     0.41458969     0.53033537
               0.66584808     0.82450364     1.01025438     1.22772762
               1.48234092     1.78043706     2.12944203     2.53805004
               3.01644009     3.57652955     4.23227104     5.00000000

     Gradients computed in reciprocal space

     Starting wfc are   48 randomized atomic wfcs +    3 random wfc

     Self-consistent Calculation

     iteration #  1     ecut=    58.80 Ry     beta=0.10
     Davidson diagonalization with overlap
     ethr =  1.00E-02,  avg # of iterations =  5.1

[...]

     total energy              =    -766.65904693 Ry
     Harris-Foulkes estimate   =    -767.26403036 Ry
     estimated scf accuracy    <       3.97823921 Ry

[...]

     total energy              =    -766.27434679 Ry
     Harris-Foulkes estimate   =    -766.27434362 Ry
     estimated scf accuracy    <       0.00000138 Ry

     iteration # 11     ecut=    58.80 Ry     beta=0.10
     Davidson diagonalization with overlap
     ethr =  2.23E-09,  avg # of iterations =  2.0

     negative rho (up, down):  8.170E-01 0.000E+00

     End of self-consistent calculation

          k = 0.0000 0.0000 0.0000 (  3087 PWs)   bands (ev):

   -30.4002 -30.3617 -30.3617 -30.3308 -30.1729 -30.1729 -29.0009 -29.0009
   -28.8109 -28.7800 -28.7086 -28.7086  11.6674  14.0548  14.2068  14.2483
    14.5356  14.5356  14.5478  17.0626  17.0950  17.0950  18.7832  18.9079
    19.9047  19.9835  20.8184  20.8184  20.8877  20.9198  21.0180  21.0180
    22.1216  22.8383  23.0643  23.0643  29.7260  30.5366  31.5800  31.5804
    31.8558  32.0794  32.7117  32.7117  32.8625  32.8625  33.2074  36.1860
    40.5030  41.1363  41.6199

[...]

          k = 0.1137 0.1137 0.1125 (  3104 PWs)   bands (ev):

   -30.3900 -30.3849 -30.3766 -30.3757 -30.1573 -30.1517 -29.0226 -29.0139
   -28.7942 -28.7924 -28.6961 -28.6868  13.9280  13.9882  14.4208  14.4392
    16.8268  16.8661  16.9961  17.0530  17.0884  17.1138  17.1345  17.2061
    19.3830  19.4293  19.7877  20.0346  20.1209  20.3005  20.4622  20.7746
    20.9721  21.4350  21.7047  21.8885  26.5113  26.8242  28.3172  28.6279
    31.5746  31.5747  35.6492  35.6628  35.8487  35.9152  39.3979  39.5864
    39.8980  40.2266  40.7323

     the Fermi energy is    20.2910 ev

!    total energy              =    -766.27436301 Ry
     Harris-Foulkes estimate   =    -766.27434706 Ry
     estimated scf accuracy    <       0.00000003 Ry

     The total energy is the sum of the following terms:

     one-electron contribution =    -114.10239398 Ry
     hartree contribution      =     111.84068273 Ry
     xc contribution           =    -169.10459158 Ry
     ewald contribution        =    -594.89469033 Ry
     smearing contrib. (-TS)   =      -0.01336984 Ry

     convergence has been achieved in  11 iterations

     Forces acting on atoms (Ry/au):

     negative rho (up, down):  8.170E-01 0.000E+00
     atom    1 type  1   force =     0.00000000    0.00000000    0.00000000
     atom    2 type  1   force =     0.00000000    0.00000000    0.00000000
     atom    3 type  2   force =     0.00000000    0.00000000    0.00000000
     atom    4 type  2   force =     0.00000000    0.00000000    0.00000000

     Total force =     0.000000     Total SCF correction =     0.000000

     General routines

     Parallel routines

   This run was terminated on:   1:51:27  15Nov2017

   JOB DONE.