     Program PWSCF v.5.1rc2 (svn rev. ) starts on 18Feb2018 at 18:21:38

     Current dimensions of program PWSCF are:
     Max number of different atomic species (ntypx) = 10
     Max number of k-points (npk) =  40000
     Max angular momentum in pseudopotentials (lmaxx) =  3

     IMPORTANT: XC functional enforced from input :
     Exchange-correlation      = BEEF-VDW ( 1  4 27 13 2)
     Any further DFT definition will be discarded
     Please, verify this is what you really want

     Subspace diagonalization in iterative solution of the eigenvalue problem:
     a serial algorithm will be used

     Found symmetry operation: I + ( -0.5000 -0.5000  0.0000)
     This is a supercell, fractional translations are disabled

     bravais-lattice index     =            0
     lattice parameter (alat)  =       1.8897  a.u.
     unit-cell volume          =     593.0221 (a.u.)^3
     number of atoms/cell      =            4
     number of atomic types    =            2
     number of electrons       =        56.00
     number of Kohn-Sham states=           48
     kinetic-energy cutoff     =      58.7989  Ry
     charge density cutoff     =     587.9892  Ry
     convergence threshold     =      1.0E-06
     mixing beta               =       0.1000
     number of iterations used =           10  plain     mixing
     Exchange-correlation      = BEEF-VDW ( 1  4 27 13 2)

     celldm(1)=   1.889726  celldm(2)=   0.000000  celldm(3)=   0.000000
     celldm(4)=   0.000000  celldm(5)=   0.000000  celldm(6)=   0.000000

     crystal axes: (cart. coord. in units of alat)
               a(1) = (   4.992479   0.000000   0.000000 )
               a(2) = (   0.000000   4.992479   0.000000 )
               a(3) = (   0.000000   0.000000   3.525671 )

     reciprocal axes: (cart. coord. in units 2 pi/alat)
               b(1) = (  0.200301  0.000000  0.000000 )
               b(2) = (  0.000000  0.200301  0.000000 )
               b(3) = (  0.000000  0.000000  0.283634 )

     PseudoPot. # 1 for Nb read from file:
     /home/mamunm/src/pseudo/gbrv1.5pbe/Nb.UPF
     MD5 check sum: 573aab8a2fa660278ed4a62cd769473f
     Pseudo is Ultrasoft + core correction, Zval = 13.0
     Generated by new atomic code, or converted to UPF format
     Using radial grid of  887 points,  6 beta functions with:
                l(1) =   0
                l(2) =   0
                l(3) =   1
                l(4) =   1
                l(5) =   2
                l(6) =   2
     Q(r) pseudized with  6 coefficients,  rinner =    1.000   1.000   1.000
                                                       1.000   1.000

     PseudoPot. # 2 for Bi read from file:
     /home/mamunm/src/pseudo/gbrv1.5pbe/Bi.UPF
     MD5 check sum: 81103212dc04adf40945787f699eab19
     Pseudo is Ultrasoft + core correction, Zval = 15.0
     Generated by new atomic code, or converted to UPF format
     Using radial grid of  899 points,  6 beta functions with:
                l(1) =   0
                l(2) =   0
                l(3) =   1
                l(4) =   1
                l(5) =   2
                l(6) =   2
     Q(r) pseudized with  6 coefficients,  rinner =    1.000   1.000   1.000
                                                       1.000   1.000

     vdW kernel table read from file vdW_kernel_table
     MD5 check sum: 095c7af220d748ca6e76c0b4c6cfb241

     atomic species   valence    mass     pseudopotential
        Nb1           13.00    92.90637     Nb( 1.00)
        Bi1           15.00   208.98040     Bi( 1.00)

     16 Sym. Ops., with inversion, found

   Cartesian axes

     site n.     atom                  positions (alat units)
         1           Nb1 tau(   1) = (   0.0000000   0.0000000   0.0000000  )
         2           Nb1 tau(   2) = (   2.4962396   2.4962396   0.0000000  )
         3           Bi1 tau(   3) = (   2.4962396   0.0000000   1.7628353  )
         4           Bi1 tau(   4) = (   0.0000000   2.4962396   1.7628353  )

     number of k points=    75  Fermi-Dirac smearing, width (Ry)=  0.0073
                       cart. coord. in units 2pi/alat
        k(    1) = (   0.0000000   0.0000000   0.0000000), wk =   0.0027435
        k(    2) = (   0.0000000   0.0000000   0.0315149), wk =   0.0054870
        k(    3) = (   0.0000000   0.0000000   0.0630298), wk =   0.0054870
        k(    4) = (   0.0000000   0.0000000   0.0945447), wk =   0.0054870
        k(    5) = (   0.0000000   0.0000000   0.1260596), wk =   0.0054870
        k(    6) = (   0.0000000   0.0222557   0.0000000), wk =   0.0109739
        k(    7) = (   0.0000000   0.0222557   0.0315149), wk =   0.0219479
        k(    8) = (   0.0000000   0.0222557   0.0630298), wk =   0.0219479
        k(    9) = (   0.0000000   0.0222557   0.0945447), wk =   0.0219479
        k(   10) = (   0.0000000   0.0222557   0.1260596), wk =   0.0219479
        k(   11) = (   0.0000000   0.0445114   0.0000000), wk =   0.0109739
        k(   12) = (   0.0000000   0.0445114   0.0315149), wk =   0.0219479
        k(   13) = (   0.0000000   0.0445114   0.0630298), wk =   0.0219479
        k(   14) = (   0.0000000   0.0445114   0.0945447), wk =   0.0219479
        k(   15) = (   0.0000000   0.0445114   0.1260596), wk =   0.0219479
        k(   16) = (   0.0000000   0.0667671   0.0000000), wk =   0.0109739
        k(   17) = (   0.0000000   0.0667671   0.0315149), wk =   0.0219479
        k(   18) = (   0.0000000   0.0667671   0.0630298), wk =   0.0219479
        k(   19) = (   0.0000000   0.0667671   0.0945447), wk =   0.0219479
        k(   20) = (   0.0000000   0.0667671   0.1260596), wk =   0.0219479
        k(   21) = (   0.0000000   0.0890228   0.0000000), wk =   0.0109739
        k(   22) = (   0.0000000   0.0890228   0.0315149), wk =   0.0219479
        k(   23) = (   0.0000000   0.0890228   0.0630298), wk =   0.0219479
        k(   24) = (   0.0000000   0.0890228   0.0945447), wk =   0.0219479
        k(   25) = (   0.0000000   0.0890228   0.1260596), wk =   0.0219479
        k(   26) = (   0.0222557   0.0222557   0.0000000), wk =   0.0109739
        k(   27) = (   0.0222557   0.0222557   0.0315149), wk =   0.0219479
        k(   28) = (   0.0222557   0.0222557   0.0630298), wk =   0.0219479
        k(   29) = (   0.0222557   0.0222557   0.0945447), wk =   0.0219479
        k(   30) = (   0.0222557   0.0222557   0.1260596), wk =   0.0219479
        k(   31) = (   0.0222557   0.0445114   0.0000000), wk =   0.0219479
        k(   32) = (   0.0222557   0.0445114   0.0315149), wk =   0.0438957
        k(   33) = (   0.0222557   0.0445114   0.0630298), wk =   0.0438957
        k(   34) = (   0.0222557   0.0445114   0.0945447), wk =   0.0438957
        k(   35) = (   0.0222557   0.0445114   0.1260596), wk =   0.0438957
        k(   36) = (   0.0222557   0.0667671   0.0000000), wk =   0.0219479
        k(   37) = (   0.0222557   0.0667671   0.0315149), wk =   0.0438957
        k(   38) = (   0.0222557   0.0667671   0.0630298), wk =   0.0438957
        k(   39) = (   0.0222557   0.0667671   0.0945447), wk =   0.0438957
        k(   40) = (   0.0222557   0.0667671   0.1260596), wk =   0.0438957
        k(   41) = (   0.0222557   0.0890228   0.0000000), wk =   0.0219479
        k(   42) = (   0.0222557   0.0890228   0.0315149), wk =   0.0438957
        k(   43) = (   0.0222557   0.0890228   0.0630298), wk =   0.0438957
        k(   44) = (   0.0222557   0.0890228   0.0945447), wk =   0.0438957
        k(   45) = (   0.0222557   0.0890228   0.1260596), wk =   0.0438957
        k(   46) = (   0.0445114   0.0445114   0.0000000), wk =   0.0109739
        k(   47) = (   0.0445114   0.0445114   0.0315149), wk =   0.0219479
        k(   48) = (   0.0445114   0.0445114   0.0630298), wk =   0.0219479
        k(   49) = (   0.0445114   0.0445114   0.0945447), wk =   0.0219479
        k(   50) = (   0.0445114   0.0445114   0.1260596), wk =   0.0219479
        k(   51) = (   0.0445114   0.0667671   0.0000000), wk =   0.0219479
        k(   52) = (   0.0445114   0.0667671   0.0315149), wk =   0.0438957
        k(   53) = (   0.0445114   0.0667671   0.0630298), wk =   0.0438957
        k(   54) = (   0.0445114   0.0667671   0.0945447), wk =   0.0438957
        k(   55) = (   0.0445114   0.0667671   0.1260596), wk =   0.0438957
        k(   56) = (   0.0445114   0.0890228   0.0000000), wk =   0.0219479
        k(   57) = (   0.0445114   0.0890228   0.0315149), wk =   0.0438957
        k(   58) = (   0.0445114   0.0890228   0.0630298), wk =   0.0438957
        k(   59) = (   0.0445114   0.0890228   0.0945447), wk =   0.0438957
        k(   60) = (   0.0445114   0.0890228   0.1260596), wk =   0.0438957
        k(   61) = (   0.0667671   0.0667671   0.0000000), wk =   0.0109739
        k(   62) = (   0.0667671   0.0667671   0.0315149), wk =   0.0219479
        k(   63) = (   0.0667671   0.0667671   0.0630298), wk =   0.0219479
        k(   64) = (   0.0667671   0.0667671   0.0945447), wk =   0.0219479
        k(   65) = (   0.0667671   0.0667671   0.1260596), wk =   0.0219479
        k(   66) = (   0.0667671   0.0890228   0.0000000), wk =   0.0219479
        k(   67) = (   0.0667671   0.0890228   0.0315149), wk =   0.0438957
        k(   68) = (   0.0667671   0.0890228   0.0630298), wk =   0.0438957
        k(   69) = (   0.0667671   0.0890228   0.0945447), wk =   0.0438957
        k(   70) = (   0.0667671   0.0890228   0.1260596), wk =   0.0438957
        k(   71) = (   0.0890228   0.0890228   0.0000000), wk =   0.0109739
        k(   72) = (   0.0890228   0.0890228   0.0315149), wk =   0.0219479
        k(   73) = (   0.0890228   0.0890228   0.0630298), wk =   0.0219479
        k(   74) = (   0.0890228   0.0890228   0.0945447), wk =   0.0219479
        k(   75) = (   0.0890228   0.0890228   0.1260596), wk =   0.0219479

     Largest allocated arrays     est. size (Mb)     dimensions
     Largest temporary arrays     est. size (Mb)     dimensions

     Initial potential from superposition of free atoms
     Check: negative starting charge=   -0.082308

     starting charge   53.99445, renormalised to   56.00000

     negative rho (up, down):  8.537E-02 0.000E+00

     *
     * You are using vdW-DF for exchange-correlation in this calculation.
     * Please cite the following three references that made this development
     * possible:
     *
     *   M. Dion, H. Rydberg, E. Schroder, D. C. Langreth, and
     *   B. I. Lundqvist, Phys. Rev. Lett. 92, 246401 (2004).
     *
     *   T. Thonhauser, V. R. Cooper, S. Li, A. Puzder, P. Hyldgaard, and
     *   D. C. Langreth, Phys. Rev. B 76, 125112 (2007).
     *
     *   G. Roman-Perez and J. M. Soler, Phys. Rev. Lett. 103, 096102 (2009).
     *
     *
     * If you are using vdW-DF2, please also cite:
     *
     *   K. Lee, E. D. Murray, L. Kong, B. I. Lundqvist, and
     *   D. C. Langreth, Phys. Rev. B 82, 081101(R) (2010).
     *
     *
     * If you are calculating the stress with vdW-DF, please also cite:
     *
     *   R. Sabatini, E. Kucukbenli, B. Kolb, T. Thonhauser, and
     *   S. de Gironcoli, J. Phys.: Condens. Matter 24, 424209 (2012).
     *

     Carrying out vdW-DF run using the following parameters:

     Nqs =      20    Nr_points =    1024   r_max =   100.000
     q_mesh =
               0.00001000     0.04494208     0.09755937     0.15916263
               0.23128650     0.31572767     0.41458969     0.53033537
               0.66584808     0.82450364     1.01025438     1.22772762
               1.48234092     1.78043706     2.12944203     2.53805004
               3.01644009     3.57652955     4.23227104     5.00000000

     Gradients computed in reciprocal space

     Starting wfc are   44 randomized atomic wfcs +    4 random wfc

     Self-consistent Calculation

     iteration #  1     ecut=    58.80 Ry     beta=0.10
     Davidson diagonalization with overlap
     ethr =  1.00E-02,  avg # of iterations =  4.9

[...]

     total energy              =    -611.67015039 Ry
     Harris-Foulkes estimate   =    -611.86062739 Ry
     estimated scf accuracy    <       1.28735431 Ry

[...]

     total energy              =    -611.40903367 Ry
     Harris-Foulkes estimate   =    -611.40901862 Ry
     estimated scf accuracy    <       0.00000305 Ry

     iteration # 10     ecut=    58.80 Ry     beta=0.10
     Davidson diagonalization with overlap
     ethr =  5.45E-09,  avg # of iterations =  2.5

     negative rho (up, down):  9.039E-02 0.000E+00

     End of self-consistent calculation

          k = 0.0000 0.0000 0.0000 (  4517 PWs)   bands (ev):

   -39.2938 -39.2786 -15.3762 -15.3762 -15.2668 -15.2634 -15.2634 -15.2436
    -6.9268  -6.9259  -6.8963  -6.8549  -6.8457  -6.8457  -6.8061  -6.8051
    -6.8051  -6.7146   3.1134   5.4825  12.3703  12.3703  14.2856  14.2909
    14.3559  16.3703  16.3703  17.1392  17.1392  17.1677  17.3930  17.3951
    17.3951  17.6678  18.4496  19.6747  19.8545  20.3050  24.6990  24.6990
    25.8604  25.8609  27.5217  28.2740  28.2740  28.2955  29.0972  31.6169

[...]

          k = 0.0890 0.0890 0.1261 (  4474 PWs)   bands (ev):

   -39.2790 -39.2784 -15.3785 -15.3775 -15.3765 -15.3731 -15.2444 -15.2410
    -6.8929  -6.8920  -6.8557  -6.8506  -6.8467  -6.8454  -6.8453  -6.8439
    -6.7205  -6.7172   5.4365   5.4965  12.1859  12.1954  12.4097  12.4190
    14.5462  14.5902  16.2225  16.3307  16.3883  16.4386  17.3352  17.7483
    18.4006  18.4342  19.8790  20.0284  20.3345  20.3550  24.5514  24.6415
    24.7710  24.8481  27.7264  27.7784  28.6410  28.6534  31.5149  31.5812

     the Fermi energy is    16.2993 ev

!    total energy              =    -611.40912239 Ry
     Harris-Foulkes estimate   =    -611.40903477 Ry
     estimated scf accuracy    <       0.00000069 Ry

     The total energy is the sum of the following terms:

     one-electron contribution =     -96.82148734 Ry
     hartree contribution      =      86.14542290 Ry
     xc contribution           =    -171.63320063 Ry
     ewald contribution        =    -429.09142253 Ry
     smearing contrib. (-TS)   =      -0.00843479 Ry

     convergence has been achieved in  10 iterations

     Forces acting on atoms (Ry/au):

     negative rho (up, down):  9.039E-02 0.000E+00
     atom    1 type  1   force =     0.00000000    0.00000000    0.00000000
     atom    2 type  1   force =     0.00000000    0.00000000    0.00000000
     atom    3 type  2   force =     0.00000000    0.00000000    0.00000000
     atom    4 type  2   force =     0.00000000    0.00000000    0.00000000

     Total force =     0.000000     Total SCF correction =     0.000000

     General routines

     Parallel routines

   This run was terminated on:  18:22:29  18Feb2018

   JOB DONE.