     Program PWSCF v.5.1rc2 starts on 14Nov2017 at 15:38:59

     Current dimensions of program PWSCF are:
     Max number of different atomic species (ntypx) = 10
     Max number of k-points (npk) =  40000
     Max angular momentum in pseudopotentials (lmaxx) =  3

     IMPORTANT: XC functional enforced from input :
     Exchange-correlation      = BEEF-VDW ( 1  4 27 13 2)
     Any further DFT definition will be discarded
     Please, verify this is what you really want

     Found symmetry operation: I + ( -0.5000 -0.5000  0.0000)
     This is a supercell, fractional translations are disabled

     bravais-lattice index     =            0
     lattice parameter (alat)  =       1.8897  a.u.
     unit-cell volume          =     418.5664 (a.u.)^3
     number of atoms/cell      =            4
     number of atomic types    =            2
     number of electrons       =        60.00
     number of Kohn-Sham states=           50
     kinetic-energy cutoff     =      58.7989  Ry
     charge density cutoff     =     587.9892  Ry
     convergence threshold     =      1.0E-06
     mixing beta               =       0.1000
     number of iterations used =           10  plain     mixing
     Exchange-correlation      = BEEF-VDW ( 1  4 27 13 2)

     celldm(1)=   1.889726  celldm(2)=   0.000000  celldm(3)=   0.000000
     celldm(4)=   0.000000  celldm(5)=   0.000000  celldm(6)=   0.000000

     crystal axes: (cart. coord. in units of alat)
               a(1) = (   3.867572   0.000000   0.000000 )
               a(2) = (   0.000000   3.867572   0.000000 )
               a(3) = (   0.000000   0.000000   4.146589 )

     reciprocal axes: (cart. coord. in units 2 pi/alat)
               b(1) = (  0.258560  0.000000  0.000000 )
               b(2) = (  0.000000  0.258560  0.000000 )
               b(3) = (  0.000000  0.000000  0.241162 )

     PseudoPot. # 1 for Mo read from file:
     /home/users/vossj/suncat/psp/gbrv1.5pbe/Mo.UPF
     MD5 check sum: 30c4dcd161f5d35cd49bb5239c51a633
     Pseudo is Ultrasoft + core correction, Zval = 14.0
     Generated by new atomic code, or converted to UPF format
     Using radial grid of  889 points,  6 beta functions with:
                l(1) =   0
                l(2) =   0
                l(3) =   1
                l(4) =   1
                l(5) =   2
                l(6) =   2
     Q(r) pseudized with  6 coefficients,  rinner =    1.000   1.000   1.000
                                                       1.000   1.000

     PseudoPot. # 2 for Pt read from file:
     /home/users/vossj/suncat/psp/gbrv1.5pbe/Pt.UPF
     MD5 check sum: f09d6de1a584b5a045c4fc126da2d0c4
     Pseudo is Ultrasoft + core correction, Zval = 16.0
     Generated by new atomic code, or converted to UPF format
     Using radial grid of  985 points,  6 beta functions with:
                l(1) =   0
                l(2) =   0
                l(3) =   1
                l(4) =   1
                l(5) =   2
                l(6) =   2
     Q(r) pseudized with  8 coefficients,  rinner =    1.300   1.300   1.300
                                                       1.300   1.300

     vdW kernel table read from file vdW_kernel_table
     MD5 check sum: 095c7af220d748ca6e76c0b4c6cfb241

     atomic species   valence    mass     pseudopotential
        Mo1           14.00    95.94000     Mo( 1.00)
        Pt1           16.00   195.08000     Pt( 1.00)

     16 Sym. Ops., with inversion, found

   Cartesian axes

     site n.     atom                  positions (alat units)
         1           Mo1 tau(   1) = (   0.0000000   0.0000000   0.0000000  )
         2           Mo1 tau(   2) = (   1.9337859   1.9337859   0.0000000  )
         3           Pt1 tau(   3) = (   1.9337859   0.0000000   2.0732947  )
         4           Pt1 tau(   4) = (   0.0000000   1.9337859   2.0732947  )

     number of k points=    75  Fermi-Dirac smearing, width (Ry)=  0.0073
                       cart. coord. in units 2pi/alat
        k(    1) = (   0.0000000   0.0000000   0.0000000), wk =   0.0027435
        k(    2) = (   0.0000000   0.0000000   0.0267958), wk =   0.0054870
        k(    3) = (   0.0000000   0.0000000   0.0535916), wk =   0.0054870
        k(    4) = (   0.0000000   0.0000000   0.0803873), wk =   0.0054870
        k(    5) = (   0.0000000   0.0000000   0.1071831), wk =   0.0054870
        k(    6) = (   0.0000000   0.0287289   0.0000000), wk =   0.0109739
        k(    7) = (   0.0000000   0.0287289   0.0267958), wk =   0.0219479
        k(    8) = (   0.0000000   0.0287289   0.0535916), wk =   0.0219479
        k(    9) = (   0.0000000   0.0287289   0.0803873), wk =   0.0219479
        k(   10) = (   0.0000000   0.0287289   0.1071831), wk =   0.0219479
        k(   11) = (   0.0000000   0.0574578   0.0000000), wk =   0.0109739
        k(   12) = (   0.0000000   0.0574578   0.0267958), wk =   0.0219479
        k(   13) = (   0.0000000   0.0574578   0.0535916), wk =   0.0219479
        k(   14) = (   0.0000000   0.0574578   0.0803873), wk =   0.0219479
        k(   15) = (   0.0000000   0.0574578   0.1071831), wk =   0.0219479
        k(   16) = (   0.0000000   0.0861867   0.0000000), wk =   0.0109739
        k(   17) = (   0.0000000   0.0861867   0.0267958), wk =   0.0219479
        k(   18) = (   0.0000000   0.0861867   0.0535916), wk =   0.0219479
        k(   19) = (   0.0000000   0.0861867   0.0803873), wk =   0.0219479
        k(   20) = (   0.0000000   0.0861867   0.1071831), wk =   0.0219479
        k(   21) = (   0.0000000   0.1149156   0.0000000), wk =   0.0109739
        k(   22) = (   0.0000000   0.1149156   0.0267958), wk =   0.0219479
        k(   23) = (   0.0000000   0.1149156   0.0535916), wk =   0.0219479
        k(   24) = (   0.0000000   0.1149156   0.0803873), wk =   0.0219479
        k(   25) = (   0.0000000   0.1149156   0.1071831), wk =   0.0219479
        k(   26) = (   0.0287289   0.0287289   0.0000000), wk =   0.0109739
        k(   27) = (   0.0287289   0.0287289   0.0267958), wk =   0.0219479
        k(   28) = (   0.0287289   0.0287289   0.0535916), wk =   0.0219479
        k(   29) = (   0.0287289   0.0287289   0.0803873), wk =   0.0219479
        k(   30) = (   0.0287289   0.0287289   0.1071831), wk =   0.0219479
        k(   31) = (   0.0287289   0.0574578   0.0000000), wk =   0.0219479
        k(   32) = (   0.0287289   0.0574578   0.0267958), wk =   0.0438957
        k(   33) = (   0.0287289   0.0574578   0.0535916), wk =   0.0438957
        k(   34) = (   0.0287289   0.0574578   0.0803873), wk =   0.0438957
        k(   35) = (   0.0287289   0.0574578   0.1071831), wk =   0.0438957
        k(   36) = (   0.0287289   0.0861867   0.0000000), wk =   0.0219479
        k(   37) = (   0.0287289   0.0861867   0.0267958), wk =   0.0438957
        k(   38) = (   0.0287289   0.0861867   0.0535916), wk =   0.0438957
        k(   39) = (   0.0287289   0.0861867   0.0803873), wk =   0.0438957
        k(   40) = (   0.0287289   0.0861867   0.1071831), wk =   0.0438957
        k(   41) = (   0.0287289   0.1149156   0.0000000), wk =   0.0219479
        k(   42) = (   0.0287289   0.1149156   0.0267958), wk =   0.0438957
        k(   43) = (   0.0287289   0.1149156   0.0535916), wk =   0.0438957
        k(   44) = (   0.0287289   0.1149156   0.0803873), wk =   0.0438957
        k(   45) = (   0.0287289   0.1149156   0.1071831), wk =   0.0438957
        k(   46) = (   0.0574578   0.0574578   0.0000000), wk =   0.0109739
        k(   47) = (   0.0574578   0.0574578   0.0267958), wk =   0.0219479
        k(   48) = (   0.0574578   0.0574578   0.0535916), wk =   0.0219479
        k(   49) = (   0.0574578   0.0574578   0.0803873), wk =   0.0219479
        k(   50) = (   0.0574578   0.0574578   0.1071831), wk =   0.0219479
        k(   51) = (   0.0574578   0.0861867   0.0000000), wk =   0.0219479
        k(   52) = (   0.0574578   0.0861867   0.0267958), wk =   0.0438957
        k(   53) = (   0.0574578   0.0861867   0.0535916), wk =   0.0438957
        k(   54) = (   0.0574578   0.0861867   0.0803873), wk =   0.0438957
        k(   55) = (   0.0574578   0.0861867   0.1071831), wk =   0.0438957
        k(   56) = (   0.0574578   0.1149156   0.0000000), wk =   0.0219479
        k(   57) = (   0.0574578   0.1149156   0.0267958), wk =   0.0438957
        k(   58) = (   0.0574578   0.1149156   0.0535916), wk =   0.0438957
        k(   59) = (   0.0574578   0.1149156   0.0803873), wk =   0.0438957
        k(   60) = (   0.0574578   0.1149156   0.1071831), wk =   0.0438957
        k(   61) = (   0.0861867   0.0861867   0.0000000), wk =   0.0109739
        k(   62) = (   0.0861867   0.0861867   0.0267958), wk =   0.0219479
        k(   63) = (   0.0861867   0.0861867   0.0535916), wk =   0.0219479
        k(   64) = (   0.0861867   0.0861867   0.0803873), wk =   0.0219479
        k(   65) = (   0.0861867   0.0861867   0.1071831), wk =   0.0219479
        k(   66) = (   0.0861867   0.1149156   0.0000000), wk =   0.0219479
        k(   67) = (   0.0861867   0.1149156   0.0267958), wk =   0.0438957
        k(   68) = (   0.0861867   0.1149156   0.0535916), wk =   0.0438957
        k(   69) = (   0.0861867   0.1149156   0.0803873), wk =   0.0438957
        k(   70) = (   0.0861867   0.1149156   0.1071831), wk =   0.0438957
        k(   71) = (   0.1149156   0.1149156   0.0000000), wk =   0.0109739
        k(   72) = (   0.1149156   0.1149156   0.0267958), wk =   0.0219479
        k(   73) = (   0.1149156   0.1149156   0.0535916), wk =   0.0219479
        k(   74) = (   0.1149156   0.1149156   0.0803873), wk =   0.0219479
        k(   75) = (   0.1149156   0.1149156   0.1071831), wk =   0.0219479

     Largest allocated arrays     est. size (Mb)     dimensions
     Largest temporary arrays     est. size (Mb)     dimensions

     Initial potential from superposition of free atoms
     Check: negative starting charge=   -0.367475

     starting charge   58.99785, renormalised to   60.00000

     negative rho (up, down):  3.737E-01 0.000E+00

     *
     * You are using vdW-DF for exchange-correlation in this calculation.
     * Please cite the following three references that made this development
     * possible:
     *
     *   M. Dion, H. Rydberg, E. Schroder, D. C. Langreth, and
     *   B. I. Lundqvist, Phys. Rev. Lett. 92, 246401 (2004).
     *
     *   T. Thonhauser, V. R. Cooper, S. Li, A. Puzder, P. Hyldgaard, and
     *   D. C. Langreth, Phys. Rev. B 76, 125112 (2007).
     *
     *   G. Roman-Perez and J. M. Soler, Phys. Rev. Lett. 103, 096102 (2009).
     *
     *
     * If you are using vdW-DF2, please also cite:
     *
     *   K. Lee, E. D. Murray, L. Kong, B. I. Lundqvist, and
     *   D. C. Langreth, Phys. Rev. B 82, 081101(R) (2010).
     *
     *
     * If you are calculating the stress with vdW-DF, please also cite:
     *
     *   R. Sabatini, E. Kucukbenli, B. Kolb, T. Thonhauser, and
     *   S. de Gironcoli, J. Phys.: Condens. Matter 24, 424209 (2012).
     *

     Carrying out vdW-DF run using the following parameters:

     Nqs =      20    Nr_points =    1024   r_max =   100.000
     q_mesh =
               0.00001000     0.04494208     0.09755937     0.15916263
               0.23128650     0.31572767     0.41458969     0.53033537
               0.66584808     0.82450364     1.01025438     1.22772762
               1.48234092     1.78043706     2.12944203     2.53805004
               3.01644009     3.57652955     4.23227104     5.00000000

     Gradients computed in reciprocal space

     Starting wfc are   50 randomized atomic wfcs

     Self-consistent Calculation

     iteration #  1     ecut=    58.80 Ry     beta=0.10
     Davidson diagonalization with overlap
     ethr =  1.00E-02,  avg # of iterations =  4.7

[...]

     total energy              =    -704.47379328 Ry
     Harris-Foulkes estimate   =    -705.66758032 Ry
     estimated scf accuracy    <       6.88146913 Ry

[...]

     total energy              =    -704.84642642 Ry
     Harris-Foulkes estimate   =    -704.84642386 Ry
     estimated scf accuracy    <       0.00000174 Ry

     iteration # 10     ecut=    58.80 Ry     beta=0.10
     Davidson diagonalization with overlap
     ethr =  2.90E-09,  avg # of iterations =  1.9

     negative rho (up, down):  3.542E-01 0.000E+00

     End of self-consistent calculation

          k = 0.0000 0.0000 0.0000 (  3139 PWs)   bands (ev):

   -39.9967 -39.7846 -32.0414 -32.0414 -31.9621 -31.9057 -31.7900 -31.7900
   -14.2864 -14.2864 -14.0346 -13.8369 -13.5015 -13.5015  12.5801  14.8106
    15.0992  15.2277  15.2994  15.4705  15.4705  18.5132  18.5132  18.7687
    20.3132  20.7048  21.8109  21.8404  23.2681  23.3145  23.3145  24.0133
    24.1138  24.1138  24.5125  24.5231  24.5231  26.1339  31.1794  31.2524
    31.9316  33.5945  33.5945  33.8872  34.0028  34.0028  35.2146  35.2883
    39.0101  41.0016

[...]

          k = 0.1149 0.1149 0.1072 (  3189 PWs)   bands (ev):

   -39.8921 -39.8857 -32.0703 -32.0629 -31.9357 -31.9342 -31.7752 -31.7675
   -14.4012 -14.3787 -13.9454 -13.9388 -13.4477 -13.4226  14.7341  14.8165
    15.3207  15.3238  17.2598  17.3090  18.1354  18.3142  18.7009  18.7877
    19.3543  19.5027  20.6642  21.1992  21.3258  21.7222  22.1845  22.6519
    23.0122  23.7294  23.9003  24.0548  24.4051  24.5239  28.2853  28.5793
    31.5943  31.7671  34.6760  34.7231  35.0278  35.1351  39.4359  39.7060
    39.8565  40.1322

     the Fermi energy is    21.6660 ev

!    total energy              =    -704.84643802 Ry
     Harris-Foulkes estimate   =    -704.84642661 Ry
     estimated scf accuracy    <       0.00000078 Ry

     The total energy is the sum of the following terms:

     one-electron contribution =     -82.35923011 Ry
     hartree contribution      =      87.69216626 Ry
     xc contribution           =    -157.47400435 Ry
     ewald contribution        =    -552.69643081 Ry
     smearing contrib. (-TS)   =      -0.00893901 Ry

     convergence has been achieved in  10 iterations

     Forces acting on atoms (Ry/au):

     negative rho (up, down):  3.542E-01 0.000E+00
     atom    1 type  1   force =     0.00000000    0.00000000    0.00000000
     atom    2 type  1   force =     0.00000000    0.00000000    0.00000000
     atom    3 type  2   force =     0.00000000    0.00000000    0.00000000
     atom    4 type  2   force =     0.00000000    0.00000000    0.00000000

     Total force =     0.000000     Total SCF correction =     0.000000

     General routines

     Parallel routines

   This run was terminated on:  15:39:31  14Nov2017

   JOB DONE.