     Program PWSCF v.5.1rc2 starts on 14Nov2017 at  8:59:56

     Current dimensions of program PWSCF are:
     Max number of different atomic species (ntypx) = 10
     Max number of k-points (npk) =  40000
     Max angular momentum in pseudopotentials (lmaxx) =  3

     IMPORTANT: XC functional enforced from input :
     Exchange-correlation      = BEEF-VDW ( 1  4 27 13 2)
     Any further DFT definition will be discarded
     Please, verify this is what you really want

     Found symmetry operation: I + ( -0.5000 -0.5000  0.0000)
     This is a supercell, fractional translations are disabled

     bravais-lattice index     =            0
     lattice parameter (alat)  =       1.8897  a.u.
     unit-cell volume          =     359.2567 (a.u.)^3
     number of atoms/cell      =            4
     number of atomic types    =            2
     number of electrons       =        70.00
     number of Kohn-Sham states=           55
     kinetic-energy cutoff     =      58.7989  Ry
     charge density cutoff     =     587.9892  Ry
     convergence threshold     =      1.0E-06
     mixing beta               =       0.1000
     number of iterations used =           10  plain     mixing
     Exchange-correlation      = BEEF-VDW ( 1  4 27 13 2)

     celldm(1)=   1.889726  celldm(2)=   0.000000  celldm(3)=   0.000000
     celldm(4)=   0.000000  celldm(5)=   0.000000  celldm(6)=   0.000000

     crystal axes: (cart. coord. in units of alat)
               a(1) = (   3.634933   0.000000   0.000000 )
               a(2) = (   0.000000   3.634933   0.000000 )
               a(3) = (   0.000000   0.000000   4.029169 )

     reciprocal axes: (cart. coord. in units 2 pi/alat)
               b(1) = (  0.275108  0.000000  0.000000 )
               b(2) = (  0.000000  0.275108  0.000000 )
               b(3) = (  0.000000  0.000000  0.248190 )

     PseudoPot. # 1 for Cu read from file:
     /home/users/vossj/suncat/psp/gbrv1.5pbe/Cu.UPF
     MD5 check sum: 6e991ff952a84172a2a52a1c1e996048
     Pseudo is Ultrasoft + core correction, Zval = 19.0
     Generated by new atomic code, or converted to UPF format
     Using radial grid of  867 points,  6 beta functions with:
                l(1) =   0
                l(2) =   0
                l(3) =   1
                l(4) =   1
                l(5) =   2
                l(6) =   2
     Q(r) pseudized with  8 coefficients,  rinner =    1.150   1.150   1.150
                                                       1.150   1.150

     PseudoPot. # 2 for Ru read from file:
     /home/users/vossj/suncat/psp/gbrv1.5pbe/Ru.UPF
     MD5 check sum: 7158a806dd851261a58e6920c40ebe78
     Pseudo is Ultrasoft + core correction, Zval = 16.0
     Generated by new atomic code, or converted to UPF format
     Using radial grid of  967 points,  6 beta functions with:
                l(1) =   0
                l(2) =   0
                l(3) =   1
                l(4) =   1
                l(5) =   2
                l(6) =   2
     Q(r) pseudized with  8 coefficients,  rinner =    1.300   1.300   1.300
                                                       1.300   1.300

     vdW kernel table read from file vdW_kernel_table
     MD5 check sum: 095c7af220d748ca6e76c0b4c6cfb241

     atomic species   valence    mass     pseudopotential
        Cu1           19.00    63.54600     Cu( 1.00)
        Ru1           16.00   101.07000     Ru( 1.00)

     16 Sym. Ops., with inversion, found

   Cartesian axes

     site n.     atom                  positions (alat units)
         1           Cu1 tau(   1) = (   0.0000000   0.0000000   0.0000000  )
         2           Cu1 tau(   2) = (   1.8174665   1.8174665   0.0000000  )
         3           Ru1 tau(   3) = (   1.8174665   0.0000000   2.0145845  )
         4           Ru1 tau(   4) = (   0.0000000   1.8174665   2.0145845  )

     number of k points=    75  Fermi-Dirac smearing, width (Ry)=  0.0073
                       cart. coord. in units 2pi/alat
        k(    1) = (   0.0000000   0.0000000   0.0000000), wk =   0.0027435
        k(    2) = (   0.0000000   0.0000000   0.0275767), wk =   0.0054870
        k(    3) = (   0.0000000   0.0000000   0.0551534), wk =   0.0054870
        k(    4) = (   0.0000000   0.0000000   0.0827300), wk =   0.0054870
        k(    5) = (   0.0000000   0.0000000   0.1103067), wk =   0.0054870
        k(    6) = (   0.0000000   0.0305676   0.0000000), wk =   0.0109739
        k(    7) = (   0.0000000   0.0305676   0.0275767), wk =   0.0219479
        k(    8) = (   0.0000000   0.0305676   0.0551534), wk =   0.0219479
        k(    9) = (   0.0000000   0.0305676   0.0827300), wk =   0.0219479
        k(   10) = (   0.0000000   0.0305676   0.1103067), wk =   0.0219479
        k(   11) = (   0.0000000   0.0611352   0.0000000), wk =   0.0109739
        k(   12) = (   0.0000000   0.0611352   0.0275767), wk =   0.0219479
        k(   13) = (   0.0000000   0.0611352   0.0551534), wk =   0.0219479
        k(   14) = (   0.0000000   0.0611352   0.0827300), wk =   0.0219479
        k(   15) = (   0.0000000   0.0611352   0.1103067), wk =   0.0219479
        k(   16) = (   0.0000000   0.0917027   0.0000000), wk =   0.0109739
        k(   17) = (   0.0000000   0.0917027   0.0275767), wk =   0.0219479
        k(   18) = (   0.0000000   0.0917027   0.0551534), wk =   0.0219479
        k(   19) = (   0.0000000   0.0917027   0.0827300), wk =   0.0219479
        k(   20) = (   0.0000000   0.0917027   0.1103067), wk =   0.0219479
        k(   21) = (   0.0000000   0.1222703   0.0000000), wk =   0.0109739
        k(   22) = (   0.0000000   0.1222703   0.0275767), wk =   0.0219479
        k(   23) = (   0.0000000   0.1222703   0.0551534), wk =   0.0219479
        k(   24) = (   0.0000000   0.1222703   0.0827300), wk =   0.0219479
        k(   25) = (   0.0000000   0.1222703   0.1103067), wk =   0.0219479
        k(   26) = (   0.0305676   0.0305676   0.0000000), wk =   0.0109739
        k(   27) = (   0.0305676   0.0305676   0.0275767), wk =   0.0219479
        k(   28) = (   0.0305676   0.0305676   0.0551534), wk =   0.0219479
        k(   29) = (   0.0305676   0.0305676   0.0827300), wk =   0.0219479
        k(   30) = (   0.0305676   0.0305676   0.1103067), wk =   0.0219479
        k(   31) = (   0.0305676   0.0611352   0.0000000), wk =   0.0219479
        k(   32) = (   0.0305676   0.0611352   0.0275767), wk =   0.0438957
        k(   33) = (   0.0305676   0.0611352   0.0551534), wk =   0.0438957
        k(   34) = (   0.0305676   0.0611352   0.0827300), wk =   0.0438957
        k(   35) = (   0.0305676   0.0611352   0.1103067), wk =   0.0438957
        k(   36) = (   0.0305676   0.0917027   0.0000000), wk =   0.0219479
        k(   37) = (   0.0305676   0.0917027   0.0275767), wk =   0.0438957
        k(   38) = (   0.0305676   0.0917027   0.0551534), wk =   0.0438957
        k(   39) = (   0.0305676   0.0917027   0.0827300), wk =   0.0438957
        k(   40) = (   0.0305676   0.0917027   0.1103067), wk =   0.0438957
        k(   41) = (   0.0305676   0.1222703   0.0000000), wk =   0.0219479
        k(   42) = (   0.0305676   0.1222703   0.0275767), wk =   0.0438957
        k(   43) = (   0.0305676   0.1222703   0.0551534), wk =   0.0438957
        k(   44) = (   0.0305676   0.1222703   0.0827300), wk =   0.0438957
        k(   45) = (   0.0305676   0.1222703   0.1103067), wk =   0.0438957
        k(   46) = (   0.0611352   0.0611352   0.0000000), wk =   0.0109739
        k(   47) = (   0.0611352   0.0611352   0.0275767), wk =   0.0219479
        k(   48) = (   0.0611352   0.0611352   0.0551534), wk =   0.0219479
        k(   49) = (   0.0611352   0.0611352   0.0827300), wk =   0.0219479
        k(   50) = (   0.0611352   0.0611352   0.1103067), wk =   0.0219479
        k(   51) = (   0.0611352   0.0917027   0.0000000), wk =   0.0219479
        k(   52) = (   0.0611352   0.0917027   0.0275767), wk =   0.0438957
        k(   53) = (   0.0611352   0.0917027   0.0551534), wk =   0.0438957
        k(   54) = (   0.0611352   0.0917027   0.0827300), wk =   0.0438957
        k(   55) = (   0.0611352   0.0917027   0.1103067), wk =   0.0438957
        k(   56) = (   0.0611352   0.1222703   0.0000000), wk =   0.0219479
        k(   57) = (   0.0611352   0.1222703   0.0275767), wk =   0.0438957
        k(   58) = (   0.0611352   0.1222703   0.0551534), wk =   0.0438957
        k(   59) = (   0.0611352   0.1222703   0.0827300), wk =   0.0438957
        k(   60) = (   0.0611352   0.1222703   0.1103067), wk =   0.0438957
        k(   61) = (   0.0917027   0.0917027   0.0000000), wk =   0.0109739
        k(   62) = (   0.0917027   0.0917027   0.0275767), wk =   0.0219479
        k(   63) = (   0.0917027   0.0917027   0.0551534), wk =   0.0219479
        k(   64) = (   0.0917027   0.0917027   0.0827300), wk =   0.0219479
        k(   65) = (   0.0917027   0.0917027   0.1103067), wk =   0.0219479
        k(   66) = (   0.0917027   0.1222703   0.0000000), wk =   0.0219479
        k(   67) = (   0.0917027   0.1222703   0.0275767), wk =   0.0438957
        k(   68) = (   0.0917027   0.1222703   0.0551534), wk =   0.0438957
        k(   69) = (   0.0917027   0.1222703   0.0827300), wk =   0.0438957
        k(   70) = (   0.0917027   0.1222703   0.1103067), wk =   0.0438957
        k(   71) = (   0.1222703   0.1222703   0.0000000), wk =   0.0109739
        k(   72) = (   0.1222703   0.1222703   0.0275767), wk =   0.0219479
        k(   73) = (   0.1222703   0.1222703   0.0551534), wk =   0.0219479
        k(   74) = (   0.1222703   0.1222703   0.0827300), wk =   0.0219479
        k(   75) = (   0.1222703   0.1222703   0.1103067), wk =   0.0219479

     Largest allocated arrays     est. size (Mb)     dimensions
     Largest temporary arrays     est. size (Mb)     dimensions

     Initial potential from superposition of free atoms
     Check: negative starting charge=   -0.150944

     starting charge   65.99996, renormalised to   70.00000

     negative rho (up, down):  1.601E-01 0.000E+00

     *
     * You are using vdW-DF for exchange-correlation in this calculation.
     * Please cite the following three references that made this development
     * possible:
     *
     *   M. Dion, H. Rydberg, E. Schroder, D. C. Langreth, and
     *   B. I. Lundqvist, Phys. Rev. Lett. 92, 246401 (2004).
     *
     *   T. Thonhauser, V. R. Cooper, S. Li, A. Puzder, P. Hyldgaard, and
     *   D. C. Langreth, Phys. Rev. B 76, 125112 (2007).
     *
     *   G. Roman-Perez and J. M. Soler, Phys. Rev. Lett. 103, 096102 (2009).
     *
     *
     * If you are using vdW-DF2, please also cite:
     *
     *   K. Lee, E. D. Murray, L. Kong, B. I. Lundqvist, and
     *   D. C. Langreth, Phys. Rev. B 82, 081101(R) (2010).
     *
     *
     * If you are calculating the stress with vdW-DF, please also cite:
     *
     *   R. Sabatini, E. Kucukbenli, B. Kolb, T. Thonhauser, and
     *   S. de Gironcoli, J. Phys.: Condens. Matter 24, 424209 (2012).
     *

     Carrying out vdW-DF run using the following parameters:

     Nqs =      20    Nr_points =    1024   r_max =   100.000
     q_mesh =
               0.00001000     0.04494208     0.09755937     0.15916263
               0.23128650     0.31572767     0.41458969     0.53033537
               0.66584808     0.82450364     1.01025438     1.22772762
               1.48234092     1.78043706     2.12944203     2.53805004
               3.01644009     3.57652955     4.23227104     5.00000000

     Gradients computed in reciprocal space

     Starting wfc are   52 randomized atomic wfcs +    3 random wfc

     Self-consistent Calculation

     iteration #  1     ecut=    58.80 Ry     beta=0.10
     Davidson diagonalization with overlap
     ethr =  1.00E-02,  avg # of iterations =  4.4

[...]

     total energy              =   -1197.60241996 Ry
     Harris-Foulkes estimate   =   -1203.89011752 Ry
     estimated scf accuracy    <      35.24972314 Ry

[...]

     total energy              =   -1200.12152770 Ry
     Harris-Foulkes estimate   =   -1200.12153061 Ry
     estimated scf accuracy    <       0.00001159 Ry

     iteration # 21     ecut=    58.80 Ry     beta=0.10
     Davidson diagonalization with overlap
     ethr =  1.66E-08,  avg # of iterations =  2.0

     negative rho (up, down):  1.543E-01 0.000E+00

     End of self-consistent calculation

          k = 0.0000 0.0000 0.0000 (  2727 PWs)   bands (ev):

   -94.0488 -94.0404 -54.2098 -54.0182 -51.4503 -51.4503 -51.4410 -51.4317
   -51.4029 -51.4029 -24.4817 -24.4817 -24.0796 -23.9000 -23.7699 -23.7699
    10.4475  12.7470  13.4251  13.7582  14.0022  14.0022  14.0313  15.4053
    15.9709  15.9709  16.6163  16.6471  17.0995  17.1032  18.1104  18.1104
    19.1972  19.3463  19.3463  19.9162  20.1825  21.8009  21.8009  21.8470
    27.2080  28.3965  28.4309  29.8589  31.9871  31.9871  32.8506  32.8506
    33.7867  36.7814  38.5471  38.7870  38.7870  39.2237  40.0852

[...]

          k = 0.1223 0.1223 0.1103 (  2731 PWs)   bands (ev):

   -94.0447 -94.0444 -54.1156 -54.1098 -51.4551 -51.4536 -51.4365 -51.4362
   -51.4004 -51.3989 -24.5826 -24.5620 -23.9948 -23.9893 -23.7222 -23.6998
    12.9642  12.9916  13.9101  13.9834  15.3924  15.4309  15.6016  15.6913
    15.8849  15.9515  16.0236  16.0705  17.0354  17.2371  17.7833  17.9363
    18.1284  18.3549  19.0772  19.4257  19.4437  19.7070  19.9279  19.9761
    24.5313  24.7649  26.9849  27.2704  34.2995  34.3537  35.9194  36.1663
    37.9007  38.1020  38.4564  38.7900  40.5256  41.3095  41.6137

     the Fermi energy is    18.8176 ev

!    total energy              =   -1200.12153160 Ry
     Harris-Foulkes estimate   =   -1200.12152951 Ry
     estimated scf accuracy    <       0.00000022 Ry

     The total energy is the sum of the following terms:

     one-electron contribution =    -641.22376260 Ry
     hartree contribution      =     367.35948096 Ry
     xc contribution           =    -133.83630815 Ry
     ewald contribution        =    -792.40689940 Ry
     smearing contrib. (-TS)   =      -0.01404241 Ry

     convergence has been achieved in  21 iterations

     Forces acting on atoms (Ry/au):

     negative rho (up, down):  1.543E-01 0.000E+00
     atom    1 type  1   force =     0.00000000    0.00000000    0.00000000
     atom    2 type  1   force =     0.00000000    0.00000000    0.00000000
     atom    3 type  2   force =     0.00000000    0.00000000    0.00000000
     atom    4 type  2   force =     0.00000000    0.00000000    0.00000000

     Total force =     0.000000     Total SCF correction =     0.000000

     General routines

     Parallel routines

   This run was terminated on:   9: 0:52  14Nov2017

   JOB DONE.