     Program PWSCF v.5.1rc2 starts on 14Nov2017 at 13:14:16

     Current dimensions of program PWSCF are:
     Max number of different atomic species (ntypx) = 10
     Max number of k-points (npk) =  40000
     Max angular momentum in pseudopotentials (lmaxx) =  3

     IMPORTANT: XC functional enforced from input :
     Exchange-correlation      = BEEF-VDW ( 1  4 27 13 2)
     Any further DFT definition will be discarded
     Please, verify this is what you really want

     Found symmetry operation: I + ( -0.5000 -0.5000  0.0000)
     This is a supercell, fractional translations are disabled

     bravais-lattice index     =            0
     lattice parameter (alat)  =       1.8897  a.u.
     unit-cell volume          =     482.6515 (a.u.)^3
     number of atoms/cell      =            4
     number of atomic types    =            2
     number of electrons       =        54.00
     number of Kohn-Sham states=           47
     kinetic-energy cutoff     =      58.7989  Ry
     charge density cutoff     =     587.9892  Ry
     convergence threshold     =      1.0E-06
     mixing beta               =       0.1000
     number of iterations used =           10  plain     mixing
     Exchange-correlation      = BEEF-VDW ( 1  4 27 13 2)

     celldm(1)=   1.889726  celldm(2)=   0.000000  celldm(3)=   0.000000
     celldm(4)=   0.000000  celldm(5)=   0.000000  celldm(6)=   0.000000

     crystal axes: (cart. coord. in units of alat)
               a(1) = (   4.221523   0.000000   0.000000 )
               a(2) = (   0.000000   4.221523   0.000000 )
               a(3) = (   0.000000   0.000000   4.013273 )

     reciprocal axes: (cart. coord. in units 2 pi/alat)
               b(1) = (  0.236881  0.000000  0.000000 )
               b(2) = (  0.000000  0.236881  0.000000 )
               b(3) = (  0.000000  0.000000  0.249173 )

     PseudoPot. # 1 for Ir read from file:
     /home/users/vossj/suncat/psp/gbrv1.5pbe/Ir.UPF
     MD5 check sum: 8836f839c3459d2b385c504ce6d91f2c
     Pseudo is Ultrasoft + core correction, Zval = 15.0
     Generated by new atomic code, or converted to UPF format
     Using radial grid of  983 points,  7 beta functions with:
                l(1) =   0
                l(2) =   0
                l(3) =   1
                l(4) =   1
                l(5) =   1
                l(6) =   2
                l(7) =   2
     Q(r) pseudized with  8 coefficients,  rinner =    1.400   1.400   1.400
                                                       1.400   1.400

     PseudoPot. # 2 for Hg read from file:
     /home/users/vossj/suncat/psp/gbrv1.5pbe/Hg.UPF
     MD5 check sum: 8f42caffe07f7fd9c0a564347f8c5498
     Pseudo is Ultrasoft + core correction, Zval = 12.0
     Generated by new atomic code, or converted to UPF format
     Using radial grid of  985 points,  6 beta functions with:
                l(1) =   0
                l(2) =   0
                l(3) =   1
                l(4) =   1
                l(5) =   2
                l(6) =   2
     Q(r) pseudized with  8 coefficients,  rinner =    2.000   2.000   2.000
                                                       2.000   2.000

     vdW kernel table read from file vdW_kernel_table
     MD5 check sum: 095c7af220d748ca6e76c0b4c6cfb241

     atomic species   valence    mass     pseudopotential
        Ir1           15.00   192.22000     Ir( 1.00)
        Hg1           12.00   200.59000     Hg( 1.00)

     16 Sym. Ops., with inversion, found

   Cartesian axes

     site n.     atom                  positions (alat units)
         1           Ir1 tau(   1) = (   0.0000000   0.0000000   0.0000000  )
         2           Ir1 tau(   2) = (   2.1107617   2.1107617   0.0000000  )
         3           Hg1 tau(   3) = (   2.1107617   0.0000000   2.0066364  )
         4           Hg1 tau(   4) = (   0.0000000   2.1107617   2.0066364  )

     number of k points=    75  Fermi-Dirac smearing, width (Ry)=  0.0073
                       cart. coord. in units 2pi/alat
        k(    1) = (   0.0000000   0.0000000   0.0000000), wk =   0.0027435
        k(    2) = (   0.0000000   0.0000000   0.0276859), wk =   0.0054870
        k(    3) = (   0.0000000   0.0000000   0.0553718), wk =   0.0054870
        k(    4) = (   0.0000000   0.0000000   0.0830577), wk =   0.0054870
        k(    5) = (   0.0000000   0.0000000   0.1107436), wk =   0.0054870
        k(    6) = (   0.0000000   0.0263201   0.0000000), wk =   0.0109739
        k(    7) = (   0.0000000   0.0263201   0.0276859), wk =   0.0219479
        k(    8) = (   0.0000000   0.0263201   0.0553718), wk =   0.0219479
        k(    9) = (   0.0000000   0.0263201   0.0830577), wk =   0.0219479
        k(   10) = (   0.0000000   0.0263201   0.1107436), wk =   0.0219479
        k(   11) = (   0.0000000   0.0526403   0.0000000), wk =   0.0109739
        k(   12) = (   0.0000000   0.0526403   0.0276859), wk =   0.0219479
        k(   13) = (   0.0000000   0.0526403   0.0553718), wk =   0.0219479
        k(   14) = (   0.0000000   0.0526403   0.0830577), wk =   0.0219479
        k(   15) = (   0.0000000   0.0526403   0.1107436), wk =   0.0219479
        k(   16) = (   0.0000000   0.0789604   0.0000000), wk =   0.0109739
        k(   17) = (   0.0000000   0.0789604   0.0276859), wk =   0.0219479
        k(   18) = (   0.0000000   0.0789604   0.0553718), wk =   0.0219479
        k(   19) = (   0.0000000   0.0789604   0.0830577), wk =   0.0219479
        k(   20) = (   0.0000000   0.0789604   0.1107436), wk =   0.0219479
        k(   21) = (   0.0000000   0.1052806   0.0000000), wk =   0.0109739
        k(   22) = (   0.0000000   0.1052806   0.0276859), wk =   0.0219479
        k(   23) = (   0.0000000   0.1052806   0.0553718), wk =   0.0219479
        k(   24) = (   0.0000000   0.1052806   0.0830577), wk =   0.0219479
        k(   25) = (   0.0000000   0.1052806   0.1107436), wk =   0.0219479
        k(   26) = (   0.0263201   0.0263201   0.0000000), wk =   0.0109739
        k(   27) = (   0.0263201   0.0263201   0.0276859), wk =   0.0219479
        k(   28) = (   0.0263201   0.0263201   0.0553718), wk =   0.0219479
        k(   29) = (   0.0263201   0.0263201   0.0830577), wk =   0.0219479
        k(   30) = (   0.0263201   0.0263201   0.1107436), wk =   0.0219479
        k(   31) = (   0.0263201   0.0526403   0.0000000), wk =   0.0219479
        k(   32) = (   0.0263201   0.0526403   0.0276859), wk =   0.0438957
        k(   33) = (   0.0263201   0.0526403   0.0553718), wk =   0.0438957
        k(   34) = (   0.0263201   0.0526403   0.0830577), wk =   0.0438957
        k(   35) = (   0.0263201   0.0526403   0.1107436), wk =   0.0438957
        k(   36) = (   0.0263201   0.0789604   0.0000000), wk =   0.0219479
        k(   37) = (   0.0263201   0.0789604   0.0276859), wk =   0.0438957
        k(   38) = (   0.0263201   0.0789604   0.0553718), wk =   0.0438957
        k(   39) = (   0.0263201   0.0789604   0.0830577), wk =   0.0438957
        k(   40) = (   0.0263201   0.0789604   0.1107436), wk =   0.0438957
        k(   41) = (   0.0263201   0.1052806   0.0000000), wk =   0.0219479
        k(   42) = (   0.0263201   0.1052806   0.0276859), wk =   0.0438957
        k(   43) = (   0.0263201   0.1052806   0.0553718), wk =   0.0438957
        k(   44) = (   0.0263201   0.1052806   0.0830577), wk =   0.0438957
        k(   45) = (   0.0263201   0.1052806   0.1107436), wk =   0.0438957
        k(   46) = (   0.0526403   0.0526403   0.0000000), wk =   0.0109739
        k(   47) = (   0.0526403   0.0526403   0.0276859), wk =   0.0219479
        k(   48) = (   0.0526403   0.0526403   0.0553718), wk =   0.0219479
        k(   49) = (   0.0526403   0.0526403   0.0830577), wk =   0.0219479
        k(   50) = (   0.0526403   0.0526403   0.1107436), wk =   0.0219479
        k(   51) = (   0.0526403   0.0789604   0.0000000), wk =   0.0219479
        k(   52) = (   0.0526403   0.0789604   0.0276859), wk =   0.0438957
        k(   53) = (   0.0526403   0.0789604   0.0553718), wk =   0.0438957
        k(   54) = (   0.0526403   0.0789604   0.0830577), wk =   0.0438957
        k(   55) = (   0.0526403   0.0789604   0.1107436), wk =   0.0438957
        k(   56) = (   0.0526403   0.1052806   0.0000000), wk =   0.0219479
        k(   57) = (   0.0526403   0.1052806   0.0276859), wk =   0.0438957
        k(   58) = (   0.0526403   0.1052806   0.0553718), wk =   0.0438957
        k(   59) = (   0.0526403   0.1052806   0.0830577), wk =   0.0438957
        k(   60) = (   0.0526403   0.1052806   0.1107436), wk =   0.0438957
        k(   61) = (   0.0789604   0.0789604   0.0000000), wk =   0.0109739
        k(   62) = (   0.0789604   0.0789604   0.0276859), wk =   0.0219479
        k(   63) = (   0.0789604   0.0789604   0.0553718), wk =   0.0219479
        k(   64) = (   0.0789604   0.0789604   0.0830577), wk =   0.0219479
        k(   65) = (   0.0789604   0.0789604   0.1107436), wk =   0.0219479
        k(   66) = (   0.0789604   0.1052806   0.0000000), wk =   0.0219479
        k(   67) = (   0.0789604   0.1052806   0.0276859), wk =   0.0438957
        k(   68) = (   0.0789604   0.1052806   0.0553718), wk =   0.0438957
        k(   69) = (   0.0789604   0.1052806   0.0830577), wk =   0.0438957
        k(   70) = (   0.0789604   0.1052806   0.1107436), wk =   0.0438957
        k(   71) = (   0.1052806   0.1052806   0.0000000), wk =   0.0109739
        k(   72) = (   0.1052806   0.1052806   0.0276859), wk =   0.0219479
        k(   73) = (   0.1052806   0.1052806   0.0553718), wk =   0.0219479
        k(   74) = (   0.1052806   0.1052806   0.0830577), wk =   0.0219479
        k(   75) = (   0.1052806   0.1052806   0.1107436), wk =   0.0219479

     Largest allocated arrays     est. size (Mb)     dimensions
     Largest temporary arrays     est. size (Mb)     dimensions

     Initial potential from superposition of free atoms
     Check: negative starting charge=   -0.729317

     starting charge   52.99982, renormalised to   54.00000

     negative rho (up, down):  7.431E-01 0.000E+00

     *
     * You are using vdW-DF for exchange-correlation in this calculation.
     * Please cite the following three references that made this development
     * possible:
     *
     *   M. Dion, H. Rydberg, E. Schroder, D. C. Langreth, and
     *   B. I. Lundqvist, Phys. Rev. Lett. 92, 246401 (2004).
     *
     *   T. Thonhauser, V. R. Cooper, S. Li, A. Puzder, P. Hyldgaard, and
     *   D. C. Langreth, Phys. Rev. B 76, 125112 (2007).
     *
     *   G. Roman-Perez and J. M. Soler, Phys. Rev. Lett. 103, 096102 (2009).
     *
     *
     * If you are using vdW-DF2, please also cite:
     *
     *   K. Lee, E. D. Murray, L. Kong, B. I. Lundqvist, and
     *   D. C. Langreth, Phys. Rev. B 82, 081101(R) (2010).
     *
     *
     * If you are calculating the stress with vdW-DF, please also cite:
     *
     *   R. Sabatini, E. Kucukbenli, B. Kolb, T. Thonhauser, and
     *   S. de Gironcoli, J. Phys.: Condens. Matter 24, 424209 (2012).
     *

     Carrying out vdW-DF run using the following parameters:

     Nqs =      20    Nr_points =    1024   r_max =   100.000
     q_mesh =
               0.00001000     0.04494208     0.09755937     0.15916263
               0.23128650     0.31572767     0.41458969     0.53033537
               0.66584808     0.82450364     1.01025438     1.22772762
               1.48234092     1.78043706     2.12944203     2.53805004
               3.01644009     3.57652955     4.23227104     5.00000000

     Gradients computed in reciprocal space

     Starting wfc are   42 randomized atomic wfcs +    5 random wfc

     Self-consistent Calculation

     iteration #  1     ecut=    58.80 Ry     beta=0.10
     Davidson diagonalization with overlap
     ethr =  1.00E-02,  avg # of iterations =  4.9

[...]

     total energy              =    -584.85310161 Ry
     Harris-Foulkes estimate   =    -584.95682035 Ry
     estimated scf accuracy    <       0.77498474 Ry

[...]

     total energy              =    -584.73963172 Ry
     Harris-Foulkes estimate   =    -584.73963021 Ry
     estimated scf accuracy    <       0.00000148 Ry

     iteration # 12     ecut=    58.80 Ry     beta=0.10
     Davidson diagonalization with overlap
     ethr =  2.73E-09,  avg # of iterations =  2.0

     negative rho (up, down):  6.692E-01 0.000E+00

     End of self-consistent calculation

          k = 0.0000 0.0000 0.0000 (  3687 PWs)   bands (ev):

   -31.6408 -31.6408 -31.5083 -31.5083 -31.4533 -31.4263   7.0771   8.2048
     8.3464   8.6338   8.8187   8.8187   9.2717   9.9726   9.9726  10.5246
    11.2352  13.5493  13.7193  14.5100  16.0779  16.0779  16.3893  16.7470
    16.7470  17.0924  17.4361  17.4361  18.1231  18.3828  21.1189  23.1813
    23.2722  25.8530  25.8530  25.9276  26.8916  26.8916  27.9691  28.7063
    28.7063  31.0366  32.9838  33.8113  34.2493  34.6382  34.6382

[...]

          k = 0.1053 0.1053 0.1107 (  3689 PWs)   bands (ev):

   -31.6546 -31.6506 -31.5007 -31.4967 -31.4433 -31.4425   8.4464   8.4484
     8.4988   8.5616   9.6541   9.7156   9.9863  10.0192  10.0256  10.0396
    12.4954  12.7486  13.9960  14.1286  15.1703  15.3262  15.4923  15.9851
    16.1719  16.7272  16.7512  16.8750  17.0247  17.2292  20.0205  20.1550
    20.8839  21.3270  28.7062  28.7063  30.2762  30.3307  30.5672  30.6472
    31.4243  31.7409  33.5464  33.6019  33.7356  34.0319  34.3166

     the Fermi energy is    16.7420 ev

!    total energy              =    -584.73964065 Ry
     Harris-Foulkes estimate   =    -584.73963192 Ry
     estimated scf accuracy    <       0.00000003 Ry

     The total energy is the sum of the following terms:

     one-electron contribution =     -44.81499598 Ry
     hartree contribution      =      73.94019567 Ry
     xc contribution           =    -185.08025535 Ry
     ewald contribution        =    -428.77284913 Ry
     smearing contrib. (-TS)   =      -0.01173586 Ry

     convergence has been achieved in  12 iterations

     Forces acting on atoms (Ry/au):

     negative rho (up, down):  6.692E-01 0.000E+00
     atom    1 type  1   force =     0.00000000    0.00000000    0.00000000
     atom    2 type  1   force =     0.00000000    0.00000000    0.00000000
     atom    3 type  2   force =     0.00000000    0.00000000    0.00000000
     atom    4 type  2   force =     0.00000000    0.00000000    0.00000000

     Total force =     0.000000     Total SCF correction =     0.000000

     General routines

     Parallel routines

   This run was terminated on:  13:14:59  14Nov2017

   JOB DONE.