     Program PWSCF v.5.1rc2 (svn rev. ) starts on 18Feb2018 at 17: 6:24

     Current dimensions of program PWSCF are:
     Max number of different atomic species (ntypx) = 10
     Max number of k-points (npk) =  40000
     Max angular momentum in pseudopotentials (lmaxx) =  3

     IMPORTANT: XC functional enforced from input :
     Exchange-correlation      = BEEF-VDW ( 1  4 27 13 2)
     Any further DFT definition will be discarded
     Please, verify this is what you really want

     Subspace diagonalization in iterative solution of the eigenvalue problem:
     a serial algorithm will be used

     Found symmetry operation: I + (  0.5000  0.5000  0.0000)
     This is a supercell, fractional translations are disabled

     bravais-lattice index     =            0
     lattice parameter (alat)  =       1.8897  a.u.
     unit-cell volume          =     526.9888 (a.u.)^3
     number of atoms/cell      =            4
     number of atomic types    =            2
     number of electrons       =        60.00
     number of Kohn-Sham states=           50
     kinetic-energy cutoff     =      58.7989  Ry
     charge density cutoff     =     587.9892  Ry
     convergence threshold     =      1.0E-06
     mixing beta               =       0.1000
     number of iterations used =           10  plain     mixing
     Exchange-correlation      = BEEF-VDW ( 1  4 27 13 2)

     celldm(1)=   1.889726  celldm(2)=   0.000000  celldm(3)=   0.000000
     celldm(4)=   0.000000  celldm(5)=   0.000000  celldm(6)=   0.000000

     crystal axes: (cart. coord. in units of alat)
               a(1) = (   4.798115   0.000000   0.000000 )
               a(2) = (   0.000000   4.798115   0.000000 )
               a(3) = (   0.000000   0.000000   3.392060 )

     reciprocal axes: (cart. coord. in units 2 pi/alat)
               b(1) = (  0.208415  0.000000  0.000000 )
               b(2) = (  0.000000  0.208415  0.000000 )
               b(3) = (  0.000000  0.000000  0.294806 )

     PseudoPot. # 1 for Tc read from file:
     /home/mamunm/src/pseudo/gbrv1.5pbe/Tc.UPF
     MD5 check sum: 9eb49e5b028550b2339a02317eb7b844
     Pseudo is Ultrasoft + core correction, Zval = 15.0
     Generated by new atomic code, or converted to UPF format
     Using radial grid of  965 points,  6 beta functions with:
                l(1) =   0
                l(2) =   0
                l(3) =   1
                l(4) =   1
                l(5) =   2
                l(6) =   2
     Q(r) pseudized with  8 coefficients,  rinner =    1.300   1.300   1.300
                                                       1.300   1.300

     PseudoPot. # 2 for Bi read from file:
     /home/mamunm/src/pseudo/gbrv1.5pbe/Bi.UPF
     MD5 check sum: 81103212dc04adf40945787f699eab19
     Pseudo is Ultrasoft + core correction, Zval = 15.0
     Generated by new atomic code, or converted to UPF format
     Using radial grid of  899 points,  6 beta functions with:
                l(1) =   0
                l(2) =   0
                l(3) =   1
                l(4) =   1
                l(5) =   2
                l(6) =   2
     Q(r) pseudized with  6 coefficients,  rinner =    1.000   1.000   1.000
                                                       1.000   1.000

     vdW kernel table read from file vdW_kernel_table
     MD5 check sum: 095c7af220d748ca6e76c0b4c6cfb241

     atomic species   valence    mass     pseudopotential
        Tc1           15.00    97.90721     Tc( 1.00)
        Bi1           15.00   208.98040     Bi( 1.00)

     16 Sym. Ops., with inversion, found

   Cartesian axes

     site n.     atom                  positions (alat units)
         1           Tc1 tau(   1) = (   0.0000000   0.0000000   0.0000000  )
         2           Tc1 tau(   2) = (   2.3990573   2.3990573   0.0000000  )
         3           Bi1 tau(   3) = (   2.3990573   0.0000000   1.6960302  )
         4           Bi1 tau(   4) = (   0.0000000   2.3990573   1.6960302  )

     number of k points=    75  Fermi-Dirac smearing, width (Ry)=  0.0073
                       cart. coord. in units 2pi/alat
        k(    1) = (   0.0000000   0.0000000   0.0000000), wk =   0.0027435
        k(    2) = (   0.0000000   0.0000000   0.0327562), wk =   0.0054870
        k(    3) = (   0.0000000   0.0000000   0.0655125), wk =   0.0054870
        k(    4) = (   0.0000000   0.0000000   0.0982687), wk =   0.0054870
        k(    5) = (   0.0000000   0.0000000   0.1310249), wk =   0.0054870
        k(    6) = (   0.0000000   0.0231572   0.0000000), wk =   0.0109739
        k(    7) = (   0.0000000   0.0231572   0.0327562), wk =   0.0219479
        k(    8) = (   0.0000000   0.0231572   0.0655125), wk =   0.0219479
        k(    9) = (   0.0000000   0.0231572   0.0982687), wk =   0.0219479
        k(   10) = (   0.0000000   0.0231572   0.1310249), wk =   0.0219479
        k(   11) = (   0.0000000   0.0463145   0.0000000), wk =   0.0109739
        k(   12) = (   0.0000000   0.0463145   0.0327562), wk =   0.0219479
        k(   13) = (   0.0000000   0.0463145   0.0655125), wk =   0.0219479
        k(   14) = (   0.0000000   0.0463145   0.0982687), wk =   0.0219479
        k(   15) = (   0.0000000   0.0463145   0.1310249), wk =   0.0219479
        k(   16) = (   0.0000000   0.0694717   0.0000000), wk =   0.0109739
        k(   17) = (   0.0000000   0.0694717   0.0327562), wk =   0.0219479
        k(   18) = (   0.0000000   0.0694717   0.0655125), wk =   0.0219479
        k(   19) = (   0.0000000   0.0694717   0.0982687), wk =   0.0219479
        k(   20) = (   0.0000000   0.0694717   0.1310249), wk =   0.0219479
        k(   21) = (   0.0000000   0.0926290   0.0000000), wk =   0.0109739
        k(   22) = (   0.0000000   0.0926290   0.0327562), wk =   0.0219479
        k(   23) = (   0.0000000   0.0926290   0.0655125), wk =   0.0219479
        k(   24) = (   0.0000000   0.0926290   0.0982687), wk =   0.0219479
        k(   25) = (   0.0000000   0.0926290   0.1310249), wk =   0.0219479
        k(   26) = (   0.0231572   0.0231572   0.0000000), wk =   0.0109739
        k(   27) = (   0.0231572   0.0231572   0.0327562), wk =   0.0219479
        k(   28) = (   0.0231572   0.0231572   0.0655125), wk =   0.0219479
        k(   29) = (   0.0231572   0.0231572   0.0982687), wk =   0.0219479
        k(   30) = (   0.0231572   0.0231572   0.1310249), wk =   0.0219479
        k(   31) = (   0.0231572   0.0463145   0.0000000), wk =   0.0219479
        k(   32) = (   0.0231572   0.0463145   0.0327562), wk =   0.0438957
        k(   33) = (   0.0231572   0.0463145   0.0655125), wk =   0.0438957
        k(   34) = (   0.0231572   0.0463145   0.0982687), wk =   0.0438957
        k(   35) = (   0.0231572   0.0463145   0.1310249), wk =   0.0438957
        k(   36) = (   0.0231572   0.0694717   0.0000000), wk =   0.0219479
        k(   37) = (   0.0231572   0.0694717   0.0327562), wk =   0.0438957
        k(   38) = (   0.0231572   0.0694717   0.0655125), wk =   0.0438957
        k(   39) = (   0.0231572   0.0694717   0.0982687), wk =   0.0438957
        k(   40) = (   0.0231572   0.0694717   0.1310249), wk =   0.0438957
        k(   41) = (   0.0231572   0.0926290   0.0000000), wk =   0.0219479
        k(   42) = (   0.0231572   0.0926290   0.0327562), wk =   0.0438957
        k(   43) = (   0.0231572   0.0926290   0.0655125), wk =   0.0438957
        k(   44) = (   0.0231572   0.0926290   0.0982687), wk =   0.0438957
        k(   45) = (   0.0231572   0.0926290   0.1310249), wk =   0.0438957
        k(   46) = (   0.0463145   0.0463145   0.0000000), wk =   0.0109739
        k(   47) = (   0.0463145   0.0463145   0.0327562), wk =   0.0219479
        k(   48) = (   0.0463145   0.0463145   0.0655125), wk =   0.0219479
        k(   49) = (   0.0463145   0.0463145   0.0982687), wk =   0.0219479
        k(   50) = (   0.0463145   0.0463145   0.1310249), wk =   0.0219479
        k(   51) = (   0.0463145   0.0694717   0.0000000), wk =   0.0219479
        k(   52) = (   0.0463145   0.0694717   0.0327562), wk =   0.0438957
        k(   53) = (   0.0463145   0.0694717   0.0655125), wk =   0.0438957
        k(   54) = (   0.0463145   0.0694717   0.0982687), wk =   0.0438957
        k(   55) = (   0.0463145   0.0694717   0.1310249), wk =   0.0438957
        k(   56) = (   0.0463145   0.0926290   0.0000000), wk =   0.0219479
        k(   57) = (   0.0463145   0.0926290   0.0327562), wk =   0.0438957
        k(   58) = (   0.0463145   0.0926290   0.0655125), wk =   0.0438957
        k(   59) = (   0.0463145   0.0926290   0.0982687), wk =   0.0438957
        k(   60) = (   0.0463145   0.0926290   0.1310249), wk =   0.0438957
        k(   61) = (   0.0694717   0.0694717   0.0000000), wk =   0.0109739
        k(   62) = (   0.0694717   0.0694717   0.0327562), wk =   0.0219479
        k(   63) = (   0.0694717   0.0694717   0.0655125), wk =   0.0219479
        k(   64) = (   0.0694717   0.0694717   0.0982687), wk =   0.0219479
        k(   65) = (   0.0694717   0.0694717   0.1310249), wk =   0.0219479
        k(   66) = (   0.0694717   0.0926290   0.0000000), wk =   0.0219479
        k(   67) = (   0.0694717   0.0926290   0.0327562), wk =   0.0438957
        k(   68) = (   0.0694717   0.0926290   0.0655125), wk =   0.0438957
        k(   69) = (   0.0694717   0.0926290   0.0982687), wk =   0.0438957
        k(   70) = (   0.0694717   0.0926290   0.1310249), wk =   0.0438957
        k(   71) = (   0.0926290   0.0926290   0.0000000), wk =   0.0109739
        k(   72) = (   0.0926290   0.0926290   0.0327562), wk =   0.0219479
        k(   73) = (   0.0926290   0.0926290   0.0655125), wk =   0.0219479
        k(   74) = (   0.0926290   0.0926290   0.0982687), wk =   0.0219479
        k(   75) = (   0.0926290   0.0926290   0.1310249), wk =   0.0219479

     Largest allocated arrays     est. size (Mb)     dimensions
     Largest temporary arrays     est. size (Mb)     dimensions

     Check: negative/imaginary core charge=   -0.000005    0.000000

     Initial potential from superposition of free atoms
     Check: negative starting charge=   -0.334025

     starting charge   55.99986, renormalised to   60.00000

     negative rho (up, down):  3.579E-01 0.000E+00

     *
     * You are using vdW-DF for exchange-correlation in this calculation.
     * Please cite the following three references that made this development
     * possible:
     *
     *   M. Dion, H. Rydberg, E. Schroder, D. C. Langreth, and
     *   B. I. Lundqvist, Phys. Rev. Lett. 92, 246401 (2004).
     *
     *   T. Thonhauser, V. R. Cooper, S. Li, A. Puzder, P. Hyldgaard, and
     *   D. C. Langreth, Phys. Rev. B 76, 125112 (2007).
     *
     *   G. Roman-Perez and J. M. Soler, Phys. Rev. Lett. 103, 096102 (2009).
     *
     *
     * If you are using vdW-DF2, please also cite:
     *
     *   K. Lee, E. D. Murray, L. Kong, B. I. Lundqvist, and
     *   D. C. Langreth, Phys. Rev. B 82, 081101(R) (2010).
     *
     *
     * If you are calculating the stress with vdW-DF, please also cite:
     *
     *   R. Sabatini, E. Kucukbenli, B. Kolb, T. Thonhauser, and
     *   S. de Gironcoli, J. Phys.: Condens. Matter 24, 424209 (2012).
     *

     Carrying out vdW-DF run using the following parameters:

     Nqs =      20    Nr_points =    1024   r_max =   100.000
     q_mesh =
               0.00001000     0.04494208     0.09755937     0.15916263
               0.23128650     0.31572767     0.41458969     0.53033537
               0.66584808     0.82450364     1.01025438     1.22772762
               1.48234092     1.78043706     2.12944203     2.53805004
               3.01644009     3.57652955     4.23227104     5.00000000

     Gradients computed in reciprocal space

     Starting wfc are   44 randomized atomic wfcs +    6 random wfc

     Self-consistent Calculation

     iteration #  1     ecut=    58.80 Ry     beta=0.10
     Davidson diagonalization with overlap
     ethr =  1.00E-02,  avg # of iterations =  5.3

[...]

     total energy              =    -725.49089257 Ry
     Harris-Foulkes estimate   =    -725.97332895 Ry
     estimated scf accuracy    <       3.15333898 Ry

[...]

     total energy              =    -724.82026353 Ry
     Harris-Foulkes estimate   =    -724.82025033 Ry
     estimated scf accuracy    <       0.00000119 Ry

     iteration # 13     ecut=    58.80 Ry     beta=0.10
     Davidson diagonalization with overlap
     ethr =  1.98E-09,  avg # of iterations =  1.6

     negative rho (up, down):  3.439E-01 0.000E+00

     End of self-consistent calculation

          k = 0.0000 0.0000 0.0000 (  4007 PWs)   bands (ev):

   -48.5406 -48.5319 -20.6383 -20.6383 -20.5687 -20.5687 -20.5665 -20.5528
    -5.3819  -5.3814  -5.3126  -5.2803  -5.2367  -5.2367  -5.1778  -5.1778
    -5.1775  -5.0777   4.3509   7.2416  13.8996  13.8996  15.5171  15.5195
    15.6860  17.2351  17.2351  18.0309  18.0335  18.0335  18.7609  18.9554
    19.3321  19.3321  19.3364  21.4268  22.4825  22.4989  27.2059  27.2059
    27.7984  27.7991  30.1193  31.1566  31.1703  31.1703  31.1730  33.9447
    33.9447  35.3655

[...]

          k = 0.0926 0.0926 0.1310 (  4019 PWs)   bands (ev):

   -48.5322 -48.5319 -20.6385 -20.6364 -20.6343 -20.6339 -20.5576 -20.5555
    -5.3095  -5.3078  -5.2824  -5.2750  -5.2373  -5.2361  -5.2349  -5.2335
    -5.0872  -5.0823   7.1664   7.2433  13.6911  13.6981  13.9329  13.9479
    15.8460  15.8869  17.1492  17.2535  17.2613  17.3269  18.6130  18.8734
    18.9465  18.9590  21.4959  21.5679  22.5528  22.6222  27.0344  27.0900
    27.1973  27.3503  30.3853  30.4755  30.7364  30.7687  33.8729  34.0123
    34.1590  34.4414

     the Fermi energy is    18.0499 ev

!    total energy              =    -724.82029890 Ry
     Harris-Foulkes estimate   =    -724.82026367 Ry
     estimated scf accuracy    <       0.00000005 Ry

     The total energy is the sum of the following terms:

     one-electron contribution =    -118.23014861 Ry
     hartree contribution      =     104.21178660 Ry
     xc contribution           =    -199.90287575 Ry
     ewald contribution        =    -510.89143510 Ry
     smearing contrib. (-TS)   =      -0.00762604 Ry

     convergence has been achieved in  13 iterations

     Forces acting on atoms (Ry/au):

     negative rho (up, down):  3.439E-01 0.000E+00
     atom    1 type  1   force =     0.00000000    0.00000000    0.00000000
     atom    2 type  1   force =     0.00000000    0.00000000    0.00000000
     atom    3 type  2   force =     0.00000000    0.00000000    0.00000000
     atom    4 type  2   force =     0.00000000    0.00000000    0.00000000

     Total force =     0.000000     Total SCF correction =     0.000000

     General routines

     Parallel routines

   This run was terminated on:  17: 7:22  18Feb2018

   JOB DONE.