     Program PWSCF v.5.1rc2 starts on 14Nov2017 at  1:12:21

     Current dimensions of program PWSCF are:
     Max number of different atomic species (ntypx) = 10
     Max number of k-points (npk) =  40000
     Max angular momentum in pseudopotentials (lmaxx) =  3

     IMPORTANT: XC functional enforced from input :
     Exchange-correlation      = BEEF-VDW ( 1  4 27 13 2)
     Any further DFT definition will be discarded
     Please, verify this is what you really want

     Found symmetry operation: I + ( -0.5000 -0.5000  0.0000)
     This is a supercell, fractional translations are disabled

     bravais-lattice index     =            0
     lattice parameter (alat)  =       1.8897  a.u.
     unit-cell volume          =     431.8674 (a.u.)^3
     number of atoms/cell      =            4
     number of atomic types    =            2
     number of electrons       =        46.00
     number of Kohn-Sham states=           43
     kinetic-energy cutoff     =      58.7989  Ry
     charge density cutoff     =     587.9892  Ry
     convergence threshold     =      1.0E-06
     mixing beta               =       0.1000
     number of iterations used =           10  plain     mixing
     Exchange-correlation      = BEEF-VDW ( 1  4 27 13 2)

     celldm(1)=   1.889726  celldm(2)=   0.000000  celldm(3)=   0.000000
     celldm(4)=   0.000000  celldm(5)=   0.000000  celldm(6)=   0.000000

     crystal axes: (cart. coord. in units of alat)
               a(1) = (   4.005188   0.000000   0.000000 )
               a(2) = (   0.000000   4.005188   0.000000 )
               a(3) = (   0.000000   0.000000   3.989404 )

     reciprocal axes: (cart. coord. in units 2 pi/alat)
               b(1) = (  0.249676  0.000000  0.000000 )
               b(2) = (  0.000000  0.249676  0.000000 )
               b(3) = (  0.000000  0.000000  0.250664 )

     PseudoPot. # 1 for Al read from file:
     /home/users/vossj/suncat/psp/gbrv1.5pbe/Al.UPF
     MD5 check sum: 0a6289f5291fc8f409219462bc851e1f
     Pseudo is Ultrasoft + core correction, Zval =  3.0
     Generated by new atomic code, or converted to UPF format
     Using radial grid of  893 points,  3 beta functions with:
                l(1) =   0
                l(2) =   1
                l(3) =   2
     Q(r) pseudized with  8 coefficients,  rinner =    0.900   0.900   0.900
                                                       0.900   0.900

     PseudoPot. # 2 for Zn read from file:
     /home/users/vossj/suncat/psp/gbrv1.5pbe/Zn.UPF
     MD5 check sum: df62231357ef9e81f77b2b3087fa5675
     Pseudo is Ultrasoft, Zval = 20.0
     Generated by new atomic code, or converted to UPF format
     Using radial grid of  943 points,  6 beta functions with:
                l(1) =   0
                l(2) =   0
                l(3) =   1
                l(4) =   1
                l(5) =   2
                l(6) =   2
     Q(r) pseudized with  8 coefficients,  rinner =    1.100   1.100   1.100
                                                       1.100   1.100

     vdW kernel table read from file vdW_kernel_table
     MD5 check sum: 095c7af220d748ca6e76c0b4c6cfb241

     atomic species   valence    mass     pseudopotential
        Al1            3.00    26.98154     Al( 1.00)
        Zn1           20.00    65.39000     Zn( 1.00)

     16 Sym. Ops., with inversion, found

   Cartesian axes

     site n.     atom                  positions (alat units)
         1           Al1 tau(   1) = (   0.0000000   0.0000000   0.0000000  )
         2           Al1 tau(   2) = (   2.0025938   2.0025938   0.0000000  )
         3           Zn1 tau(   3) = (   2.0025938   0.0000000   1.9947022  )
         4           Zn1 tau(   4) = (   0.0000000   2.0025938   1.9947022  )

     number of k points=    75  Fermi-Dirac smearing, width (Ry)=  0.0073
                       cart. coord. in units 2pi/alat
        k(    1) = (   0.0000000   0.0000000   0.0000000), wk =   0.0027435
        k(    2) = (   0.0000000   0.0000000   0.0278516), wk =   0.0054870
        k(    3) = (   0.0000000   0.0000000   0.0557031), wk =   0.0054870
        k(    4) = (   0.0000000   0.0000000   0.0835547), wk =   0.0054870
        k(    5) = (   0.0000000   0.0000000   0.1114062), wk =   0.0054870
        k(    6) = (   0.0000000   0.0277418   0.0000000), wk =   0.0109739
        k(    7) = (   0.0000000   0.0277418   0.0278516), wk =   0.0219479
        k(    8) = (   0.0000000   0.0277418   0.0557031), wk =   0.0219479
        k(    9) = (   0.0000000   0.0277418   0.0835547), wk =   0.0219479
        k(   10) = (   0.0000000   0.0277418   0.1114062), wk =   0.0219479
        k(   11) = (   0.0000000   0.0554836   0.0000000), wk =   0.0109739
        k(   12) = (   0.0000000   0.0554836   0.0278516), wk =   0.0219479
        k(   13) = (   0.0000000   0.0554836   0.0557031), wk =   0.0219479
        k(   14) = (   0.0000000   0.0554836   0.0835547), wk =   0.0219479
        k(   15) = (   0.0000000   0.0554836   0.1114062), wk =   0.0219479
        k(   16) = (   0.0000000   0.0832254   0.0000000), wk =   0.0109739
        k(   17) = (   0.0000000   0.0832254   0.0278516), wk =   0.0219479
        k(   18) = (   0.0000000   0.0832254   0.0557031), wk =   0.0219479
        k(   19) = (   0.0000000   0.0832254   0.0835547), wk =   0.0219479
        k(   20) = (   0.0000000   0.0832254   0.1114062), wk =   0.0219479
        k(   21) = (   0.0000000   0.1109672   0.0000000), wk =   0.0109739
        k(   22) = (   0.0000000   0.1109672   0.0278516), wk =   0.0219479
        k(   23) = (   0.0000000   0.1109672   0.0557031), wk =   0.0219479
        k(   24) = (   0.0000000   0.1109672   0.0835547), wk =   0.0219479
        k(   25) = (   0.0000000   0.1109672   0.1114062), wk =   0.0219479
        k(   26) = (   0.0277418   0.0277418   0.0000000), wk =   0.0109739
        k(   27) = (   0.0277418   0.0277418   0.0278516), wk =   0.0219479
        k(   28) = (   0.0277418   0.0277418   0.0557031), wk =   0.0219479
        k(   29) = (   0.0277418   0.0277418   0.0835547), wk =   0.0219479
        k(   30) = (   0.0277418   0.0277418   0.1114062), wk =   0.0219479
        k(   31) = (   0.0277418   0.0554836   0.0000000), wk =   0.0219479
        k(   32) = (   0.0277418   0.0554836   0.0278516), wk =   0.0438957
        k(   33) = (   0.0277418   0.0554836   0.0557031), wk =   0.0438957
        k(   34) = (   0.0277418   0.0554836   0.0835547), wk =   0.0438957
        k(   35) = (   0.0277418   0.0554836   0.1114062), wk =   0.0438957
        k(   36) = (   0.0277418   0.0832254   0.0000000), wk =   0.0219479
        k(   37) = (   0.0277418   0.0832254   0.0278516), wk =   0.0438957
        k(   38) = (   0.0277418   0.0832254   0.0557031), wk =   0.0438957
        k(   39) = (   0.0277418   0.0832254   0.0835547), wk =   0.0438957
        k(   40) = (   0.0277418   0.0832254   0.1114062), wk =   0.0438957
        k(   41) = (   0.0277418   0.1109672   0.0000000), wk =   0.0219479
        k(   42) = (   0.0277418   0.1109672   0.0278516), wk =   0.0438957
        k(   43) = (   0.0277418   0.1109672   0.0557031), wk =   0.0438957
        k(   44) = (   0.0277418   0.1109672   0.0835547), wk =   0.0438957
        k(   45) = (   0.0277418   0.1109672   0.1114062), wk =   0.0438957
        k(   46) = (   0.0554836   0.0554836   0.0000000), wk =   0.0109739
        k(   47) = (   0.0554836   0.0554836   0.0278516), wk =   0.0219479
        k(   48) = (   0.0554836   0.0554836   0.0557031), wk =   0.0219479
        k(   49) = (   0.0554836   0.0554836   0.0835547), wk =   0.0219479
        k(   50) = (   0.0554836   0.0554836   0.1114062), wk =   0.0219479
        k(   51) = (   0.0554836   0.0832254   0.0000000), wk =   0.0219479
        k(   52) = (   0.0554836   0.0832254   0.0278516), wk =   0.0438957
        k(   53) = (   0.0554836   0.0832254   0.0557031), wk =   0.0438957
        k(   54) = (   0.0554836   0.0832254   0.0835547), wk =   0.0438957
        k(   55) = (   0.0554836   0.0832254   0.1114062), wk =   0.0438957
        k(   56) = (   0.0554836   0.1109672   0.0000000), wk =   0.0219479
        k(   57) = (   0.0554836   0.1109672   0.0278516), wk =   0.0438957
        k(   58) = (   0.0554836   0.1109672   0.0557031), wk =   0.0438957
        k(   59) = (   0.0554836   0.1109672   0.0835547), wk =   0.0438957
        k(   60) = (   0.0554836   0.1109672   0.1114062), wk =   0.0438957
        k(   61) = (   0.0832254   0.0832254   0.0000000), wk =   0.0109739
        k(   62) = (   0.0832254   0.0832254   0.0278516), wk =   0.0219479
        k(   63) = (   0.0832254   0.0832254   0.0557031), wk =   0.0219479
        k(   64) = (   0.0832254   0.0832254   0.0835547), wk =   0.0219479
        k(   65) = (   0.0832254   0.0832254   0.1114062), wk =   0.0219479
        k(   66) = (   0.0832254   0.1109672   0.0000000), wk =   0.0219479
        k(   67) = (   0.0832254   0.1109672   0.0278516), wk =   0.0438957
        k(   68) = (   0.0832254   0.1109672   0.0557031), wk =   0.0438957
        k(   69) = (   0.0832254   0.1109672   0.0835547), wk =   0.0438957
        k(   70) = (   0.0832254   0.1109672   0.1114062), wk =   0.0438957
        k(   71) = (   0.1109672   0.1109672   0.0000000), wk =   0.0109739
        k(   72) = (   0.1109672   0.1109672   0.0278516), wk =   0.0219479
        k(   73) = (   0.1109672   0.1109672   0.0557031), wk =   0.0219479
        k(   74) = (   0.1109672   0.1109672   0.0835547), wk =   0.0219479
        k(   75) = (   0.1109672   0.1109672   0.1114062), wk =   0.0219479

     Largest allocated arrays     est. size (Mb)     dimensions
     Largest temporary arrays     est. size (Mb)     dimensions

     Initial potential from superposition of free atoms

     starting charge   45.99479, renormalised to   46.00000

     *
     * You are using vdW-DF for exchange-correlation in this calculation.
     * Please cite the following three references that made this development
     * possible:
     *
     *   M. Dion, H. Rydberg, E. Schroder, D. C. Langreth, and
     *   B. I. Lundqvist, Phys. Rev. Lett. 92, 246401 (2004).
     *
     *   T. Thonhauser, V. R. Cooper, S. Li, A. Puzder, P. Hyldgaard, and
     *   D. C. Langreth, Phys. Rev. B 76, 125112 (2007).
     *
     *   G. Roman-Perez and J. M. Soler, Phys. Rev. Lett. 103, 096102 (2009).
     *
     *
     * If you are using vdW-DF2, please also cite:
     *
     *   K. Lee, E. D. Murray, L. Kong, B. I. Lundqvist, and
     *   D. C. Langreth, Phys. Rev. B 82, 081101(R) (2010).
     *
     *
     * If you are calculating the stress with vdW-DF, please also cite:
     *
     *   R. Sabatini, E. Kucukbenli, B. Kolb, T. Thonhauser, and
     *   S. de Gironcoli, J. Phys.: Condens. Matter 24, 424209 (2012).
     *

     Carrying out vdW-DF run using the following parameters:

     Nqs =      20    Nr_points =    1024   r_max =   100.000
     q_mesh =
               0.00001000     0.04494208     0.09755937     0.15916263
               0.23128650     0.31572767     0.41458969     0.53033537
               0.66584808     0.82450364     1.01025438     1.22772762
               1.48234092     1.78043706     2.12944203     2.53805004
               3.01644009     3.57652955     4.23227104     5.00000000

     Gradients computed in reciprocal space

     Starting wfc are   34 randomized atomic wfcs +    9 random wfc

     Self-consistent Calculation

     iteration #  1     ecut=    58.80 Ry     beta=0.10
     Davidson diagonalization with overlap
     ethr =  1.00E-02,  avg # of iterations =  4.6

     Threshold (ethr) on eigenvalues was too large:
     Diagonalizing with lowered threshold

     Davidson diagonalization with overlap
     ethr =  2.74E-04,  avg # of iterations =  1.1

     total energy              =    -939.33226679 Ry
     Harris-Foulkes estimate   =    -939.35124565 Ry
     estimated scf accuracy    <       0.12386482 Ry

[...]

     total energy              =    -939.32243490 Ry
     Harris-Foulkes estimate   =    -939.32246973 Ry
     estimated scf accuracy    <       0.00007951 Ry

     iteration #  9     ecut=    58.80 Ry     beta=0.10
     Davidson diagonalization with overlap
     ethr =  7.61E-08,  avg # of iterations =  2.0

     End of self-consistent calculation

          k = 0.0000 0.0000 0.0000 (  3271 PWs)   bands (ev):

  -116.4673-116.4664 -70.6465 -70.6465 -70.6418 -70.6406 -70.6387 -70.6387
    -0.4518   2.0915   2.2043   2.2893   2.4715   2.4715   2.6913   2.7901
     2.7901   2.9346   3.1445   8.1614   8.1614   8.2736   9.9220  10.3097
    10.5132  16.3534  16.9510  16.9510  17.2551  17.2551  17.6252  17.9228
    18.4298  18.4298  20.6919  20.7892  21.3639  25.8751  25.8751  26.0715
    26.1984  26.1984  27.7111

[...]

          k = 0.1110 0.1110 0.1114 (  3275 PWs)   bands (ev):

  -116.4668-116.4668 -70.6472 -70.6469 -70.6413 -70.6412 -70.6383 -70.6381
     2.0143   2.0243   2.3163   2.3452   2.6826   2.7116   2.7911   2.8100
     2.8105   2.8241   5.3732   6.1085   6.3547   6.5395   7.6419   7.6455
     7.7455   8.6508  20.8152  21.6468  21.7432  21.9050  22.2894  22.8410
    23.4480  23.5411  23.5704  23.6233  24.0682  24.2650  24.8126  25.6932
    26.2073  26.3593  26.3945

     the Fermi energy is    10.2938 ev

!    total energy              =    -939.32245526 Ry
     Harris-Foulkes estimate   =    -939.32245087 Ry
     estimated scf accuracy    <       0.00000018 Ry

     The total energy is the sum of the following terms:

     one-electron contribution =    -900.86648735 Ry
     hartree contribution      =     464.70977491 Ry
     xc contribution           =     -95.79976928 Ry
     ewald contribution        =    -407.36262254 Ry
     smearing contrib. (-TS)   =      -0.00335100 Ry

     convergence has been achieved in   9 iterations

     Forces acting on atoms (Ry/au):

     atom    1 type  1   force =     0.00000000    0.00000000    0.00000000
     atom    2 type  1   force =     0.00000000    0.00000000    0.00000000
     atom    3 type  2   force =     0.00000000    0.00000000    0.00000000
     atom    4 type  2   force =     0.00000000    0.00000000    0.00000000

     Total force =     0.000000     Total SCF correction =     0.000000

     General routines

     Parallel routines

   This run was terminated on:   1:12:51  14Nov2017

   JOB DONE.