     Program PWSCF v.5.1rc2 starts on 14Nov2017 at  1:30:56

     Current dimensions of program PWSCF are:
     Max number of different atomic species (ntypx) = 10
     Max number of k-points (npk) =  40000
     Max angular momentum in pseudopotentials (lmaxx) =  3

     IMPORTANT: XC functional enforced from input :
     Exchange-correlation      = BEEF-VDW ( 1  4 27 13 2)
     Any further DFT definition will be discarded
     Please, verify this is what you really want

     Found symmetry operation: I + (  0.5000  0.5000  0.0000)
     This is a supercell, fractional translations are disabled

     bravais-lattice index     =            0
     lattice parameter (alat)  =       1.8897  a.u.
     unit-cell volume          =     576.1765 (a.u.)^3
     number of atoms/cell      =            4
     number of atomic types    =            2
     number of electrons       =        46.00
     number of Kohn-Sham states=           43
     kinetic-energy cutoff     =      58.7989  Ry
     charge density cutoff     =     587.9892  Ry
     convergence threshold     =      1.0E-06
     mixing beta               =       0.1000
     number of iterations used =           10  plain     mixing
     Exchange-correlation      = BEEF-VDW ( 1  4 27 13 2)

     celldm(1)=   1.889726  celldm(2)=   0.000000  celldm(3)=   0.000000
     celldm(4)=   0.000000  celldm(5)=   0.000000  celldm(6)=   0.000000

     crystal axes: (cart. coord. in units of alat)
               a(1) = (   4.534102   0.000000   0.000000 )
               a(2) = (   0.000000   4.534102   0.000000 )
               a(3) = (   0.000000   0.000000   4.153138 )

     reciprocal axes: (cart. coord. in units 2 pi/alat)
               b(1) = (  0.220551  0.000000  0.000000 )
               b(2) = (  0.000000  0.220551  0.000000 )
               b(3) = (  0.000000  0.000000  0.240782 )

     PseudoPot. # 1 for Au read from file:
     /home/users/vossj/suncat/psp/gbrv1.5pbe/Au.UPF
     MD5 check sum: 9d7f43293ad2c663164586bc4b293ffc
     Pseudo is Ultrasoft + core correction, Zval = 11.0
     Generated by new atomic code, or converted to UPF format
     Using radial grid of  985 points,  7 beta functions with:
                l(1) =   0
                l(2) =   0
                l(3) =   1
                l(4) =   1
                l(5) =   2
                l(6) =   2
                l(7) =   3
     Q(r) pseudized with  6 coefficients,  rinner =    1.900   1.900   1.900
                                                       1.900   1.900   1.900
                                                       1.900

     PseudoPot. # 2 for Hg read from file:
     /home/users/vossj/suncat/psp/gbrv1.5pbe/Hg.UPF
     MD5 check sum: 8f42caffe07f7fd9c0a564347f8c5498
     Pseudo is Ultrasoft + core correction, Zval = 12.0
     Generated by new atomic code, or converted to UPF format
     Using radial grid of  985 points,  6 beta functions with:
                l(1) =   0
                l(2) =   0
                l(3) =   1
                l(4) =   1
                l(5) =   2
                l(6) =   2
     Q(r) pseudized with  8 coefficients,  rinner =    2.000   2.000   2.000
                                                       2.000   2.000

     vdW kernel table read from file vdW_kernel_table
     MD5 check sum: 095c7af220d748ca6e76c0b4c6cfb241

     atomic species   valence    mass     pseudopotential
        Au1           11.00   196.96650     Au( 1.00)
        Hg1           12.00   200.59000     Hg( 1.00)

     16 Sym. Ops., with inversion, found

   Cartesian axes

     site n.     atom                  positions (alat units)
         1           Au1 tau(   1) = (   0.0000000   0.0000000   0.0000000  )
         2           Au1 tau(   2) = (   2.2670511   2.2670511   0.0000000  )
         3           Hg1 tau(   3) = (   2.2670511   0.0000000   2.0765690  )
         4           Hg1 tau(   4) = (   0.0000000   2.2670511   2.0765690  )

     number of k points=    75  Fermi-Dirac smearing, width (Ry)=  0.0073
                       cart. coord. in units 2pi/alat
        k(    1) = (   0.0000000   0.0000000   0.0000000), wk =   0.0027435
        k(    2) = (   0.0000000   0.0000000   0.0267535), wk =   0.0054870
        k(    3) = (   0.0000000   0.0000000   0.0535071), wk =   0.0054870
        k(    4) = (   0.0000000   0.0000000   0.0802606), wk =   0.0054870
        k(    5) = (   0.0000000   0.0000000   0.1070141), wk =   0.0054870
        k(    6) = (   0.0000000   0.0245056   0.0000000), wk =   0.0109739
        k(    7) = (   0.0000000   0.0245056   0.0267535), wk =   0.0219479
        k(    8) = (   0.0000000   0.0245056   0.0535071), wk =   0.0219479
        k(    9) = (   0.0000000   0.0245056   0.0802606), wk =   0.0219479
        k(   10) = (   0.0000000   0.0245056   0.1070141), wk =   0.0219479
        k(   11) = (   0.0000000   0.0490113   0.0000000), wk =   0.0109739
        k(   12) = (   0.0000000   0.0490113   0.0267535), wk =   0.0219479
        k(   13) = (   0.0000000   0.0490113   0.0535071), wk =   0.0219479
        k(   14) = (   0.0000000   0.0490113   0.0802606), wk =   0.0219479
        k(   15) = (   0.0000000   0.0490113   0.1070141), wk =   0.0219479
        k(   16) = (   0.0000000   0.0735169   0.0000000), wk =   0.0109739
        k(   17) = (   0.0000000   0.0735169   0.0267535), wk =   0.0219479
        k(   18) = (   0.0000000   0.0735169   0.0535071), wk =   0.0219479
        k(   19) = (   0.0000000   0.0735169   0.0802606), wk =   0.0219479
        k(   20) = (   0.0000000   0.0735169   0.1070141), wk =   0.0219479
        k(   21) = (   0.0000000   0.0980226   0.0000000), wk =   0.0109739
        k(   22) = (   0.0000000   0.0980226   0.0267535), wk =   0.0219479
        k(   23) = (   0.0000000   0.0980226   0.0535071), wk =   0.0219479
        k(   24) = (   0.0000000   0.0980226   0.0802606), wk =   0.0219479
        k(   25) = (   0.0000000   0.0980226   0.1070141), wk =   0.0219479
        k(   26) = (   0.0245056   0.0245056   0.0000000), wk =   0.0109739
        k(   27) = (   0.0245056   0.0245056   0.0267535), wk =   0.0219479
        k(   28) = (   0.0245056   0.0245056   0.0535071), wk =   0.0219479
        k(   29) = (   0.0245056   0.0245056   0.0802606), wk =   0.0219479
        k(   30) = (   0.0245056   0.0245056   0.1070141), wk =   0.0219479
        k(   31) = (   0.0245056   0.0490113   0.0000000), wk =   0.0219479
        k(   32) = (   0.0245056   0.0490113   0.0267535), wk =   0.0438957
        k(   33) = (   0.0245056   0.0490113   0.0535071), wk =   0.0438957
        k(   34) = (   0.0245056   0.0490113   0.0802606), wk =   0.0438957
        k(   35) = (   0.0245056   0.0490113   0.1070141), wk =   0.0438957
        k(   36) = (   0.0245056   0.0735169   0.0000000), wk =   0.0219479
        k(   37) = (   0.0245056   0.0735169   0.0267535), wk =   0.0438957
        k(   38) = (   0.0245056   0.0735169   0.0535071), wk =   0.0438957
        k(   39) = (   0.0245056   0.0735169   0.0802606), wk =   0.0438957
        k(   40) = (   0.0245056   0.0735169   0.1070141), wk =   0.0438957
        k(   41) = (   0.0245056   0.0980226   0.0000000), wk =   0.0219479
        k(   42) = (   0.0245056   0.0980226   0.0267535), wk =   0.0438957
        k(   43) = (   0.0245056   0.0980226   0.0535071), wk =   0.0438957
        k(   44) = (   0.0245056   0.0980226   0.0802606), wk =   0.0438957
        k(   45) = (   0.0245056   0.0980226   0.1070141), wk =   0.0438957
        k(   46) = (   0.0490113   0.0490113   0.0000000), wk =   0.0109739
        k(   47) = (   0.0490113   0.0490113   0.0267535), wk =   0.0219479
        k(   48) = (   0.0490113   0.0490113   0.0535071), wk =   0.0219479
        k(   49) = (   0.0490113   0.0490113   0.0802606), wk =   0.0219479
        k(   50) = (   0.0490113   0.0490113   0.1070141), wk =   0.0219479
        k(   51) = (   0.0490113   0.0735169   0.0000000), wk =   0.0219479
        k(   52) = (   0.0490113   0.0735169   0.0267535), wk =   0.0438957
        k(   53) = (   0.0490113   0.0735169   0.0535071), wk =   0.0438957
        k(   54) = (   0.0490113   0.0735169   0.0802606), wk =   0.0438957
        k(   55) = (   0.0490113   0.0735169   0.1070141), wk =   0.0438957
        k(   56) = (   0.0490113   0.0980226   0.0000000), wk =   0.0219479
        k(   57) = (   0.0490113   0.0980226   0.0267535), wk =   0.0438957
        k(   58) = (   0.0490113   0.0980226   0.0535071), wk =   0.0438957
        k(   59) = (   0.0490113   0.0980226   0.0802606), wk =   0.0438957
        k(   60) = (   0.0490113   0.0980226   0.1070141), wk =   0.0438957
        k(   61) = (   0.0735169   0.0735169   0.0000000), wk =   0.0109739
        k(   62) = (   0.0735169   0.0735169   0.0267535), wk =   0.0219479
        k(   63) = (   0.0735169   0.0735169   0.0535071), wk =   0.0219479
        k(   64) = (   0.0735169   0.0735169   0.0802606), wk =   0.0219479
        k(   65) = (   0.0735169   0.0735169   0.1070141), wk =   0.0219479
        k(   66) = (   0.0735169   0.0980226   0.0000000), wk =   0.0219479
        k(   67) = (   0.0735169   0.0980226   0.0267535), wk =   0.0438957
        k(   68) = (   0.0735169   0.0980226   0.0535071), wk =   0.0438957
        k(   69) = (   0.0735169   0.0980226   0.0802606), wk =   0.0438957
        k(   70) = (   0.0735169   0.0980226   0.1070141), wk =   0.0438957
        k(   71) = (   0.0980226   0.0980226   0.0000000), wk =   0.0109739
        k(   72) = (   0.0980226   0.0980226   0.0267535), wk =   0.0219479
        k(   73) = (   0.0980226   0.0980226   0.0535071), wk =   0.0219479
        k(   74) = (   0.0980226   0.0980226   0.0802606), wk =   0.0219479
        k(   75) = (   0.0980226   0.0980226   0.1070141), wk =   0.0219479

     Largest allocated arrays     est. size (Mb)     dimensions
     Largest temporary arrays     est. size (Mb)     dimensions

     Initial potential from superposition of free atoms

     starting charge   45.99964, renormalised to   46.00000

     *
     * You are using vdW-DF for exchange-correlation in this calculation.
     * Please cite the following three references that made this development
     * possible:
     *
     *   M. Dion, H. Rydberg, E. Schroder, D. C. Langreth, and
     *   B. I. Lundqvist, Phys. Rev. Lett. 92, 246401 (2004).
     *
     *   T. Thonhauser, V. R. Cooper, S. Li, A. Puzder, P. Hyldgaard, and
     *   D. C. Langreth, Phys. Rev. B 76, 125112 (2007).
     *
     *   G. Roman-Perez and J. M. Soler, Phys. Rev. Lett. 103, 096102 (2009).
     *
     *
     * If you are using vdW-DF2, please also cite:
     *
     *   K. Lee, E. D. Murray, L. Kong, B. I. Lundqvist, and
     *   D. C. Langreth, Phys. Rev. B 82, 081101(R) (2010).
     *
     *
     * If you are calculating the stress with vdW-DF, please also cite:
     *
     *   R. Sabatini, E. Kucukbenli, B. Kolb, T. Thonhauser, and
     *   S. de Gironcoli, J. Phys.: Condens. Matter 24, 424209 (2012).
     *

     Carrying out vdW-DF run using the following parameters:

     Nqs =      20    Nr_points =    1024   r_max =   100.000
     q_mesh =
               0.00001000     0.04494208     0.09755937     0.15916263
               0.23128650     0.31572767     0.41458969     0.53033537
               0.66584808     0.82450364     1.01025438     1.22772762
               1.48234092     1.78043706     2.12944203     2.53805004
               3.01644009     3.57652955     4.23227104     5.00000000

     Gradients computed in reciprocal space

     Starting wfc are   36 randomized atomic wfcs +    7 random wfc

     Self-consistent Calculation

     iteration #  1     ecut=    58.80 Ry     beta=0.10
     Davidson diagonalization with overlap
     ethr =  1.00E-02,  avg # of iterations =  7.1

     Threshold (ethr) on eigenvalues was too large:
     Diagonalizing with lowered threshold

     Davidson diagonalization with overlap
     ethr =  8.68E-05,  avg # of iterations =  4.7

     total energy              =    -451.62686508 Ry
     Harris-Foulkes estimate   =    -451.63053790 Ry
     estimated scf accuracy    <       0.04025126 Ry

[...]

     iteration #  4     ecut=    58.80 Ry     beta=0.10
     Davidson diagonalization with overlap
     c_bands:  1 eigenvalues not converged
     ethr =  7.95E-06,  avg # of iterations =  7.6

[...]

     total energy              =    -451.61922312 Ry
     Harris-Foulkes estimate   =    -451.61923513 Ry
     estimated scf accuracy    <       0.00002382 Ry

     iteration # 10     ecut=    58.80 Ry     beta=0.10
     Davidson diagonalization with overlap
     ethr =  2.90E-08,  avg # of iterations =  2.0

     End of self-consistent calculation

          k = 0.0000 0.0000 0.0000 (  4399 PWs)   bands (ev):

     3.1692   4.0198   4.1437   4.3217   4.4322   4.4322   4.7403   5.1860
     5.1860   5.5581   6.0479   7.5214   7.5459   8.0083   8.8198   8.8198
     8.8983   9.0247   9.0247   9.1614   9.6766  12.2174  12.2174  13.4957
    13.5132  14.5555  15.6321  19.3606  19.3606  20.3022  20.9167  20.9167
    21.2136  24.8265  26.0724  26.1735  26.3144  26.6865  28.1072  28.1072
    28.2319  28.2319  28.6704

[...]

          k = 0.0980 0.0980 0.1070 (  4364 PWs)   bands (ev):

     4.1392   4.1422   4.2745   4.3186   4.9774   5.0142   5.1777   5.1990
     5.3214   5.3324   6.9883   7.0751   7.7304   7.7875   8.6980   8.8126
     8.8571   8.9981   9.0047   9.0898  10.1480  10.9951  11.1168  11.1762
    12.5220  12.5505  12.9426  13.6896  24.2664  24.5632  24.6457  24.7789
    24.9589  25.0806  25.5728  25.8870  27.2644  27.4373  27.7367  27.9475
    31.2368  31.5252  31.5670

     the Fermi energy is    12.1229 ev

!    total energy              =    -451.61922852 Ry
     Harris-Foulkes estimate   =    -451.61922819 Ry
     estimated scf accuracy    <       0.00000010 Ry

     The total energy is the sum of the following terms:

     one-electron contribution =      -3.43097315 Ry
     hartree contribution      =      52.55098836 Ry
     xc contribution           =    -208.99430351 Ry
     ewald contribution        =    -291.74150306 Ry
     smearing contrib. (-TS)   =      -0.00343717 Ry

     convergence has been achieved in  10 iterations

     Forces acting on atoms (Ry/au):

     atom    1 type  1   force =     0.00000000    0.00000000    0.00000000
     atom    2 type  1   force =     0.00000000    0.00000000    0.00000000
     atom    3 type  2   force =     0.00000000    0.00000000    0.00000000
     atom    4 type  2   force =     0.00000000    0.00000000    0.00000000

     Total force =     0.000000     Total SCF correction =     0.000000

     General routines

     Parallel routines

   This run was terminated on:   1:31:46  14Nov2017

   JOB DONE.