     Program PWSCF v.5.1rc2 starts on 14Nov2017 at 16:23: 8

     Current dimensions of program PWSCF are:
     Max number of different atomic species (ntypx) = 10
     Max number of k-points (npk) =  40000
     Max angular momentum in pseudopotentials (lmaxx) =  3

     IMPORTANT: XC functional enforced from input :
     Exchange-correlation      = BEEF-VDW ( 1  4 27 13 2)
     Any further DFT definition will be discarded
     Please, verify this is what you really want

     Found symmetry operation: I + ( -0.5000 -0.5000  0.0000)
     This is a supercell, fractional translations are disabled

     bravais-lattice index     =            0
     lattice parameter (alat)  =       1.8897  a.u.
     unit-cell volume          =     435.2253 (a.u.)^3
     number of atoms/cell      =            4
     number of atomic types    =            2
     number of electrons       =        56.00
     number of Kohn-Sham states=           48
     kinetic-energy cutoff     =      58.7989  Ry
     charge density cutoff     =     587.9892  Ry
     convergence threshold     =      1.0E-06
     mixing beta               =       0.1000
     number of iterations used =           10  plain     mixing
     Exchange-correlation      = BEEF-VDW ( 1  4 27 13 2)

     celldm(1)=   1.889726  celldm(2)=   0.000000  celldm(3)=   0.000000
     celldm(4)=   0.000000  celldm(5)=   0.000000  celldm(6)=   0.000000

     crystal axes: (cart. coord. in units of alat)
               a(1) = (   4.068058   0.000000   0.000000 )
               a(2) = (   0.000000   4.068058   0.000000 )
               a(3) = (   0.000000   0.000000   3.897116 )

     reciprocal axes: (cart. coord. in units 2 pi/alat)
               b(1) = (  0.245818  0.000000  0.000000 )
               b(2) = (  0.000000  0.245818  0.000000 )
               b(3) = (  0.000000  0.000000  0.256600 )

     PseudoPot. # 1 for Nb read from file:
     /home/users/vossj/suncat/psp/gbrv1.5pbe/Nb.UPF
     MD5 check sum: 573aab8a2fa660278ed4a62cd769473f
     Pseudo is Ultrasoft + core correction, Zval = 13.0
     Generated by new atomic code, or converted to UPF format
     Using radial grid of  887 points,  6 beta functions with:
                l(1) =   0
                l(2) =   0
                l(3) =   1
                l(4) =   1
                l(5) =   2
                l(6) =   2
     Q(r) pseudized with  6 coefficients,  rinner =    1.000   1.000   1.000
                                                       1.000   1.000

     PseudoPot. # 2 for Ir read from file:
     /home/users/vossj/suncat/psp/gbrv1.5pbe/Ir.UPF
     MD5 check sum: 8836f839c3459d2b385c504ce6d91f2c
     Pseudo is Ultrasoft + core correction, Zval = 15.0
     Generated by new atomic code, or converted to UPF format
     Using radial grid of  983 points,  7 beta functions with:
                l(1) =   0
                l(2) =   0
                l(3) =   1
                l(4) =   1
                l(5) =   1
                l(6) =   2
                l(7) =   2
     Q(r) pseudized with  8 coefficients,  rinner =    1.400   1.400   1.400
                                                       1.400   1.400

     vdW kernel table read from file vdW_kernel_table
     MD5 check sum: 095c7af220d748ca6e76c0b4c6cfb241

     atomic species   valence    mass     pseudopotential
        Nb1           13.00    92.90640     Nb( 1.00)
        Ir1           15.00   192.22000     Ir( 1.00)

     16 Sym. Ops., with inversion, found

   Cartesian axes

     site n.     atom                  positions (alat units)
         1           Nb1 tau(   1) = (   0.0000000   0.0000000   0.0000000  )
         2           Nb1 tau(   2) = (   2.0340288   2.0340288   0.0000000  )
         3           Ir1 tau(   3) = (   2.0340288   0.0000000   1.9485581  )
         4           Ir1 tau(   4) = (   0.0000000   2.0340288   1.9485581  )

     number of k points=    75  Fermi-Dirac smearing, width (Ry)=  0.0073
                       cart. coord. in units 2pi/alat
        k(    1) = (   0.0000000   0.0000000   0.0000000), wk =   0.0027435
        k(    2) = (   0.0000000   0.0000000   0.0285111), wk =   0.0054870
        k(    3) = (   0.0000000   0.0000000   0.0570222), wk =   0.0054870
        k(    4) = (   0.0000000   0.0000000   0.0855333), wk =   0.0054870
        k(    5) = (   0.0000000   0.0000000   0.1140444), wk =   0.0054870
        k(    6) = (   0.0000000   0.0273131   0.0000000), wk =   0.0109739
        k(    7) = (   0.0000000   0.0273131   0.0285111), wk =   0.0219479
        k(    8) = (   0.0000000   0.0273131   0.0570222), wk =   0.0219479
        k(    9) = (   0.0000000   0.0273131   0.0855333), wk =   0.0219479
        k(   10) = (   0.0000000   0.0273131   0.1140444), wk =   0.0219479
        k(   11) = (   0.0000000   0.0546261   0.0000000), wk =   0.0109739
        k(   12) = (   0.0000000   0.0546261   0.0285111), wk =   0.0219479
        k(   13) = (   0.0000000   0.0546261   0.0570222), wk =   0.0219479
        k(   14) = (   0.0000000   0.0546261   0.0855333), wk =   0.0219479
        k(   15) = (   0.0000000   0.0546261   0.1140444), wk =   0.0219479
        k(   16) = (   0.0000000   0.0819392   0.0000000), wk =   0.0109739
        k(   17) = (   0.0000000   0.0819392   0.0285111), wk =   0.0219479
        k(   18) = (   0.0000000   0.0819392   0.0570222), wk =   0.0219479
        k(   19) = (   0.0000000   0.0819392   0.0855333), wk =   0.0219479
        k(   20) = (   0.0000000   0.0819392   0.1140444), wk =   0.0219479
        k(   21) = (   0.0000000   0.1092523   0.0000000), wk =   0.0109739
        k(   22) = (   0.0000000   0.1092523   0.0285111), wk =   0.0219479
        k(   23) = (   0.0000000   0.1092523   0.0570222), wk =   0.0219479
        k(   24) = (   0.0000000   0.1092523   0.0855333), wk =   0.0219479
        k(   25) = (   0.0000000   0.1092523   0.1140444), wk =   0.0219479
        k(   26) = (   0.0273131   0.0273131   0.0000000), wk =   0.0109739
        k(   27) = (   0.0273131   0.0273131   0.0285111), wk =   0.0219479
        k(   28) = (   0.0273131   0.0273131   0.0570222), wk =   0.0219479
        k(   29) = (   0.0273131   0.0273131   0.0855333), wk =   0.0219479
        k(   30) = (   0.0273131   0.0273131   0.1140444), wk =   0.0219479
        k(   31) = (   0.0273131   0.0546261   0.0000000), wk =   0.0219479
        k(   32) = (   0.0273131   0.0546261   0.0285111), wk =   0.0438957
        k(   33) = (   0.0273131   0.0546261   0.0570222), wk =   0.0438957
        k(   34) = (   0.0273131   0.0546261   0.0855333), wk =   0.0438957
        k(   35) = (   0.0273131   0.0546261   0.1140444), wk =   0.0438957
        k(   36) = (   0.0273131   0.0819392   0.0000000), wk =   0.0219479
        k(   37) = (   0.0273131   0.0819392   0.0285111), wk =   0.0438957
        k(   38) = (   0.0273131   0.0819392   0.0570222), wk =   0.0438957
        k(   39) = (   0.0273131   0.0819392   0.0855333), wk =   0.0438957
        k(   40) = (   0.0273131   0.0819392   0.1140444), wk =   0.0438957
        k(   41) = (   0.0273131   0.1092523   0.0000000), wk =   0.0219479
        k(   42) = (   0.0273131   0.1092523   0.0285111), wk =   0.0438957
        k(   43) = (   0.0273131   0.1092523   0.0570222), wk =   0.0438957
        k(   44) = (   0.0273131   0.1092523   0.0855333), wk =   0.0438957
        k(   45) = (   0.0273131   0.1092523   0.1140444), wk =   0.0438957
        k(   46) = (   0.0546261   0.0546261   0.0000000), wk =   0.0109739
        k(   47) = (   0.0546261   0.0546261   0.0285111), wk =   0.0219479
        k(   48) = (   0.0546261   0.0546261   0.0570222), wk =   0.0219479
        k(   49) = (   0.0546261   0.0546261   0.0855333), wk =   0.0219479
        k(   50) = (   0.0546261   0.0546261   0.1140444), wk =   0.0219479
        k(   51) = (   0.0546261   0.0819392   0.0000000), wk =   0.0219479
        k(   52) = (   0.0546261   0.0819392   0.0285111), wk =   0.0438957
        k(   53) = (   0.0546261   0.0819392   0.0570222), wk =   0.0438957
        k(   54) = (   0.0546261   0.0819392   0.0855333), wk =   0.0438957
        k(   55) = (   0.0546261   0.0819392   0.1140444), wk =   0.0438957
        k(   56) = (   0.0546261   0.1092523   0.0000000), wk =   0.0219479
        k(   57) = (   0.0546261   0.1092523   0.0285111), wk =   0.0438957
        k(   58) = (   0.0546261   0.1092523   0.0570222), wk =   0.0438957
        k(   59) = (   0.0546261   0.1092523   0.0855333), wk =   0.0438957
        k(   60) = (   0.0546261   0.1092523   0.1140444), wk =   0.0438957
        k(   61) = (   0.0819392   0.0819392   0.0000000), wk =   0.0109739
        k(   62) = (   0.0819392   0.0819392   0.0285111), wk =   0.0219479
        k(   63) = (   0.0819392   0.0819392   0.0570222), wk =   0.0219479
        k(   64) = (   0.0819392   0.0819392   0.0855333), wk =   0.0219479
        k(   65) = (   0.0819392   0.0819392   0.1140444), wk =   0.0219479
        k(   66) = (   0.0819392   0.1092523   0.0000000), wk =   0.0219479
        k(   67) = (   0.0819392   0.1092523   0.0285111), wk =   0.0438957
        k(   68) = (   0.0819392   0.1092523   0.0570222), wk =   0.0438957
        k(   69) = (   0.0819392   0.1092523   0.0855333), wk =   0.0438957
        k(   70) = (   0.0819392   0.1092523   0.1140444), wk =   0.0438957
        k(   71) = (   0.1092523   0.1092523   0.0000000), wk =   0.0109739
        k(   72) = (   0.1092523   0.1092523   0.0285111), wk =   0.0219479
        k(   73) = (   0.1092523   0.1092523   0.0570222), wk =   0.0219479
        k(   74) = (   0.1092523   0.1092523   0.0855333), wk =   0.0219479
        k(   75) = (   0.1092523   0.1092523   0.1140444), wk =   0.0219479

     Largest allocated arrays     est. size (Mb)     dimensions
     Largest temporary arrays     est. size (Mb)     dimensions

     Initial potential from superposition of free atoms
     Check: negative starting charge=   -0.723090

     starting charge   54.99447, renormalised to   56.00000

     negative rho (up, down):  7.363E-01 0.000E+00

     *
     * You are using vdW-DF for exchange-correlation in this calculation.
     * Please cite the following three references that made this development
     * possible:
     *
     *   M. Dion, H. Rydberg, E. Schroder, D. C. Langreth, and
     *   B. I. Lundqvist, Phys. Rev. Lett. 92, 246401 (2004).
     *
     *   T. Thonhauser, V. R. Cooper, S. Li, A. Puzder, P. Hyldgaard, and
     *   D. C. Langreth, Phys. Rev. B 76, 125112 (2007).
     *
     *   G. Roman-Perez and J. M. Soler, Phys. Rev. Lett. 103, 096102 (2009).
     *
     *
     * If you are using vdW-DF2, please also cite:
     *
     *   K. Lee, E. D. Murray, L. Kong, B. I. Lundqvist, and
     *   D. C. Langreth, Phys. Rev. B 82, 081101(R) (2010).
     *
     *
     * If you are calculating the stress with vdW-DF, please also cite:
     *
     *   R. Sabatini, E. Kucukbenli, B. Kolb, T. Thonhauser, and
     *   S. de Gironcoli, J. Phys.: Condens. Matter 24, 424209 (2012).
     *

     Carrying out vdW-DF run using the following parameters:

     Nqs =      20    Nr_points =    1024   r_max =   100.000
     q_mesh =
               0.00001000     0.04494208     0.09755937     0.15916263
               0.23128650     0.31572767     0.41458969     0.53033537
               0.66584808     0.82450364     1.01025438     1.22772762
               1.48234092     1.78043706     2.12944203     2.53805004
               3.01644009     3.57652955     4.23227104     5.00000000

     Gradients computed in reciprocal space

     Starting wfc are   50 randomized atomic wfcs

     Self-consistent Calculation

     iteration #  1     ecut=    58.80 Ry     beta=0.10
     Davidson diagonalization with overlap
     ethr =  1.00E-02,  avg # of iterations =  4.6

[...]

     total energy              =    -604.20027709 Ry
     Harris-Foulkes estimate   =    -604.45253517 Ry
     estimated scf accuracy    <       1.78601030 Ry

[...]

     total energy              =    -604.03481329 Ry
     Harris-Foulkes estimate   =    -604.03481053 Ry
     estimated scf accuracy    <       0.00000149 Ry

     iteration # 11     ecut=    58.80 Ry     beta=0.10
     Davidson diagonalization with overlap
     ethr =  2.67E-09,  avg # of iterations =  1.7

     negative rho (up, down):  6.387E-01 0.000E+00

     End of self-consistent calculation

          k = 0.0000 0.0000 0.0000 (  3277 PWs)   bands (ev):

   -34.6819 -34.4912 -28.5632 -28.5632 -28.5127 -28.4651 -28.3624 -28.3624
   -10.9578 -10.9578 -10.7146 -10.5369 -10.2218 -10.2218  12.3917  14.7990
    14.8609  14.8989  15.3161  15.4602  15.4602  18.3586  18.3586  19.6235
    20.1983  21.8212  21.9432  22.4607  23.4415  23.4415  24.3433  24.5485
    24.5566  24.5566  24.7468  24.7507  24.7507  26.1179  30.8574  31.3699
    32.0022  32.0022  32.1032  32.1305  32.6497  32.6497  33.7116  34.0963

[...]

          k = 0.1093 0.1093 0.1140 (  3309 PWs)   bands (ev):

   -34.5867 -34.5807 -28.5867 -28.5808 -28.4956 -28.4947 -28.3496 -28.3435
   -11.0625 -11.0413 -10.6613 -10.6548 -10.1710 -10.1472  14.5605  14.6259
    15.3396  15.3581  17.9394  18.0226  18.0375  18.0682  18.2784  18.3302
    20.0266  20.1690  20.4646  20.8871  21.2391  21.4543  22.1882  22.5453
    23.8410  24.2675  24.5589  24.6856  24.8191  24.9643  28.9884  29.2318
    31.6821  31.7360  32.1142  32.1146  33.5727  33.5817  33.6186  33.7280

     the Fermi energy is    20.5517 ev

!    total energy              =    -604.03482714 Ry
     Harris-Foulkes estimate   =    -604.03481355 Ry
     estimated scf accuracy    <       0.00000009 Ry

     The total energy is the sum of the following terms:

     one-electron contribution =     -55.31804133 Ry
     hartree contribution      =      69.22429063 Ry
     xc contribution           =    -142.39373321 Ry
     ewald contribution        =    -475.53903400 Ry
     smearing contrib. (-TS)   =      -0.00830923 Ry

     convergence has been achieved in  11 iterations

     Forces acting on atoms (Ry/au):

     negative rho (up, down):  6.387E-01 0.000E+00
     atom    1 type  1   force =     0.00000000    0.00000000    0.00000000
     atom    2 type  1   force =     0.00000000    0.00000000    0.00000000
     atom    3 type  2   force =     0.00000000    0.00000000    0.00000000
     atom    4 type  2   force =     0.00000000    0.00000000    0.00000000

     Total force =     0.000000     Total SCF correction =     0.000000

     General routines

     Parallel routines

   This run was terminated on:  16:23:44  14Nov2017

   JOB DONE.