     Program PWSCF v.5.1rc2 starts on 15Nov2017 at  4:50:50

     Current dimensions of program PWSCF are:
     Max number of different atomic species (ntypx) = 10
     Max number of k-points (npk) =  40000
     Max angular momentum in pseudopotentials (lmaxx) =  3

     IMPORTANT: XC functional enforced from input :
     Exchange-correlation      = BEEF-VDW ( 1  4 27 13 2)
     Any further DFT definition will be discarded
     Please, verify this is what you really want

     Found symmetry operation: I + ( -0.5000 -0.5000  0.0000)
     This is a supercell, fractional translations are disabled

     bravais-lattice index     =            0
     lattice parameter (alat)  =       1.8897  a.u.
     unit-cell volume          =     407.0066 (a.u.)^3
     number of atoms/cell      =            4
     number of atomic types    =            2
     number of electrons       =        62.00
     number of Kohn-Sham states=           51
     kinetic-energy cutoff     =      58.7989  Ry
     charge density cutoff     =     587.9892  Ry
     convergence threshold     =      1.0E-06
     mixing beta               =       0.1000
     number of iterations used =           10  plain     mixing
     Exchange-correlation      = BEEF-VDW ( 1  4 27 13 2)

     celldm(1)=   1.889726  celldm(2)=   0.000000  celldm(3)=   0.000000
     celldm(4)=   0.000000  celldm(5)=   0.000000  celldm(6)=   0.000000

     crystal axes: (cart. coord. in units of alat)
               a(1) = (   3.924558   0.000000   0.000000 )
               a(2) = (   0.000000   3.924558   0.000000 )
               a(3) = (   0.000000   0.000000   3.915826 )

     reciprocal axes: (cart. coord. in units 2 pi/alat)
               b(1) = (  0.254806  0.000000  0.000000 )
               b(2) = (  0.000000  0.254806  0.000000 )
               b(3) = (  0.000000  0.000000  0.255374 )

     PseudoPot. # 1 for Rh read from file:
     /home/users/vossj/suncat/psp/gbrv1.5pbe/Rh.UPF
     MD5 check sum: 761627e959a2e3a1f56b0b5fe687810e
     Pseudo is Ultrasoft + core correction, Zval = 15.0
     Generated by new atomic code, or converted to UPF format
     Using radial grid of  969 points,  7 beta functions with:
                l(1) =   0
                l(2) =   0
                l(3) =   1
                l(4) =   1
                l(5) =   2
                l(6) =   2
                l(7) =   2
     Q(r) pseudized with  8 coefficients,  rinner =    1.200   1.200   1.200
                                                       1.200   1.200

     PseudoPot. # 2 for Pt read from file:
     /home/users/vossj/suncat/psp/gbrv1.5pbe/Pt.UPF
     MD5 check sum: f09d6de1a584b5a045c4fc126da2d0c4
     Pseudo is Ultrasoft + core correction, Zval = 16.0
     Generated by new atomic code, or converted to UPF format
     Using radial grid of  985 points,  6 beta functions with:
                l(1) =   0
                l(2) =   0
                l(3) =   1
                l(4) =   1
                l(5) =   2
                l(6) =   2
     Q(r) pseudized with  8 coefficients,  rinner =    1.300   1.300   1.300
                                                       1.300   1.300

     vdW kernel table read from file vdW_kernel_table
     MD5 check sum: 095c7af220d748ca6e76c0b4c6cfb241

     atomic species   valence    mass     pseudopotential
        Rh1           15.00   102.90550     Rh( 1.00)
        Pt1           16.00   195.08000     Pt( 1.00)

     16 Sym. Ops., with inversion, found

   Cartesian axes

     site n.     atom                  positions (alat units)
         1           Rh1 tau(   1) = (   0.0000000   0.0000000   0.0000000  )
         2           Rh1 tau(   2) = (   1.9622789   1.9622789   0.0000000  )
         3           Pt1 tau(   3) = (   1.9622789   0.0000000   1.9579131  )
         4           Pt1 tau(   4) = (   0.0000000   1.9622789   1.9579131  )

     number of k points=    75  Fermi-Dirac smearing, width (Ry)=  0.0073
                       cart. coord. in units 2pi/alat
        k(    1) = (   0.0000000   0.0000000   0.0000000), wk =   0.0027435
        k(    2) = (   0.0000000   0.0000000   0.0283749), wk =   0.0054870
        k(    3) = (   0.0000000   0.0000000   0.0567498), wk =   0.0054870
        k(    4) = (   0.0000000   0.0000000   0.0851246), wk =   0.0054870
        k(    5) = (   0.0000000   0.0000000   0.1134995), wk =   0.0054870
        k(    6) = (   0.0000000   0.0283118   0.0000000), wk =   0.0109739
        k(    7) = (   0.0000000   0.0283118   0.0283749), wk =   0.0219479
        k(    8) = (   0.0000000   0.0283118   0.0567498), wk =   0.0219479
        k(    9) = (   0.0000000   0.0283118   0.0851246), wk =   0.0219479
        k(   10) = (   0.0000000   0.0283118   0.1134995), wk =   0.0219479
        k(   11) = (   0.0000000   0.0566235   0.0000000), wk =   0.0109739
        k(   12) = (   0.0000000   0.0566235   0.0283749), wk =   0.0219479
        k(   13) = (   0.0000000   0.0566235   0.0567498), wk =   0.0219479
        k(   14) = (   0.0000000   0.0566235   0.0851246), wk =   0.0219479
        k(   15) = (   0.0000000   0.0566235   0.1134995), wk =   0.0219479
        k(   16) = (   0.0000000   0.0849353   0.0000000), wk =   0.0109739
        k(   17) = (   0.0000000   0.0849353   0.0283749), wk =   0.0219479
        k(   18) = (   0.0000000   0.0849353   0.0567498), wk =   0.0219479
        k(   19) = (   0.0000000   0.0849353   0.0851246), wk =   0.0219479
        k(   20) = (   0.0000000   0.0849353   0.1134995), wk =   0.0219479
        k(   21) = (   0.0000000   0.1132470   0.0000000), wk =   0.0109739
        k(   22) = (   0.0000000   0.1132470   0.0283749), wk =   0.0219479
        k(   23) = (   0.0000000   0.1132470   0.0567498), wk =   0.0219479
        k(   24) = (   0.0000000   0.1132470   0.0851246), wk =   0.0219479
        k(   25) = (   0.0000000   0.1132470   0.1134995), wk =   0.0219479
        k(   26) = (   0.0283118   0.0283118   0.0000000), wk =   0.0109739
        k(   27) = (   0.0283118   0.0283118   0.0283749), wk =   0.0219479
        k(   28) = (   0.0283118   0.0283118   0.0567498), wk =   0.0219479
        k(   29) = (   0.0283118   0.0283118   0.0851246), wk =   0.0219479
        k(   30) = (   0.0283118   0.0283118   0.1134995), wk =   0.0219479
        k(   31) = (   0.0283118   0.0566235   0.0000000), wk =   0.0219479
        k(   32) = (   0.0283118   0.0566235   0.0283749), wk =   0.0438957
        k(   33) = (   0.0283118   0.0566235   0.0567498), wk =   0.0438957
        k(   34) = (   0.0283118   0.0566235   0.0851246), wk =   0.0438957
        k(   35) = (   0.0283118   0.0566235   0.1134995), wk =   0.0438957
        k(   36) = (   0.0283118   0.0849353   0.0000000), wk =   0.0219479
        k(   37) = (   0.0283118   0.0849353   0.0283749), wk =   0.0438957
        k(   38) = (   0.0283118   0.0849353   0.0567498), wk =   0.0438957
        k(   39) = (   0.0283118   0.0849353   0.0851246), wk =   0.0438957
        k(   40) = (   0.0283118   0.0849353   0.1134995), wk =   0.0438957
        k(   41) = (   0.0283118   0.1132470   0.0000000), wk =   0.0219479
        k(   42) = (   0.0283118   0.1132470   0.0283749), wk =   0.0438957
        k(   43) = (   0.0283118   0.1132470   0.0567498), wk =   0.0438957
        k(   44) = (   0.0283118   0.1132470   0.0851246), wk =   0.0438957
        k(   45) = (   0.0283118   0.1132470   0.1134995), wk =   0.0438957
        k(   46) = (   0.0566235   0.0566235   0.0000000), wk =   0.0109739
        k(   47) = (   0.0566235   0.0566235   0.0283749), wk =   0.0219479
        k(   48) = (   0.0566235   0.0566235   0.0567498), wk =   0.0219479
        k(   49) = (   0.0566235   0.0566235   0.0851246), wk =   0.0219479
        k(   50) = (   0.0566235   0.0566235   0.1134995), wk =   0.0219479
        k(   51) = (   0.0566235   0.0849353   0.0000000), wk =   0.0219479
        k(   52) = (   0.0566235   0.0849353   0.0283749), wk =   0.0438957
        k(   53) = (   0.0566235   0.0849353   0.0567498), wk =   0.0438957
        k(   54) = (   0.0566235   0.0849353   0.0851246), wk =   0.0438957
        k(   55) = (   0.0566235   0.0849353   0.1134995), wk =   0.0438957
        k(   56) = (   0.0566235   0.1132470   0.0000000), wk =   0.0219479
        k(   57) = (   0.0566235   0.1132470   0.0283749), wk =   0.0438957
        k(   58) = (   0.0566235   0.1132470   0.0567498), wk =   0.0438957
        k(   59) = (   0.0566235   0.1132470   0.0851246), wk =   0.0438957
        k(   60) = (   0.0566235   0.1132470   0.1134995), wk =   0.0438957
        k(   61) = (   0.0849353   0.0849353   0.0000000), wk =   0.0109739
        k(   62) = (   0.0849353   0.0849353   0.0283749), wk =   0.0219479
        k(   63) = (   0.0849353   0.0849353   0.0567498), wk =   0.0219479
        k(   64) = (   0.0849353   0.0849353   0.0851246), wk =   0.0219479
        k(   65) = (   0.0849353   0.0849353   0.1134995), wk =   0.0219479
        k(   66) = (   0.0849353   0.1132470   0.0000000), wk =   0.0219479
        k(   67) = (   0.0849353   0.1132470   0.0283749), wk =   0.0438957
        k(   68) = (   0.0849353   0.1132470   0.0567498), wk =   0.0438957
        k(   69) = (   0.0849353   0.1132470   0.0851246), wk =   0.0438957
        k(   70) = (   0.0849353   0.1132470   0.1134995), wk =   0.0438957
        k(   71) = (   0.1132470   0.1132470   0.0000000), wk =   0.0109739
        k(   72) = (   0.1132470   0.1132470   0.0283749), wk =   0.0219479
        k(   73) = (   0.1132470   0.1132470   0.0567498), wk =   0.0219479
        k(   74) = (   0.1132470   0.1132470   0.0851246), wk =   0.0219479
        k(   75) = (   0.1132470   0.1132470   0.1134995), wk =   0.0219479

     Largest allocated arrays     est. size (Mb)     dimensions
     Largest temporary arrays     est. size (Mb)     dimensions

     Initial potential from superposition of free atoms
     Check: negative starting charge=   -0.482283

     starting charge   59.99978, renormalised to   62.00000

     negative rho (up, down):  4.984E-01 0.000E+00

     *
     * You are using vdW-DF for exchange-correlation in this calculation.
     * Please cite the following three references that made this development
     * possible:
     *
     *   M. Dion, H. Rydberg, E. Schroder, D. C. Langreth, and
     *   B. I. Lundqvist, Phys. Rev. Lett. 92, 246401 (2004).
     *
     *   T. Thonhauser, V. R. Cooper, S. Li, A. Puzder, P. Hyldgaard, and
     *   D. C. Langreth, Phys. Rev. B 76, 125112 (2007).
     *
     *   G. Roman-Perez and J. M. Soler, Phys. Rev. Lett. 103, 096102 (2009).
     *
     *
     * If you are using vdW-DF2, please also cite:
     *
     *   K. Lee, E. D. Murray, L. Kong, B. I. Lundqvist, and
     *   D. C. Langreth, Phys. Rev. B 82, 081101(R) (2010).
     *
     *
     * If you are calculating the stress with vdW-DF, please also cite:
     *
     *   R. Sabatini, E. Kucukbenli, B. Kolb, T. Thonhauser, and
     *   S. de Gironcoli, J. Phys.: Condens. Matter 24, 424209 (2012).
     *

     Carrying out vdW-DF run using the following parameters:

     Nqs =      20    Nr_points =    1024   r_max =   100.000
     q_mesh =
               0.00001000     0.04494208     0.09755937     0.15916263
               0.23128650     0.31572767     0.41458969     0.53033537
               0.66584808     0.82450364     1.01025438     1.22772762
               1.48234092     1.78043706     2.12944203     2.53805004
               3.01644009     3.57652955     4.23227104     5.00000000

     Gradients computed in reciprocal space

     Starting wfc are   48 randomized atomic wfcs +    3 random wfc

     Self-consistent Calculation

     iteration #  1     ecut=    58.80 Ry     beta=0.10
     Davidson diagonalization with overlap
     ethr =  1.00E-02,  avg # of iterations =  4.6

[...]

     total energy              =    -769.44190045 Ry
     Harris-Foulkes estimate   =    -770.17510861 Ry
     estimated scf accuracy    <       4.47964100 Ry

[...]

     total energy              =    -769.23356568 Ry
     Harris-Foulkes estimate   =    -769.23356372 Ry
     estimated scf accuracy    <       0.00000176 Ry

     iteration # 11     ecut=    58.80 Ry     beta=0.10
     Davidson diagonalization with overlap
     ethr =  2.83E-09,  avg # of iterations =  1.8

     negative rho (up, down):  4.743E-01 0.000E+00

     End of self-consistent calculation

          k = 0.0000 0.0000 0.0000 (  3071 PWs)   bands (ev):

   -32.7475 -32.7475 -32.6488 -32.5980 -32.5316 -32.5316 -26.1856 -26.1856
   -26.0980 -26.0531 -25.9419 -25.9419  11.7175  13.9881  14.2533  14.3997
    14.4626  14.5776  14.5776  17.1938  17.1938  17.3974  19.0677  19.2289
    20.5127  20.6731  20.7462  20.8224  21.0838  21.0838  21.0875  21.0875
    21.2578  23.0695  23.0695  23.1295  29.1836  30.7955  32.0809  32.7297
    32.7699  32.7699  32.8267  32.8267  32.9282  36.1773  40.3462  41.0740
    41.1170  41.1170  41.1649

[...]

          k = 0.1132 0.1132 0.1135 (  3111 PWs)   bands (ev):

   -32.7727 -32.7664 -32.6278 -32.6265 -32.5184 -32.5118 -26.2116 -26.2043
   -26.0784 -26.0767 -25.9284 -25.9208  13.9462  14.0188  14.3980  14.4054
    16.7969  16.8379  16.9308  17.0467  17.2140  17.2792  17.5849  17.6607
    19.6182  19.7167  19.7433  20.3113  20.5516  20.5860  20.5901  20.7100
    20.7981  21.6484  21.7490  21.8287  26.2487  26.5674  28.5983  28.9035
    35.7186  35.7302  35.8550  35.8887  39.9744  40.0812  40.1084  40.2750
    40.3332  40.7244  40.8062

     the Fermi energy is    20.4303 ev

!    total energy              =    -769.23357454 Ry
     Harris-Foulkes estimate   =    -769.23356596 Ry
     estimated scf accuracy    <       0.00000010 Ry

     The total energy is the sum of the following terms:

     one-electron contribution =     -99.73399488 Ry
     hartree contribution      =     104.78184381 Ry
     xc contribution           =    -179.41705125 Ry
     ewald contribution        =    -594.84673061 Ry
     smearing contrib. (-TS)   =      -0.01764161 Ry

     convergence has been achieved in  11 iterations

     Forces acting on atoms (Ry/au):

     negative rho (up, down):  4.743E-01 0.000E+00
     atom    1 type  1   force =     0.00000000    0.00000000    0.00000000
     atom    2 type  1   force =     0.00000000    0.00000000    0.00000000
     atom    3 type  2   force =     0.00000000    0.00000000    0.00000000
     atom    4 type  2   force =     0.00000000    0.00000000    0.00000000

     Total force =     0.000000     Total SCF correction =     0.000000

     General routines

     Parallel routines

   This run was terminated on:   4:51:30  15Nov2017

   JOB DONE.