     Program PWSCF v.5.1rc2 starts on 14Nov2017 at 14:18:32

     Current dimensions of program PWSCF are:
     Max number of different atomic species (ntypx) = 10
     Max number of k-points (npk) =  40000
     Max angular momentum in pseudopotentials (lmaxx) =  3

     IMPORTANT: XC functional enforced from input :
     Exchange-correlation      = BEEF-VDW ( 1  4 27 13 2)
     Any further DFT definition will be discarded
     Please, verify this is what you really want

     Found symmetry operation: I + ( -0.5000 -0.5000  0.0000)
     This is a supercell, fractional translations are disabled

     bravais-lattice index     =            0
     lattice parameter (alat)  =       1.8897  a.u.
     unit-cell volume          =     466.6430 (a.u.)^3
     number of atoms/cell      =            4
     number of atomic types    =            2
     number of electrons       =        58.00
     number of Kohn-Sham states=           49
     kinetic-energy cutoff     =      58.7989  Ry
     charge density cutoff     =     587.9892  Ry
     convergence threshold     =      1.0E-06
     mixing beta               =       0.1000
     number of iterations used =           10  plain     mixing
     Exchange-correlation      = BEEF-VDW ( 1  4 27 13 2)

     celldm(1)=   1.889726  celldm(2)=   0.000000  celldm(3)=   0.000000
     celldm(4)=   0.000000  celldm(5)=   0.000000  celldm(6)=   0.000000

     crystal axes: (cart. coord. in units of alat)
               a(1) = (   4.601579   0.000000   0.000000 )
               a(2) = (   0.000000   4.601579   0.000000 )
               a(3) = (   0.000000   0.000000   3.265685 )

     reciprocal axes: (cart. coord. in units 2 pi/alat)
               b(1) = (  0.217317  0.000000  0.000000 )
               b(2) = (  0.000000  0.217317  0.000000 )
               b(3) = (  0.000000  0.000000  0.306214 )

     PseudoPot. # 1 for In read from file:
     /home/users/vossj/suncat/psp/gbrv1.5pbe/In.UPF
     MD5 check sum: 90777abd96fbb83f2e67db2a40c566b9
     Pseudo is Ultrasoft + core correction, Zval = 13.0
     Generated by new atomic code, or converted to UPF format
     Using radial grid of  889 points,  6 beta functions with:
                l(1) =   0
                l(2) =   0
                l(3) =   1
                l(4) =   1
                l(5) =   2
                l(6) =   2
     Q(r) pseudized with  6 coefficients,  rinner =    1.400   1.400   1.400
                                                       1.400   1.400

     PseudoPot. # 2 for Os read from file:
     /home/users/vossj/suncat/psp/gbrv1.5pbe/Os.UPF
     MD5 check sum: a3fb40a04f0c37c25c34bbc47164c9a8
     Pseudo is Ultrasoft + core correction, Zval = 16.0
     Generated by new atomic code, or converted to UPF format
     Using radial grid of  983 points,  8 beta functions with:
                l(1) =   0
                l(2) =   0
                l(3) =   1
                l(4) =   1
                l(5) =   2
                l(6) =   2
                l(7) =   3
                l(8) =   3
     Q(r) pseudized with  8 coefficients,  rinner =    1.150   1.150   1.150
                                                       1.150   1.150   1.150
                                                       1.150

     vdW kernel table read from file vdW_kernel_table
     MD5 check sum: 095c7af220d748ca6e76c0b4c6cfb241

     atomic species   valence    mass     pseudopotential
        In1           13.00   114.82000     In( 1.00)
        Os1           16.00   190.20000     Os( 1.00)

     16 Sym. Ops., with inversion, found

   Cartesian axes

     site n.     atom                  positions (alat units)
         1           In1 tau(   1) = (   0.0000000   0.0000000   0.0000000  )
         2           In1 tau(   2) = (   2.3007897   2.3007897   0.0000000  )
         3           Os1 tau(   3) = (   2.3007897   0.0000000   1.6328425  )
         4           Os1 tau(   4) = (   0.0000000   2.3007897   1.6328425  )

     number of k points=    75  Fermi-Dirac smearing, width (Ry)=  0.0073
                       cart. coord. in units 2pi/alat
        k(    1) = (   0.0000000   0.0000000   0.0000000), wk =   0.0027435
        k(    2) = (   0.0000000   0.0000000   0.0340238), wk =   0.0054870
        k(    3) = (   0.0000000   0.0000000   0.0680477), wk =   0.0054870
        k(    4) = (   0.0000000   0.0000000   0.1020715), wk =   0.0054870
        k(    5) = (   0.0000000   0.0000000   0.1360953), wk =   0.0054870
        k(    6) = (   0.0000000   0.0241463   0.0000000), wk =   0.0109739
        k(    7) = (   0.0000000   0.0241463   0.0340238), wk =   0.0219479
        k(    8) = (   0.0000000   0.0241463   0.0680477), wk =   0.0219479
        k(    9) = (   0.0000000   0.0241463   0.1020715), wk =   0.0219479
        k(   10) = (   0.0000000   0.0241463   0.1360953), wk =   0.0219479
        k(   11) = (   0.0000000   0.0482926   0.0000000), wk =   0.0109739
        k(   12) = (   0.0000000   0.0482926   0.0340238), wk =   0.0219479
        k(   13) = (   0.0000000   0.0482926   0.0680477), wk =   0.0219479
        k(   14) = (   0.0000000   0.0482926   0.1020715), wk =   0.0219479
        k(   15) = (   0.0000000   0.0482926   0.1360953), wk =   0.0219479
        k(   16) = (   0.0000000   0.0724389   0.0000000), wk =   0.0109739
        k(   17) = (   0.0000000   0.0724389   0.0340238), wk =   0.0219479
        k(   18) = (   0.0000000   0.0724389   0.0680477), wk =   0.0219479
        k(   19) = (   0.0000000   0.0724389   0.1020715), wk =   0.0219479
        k(   20) = (   0.0000000   0.0724389   0.1360953), wk =   0.0219479
        k(   21) = (   0.0000000   0.0965852   0.0000000), wk =   0.0109739
        k(   22) = (   0.0000000   0.0965852   0.0340238), wk =   0.0219479
        k(   23) = (   0.0000000   0.0965852   0.0680477), wk =   0.0219479
        k(   24) = (   0.0000000   0.0965852   0.1020715), wk =   0.0219479
        k(   25) = (   0.0000000   0.0965852   0.1360953), wk =   0.0219479
        k(   26) = (   0.0241463   0.0241463   0.0000000), wk =   0.0109739
        k(   27) = (   0.0241463   0.0241463   0.0340238), wk =   0.0219479
        k(   28) = (   0.0241463   0.0241463   0.0680477), wk =   0.0219479
        k(   29) = (   0.0241463   0.0241463   0.1020715), wk =   0.0219479
        k(   30) = (   0.0241463   0.0241463   0.1360953), wk =   0.0219479
        k(   31) = (   0.0241463   0.0482926   0.0000000), wk =   0.0219479
        k(   32) = (   0.0241463   0.0482926   0.0340238), wk =   0.0438957
        k(   33) = (   0.0241463   0.0482926   0.0680477), wk =   0.0438957
        k(   34) = (   0.0241463   0.0482926   0.1020715), wk =   0.0438957
        k(   35) = (   0.0241463   0.0482926   0.1360953), wk =   0.0438957
        k(   36) = (   0.0241463   0.0724389   0.0000000), wk =   0.0219479
        k(   37) = (   0.0241463   0.0724389   0.0340238), wk =   0.0438957
        k(   38) = (   0.0241463   0.0724389   0.0680477), wk =   0.0438957
        k(   39) = (   0.0241463   0.0724389   0.1020715), wk =   0.0438957
        k(   40) = (   0.0241463   0.0724389   0.1360953), wk =   0.0438957
        k(   41) = (   0.0241463   0.0965852   0.0000000), wk =   0.0219479
        k(   42) = (   0.0241463   0.0965852   0.0340238), wk =   0.0438957
        k(   43) = (   0.0241463   0.0965852   0.0680477), wk =   0.0438957
        k(   44) = (   0.0241463   0.0965852   0.1020715), wk =   0.0438957
        k(   45) = (   0.0241463   0.0965852   0.1360953), wk =   0.0438957
        k(   46) = (   0.0482926   0.0482926   0.0000000), wk =   0.0109739
        k(   47) = (   0.0482926   0.0482926   0.0340238), wk =   0.0219479
        k(   48) = (   0.0482926   0.0482926   0.0680477), wk =   0.0219479
        k(   49) = (   0.0482926   0.0482926   0.1020715), wk =   0.0219479
        k(   50) = (   0.0482926   0.0482926   0.1360953), wk =   0.0219479
        k(   51) = (   0.0482926   0.0724389   0.0000000), wk =   0.0219479
        k(   52) = (   0.0482926   0.0724389   0.0340238), wk =   0.0438957
        k(   53) = (   0.0482926   0.0724389   0.0680477), wk =   0.0438957
        k(   54) = (   0.0482926   0.0724389   0.1020715), wk =   0.0438957
        k(   55) = (   0.0482926   0.0724389   0.1360953), wk =   0.0438957
        k(   56) = (   0.0482926   0.0965852   0.0000000), wk =   0.0219479
        k(   57) = (   0.0482926   0.0965852   0.0340238), wk =   0.0438957
        k(   58) = (   0.0482926   0.0965852   0.0680477), wk =   0.0438957
        k(   59) = (   0.0482926   0.0965852   0.1020715), wk =   0.0438957
        k(   60) = (   0.0482926   0.0965852   0.1360953), wk =   0.0438957
        k(   61) = (   0.0724389   0.0724389   0.0000000), wk =   0.0109739
        k(   62) = (   0.0724389   0.0724389   0.0340238), wk =   0.0219479
        k(   63) = (   0.0724389   0.0724389   0.0680477), wk =   0.0219479
        k(   64) = (   0.0724389   0.0724389   0.1020715), wk =   0.0219479
        k(   65) = (   0.0724389   0.0724389   0.1360953), wk =   0.0219479
        k(   66) = (   0.0724389   0.0965852   0.0000000), wk =   0.0219479
        k(   67) = (   0.0724389   0.0965852   0.0340238), wk =   0.0438957
        k(   68) = (   0.0724389   0.0965852   0.0680477), wk =   0.0438957
        k(   69) = (   0.0724389   0.0965852   0.1020715), wk =   0.0438957
        k(   70) = (   0.0724389   0.0965852   0.1360953), wk =   0.0438957
        k(   71) = (   0.0965852   0.0965852   0.0000000), wk =   0.0109739
        k(   72) = (   0.0965852   0.0965852   0.0340238), wk =   0.0219479
        k(   73) = (   0.0965852   0.0965852   0.0680477), wk =   0.0219479
        k(   74) = (   0.0965852   0.0965852   0.1020715), wk =   0.0219479
        k(   75) = (   0.0965852   0.0965852   0.1360953), wk =   0.0219479

     Largest allocated arrays     est. size (Mb)     dimensions
     Largest temporary arrays     est. size (Mb)     dimensions

     Initial potential from superposition of free atoms
     Check: negative starting charge=   -0.249488

     starting charge   53.99993, renormalised to   58.00000

     negative rho (up, down):  2.680E-01 0.000E+00

     *
     * You are using vdW-DF for exchange-correlation in this calculation.
     * Please cite the following three references that made this development
     * possible:
     *
     *   M. Dion, H. Rydberg, E. Schroder, D. C. Langreth, and
     *   B. I. Lundqvist, Phys. Rev. Lett. 92, 246401 (2004).
     *
     *   T. Thonhauser, V. R. Cooper, S. Li, A. Puzder, P. Hyldgaard, and
     *   D. C. Langreth, Phys. Rev. B 76, 125112 (2007).
     *
     *   G. Roman-Perez and J. M. Soler, Phys. Rev. Lett. 103, 096102 (2009).
     *
     *
     * If you are using vdW-DF2, please also cite:
     *
     *   K. Lee, E. D. Murray, L. Kong, B. I. Lundqvist, and
     *   D. C. Langreth, Phys. Rev. B 82, 081101(R) (2010).
     *
     *
     * If you are calculating the stress with vdW-DF, please also cite:
     *
     *   R. Sabatini, E. Kucukbenli, B. Kolb, T. Thonhauser, and
     *   S. de Gironcoli, J. Phys.: Condens. Matter 24, 424209 (2012).
     *

     Carrying out vdW-DF run using the following parameters:

     Nqs =      20    Nr_points =    1024   r_max =   100.000
     q_mesh =
               0.00001000     0.04494208     0.09755937     0.15916263
               0.23128650     0.31572767     0.41458969     0.53033537
               0.66584808     0.82450364     1.01025438     1.22772762
               1.48234092     1.78043706     2.12944203     2.53805004
               3.01644009     3.57652955     4.23227104     5.00000000

     Gradients computed in reciprocal space

     Starting wfc are   44 randomized atomic wfcs +    5 random wfc

     Self-consistent Calculation

     iteration #  1     ecut=    58.80 Ry     beta=0.10
     Davidson diagonalization with overlap
     ethr =  1.00E-02,  avg # of iterations =  4.7

[...]

     total energy              =    -669.80069452 Ry
     Harris-Foulkes estimate   =    -670.32026285 Ry
     estimated scf accuracy    <       3.31799345 Ry

[...]

     total energy              =    -669.07131769 Ry
     Harris-Foulkes estimate   =    -669.07131768 Ry
     estimated scf accuracy    <       0.00000283 Ry

     iteration # 13     ecut=    58.80 Ry     beta=0.10
     Davidson diagonalization with overlap
     ethr =  4.89E-09,  avg # of iterations =  2.0

     negative rho (up, down):  2.316E-01 0.000E+00

     End of self-consistent calculation

          k = 0.0000 0.0000 0.0000 (  3547 PWs)   bands (ev):

   -67.7194 -67.7148 -27.0937 -27.0937 -27.0213 -27.0213 -27.0148 -27.0017
     3.2481   3.2528   3.2633   3.4549   3.5053   3.5053   3.6649   3.6649
     3.6688   3.9021   7.5386  12.0498  15.1740  15.1894  15.3048  15.9611
    15.9611  17.2514  17.2514  18.0868  18.0868  18.0962  19.1216  21.2760
    22.4821  22.5024  22.5839  22.5839  27.3530  27.5053  29.1681  29.1681
    30.7947  30.8171  33.1269  33.3438  33.4117  33.4117  33.7713  33.9150
    34.6270

[...]

          k = 0.0966 0.0966 0.1361 (  3512 PWs)   bands (ev):

   -67.7150 -67.7149 -27.0941 -27.0920 -27.0820 -27.0815 -27.0111 -27.0090
     3.2768   3.2810   3.4453   3.4604   3.5083   3.5134   3.5151   3.5206
     3.8775   3.8884  11.9826  12.0438  14.7683  14.9779  15.7573  15.9069
    15.9476  16.1748  17.2157  17.2913  17.4766  17.4906  19.1665  19.1998
    21.3820  21.4515  22.4856  22.7302  27.4527  27.7014  29.1691  29.2673
    29.2718  29.3790  32.7177  32.8770  33.8019  33.8201  34.7666  34.9706
    37.4831

     the Fermi energy is    17.8547 ev

!    total energy              =    -669.07132272 Ry
     Harris-Foulkes estimate   =    -669.07131791 Ry
     estimated scf accuracy    <       0.00000017 Ry

     The total energy is the sum of the following terms:

     one-electron contribution =    -117.72111764 Ry
     hartree contribution      =     104.97381096 Ry
     xc contribution           =    -156.18804300 Ry
     ewald contribution        =    -500.12564817 Ry
     smearing contrib. (-TS)   =      -0.01032487 Ry

     convergence has been achieved in  13 iterations

     Forces acting on atoms (Ry/au):

     negative rho (up, down):  2.316E-01 0.000E+00
     atom    1 type  1   force =     0.00000000    0.00000000    0.00000000
     atom    2 type  1   force =     0.00000000    0.00000000    0.00000000
     atom    3 type  2   force =     0.00000000    0.00000000    0.00000000
     atom    4 type  2   force =     0.00000000    0.00000000    0.00000000

     Total force =     0.000000     Total SCF correction =     0.000000

     General routines

     Parallel routines

   This run was terminated on:  14:19:22  14Nov2017

   JOB DONE.