     Program PWSCF v.5.1rc2 starts on 15Nov2017 at  7:59:37

     Current dimensions of program PWSCF are:
     Max number of different atomic species (ntypx) = 10
     Max number of k-points (npk) =  40000
     Max angular momentum in pseudopotentials (lmaxx) =  3

     IMPORTANT: XC functional enforced from input :
     Exchange-correlation      = BEEF-VDW ( 1  4 27 13 2)
     Any further DFT definition will be discarded
     Please, verify this is what you really want

     Found symmetry operation: I + ( -0.5000 -0.5000  0.0000)
     This is a supercell, fractional translations are disabled

     bravais-lattice index     =            0
     lattice parameter (alat)  =       1.8897  a.u.
     unit-cell volume          =     522.2964 (a.u.)^3
     number of atoms/cell      =            4
     number of atomic types    =            2
     number of electrons       =        50.00
     number of Kohn-Sham states=           45
     kinetic-energy cutoff     =      58.7989  Ry
     charge density cutoff     =     587.9892  Ry
     convergence threshold     =      1.0E-06
     mixing beta               =       0.1000
     number of iterations used =           10  plain     mixing
     Exchange-correlation      = BEEF-VDW ( 1  4 27 13 2)

     celldm(1)=   1.889726  celldm(2)=   0.000000  celldm(3)=   0.000000
     celldm(4)=   0.000000  celldm(5)=   0.000000  celldm(6)=   0.000000

     crystal axes: (cart. coord. in units of alat)
               a(1) = (   4.152593   0.000000   0.000000 )
               a(2) = (   0.000000   4.152593   0.000000 )
               a(3) = (   0.000000   0.000000   4.488299 )

     reciprocal axes: (cart. coord. in units 2 pi/alat)
               b(1) = (  0.240813  0.000000  0.000000 )
               b(2) = (  0.000000  0.240813  0.000000 )
               b(3) = (  0.000000  0.000000  0.222802 )

     PseudoPot. # 1 for Ta read from file:
     /home/users/vossj/suncat/psp/gbrv1.5pbe/Ta.UPF
     MD5 check sum: f8bbe9446314a3b8ea5d9f3e3836c939
     Pseudo is Ultrasoft + core correction, Zval = 13.0
     Generated by new atomic code, or converted to UPF format
     Using radial grid of  921 points,  7 beta functions with:
                l(1) =   0
                l(2) =   0
                l(3) =   1
                l(4) =   1
                l(5) =   2
                l(6) =   2
                l(7) =   3
     Q(r) pseudized with  6 coefficients,  rinner =    1.300   1.300   1.300
                                                       1.300   1.300   1.300
                                                       1.300

     PseudoPot. # 2 for Hg read from file:
     /home/users/vossj/suncat/psp/gbrv1.5pbe/Hg.UPF
     MD5 check sum: 8f42caffe07f7fd9c0a564347f8c5498
     Pseudo is Ultrasoft + core correction, Zval = 12.0
     Generated by new atomic code, or converted to UPF format
     Using radial grid of  985 points,  6 beta functions with:
                l(1) =   0
                l(2) =   0
                l(3) =   1
                l(4) =   1
                l(5) =   2
                l(6) =   2
     Q(r) pseudized with  8 coefficients,  rinner =    2.000   2.000   2.000
                                                       2.000   2.000

     vdW kernel table read from file vdW_kernel_table
     MD5 check sum: 095c7af220d748ca6e76c0b4c6cfb241

     atomic species   valence    mass     pseudopotential
        Ta1           13.00   180.94790     Ta( 1.00)
        Hg1           12.00   200.59000     Hg( 1.00)

     16 Sym. Ops., with inversion, found

   Cartesian axes

     site n.     atom                  positions (alat units)
         1           Ta1 tau(   1) = (   0.0000000   0.0000000   0.0000000  )
         2           Ta1 tau(   2) = (   2.0762963   2.0762963   0.0000000  )
         3           Hg1 tau(   3) = (   2.0762963   0.0000000   2.2441496  )
         4           Hg1 tau(   4) = (   0.0000000   2.0762963   2.2441496  )

     number of k points=    75  Fermi-Dirac smearing, width (Ry)=  0.0073
                       cart. coord. in units 2pi/alat
        k(    1) = (   0.0000000   0.0000000   0.0000000), wk =   0.0027435
        k(    2) = (   0.0000000   0.0000000   0.0247557), wk =   0.0054870
        k(    3) = (   0.0000000   0.0000000   0.0495115), wk =   0.0054870
        k(    4) = (   0.0000000   0.0000000   0.0742672), wk =   0.0054870
        k(    5) = (   0.0000000   0.0000000   0.0990229), wk =   0.0054870
        k(    6) = (   0.0000000   0.0267570   0.0000000), wk =   0.0109739
        k(    7) = (   0.0000000   0.0267570   0.0247557), wk =   0.0219479
        k(    8) = (   0.0000000   0.0267570   0.0495115), wk =   0.0219479
        k(    9) = (   0.0000000   0.0267570   0.0742672), wk =   0.0219479
        k(   10) = (   0.0000000   0.0267570   0.0990229), wk =   0.0219479
        k(   11) = (   0.0000000   0.0535141   0.0000000), wk =   0.0109739
        k(   12) = (   0.0000000   0.0535141   0.0247557), wk =   0.0219479
        k(   13) = (   0.0000000   0.0535141   0.0495115), wk =   0.0219479
        k(   14) = (   0.0000000   0.0535141   0.0742672), wk =   0.0219479
        k(   15) = (   0.0000000   0.0535141   0.0990229), wk =   0.0219479
        k(   16) = (   0.0000000   0.0802711   0.0000000), wk =   0.0109739
        k(   17) = (   0.0000000   0.0802711   0.0247557), wk =   0.0219479
        k(   18) = (   0.0000000   0.0802711   0.0495115), wk =   0.0219479
        k(   19) = (   0.0000000   0.0802711   0.0742672), wk =   0.0219479
        k(   20) = (   0.0000000   0.0802711   0.0990229), wk =   0.0219479
        k(   21) = (   0.0000000   0.1070282   0.0000000), wk =   0.0109739
        k(   22) = (   0.0000000   0.1070282   0.0247557), wk =   0.0219479
        k(   23) = (   0.0000000   0.1070282   0.0495115), wk =   0.0219479
        k(   24) = (   0.0000000   0.1070282   0.0742672), wk =   0.0219479
        k(   25) = (   0.0000000   0.1070282   0.0990229), wk =   0.0219479
        k(   26) = (   0.0267570   0.0267570   0.0000000), wk =   0.0109739
        k(   27) = (   0.0267570   0.0267570   0.0247557), wk =   0.0219479
        k(   28) = (   0.0267570   0.0267570   0.0495115), wk =   0.0219479
        k(   29) = (   0.0267570   0.0267570   0.0742672), wk =   0.0219479
        k(   30) = (   0.0267570   0.0267570   0.0990229), wk =   0.0219479
        k(   31) = (   0.0267570   0.0535141   0.0000000), wk =   0.0219479
        k(   32) = (   0.0267570   0.0535141   0.0247557), wk =   0.0438957
        k(   33) = (   0.0267570   0.0535141   0.0495115), wk =   0.0438957
        k(   34) = (   0.0267570   0.0535141   0.0742672), wk =   0.0438957
        k(   35) = (   0.0267570   0.0535141   0.0990229), wk =   0.0438957
        k(   36) = (   0.0267570   0.0802711   0.0000000), wk =   0.0219479
        k(   37) = (   0.0267570   0.0802711   0.0247557), wk =   0.0438957
        k(   38) = (   0.0267570   0.0802711   0.0495115), wk =   0.0438957
        k(   39) = (   0.0267570   0.0802711   0.0742672), wk =   0.0438957
        k(   40) = (   0.0267570   0.0802711   0.0990229), wk =   0.0438957
        k(   41) = (   0.0267570   0.1070282   0.0000000), wk =   0.0219479
        k(   42) = (   0.0267570   0.1070282   0.0247557), wk =   0.0438957
        k(   43) = (   0.0267570   0.1070282   0.0495115), wk =   0.0438957
        k(   44) = (   0.0267570   0.1070282   0.0742672), wk =   0.0438957
        k(   45) = (   0.0267570   0.1070282   0.0990229), wk =   0.0438957
        k(   46) = (   0.0535141   0.0535141   0.0000000), wk =   0.0109739
        k(   47) = (   0.0535141   0.0535141   0.0247557), wk =   0.0219479
        k(   48) = (   0.0535141   0.0535141   0.0495115), wk =   0.0219479
        k(   49) = (   0.0535141   0.0535141   0.0742672), wk =   0.0219479
        k(   50) = (   0.0535141   0.0535141   0.0990229), wk =   0.0219479
        k(   51) = (   0.0535141   0.0802711   0.0000000), wk =   0.0219479
        k(   52) = (   0.0535141   0.0802711   0.0247557), wk =   0.0438957
        k(   53) = (   0.0535141   0.0802711   0.0495115), wk =   0.0438957
        k(   54) = (   0.0535141   0.0802711   0.0742672), wk =   0.0438957
        k(   55) = (   0.0535141   0.0802711   0.0990229), wk =   0.0438957
        k(   56) = (   0.0535141   0.1070282   0.0000000), wk =   0.0219479
        k(   57) = (   0.0535141   0.1070282   0.0247557), wk =   0.0438957
        k(   58) = (   0.0535141   0.1070282   0.0495115), wk =   0.0438957
        k(   59) = (   0.0535141   0.1070282   0.0742672), wk =   0.0438957
        k(   60) = (   0.0535141   0.1070282   0.0990229), wk =   0.0438957
        k(   61) = (   0.0802711   0.0802711   0.0000000), wk =   0.0109739
        k(   62) = (   0.0802711   0.0802711   0.0247557), wk =   0.0219479
        k(   63) = (   0.0802711   0.0802711   0.0495115), wk =   0.0219479
        k(   64) = (   0.0802711   0.0802711   0.0742672), wk =   0.0219479
        k(   65) = (   0.0802711   0.0802711   0.0990229), wk =   0.0219479
        k(   66) = (   0.0802711   0.1070282   0.0000000), wk =   0.0219479
        k(   67) = (   0.0802711   0.1070282   0.0247557), wk =   0.0438957
        k(   68) = (   0.0802711   0.1070282   0.0495115), wk =   0.0438957
        k(   69) = (   0.0802711   0.1070282   0.0742672), wk =   0.0438957
        k(   70) = (   0.0802711   0.1070282   0.0990229), wk =   0.0438957
        k(   71) = (   0.1070282   0.1070282   0.0000000), wk =   0.0109739
        k(   72) = (   0.1070282   0.1070282   0.0247557), wk =   0.0219479
        k(   73) = (   0.1070282   0.1070282   0.0495115), wk =   0.0219479
        k(   74) = (   0.1070282   0.1070282   0.0742672), wk =   0.0219479
        k(   75) = (   0.1070282   0.1070282   0.0990229), wk =   0.0219479

     Largest allocated arrays     est. size (Mb)     dimensions
     Largest temporary arrays     est. size (Mb)     dimensions

     Initial potential from superposition of free atoms
     Check: negative starting charge=   -0.189892

     starting charge   49.99766, renormalised to   50.00000

     negative rho (up, down):  1.899E-01 0.000E+00

     *
     * You are using vdW-DF for exchange-correlation in this calculation.
     * Please cite the following three references that made this development
     * possible:
     *
     *   M. Dion, H. Rydberg, E. Schroder, D. C. Langreth, and
     *   B. I. Lundqvist, Phys. Rev. Lett. 92, 246401 (2004).
     *
     *   T. Thonhauser, V. R. Cooper, S. Li, A. Puzder, P. Hyldgaard, and
     *   D. C. Langreth, Phys. Rev. B 76, 125112 (2007).
     *
     *   G. Roman-Perez and J. M. Soler, Phys. Rev. Lett. 103, 096102 (2009).
     *
     *
     * If you are using vdW-DF2, please also cite:
     *
     *   K. Lee, E. D. Murray, L. Kong, B. I. Lundqvist, and
     *   D. C. Langreth, Phys. Rev. B 82, 081101(R) (2010).
     *
     *
     * If you are calculating the stress with vdW-DF, please also cite:
     *
     *   R. Sabatini, E. Kucukbenli, B. Kolb, T. Thonhauser, and
     *   S. de Gironcoli, J. Phys.: Condens. Matter 24, 424209 (2012).
     *

     Carrying out vdW-DF run using the following parameters:

     Nqs =      20    Nr_points =    1024   r_max =   100.000
     q_mesh =
               0.00001000     0.04494208     0.09755937     0.15916263
               0.23128650     0.31572767     0.41458969     0.53033537
               0.66584808     0.82450364     1.01025438     1.22772762
               1.48234092     1.78043706     2.12944203     2.53805004
               3.01644009     3.57652955     4.23227104     5.00000000

     Gradients computed in reciprocal space

     Starting wfc are   44 randomized atomic wfcs +    1 random wfc

     Self-consistent Calculation

     iteration #  1     ecut=    58.80 Ry     beta=0.10
     Davidson diagonalization with overlap
     ethr =  1.00E-02,  avg # of iterations =  4.7

     Threshold (ethr) on eigenvalues was too large:
     Diagonalizing with lowered threshold

     Davidson diagonalization with overlap
     ethr =  7.21E-04,  avg # of iterations =  1.1

[...]

     total energy              =    -504.63284250 Ry
     Harris-Foulkes estimate   =    -504.68841568 Ry
     estimated scf accuracy    <       0.36092405 Ry

[...]

     total energy              =    -504.60251447 Ry
     Harris-Foulkes estimate   =    -504.60251572 Ry
     estimated scf accuracy    <       0.00000351 Ry

     iteration # 10     ecut=    58.80 Ry     beta=0.10
     Davidson diagonalization with overlap
     ethr =  7.01E-09,  avg # of iterations =  1.4

     negative rho (up, down):  2.027E-01 0.000E+00

     End of self-consistent calculation

          k = 0.0000 0.0000 0.0000 (  3953 PWs)   bands (ev):

   -52.4040 -52.3363 -18.9071 -18.8759 -18.8759 -18.7786 -18.3530 -18.3530
     6.3352   7.2527   7.3121   7.7051   7.8593   7.8593   8.5192   9.0407
     9.0407   9.6061  10.3469  13.4546  14.1478  14.3209  16.0113  16.9509
    16.9509  17.0514  17.0514  17.8240  19.2109  19.2109  20.6143  20.7222
    22.2777  22.5392  22.9218  25.5255  25.5255  25.6465  25.6465  26.0301
    26.2901  28.7215  31.7048  32.5712  32.6427

[...]

          k = 0.1070 0.1070 0.0990 (  3972 PWs)   bands (ev):

   -52.3708 -52.3688 -18.9476 -18.9326 -18.8480 -18.8440 -18.3190 -18.3025
     7.5110   7.5471   7.5592   7.5892   8.7446   8.7616   8.7745   8.8173
     9.1327   9.1668  11.9306  12.3751  14.0643  14.1436  14.7047  14.8018
    15.3848  15.5547  18.1322  18.1393  18.3258  18.4168  19.3829  19.3968
    20.4190  20.5969  23.9275  23.9429  27.6814  27.7237  28.2577  28.4184
    30.3033  30.7260  31.0036  31.2928  31.7027

     the Fermi energy is    16.1773 ev

!    total energy              =    -504.60251669 Ry
     Harris-Foulkes estimate   =    -504.60251487 Ry
     estimated scf accuracy    <       0.00000022 Ry

     The total energy is the sum of the following terms:

     one-electron contribution =     -38.52064448 Ry
     hartree contribution      =      58.19230684 Ry
     xc contribution           =    -168.23611603 Ry
     ewald contribution        =    -356.03206717 Ry
     smearing contrib. (-TS)   =      -0.00599585 Ry

     convergence has been achieved in  10 iterations

     Forces acting on atoms (Ry/au):

     negative rho (up, down):  2.027E-01 0.000E+00
     atom    1 type  1   force =     0.00000000    0.00000000    0.00000000
     atom    2 type  1   force =     0.00000000    0.00000000    0.00000000
     atom    3 type  2   force =     0.00000000    0.00000000    0.00000000
     atom    4 type  2   force =     0.00000000    0.00000000    0.00000000

     Total force =     0.000000     Total SCF correction =     0.000000

     General routines

     Parallel routines

   This run was terminated on:   8: 0:14  15Nov2017

   JOB DONE.