     Program PWSCF v.5.1rc2 starts on 14Nov2017 at 14:41:28

     Current dimensions of program PWSCF are:
     Max number of different atomic species (ntypx) = 10
     Max number of k-points (npk) =  40000
     Max angular momentum in pseudopotentials (lmaxx) =  3

     IMPORTANT: XC functional enforced from input :
     Exchange-correlation      = BEEF-VDW ( 1  4 27 13 2)
     Any further DFT definition will be discarded
     Please, verify this is what you really want

     Found symmetry operation: I + ( -0.5000 -0.5000  0.0000)
     This is a supercell, fractional translations are disabled

     bravais-lattice index     =            0
     lattice parameter (alat)  =       1.8897  a.u.
     unit-cell volume          =     841.5120 (a.u.)^3
     number of atoms/cell      =            4
     number of atomic types    =            2
     number of electrons       =        54.00
     number of Kohn-Sham states=           47
     kinetic-energy cutoff     =      58.7989  Ry
     charge density cutoff     =     587.9892  Ry
     convergence threshold     =      1.0E-06
     mixing beta               =       0.1000
     number of iterations used =           10  plain     mixing
     Exchange-correlation      = BEEF-VDW ( 1  4 27 13 2)

     celldm(1)=   1.889726  celldm(2)=   0.000000  celldm(3)=   0.000000
     celldm(4)=   0.000000  celldm(5)=   0.000000  celldm(6)=   0.000000

     crystal axes: (cart. coord. in units of alat)
               a(1) = (   5.146645   0.000000   0.000000 )
               a(2) = (   0.000000   5.146645   0.000000 )
               a(3) = (   0.000000   0.000000   4.707771 )

     reciprocal axes: (cart. coord. in units 2 pi/alat)
               b(1) = (  0.194301  0.000000  0.000000 )
               b(2) = (  0.000000  0.194301  0.000000 )
               b(3) = (  0.000000  0.000000  0.212415 )

     PseudoPot. # 1 for In read from file:
     /home/users/vossj/suncat/psp/gbrv1.5pbe/In.UPF
     MD5 check sum: 90777abd96fbb83f2e67db2a40c566b9
     Pseudo is Ultrasoft + core correction, Zval = 13.0
     Generated by new atomic code, or converted to UPF format
     Using radial grid of  889 points,  6 beta functions with:
                l(1) =   0
                l(2) =   0
                l(3) =   1
                l(4) =   1
                l(5) =   2
                l(6) =   2
     Q(r) pseudized with  6 coefficients,  rinner =    1.400   1.400   1.400
                                                       1.400   1.400

     PseudoPot. # 2 for Pb read from file:
     /home/users/vossj/suncat/psp/gbrv1.5pbe/Pb.UPF
     MD5 check sum: 3d1c1779aa92214d1e8f3a7db79003e2
     Pseudo is Ultrasoft + core correction, Zval = 14.0
     Generated by new atomic code, or converted to UPF format
     Using radial grid of  899 points,  6 beta functions with:
                l(1) =   0
                l(2) =   0
                l(3) =   1
                l(4) =   1
                l(5) =   2
                l(6) =   2
     Q(r) pseudized with  6 coefficients,  rinner =    1.000   1.000   1.000
                                                       1.000   1.000

     vdW kernel table read from file vdW_kernel_table
     MD5 check sum: 095c7af220d748ca6e76c0b4c6cfb241

     atomic species   valence    mass     pseudopotential
        In1           13.00   114.82000     In( 1.00)
        Pb1           14.00   207.20000     Pb( 1.00)

     16 Sym. Ops., with inversion, found

   Cartesian axes

     site n.     atom                  positions (alat units)
         1           In1 tau(   1) = (   0.0000000   0.0000000   0.0000000  )
         2           In1 tau(   2) = (   2.5733225   2.5733225   0.0000000  )
         3           Pb1 tau(   3) = (   2.5733225   0.0000000   2.3538853  )
         4           Pb1 tau(   4) = (   0.0000000   2.5733225   2.3538853  )

     number of k points=    75  Fermi-Dirac smearing, width (Ry)=  0.0073
                       cart. coord. in units 2pi/alat
        k(    1) = (   0.0000000   0.0000000   0.0000000), wk =   0.0027435
        k(    2) = (   0.0000000   0.0000000   0.0236016), wk =   0.0054870
        k(    3) = (   0.0000000   0.0000000   0.0472033), wk =   0.0054870
        k(    4) = (   0.0000000   0.0000000   0.0708049), wk =   0.0054870
        k(    5) = (   0.0000000   0.0000000   0.0944066), wk =   0.0054870
        k(    6) = (   0.0000000   0.0215890   0.0000000), wk =   0.0109739
        k(    7) = (   0.0000000   0.0215890   0.0236016), wk =   0.0219479
        k(    8) = (   0.0000000   0.0215890   0.0472033), wk =   0.0219479
        k(    9) = (   0.0000000   0.0215890   0.0708049), wk =   0.0219479
        k(   10) = (   0.0000000   0.0215890   0.0944066), wk =   0.0219479
        k(   11) = (   0.0000000   0.0431781   0.0000000), wk =   0.0109739
        k(   12) = (   0.0000000   0.0431781   0.0236016), wk =   0.0219479
        k(   13) = (   0.0000000   0.0431781   0.0472033), wk =   0.0219479
        k(   14) = (   0.0000000   0.0431781   0.0708049), wk =   0.0219479
        k(   15) = (   0.0000000   0.0431781   0.0944066), wk =   0.0219479
        k(   16) = (   0.0000000   0.0647671   0.0000000), wk =   0.0109739
        k(   17) = (   0.0000000   0.0647671   0.0236016), wk =   0.0219479
        k(   18) = (   0.0000000   0.0647671   0.0472033), wk =   0.0219479
        k(   19) = (   0.0000000   0.0647671   0.0708049), wk =   0.0219479
        k(   20) = (   0.0000000   0.0647671   0.0944066), wk =   0.0219479
        k(   21) = (   0.0000000   0.0863562   0.0000000), wk =   0.0109739
        k(   22) = (   0.0000000   0.0863562   0.0236016), wk =   0.0219479
        k(   23) = (   0.0000000   0.0863562   0.0472033), wk =   0.0219479
        k(   24) = (   0.0000000   0.0863562   0.0708049), wk =   0.0219479
        k(   25) = (   0.0000000   0.0863562   0.0944066), wk =   0.0219479
        k(   26) = (   0.0215890   0.0215890   0.0000000), wk =   0.0109739
        k(   27) = (   0.0215890   0.0215890   0.0236016), wk =   0.0219479
        k(   28) = (   0.0215890   0.0215890   0.0472033), wk =   0.0219479
        k(   29) = (   0.0215890   0.0215890   0.0708049), wk =   0.0219479
        k(   30) = (   0.0215890   0.0215890   0.0944066), wk =   0.0219479
        k(   31) = (   0.0215890   0.0431781   0.0000000), wk =   0.0219479
        k(   32) = (   0.0215890   0.0431781   0.0236016), wk =   0.0438957
        k(   33) = (   0.0215890   0.0431781   0.0472033), wk =   0.0438957
        k(   34) = (   0.0215890   0.0431781   0.0708049), wk =   0.0438957
        k(   35) = (   0.0215890   0.0431781   0.0944066), wk =   0.0438957
        k(   36) = (   0.0215890   0.0647671   0.0000000), wk =   0.0219479
        k(   37) = (   0.0215890   0.0647671   0.0236016), wk =   0.0438957
        k(   38) = (   0.0215890   0.0647671   0.0472033), wk =   0.0438957
        k(   39) = (   0.0215890   0.0647671   0.0708049), wk =   0.0438957
        k(   40) = (   0.0215890   0.0647671   0.0944066), wk =   0.0438957
        k(   41) = (   0.0215890   0.0863562   0.0000000), wk =   0.0219479
        k(   42) = (   0.0215890   0.0863562   0.0236016), wk =   0.0438957
        k(   43) = (   0.0215890   0.0863562   0.0472033), wk =   0.0438957
        k(   44) = (   0.0215890   0.0863562   0.0708049), wk =   0.0438957
        k(   45) = (   0.0215890   0.0863562   0.0944066), wk =   0.0438957
        k(   46) = (   0.0431781   0.0431781   0.0000000), wk =   0.0109739
        k(   47) = (   0.0431781   0.0431781   0.0236016), wk =   0.0219479
        k(   48) = (   0.0431781   0.0431781   0.0472033), wk =   0.0219479
        k(   49) = (   0.0431781   0.0431781   0.0708049), wk =   0.0219479
        k(   50) = (   0.0431781   0.0431781   0.0944066), wk =   0.0219479
        k(   51) = (   0.0431781   0.0647671   0.0000000), wk =   0.0219479
        k(   52) = (   0.0431781   0.0647671   0.0236016), wk =   0.0438957
        k(   53) = (   0.0431781   0.0647671   0.0472033), wk =   0.0438957
        k(   54) = (   0.0431781   0.0647671   0.0708049), wk =   0.0438957
        k(   55) = (   0.0431781   0.0647671   0.0944066), wk =   0.0438957
        k(   56) = (   0.0431781   0.0863562   0.0000000), wk =   0.0219479
        k(   57) = (   0.0431781   0.0863562   0.0236016), wk =   0.0438957
        k(   58) = (   0.0431781   0.0863562   0.0472033), wk =   0.0438957
        k(   59) = (   0.0431781   0.0863562   0.0708049), wk =   0.0438957
        k(   60) = (   0.0431781   0.0863562   0.0944066), wk =   0.0438957
        k(   61) = (   0.0647671   0.0647671   0.0000000), wk =   0.0109739
        k(   62) = (   0.0647671   0.0647671   0.0236016), wk =   0.0219479
        k(   63) = (   0.0647671   0.0647671   0.0472033), wk =   0.0219479
        k(   64) = (   0.0647671   0.0647671   0.0708049), wk =   0.0219479
        k(   65) = (   0.0647671   0.0647671   0.0944066), wk =   0.0219479
        k(   66) = (   0.0647671   0.0863562   0.0000000), wk =   0.0219479
        k(   67) = (   0.0647671   0.0863562   0.0236016), wk =   0.0438957
        k(   68) = (   0.0647671   0.0863562   0.0472033), wk =   0.0438957
        k(   69) = (   0.0647671   0.0863562   0.0708049), wk =   0.0438957
        k(   70) = (   0.0647671   0.0863562   0.0944066), wk =   0.0438957
        k(   71) = (   0.0863562   0.0863562   0.0000000), wk =   0.0109739
        k(   72) = (   0.0863562   0.0863562   0.0236016), wk =   0.0219479
        k(   73) = (   0.0863562   0.0863562   0.0472033), wk =   0.0219479
        k(   74) = (   0.0863562   0.0863562   0.0708049), wk =   0.0219479
        k(   75) = (   0.0863562   0.0863562   0.0944066), wk =   0.0219479

     Largest allocated arrays     est. size (Mb)     dimensions
     Largest temporary arrays     est. size (Mb)     dimensions

     Initial potential from superposition of free atoms
     Check: negative starting charge=   -0.031886

     starting charge   50.99530, renormalised to   54.00000

     negative rho (up, down):  3.376E-02 0.000E+00

     *
     * You are using vdW-DF for exchange-correlation in this calculation.
     * Please cite the following three references that made this development
     * possible:
     *
     *   M. Dion, H. Rydberg, E. Schroder, D. C. Langreth, and
     *   B. I. Lundqvist, Phys. Rev. Lett. 92, 246401 (2004).
     *
     *   T. Thonhauser, V. R. Cooper, S. Li, A. Puzder, P. Hyldgaard, and
     *   D. C. Langreth, Phys. Rev. B 76, 125112 (2007).
     *
     *   G. Roman-Perez and J. M. Soler, Phys. Rev. Lett. 103, 096102 (2009).
     *
     *
     * If you are using vdW-DF2, please also cite:
     *
     *   K. Lee, E. D. Murray, L. Kong, B. I. Lundqvist, and
     *   D. C. Langreth, Phys. Rev. B 82, 081101(R) (2010).
     *
     *
     * If you are calculating the stress with vdW-DF, please also cite:
     *
     *   R. Sabatini, E. Kucukbenli, B. Kolb, T. Thonhauser, and
     *   S. de Gironcoli, J. Phys.: Condens. Matter 24, 424209 (2012).
     *

     Carrying out vdW-DF run using the following parameters:

     Nqs =      20    Nr_points =    1024   r_max =   100.000
     q_mesh =
               0.00001000     0.04494208     0.09755937     0.15916263
               0.23128650     0.31572767     0.41458969     0.53033537
               0.66584808     0.82450364     1.01025438     1.22772762
               1.48234092     1.78043706     2.12944203     2.53805004
               3.01644009     3.57652955     4.23227104     5.00000000

     Gradients computed in reciprocal space

     Starting wfc are   36 randomized atomic wfcs +   11 random wfc

     Self-consistent Calculation

     iteration #  1     ecut=    58.80 Ry     beta=0.10
     Davidson diagonalization with overlap
     ethr =  1.00E-02,  avg # of iterations =  5.2

[...]

     total energy              =    -602.17998986 Ry
     Harris-Foulkes estimate   =    -602.52162877 Ry
     estimated scf accuracy    <       2.25873325 Ry

[...]

     total energy              =    -601.63740461 Ry
     Harris-Foulkes estimate   =    -601.63696847 Ry
     estimated scf accuracy    <       0.00000111 Ry

     iteration # 11     ecut=    58.80 Ry     beta=0.10
     Davidson diagonalization with overlap
     ethr =  2.06E-09,  avg # of iterations =  2.5

     negative rho (up, down):  3.496E-02 0.000E+00

     End of self-consistent calculation

          k = 0.0000 0.0000 0.0000 (  6393 PWs)   bands (ev):

    -8.1370  -8.0773  -8.0621  -8.0467  -8.0467  -7.9866  -7.9866  -7.9689
    -7.9523  -7.8749  -5.5885  -5.5500  -5.5200  -5.4886  -5.4886  -5.4511
    -5.4511  -5.4370  -5.4353  -5.3724  -1.1116   2.3022   5.7598   6.3278
     6.6559   6.6559   7.4483  11.4018  11.4018  11.7171  12.8752  12.8752
    12.8811  14.5860  15.3437  15.6023  16.1483  16.5568  16.5568  17.2822
    17.5060  17.5060  19.6674  19.7147  19.9185  21.8582  21.8582

[...]

          k = 0.0864 0.0864 0.0944 (  6424 PWs)   bands (ev):

    -8.0758  -8.0701  -8.0558  -8.0541  -8.0088  -8.0052  -7.9850  -7.9833
    -7.9373  -7.9324  -5.5405  -5.5391  -5.5377  -5.5328  -5.4768  -5.4735
    -5.4523  -5.4506  -5.4177  -5.4136   1.1916   1.2982   4.6302   4.8537
     6.0175   6.0687   6.2501   6.6402  13.8248  14.1571  15.2143  15.5729
    15.6159  15.6405  15.8616  16.1044  18.5419  18.7588  18.9912  19.1688
    19.2372  19.6676  19.7839  19.7967  20.0305  20.0432  20.0690

     the Fermi energy is     9.3192 ev

!    total energy              =    -601.63918903 Ry
     Harris-Foulkes estimate   =    -601.63740505 Ry
     estimated scf accuracy    <       0.00000080 Ry

     The total energy is the sum of the following terms:

     one-electron contribution =    -160.31079812 Ry
     hartree contribution      =     121.77399530 Ry
     xc contribution           =    -208.84099156 Ry
     ewald contribution        =    -354.25602544 Ry
     smearing contrib. (-TS)   =      -0.00536921 Ry

     convergence has been achieved in  11 iterations

     Forces acting on atoms (Ry/au):

     negative rho (up, down):  3.496E-02 0.000E+00
     atom    1 type  1   force =     0.00000000    0.00000000    0.00000000
     atom    2 type  1   force =     0.00000000    0.00000000    0.00000000
     atom    3 type  2   force =     0.00000000    0.00000000    0.00000000
     atom    4 type  2   force =     0.00000000    0.00000000    0.00000000

     Total force =     0.000000     Total SCF correction =     0.000000

     General routines

     Parallel routines

   This run was terminated on:  14:42:30  14Nov2017

   JOB DONE.