     Program PWSCF v.5.1rc2 starts on 15Nov2017 at  5:43: 9

     Current dimensions of program PWSCF are:
     Max number of different atomic species (ntypx) = 10
     Max number of k-points (npk) =  40000
     Max angular momentum in pseudopotentials (lmaxx) =  3

     IMPORTANT: XC functional enforced from input :
     Exchange-correlation      = BEEF-VDW ( 1  4 27 13 2)
     Any further DFT definition will be discarded
     Please, verify this is what you really want

     Found symmetry operation: I + ( -0.5000 -0.5000  0.0000)
     This is a supercell, fractional translations are disabled

     bravais-lattice index     =            0
     lattice parameter (alat)  =       1.8897  a.u.
     unit-cell volume          =     465.1463 (a.u.)^3
     number of atoms/cell      =            4
     number of atomic types    =            2
     number of electrons       =        46.00
     number of Kohn-Sham states=           43
     kinetic-energy cutoff     =      58.7989  Ry
     charge density cutoff     =     587.9892  Ry
     convergence threshold     =      1.0E-06
     mixing beta               =       0.1000
     number of iterations used =           10  plain     mixing
     Exchange-correlation      = BEEF-VDW ( 1  4 27 13 2)

     celldm(1)=   1.889726  celldm(2)=   0.000000  celldm(3)=   0.000000
     celldm(4)=   0.000000  celldm(5)=   0.000000  celldm(6)=   0.000000

     crystal axes: (cart. coord. in units of alat)
               a(1) = (   4.145965   0.000000   0.000000 )
               a(2) = (   0.000000   4.145965   0.000000 )
               a(3) = (   0.000000   0.000000   4.009976 )

     reciprocal axes: (cart. coord. in units 2 pi/alat)
               b(1) = (  0.241198  0.000000  0.000000 )
               b(2) = (  0.000000  0.241198  0.000000 )
               b(3) = (  0.000000  0.000000  0.249378 )

     PseudoPot. # 1 for Ti read from file:
     /home/users/vossj/suncat/psp/gbrv1.5pbe/Ti.UPF
     MD5 check sum: 88a00a6731bd790ddea75d31a80cb452
     Pseudo is Ultrasoft + core correction, Zval = 12.0
     Generated by new atomic code, or converted to UPF format
     Using radial grid of  851 points,  6 beta functions with:
                l(1) =   0
                l(2) =   0
                l(3) =   1
                l(4) =   1
                l(5) =   2
                l(6) =   2
     Q(r) pseudized with  6 coefficients,  rinner =    1.000   1.000   1.000
                                                       1.000   1.000

     PseudoPot. # 2 for Au read from file:
     /home/users/vossj/suncat/psp/gbrv1.5pbe/Au.UPF
     MD5 check sum: 9d7f43293ad2c663164586bc4b293ffc
     Pseudo is Ultrasoft + core correction, Zval = 11.0
     Generated by new atomic code, or converted to UPF format
     Using radial grid of  985 points,  7 beta functions with:
                l(1) =   0
                l(2) =   0
                l(3) =   1
                l(4) =   1
                l(5) =   2
                l(6) =   2
                l(7) =   3
     Q(r) pseudized with  6 coefficients,  rinner =    1.900   1.900   1.900
                                                       1.900   1.900   1.900
                                                       1.900

     vdW kernel table read from file vdW_kernel_table
     MD5 check sum: 095c7af220d748ca6e76c0b4c6cfb241

     atomic species   valence    mass     pseudopotential
        Ti1           12.00    47.88000     Ti( 1.00)
        Au1           11.00   196.96650     Au( 1.00)

     16 Sym. Ops., with inversion, found

   Cartesian axes

     site n.     atom                  positions (alat units)
         1           Ti1 tau(   1) = (   0.0000000   0.0000000   0.0000000  )
         2           Ti1 tau(   2) = (   2.0729824   2.0729824   0.0000000  )
         3           Au1 tau(   3) = (   2.0729824   0.0000000   2.0049880  )
         4           Au1 tau(   4) = (   0.0000000   2.0729824   2.0049880  )

     number of k points=    75  Fermi-Dirac smearing, width (Ry)=  0.0073
                       cart. coord. in units 2pi/alat
        k(    1) = (   0.0000000   0.0000000   0.0000000), wk =   0.0027435
        k(    2) = (   0.0000000   0.0000000   0.0277087), wk =   0.0054870
        k(    3) = (   0.0000000   0.0000000   0.0554173), wk =   0.0054870
        k(    4) = (   0.0000000   0.0000000   0.0831260), wk =   0.0054870
        k(    5) = (   0.0000000   0.0000000   0.1108347), wk =   0.0054870
        k(    6) = (   0.0000000   0.0267998   0.0000000), wk =   0.0109739
        k(    7) = (   0.0000000   0.0267998   0.0277087), wk =   0.0219479
        k(    8) = (   0.0000000   0.0267998   0.0554173), wk =   0.0219479
        k(    9) = (   0.0000000   0.0267998   0.0831260), wk =   0.0219479
        k(   10) = (   0.0000000   0.0267998   0.1108347), wk =   0.0219479
        k(   11) = (   0.0000000   0.0535996   0.0000000), wk =   0.0109739
        k(   12) = (   0.0000000   0.0535996   0.0277087), wk =   0.0219479
        k(   13) = (   0.0000000   0.0535996   0.0554173), wk =   0.0219479
        k(   14) = (   0.0000000   0.0535996   0.0831260), wk =   0.0219479
        k(   15) = (   0.0000000   0.0535996   0.1108347), wk =   0.0219479
        k(   16) = (   0.0000000   0.0803995   0.0000000), wk =   0.0109739
        k(   17) = (   0.0000000   0.0803995   0.0277087), wk =   0.0219479
        k(   18) = (   0.0000000   0.0803995   0.0554173), wk =   0.0219479
        k(   19) = (   0.0000000   0.0803995   0.0831260), wk =   0.0219479
        k(   20) = (   0.0000000   0.0803995   0.1108347), wk =   0.0219479
        k(   21) = (   0.0000000   0.1071993   0.0000000), wk =   0.0109739
        k(   22) = (   0.0000000   0.1071993   0.0277087), wk =   0.0219479
        k(   23) = (   0.0000000   0.1071993   0.0554173), wk =   0.0219479
        k(   24) = (   0.0000000   0.1071993   0.0831260), wk =   0.0219479
        k(   25) = (   0.0000000   0.1071993   0.1108347), wk =   0.0219479
        k(   26) = (   0.0267998   0.0267998   0.0000000), wk =   0.0109739
        k(   27) = (   0.0267998   0.0267998   0.0277087), wk =   0.0219479
        k(   28) = (   0.0267998   0.0267998   0.0554173), wk =   0.0219479
        k(   29) = (   0.0267998   0.0267998   0.0831260), wk =   0.0219479
        k(   30) = (   0.0267998   0.0267998   0.1108347), wk =   0.0219479
        k(   31) = (   0.0267998   0.0535996   0.0000000), wk =   0.0219479
        k(   32) = (   0.0267998   0.0535996   0.0277087), wk =   0.0438957
        k(   33) = (   0.0267998   0.0535996   0.0554173), wk =   0.0438957
        k(   34) = (   0.0267998   0.0535996   0.0831260), wk =   0.0438957
        k(   35) = (   0.0267998   0.0535996   0.1108347), wk =   0.0438957
        k(   36) = (   0.0267998   0.0803995   0.0000000), wk =   0.0219479
        k(   37) = (   0.0267998   0.0803995   0.0277087), wk =   0.0438957
        k(   38) = (   0.0267998   0.0803995   0.0554173), wk =   0.0438957
        k(   39) = (   0.0267998   0.0803995   0.0831260), wk =   0.0438957
        k(   40) = (   0.0267998   0.0803995   0.1108347), wk =   0.0438957
        k(   41) = (   0.0267998   0.1071993   0.0000000), wk =   0.0219479
        k(   42) = (   0.0267998   0.1071993   0.0277087), wk =   0.0438957
        k(   43) = (   0.0267998   0.1071993   0.0554173), wk =   0.0438957
        k(   44) = (   0.0267998   0.1071993   0.0831260), wk =   0.0438957
        k(   45) = (   0.0267998   0.1071993   0.1108347), wk =   0.0438957
        k(   46) = (   0.0535996   0.0535996   0.0000000), wk =   0.0109739
        k(   47) = (   0.0535996   0.0535996   0.0277087), wk =   0.0219479
        k(   48) = (   0.0535996   0.0535996   0.0554173), wk =   0.0219479
        k(   49) = (   0.0535996   0.0535996   0.0831260), wk =   0.0219479
        k(   50) = (   0.0535996   0.0535996   0.1108347), wk =   0.0219479
        k(   51) = (   0.0535996   0.0803995   0.0000000), wk =   0.0219479
        k(   52) = (   0.0535996   0.0803995   0.0277087), wk =   0.0438957
        k(   53) = (   0.0535996   0.0803995   0.0554173), wk =   0.0438957
        k(   54) = (   0.0535996   0.0803995   0.0831260), wk =   0.0438957
        k(   55) = (   0.0535996   0.0803995   0.1108347), wk =   0.0438957
        k(   56) = (   0.0535996   0.1071993   0.0000000), wk =   0.0219479
        k(   57) = (   0.0535996   0.1071993   0.0277087), wk =   0.0438957
        k(   58) = (   0.0535996   0.1071993   0.0554173), wk =   0.0438957
        k(   59) = (   0.0535996   0.1071993   0.0831260), wk =   0.0438957
        k(   60) = (   0.0535996   0.1071993   0.1108347), wk =   0.0438957
        k(   61) = (   0.0803995   0.0803995   0.0000000), wk =   0.0109739
        k(   62) = (   0.0803995   0.0803995   0.0277087), wk =   0.0219479
        k(   63) = (   0.0803995   0.0803995   0.0554173), wk =   0.0219479
        k(   64) = (   0.0803995   0.0803995   0.0831260), wk =   0.0219479
        k(   65) = (   0.0803995   0.0803995   0.1108347), wk =   0.0219479
        k(   66) = (   0.0803995   0.1071993   0.0000000), wk =   0.0219479
        k(   67) = (   0.0803995   0.1071993   0.0277087), wk =   0.0438957
        k(   68) = (   0.0803995   0.1071993   0.0554173), wk =   0.0438957
        k(   69) = (   0.0803995   0.1071993   0.0831260), wk =   0.0438957
        k(   70) = (   0.0803995   0.1071993   0.1108347), wk =   0.0438957
        k(   71) = (   0.1071993   0.1071993   0.0000000), wk =   0.0109739
        k(   72) = (   0.1071993   0.1071993   0.0277087), wk =   0.0219479
        k(   73) = (   0.1071993   0.1071993   0.0554173), wk =   0.0219479
        k(   74) = (   0.1071993   0.1071993   0.0831260), wk =   0.0219479
        k(   75) = (   0.1071993   0.1071993   0.1108347), wk =   0.0219479

     Largest allocated arrays     est. size (Mb)     dimensions
     Largest temporary arrays     est. size (Mb)     dimensions

     Check: negative/imaginary core charge=   -0.000001    0.000000

     Initial potential from superposition of free atoms
     Check: negative starting charge=   -0.002652

     starting charge   43.99967, renormalised to   46.00000

     negative rho (up, down):  2.772E-03 0.000E+00

     *
     * You are using vdW-DF for exchange-correlation in this calculation.
     * Please cite the following three references that made this development
     * possible:
     *
     *   M. Dion, H. Rydberg, E. Schroder, D. C. Langreth, and
     *   B. I. Lundqvist, Phys. Rev. Lett. 92, 246401 (2004).
     *
     *   T. Thonhauser, V. R. Cooper, S. Li, A. Puzder, P. Hyldgaard, and
     *   D. C. Langreth, Phys. Rev. B 76, 125112 (2007).
     *
     *   G. Roman-Perez and J. M. Soler, Phys. Rev. Lett. 103, 096102 (2009).
     *
     *
     * If you are using vdW-DF2, please also cite:
     *
     *   K. Lee, E. D. Murray, L. Kong, B. I. Lundqvist, and
     *   D. C. Langreth, Phys. Rev. B 82, 081101(R) (2010).
     *
     *
     * If you are calculating the stress with vdW-DF, please also cite:
     *
     *   R. Sabatini, E. Kucukbenli, B. Kolb, T. Thonhauser, and
     *   S. de Gironcoli, J. Phys.: Condens. Matter 24, 424209 (2012).
     *

     Carrying out vdW-DF run using the following parameters:

     Nqs =      20    Nr_points =    1024   r_max =   100.000
     q_mesh =
               0.00001000     0.04494208     0.09755937     0.15916263
               0.23128650     0.31572767     0.41458969     0.53033537
               0.66584808     0.82450364     1.01025438     1.22772762
               1.48234092     1.78043706     2.12944203     2.53805004
               3.01644009     3.57652955     4.23227104     5.00000000

     Gradients computed in reciprocal space

     Starting wfc are   38 randomized atomic wfcs +    5 random wfc

     Self-consistent Calculation

     iteration #  1     ecut=    58.80 Ry     beta=0.10
     Davidson diagonalization with overlap
     ethr =  1.00E-02,  avg # of iterations =  4.4

[...]

     total energy              =    -471.85485907 Ry
     Harris-Foulkes estimate   =    -474.76847560 Ry
     estimated scf accuracy    <      16.26551951 Ry

[...]

     total energy              =    -473.36744163 Ry
     Harris-Foulkes estimate   =    -473.36744242 Ry
     estimated scf accuracy    <       0.00000281 Ry

     iteration # 13     ecut=    58.80 Ry     beta=0.10
     Davidson diagonalization with overlap
     ethr =  6.10E-09,  avg # of iterations =  2.0

     negative rho (up, down):  1.289E-03 0.000E+00

     End of self-consistent calculation

          k = 0.0000 0.0000 0.0000 (  3559 PWs)   bands (ev):

   -42.8819 -42.8111 -19.2213 -19.1524 -19.1340 -19.1340 -18.8552 -18.8552
     5.9763   7.8140   8.1068   8.2804   8.6394   8.6394   8.9472  10.2020
    10.2020  11.0196  12.0033  13.9814  13.9879  14.6829  15.9552  15.9552
    16.1824  16.1824  16.4546  16.5759  16.6393  16.6393  17.0503  17.6919
    20.5243  23.3482  24.2055  24.6043  24.7087  24.7087  25.4110  25.4110
    26.2802  29.2725  30.7029

[...]

          k = 0.1072 0.1072 0.1108 (  3533 PWs)   bands (ev):

   -42.8466 -42.8444 -19.1984 -19.1962 -19.1730 -19.1648 -18.8364 -18.8278
     8.0134   8.1070   8.2146   8.2286   9.8035   9.9060   9.9900  10.0030
    10.2336  10.2843  12.4489  13.1603  13.7323  13.9475  14.2486  14.3911
    14.3968  14.5295  16.3086  16.4775  16.6099  16.6638  16.8060  16.8866
    19.0817  19.2629  21.7303  21.9444  28.4947  28.5712  28.6740  28.7085
    30.7778  31.0709  32.4985

     the Fermi energy is    14.4639 ev

!    total energy              =    -473.36744323 Ry
     Harris-Foulkes estimate   =    -473.36744227 Ry
     estimated scf accuracy    <       0.00000032 Ry

     The total energy is the sum of the following terms:

     one-electron contribution =     -60.75495498 Ry
     hartree contribution      =      66.28895390 Ry
     xc contribution           =    -165.56421788 Ry
     ewald contribution        =    -313.32394626 Ry
     smearing contrib. (-TS)   =      -0.01327800 Ry

     convergence has been achieved in  13 iterations

     Forces acting on atoms (Ry/au):

     negative rho (up, down):  1.289E-03 0.000E+00
     atom    1 type  1   force =     0.00000000    0.00000000    0.00000000
     atom    2 type  1   force =     0.00000000    0.00000000    0.00000000
     atom    3 type  2   force =     0.00000000    0.00000000    0.00000000
     atom    4 type  2   force =     0.00000000    0.00000000    0.00000000

     Total force =     0.000000     Total SCF correction =     0.000000

     General routines

     Parallel routines

   This run was terminated on:   5:43:48  15Nov2017

   JOB DONE.