     Program PWSCF v.5.1rc2 starts on 14Nov2017 at  2:48:12

     Current dimensions of program PWSCF are:
     Max number of different atomic species (ntypx) = 10
     Max number of k-points (npk) =  40000
     Max angular momentum in pseudopotentials (lmaxx) =  3

     IMPORTANT: XC functional enforced from input :
     Exchange-correlation      = BEEF-VDW ( 1  4 27 13 2)
     Any further DFT definition will be discarded
     Please, verify this is what you really want

     Found symmetry operation: I + ( -0.5000 -0.5000  0.0000)
     This is a supercell, fractional translations are disabled

     bravais-lattice index     =            0
     lattice parameter (alat)  =       1.8897  a.u.
     unit-cell volume          =     369.5911 (a.u.)^3
     number of atoms/cell      =            4
     number of atomic types    =            2
     number of electrons       =        68.00
     number of Kohn-Sham states=           54
     kinetic-energy cutoff     =      58.7989  Ry
     charge density cutoff     =     587.9892  Ry
     convergence threshold     =      1.0E-06
     mixing beta               =       0.1000
     number of iterations used =           10  plain     mixing
     Exchange-correlation      = BEEF-VDW ( 1  4 27 13 2)

     celldm(1)=   1.889726  celldm(2)=   0.000000  celldm(3)=   0.000000
     celldm(4)=   0.000000  celldm(5)=   0.000000  celldm(6)=   0.000000

     crystal axes: (cart. coord. in units of alat)
               a(1) = (   3.648832   0.000000   0.000000 )
               a(2) = (   0.000000   3.648832   0.000000 )
               a(3) = (   0.000000   0.000000   4.113555 )

     reciprocal axes: (cart. coord. in units 2 pi/alat)
               b(1) = (  0.274060  0.000000  0.000000 )
               b(2) = (  0.000000  0.274060  0.000000 )
               b(3) = (  0.000000  0.000000  0.243099 )

     PseudoPot. # 1 for Cu read from file:
     /home/users/vossj/suncat/psp/gbrv1.5pbe/Cu.UPF
     MD5 check sum: 6e991ff952a84172a2a52a1c1e996048
     Pseudo is Ultrasoft + core correction, Zval = 19.0
     Generated by new atomic code, or converted to UPF format
     Using radial grid of  867 points,  6 beta functions with:
                l(1) =   0
                l(2) =   0
                l(3) =   1
                l(4) =   1
                l(5) =   2
                l(6) =   2
     Q(r) pseudized with  8 coefficients,  rinner =    1.150   1.150   1.150
                                                       1.150   1.150

     PseudoPot. # 2 for Re read from file:
     /home/users/vossj/suncat/psp/gbrv1.5pbe/Re.UPF
     MD5 check sum: 85f993410f3e006da9d71c142b4ad953
     Pseudo is Ultrasoft + core correction, Zval = 15.0
     Generated by new atomic code, or converted to UPF format
     Using radial grid of  981 points,  8 beta functions with:
                l(1) =   0
                l(2) =   0
                l(3) =   1
                l(4) =   1
                l(5) =   2
                l(6) =   2
                l(7) =   3
                l(8) =   3
     Q(r) pseudized with  8 coefficients,  rinner =    1.150   1.150   1.150
                                                       1.150   1.150   1.150
                                                       1.150

     vdW kernel table read from file vdW_kernel_table
     MD5 check sum: 095c7af220d748ca6e76c0b4c6cfb241

     atomic species   valence    mass     pseudopotential
        Cu1           19.00    63.54600     Cu( 1.00)
        Re1           15.00   186.20700     Re( 1.00)

     16 Sym. Ops., with inversion, found

   Cartesian axes

     site n.     atom                  positions (alat units)
         1           Cu1 tau(   1) = (   0.0000000   0.0000000   0.0000000  )
         2           Cu1 tau(   2) = (   1.8244158   1.8244158   0.0000000  )
         3           Re1 tau(   3) = (   1.8244158   0.0000000   2.0567773  )
         4           Re1 tau(   4) = (   0.0000000   1.8244158   2.0567773  )

     number of k points=    75  Fermi-Dirac smearing, width (Ry)=  0.0073
                       cart. coord. in units 2pi/alat
        k(    1) = (   0.0000000   0.0000000   0.0000000), wk =   0.0027435
        k(    2) = (   0.0000000   0.0000000   0.0270110), wk =   0.0054870
        k(    3) = (   0.0000000   0.0000000   0.0540219), wk =   0.0054870
        k(    4) = (   0.0000000   0.0000000   0.0810329), wk =   0.0054870
        k(    5) = (   0.0000000   0.0000000   0.1080439), wk =   0.0054870
        k(    6) = (   0.0000000   0.0304511   0.0000000), wk =   0.0109739
        k(    7) = (   0.0000000   0.0304511   0.0270110), wk =   0.0219479
        k(    8) = (   0.0000000   0.0304511   0.0540219), wk =   0.0219479
        k(    9) = (   0.0000000   0.0304511   0.0810329), wk =   0.0219479
        k(   10) = (   0.0000000   0.0304511   0.1080439), wk =   0.0219479
        k(   11) = (   0.0000000   0.0609023   0.0000000), wk =   0.0109739
        k(   12) = (   0.0000000   0.0609023   0.0270110), wk =   0.0219479
        k(   13) = (   0.0000000   0.0609023   0.0540219), wk =   0.0219479
        k(   14) = (   0.0000000   0.0609023   0.0810329), wk =   0.0219479
        k(   15) = (   0.0000000   0.0609023   0.1080439), wk =   0.0219479
        k(   16) = (   0.0000000   0.0913534   0.0000000), wk =   0.0109739
        k(   17) = (   0.0000000   0.0913534   0.0270110), wk =   0.0219479
        k(   18) = (   0.0000000   0.0913534   0.0540219), wk =   0.0219479
        k(   19) = (   0.0000000   0.0913534   0.0810329), wk =   0.0219479
        k(   20) = (   0.0000000   0.0913534   0.1080439), wk =   0.0219479
        k(   21) = (   0.0000000   0.1218046   0.0000000), wk =   0.0109739
        k(   22) = (   0.0000000   0.1218046   0.0270110), wk =   0.0219479
        k(   23) = (   0.0000000   0.1218046   0.0540219), wk =   0.0219479
        k(   24) = (   0.0000000   0.1218046   0.0810329), wk =   0.0219479
        k(   25) = (   0.0000000   0.1218046   0.1080439), wk =   0.0219479
        k(   26) = (   0.0304511   0.0304511   0.0000000), wk =   0.0109739
        k(   27) = (   0.0304511   0.0304511   0.0270110), wk =   0.0219479
        k(   28) = (   0.0304511   0.0304511   0.0540219), wk =   0.0219479
        k(   29) = (   0.0304511   0.0304511   0.0810329), wk =   0.0219479
        k(   30) = (   0.0304511   0.0304511   0.1080439), wk =   0.0219479
        k(   31) = (   0.0304511   0.0609023   0.0000000), wk =   0.0219479
        k(   32) = (   0.0304511   0.0609023   0.0270110), wk =   0.0438957
        k(   33) = (   0.0304511   0.0609023   0.0540219), wk =   0.0438957
        k(   34) = (   0.0304511   0.0609023   0.0810329), wk =   0.0438957
        k(   35) = (   0.0304511   0.0609023   0.1080439), wk =   0.0438957
        k(   36) = (   0.0304511   0.0913534   0.0000000), wk =   0.0219479
        k(   37) = (   0.0304511   0.0913534   0.0270110), wk =   0.0438957
        k(   38) = (   0.0304511   0.0913534   0.0540219), wk =   0.0438957
        k(   39) = (   0.0304511   0.0913534   0.0810329), wk =   0.0438957
        k(   40) = (   0.0304511   0.0913534   0.1080439), wk =   0.0438957
        k(   41) = (   0.0304511   0.1218046   0.0000000), wk =   0.0219479
        k(   42) = (   0.0304511   0.1218046   0.0270110), wk =   0.0438957
        k(   43) = (   0.0304511   0.1218046   0.0540219), wk =   0.0438957
        k(   44) = (   0.0304511   0.1218046   0.0810329), wk =   0.0438957
        k(   45) = (   0.0304511   0.1218046   0.1080439), wk =   0.0438957
        k(   46) = (   0.0609023   0.0609023   0.0000000), wk =   0.0109739
        k(   47) = (   0.0609023   0.0609023   0.0270110), wk =   0.0219479
        k(   48) = (   0.0609023   0.0609023   0.0540219), wk =   0.0219479
        k(   49) = (   0.0609023   0.0609023   0.0810329), wk =   0.0219479
        k(   50) = (   0.0609023   0.0609023   0.1080439), wk =   0.0219479
        k(   51) = (   0.0609023   0.0913534   0.0000000), wk =   0.0219479
        k(   52) = (   0.0609023   0.0913534   0.0270110), wk =   0.0438957
        k(   53) = (   0.0609023   0.0913534   0.0540219), wk =   0.0438957
        k(   54) = (   0.0609023   0.0913534   0.0810329), wk =   0.0438957
        k(   55) = (   0.0609023   0.0913534   0.1080439), wk =   0.0438957
        k(   56) = (   0.0609023   0.1218046   0.0000000), wk =   0.0219479
        k(   57) = (   0.0609023   0.1218046   0.0270110), wk =   0.0438957
        k(   58) = (   0.0609023   0.1218046   0.0540219), wk =   0.0438957
        k(   59) = (   0.0609023   0.1218046   0.0810329), wk =   0.0438957
        k(   60) = (   0.0609023   0.1218046   0.1080439), wk =   0.0438957
        k(   61) = (   0.0913534   0.0913534   0.0000000), wk =   0.0109739
        k(   62) = (   0.0913534   0.0913534   0.0270110), wk =   0.0219479
        k(   63) = (   0.0913534   0.0913534   0.0540219), wk =   0.0219479
        k(   64) = (   0.0913534   0.0913534   0.0810329), wk =   0.0219479
        k(   65) = (   0.0913534   0.0913534   0.1080439), wk =   0.0219479
        k(   66) = (   0.0913534   0.1218046   0.0000000), wk =   0.0219479
        k(   67) = (   0.0913534   0.1218046   0.0270110), wk =   0.0438957
        k(   68) = (   0.0913534   0.1218046   0.0540219), wk =   0.0438957
        k(   69) = (   0.0913534   0.1218046   0.0810329), wk =   0.0438957
        k(   70) = (   0.0913534   0.1218046   0.1080439), wk =   0.0438957
        k(   71) = (   0.1218046   0.1218046   0.0000000), wk =   0.0109739
        k(   72) = (   0.1218046   0.1218046   0.0270110), wk =   0.0219479
        k(   73) = (   0.1218046   0.1218046   0.0540219), wk =   0.0219479
        k(   74) = (   0.1218046   0.1218046   0.0810329), wk =   0.0219479
        k(   75) = (   0.1218046   0.1218046   0.1080439), wk =   0.0219479

     Largest allocated arrays     est. size (Mb)     dimensions
     Largest temporary arrays     est. size (Mb)     dimensions

     Initial potential from superposition of free atoms
     Check: negative starting charge=   -0.255836

     starting charge   64.99991, renormalised to   68.00000

     negative rho (up, down):  2.676E-01 0.000E+00

     *
     * You are using vdW-DF for exchange-correlation in this calculation.
     * Please cite the following three references that made this development
     * possible:
     *
     *   M. Dion, H. Rydberg, E. Schroder, D. C. Langreth, and
     *   B. I. Lundqvist, Phys. Rev. Lett. 92, 246401 (2004).
     *
     *   T. Thonhauser, V. R. Cooper, S. Li, A. Puzder, P. Hyldgaard, and
     *   D. C. Langreth, Phys. Rev. B 76, 125112 (2007).
     *
     *   G. Roman-Perez and J. M. Soler, Phys. Rev. Lett. 103, 096102 (2009).
     *
     *
     * If you are using vdW-DF2, please also cite:
     *
     *   K. Lee, E. D. Murray, L. Kong, B. I. Lundqvist, and
     *   D. C. Langreth, Phys. Rev. B 82, 081101(R) (2010).
     *
     *
     * If you are calculating the stress with vdW-DF, please also cite:
     *
     *   R. Sabatini, E. Kucukbenli, B. Kolb, T. Thonhauser, and
     *   S. de Gironcoli, J. Phys.: Condens. Matter 24, 424209 (2012).
     *

     Carrying out vdW-DF run using the following parameters:

     Nqs =      20    Nr_points =    1024   r_max =   100.000
     q_mesh =
               0.00001000     0.04494208     0.09755937     0.15916263
               0.23128650     0.31572767     0.41458969     0.53033537
               0.66584808     0.82450364     1.01025438     1.22772762
               1.48234092     1.78043706     2.12944203     2.53805004
               3.01644009     3.57652955     4.23227104     5.00000000

     Gradients computed in reciprocal space

     Starting wfc are   52 randomized atomic wfcs +    2 random wfc

     Self-consistent Calculation

     iteration #  1     ecut=    58.80 Ry     beta=0.10
     Davidson diagonalization with overlap
     ethr =  1.00E-02,  avg # of iterations =  4.3

[...]

     total energy              =   -1193.52192549 Ry
     Harris-Foulkes estimate   =   -1195.59746708 Ry
     estimated scf accuracy    <      11.70758491 Ry

[...]

     total energy              =   -1194.22596991 Ry
     Harris-Foulkes estimate   =   -1194.22596832 Ry
     estimated scf accuracy    <       0.00000210 Ry

     iteration # 15     ecut=    58.80 Ry     beta=0.10
     Davidson diagonalization with overlap
     ethr =  2.49E-09,  avg # of iterations =  1.0

     negative rho (up, down):  2.720E-01 0.000E+00

     End of self-consistent calculation

          k = 0.0000 0.0000 0.0000 (  2823 PWs)   bands (ev):

   -93.1189 -93.1109 -60.8591 -60.6917 -50.5313 -50.5223 -50.5007 -50.5007
   -50.4555 -50.4555 -22.9908 -22.9908 -22.5526 -22.3036 -22.0087 -22.0087
    10.2403  13.2625  13.9873  14.5843  14.9068  14.9068  14.9275  16.3899
    16.9531  16.9531  17.5850  17.6059  18.0524  18.0583  19.5332  19.5332
    20.2313  21.0481  21.8539  21.8539  22.5023  22.5023  23.4921  25.9827
    28.1624  28.3544  29.8170  31.5583  32.4350  32.4350  33.3749  33.3749
    34.1942  36.5653  39.4504  39.6725  40.7735  41.0666

[...]

          k = 0.1218 0.1218 0.1080 (  2796 PWs)   bands (ev):

   -93.1150 -93.1148 -60.7770 -60.7720 -50.5269 -50.5267 -50.5052 -50.5039
   -50.4531 -50.4517 -23.1319 -23.1042 -22.4336 -22.4259 -21.9425 -21.9109
    13.6650  13.6943  14.2075  14.3417  16.3210  16.3599  16.6146  16.7296
    16.8762  16.9519  17.0277  17.0687  17.9770  18.2653  18.8253  18.9637
    19.0217  19.7161  20.4212  21.1666  21.3014  21.3128  22.1439  22.2721
    26.3990  26.6061  28.8229  28.8746  33.9899  34.0161  35.8195  36.1807
    38.1244  38.2591  38.6912  39.1631  41.0873  41.8896

     the Fermi energy is    20.1547 ev

!    total energy              =   -1194.22597887 Ry
     Harris-Foulkes estimate   =   -1194.22597012 Ry
     estimated scf accuracy    <          6.9E-09 Ry

     The total energy is the sum of the following terms:

     one-electron contribution =    -615.94131359 Ry
     hartree contribution      =     352.73534624 Ry
     xc contribution           =    -188.35021314 Ry
     ewald contribution        =    -742.66447801 Ry
     smearing contrib. (-TS)   =      -0.00532037 Ry

     convergence has been achieved in  15 iterations

     Forces acting on atoms (Ry/au):

     negative rho (up, down):  2.720E-01 0.000E+00
     atom    1 type  1   force =     0.00000000    0.00000000    0.00000000
     atom    2 type  1   force =     0.00000000    0.00000000    0.00000000
     atom    3 type  2   force =     0.00000000    0.00000000    0.00000000
     atom    4 type  2   force =     0.00000000    0.00000000    0.00000000

     Total force =     0.000000     Total SCF correction =     0.000000

     General routines

     Parallel routines

   This run was terminated on:   2:49: 5  14Nov2017

   JOB DONE.