     Program PWSCF v.5.1rc2 (svn rev. ) starts on 14Nov2017 at 18:56:55

     Current dimensions of program PWSCF are:
     Max number of different atomic species (ntypx) = 10
     Max number of k-points (npk) =  40000
     Max angular momentum in pseudopotentials (lmaxx) =  3

     IMPORTANT: XC functional enforced from input :
     Exchange-correlation      = BEEF-VDW ( 1  4 27 13 2)
     Any further DFT definition will be discarded
     Please, verify this is what you really want

     Subspace diagonalization in iterative solution of the eigenvalue problem:
     a serial algorithm will be used

     Found symmetry operation: I + ( -0.5000 -0.5000  0.0000)
     This is a supercell, fractional translations are disabled

     bravais-lattice index     =            0
     lattice parameter (alat)  =       1.8897  a.u.
     unit-cell volume          =     355.4350 (a.u.)^3
     number of atoms/cell      =            4
     number of atomic types    =            2
     number of electrons       =        58.00
     number of Kohn-Sham states=           49
     kinetic-energy cutoff     =      58.7989  Ry
     charge density cutoff     =     587.9892  Ry
     convergence threshold     =      1.0E-06
     mixing beta               =       0.1000
     number of iterations used =           10  plain     mixing
     Exchange-correlation      = BEEF-VDW ( 1  4 27 13 2)

     celldm(1)=   1.889726  celldm(2)=   0.000000  celldm(3)=   0.000000
     celldm(4)=   0.000000  celldm(5)=   0.000000  celldm(6)=   0.000000

     crystal axes: (cart. coord. in units of alat)
               a(1) = (   4.211004   0.000000   0.000000 )
               a(2) = (   0.000000   4.211004   0.000000 )
               a(3) = (   0.000000   0.000000   2.970245 )

     reciprocal axes: (cart. coord. in units 2 pi/alat)
               b(1) = (  0.237473  0.000000  0.000000 )
               b(2) = (  0.000000  0.237473  0.000000 )
               b(3) = (  0.000000  0.000000  0.336673 )

     PseudoPot. # 1 for Cr read from file:
     /home/vossj/suncat/psp/gbrv1.5pbe/Cr.UPF
     MD5 check sum: 0d52af634a40206e4dee301ad30da4bf
     Pseudo is Ultrasoft + core correction, Zval = 14.0
     Generated by new atomic code, or converted to UPF format
     Using radial grid of  857 points,  6 beta functions with:
                l(1) =   0
                l(2) =   0
                l(3) =   1
                l(4) =   1
                l(5) =   2
                l(6) =   2
     Q(r) pseudized with  8 coefficients,  rinner =    0.950   0.950   0.950
                                                       0.950   0.950

     PseudoPot. # 2 for Tc read from file:
     /home/vossj/suncat/psp/gbrv1.5pbe/Tc.UPF
     MD5 check sum: 9eb49e5b028550b2339a02317eb7b844
     Pseudo is Ultrasoft + core correction, Zval = 15.0
     Generated by new atomic code, or converted to UPF format
     Using radial grid of  965 points,  6 beta functions with:
                l(1) =   0
                l(2) =   0
                l(3) =   1
                l(4) =   1
                l(5) =   2
                l(6) =   2
     Q(r) pseudized with  8 coefficients,  rinner =    1.300   1.300   1.300
                                                       1.300   1.300

     vdW kernel table read from file vdW_kernel_table
     MD5 check sum: 095c7af220d748ca6e76c0b4c6cfb241

     atomic species   valence    mass     pseudopotential
        Cr1           14.00    51.99610     Cr( 1.00)
        Tc1           15.00    97.90721     Tc( 1.00)

     16 Sym. Ops., with inversion, found

   Cartesian axes

     site n.     atom                  positions (alat units)
         1           Cr1 tau(   1) = (   0.0000000   0.0000000   0.0000000  )
         2           Cr1 tau(   2) = (   2.1055019   2.1055019   0.0000000  )
         3           Tc1 tau(   3) = (   2.1055019   0.0000000   1.4851226  )
         4           Tc1 tau(   4) = (   0.0000000   2.1055019   1.4851226  )

     number of k points=    75  Fermi-Dirac smearing, width (Ry)=  0.0073
                       cart. coord. in units 2pi/alat
        k(    1) = (   0.0000000   0.0000000   0.0000000), wk =   0.0027435
        k(    2) = (   0.0000000   0.0000000   0.0374081), wk =   0.0054870
        k(    3) = (   0.0000000   0.0000000   0.0748161), wk =   0.0054870
        k(    4) = (   0.0000000   0.0000000   0.1122242), wk =   0.0054870
        k(    5) = (   0.0000000   0.0000000   0.1496322), wk =   0.0054870
        k(    6) = (   0.0000000   0.0263859   0.0000000), wk =   0.0109739
        k(    7) = (   0.0000000   0.0263859   0.0374081), wk =   0.0219479
        k(    8) = (   0.0000000   0.0263859   0.0748161), wk =   0.0219479
        k(    9) = (   0.0000000   0.0263859   0.1122242), wk =   0.0219479
        k(   10) = (   0.0000000   0.0263859   0.1496322), wk =   0.0219479
        k(   11) = (   0.0000000   0.0527718   0.0000000), wk =   0.0109739
        k(   12) = (   0.0000000   0.0527718   0.0374081), wk =   0.0219479
        k(   13) = (   0.0000000   0.0527718   0.0748161), wk =   0.0219479
        k(   14) = (   0.0000000   0.0527718   0.1122242), wk =   0.0219479
        k(   15) = (   0.0000000   0.0527718   0.1496322), wk =   0.0219479
        k(   16) = (   0.0000000   0.0791577   0.0000000), wk =   0.0109739
        k(   17) = (   0.0000000   0.0791577   0.0374081), wk =   0.0219479
        k(   18) = (   0.0000000   0.0791577   0.0748161), wk =   0.0219479
        k(   19) = (   0.0000000   0.0791577   0.1122242), wk =   0.0219479
        k(   20) = (   0.0000000   0.0791577   0.1496322), wk =   0.0219479
        k(   21) = (   0.0000000   0.1055436   0.0000000), wk =   0.0109739
        k(   22) = (   0.0000000   0.1055436   0.0374081), wk =   0.0219479
        k(   23) = (   0.0000000   0.1055436   0.0748161), wk =   0.0219479
        k(   24) = (   0.0000000   0.1055436   0.1122242), wk =   0.0219479
        k(   25) = (   0.0000000   0.1055436   0.1496322), wk =   0.0219479
        k(   26) = (   0.0263859   0.0263859   0.0000000), wk =   0.0109739
        k(   27) = (   0.0263859   0.0263859   0.0374081), wk =   0.0219479
        k(   28) = (   0.0263859   0.0263859   0.0748161), wk =   0.0219479
        k(   29) = (   0.0263859   0.0263859   0.1122242), wk =   0.0219479
        k(   30) = (   0.0263859   0.0263859   0.1496322), wk =   0.0219479
        k(   31) = (   0.0263859   0.0527718   0.0000000), wk =   0.0219479
        k(   32) = (   0.0263859   0.0527718   0.0374081), wk =   0.0438957
        k(   33) = (   0.0263859   0.0527718   0.0748161), wk =   0.0438957
        k(   34) = (   0.0263859   0.0527718   0.1122242), wk =   0.0438957
        k(   35) = (   0.0263859   0.0527718   0.1496322), wk =   0.0438957
        k(   36) = (   0.0263859   0.0791577   0.0000000), wk =   0.0219479
        k(   37) = (   0.0263859   0.0791577   0.0374081), wk =   0.0438957
        k(   38) = (   0.0263859   0.0791577   0.0748161), wk =   0.0438957
        k(   39) = (   0.0263859   0.0791577   0.1122242), wk =   0.0438957
        k(   40) = (   0.0263859   0.0791577   0.1496322), wk =   0.0438957
        k(   41) = (   0.0263859   0.1055436   0.0000000), wk =   0.0219479
        k(   42) = (   0.0263859   0.1055436   0.0374081), wk =   0.0438957
        k(   43) = (   0.0263859   0.1055436   0.0748161), wk =   0.0438957
        k(   44) = (   0.0263859   0.1055436   0.1122242), wk =   0.0438957
        k(   45) = (   0.0263859   0.1055436   0.1496322), wk =   0.0438957
        k(   46) = (   0.0527718   0.0527718   0.0000000), wk =   0.0109739
        k(   47) = (   0.0527718   0.0527718   0.0374081), wk =   0.0219479
        k(   48) = (   0.0527718   0.0527718   0.0748161), wk =   0.0219479
        k(   49) = (   0.0527718   0.0527718   0.1122242), wk =   0.0219479
        k(   50) = (   0.0527718   0.0527718   0.1496322), wk =   0.0219479
        k(   51) = (   0.0527718   0.0791577   0.0000000), wk =   0.0219479
        k(   52) = (   0.0527718   0.0791577   0.0374081), wk =   0.0438957
        k(   53) = (   0.0527718   0.0791577   0.0748161), wk =   0.0438957
        k(   54) = (   0.0527718   0.0791577   0.1122242), wk =   0.0438957
        k(   55) = (   0.0527718   0.0791577   0.1496322), wk =   0.0438957
        k(   56) = (   0.0527718   0.1055436   0.0000000), wk =   0.0219479
        k(   57) = (   0.0527718   0.1055436   0.0374081), wk =   0.0438957
        k(   58) = (   0.0527718   0.1055436   0.0748161), wk =   0.0438957
        k(   59) = (   0.0527718   0.1055436   0.1122242), wk =   0.0438957
        k(   60) = (   0.0527718   0.1055436   0.1496322), wk =   0.0438957
        k(   61) = (   0.0791577   0.0791577   0.0000000), wk =   0.0109739
        k(   62) = (   0.0791577   0.0791577   0.0374081), wk =   0.0219479
        k(   63) = (   0.0791577   0.0791577   0.0748161), wk =   0.0219479
        k(   64) = (   0.0791577   0.0791577   0.1122242), wk =   0.0219479
        k(   65) = (   0.0791577   0.0791577   0.1496322), wk =   0.0219479
        k(   66) = (   0.0791577   0.1055436   0.0000000), wk =   0.0219479
        k(   67) = (   0.0791577   0.1055436   0.0374081), wk =   0.0438957
        k(   68) = (   0.0791577   0.1055436   0.0748161), wk =   0.0438957
        k(   69) = (   0.0791577   0.1055436   0.1122242), wk =   0.0438957
        k(   70) = (   0.0791577   0.1055436   0.1496322), wk =   0.0438957
        k(   71) = (   0.1055436   0.1055436   0.0000000), wk =   0.0109739
        k(   72) = (   0.1055436   0.1055436   0.0374081), wk =   0.0219479
        k(   73) = (   0.1055436   0.1055436   0.0748161), wk =   0.0219479
        k(   74) = (   0.1055436   0.1055436   0.1122242), wk =   0.0219479
        k(   75) = (   0.1055436   0.1055436   0.1496322), wk =   0.0219479

     Largest allocated arrays     est. size (Mb)     dimensions
     Largest temporary arrays     est. size (Mb)     dimensions

     Check: negative/imaginary core charge=   -0.000010    0.000000

     Initial potential from superposition of free atoms
     Check: negative starting charge=   -0.251775

     starting charge   53.99991, renormalised to   58.00000

     negative rho (up, down):  2.704E-01 0.000E+00

     *
     * You are using vdW-DF for exchange-correlation in this calculation.
     * Please cite the following three references that made this development
     * possible:
     *
     *   M. Dion, H. Rydberg, E. Schroder, D. C. Langreth, and
     *   B. I. Lundqvist, Phys. Rev. Lett. 92, 246401 (2004).
     *
     *   T. Thonhauser, V. R. Cooper, S. Li, A. Puzder, P. Hyldgaard, and
     *   D. C. Langreth, Phys. Rev. B 76, 125112 (2007).
     *
     *   G. Roman-Perez and J. M. Soler, Phys. Rev. Lett. 103, 096102 (2009).
     *
     *
     * If you are using vdW-DF2, please also cite:
     *
     *   K. Lee, E. D. Murray, L. Kong, B. I. Lundqvist, and
     *   D. C. Langreth, Phys. Rev. B 82, 081101(R) (2010).
     *
     *
     * If you are calculating the stress with vdW-DF, please also cite:
     *
     *   R. Sabatini, E. Kucukbenli, B. Kolb, T. Thonhauser, and
     *   S. de Gironcoli, J. Phys.: Condens. Matter 24, 424209 (2012).
     *

     Carrying out vdW-DF run using the following parameters:

     Nqs =      20    Nr_points =    1024   r_max =   100.000
     q_mesh =
               0.00001000     0.04494208     0.09755937     0.15916263
               0.23128650     0.31572767     0.41458969     0.53033537
               0.66584808     0.82450364     1.01025438     1.22772762
               1.48234092     1.78043706     2.12944203     2.53805004
               3.01644009     3.57652955     4.23227104     5.00000000

     Gradients computed in reciprocal space

     Starting wfc are   46 randomized atomic wfcs +    3 random wfc

     Self-consistent Calculation

     iteration #  1     ecut=    58.80 Ry     beta=0.10
     Davidson diagonalization with overlap
     ethr =  1.00E-02,  avg # of iterations =  4.5

[...]

     total energy              =    -704.22717056 Ry
     Harris-Foulkes estimate   =    -705.07687443 Ry
     estimated scf accuracy    <       5.49912954 Ry

[...]

     total energy              =    -703.27183577 Ry
     Harris-Foulkes estimate   =    -703.27182414 Ry
     estimated scf accuracy    <       0.00000124 Ry

     iteration # 14     ecut=    58.80 Ry     beta=0.10
     Davidson diagonalization with overlap
     ethr =  2.14E-09,  avg # of iterations =  2.9

     negative rho (up, down):  2.649E-01 0.000E+00

     End of self-consistent calculation

          k = 0.0000 0.0000 0.0000 (  2713 PWs)   bands (ev):

   -51.3675 -51.3445 -46.5282 -46.4852 -22.7503 -22.7503 -22.6303 -22.6303
   -22.6288 -22.5877 -18.5914 -18.5914 -18.3646 -18.3646 -18.3617 -18.3417
    13.0952  15.2506  15.5505  15.5547  15.8953  17.5451  17.5451  19.2442
    19.2670  19.2670  21.5404  21.6135  21.6399  21.6641  21.7661  22.0035
    22.0035  22.5119  23.2444  23.2444  23.2504  23.6678  23.6678  30.4725
    30.4725  30.5519  30.6547  31.8827  35.3396  35.3396  37.9593  38.9009
    38.9408

[...]

          k = 0.1055 0.1055 0.1496 (  2694 PWs)   bands (ev):

   -51.3448 -51.3443 -46.4860 -46.4845 -22.7470 -22.7468 -22.7453 -22.7427
   -22.5921 -22.5893 -18.5949 -18.5931 -18.5899 -18.5857 -18.3539 -18.3459
    15.3352  15.3364  15.9379  15.9935  17.5374  17.5457  17.5635  17.6346
    20.8742  21.2137  21.2866  21.3862  21.5438  21.5582  21.6671  21.7945
    22.0191  22.1728  22.7863  23.4567  23.4860  23.6574  23.9869  24.0394
    30.8142  30.8997  31.9538  32.1127  35.3519  35.4851  35.5088  35.5735
    37.7091

     the Fermi energy is    20.8765 ev

!    total energy              =    -703.27183972 Ry
     Harris-Foulkes estimate   =    -703.27183627 Ry
     estimated scf accuracy    <       0.00000015 Ry

     The total energy is the sum of the following terms:

     one-electron contribution =    -166.56086714 Ry
     hartree contribution      =     121.00568970 Ry
     xc contribution           =    -112.96969957 Ry
     ewald contribution        =    -544.73404693 Ry
     smearing contrib. (-TS)   =      -0.01291578 Ry

     convergence has been achieved in  14 iterations

     Forces acting on atoms (Ry/au):

     negative rho (up, down):  2.649E-01 0.000E+00
     atom    1 type  1   force =     0.00000000    0.00000000    0.00000000
     atom    2 type  1   force =     0.00000000    0.00000000    0.00000000
     atom    3 type  2   force =     0.00000000    0.00000000    0.00000000
     atom    4 type  2   force =     0.00000000    0.00000000    0.00000000

     Total force =     0.000000     Total SCF correction =     0.000000

     General routines

     Parallel routines

   This run was terminated on:  18:57:37  14Nov2017

   JOB DONE.