     Program PWSCF v.5.1rc2 starts on 15Nov2017 at  8:38:42

     Current dimensions of program PWSCF are:
     Max number of different atomic species (ntypx) = 10
     Max number of k-points (npk) =  40000
     Max angular momentum in pseudopotentials (lmaxx) =  3

     IMPORTANT: XC functional enforced from input :
     Exchange-correlation      = BEEF-VDW ( 1  4 27 13 2)
     Any further DFT definition will be discarded
     Please, verify this is what you really want

     Found symmetry operation: I + (  0.5000  0.5000  0.0000)
     This is a supercell, fractional translations are disabled

     bravais-lattice index     =            0
     lattice parameter (alat)  =       1.8897  a.u.
     unit-cell volume          =     622.2456 (a.u.)^3
     number of atoms/cell      =            4
     number of atomic types    =            2
     number of electrons       =        54.00
     number of Kohn-Sham states=           47
     kinetic-energy cutoff     =      58.7989  Ry
     charge density cutoff     =     587.9892  Ry
     convergence threshold     =      1.0E-06
     mixing beta               =       0.1000
     number of iterations used =           10  plain     mixing
     Exchange-correlation      = BEEF-VDW ( 1  4 27 13 2)

     celldm(1)=   1.889726  celldm(2)=   0.000000  celldm(3)=   0.000000
     celldm(4)=   0.000000  celldm(5)=   0.000000  celldm(6)=   0.000000

     crystal axes: (cart. coord. in units of alat)
               a(1) = (   5.076232   0.000000   0.000000 )
               a(2) = (   0.000000   5.076232   0.000000 )
               a(3) = (   0.000000   0.000000   3.578346 )

     reciprocal axes: (cart. coord. in units 2 pi/alat)
               b(1) = (  0.196997  0.000000  0.000000 )
               b(2) = (  0.000000  0.196997  0.000000 )
               b(3) = (  0.000000  0.000000  0.279459 )

     PseudoPot. # 1 for La read from file:
     /home/users/vossj/suncat/psp/gbrv1.5pbe/La.UPF
     MD5 check sum: 5937b0c7494ba0601a847275249473aa
     Pseudo is Ultrasoft + core correction, Zval = 11.0
     Generated by new atomic code, or converted to UPF format
     Using radial grid of  995 points,  8 beta functions with:
                l(1) =   0
                l(2) =   0
                l(3) =   1
                l(4) =   1
                l(5) =   2
                l(6) =   2
                l(7) =   3
                l(8) =   3
     Q(r) pseudized with  8 coefficients,  rinner =    1.700   1.700   1.700
                                                       1.700   1.700   1.700
                                                       1.700

     PseudoPot. # 2 for Ru read from file:
     /home/users/vossj/suncat/psp/gbrv1.5pbe/Ru.UPF
     MD5 check sum: 7158a806dd851261a58e6920c40ebe78
     Pseudo is Ultrasoft + core correction, Zval = 16.0
     Generated by new atomic code, or converted to UPF format
     Using radial grid of  967 points,  6 beta functions with:
                l(1) =   0
                l(2) =   0
                l(3) =   1
                l(4) =   1
                l(5) =   2
                l(6) =   2
     Q(r) pseudized with  8 coefficients,  rinner =    1.300   1.300   1.300
                                                       1.300   1.300

     vdW kernel table read from file vdW_kernel_table
     MD5 check sum: 095c7af220d748ca6e76c0b4c6cfb241

     atomic species   valence    mass     pseudopotential
        La1           11.00   138.90550     La( 1.00)
        Ru1           16.00   101.07000     Ru( 1.00)

     16 Sym. Ops., with inversion, found

   Cartesian axes

     site n.     atom                  positions (alat units)
         1           La1 tau(   1) = (   0.0000000   0.0000000   0.0000000  )
         2           La1 tau(   2) = (   2.5381159   2.5381159   0.0000000  )
         3           Ru1 tau(   3) = (   2.5381159   0.0000000   1.7891730  )
         4           Ru1 tau(   4) = (   0.0000000   2.5381159   1.7891730  )

     number of k points=    75  Fermi-Dirac smearing, width (Ry)=  0.0073
                       cart. coord. in units 2pi/alat
        k(    1) = (   0.0000000   0.0000000   0.0000000), wk =   0.0027435
        k(    2) = (   0.0000000   0.0000000   0.0310510), wk =   0.0054870
        k(    3) = (   0.0000000   0.0000000   0.0621019), wk =   0.0054870
        k(    4) = (   0.0000000   0.0000000   0.0931529), wk =   0.0054870
        k(    5) = (   0.0000000   0.0000000   0.1242039), wk =   0.0054870
        k(    6) = (   0.0000000   0.0218885   0.0000000), wk =   0.0109739
        k(    7) = (   0.0000000   0.0218885   0.0310510), wk =   0.0219479
        k(    8) = (   0.0000000   0.0218885   0.0621019), wk =   0.0219479
        k(    9) = (   0.0000000   0.0218885   0.0931529), wk =   0.0219479
        k(   10) = (   0.0000000   0.0218885   0.1242039), wk =   0.0219479
        k(   11) = (   0.0000000   0.0437770   0.0000000), wk =   0.0109739
        k(   12) = (   0.0000000   0.0437770   0.0310510), wk =   0.0219479
        k(   13) = (   0.0000000   0.0437770   0.0621019), wk =   0.0219479
        k(   14) = (   0.0000000   0.0437770   0.0931529), wk =   0.0219479
        k(   15) = (   0.0000000   0.0437770   0.1242039), wk =   0.0219479
        k(   16) = (   0.0000000   0.0656655   0.0000000), wk =   0.0109739
        k(   17) = (   0.0000000   0.0656655   0.0310510), wk =   0.0219479
        k(   18) = (   0.0000000   0.0656655   0.0621019), wk =   0.0219479
        k(   19) = (   0.0000000   0.0656655   0.0931529), wk =   0.0219479
        k(   20) = (   0.0000000   0.0656655   0.1242039), wk =   0.0219479
        k(   21) = (   0.0000000   0.0875540   0.0000000), wk =   0.0109739
        k(   22) = (   0.0000000   0.0875540   0.0310510), wk =   0.0219479
        k(   23) = (   0.0000000   0.0875540   0.0621019), wk =   0.0219479
        k(   24) = (   0.0000000   0.0875540   0.0931529), wk =   0.0219479
        k(   25) = (   0.0000000   0.0875540   0.1242039), wk =   0.0219479
        k(   26) = (   0.0218885   0.0218885   0.0000000), wk =   0.0109739
        k(   27) = (   0.0218885   0.0218885   0.0310510), wk =   0.0219479
        k(   28) = (   0.0218885   0.0218885   0.0621019), wk =   0.0219479
        k(   29) = (   0.0218885   0.0218885   0.0931529), wk =   0.0219479
        k(   30) = (   0.0218885   0.0218885   0.1242039), wk =   0.0219479
        k(   31) = (   0.0218885   0.0437770   0.0000000), wk =   0.0219479
        k(   32) = (   0.0218885   0.0437770   0.0310510), wk =   0.0438957
        k(   33) = (   0.0218885   0.0437770   0.0621019), wk =   0.0438957
        k(   34) = (   0.0218885   0.0437770   0.0931529), wk =   0.0438957
        k(   35) = (   0.0218885   0.0437770   0.1242039), wk =   0.0438957
        k(   36) = (   0.0218885   0.0656655   0.0000000), wk =   0.0219479
        k(   37) = (   0.0218885   0.0656655   0.0310510), wk =   0.0438957
        k(   38) = (   0.0218885   0.0656655   0.0621019), wk =   0.0438957
        k(   39) = (   0.0218885   0.0656655   0.0931529), wk =   0.0438957
        k(   40) = (   0.0218885   0.0656655   0.1242039), wk =   0.0438957
        k(   41) = (   0.0218885   0.0875540   0.0000000), wk =   0.0219479
        k(   42) = (   0.0218885   0.0875540   0.0310510), wk =   0.0438957
        k(   43) = (   0.0218885   0.0875540   0.0621019), wk =   0.0438957
        k(   44) = (   0.0218885   0.0875540   0.0931529), wk =   0.0438957
        k(   45) = (   0.0218885   0.0875540   0.1242039), wk =   0.0438957
        k(   46) = (   0.0437770   0.0437770   0.0000000), wk =   0.0109739
        k(   47) = (   0.0437770   0.0437770   0.0310510), wk =   0.0219479
        k(   48) = (   0.0437770   0.0437770   0.0621019), wk =   0.0219479
        k(   49) = (   0.0437770   0.0437770   0.0931529), wk =   0.0219479
        k(   50) = (   0.0437770   0.0437770   0.1242039), wk =   0.0219479
        k(   51) = (   0.0437770   0.0656655   0.0000000), wk =   0.0219479
        k(   52) = (   0.0437770   0.0656655   0.0310510), wk =   0.0438957
        k(   53) = (   0.0437770   0.0656655   0.0621019), wk =   0.0438957
        k(   54) = (   0.0437770   0.0656655   0.0931529), wk =   0.0438957
        k(   55) = (   0.0437770   0.0656655   0.1242039), wk =   0.0438957
        k(   56) = (   0.0437770   0.0875540   0.0000000), wk =   0.0219479
        k(   57) = (   0.0437770   0.0875540   0.0310510), wk =   0.0438957
        k(   58) = (   0.0437770   0.0875540   0.0621019), wk =   0.0438957
        k(   59) = (   0.0437770   0.0875540   0.0931529), wk =   0.0438957
        k(   60) = (   0.0437770   0.0875540   0.1242039), wk =   0.0438957
        k(   61) = (   0.0656655   0.0656655   0.0000000), wk =   0.0109739
        k(   62) = (   0.0656655   0.0656655   0.0310510), wk =   0.0219479
        k(   63) = (   0.0656655   0.0656655   0.0621019), wk =   0.0219479
        k(   64) = (   0.0656655   0.0656655   0.0931529), wk =   0.0219479
        k(   65) = (   0.0656655   0.0656655   0.1242039), wk =   0.0219479
        k(   66) = (   0.0656655   0.0875540   0.0000000), wk =   0.0219479
        k(   67) = (   0.0656655   0.0875540   0.0310510), wk =   0.0438957
        k(   68) = (   0.0656655   0.0875540   0.0621019), wk =   0.0438957
        k(   69) = (   0.0656655   0.0875540   0.0931529), wk =   0.0438957
        k(   70) = (   0.0656655   0.0875540   0.1242039), wk =   0.0438957
        k(   71) = (   0.0875540   0.0875540   0.0000000), wk =   0.0109739
        k(   72) = (   0.0875540   0.0875540   0.0310510), wk =   0.0219479
        k(   73) = (   0.0875540   0.0875540   0.0621019), wk =   0.0219479
        k(   74) = (   0.0875540   0.0875540   0.0931529), wk =   0.0219479
        k(   75) = (   0.0875540   0.0875540   0.1242039), wk =   0.0219479

     Largest allocated arrays     est. size (Mb)     dimensions
     Largest temporary arrays     est. size (Mb)     dimensions

     Initial potential from superposition of free atoms
     Check: negative starting charge=   -0.282672

     starting charge   51.93583, renormalised to   54.00000

     negative rho (up, down):  2.939E-01 0.000E+00

     *
     * You are using vdW-DF for exchange-correlation in this calculation.
     * Please cite the following three references that made this development
     * possible:
     *
     *   M. Dion, H. Rydberg, E. Schroder, D. C. Langreth, and
     *   B. I. Lundqvist, Phys. Rev. Lett. 92, 246401 (2004).
     *
     *   T. Thonhauser, V. R. Cooper, S. Li, A. Puzder, P. Hyldgaard, and
     *   D. C. Langreth, Phys. Rev. B 76, 125112 (2007).
     *
     *   G. Roman-Perez and J. M. Soler, Phys. Rev. Lett. 103, 096102 (2009).
     *
     *
     * If you are using vdW-DF2, please also cite:
     *
     *   K. Lee, E. D. Murray, L. Kong, B. I. Lundqvist, and
     *   D. C. Langreth, Phys. Rev. B 82, 081101(R) (2010).
     *
     *
     * If you are calculating the stress with vdW-DF, please also cite:
     *
     *   R. Sabatini, E. Kucukbenli, B. Kolb, T. Thonhauser, and
     *   S. de Gironcoli, J. Phys.: Condens. Matter 24, 424209 (2012).
     *

     Carrying out vdW-DF run using the following parameters:

     Nqs =      20    Nr_points =    1024   r_max =   100.000
     q_mesh =
               0.00001000     0.04494208     0.09755937     0.15916263
               0.23128650     0.31572767     0.41458969     0.53033537
               0.66584808     0.82450364     1.01025438     1.22772762
               1.48234092     1.78043706     2.12944203     2.53805004
               3.01644009     3.57652955     4.23227104     5.00000000

     Gradients computed in reciprocal space

     Starting wfc are   66 randomized atomic wfcs

     Self-consistent Calculation

     iteration #  1     ecut=    58.80 Ry     beta=0.10
     Davidson diagonalization with overlap
     ethr =  1.00E-02,  avg # of iterations =  2.0

[...]

     total energy              =    -598.38967709 Ry
     Harris-Foulkes estimate   =    -598.81891852 Ry
     estimated scf accuracy    <       2.57102105 Ry

[...]

     total energy              =    -598.41023538 Ry
     Harris-Foulkes estimate   =    -598.41022356 Ry
     estimated scf accuracy    <       0.00000191 Ry

     iteration # 16     ecut=    58.80 Ry     beta=0.10
     Davidson diagonalization with overlap
     ethr =  3.53E-09,  avg # of iterations =  1.0

     negative rho (up, down):  2.326E-01 0.000E+00

     End of self-consistent calculation

          k = 0.0000 0.0000 0.0000 (  4741 PWs)   bands (ev):

   -56.3739 -56.3719 -26.3975 -26.3975 -26.3779 -26.3745 -26.3745 -26.3733
   -16.8090 -16.5933  -0.8998  -0.8998   0.0413   0.0413   0.0535   0.2657
    11.3318  11.8917  12.2698  12.2731  12.9007  13.6160  13.6160  14.6146
    14.6277  14.6277  15.6816  16.2133  17.6068  17.6068  17.9978  18.0298
    18.2510  18.2510  18.2574  18.3100  18.3213  18.3213  18.3435  18.3435
    18.3504  18.6014  18.7259  18.7451  18.7971  19.8259  19.8259

[...]

          k = 0.0876 0.0876 0.1242 (  4754 PWs)   bands (ev):

   -56.3719 -56.3718 -26.4012 -26.4009 -26.3975 -26.3968 -26.3707 -26.3700
   -16.5955 -16.5895  -0.9017  -0.8942  -0.8824  -0.8747   0.2162   0.2484
    11.9857  11.9869  12.9359  12.9756  13.6215  13.6218  13.6295  13.6754
    15.5424  15.6102  16.0910  16.1725  17.4949  17.5855  17.6608  17.6948
    18.2867  18.2889  18.2913  18.3022  18.3205  18.3337  18.6131  18.7377
    18.7390  18.7519  18.7996  18.9954  19.5371  19.5892  19.7208

     the Fermi energy is    15.3420 ev

!    total energy              =    -598.41028562 Ry
     Harris-Foulkes estimate   =    -598.41023541 Ry
     estimated scf accuracy    <       0.00000082 Ry

     The total energy is the sum of the following terms:

     one-electron contribution =    -147.60415266 Ry
     hartree contribution      =     103.93230120 Ry
     xc contribution           =    -155.69622383 Ry
     ewald contribution        =    -399.03485312 Ry
     smearing contrib. (-TS)   =      -0.00735720 Ry

     convergence has been achieved in  16 iterations

     Forces acting on atoms (Ry/au):

     negative rho (up, down):  2.326E-01 0.000E+00
     atom    1 type  1   force =     0.00000000    0.00000000    0.00000000
     atom    2 type  1   force =     0.00000000    0.00000000    0.00000000
     atom    3 type  2   force =     0.00000000    0.00000000    0.00000000
     atom    4 type  2   force =     0.00000000    0.00000000    0.00000000

     Total force =     0.000000     Total SCF correction =     0.000000

     General routines

     Parallel routines

   This run was terminated on:   8:39:57  15Nov2017

   JOB DONE.