     Program PWSCF v.5.1rc2 starts on 14Nov2017 at  9:43:56

     Current dimensions of program PWSCF are:
     Max number of different atomic species (ntypx) = 10
     Max number of k-points (npk) =  40000
     Max angular momentum in pseudopotentials (lmaxx) =  3

     IMPORTANT: XC functional enforced from input :
     Exchange-correlation      = BEEF-VDW ( 1  4 27 13 2)
     Any further DFT definition will be discarded
     Please, verify this is what you really want

     Found symmetry operation: I + ( -0.5000 -0.5000  0.0000)
     This is a supercell, fractional translations are disabled

     bravais-lattice index     =            0
     lattice parameter (alat)  =       1.8897  a.u.
     unit-cell volume          =     677.6496 (a.u.)^3
     number of atoms/cell      =            4
     number of atomic types    =            2
     number of electrons       =        60.00
     number of Kohn-Sham states=           50
     kinetic-energy cutoff     =      58.7989  Ry
     charge density cutoff     =     587.9892  Ry
     convergence threshold     =      1.0E-06
     mixing beta               =       0.1000
     number of iterations used =           10  plain     mixing
     Exchange-correlation      = BEEF-VDW ( 1  4 27 13 2)

     celldm(1)=   1.889726  celldm(2)=   0.000000  celldm(3)=   0.000000
     celldm(4)=   0.000000  celldm(5)=   0.000000  celldm(6)=   0.000000

     crystal axes: (cart. coord. in units of alat)
               a(1) = (   5.207036   0.000000   0.000000 )
               a(2) = (   0.000000   5.207036   0.000000 )
               a(3) = (   0.000000   0.000000   3.703629 )

     reciprocal axes: (cart. coord. in units 2 pi/alat)
               b(1) = (  0.192048  0.000000  0.000000 )
               b(2) = (  0.000000  0.192048  0.000000 )
               b(3) = (  0.000000  0.000000  0.270005 )

     PseudoPot. # 1 for Cu read from file:
     /home/users/vossj/suncat/psp/gbrv1.5pbe/Cu.UPF
     MD5 check sum: 6e991ff952a84172a2a52a1c1e996048
     Pseudo is Ultrasoft + core correction, Zval = 19.0
     Generated by new atomic code, or converted to UPF format
     Using radial grid of  867 points,  6 beta functions with:
                l(1) =   0
                l(2) =   0
                l(3) =   1
                l(4) =   1
                l(5) =   2
                l(6) =   2
     Q(r) pseudized with  8 coefficients,  rinner =    1.150   1.150   1.150
                                                       1.150   1.150

     PseudoPot. # 2 for La read from file:
     /home/users/vossj/suncat/psp/gbrv1.5pbe/La.UPF
     MD5 check sum: 5937b0c7494ba0601a847275249473aa
     Pseudo is Ultrasoft + core correction, Zval = 11.0
     Generated by new atomic code, or converted to UPF format
     Using radial grid of  995 points,  8 beta functions with:
                l(1) =   0
                l(2) =   0
                l(3) =   1
                l(4) =   1
                l(5) =   2
                l(6) =   2
                l(7) =   3
                l(8) =   3
     Q(r) pseudized with  8 coefficients,  rinner =    1.700   1.700   1.700
                                                       1.700   1.700   1.700
                                                       1.700

     vdW kernel table read from file vdW_kernel_table
     MD5 check sum: 095c7af220d748ca6e76c0b4c6cfb241

     atomic species   valence    mass     pseudopotential
        Cu1           19.00    63.54600     Cu( 1.00)
        La1           11.00   138.90550     La( 1.00)

     16 Sym. Ops., with inversion, found

   Cartesian axes

     site n.     atom                  positions (alat units)
         1           Cu1 tau(   1) = (   0.0000000   0.0000000   0.0000000  )
         2           Cu1 tau(   2) = (   2.6035180   2.6035180   0.0000000  )
         3           La1 tau(   3) = (   2.6035180   0.0000000   1.8518143  )
         4           La1 tau(   4) = (   0.0000000   2.6035180   1.8518143  )

     number of k points=    75  Fermi-Dirac smearing, width (Ry)=  0.0073
                       cart. coord. in units 2pi/alat
        k(    1) = (   0.0000000   0.0000000   0.0000000), wk =   0.0027435
        k(    2) = (   0.0000000   0.0000000   0.0300006), wk =   0.0054870
        k(    3) = (   0.0000000   0.0000000   0.0600012), wk =   0.0054870
        k(    4) = (   0.0000000   0.0000000   0.0900018), wk =   0.0054870
        k(    5) = (   0.0000000   0.0000000   0.1200024), wk =   0.0054870
        k(    6) = (   0.0000000   0.0213386   0.0000000), wk =   0.0109739
        k(    7) = (   0.0000000   0.0213386   0.0300006), wk =   0.0219479
        k(    8) = (   0.0000000   0.0213386   0.0600012), wk =   0.0219479
        k(    9) = (   0.0000000   0.0213386   0.0900018), wk =   0.0219479
        k(   10) = (   0.0000000   0.0213386   0.1200024), wk =   0.0219479
        k(   11) = (   0.0000000   0.0426773   0.0000000), wk =   0.0109739
        k(   12) = (   0.0000000   0.0426773   0.0300006), wk =   0.0219479
        k(   13) = (   0.0000000   0.0426773   0.0600012), wk =   0.0219479
        k(   14) = (   0.0000000   0.0426773   0.0900018), wk =   0.0219479
        k(   15) = (   0.0000000   0.0426773   0.1200024), wk =   0.0219479
        k(   16) = (   0.0000000   0.0640159   0.0000000), wk =   0.0109739
        k(   17) = (   0.0000000   0.0640159   0.0300006), wk =   0.0219479
        k(   18) = (   0.0000000   0.0640159   0.0600012), wk =   0.0219479
        k(   19) = (   0.0000000   0.0640159   0.0900018), wk =   0.0219479
        k(   20) = (   0.0000000   0.0640159   0.1200024), wk =   0.0219479
        k(   21) = (   0.0000000   0.0853546   0.0000000), wk =   0.0109739
        k(   22) = (   0.0000000   0.0853546   0.0300006), wk =   0.0219479
        k(   23) = (   0.0000000   0.0853546   0.0600012), wk =   0.0219479
        k(   24) = (   0.0000000   0.0853546   0.0900018), wk =   0.0219479
        k(   25) = (   0.0000000   0.0853546   0.1200024), wk =   0.0219479
        k(   26) = (   0.0213386   0.0213386   0.0000000), wk =   0.0109739
        k(   27) = (   0.0213386   0.0213386   0.0300006), wk =   0.0219479
        k(   28) = (   0.0213386   0.0213386   0.0600012), wk =   0.0219479
        k(   29) = (   0.0213386   0.0213386   0.0900018), wk =   0.0219479
        k(   30) = (   0.0213386   0.0213386   0.1200024), wk =   0.0219479
        k(   31) = (   0.0213386   0.0426773   0.0000000), wk =   0.0219479
        k(   32) = (   0.0213386   0.0426773   0.0300006), wk =   0.0438957
        k(   33) = (   0.0213386   0.0426773   0.0600012), wk =   0.0438957
        k(   34) = (   0.0213386   0.0426773   0.0900018), wk =   0.0438957
        k(   35) = (   0.0213386   0.0426773   0.1200024), wk =   0.0438957
        k(   36) = (   0.0213386   0.0640159   0.0000000), wk =   0.0219479
        k(   37) = (   0.0213386   0.0640159   0.0300006), wk =   0.0438957
        k(   38) = (   0.0213386   0.0640159   0.0600012), wk =   0.0438957
        k(   39) = (   0.0213386   0.0640159   0.0900018), wk =   0.0438957
        k(   40) = (   0.0213386   0.0640159   0.1200024), wk =   0.0438957
        k(   41) = (   0.0213386   0.0853546   0.0000000), wk =   0.0219479
        k(   42) = (   0.0213386   0.0853546   0.0300006), wk =   0.0438957
        k(   43) = (   0.0213386   0.0853546   0.0600012), wk =   0.0438957
        k(   44) = (   0.0213386   0.0853546   0.0900018), wk =   0.0438957
        k(   45) = (   0.0213386   0.0853546   0.1200024), wk =   0.0438957
        k(   46) = (   0.0426773   0.0426773   0.0000000), wk =   0.0109739
        k(   47) = (   0.0426773   0.0426773   0.0300006), wk =   0.0219479
        k(   48) = (   0.0426773   0.0426773   0.0600012), wk =   0.0219479
        k(   49) = (   0.0426773   0.0426773   0.0900018), wk =   0.0219479
        k(   50) = (   0.0426773   0.0426773   0.1200024), wk =   0.0219479
        k(   51) = (   0.0426773   0.0640159   0.0000000), wk =   0.0219479
        k(   52) = (   0.0426773   0.0640159   0.0300006), wk =   0.0438957
        k(   53) = (   0.0426773   0.0640159   0.0600012), wk =   0.0438957
        k(   54) = (   0.0426773   0.0640159   0.0900018), wk =   0.0438957
        k(   55) = (   0.0426773   0.0640159   0.1200024), wk =   0.0438957
        k(   56) = (   0.0426773   0.0853546   0.0000000), wk =   0.0219479
        k(   57) = (   0.0426773   0.0853546   0.0300006), wk =   0.0438957
        k(   58) = (   0.0426773   0.0853546   0.0600012), wk =   0.0438957
        k(   59) = (   0.0426773   0.0853546   0.0900018), wk =   0.0438957
        k(   60) = (   0.0426773   0.0853546   0.1200024), wk =   0.0438957
        k(   61) = (   0.0640159   0.0640159   0.0000000), wk =   0.0109739
        k(   62) = (   0.0640159   0.0640159   0.0300006), wk =   0.0219479
        k(   63) = (   0.0640159   0.0640159   0.0600012), wk =   0.0219479
        k(   64) = (   0.0640159   0.0640159   0.0900018), wk =   0.0219479
        k(   65) = (   0.0640159   0.0640159   0.1200024), wk =   0.0219479
        k(   66) = (   0.0640159   0.0853546   0.0000000), wk =   0.0219479
        k(   67) = (   0.0640159   0.0853546   0.0300006), wk =   0.0438957
        k(   68) = (   0.0640159   0.0853546   0.0600012), wk =   0.0438957
        k(   69) = (   0.0640159   0.0853546   0.0900018), wk =   0.0438957
        k(   70) = (   0.0640159   0.0853546   0.1200024), wk =   0.0438957
        k(   71) = (   0.0853546   0.0853546   0.0000000), wk =   0.0109739
        k(   72) = (   0.0853546   0.0853546   0.0300006), wk =   0.0219479
        k(   73) = (   0.0853546   0.0853546   0.0600012), wk =   0.0219479
        k(   74) = (   0.0853546   0.0853546   0.0900018), wk =   0.0219479
        k(   75) = (   0.0853546   0.0853546   0.1200024), wk =   0.0219479

     Largest allocated arrays     est. size (Mb)     dimensions
     Largest temporary arrays     est. size (Mb)     dimensions

     Initial potential from superposition of free atoms
     Check: negative starting charge=   -0.140090

     starting charge   57.93586, renormalised to   60.00000

     negative rho (up, down):  1.451E-01 0.000E+00

     *
     * You are using vdW-DF for exchange-correlation in this calculation.
     * Please cite the following three references that made this development
     * possible:
     *
     *   M. Dion, H. Rydberg, E. Schroder, D. C. Langreth, and
     *   B. I. Lundqvist, Phys. Rev. Lett. 92, 246401 (2004).
     *
     *   T. Thonhauser, V. R. Cooper, S. Li, A. Puzder, P. Hyldgaard, and
     *   D. C. Langreth, Phys. Rev. B 76, 125112 (2007).
     *
     *   G. Roman-Perez and J. M. Soler, Phys. Rev. Lett. 103, 096102 (2009).
     *
     *
     * If you are using vdW-DF2, please also cite:
     *
     *   K. Lee, E. D. Murray, L. Kong, B. I. Lundqvist, and
     *   D. C. Langreth, Phys. Rev. B 82, 081101(R) (2010).
     *
     *
     * If you are calculating the stress with vdW-DF, please also cite:
     *
     *   R. Sabatini, E. Kucukbenli, B. Kolb, T. Thonhauser, and
     *   S. de Gironcoli, J. Phys.: Condens. Matter 24, 424209 (2012).
     *

     Carrying out vdW-DF run using the following parameters:

     Nqs =      20    Nr_points =    1024   r_max =   100.000
     q_mesh =
               0.00001000     0.04494208     0.09755937     0.15916263
               0.23128650     0.31572767     0.41458969     0.53033537
               0.66584808     0.82450364     1.01025438     1.22772762
               1.48234092     1.78043706     2.12944203     2.53805004
               3.01644009     3.57652955     4.23227104     5.00000000

     Gradients computed in reciprocal space

     Starting wfc are   66 randomized atomic wfcs

     Self-consistent Calculation

     iteration #  1     ecut=    58.80 Ry     beta=0.10
     Davidson diagonalization with overlap
     ethr =  1.00E-02,  avg # of iterations =  3.0

[...]

     total energy              =   -1017.98171009 Ry
     Harris-Foulkes estimate   =   -1018.45790320 Ry
     estimated scf accuracy    <       2.72351712 Ry

[...]

     total energy              =   -1018.05157822 Ry
     Harris-Foulkes estimate   =   -1018.05155931 Ry
     estimated scf accuracy    <       0.00000153 Ry

     iteration # 16     ecut=    58.80 Ry     beta=0.10
     Davidson diagonalization with overlap
     ethr =  2.55E-09,  avg # of iterations =  1.0

     negative rho (up, down):  1.007E-01 0.000E+00

     End of self-consistent calculation

          k = 0.0000 0.0000 0.0000 (  5129 PWs)   bands (ev):

  -100.8249-100.8243 -58.2122 -58.2117 -58.2111 -58.2111 -58.2104 -58.2104
   -21.3067 -21.1513  -5.2327  -5.2327  -4.5104  -4.4923  -4.4923  -4.3375
     6.6927   7.9015   8.5182   8.5237   8.6733   8.8838   8.8838   9.1105
     9.1105   9.1175   9.3419   9.6937  11.9972  12.0124  12.7865  12.8339
    12.8339  13.5467  13.5716  13.5853  13.5853  13.6145  13.6226  13.6226
    13.6297  13.6297  13.8872  13.9629  14.0070  14.5719  14.5719  15.0600
    15.0600  16.7746

[...]

          k = 0.0854 0.0854 0.1200 (  5162 PWs)   bands (ev):

  -100.8249-100.8243 -58.2125 -58.2120 -58.2111 -58.2111 -58.2104 -58.2104
   -21.1606 -21.1561  -5.2403  -5.2212  -5.1960  -5.1878  -4.3540  -4.3306
     7.9623   7.9630   8.6916   8.7026   8.9016   8.9026   8.9036   8.9149
     9.3176   9.3268   9.6638   9.6740  12.3226  12.4484  12.7198  12.8542
    13.0205  13.1340  13.5431  13.5579  13.6097  13.6101  13.6111  13.6241
    13.9436  13.9493  13.9992  14.0206  14.2969  14.3183  14.4843  14.4989
    15.0527  15.1630

     the Fermi energy is    11.9086 ev

!    total energy              =   -1018.05165859 Ry
     Harris-Foulkes estimate   =   -1018.05157826 Ry
     estimated scf accuracy    <       0.00000067 Ry

     The total energy is the sum of the following terms:

     one-electron contribution =    -752.16385352 Ry
     hartree contribution      =     404.09725668 Ry
     xc contribution           =    -181.47536955 Ry
     ewald contribution        =    -488.49979076 Ry
     smearing contrib. (-TS)   =      -0.00990144 Ry

     convergence has been achieved in  16 iterations

     Forces acting on atoms (Ry/au):

     negative rho (up, down):  1.007E-01 0.000E+00
     atom    1 type  1   force =     0.00000000    0.00000000    0.00000000
     atom    2 type  1   force =     0.00000000    0.00000000    0.00000000
     atom    3 type  2   force =     0.00000000    0.00000000    0.00000000
     atom    4 type  2   force =     0.00000000    0.00000000    0.00000000

     Total force =     0.000000     Total SCF correction =     0.000000

     General routines

     Parallel routines

   This run was terminated on:   9:45:24  14Nov2017

   JOB DONE.