     Program PWSCF v.5.1rc2 starts on 14Nov2017 at 13:47:58

     Current dimensions of program PWSCF are:
     Max number of different atomic species (ntypx) = 10
     Max number of k-points (npk) =  40000
     Max angular momentum in pseudopotentials (lmaxx) =  3

     IMPORTANT: XC functional enforced from input :
     Exchange-correlation      = BEEF-VDW ( 1  4 27 13 2)
     Any further DFT definition will be discarded
     Please, verify this is what you really want

     Found symmetry operation: I + ( -0.5000 -0.5000  0.0000)
     This is a supercell, fractional translations are disabled

     bravais-lattice index     =            0
     lattice parameter (alat)  =       1.8897  a.u.
     unit-cell volume          =     499.6558 (a.u.)^3
     number of atoms/cell      =            4
     number of atomic types    =            2
     number of electrons       =        62.00
     number of Kohn-Sham states=           51
     kinetic-energy cutoff     =      58.7989  Ry
     charge density cutoff     =     587.9892  Ry
     convergence threshold     =      1.0E-06
     mixing beta               =       0.1000
     number of iterations used =           10  plain     mixing
     Exchange-correlation      = BEEF-VDW ( 1  4 27 13 2)

     celldm(1)=   1.889726  celldm(2)=   0.000000  celldm(3)=   0.000000
     celldm(4)=   0.000000  celldm(5)=   0.000000  celldm(6)=   0.000000

     crystal axes: (cart. coord. in units of alat)
               a(1) = (   4.242563   0.000000   0.000000 )
               a(2) = (   0.000000   4.242563   0.000000 )
               a(3) = (   0.000000   0.000000   4.113559 )

     reciprocal axes: (cart. coord. in units 2 pi/alat)
               b(1) = (  0.235707  0.000000  0.000000 )
               b(2) = (  0.000000  0.235707  0.000000 )
               b(3) = (  0.000000  0.000000  0.243099 )

     PseudoPot. # 1 for Ga read from file:
     /home/users/vossj/suncat/psp/gbrv1.5pbe/Ga.UPF
     MD5 check sum: ccd671392a58a050fbb373893b4fcd66
     Pseudo is Ultrasoft + core correction, Zval = 19.0
     Generated by new atomic code, or converted to UPF format
     Using radial grid of  871 points,  6 beta functions with:
                l(1) =   0
                l(2) =   0
                l(3) =   1
                l(4) =   1
                l(5) =   2
                l(6) =   2
     Q(r) pseudized with  8 coefficients,  rinner =    1.250   1.250   1.250
                                                       1.250   1.250

     PseudoPot. # 2 for Hf read from file:
     /home/users/vossj/suncat/psp/gbrv1.5pbe/Hf.UPF
     MD5 check sum: 8ee9378dfe14276e333edf04c5e4aa26
     Pseudo is Ultrasoft + core correction, Zval = 12.0
     Generated by new atomic code, or converted to UPF format
     Using radial grid of  921 points,  8 beta functions with:
                l(1) =   0
                l(2) =   0
                l(3) =   0
                l(4) =   1
                l(5) =   1
                l(6) =   2
                l(7) =   2
                l(8) =   3
     Q(r) pseudized with  6 coefficients,  rinner =    1.200   1.200   1.200
                                                       1.200   1.200   1.200
                                                       1.200

     vdW kernel table read from file vdW_kernel_table
     MD5 check sum: 095c7af220d748ca6e76c0b4c6cfb241

     atomic species   valence    mass     pseudopotential
        Ga1           19.00    69.72300     Ga( 1.00)
        Hf1           12.00   178.49000     Hf( 1.00)

     16 Sym. Ops., with inversion, found

   Cartesian axes

     site n.     atom                  positions (alat units)
         1           Ga1 tau(   1) = (   0.0000000   0.0000000   0.0000000  )
         2           Ga1 tau(   2) = (   2.1212815   2.1212815   0.0000000  )
         3           Hf1 tau(   3) = (   2.1212815   0.0000000   2.0567795  )
         4           Hf1 tau(   4) = (   0.0000000   2.1212815   2.0567795  )

     number of k points=    75  Fermi-Dirac smearing, width (Ry)=  0.0073
                       cart. coord. in units 2pi/alat
        k(    1) = (   0.0000000   0.0000000   0.0000000), wk =   0.0027435
        k(    2) = (   0.0000000   0.0000000   0.0270109), wk =   0.0054870
        k(    3) = (   0.0000000   0.0000000   0.0540219), wk =   0.0054870
        k(    4) = (   0.0000000   0.0000000   0.0810328), wk =   0.0054870
        k(    5) = (   0.0000000   0.0000000   0.1080438), wk =   0.0054870
        k(    6) = (   0.0000000   0.0261896   0.0000000), wk =   0.0109739
        k(    7) = (   0.0000000   0.0261896   0.0270109), wk =   0.0219479
        k(    8) = (   0.0000000   0.0261896   0.0540219), wk =   0.0219479
        k(    9) = (   0.0000000   0.0261896   0.0810328), wk =   0.0219479
        k(   10) = (   0.0000000   0.0261896   0.1080438), wk =   0.0219479
        k(   11) = (   0.0000000   0.0523792   0.0000000), wk =   0.0109739
        k(   12) = (   0.0000000   0.0523792   0.0270109), wk =   0.0219479
        k(   13) = (   0.0000000   0.0523792   0.0540219), wk =   0.0219479
        k(   14) = (   0.0000000   0.0523792   0.0810328), wk =   0.0219479
        k(   15) = (   0.0000000   0.0523792   0.1080438), wk =   0.0219479
        k(   16) = (   0.0000000   0.0785689   0.0000000), wk =   0.0109739
        k(   17) = (   0.0000000   0.0785689   0.0270109), wk =   0.0219479
        k(   18) = (   0.0000000   0.0785689   0.0540219), wk =   0.0219479
        k(   19) = (   0.0000000   0.0785689   0.0810328), wk =   0.0219479
        k(   20) = (   0.0000000   0.0785689   0.1080438), wk =   0.0219479
        k(   21) = (   0.0000000   0.1047585   0.0000000), wk =   0.0109739
        k(   22) = (   0.0000000   0.1047585   0.0270109), wk =   0.0219479
        k(   23) = (   0.0000000   0.1047585   0.0540219), wk =   0.0219479
        k(   24) = (   0.0000000   0.1047585   0.0810328), wk =   0.0219479
        k(   25) = (   0.0000000   0.1047585   0.1080438), wk =   0.0219479
        k(   26) = (   0.0261896   0.0261896   0.0000000), wk =   0.0109739
        k(   27) = (   0.0261896   0.0261896   0.0270109), wk =   0.0219479
        k(   28) = (   0.0261896   0.0261896   0.0540219), wk =   0.0219479
        k(   29) = (   0.0261896   0.0261896   0.0810328), wk =   0.0219479
        k(   30) = (   0.0261896   0.0261896   0.1080438), wk =   0.0219479
        k(   31) = (   0.0261896   0.0523792   0.0000000), wk =   0.0219479
        k(   32) = (   0.0261896   0.0523792   0.0270109), wk =   0.0438957
        k(   33) = (   0.0261896   0.0523792   0.0540219), wk =   0.0438957
        k(   34) = (   0.0261896   0.0523792   0.0810328), wk =   0.0438957
        k(   35) = (   0.0261896   0.0523792   0.1080438), wk =   0.0438957
        k(   36) = (   0.0261896   0.0785689   0.0000000), wk =   0.0219479
        k(   37) = (   0.0261896   0.0785689   0.0270109), wk =   0.0438957
        k(   38) = (   0.0261896   0.0785689   0.0540219), wk =   0.0438957
        k(   39) = (   0.0261896   0.0785689   0.0810328), wk =   0.0438957
        k(   40) = (   0.0261896   0.0785689   0.1080438), wk =   0.0438957
        k(   41) = (   0.0261896   0.1047585   0.0000000), wk =   0.0219479
        k(   42) = (   0.0261896   0.1047585   0.0270109), wk =   0.0438957
        k(   43) = (   0.0261896   0.1047585   0.0540219), wk =   0.0438957
        k(   44) = (   0.0261896   0.1047585   0.0810328), wk =   0.0438957
        k(   45) = (   0.0261896   0.1047585   0.1080438), wk =   0.0438957
        k(   46) = (   0.0523792   0.0523792   0.0000000), wk =   0.0109739
        k(   47) = (   0.0523792   0.0523792   0.0270109), wk =   0.0219479
        k(   48) = (   0.0523792   0.0523792   0.0540219), wk =   0.0219479
        k(   49) = (   0.0523792   0.0523792   0.0810328), wk =   0.0219479
        k(   50) = (   0.0523792   0.0523792   0.1080438), wk =   0.0219479
        k(   51) = (   0.0523792   0.0785689   0.0000000), wk =   0.0219479
        k(   52) = (   0.0523792   0.0785689   0.0270109), wk =   0.0438957
        k(   53) = (   0.0523792   0.0785689   0.0540219), wk =   0.0438957
        k(   54) = (   0.0523792   0.0785689   0.0810328), wk =   0.0438957
        k(   55) = (   0.0523792   0.0785689   0.1080438), wk =   0.0438957
        k(   56) = (   0.0523792   0.1047585   0.0000000), wk =   0.0219479
        k(   57) = (   0.0523792   0.1047585   0.0270109), wk =   0.0438957
        k(   58) = (   0.0523792   0.1047585   0.0540219), wk =   0.0438957
        k(   59) = (   0.0523792   0.1047585   0.0810328), wk =   0.0438957
        k(   60) = (   0.0523792   0.1047585   0.1080438), wk =   0.0438957
        k(   61) = (   0.0785689   0.0785689   0.0000000), wk =   0.0109739
        k(   62) = (   0.0785689   0.0785689   0.0270109), wk =   0.0219479
        k(   63) = (   0.0785689   0.0785689   0.0540219), wk =   0.0219479
        k(   64) = (   0.0785689   0.0785689   0.0810328), wk =   0.0219479
        k(   65) = (   0.0785689   0.0785689   0.1080438), wk =   0.0219479
        k(   66) = (   0.0785689   0.1047585   0.0000000), wk =   0.0219479
        k(   67) = (   0.0785689   0.1047585   0.0270109), wk =   0.0438957
        k(   68) = (   0.0785689   0.1047585   0.0540219), wk =   0.0438957
        k(   69) = (   0.0785689   0.1047585   0.0810328), wk =   0.0438957
        k(   70) = (   0.0785689   0.1047585   0.1080438), wk =   0.0438957
        k(   71) = (   0.1047585   0.1047585   0.0000000), wk =   0.0109739
        k(   72) = (   0.1047585   0.1047585   0.0270109), wk =   0.0219479
        k(   73) = (   0.1047585   0.1047585   0.0540219), wk =   0.0219479
        k(   74) = (   0.1047585   0.1047585   0.0810328), wk =   0.0219479
        k(   75) = (   0.1047585   0.1047585   0.1080438), wk =   0.0219479

     Largest allocated arrays     est. size (Mb)     dimensions
     Largest temporary arrays     est. size (Mb)     dimensions

     Initial potential from superposition of free atoms
     Check: negative starting charge=   -0.216260

     starting charge   55.99999, renormalised to   62.00000

     negative rho (up, down):  2.394E-01 0.000E+00

     *
     * You are using vdW-DF for exchange-correlation in this calculation.
     * Please cite the following three references that made this development
     * possible:
     *
     *   M. Dion, H. Rydberg, E. Schroder, D. C. Langreth, and
     *   B. I. Lundqvist, Phys. Rev. Lett. 92, 246401 (2004).
     *
     *   T. Thonhauser, V. R. Cooper, S. Li, A. Puzder, P. Hyldgaard, and
     *   D. C. Langreth, Phys. Rev. B 76, 125112 (2007).
     *
     *   G. Roman-Perez and J. M. Soler, Phys. Rev. Lett. 103, 096102 (2009).
     *
     *
     * If you are using vdW-DF2, please also cite:
     *
     *   K. Lee, E. D. Murray, L. Kong, B. I. Lundqvist, and
     *   D. C. Langreth, Phys. Rev. B 82, 081101(R) (2010).
     *
     *
     * If you are calculating the stress with vdW-DF, please also cite:
     *
     *   R. Sabatini, E. Kucukbenli, B. Kolb, T. Thonhauser, and
     *   S. de Gironcoli, J. Phys.: Condens. Matter 24, 424209 (2012).
     *

     Carrying out vdW-DF run using the following parameters:

     Nqs =      20    Nr_points =    1024   r_max =   100.000
     q_mesh =
               0.00001000     0.04494208     0.09755937     0.15916263
               0.23128650     0.31572767     0.41458969     0.53033537
               0.66584808     0.82450364     1.01025438     1.22772762
               1.48234092     1.78043706     2.12944203     2.53805004
               3.01644009     3.57652955     4.23227104     5.00000000

     Gradients computed in reciprocal space

     Starting wfc are   50 randomized atomic wfcs +    1 random wfc

     Self-consistent Calculation

     iteration #  1     ecut=    58.80 Ry     beta=0.10
     Davidson diagonalization with overlap
     ethr =  1.00E-02,  avg # of iterations =  4.2

[...]

     total energy              =   -1140.28963869 Ry
     Harris-Foulkes estimate   =   -1183.80648882 Ry
     estimated scf accuracy    <     241.90975919 Ry

[...]

     total energy              =   -1154.50012471 Ry
     Harris-Foulkes estimate   =   -1154.50012622 Ry
     estimated scf accuracy    <       0.00000171 Ry

     iteration # 14     ecut=    58.80 Ry     beta=0.10
     Davidson diagonalization with overlap
     ethr =  2.76E-09,  avg # of iterations =  2.0

     negative rho (up, down):  2.333E-01 0.000E+00

     End of self-consistent calculation

          k = 0.0000 0.0000 0.0000 (  3807 PWs)   bands (ev):

   -79.9225 -79.9225 -79.9208 -79.9208 -79.8751 -79.8749 -47.7468 -47.6677
   -16.5261 -16.5261 -16.4654 -16.3078 -15.9266 -15.9266  -0.4227  -0.3943
    -0.3076  -0.3076  -0.3011  -0.2058  -0.2058  -0.1847  -0.1770  -0.0857
     4.4679   9.6709  12.3042  13.3455  13.5773  13.5773  14.3775  14.4287
    14.9316  14.9316  17.7660  18.3878  18.3878  18.7749  20.3617  20.9213
    20.9213  21.5818  22.3924  24.4281  24.5507  24.5507  26.3827  28.0246
    28.1899  31.7062  31.8524

[...]

          k = 0.1048 0.1048 0.1080 (  3803 PWs)   bands (ev):

   -79.9226 -79.9225 -79.9208 -79.9208 -79.8750 -79.8750 -47.7076 -47.7052
   -16.6138 -16.5967 -16.4150 -16.4098 -15.8840 -15.8649  -0.3339  -0.3255
    -0.3246  -0.3225  -0.2664  -0.2609  -0.2012  -0.1987  -0.1477  -0.1424
     7.9129   8.0578  11.5211  11.5926  12.4597  12.9953  13.1753  13.6719
    17.2133  17.2296  17.3835  17.3904  18.4147  18.4414  19.5201  19.6994
    22.8997  23.1532  23.4137  23.9058  26.7143  27.1052  27.3420  27.3557
    28.2084  28.6567  29.2648

     the Fermi energy is    14.5449 ev

!    total energy              =   -1154.50013031 Ry
     Harris-Foulkes estimate   =   -1154.50012496 Ry
     estimated scf accuracy    <       0.00000004 Ry

     The total energy is the sum of the following terms:

     one-electron contribution =    -720.85624095 Ry
     hartree contribution      =     390.44786887 Ry
     xc contribution           =    -254.57360658 Ry
     ewald contribution        =    -569.51209324 Ry
     smearing contrib. (-TS)   =      -0.00605841 Ry

     convergence has been achieved in  14 iterations

     Forces acting on atoms (Ry/au):

     negative rho (up, down):  2.333E-01 0.000E+00
     atom    1 type  1   force =     0.00000000    0.00000000    0.00000000
     atom    2 type  1   force =     0.00000000    0.00000000    0.00000000
     atom    3 type  2   force =     0.00000000    0.00000000    0.00000000
     atom    4 type  2   force =     0.00000000    0.00000000    0.00000000

     Total force =     0.000000     Total SCF correction =     0.000000

     General routines

     Parallel routines

   This run was terminated on:  13:48:56  14Nov2017

   JOB DONE.