     Program PWSCF v.5.1rc2 starts on 15Nov2017 at  3:20:55

     Current dimensions of program PWSCF are:
     Max number of different atomic species (ntypx) = 10
     Max number of k-points (npk) =  40000
     Max angular momentum in pseudopotentials (lmaxx) =  3

     IMPORTANT: XC functional enforced from input :
     Exchange-correlation      = BEEF-VDW ( 1  4 27 13 2)
     Any further DFT definition will be discarded
     Please, verify this is what you really want

     Found symmetry operation: I + (  0.5000  0.5000  0.0000)
     This is a supercell, fractional translations are disabled

     bravais-lattice index     =            0
     lattice parameter (alat)  =       1.8897  a.u.
     unit-cell volume          =     615.8269 (a.u.)^3
     number of atoms/cell      =            4
     number of atomic types    =            2
     number of electrons       =        48.00
     number of Kohn-Sham states=           44
     kinetic-energy cutoff     =      58.7989  Ry
     charge density cutoff     =     587.9892  Ry
     convergence threshold     =      1.0E-06
     mixing beta               =       0.1000
     number of iterations used =           10  plain     mixing
     Exchange-correlation      = BEEF-VDW ( 1  4 27 13 2)

     celldm(1)=   1.889726  celldm(2)=   0.000000  celldm(3)=   0.000000
     celldm(4)=   0.000000  celldm(5)=   0.000000  celldm(6)=   0.000000

     crystal axes: (cart. coord. in units of alat)
               a(1) = (   4.610741   0.000000   0.000000 )
               a(2) = (   0.000000   4.610741   0.000000 )
               a(3) = (   0.000000   0.000000   4.292603 )

     reciprocal axes: (cart. coord. in units 2 pi/alat)
               b(1) = (  0.216885  0.000000  0.000000 )
               b(2) = (  0.000000  0.216885  0.000000 )
               b(3) = (  0.000000  0.000000  0.232959 )

     PseudoPot. # 1 for Sc read from file:
     /home/users/vossj/suncat/psp/gbrv1.5pbe/Sc.UPF
     MD5 check sum: db30a2753ba66ef00f23801d899b7e7f
     Pseudo is Ultrasoft + core correction, Zval = 11.0
     Generated by new atomic code, or converted to UPF format
     Using radial grid of  849 points,  6 beta functions with:
                l(1) =   0
                l(2) =   0
                l(3) =   1
                l(4) =   1
                l(5) =   2
                l(6) =   2
     Q(r) pseudized with  6 coefficients,  rinner =    1.200   1.200   1.200
                                                       1.200   1.200

     PseudoPot. # 2 for In read from file:
     /home/users/vossj/suncat/psp/gbrv1.5pbe/In.UPF
     MD5 check sum: 90777abd96fbb83f2e67db2a40c566b9
     Pseudo is Ultrasoft + core correction, Zval = 13.0
     Generated by new atomic code, or converted to UPF format
     Using radial grid of  889 points,  6 beta functions with:
                l(1) =   0
                l(2) =   0
                l(3) =   1
                l(4) =   1
                l(5) =   2
                l(6) =   2
     Q(r) pseudized with  6 coefficients,  rinner =    1.400   1.400   1.400
                                                       1.400   1.400

     vdW kernel table read from file vdW_kernel_table
     MD5 check sum: 095c7af220d748ca6e76c0b4c6cfb241

     atomic species   valence    mass     pseudopotential
        Sc1           11.00    44.95590     Sc( 1.00)
        In1           13.00   114.82000     In( 1.00)

     16 Sym. Ops., with inversion, found

   Cartesian axes

     site n.     atom                  positions (alat units)
         1           Sc1 tau(   1) = (   0.0000000   0.0000000   0.0000000  )
         2           Sc1 tau(   2) = (   2.3053704   2.3053704   0.0000000  )
         3           In1 tau(   3) = (   2.3053704   0.0000000   2.1463013  )
         4           In1 tau(   4) = (   0.0000000   2.3053704   2.1463013  )

     number of k points=    75  Fermi-Dirac smearing, width (Ry)=  0.0073
                       cart. coord. in units 2pi/alat
        k(    1) = (   0.0000000   0.0000000   0.0000000), wk =   0.0027435
        k(    2) = (   0.0000000   0.0000000   0.0258843), wk =   0.0054870
        k(    3) = (   0.0000000   0.0000000   0.0517686), wk =   0.0054870
        k(    4) = (   0.0000000   0.0000000   0.0776530), wk =   0.0054870
        k(    5) = (   0.0000000   0.0000000   0.1035373), wk =   0.0054870
        k(    6) = (   0.0000000   0.0240983   0.0000000), wk =   0.0109739
        k(    7) = (   0.0000000   0.0240983   0.0258843), wk =   0.0219479
        k(    8) = (   0.0000000   0.0240983   0.0517686), wk =   0.0219479
        k(    9) = (   0.0000000   0.0240983   0.0776530), wk =   0.0219479
        k(   10) = (   0.0000000   0.0240983   0.1035373), wk =   0.0219479
        k(   11) = (   0.0000000   0.0481966   0.0000000), wk =   0.0109739
        k(   12) = (   0.0000000   0.0481966   0.0258843), wk =   0.0219479
        k(   13) = (   0.0000000   0.0481966   0.0517686), wk =   0.0219479
        k(   14) = (   0.0000000   0.0481966   0.0776530), wk =   0.0219479
        k(   15) = (   0.0000000   0.0481966   0.1035373), wk =   0.0219479
        k(   16) = (   0.0000000   0.0722950   0.0000000), wk =   0.0109739
        k(   17) = (   0.0000000   0.0722950   0.0258843), wk =   0.0219479
        k(   18) = (   0.0000000   0.0722950   0.0517686), wk =   0.0219479
        k(   19) = (   0.0000000   0.0722950   0.0776530), wk =   0.0219479
        k(   20) = (   0.0000000   0.0722950   0.1035373), wk =   0.0219479
        k(   21) = (   0.0000000   0.0963933   0.0000000), wk =   0.0109739
        k(   22) = (   0.0000000   0.0963933   0.0258843), wk =   0.0219479
        k(   23) = (   0.0000000   0.0963933   0.0517686), wk =   0.0219479
        k(   24) = (   0.0000000   0.0963933   0.0776530), wk =   0.0219479
        k(   25) = (   0.0000000   0.0963933   0.1035373), wk =   0.0219479
        k(   26) = (   0.0240983   0.0240983   0.0000000), wk =   0.0109739
        k(   27) = (   0.0240983   0.0240983   0.0258843), wk =   0.0219479
        k(   28) = (   0.0240983   0.0240983   0.0517686), wk =   0.0219479
        k(   29) = (   0.0240983   0.0240983   0.0776530), wk =   0.0219479
        k(   30) = (   0.0240983   0.0240983   0.1035373), wk =   0.0219479
        k(   31) = (   0.0240983   0.0481966   0.0000000), wk =   0.0219479
        k(   32) = (   0.0240983   0.0481966   0.0258843), wk =   0.0438957
        k(   33) = (   0.0240983   0.0481966   0.0517686), wk =   0.0438957
        k(   34) = (   0.0240983   0.0481966   0.0776530), wk =   0.0438957
        k(   35) = (   0.0240983   0.0481966   0.1035373), wk =   0.0438957
        k(   36) = (   0.0240983   0.0722950   0.0000000), wk =   0.0219479
        k(   37) = (   0.0240983   0.0722950   0.0258843), wk =   0.0438957
        k(   38) = (   0.0240983   0.0722950   0.0517686), wk =   0.0438957
        k(   39) = (   0.0240983   0.0722950   0.0776530), wk =   0.0438957
        k(   40) = (   0.0240983   0.0722950   0.1035373), wk =   0.0438957
        k(   41) = (   0.0240983   0.0963933   0.0000000), wk =   0.0219479
        k(   42) = (   0.0240983   0.0963933   0.0258843), wk =   0.0438957
        k(   43) = (   0.0240983   0.0963933   0.0517686), wk =   0.0438957
        k(   44) = (   0.0240983   0.0963933   0.0776530), wk =   0.0438957
        k(   45) = (   0.0240983   0.0963933   0.1035373), wk =   0.0438957
        k(   46) = (   0.0481966   0.0481966   0.0000000), wk =   0.0109739
        k(   47) = (   0.0481966   0.0481966   0.0258843), wk =   0.0219479
        k(   48) = (   0.0481966   0.0481966   0.0517686), wk =   0.0219479
        k(   49) = (   0.0481966   0.0481966   0.0776530), wk =   0.0219479
        k(   50) = (   0.0481966   0.0481966   0.1035373), wk =   0.0219479
        k(   51) = (   0.0481966   0.0722950   0.0000000), wk =   0.0219479
        k(   52) = (   0.0481966   0.0722950   0.0258843), wk =   0.0438957
        k(   53) = (   0.0481966   0.0722950   0.0517686), wk =   0.0438957
        k(   54) = (   0.0481966   0.0722950   0.0776530), wk =   0.0438957
        k(   55) = (   0.0481966   0.0722950   0.1035373), wk =   0.0438957
        k(   56) = (   0.0481966   0.0963933   0.0000000), wk =   0.0219479
        k(   57) = (   0.0481966   0.0963933   0.0258843), wk =   0.0438957
        k(   58) = (   0.0481966   0.0963933   0.0517686), wk =   0.0438957
        k(   59) = (   0.0481966   0.0963933   0.0776530), wk =   0.0438957
        k(   60) = (   0.0481966   0.0963933   0.1035373), wk =   0.0438957
        k(   61) = (   0.0722950   0.0722950   0.0000000), wk =   0.0109739
        k(   62) = (   0.0722950   0.0722950   0.0258843), wk =   0.0219479
        k(   63) = (   0.0722950   0.0722950   0.0517686), wk =   0.0219479
        k(   64) = (   0.0722950   0.0722950   0.0776530), wk =   0.0219479
        k(   65) = (   0.0722950   0.0722950   0.1035373), wk =   0.0219479
        k(   66) = (   0.0722950   0.0963933   0.0000000), wk =   0.0219479
        k(   67) = (   0.0722950   0.0963933   0.0258843), wk =   0.0438957
        k(   68) = (   0.0722950   0.0963933   0.0517686), wk =   0.0438957
        k(   69) = (   0.0722950   0.0963933   0.0776530), wk =   0.0438957
        k(   70) = (   0.0722950   0.0963933   0.1035373), wk =   0.0438957
        k(   71) = (   0.0963933   0.0963933   0.0000000), wk =   0.0109739
        k(   72) = (   0.0963933   0.0963933   0.0258843), wk =   0.0219479
        k(   73) = (   0.0963933   0.0963933   0.0517686), wk =   0.0219479
        k(   74) = (   0.0963933   0.0963933   0.0776530), wk =   0.0219479
        k(   75) = (   0.0963933   0.0963933   0.1035373), wk =   0.0219479

     Largest allocated arrays     est. size (Mb)     dimensions
     Largest temporary arrays     est. size (Mb)     dimensions

     Initial potential from superposition of free atoms

     starting charge   44.99519, renormalised to   48.00000

     *
     * You are using vdW-DF for exchange-correlation in this calculation.
     * Please cite the following three references that made this development
     * possible:
     *
     *   M. Dion, H. Rydberg, E. Schroder, D. C. Langreth, and
     *   B. I. Lundqvist, Phys. Rev. Lett. 92, 246401 (2004).
     *
     *   T. Thonhauser, V. R. Cooper, S. Li, A. Puzder, P. Hyldgaard, and
     *   D. C. Langreth, Phys. Rev. B 76, 125112 (2007).
     *
     *   G. Roman-Perez and J. M. Soler, Phys. Rev. Lett. 103, 096102 (2009).
     *
     *
     * If you are using vdW-DF2, please also cite:
     *
     *   K. Lee, E. D. Murray, L. Kong, B. I. Lundqvist, and
     *   D. C. Langreth, Phys. Rev. B 82, 081101(R) (2010).
     *
     *
     * If you are calculating the stress with vdW-DF, please also cite:
     *
     *   R. Sabatini, E. Kucukbenli, B. Kolb, T. Thonhauser, and
     *   S. de Gironcoli, J. Phys.: Condens. Matter 24, 424209 (2012).
     *

     Carrying out vdW-DF run using the following parameters:

     Nqs =      20    Nr_points =    1024   r_max =   100.000
     q_mesh =
               0.00001000     0.04494208     0.09755937     0.15916263
               0.23128650     0.31572767     0.41458969     0.53033537
               0.66584808     0.82450364     1.01025438     1.22772762
               1.48234092     1.78043706     2.12944203     2.53805004
               3.01644009     3.57652955     4.23227104     5.00000000

     Gradients computed in reciprocal space

     Starting wfc are   44 randomized atomic wfcs

     Self-consistent Calculation

     iteration #  1     ecut=    58.80 Ry     beta=0.10
     Davidson diagonalization with overlap
     ethr =  1.00E-02,  avg # of iterations =  4.6

     total energy              =    -460.02663879 Ry
     Harris-Foulkes estimate   =    -460.50244925 Ry
     estimated scf accuracy    <       2.96425146 Ry

[...]

     total energy              =    -459.36694314 Ry
     Harris-Foulkes estimate   =    -459.36698960 Ry
     estimated scf accuracy    <       0.00013635 Ry

     iteration # 11     ecut=    58.80 Ry     beta=0.10
     Davidson diagonalization with overlap
     ethr =  2.84E-07,  avg # of iterations =  1.3

     End of self-consistent calculation

          k = 0.0000 0.0000 0.0000 (  4655 PWs)   bands (ev):

   -38.9797 -38.9405 -17.6278 -17.6278 -17.6235 -17.5769 -17.4435 -17.4435
    -3.8269  -3.7509  -3.6397  -3.6228  -3.6228  -3.4790  -3.4790  -3.4385
    -3.4310  -3.2673   2.5432   7.6533  10.0146  10.0146  10.3940  10.9380
    11.1642  11.5945  11.9252  11.9252  13.3164  13.3164  13.9904  14.1288
    14.6413  16.0693  16.7285  16.7285  16.8244  16.8581  19.0644  19.0644
    21.0018  21.5527  22.0192  22.5663

[...]

          k = 0.0964 0.0964 0.1035 (  4688 PWs)   bands (ev):

   -38.9600 -38.9588 -17.6530 -17.6475 -17.6123 -17.6108 -17.4306 -17.4250
    -3.6861  -3.6729  -3.6555  -3.6516  -3.5680  -3.5591  -3.4760  -3.4719
    -3.3759  -3.3661   5.8345   6.0417   8.4653   8.6607   9.3320   9.5555
    10.6668  10.7747  12.9546  12.9553  13.1720  13.1884  13.2854  13.3423
    14.4100  14.4876  15.7887  15.8748  19.7555  20.1548  21.8977  22.0633
    22.5364  22.7055  23.6505  23.6915

     the Fermi energy is    11.0521 ev

!    total energy              =    -459.36698148 Ry
     Harris-Foulkes estimate   =    -459.36696457 Ry
     estimated scf accuracy    <       0.00000084 Ry

     The total energy is the sum of the following terms:

     one-electron contribution =    -140.83251764 Ry
     hartree contribution      =      99.24860652 Ry
     xc contribution           =    -106.26735048 Ry
     ewald contribution        =    -311.50637420 Ry
     smearing contrib. (-TS)   =      -0.00934567 Ry

     convergence has been achieved in  11 iterations

     Forces acting on atoms (Ry/au):

     atom    1 type  1   force =     0.00000000    0.00000000    0.00000000
     atom    2 type  1   force =     0.00000000    0.00000000    0.00000000
     atom    3 type  2   force =     0.00000000    0.00000000    0.00000000
     atom    4 type  2   force =     0.00000000    0.00000000    0.00000000

     Total force =     0.000000     Total SCF correction =     0.000000

     General routines

     Parallel routines

   This run was terminated on:   3:21:36  15Nov2017

   JOB DONE.