     Program PWSCF v.5.1rc2 starts on 13Nov2017 at 17: 3:11

     Current dimensions of program PWSCF are:
     Max number of different atomic species (ntypx) = 10
     Max number of k-points (npk) =  40000
     Max angular momentum in pseudopotentials (lmaxx) =  3

     IMPORTANT: XC functional enforced from input :
     Exchange-correlation      = BEEF-VDW ( 1  4 27 13 2)
     Any further DFT definition will be discarded
     Please, verify this is what you really want

     Found symmetry operation: I + (  0.5000  0.5000  0.0000)
     This is a supercell, fractional translations are disabled

     bravais-lattice index     =            0
     lattice parameter (alat)  =       1.8897  a.u.
     unit-cell volume          =     469.7768 (a.u.)^3
     number of atoms/cell      =            4
     number of atomic types    =            2
     number of electrons       =        44.00
     number of Kohn-Sham states=           42
     kinetic-energy cutoff     =      58.7989  Ry
     charge density cutoff     =     587.9892  Ry
     convergence threshold     =      1.0E-06
     mixing beta               =       0.1000
     number of iterations used =           10  plain     mixing
     Exchange-correlation      = BEEF-VDW ( 1  4 27 13 2)

     celldm(1)=   1.889726  celldm(2)=   0.000000  celldm(3)=   0.000000
     celldm(4)=   0.000000  celldm(5)=   0.000000  celldm(6)=   0.000000

     crystal axes: (cart. coord. in units of alat)
               a(1) = (   4.113582   0.000000   0.000000 )
               a(2) = (   0.000000   4.113582   0.000000 )
               a(3) = (   0.000000   0.000000   4.113909 )

     reciprocal axes: (cart. coord. in units 2 pi/alat)
               b(1) = (  0.243097  0.000000  0.000000 )
               b(2) = (  0.000000  0.243097  0.000000 )
               b(3) = (  0.000000  0.000000  0.243078 )

     PseudoPot. # 1 for Al read from file:
     /home/users/vossj/suncat/psp/gbrv1.5pbe/Al.UPF
     MD5 check sum: 0a6289f5291fc8f409219462bc851e1f
     Pseudo is Ultrasoft + core correction, Zval =  3.0
     Generated by new atomic code, or converted to UPF format
     Using radial grid of  893 points,  3 beta functions with:
                l(1) =   0
                l(2) =   1
                l(3) =   2
     Q(r) pseudized with  8 coefficients,  rinner =    0.900   0.900   0.900
                                                       0.900   0.900

     PseudoPot. # 2 for Ag read from file:
     /home/users/vossj/suncat/psp/gbrv1.5pbe/Ag.UPF
     MD5 check sum: d66d668201baa78d5eb5b04ef7011058
     Pseudo is Ultrasoft + core correction, Zval = 19.0
     Generated by new atomic code, or converted to UPF format
     Using radial grid of  887 points,  6 beta functions with:
                l(1) =   0
                l(2) =   0
                l(3) =   1
                l(4) =   1
                l(5) =   2
                l(6) =   2
     Q(r) pseudized with  6 coefficients,  rinner =    1.300   1.300   1.300
                                                       1.300   1.300

     vdW kernel table read from file vdW_kernel_table
     MD5 check sum: 095c7af220d748ca6e76c0b4c6cfb241

     atomic species   valence    mass     pseudopotential
        Al1            3.00    26.98154     Al( 1.00)
        Ag1           19.00   107.86800     Ag( 1.00)

     16 Sym. Ops., with inversion, found

   Cartesian axes

     site n.     atom                  positions (alat units)
         1           Al1 tau(   1) = (   0.0000000   0.0000000   0.0000000  )
         2           Al1 tau(   2) = (   2.0567910   2.0567910   0.0000000  )
         3           Ag1 tau(   3) = (   2.0567910   0.0000000   2.0569544  )
         4           Ag1 tau(   4) = (   0.0000000   2.0567910   2.0569544  )

     number of k points=    75  Fermi-Dirac smearing, width (Ry)=  0.0073
                       cart. coord. in units 2pi/alat
        k(    1) = (   0.0000000   0.0000000   0.0000000), wk =   0.0027435
        k(    2) = (   0.0000000   0.0000000   0.0270086), wk =   0.0054870
        k(    3) = (   0.0000000   0.0000000   0.0540173), wk =   0.0054870
        k(    4) = (   0.0000000   0.0000000   0.0810259), wk =   0.0054870
        k(    5) = (   0.0000000   0.0000000   0.1080346), wk =   0.0054870
        k(    6) = (   0.0000000   0.0270108   0.0000000), wk =   0.0109739
        k(    7) = (   0.0000000   0.0270108   0.0270086), wk =   0.0219479
        k(    8) = (   0.0000000   0.0270108   0.0540173), wk =   0.0219479
        k(    9) = (   0.0000000   0.0270108   0.0810259), wk =   0.0219479
        k(   10) = (   0.0000000   0.0270108   0.1080346), wk =   0.0219479
        k(   11) = (   0.0000000   0.0540216   0.0000000), wk =   0.0109739
        k(   12) = (   0.0000000   0.0540216   0.0270086), wk =   0.0219479
        k(   13) = (   0.0000000   0.0540216   0.0540173), wk =   0.0219479
        k(   14) = (   0.0000000   0.0540216   0.0810259), wk =   0.0219479
        k(   15) = (   0.0000000   0.0540216   0.1080346), wk =   0.0219479
        k(   16) = (   0.0000000   0.0810324   0.0000000), wk =   0.0109739
        k(   17) = (   0.0000000   0.0810324   0.0270086), wk =   0.0219479
        k(   18) = (   0.0000000   0.0810324   0.0540173), wk =   0.0219479
        k(   19) = (   0.0000000   0.0810324   0.0810259), wk =   0.0219479
        k(   20) = (   0.0000000   0.0810324   0.1080346), wk =   0.0219479
        k(   21) = (   0.0000000   0.1080432   0.0000000), wk =   0.0109739
        k(   22) = (   0.0000000   0.1080432   0.0270086), wk =   0.0219479
        k(   23) = (   0.0000000   0.1080432   0.0540173), wk =   0.0219479
        k(   24) = (   0.0000000   0.1080432   0.0810259), wk =   0.0219479
        k(   25) = (   0.0000000   0.1080432   0.1080346), wk =   0.0219479
        k(   26) = (   0.0270108   0.0270108   0.0000000), wk =   0.0109739
        k(   27) = (   0.0270108   0.0270108   0.0270086), wk =   0.0219479
        k(   28) = (   0.0270108   0.0270108   0.0540173), wk =   0.0219479
        k(   29) = (   0.0270108   0.0270108   0.0810259), wk =   0.0219479
        k(   30) = (   0.0270108   0.0270108   0.1080346), wk =   0.0219479
        k(   31) = (   0.0270108   0.0540216   0.0000000), wk =   0.0219479
        k(   32) = (   0.0270108   0.0540216   0.0270086), wk =   0.0438957
        k(   33) = (   0.0270108   0.0540216   0.0540173), wk =   0.0438957
        k(   34) = (   0.0270108   0.0540216   0.0810259), wk =   0.0438957
        k(   35) = (   0.0270108   0.0540216   0.1080346), wk =   0.0438957
        k(   36) = (   0.0270108   0.0810324   0.0000000), wk =   0.0219479
        k(   37) = (   0.0270108   0.0810324   0.0270086), wk =   0.0438957
        k(   38) = (   0.0270108   0.0810324   0.0540173), wk =   0.0438957
        k(   39) = (   0.0270108   0.0810324   0.0810259), wk =   0.0438957
        k(   40) = (   0.0270108   0.0810324   0.1080346), wk =   0.0438957
        k(   41) = (   0.0270108   0.1080432   0.0000000), wk =   0.0219479
        k(   42) = (   0.0270108   0.1080432   0.0270086), wk =   0.0438957
        k(   43) = (   0.0270108   0.1080432   0.0540173), wk =   0.0438957
        k(   44) = (   0.0270108   0.1080432   0.0810259), wk =   0.0438957
        k(   45) = (   0.0270108   0.1080432   0.1080346), wk =   0.0438957
        k(   46) = (   0.0540216   0.0540216   0.0000000), wk =   0.0109739
        k(   47) = (   0.0540216   0.0540216   0.0270086), wk =   0.0219479
        k(   48) = (   0.0540216   0.0540216   0.0540173), wk =   0.0219479
        k(   49) = (   0.0540216   0.0540216   0.0810259), wk =   0.0219479
        k(   50) = (   0.0540216   0.0540216   0.1080346), wk =   0.0219479
        k(   51) = (   0.0540216   0.0810324   0.0000000), wk =   0.0219479
        k(   52) = (   0.0540216   0.0810324   0.0270086), wk =   0.0438957
        k(   53) = (   0.0540216   0.0810324   0.0540173), wk =   0.0438957
        k(   54) = (   0.0540216   0.0810324   0.0810259), wk =   0.0438957
        k(   55) = (   0.0540216   0.0810324   0.1080346), wk =   0.0438957
        k(   56) = (   0.0540216   0.1080432   0.0000000), wk =   0.0219479
        k(   57) = (   0.0540216   0.1080432   0.0270086), wk =   0.0438957
        k(   58) = (   0.0540216   0.1080432   0.0540173), wk =   0.0438957
        k(   59) = (   0.0540216   0.1080432   0.0810259), wk =   0.0438957
        k(   60) = (   0.0540216   0.1080432   0.1080346), wk =   0.0438957
        k(   61) = (   0.0810324   0.0810324   0.0000000), wk =   0.0109739
        k(   62) = (   0.0810324   0.0810324   0.0270086), wk =   0.0219479
        k(   63) = (   0.0810324   0.0810324   0.0540173), wk =   0.0219479
        k(   64) = (   0.0810324   0.0810324   0.0810259), wk =   0.0219479
        k(   65) = (   0.0810324   0.0810324   0.1080346), wk =   0.0219479
        k(   66) = (   0.0810324   0.1080432   0.0000000), wk =   0.0219479
        k(   67) = (   0.0810324   0.1080432   0.0270086), wk =   0.0438957
        k(   68) = (   0.0810324   0.1080432   0.0540173), wk =   0.0438957
        k(   69) = (   0.0810324   0.1080432   0.0810259), wk =   0.0438957
        k(   70) = (   0.0810324   0.1080432   0.1080346), wk =   0.0438957
        k(   71) = (   0.1080432   0.1080432   0.0000000), wk =   0.0109739
        k(   72) = (   0.1080432   0.1080432   0.0270086), wk =   0.0219479
        k(   73) = (   0.1080432   0.1080432   0.0540173), wk =   0.0219479
        k(   74) = (   0.1080432   0.1080432   0.0810259), wk =   0.0219479
        k(   75) = (   0.1080432   0.1080432   0.1080346), wk =   0.0219479

     Largest allocated arrays     est. size (Mb)     dimensions
     Largest temporary arrays     est. size (Mb)     dimensions

     Initial potential from superposition of free atoms

     starting charge   42.99497, renormalised to   44.00000

     *
     * You are using vdW-DF for exchange-correlation in this calculation.
     * Please cite the following three references that made this development
     * possible:
     *
     *   M. Dion, H. Rydberg, E. Schroder, D. C. Langreth, and
     *   B. I. Lundqvist, Phys. Rev. Lett. 92, 246401 (2004).
     *
     *   T. Thonhauser, V. R. Cooper, S. Li, A. Puzder, P. Hyldgaard, and
     *   D. C. Langreth, Phys. Rev. B 76, 125112 (2007).
     *
     *   G. Roman-Perez and J. M. Soler, Phys. Rev. Lett. 103, 096102 (2009).
     *
     *
     * If you are using vdW-DF2, please also cite:
     *
     *   K. Lee, E. D. Murray, L. Kong, B. I. Lundqvist, and
     *   D. C. Langreth, Phys. Rev. B 82, 081101(R) (2010).
     *
     *
     * If you are calculating the stress with vdW-DF, please also cite:
     *
     *   R. Sabatini, E. Kucukbenli, B. Kolb, T. Thonhauser, and
     *   S. de Gironcoli, J. Phys.: Condens. Matter 24, 424209 (2012).
     *

     Carrying out vdW-DF run using the following parameters:

     Nqs =      20    Nr_points =    1024   r_max =   100.000
     q_mesh =
               0.00001000     0.04494208     0.09755937     0.15916263
               0.23128650     0.31572767     0.41458969     0.53033537
               0.66584808     0.82450364     1.01025438     1.22772762
               1.48234092     1.78043706     2.12944203     2.53805004
               3.01644009     3.57652955     4.23227104     5.00000000

     Gradients computed in reciprocal space

     Starting wfc are   34 randomized atomic wfcs +    8 random wfc

     Self-consistent Calculation

     iteration #  1     ecut=    58.80 Ry     beta=0.10
     Davidson diagonalization with overlap
     ethr =  1.00E-02,  avg # of iterations =  4.8

     total energy              =    -607.15428415 Ry
     Harris-Foulkes estimate   =    -607.94642323 Ry
     estimated scf accuracy    <       4.60969344 Ry

[...]

     total energy              =    -607.10280940 Ry
     Harris-Foulkes estimate   =    -607.10280644 Ry
     estimated scf accuracy    <       0.00000202 Ry

     iteration # 12     ecut=    58.80 Ry     beta=0.10
     Davidson diagonalization with overlap
     ethr =  3.92E-09,  avg # of iterations =  2.0

     End of self-consistent calculation

          k = 0.0000 0.0000 0.0000 (  3695 PWs)   bands (ev):

   -80.6612 -80.6511 -44.1696 -44.1696 -44.1478 -44.1345 -44.0993 -44.0993
     2.5654   5.4989   5.9444   6.0936   6.6013   6.6013   7.1523   7.5592
     7.5592   8.0195   8.6363  10.8848  10.8848  11.0894  13.6770  14.5023
    14.5334  17.5879  19.1725  19.1725  20.1680  20.4541  20.4541  22.2904
    22.2904  22.3668  23.7266  24.0523  25.9649  28.1705  28.5131  28.5131
    29.0354  29.4879

[...]

          k = 0.1080 0.1080 0.1080 (  3563 PWs)   bands (ev):

   -80.6562 -80.6559 -44.1760 -44.1739 -44.1416 -44.1412 -44.0954 -44.0933
     5.1157   5.1589   6.2401   6.3145   7.2200   7.3299   7.4474   7.4761
     7.5932   7.6221   8.6386   9.0297   9.5995   9.8603  11.3822  11.4608
    12.6161  13.1015  21.9663  22.8185  23.4482  24.2971  24.4657  25.0750
    25.3474  26.0151  26.6404  26.7253  27.2792  27.3376  27.6087  27.8490
    28.0349  29.0606

     the Fermi energy is    12.3311 ev

!    total energy              =    -607.10282548 Ry
     Harris-Foulkes estimate   =    -607.10281018 Ry
     estimated scf accuracy    <       0.00000083 Ry

     The total energy is the sum of the following terms:

     one-electron contribution =    -389.62582708 Ry
     hartree contribution      =     211.31016007 Ry
     xc contribution           =     -69.07843036 Ry
     ewald contribution        =    -359.70515523 Ry
     smearing contrib. (-TS)   =      -0.00357287 Ry

     convergence has been achieved in  12 iterations

     Forces acting on atoms (Ry/au):

     atom    1 type  1   force =     0.00000000    0.00000000    0.00000000
     atom    2 type  1   force =     0.00000000    0.00000000    0.00000000
     atom    3 type  2   force =     0.00000000    0.00000000    0.00000000
     atom    4 type  2   force =     0.00000000    0.00000000    0.00000000

     Total force =     0.000000     Total SCF correction =     0.000000

     General routines

     Parallel routines

   This run was terminated on:  17: 3:42  13Nov2017

   JOB DONE.