     Program PWSCF v.5.1rc2 starts on 14Nov2017 at  6:58:46

     Current dimensions of program PWSCF are:
     Max number of different atomic species (ntypx) = 10
     Max number of k-points (npk) =  40000
     Max angular momentum in pseudopotentials (lmaxx) =  3

     IMPORTANT: XC functional enforced from input :
     Exchange-correlation      = BEEF-VDW ( 1  4 27 13 2)
     Any further DFT definition will be discarded
     Please, verify this is what you really want

     Found symmetry operation: I + ( -0.5000 -0.5000  0.0000)
     This is a supercell, fractional translations are disabled

     bravais-lattice index     =            0
     lattice parameter (alat)  =       1.8897  a.u.
     unit-cell volume          =     404.6327 (a.u.)^3
     number of atoms/cell      =            4
     number of atomic types    =            2
     number of electrons       =        66.00
     number of Kohn-Sham states=           53
     kinetic-energy cutoff     =      58.7989  Ry
     charge density cutoff     =     587.9892  Ry
     convergence threshold     =      1.0E-06
     mixing beta               =       0.1000
     number of iterations used =           10  plain     mixing
     Exchange-correlation      = BEEF-VDW ( 1  4 27 13 2)

     celldm(1)=   1.889726  celldm(2)=   0.000000  celldm(3)=   0.000000
     celldm(4)=   0.000000  celldm(5)=   0.000000  celldm(6)=   0.000000

     crystal axes: (cart. coord. in units of alat)
               a(1) = (   3.692086   0.000000   0.000000 )
               a(2) = (   0.000000   3.692086   0.000000 )
               a(3) = (   0.000000   0.000000   4.398664 )

     reciprocal axes: (cart. coord. in units 2 pi/alat)
               b(1) = (  0.270850  0.000000  0.000000 )
               b(2) = (  0.000000  0.270850  0.000000 )
               b(3) = (  0.000000  0.000000  0.227342 )

     PseudoPot. # 1 for Cr read from file:
     /home/users/vossj/suncat/psp/gbrv1.5pbe/Cr.UPF
     MD5 check sum: 0d52af634a40206e4dee301ad30da4bf
     Pseudo is Ultrasoft + core correction, Zval = 14.0
     Generated by new atomic code, or converted to UPF format
     Using radial grid of  857 points,  6 beta functions with:
                l(1) =   0
                l(2) =   0
                l(3) =   1
                l(4) =   1
                l(5) =   2
                l(6) =   2
     Q(r) pseudized with  8 coefficients,  rinner =    0.950   0.950   0.950
                                                       0.950   0.950

     PseudoPot. # 2 for Ag read from file:
     /home/users/vossj/suncat/psp/gbrv1.5pbe/Ag.UPF
     MD5 check sum: d66d668201baa78d5eb5b04ef7011058
     Pseudo is Ultrasoft + core correction, Zval = 19.0
     Generated by new atomic code, or converted to UPF format
     Using radial grid of  887 points,  6 beta functions with:
                l(1) =   0
                l(2) =   0
                l(3) =   1
                l(4) =   1
                l(5) =   2
                l(6) =   2
     Q(r) pseudized with  6 coefficients,  rinner =    1.300   1.300   1.300
                                                       1.300   1.300

     vdW kernel table read from file vdW_kernel_table
     MD5 check sum: 095c7af220d748ca6e76c0b4c6cfb241

     atomic species   valence    mass     pseudopotential
        Cr1           14.00    51.99600     Cr( 1.00)
        Ag1           19.00   107.86800     Ag( 1.00)

     16 Sym. Ops., with inversion, found

   Cartesian axes

     site n.     atom                  positions (alat units)
         1           Cr1 tau(   1) = (   0.0000000   0.0000000   0.0000000  )
         2           Cr1 tau(   2) = (   1.8460429   1.8460429   0.0000000  )
         3           Ag1 tau(   3) = (   1.8460429   0.0000000   2.1993320  )
         4           Ag1 tau(   4) = (   0.0000000   1.8460429   2.1993320  )

     number of k points=    75  Fermi-Dirac smearing, width (Ry)=  0.0073
                       cart. coord. in units 2pi/alat
        k(    1) = (   0.0000000   0.0000000   0.0000000), wk =   0.0027435
        k(    2) = (   0.0000000   0.0000000   0.0252602), wk =   0.0054870
        k(    3) = (   0.0000000   0.0000000   0.0505204), wk =   0.0054870
        k(    4) = (   0.0000000   0.0000000   0.0757806), wk =   0.0054870
        k(    5) = (   0.0000000   0.0000000   0.1010408), wk =   0.0054870
        k(    6) = (   0.0000000   0.0300944   0.0000000), wk =   0.0109739
        k(    7) = (   0.0000000   0.0300944   0.0252602), wk =   0.0219479
        k(    8) = (   0.0000000   0.0300944   0.0505204), wk =   0.0219479
        k(    9) = (   0.0000000   0.0300944   0.0757806), wk =   0.0219479
        k(   10) = (   0.0000000   0.0300944   0.1010408), wk =   0.0219479
        k(   11) = (   0.0000000   0.0601888   0.0000000), wk =   0.0109739
        k(   12) = (   0.0000000   0.0601888   0.0252602), wk =   0.0219479
        k(   13) = (   0.0000000   0.0601888   0.0505204), wk =   0.0219479
        k(   14) = (   0.0000000   0.0601888   0.0757806), wk =   0.0219479
        k(   15) = (   0.0000000   0.0601888   0.1010408), wk =   0.0219479
        k(   16) = (   0.0000000   0.0902832   0.0000000), wk =   0.0109739
        k(   17) = (   0.0000000   0.0902832   0.0252602), wk =   0.0219479
        k(   18) = (   0.0000000   0.0902832   0.0505204), wk =   0.0219479
        k(   19) = (   0.0000000   0.0902832   0.0757806), wk =   0.0219479
        k(   20) = (   0.0000000   0.0902832   0.1010408), wk =   0.0219479
        k(   21) = (   0.0000000   0.1203776   0.0000000), wk =   0.0109739
        k(   22) = (   0.0000000   0.1203776   0.0252602), wk =   0.0219479
        k(   23) = (   0.0000000   0.1203776   0.0505204), wk =   0.0219479
        k(   24) = (   0.0000000   0.1203776   0.0757806), wk =   0.0219479
        k(   25) = (   0.0000000   0.1203776   0.1010408), wk =   0.0219479
        k(   26) = (   0.0300944   0.0300944   0.0000000), wk =   0.0109739
        k(   27) = (   0.0300944   0.0300944   0.0252602), wk =   0.0219479
        k(   28) = (   0.0300944   0.0300944   0.0505204), wk =   0.0219479
        k(   29) = (   0.0300944   0.0300944   0.0757806), wk =   0.0219479
        k(   30) = (   0.0300944   0.0300944   0.1010408), wk =   0.0219479
        k(   31) = (   0.0300944   0.0601888   0.0000000), wk =   0.0219479
        k(   32) = (   0.0300944   0.0601888   0.0252602), wk =   0.0438957
        k(   33) = (   0.0300944   0.0601888   0.0505204), wk =   0.0438957
        k(   34) = (   0.0300944   0.0601888   0.0757806), wk =   0.0438957
        k(   35) = (   0.0300944   0.0601888   0.1010408), wk =   0.0438957
        k(   36) = (   0.0300944   0.0902832   0.0000000), wk =   0.0219479
        k(   37) = (   0.0300944   0.0902832   0.0252602), wk =   0.0438957
        k(   38) = (   0.0300944   0.0902832   0.0505204), wk =   0.0438957
        k(   39) = (   0.0300944   0.0902832   0.0757806), wk =   0.0438957
        k(   40) = (   0.0300944   0.0902832   0.1010408), wk =   0.0438957
        k(   41) = (   0.0300944   0.1203776   0.0000000), wk =   0.0219479
        k(   42) = (   0.0300944   0.1203776   0.0252602), wk =   0.0438957
        k(   43) = (   0.0300944   0.1203776   0.0505204), wk =   0.0438957
        k(   44) = (   0.0300944   0.1203776   0.0757806), wk =   0.0438957
        k(   45) = (   0.0300944   0.1203776   0.1010408), wk =   0.0438957
        k(   46) = (   0.0601888   0.0601888   0.0000000), wk =   0.0109739
        k(   47) = (   0.0601888   0.0601888   0.0252602), wk =   0.0219479
        k(   48) = (   0.0601888   0.0601888   0.0505204), wk =   0.0219479
        k(   49) = (   0.0601888   0.0601888   0.0757806), wk =   0.0219479
        k(   50) = (   0.0601888   0.0601888   0.1010408), wk =   0.0219479
        k(   51) = (   0.0601888   0.0902832   0.0000000), wk =   0.0219479
        k(   52) = (   0.0601888   0.0902832   0.0252602), wk =   0.0438957
        k(   53) = (   0.0601888   0.0902832   0.0505204), wk =   0.0438957
        k(   54) = (   0.0601888   0.0902832   0.0757806), wk =   0.0438957
        k(   55) = (   0.0601888   0.0902832   0.1010408), wk =   0.0438957
        k(   56) = (   0.0601888   0.1203776   0.0000000), wk =   0.0219479
        k(   57) = (   0.0601888   0.1203776   0.0252602), wk =   0.0438957
        k(   58) = (   0.0601888   0.1203776   0.0505204), wk =   0.0438957
        k(   59) = (   0.0601888   0.1203776   0.0757806), wk =   0.0438957
        k(   60) = (   0.0601888   0.1203776   0.1010408), wk =   0.0438957
        k(   61) = (   0.0902832   0.0902832   0.0000000), wk =   0.0109739
        k(   62) = (   0.0902832   0.0902832   0.0252602), wk =   0.0219479
        k(   63) = (   0.0902832   0.0902832   0.0505204), wk =   0.0219479
        k(   64) = (   0.0902832   0.0902832   0.0757806), wk =   0.0219479
        k(   65) = (   0.0902832   0.0902832   0.1010408), wk =   0.0219479
        k(   66) = (   0.0902832   0.1203776   0.0000000), wk =   0.0219479
        k(   67) = (   0.0902832   0.1203776   0.0252602), wk =   0.0438957
        k(   68) = (   0.0902832   0.1203776   0.0505204), wk =   0.0438957
        k(   69) = (   0.0902832   0.1203776   0.0757806), wk =   0.0438957
        k(   70) = (   0.0902832   0.1203776   0.1010408), wk =   0.0438957
        k(   71) = (   0.1203776   0.1203776   0.0000000), wk =   0.0109739
        k(   72) = (   0.1203776   0.1203776   0.0252602), wk =   0.0219479
        k(   73) = (   0.1203776   0.1203776   0.0505204), wk =   0.0219479
        k(   74) = (   0.1203776   0.1203776   0.0757806), wk =   0.0219479
        k(   75) = (   0.1203776   0.1203776   0.1010408), wk =   0.0219479

     Largest allocated arrays     est. size (Mb)     dimensions
     Largest temporary arrays     est. size (Mb)     dimensions

     Check: negative/imaginary core charge=   -0.000006    0.000000

     Initial potential from superposition of free atoms
     Check: negative starting charge=   -0.001305

     starting charge   62.99987, renormalised to   66.00000

     negative rho (up, down):  1.367E-03 0.000E+00

     *
     * You are using vdW-DF for exchange-correlation in this calculation.
     * Please cite the following three references that made this development
     * possible:
     *
     *   M. Dion, H. Rydberg, E. Schroder, D. C. Langreth, and
     *   B. I. Lundqvist, Phys. Rev. Lett. 92, 246401 (2004).
     *
     *   T. Thonhauser, V. R. Cooper, S. Li, A. Puzder, P. Hyldgaard, and
     *   D. C. Langreth, Phys. Rev. B 76, 125112 (2007).
     *
     *   G. Roman-Perez and J. M. Soler, Phys. Rev. Lett. 103, 096102 (2009).
     *
     *
     * If you are using vdW-DF2, please also cite:
     *
     *   K. Lee, E. D. Murray, L. Kong, B. I. Lundqvist, and
     *   D. C. Langreth, Phys. Rev. B 82, 081101(R) (2010).
     *
     *
     * If you are calculating the stress with vdW-DF, please also cite:
     *
     *   R. Sabatini, E. Kucukbenli, B. Kolb, T. Thonhauser, and
     *   S. de Gironcoli, J. Phys.: Condens. Matter 24, 424209 (2012).
     *

     Carrying out vdW-DF run using the following parameters:

     Nqs =      20    Nr_points =    1024   r_max =   100.000
     q_mesh =
               0.00001000     0.04494208     0.09755937     0.15916263
               0.23128650     0.31572767     0.41458969     0.53033537
               0.66584808     0.82450364     1.01025438     1.22772762
               1.48234092     1.78043706     2.12944203     2.53805004
               3.01644009     3.57652955     4.23227104     5.00000000

     Gradients computed in reciprocal space

     Starting wfc are   46 randomized atomic wfcs +    7 random wfc

     Self-consistent Calculation

     iteration #  1     ecut=    58.80 Ry     beta=0.10
     Davidson diagonalization with overlap
     ethr =  1.00E-02,  avg # of iterations =  4.5

[...]

     total energy              =    -939.25187875 Ry
     Harris-Foulkes estimate   =    -950.79255066 Ry
     estimated scf accuracy    <      63.70284386 Ry

[...]

     total energy              =    -945.73777019 Ry
     Harris-Foulkes estimate   =    -945.73778520 Ry
     estimated scf accuracy    <       0.00005923 Ry

     iteration # 16     ecut=    58.80 Ry     beta=0.10
     Davidson diagonalization with overlap
     ethr =  8.97E-08,  avg # of iterations =  1.0

     negative rho (up, down):  1.152E-03 0.000E+00

     End of self-consistent calculation

          k = 0.0000 0.0000 0.0000 (  3093 PWs)   bands (ev):

   -75.4746 -75.4276 -54.6844 -54.5953 -39.0631 -39.0631 -38.9316 -38.8817
   -38.8298 -38.8298 -26.0797 -26.0797 -26.0052 -25.9289 -25.7612 -25.7612
     9.3431  10.1003  10.3300  10.7397  11.2488  11.2488  12.1605  13.0844
    13.0844  13.8828  14.8706  15.3043  15.6331  15.7406  17.1689  17.1689
    17.3188  18.0161  18.1794  18.1794  18.7494  19.4827  20.5451  20.5451
    23.4073  26.8994  27.7437  28.1506  28.2343  28.7752  28.7752  31.6722
    31.6722  34.4020  34.4020  35.4005  37.2058

[...]

          k = 0.1204 0.1204 0.1010 (  3078 PWs)   bands (ev):

   -75.4516 -75.4502 -54.6406 -54.6379 -39.0898 -39.0829 -38.9071 -38.9057
   -38.8162 -38.8091 -26.1234 -26.1139 -25.9679 -25.9655 -25.7409 -25.7311
    10.6501  10.6637  10.8434  10.9527  12.2970  12.3232  12.5346  12.6826
    13.2359  13.3030  15.5743  15.6753  15.7442  16.1076  16.8129  16.8211
    16.8871  17.3041  17.7237  18.1640  18.1752  18.2369  18.2592  18.4715
    22.5956  22.8790  23.6698  24.0097  31.5941  32.0460  32.0770  32.2000
    36.7000  37.0183  37.0891  37.6687  38.0197

     the Fermi energy is    17.0820 ev

!    total energy              =    -945.73778528 Ry
     Harris-Foulkes estimate   =    -945.73777786 Ry
     estimated scf accuracy    <       0.00000004 Ry

     The total energy is the sum of the following terms:

     one-electron contribution =    -386.05663527 Ry
     hartree contribution      =     227.54827262 Ry
     xc contribution           =    -106.73774330 Ry
     ewald contribution        =    -680.47937952 Ry
     smearing contrib. (-TS)   =      -0.01229981 Ry

     convergence has been achieved in  16 iterations

     Forces acting on atoms (Ry/au):

     negative rho (up, down):  1.152E-03 0.000E+00
     atom    1 type  1   force =     0.00000000    0.00000000    0.00000000
     atom    2 type  1   force =     0.00000000    0.00000000    0.00000000
     atom    3 type  2   force =     0.00000000    0.00000000    0.00000000
     atom    4 type  2   force =     0.00000000    0.00000000    0.00000000

     Total force =     0.000000     Total SCF correction =     0.000000

     General routines

     Parallel routines

   This run was terminated on:   6:59:33  14Nov2017

   JOB DONE.