     Program PWSCF v.5.1rc2 starts on 13Nov2017 at 17: 9:54

     Current dimensions of program PWSCF are:
     Max number of different atomic species (ntypx) = 10
     Max number of k-points (npk) =  40000
     Max angular momentum in pseudopotentials (lmaxx) =  3

     IMPORTANT: XC functional enforced from input :
     Exchange-correlation      = BEEF-VDW ( 1  4 27 13 2)
     Any further DFT definition will be discarded
     Please, verify this is what you really want

     Found symmetry operation: I + (  0.5000  0.5000  0.0000)
     This is a supercell, fractional translations are disabled

     bravais-lattice index     =            0
     lattice parameter (alat)  =       1.8897  a.u.
     unit-cell volume          =     690.9648 (a.u.)^3
     number of atoms/cell      =            4
     number of atomic types    =            2
     number of electrons       =        66.00
     number of Kohn-Sham states=           53
     kinetic-energy cutoff     =      58.7989  Ry
     charge density cutoff     =     587.9892  Ry
     convergence threshold     =      1.0E-06
     mixing beta               =       0.1000
     number of iterations used =           10  plain     mixing
     Exchange-correlation      = BEEF-VDW ( 1  4 27 13 2)

     celldm(1)=   1.889726  celldm(2)=   0.000000  celldm(3)=   0.000000
     celldm(4)=   0.000000  celldm(5)=   0.000000  celldm(6)=   0.000000

     crystal axes: (cart. coord. in units of alat)
               a(1) = (   5.106410   0.000000   0.000000 )
               a(2) = (   0.000000   5.106410   0.000000 )
               a(3) = (   0.000000   0.000000   3.926702 )

     reciprocal axes: (cart. coord. in units 2 pi/alat)
               b(1) = (  0.195832  0.000000  0.000000 )
               b(2) = (  0.000000  0.195832  0.000000 )
               b(3) = (  0.000000  0.000000  0.254667 )

     PseudoPot. # 1 for Ag read from file:
     /home/users/vossj/suncat/psp/gbrv1.5pbe/Ag.UPF
     MD5 check sum: d66d668201baa78d5eb5b04ef7011058
     Pseudo is Ultrasoft + core correction, Zval = 19.0
     Generated by new atomic code, or converted to UPF format
     Using radial grid of  887 points,  6 beta functions with:
                l(1) =   0
                l(2) =   0
                l(3) =   1
                l(4) =   1
                l(5) =   2
                l(6) =   2
     Q(r) pseudized with  6 coefficients,  rinner =    1.300   1.300   1.300
                                                       1.300   1.300

     PseudoPot. # 2 for Pb read from file:
     /home/users/vossj/suncat/psp/gbrv1.5pbe/Pb.UPF
     MD5 check sum: 3d1c1779aa92214d1e8f3a7db79003e2
     Pseudo is Ultrasoft + core correction, Zval = 14.0
     Generated by new atomic code, or converted to UPF format
     Using radial grid of  899 points,  6 beta functions with:
                l(1) =   0
                l(2) =   0
                l(3) =   1
                l(4) =   1
                l(5) =   2
                l(6) =   2
     Q(r) pseudized with  6 coefficients,  rinner =    1.000   1.000   1.000
                                                       1.000   1.000

     vdW kernel table read from file vdW_kernel_table
     MD5 check sum: 095c7af220d748ca6e76c0b4c6cfb241

     atomic species   valence    mass     pseudopotential
        Ag1           19.00   107.86800     Ag( 1.00)
        Pb1           14.00   207.20000     Pb( 1.00)

     16 Sym. Ops., with inversion, found

   Cartesian axes

     site n.     atom                  positions (alat units)
         1           Ag1 tau(   1) = (   0.0000000   0.0000000   0.0000000  )
         2           Ag1 tau(   2) = (   2.5532051   2.5532051   0.0000000  )
         3           Pb1 tau(   3) = (   2.5532051   0.0000000   1.9633509  )
         4           Pb1 tau(   4) = (   0.0000000   2.5532051   1.9633509  )

     number of k points=    75  Fermi-Dirac smearing, width (Ry)=  0.0073
                       cart. coord. in units 2pi/alat
        k(    1) = (   0.0000000   0.0000000   0.0000000), wk =   0.0027435
        k(    2) = (   0.0000000   0.0000000   0.0282963), wk =   0.0054870
        k(    3) = (   0.0000000   0.0000000   0.0565926), wk =   0.0054870
        k(    4) = (   0.0000000   0.0000000   0.0848889), wk =   0.0054870
        k(    5) = (   0.0000000   0.0000000   0.1131852), wk =   0.0054870
        k(    6) = (   0.0000000   0.0217591   0.0000000), wk =   0.0109739
        k(    7) = (   0.0000000   0.0217591   0.0282963), wk =   0.0219479
        k(    8) = (   0.0000000   0.0217591   0.0565926), wk =   0.0219479
        k(    9) = (   0.0000000   0.0217591   0.0848889), wk =   0.0219479
        k(   10) = (   0.0000000   0.0217591   0.1131852), wk =   0.0219479
        k(   11) = (   0.0000000   0.0435183   0.0000000), wk =   0.0109739
        k(   12) = (   0.0000000   0.0435183   0.0282963), wk =   0.0219479
        k(   13) = (   0.0000000   0.0435183   0.0565926), wk =   0.0219479
        k(   14) = (   0.0000000   0.0435183   0.0848889), wk =   0.0219479
        k(   15) = (   0.0000000   0.0435183   0.1131852), wk =   0.0219479
        k(   16) = (   0.0000000   0.0652774   0.0000000), wk =   0.0109739
        k(   17) = (   0.0000000   0.0652774   0.0282963), wk =   0.0219479
        k(   18) = (   0.0000000   0.0652774   0.0565926), wk =   0.0219479
        k(   19) = (   0.0000000   0.0652774   0.0848889), wk =   0.0219479
        k(   20) = (   0.0000000   0.0652774   0.1131852), wk =   0.0219479
        k(   21) = (   0.0000000   0.0870366   0.0000000), wk =   0.0109739
        k(   22) = (   0.0000000   0.0870366   0.0282963), wk =   0.0219479
        k(   23) = (   0.0000000   0.0870366   0.0565926), wk =   0.0219479
        k(   24) = (   0.0000000   0.0870366   0.0848889), wk =   0.0219479
        k(   25) = (   0.0000000   0.0870366   0.1131852), wk =   0.0219479
        k(   26) = (   0.0217591   0.0217591   0.0000000), wk =   0.0109739
        k(   27) = (   0.0217591   0.0217591   0.0282963), wk =   0.0219479
        k(   28) = (   0.0217591   0.0217591   0.0565926), wk =   0.0219479
        k(   29) = (   0.0217591   0.0217591   0.0848889), wk =   0.0219479
        k(   30) = (   0.0217591   0.0217591   0.1131852), wk =   0.0219479
        k(   31) = (   0.0217591   0.0435183   0.0000000), wk =   0.0219479
        k(   32) = (   0.0217591   0.0435183   0.0282963), wk =   0.0438957
        k(   33) = (   0.0217591   0.0435183   0.0565926), wk =   0.0438957
        k(   34) = (   0.0217591   0.0435183   0.0848889), wk =   0.0438957
        k(   35) = (   0.0217591   0.0435183   0.1131852), wk =   0.0438957
        k(   36) = (   0.0217591   0.0652774   0.0000000), wk =   0.0219479
        k(   37) = (   0.0217591   0.0652774   0.0282963), wk =   0.0438957
        k(   38) = (   0.0217591   0.0652774   0.0565926), wk =   0.0438957
        k(   39) = (   0.0217591   0.0652774   0.0848889), wk =   0.0438957
        k(   40) = (   0.0217591   0.0652774   0.1131852), wk =   0.0438957
        k(   41) = (   0.0217591   0.0870366   0.0000000), wk =   0.0219479
        k(   42) = (   0.0217591   0.0870366   0.0282963), wk =   0.0438957
        k(   43) = (   0.0217591   0.0870366   0.0565926), wk =   0.0438957
        k(   44) = (   0.0217591   0.0870366   0.0848889), wk =   0.0438957
        k(   45) = (   0.0217591   0.0870366   0.1131852), wk =   0.0438957
        k(   46) = (   0.0435183   0.0435183   0.0000000), wk =   0.0109739
        k(   47) = (   0.0435183   0.0435183   0.0282963), wk =   0.0219479
        k(   48) = (   0.0435183   0.0435183   0.0565926), wk =   0.0219479
        k(   49) = (   0.0435183   0.0435183   0.0848889), wk =   0.0219479
        k(   50) = (   0.0435183   0.0435183   0.1131852), wk =   0.0219479
        k(   51) = (   0.0435183   0.0652774   0.0000000), wk =   0.0219479
        k(   52) = (   0.0435183   0.0652774   0.0282963), wk =   0.0438957
        k(   53) = (   0.0435183   0.0652774   0.0565926), wk =   0.0438957
        k(   54) = (   0.0435183   0.0652774   0.0848889), wk =   0.0438957
        k(   55) = (   0.0435183   0.0652774   0.1131852), wk =   0.0438957
        k(   56) = (   0.0435183   0.0870366   0.0000000), wk =   0.0219479
        k(   57) = (   0.0435183   0.0870366   0.0282963), wk =   0.0438957
        k(   58) = (   0.0435183   0.0870366   0.0565926), wk =   0.0438957
        k(   59) = (   0.0435183   0.0870366   0.0848889), wk =   0.0438957
        k(   60) = (   0.0435183   0.0870366   0.1131852), wk =   0.0438957
        k(   61) = (   0.0652774   0.0652774   0.0000000), wk =   0.0109739
        k(   62) = (   0.0652774   0.0652774   0.0282963), wk =   0.0219479
        k(   63) = (   0.0652774   0.0652774   0.0565926), wk =   0.0219479
        k(   64) = (   0.0652774   0.0652774   0.0848889), wk =   0.0219479
        k(   65) = (   0.0652774   0.0652774   0.1131852), wk =   0.0219479
        k(   66) = (   0.0652774   0.0870366   0.0000000), wk =   0.0219479
        k(   67) = (   0.0652774   0.0870366   0.0282963), wk =   0.0438957
        k(   68) = (   0.0652774   0.0870366   0.0565926), wk =   0.0438957
        k(   69) = (   0.0652774   0.0870366   0.0848889), wk =   0.0438957
        k(   70) = (   0.0652774   0.0870366   0.1131852), wk =   0.0438957
        k(   71) = (   0.0870366   0.0870366   0.0000000), wk =   0.0109739
        k(   72) = (   0.0870366   0.0870366   0.0282963), wk =   0.0219479
        k(   73) = (   0.0870366   0.0870366   0.0565926), wk =   0.0219479
        k(   74) = (   0.0870366   0.0870366   0.0848889), wk =   0.0219479
        k(   75) = (   0.0870366   0.0870366   0.1131852), wk =   0.0219479

     Largest allocated arrays     est. size (Mb)     dimensions
     Largest temporary arrays     est. size (Mb)     dimensions

     Initial potential from superposition of free atoms
     Check: negative starting charge=   -0.031882

     starting charge   64.99520, renormalised to   66.00000

     negative rho (up, down):  3.238E-02 0.000E+00

     *
     * You are using vdW-DF for exchange-correlation in this calculation.
     * Please cite the following three references that made this development
     * possible:
     *
     *   M. Dion, H. Rydberg, E. Schroder, D. C. Langreth, and
     *   B. I. Lundqvist, Phys. Rev. Lett. 92, 246401 (2004).
     *
     *   T. Thonhauser, V. R. Cooper, S. Li, A. Puzder, P. Hyldgaard, and
     *   D. C. Langreth, Phys. Rev. B 76, 125112 (2007).
     *
     *   G. Roman-Perez and J. M. Soler, Phys. Rev. Lett. 103, 096102 (2009).
     *
     *
     * If you are using vdW-DF2, please also cite:
     *
     *   K. Lee, E. D. Murray, L. Kong, B. I. Lundqvist, and
     *   D. C. Langreth, Phys. Rev. B 82, 081101(R) (2010).
     *
     *
     * If you are calculating the stress with vdW-DF, please also cite:
     *
     *   R. Sabatini, E. Kucukbenli, B. Kolb, T. Thonhauser, and
     *   S. de Gironcoli, J. Phys.: Condens. Matter 24, 424209 (2012).
     *

     Carrying out vdW-DF run using the following parameters:

     Nqs =      20    Nr_points =    1024   r_max =   100.000
     q_mesh =
               0.00001000     0.04494208     0.09755937     0.15916263
               0.23128650     0.31572767     0.41458969     0.53033537
               0.66584808     0.82450364     1.01025438     1.22772762
               1.48234092     1.78043706     2.12944203     2.53805004
               3.01644009     3.57652955     4.23227104     5.00000000

     Gradients computed in reciprocal space

     Starting wfc are   44 randomized atomic wfcs +    9 random wfc

     Self-consistent Calculation

     iteration #  1     ecut=    58.80 Ry     beta=0.10
     Davidson diagonalization with overlap
     ethr =  1.00E-02,  avg # of iterations =  5.0

[...]

     total energy              =    -925.44790381 Ry
     Harris-Foulkes estimate   =    -925.63550484 Ry
     estimated scf accuracy    <       1.14656957 Ry

[...]

     total energy              =    -925.38539365 Ry
     Harris-Foulkes estimate   =    -925.38502454 Ry
     estimated scf accuracy    <       0.00007555 Ry

     iteration #  9     ecut=    58.80 Ry     beta=0.10
     Davidson diagonalization with overlap
     ethr =  1.01E-07,  avg # of iterations =  2.0

     negative rho (up, down):  3.507E-02 0.000E+00

     End of self-consistent calculation

          k = 0.0000 0.0000 0.0000 (  5231 PWs)   bands (ev):

   -80.1890 -80.1886 -43.6875 -43.6869 -43.6811 -43.6811 -43.6772 -43.6772
    -5.3055  -5.2549  -5.2458  -5.1851  -5.1851  -5.1552  -5.1264  -5.1264
    -5.1059  -5.0195   1.6011   4.2702   7.1817   7.2291   7.4709   7.5305
     7.5305   7.7289   7.7289   7.8034   8.0516   8.3622   9.6837   9.6837
    12.5204  12.9491  13.7183  14.5659  14.5659  16.4437  19.2134  19.7925
    19.7926  19.8988  20.6497  21.7358  22.5445  22.6269  23.7371  23.7371
    24.6743  24.9578  25.0241  25.0744  25.0744

[...]

          k = 0.0870 0.0870 0.1132 (  5272 PWs)   bands (ev):

   -80.1889 -80.1887 -43.6886 -43.6885 -43.6815 -43.6814 -43.6769 -43.6767
    -5.2283  -5.2273  -5.2264  -5.2206  -5.1659  -5.1619  -5.1475  -5.1455
    -5.0608  -5.0558   3.7478   3.8188   7.3193   7.3488   7.5661   7.6013
     7.6150   7.6468   7.8786   7.9059   8.1277   8.2633   9.2910   9.4718
     9.6712   9.9037  12.1140  12.3415  17.1954  17.4757  20.6351  20.7837
    20.8663  21.2112  21.7468  21.8818  22.4527  22.4573  23.2377  23.3593
    24.9278  25.1851  25.4523  25.5795  26.8619

     the Fermi energy is    12.0674 ev

!    total energy              =    -925.38701705 Ry
     Harris-Foulkes estimate   =    -925.38540701 Ry
     estimated scf accuracy    <       0.00000046 Ry

     The total energy is the sum of the following terms:

     one-electron contribution =    -397.23109910 Ry
     hartree contribution      =     234.66333224 Ry
     xc contribution           =    -190.85360041 Ry
     ewald contribution        =    -571.96195526 Ry
     smearing contrib. (-TS)   =      -0.00369451 Ry

     convergence has been achieved in   9 iterations

     Forces acting on atoms (Ry/au):

     negative rho (up, down):  3.507E-02 0.000E+00
     atom    1 type  1   force =     0.00000000    0.00000000    0.00000000
     atom    2 type  1   force =     0.00000000    0.00000000    0.00000000
     atom    3 type  2   force =     0.00000000    0.00000000    0.00000000
     atom    4 type  2   force =     0.00000000    0.00000000    0.00000000

     Total force =     0.000000     Total SCF correction =     0.000000

     General routines

     Parallel routines

   This run was terminated on:  17:10:46  13Nov2017

   JOB DONE.