     Program PWSCF v.5.1rc2 starts on 14Nov2017 at 14:17:39

     Current dimensions of program PWSCF are:
     Max number of different atomic species (ntypx) = 10
     Max number of k-points (npk) =  40000
     Max angular momentum in pseudopotentials (lmaxx) =  3

     IMPORTANT: XC functional enforced from input :
     Exchange-correlation      = BEEF-VDW ( 1  4 27 13 2)
     Any further DFT definition will be discarded
     Please, verify this is what you really want

     Found symmetry operation: I + ( -0.5000 -0.5000  0.0000)
     This is a supercell, fractional translations are disabled

     bravais-lattice index     =            0
     lattice parameter (alat)  =       1.8897  a.u.
     unit-cell volume          =     547.4621 (a.u.)^3
     number of atoms/cell      =            4
     number of atomic types    =            2
     number of electrons       =        50.00
     number of Kohn-Sham states=           45
     kinetic-energy cutoff     =      58.7989  Ry
     charge density cutoff     =     587.9892  Ry
     convergence threshold     =      1.0E-06
     mixing beta               =       0.1000
     number of iterations used =           10  plain     mixing
     Exchange-correlation      = BEEF-VDW ( 1  4 27 13 2)

     celldm(1)=   1.889726  celldm(2)=   0.000000  celldm(3)=   0.000000
     celldm(4)=   0.000000  celldm(5)=   0.000000  celldm(6)=   0.000000

     crystal axes: (cart. coord. in units of alat)
               a(1) = (   4.182495   0.000000   0.000000 )
               a(2) = (   0.000000   4.182495   0.000000 )
               a(3) = (   0.000000   0.000000   4.637527 )

     reciprocal axes: (cart. coord. in units 2 pi/alat)
               b(1) = (  0.239092  0.000000  0.000000 )
               b(2) = (  0.000000  0.239092  0.000000 )
               b(3) = (  0.000000  0.000000  0.215632 )

     PseudoPot. # 1 for Hf read from file:
     /home/users/vossj/suncat/psp/gbrv1.5pbe/Hf.UPF
     MD5 check sum: 8ee9378dfe14276e333edf04c5e4aa26
     Pseudo is Ultrasoft + core correction, Zval = 12.0
     Generated by new atomic code, or converted to UPF format
     Using radial grid of  921 points,  8 beta functions with:
                l(1) =   0
                l(2) =   0
                l(3) =   0
                l(4) =   1
                l(5) =   1
                l(6) =   2
                l(7) =   2
                l(8) =   3
     Q(r) pseudized with  6 coefficients,  rinner =    1.200   1.200   1.200
                                                       1.200   1.200   1.200
                                                       1.200

     PseudoPot. # 2 for Ta read from file:
     /home/users/vossj/suncat/psp/gbrv1.5pbe/Ta.UPF
     MD5 check sum: f8bbe9446314a3b8ea5d9f3e3836c939
     Pseudo is Ultrasoft + core correction, Zval = 13.0
     Generated by new atomic code, or converted to UPF format
     Using radial grid of  921 points,  7 beta functions with:
                l(1) =   0
                l(2) =   0
                l(3) =   1
                l(4) =   1
                l(5) =   2
                l(6) =   2
                l(7) =   3
     Q(r) pseudized with  6 coefficients,  rinner =    1.300   1.300   1.300
                                                       1.300   1.300   1.300
                                                       1.300

     vdW kernel table read from file vdW_kernel_table
     MD5 check sum: 095c7af220d748ca6e76c0b4c6cfb241

     atomic species   valence    mass     pseudopotential
        Hf1           12.00   178.49000     Hf( 1.00)
        Ta1           13.00   180.94790     Ta( 1.00)

     16 Sym. Ops., with inversion, found

   Cartesian axes

     site n.     atom                  positions (alat units)
         1           Hf1 tau(   1) = (   0.0000000   0.0000000   0.0000000  )
         2           Hf1 tau(   2) = (   2.0912477   2.0912477   0.0000000  )
         3           Ta1 tau(   3) = (   2.0912477   0.0000000   2.3187637  )
         4           Ta1 tau(   4) = (   0.0000000   2.0912477   2.3187637  )

     number of k points=    75  Fermi-Dirac smearing, width (Ry)=  0.0073
                       cart. coord. in units 2pi/alat
        k(    1) = (   0.0000000   0.0000000   0.0000000), wk =   0.0027435
        k(    2) = (   0.0000000   0.0000000   0.0239591), wk =   0.0054870
        k(    3) = (   0.0000000   0.0000000   0.0479183), wk =   0.0054870
        k(    4) = (   0.0000000   0.0000000   0.0718774), wk =   0.0054870
        k(    5) = (   0.0000000   0.0000000   0.0958365), wk =   0.0054870
        k(    6) = (   0.0000000   0.0265657   0.0000000), wk =   0.0109739
        k(    7) = (   0.0000000   0.0265657   0.0239591), wk =   0.0219479
        k(    8) = (   0.0000000   0.0265657   0.0479183), wk =   0.0219479
        k(    9) = (   0.0000000   0.0265657   0.0718774), wk =   0.0219479
        k(   10) = (   0.0000000   0.0265657   0.0958365), wk =   0.0219479
        k(   11) = (   0.0000000   0.0531315   0.0000000), wk =   0.0109739
        k(   12) = (   0.0000000   0.0531315   0.0239591), wk =   0.0219479
        k(   13) = (   0.0000000   0.0531315   0.0479183), wk =   0.0219479
        k(   14) = (   0.0000000   0.0531315   0.0718774), wk =   0.0219479
        k(   15) = (   0.0000000   0.0531315   0.0958365), wk =   0.0219479
        k(   16) = (   0.0000000   0.0796972   0.0000000), wk =   0.0109739
        k(   17) = (   0.0000000   0.0796972   0.0239591), wk =   0.0219479
        k(   18) = (   0.0000000   0.0796972   0.0479183), wk =   0.0219479
        k(   19) = (   0.0000000   0.0796972   0.0718774), wk =   0.0219479
        k(   20) = (   0.0000000   0.0796972   0.0958365), wk =   0.0219479
        k(   21) = (   0.0000000   0.1062630   0.0000000), wk =   0.0109739
        k(   22) = (   0.0000000   0.1062630   0.0239591), wk =   0.0219479
        k(   23) = (   0.0000000   0.1062630   0.0479183), wk =   0.0219479
        k(   24) = (   0.0000000   0.1062630   0.0718774), wk =   0.0219479
        k(   25) = (   0.0000000   0.1062630   0.0958365), wk =   0.0219479
        k(   26) = (   0.0265657   0.0265657   0.0000000), wk =   0.0109739
        k(   27) = (   0.0265657   0.0265657   0.0239591), wk =   0.0219479
        k(   28) = (   0.0265657   0.0265657   0.0479183), wk =   0.0219479
        k(   29) = (   0.0265657   0.0265657   0.0718774), wk =   0.0219479
        k(   30) = (   0.0265657   0.0265657   0.0958365), wk =   0.0219479
        k(   31) = (   0.0265657   0.0531315   0.0000000), wk =   0.0219479
        k(   32) = (   0.0265657   0.0531315   0.0239591), wk =   0.0438957
        k(   33) = (   0.0265657   0.0531315   0.0479183), wk =   0.0438957
        k(   34) = (   0.0265657   0.0531315   0.0718774), wk =   0.0438957
        k(   35) = (   0.0265657   0.0531315   0.0958365), wk =   0.0438957
        k(   36) = (   0.0265657   0.0796972   0.0000000), wk =   0.0219479
        k(   37) = (   0.0265657   0.0796972   0.0239591), wk =   0.0438957
        k(   38) = (   0.0265657   0.0796972   0.0479183), wk =   0.0438957
        k(   39) = (   0.0265657   0.0796972   0.0718774), wk =   0.0438957
        k(   40) = (   0.0265657   0.0796972   0.0958365), wk =   0.0438957
        k(   41) = (   0.0265657   0.1062630   0.0000000), wk =   0.0219479
        k(   42) = (   0.0265657   0.1062630   0.0239591), wk =   0.0438957
        k(   43) = (   0.0265657   0.1062630   0.0479183), wk =   0.0438957
        k(   44) = (   0.0265657   0.1062630   0.0718774), wk =   0.0438957
        k(   45) = (   0.0265657   0.1062630   0.0958365), wk =   0.0438957
        k(   46) = (   0.0531315   0.0531315   0.0000000), wk =   0.0109739
        k(   47) = (   0.0531315   0.0531315   0.0239591), wk =   0.0219479
        k(   48) = (   0.0531315   0.0531315   0.0479183), wk =   0.0219479
        k(   49) = (   0.0531315   0.0531315   0.0718774), wk =   0.0219479
        k(   50) = (   0.0531315   0.0531315   0.0958365), wk =   0.0219479
        k(   51) = (   0.0531315   0.0796972   0.0000000), wk =   0.0219479
        k(   52) = (   0.0531315   0.0796972   0.0239591), wk =   0.0438957
        k(   53) = (   0.0531315   0.0796972   0.0479183), wk =   0.0438957
        k(   54) = (   0.0531315   0.0796972   0.0718774), wk =   0.0438957
        k(   55) = (   0.0531315   0.0796972   0.0958365), wk =   0.0438957
        k(   56) = (   0.0531315   0.1062630   0.0000000), wk =   0.0219479
        k(   57) = (   0.0531315   0.1062630   0.0239591), wk =   0.0438957
        k(   58) = (   0.0531315   0.1062630   0.0479183), wk =   0.0438957
        k(   59) = (   0.0531315   0.1062630   0.0718774), wk =   0.0438957
        k(   60) = (   0.0531315   0.1062630   0.0958365), wk =   0.0438957
        k(   61) = (   0.0796972   0.0796972   0.0000000), wk =   0.0109739
        k(   62) = (   0.0796972   0.0796972   0.0239591), wk =   0.0219479
        k(   63) = (   0.0796972   0.0796972   0.0479183), wk =   0.0219479
        k(   64) = (   0.0796972   0.0796972   0.0718774), wk =   0.0219479
        k(   65) = (   0.0796972   0.0796972   0.0958365), wk =   0.0219479
        k(   66) = (   0.0796972   0.1062630   0.0000000), wk =   0.0219479
        k(   67) = (   0.0796972   0.1062630   0.0239591), wk =   0.0438957
        k(   68) = (   0.0796972   0.1062630   0.0479183), wk =   0.0438957
        k(   69) = (   0.0796972   0.1062630   0.0718774), wk =   0.0438957
        k(   70) = (   0.0796972   0.1062630   0.0958365), wk =   0.0438957
        k(   71) = (   0.1062630   0.1062630   0.0000000), wk =   0.0109739
        k(   72) = (   0.1062630   0.1062630   0.0239591), wk =   0.0219479
        k(   73) = (   0.1062630   0.1062630   0.0479183), wk =   0.0219479
        k(   74) = (   0.1062630   0.1062630   0.0718774), wk =   0.0219479
        k(   75) = (   0.1062630   0.1062630   0.0958365), wk =   0.0219479

     Largest allocated arrays     est. size (Mb)     dimensions
     Largest temporary arrays     est. size (Mb)     dimensions

     Initial potential from superposition of free atoms
     Check: negative starting charge=   -0.405085

     starting charge   45.99777, renormalised to   50.00000

     negative rho (up, down):  4.403E-01 0.000E+00

     *
     * You are using vdW-DF for exchange-correlation in this calculation.
     * Please cite the following three references that made this development
     * possible:
     *
     *   M. Dion, H. Rydberg, E. Schroder, D. C. Langreth, and
     *   B. I. Lundqvist, Phys. Rev. Lett. 92, 246401 (2004).
     *
     *   T. Thonhauser, V. R. Cooper, S. Li, A. Puzder, P. Hyldgaard, and
     *   D. C. Langreth, Phys. Rev. B 76, 125112 (2007).
     *
     *   G. Roman-Perez and J. M. Soler, Phys. Rev. Lett. 103, 096102 (2009).
     *
     *
     * If you are using vdW-DF2, please also cite:
     *
     *   K. Lee, E. D. Murray, L. Kong, B. I. Lundqvist, and
     *   D. C. Langreth, Phys. Rev. B 82, 081101(R) (2010).
     *
     *
     * If you are calculating the stress with vdW-DF, please also cite:
     *
     *   R. Sabatini, E. Kucukbenli, B. Kolb, T. Thonhauser, and
     *   S. de Gironcoli, J. Phys.: Condens. Matter 24, 424209 (2012).
     *

     Carrying out vdW-DF run using the following parameters:

     Nqs =      20    Nr_points =    1024   r_max =   100.000
     q_mesh =
               0.00001000     0.04494208     0.09755937     0.15916263
               0.23128650     0.31572767     0.41458969     0.53033537
               0.66584808     0.82450364     1.01025438     1.22772762
               1.48234092     1.78043706     2.12944203     2.53805004
               3.01644009     3.57652955     4.23227104     5.00000000

     Gradients computed in reciprocal space

     Starting wfc are   52 randomized atomic wfcs

     Self-consistent Calculation

     iteration #  1     ecut=    58.80 Ry     beta=0.10
     Davidson diagonalization with overlap
     ethr =  1.00E-02,  avg # of iterations =  4.3

[...]

     total energy              =    -608.43637308 Ry
     Harris-Foulkes estimate   =    -609.13338014 Ry
     estimated scf accuracy    <       4.68964073 Ry

[...]

     total energy              =    -607.67559966 Ry
     Harris-Foulkes estimate   =    -607.67559943 Ry
     estimated scf accuracy    <       0.00003567 Ry

     iteration # 11     ecut=    58.80 Ry     beta=0.10
     Davidson diagonalization with overlap
     ethr =  5.97E-08,  avg # of iterations =  1.1

     negative rho (up, down):  4.376E-01 0.000E+00

     End of self-consistent calculation

          k = 0.0000 0.0000 0.0000 (  4201 PWs)   bands (ev):

   -51.9189 -51.8559 -45.7873 -45.6923 -18.4910 -18.4910 -18.2925 -18.1350
   -17.9902 -17.9902 -14.6807 -14.6807 -14.3052 -14.1705 -14.0097 -14.0097
     8.5492  12.2293  12.3980  12.4498  13.4523  13.4523  13.5536  16.3814
    17.5821  17.5821  17.8114  18.9710  19.5178  19.5178  20.5941  21.4741
    22.1004  22.1004  22.3918  22.7039  22.7752  22.9334  22.9334  24.5614
    25.3563  26.0900  26.7832  26.9388  26.9389

[...]

          k = 0.1063 0.1063 0.0958 (  4160 PWs)   bands (ev):

   -51.8880 -51.8861 -45.7408 -45.7380 -18.5674 -18.5532 -18.2219 -18.2182
   -17.9551 -17.9394 -14.7651 -14.7460 -14.2428 -14.2373 -13.9666 -13.9448
    12.0124  12.1273  12.2333  12.2865  15.8674  15.9811  16.4279  16.4859
    16.5860  16.7058  16.7330  16.9297  17.4796  17.5028  17.6338  17.7497
    21.6316  21.7889  22.0061  22.1158  22.2521  22.3196  22.7627  22.8336
    25.7212  25.8262  26.5359  26.5539  27.6394

     the Fermi energy is    16.1128 ev

!    total energy              =    -607.67560513 Ry
     Harris-Foulkes estimate   =    -607.67560394 Ry
     estimated scf accuracy    <       0.00000046 Ry

     The total energy is the sum of the following terms:

     one-electron contribution =     -72.70822239 Ry
     hartree contribution      =      57.63207204 Ry
     xc contribution           =    -242.15139614 Ry
     ewald contribution        =    -350.43437150 Ry
     smearing contrib. (-TS)   =      -0.01368713 Ry

     convergence has been achieved in  11 iterations

     Forces acting on atoms (Ry/au):

     negative rho (up, down):  4.376E-01 0.000E+00
     atom    1 type  1   force =     0.00000000    0.00000000    0.00000000
     atom    2 type  1   force =     0.00000000    0.00000000    0.00000000
     atom    3 type  2   force =     0.00000000    0.00000000    0.00000000
     atom    4 type  2   force =     0.00000000    0.00000000    0.00000000

     Total force =     0.000000     Total SCF correction =     0.000000

     General routines

     Parallel routines

   This run was terminated on:  14:18:18  14Nov2017

   JOB DONE.