     Program PWSCF v.5.1rc2 starts on 14Nov2017 at 13: 9:24

     Current dimensions of program PWSCF are:
     Max number of different atomic species (ntypx) = 10
     Max number of k-points (npk) =  40000
     Max angular momentum in pseudopotentials (lmaxx) =  3

     IMPORTANT: XC functional enforced from input :
     Exchange-correlation      = BEEF-VDW ( 1  4 27 13 2)
     Any further DFT definition will be discarded
     Please, verify this is what you really want

     Found symmetry operation: I + (  0.5000  0.5000  0.0000)
     This is a supercell, fractional translations are disabled

     Generating pointlists ...
     new r_m :   0.4125 (alat units)  0.7795 (a.u.) for type    1
     new r_m :   0.4125 (alat units)  0.7795 (a.u.) for type    2

     bravais-lattice index     =            0
     lattice parameter (alat)  =       1.8897  a.u.
     unit-cell volume          =     358.6138 (a.u.)^3
     number of atoms/cell      =            4
     number of atomic types    =            2
     number of electrons       =        60.00
     number of Kohn-Sham states=           50
     kinetic-energy cutoff     =      58.7989  Ry
     charge density cutoff     =     587.9892  Ry
     convergence threshold     =      1.0E-06
     mixing beta               =       0.1000
     number of iterations used =           10  plain     mixing
     Exchange-correlation      = BEEF-VDW ( 1  4 27 13 2)

     celldm(1)=   1.889726  celldm(2)=   0.000000  celldm(3)=   0.000000
     celldm(4)=   0.000000  celldm(5)=   0.000000  celldm(6)=   0.000000

     crystal axes: (cart. coord. in units of alat)
               a(1) = (   3.773093   0.000000   0.000000 )
               a(2) = (   0.000000   3.773093   0.000000 )
               a(3) = (   0.000000   0.000000   3.732806 )

     reciprocal axes: (cart. coord. in units 2 pi/alat)
               b(1) = (  0.265035  0.000000  0.000000 )
               b(2) = (  0.000000  0.265035  0.000000 )
               b(3) = (  0.000000  0.000000  0.267895 )

     PseudoPot. # 1 for Fe read from file:
     /home/users/vossj/suncat/psp/gbrv1.5pbe/Fe.UPF
     MD5 check sum: a130daea23fe5165f5d574ae7f82ed95
     Pseudo is Ultrasoft + core correction, Zval = 16.0
     Generated by new atomic code, or converted to UPF format
     Using radial grid of  861 points,  6 beta functions with:
                l(1) =   0
                l(2) =   0
                l(3) =   1
                l(4) =   1
                l(5) =   2
                l(6) =   2
     Q(r) pseudized with  8 coefficients,  rinner =    1.000   1.000   1.000
                                                       1.000   1.000

     PseudoPot. # 2 for Mo read from file:
     /home/users/vossj/suncat/psp/gbrv1.5pbe/Mo.UPF
     MD5 check sum: 30c4dcd161f5d35cd49bb5239c51a633
     Pseudo is Ultrasoft + core correction, Zval = 14.0
     Generated by new atomic code, or converted to UPF format
     Using radial grid of  889 points,  6 beta functions with:
                l(1) =   0
                l(2) =   0
                l(3) =   1
                l(4) =   1
                l(5) =   2
                l(6) =   2
     Q(r) pseudized with  6 coefficients,  rinner =    1.000   1.000   1.000
                                                       1.000   1.000

     vdW kernel table read from file vdW_kernel_table
     MD5 check sum: 095c7af220d748ca6e76c0b4c6cfb241

     atomic species   valence    mass     pseudopotential
        Fe1           16.00    55.84700     Fe( 1.00)
        Mo1           14.00    95.94000     Mo( 1.00)

     Starting magnetic structure
     atomic species   magnetization
        Fe1          0.125
        Mo1          0.143

     16 Sym. Ops., with inversion, found

   Cartesian axes

     site n.     atom                  positions (alat units)
         1           Fe1 tau(   1) = (   0.0000000   0.0000000   0.0000000  )
         2           Fe1 tau(   2) = (   1.8865463   1.8865463   0.0000000  )
         3           Mo1 tau(   3) = (   1.8865463   0.0000000   1.8664029  )
         4           Mo1 tau(   4) = (   0.0000000   1.8865463   1.8664029  )

     number of k points=   150  Fermi-Dirac smearing, width (Ry)=  0.0073

     Number of k-points >= 100: set verbosity='high' to print them.

     Largest allocated arrays     est. size (Mb)     dimensions
     Largest temporary arrays     est. size (Mb)     dimensions

     Check: negative/imaginary core charge=   -0.000030    0.000000

     Initial potential from superposition of free atoms

     starting charge   57.99786, renormalised to   60.00000

     *
     * You are using vdW-DF for exchange-correlation in this calculation.
     * Please cite the following three references that made this development
     * possible:
     *
     *   M. Dion, H. Rydberg, E. Schroder, D. C. Langreth, and
     *   B. I. Lundqvist, Phys. Rev. Lett. 92, 246401 (2004).
     *
     *   T. Thonhauser, V. R. Cooper, S. Li, A. Puzder, P. Hyldgaard, and
     *   D. C. Langreth, Phys. Rev. B 76, 125112 (2007).
     *
     *   G. Roman-Perez and J. M. Soler, Phys. Rev. Lett. 103, 096102 (2009).
     *
     *
     * If you are using vdW-DF2, please also cite:
     *
     *   K. Lee, E. D. Murray, L. Kong, B. I. Lundqvist, and
     *   D. C. Langreth, Phys. Rev. B 82, 081101(R) (2010).
     *
     *
     * If you are calculating the stress with vdW-DF, please also cite:
     *
     *   R. Sabatini, E. Kucukbenli, B. Kolb, T. Thonhauser, and
     *   S. de Gironcoli, J. Phys.: Condens. Matter 24, 424209 (2012).
     *

     Carrying out vdW-DF run using the following parameters:

     Nqs =      20    Nr_points =    1024   r_max =   100.000
     q_mesh =
               0.00001000     0.04494208     0.09755937     0.15916263
               0.23128650     0.31572767     0.41458969     0.53033537
               0.66584808     0.82450364     1.01025438     1.22772762
               1.48234092     1.78043706     2.12944203     2.53805004
               3.01644009     3.57652955     4.23227104     5.00000000

     Gradients computed in reciprocal space

     Starting wfc are   52 randomized atomic wfcs

     Self-consistent Calculation

     iteration #  1     ecut=    58.80 Ry     beta=0.10
     Davidson diagonalization with overlap
     ethr =  1.00E-02,  avg # of iterations =  4.3

     Magnetic moment per site:
     atom:    1    charge:    7.2340    magn:    0.8578    constr:    0.0000
     atom:    2    charge:    7.2340    magn:    0.8578    constr:    0.0000
     atom:    3    charge:    1.9117    magn:    0.2522    constr:    0.0000
     atom:    4    charge:    1.9117    magn:    0.2522    constr:    0.0000

     total energy              =    -782.56772666 Ry
     Harris-Foulkes estimate   =    -783.09954947 Ry
     estimated scf accuracy    <       3.27096930 Ry

     total magnetization       =     2.69 Bohr mag/cell
     absolute magnetization    =     2.74 Bohr mag/cell

[...]

     total energy              =    -782.71325041 Ry
     Harris-Foulkes estimate   =    -782.71325691 Ry
     estimated scf accuracy    <       0.00000206 Ry

[...]

     iteration # 17     ecut=    58.80 Ry     beta=0.10
     Davidson diagonalization with overlap
     ethr =  3.43E-09,  avg # of iterations =  2.2

     Magnetic moment per site:
     atom:    1    charge:    7.0682    magn:    0.5332    constr:    0.0000
     atom:    2    charge:    7.0682    magn:    0.5331    constr:    0.0000
     atom:    3    charge:    1.8665    magn:   -0.0147    constr:    0.0000
     atom:    4    charge:    1.8665    magn:   -0.0147    constr:    0.0000

     End of self-consistent calculation

     Number of k-points >= 100: set verbosity='high' to print the bands.

     the Fermi energy is    19.8903 ev

!    total energy              =    -782.71326801 Ry
     Harris-Foulkes estimate   =    -782.71326375 Ry
     estimated scf accuracy    <       0.00000064 Ry

     The total energy is the sum of the following terms:

     one-electron contribution =    -278.01859693 Ry
     hartree contribution      =     178.10247393 Ry
     xc contribution           =    -100.70742918 Ry
     ewald contribution        =    -582.07948113 Ry
     smearing contrib. (-TS)   =      -0.01023469 Ry

     total magnetization       =     1.81 Bohr mag/cell
     absolute magnetization    =     2.74 Bohr mag/cell

     convergence has been achieved in  17 iterations

     Forces acting on atoms (Ry/au):

     atom    1 type  1   force =     0.00000000    0.00000000    0.00000000
     atom    2 type  1   force =     0.00000000    0.00000000    0.00000000
     atom    3 type  2   force =     0.00000000    0.00000000    0.00000000
     atom    4 type  2   force =     0.00000000    0.00000000    0.00000000

     Total force =     0.000000     Total SCF correction =     0.000000

     General routines

     Parallel routines

   This run was terminated on:  13:10:54  14Nov2017

   JOB DONE.