     Program PWSCF v.5.1rc2 starts on 14Nov2017 at  9:40:31

     Current dimensions of program PWSCF are:
     Max number of different atomic species (ntypx) = 10
     Max number of k-points (npk) =  40000
     Max angular momentum in pseudopotentials (lmaxx) =  3

     IMPORTANT: XC functional enforced from input :
     Exchange-correlation      = BEEF-VDW ( 1  4 27 13 2)
     Any further DFT definition will be discarded
     Please, verify this is what you really want

     Found symmetry operation: I + ( -0.5000 -0.5000  0.0000)
     This is a supercell, fractional translations are disabled

     bravais-lattice index     =            0
     lattice parameter (alat)  =       1.8897  a.u.
     unit-cell volume          =     399.0367 (a.u.)^3
     number of atoms/cell      =            4
     number of atomic types    =            2
     number of electrons       =        72.00
     number of Kohn-Sham states=           56
     kinetic-energy cutoff     =      58.7989  Ry
     charge density cutoff     =     587.9892  Ry
     convergence threshold     =      1.0E-06
     mixing beta               =       0.1000
     number of iterations used =           10  plain     mixing
     Exchange-correlation      = BEEF-VDW ( 1  4 27 13 2)

     celldm(1)=   1.889726  celldm(2)=   0.000000  celldm(3)=   0.000000
     celldm(4)=   0.000000  celldm(5)=   0.000000  celldm(6)=   0.000000

     crystal axes: (cart. coord. in units of alat)
               a(1) = (   4.153233   0.000000   0.000000 )
               a(2) = (   0.000000   4.153233   0.000000 )
               a(3) = (   0.000000   0.000000   3.428023 )

     reciprocal axes: (cart. coord. in units 2 pi/alat)
               b(1) = (  0.240776  0.000000  0.000000 )
               b(2) = (  0.000000  0.240776  0.000000 )
               b(3) = (  0.000000  0.000000  0.291713 )

     PseudoPot. # 1 for Zn read from file:
     /home/users/vossj/suncat/psp/gbrv1.5pbe/Zn.UPF
     MD5 check sum: df62231357ef9e81f77b2b3087fa5675
     Pseudo is Ultrasoft, Zval = 20.0
     Generated by new atomic code, or converted to UPF format
     Using radial grid of  943 points,  6 beta functions with:
                l(1) =   0
                l(2) =   0
                l(3) =   1
                l(4) =   1
                l(5) =   2
                l(6) =   2
     Q(r) pseudized with  8 coefficients,  rinner =    1.100   1.100   1.100
                                                       1.100   1.100

     PseudoPot. # 2 for Pd read from file:
     /home/users/vossj/suncat/psp/gbrv1.5pbe/Pd.UPF
     MD5 check sum: 2d733d2bc2cbfd217af676df1668a4bc
     Pseudo is Ultrasoft + core correction, Zval = 16.0
     Generated by new atomic code, or converted to UPF format
     Using radial grid of  887 points,  6 beta functions with:
                l(1) =   0
                l(2) =   0
                l(3) =   1
                l(4) =   1
                l(5) =   2
                l(6) =   2
     Q(r) pseudized with  8 coefficients,  rinner =    1.130   1.130   1.130
                                                       1.130   1.130

     vdW kernel table read from file vdW_kernel_table
     MD5 check sum: 095c7af220d748ca6e76c0b4c6cfb241

     atomic species   valence    mass     pseudopotential
        Zn1           20.00    65.39000     Zn( 1.00)
        Pd1           16.00   106.42000     Pd( 1.00)

     16 Sym. Ops., with inversion, found

   Cartesian axes

     site n.     atom                  positions (alat units)
         1           Zn1 tau(   1) = (   0.0000000   0.0000000   0.0000000  )
         2           Zn1 tau(   2) = (   2.0766165   2.0766165   0.0000000  )
         3           Pd1 tau(   3) = (   2.0766165   0.0000000   1.7140113  )
         4           Pd1 tau(   4) = (   0.0000000   2.0766165   1.7140113  )

     number of k points=    75  Fermi-Dirac smearing, width (Ry)=  0.0073
                       cart. coord. in units 2pi/alat
        k(    1) = (   0.0000000   0.0000000   0.0000000), wk =   0.0027435
        k(    2) = (   0.0000000   0.0000000   0.0324126), wk =   0.0054870
        k(    3) = (   0.0000000   0.0000000   0.0648252), wk =   0.0054870
        k(    4) = (   0.0000000   0.0000000   0.0972378), wk =   0.0054870
        k(    5) = (   0.0000000   0.0000000   0.1296504), wk =   0.0054870
        k(    6) = (   0.0000000   0.0267529   0.0000000), wk =   0.0109739
        k(    7) = (   0.0000000   0.0267529   0.0324126), wk =   0.0219479
        k(    8) = (   0.0000000   0.0267529   0.0648252), wk =   0.0219479
        k(    9) = (   0.0000000   0.0267529   0.0972378), wk =   0.0219479
        k(   10) = (   0.0000000   0.0267529   0.1296504), wk =   0.0219479
        k(   11) = (   0.0000000   0.0535058   0.0000000), wk =   0.0109739
        k(   12) = (   0.0000000   0.0535058   0.0324126), wk =   0.0219479
        k(   13) = (   0.0000000   0.0535058   0.0648252), wk =   0.0219479
        k(   14) = (   0.0000000   0.0535058   0.0972378), wk =   0.0219479
        k(   15) = (   0.0000000   0.0535058   0.1296504), wk =   0.0219479
        k(   16) = (   0.0000000   0.0802588   0.0000000), wk =   0.0109739
        k(   17) = (   0.0000000   0.0802588   0.0324126), wk =   0.0219479
        k(   18) = (   0.0000000   0.0802588   0.0648252), wk =   0.0219479
        k(   19) = (   0.0000000   0.0802588   0.0972378), wk =   0.0219479
        k(   20) = (   0.0000000   0.0802588   0.1296504), wk =   0.0219479
        k(   21) = (   0.0000000   0.1070117   0.0000000), wk =   0.0109739
        k(   22) = (   0.0000000   0.1070117   0.0324126), wk =   0.0219479
        k(   23) = (   0.0000000   0.1070117   0.0648252), wk =   0.0219479
        k(   24) = (   0.0000000   0.1070117   0.0972378), wk =   0.0219479
        k(   25) = (   0.0000000   0.1070117   0.1296504), wk =   0.0219479
        k(   26) = (   0.0267529   0.0267529   0.0000000), wk =   0.0109739
        k(   27) = (   0.0267529   0.0267529   0.0324126), wk =   0.0219479
        k(   28) = (   0.0267529   0.0267529   0.0648252), wk =   0.0219479
        k(   29) = (   0.0267529   0.0267529   0.0972378), wk =   0.0219479
        k(   30) = (   0.0267529   0.0267529   0.1296504), wk =   0.0219479
        k(   31) = (   0.0267529   0.0535058   0.0000000), wk =   0.0219479
        k(   32) = (   0.0267529   0.0535058   0.0324126), wk =   0.0438957
        k(   33) = (   0.0267529   0.0535058   0.0648252), wk =   0.0438957
        k(   34) = (   0.0267529   0.0535058   0.0972378), wk =   0.0438957
        k(   35) = (   0.0267529   0.0535058   0.1296504), wk =   0.0438957
        k(   36) = (   0.0267529   0.0802588   0.0000000), wk =   0.0219479
        k(   37) = (   0.0267529   0.0802588   0.0324126), wk =   0.0438957
        k(   38) = (   0.0267529   0.0802588   0.0648252), wk =   0.0438957
        k(   39) = (   0.0267529   0.0802588   0.0972378), wk =   0.0438957
        k(   40) = (   0.0267529   0.0802588   0.1296504), wk =   0.0438957
        k(   41) = (   0.0267529   0.1070117   0.0000000), wk =   0.0219479
        k(   42) = (   0.0267529   0.1070117   0.0324126), wk =   0.0438957
        k(   43) = (   0.0267529   0.1070117   0.0648252), wk =   0.0438957
        k(   44) = (   0.0267529   0.1070117   0.0972378), wk =   0.0438957
        k(   45) = (   0.0267529   0.1070117   0.1296504), wk =   0.0438957
        k(   46) = (   0.0535058   0.0535058   0.0000000), wk =   0.0109739
        k(   47) = (   0.0535058   0.0535058   0.0324126), wk =   0.0219479
        k(   48) = (   0.0535058   0.0535058   0.0648252), wk =   0.0219479
        k(   49) = (   0.0535058   0.0535058   0.0972378), wk =   0.0219479
        k(   50) = (   0.0535058   0.0535058   0.1296504), wk =   0.0219479
        k(   51) = (   0.0535058   0.0802588   0.0000000), wk =   0.0219479
        k(   52) = (   0.0535058   0.0802588   0.0324126), wk =   0.0438957
        k(   53) = (   0.0535058   0.0802588   0.0648252), wk =   0.0438957
        k(   54) = (   0.0535058   0.0802588   0.0972378), wk =   0.0438957
        k(   55) = (   0.0535058   0.0802588   0.1296504), wk =   0.0438957
        k(   56) = (   0.0535058   0.1070117   0.0000000), wk =   0.0219479
        k(   57) = (   0.0535058   0.1070117   0.0324126), wk =   0.0438957
        k(   58) = (   0.0535058   0.1070117   0.0648252), wk =   0.0438957
        k(   59) = (   0.0535058   0.1070117   0.0972378), wk =   0.0438957
        k(   60) = (   0.0535058   0.1070117   0.1296504), wk =   0.0438957
        k(   61) = (   0.0802588   0.0802588   0.0000000), wk =   0.0109739
        k(   62) = (   0.0802588   0.0802588   0.0324126), wk =   0.0219479
        k(   63) = (   0.0802588   0.0802588   0.0648252), wk =   0.0219479
        k(   64) = (   0.0802588   0.0802588   0.0972378), wk =   0.0219479
        k(   65) = (   0.0802588   0.0802588   0.1296504), wk =   0.0219479
        k(   66) = (   0.0802588   0.1070117   0.0000000), wk =   0.0219479
        k(   67) = (   0.0802588   0.1070117   0.0324126), wk =   0.0438957
        k(   68) = (   0.0802588   0.1070117   0.0648252), wk =   0.0438957
        k(   69) = (   0.0802588   0.1070117   0.0972378), wk =   0.0438957
        k(   70) = (   0.0802588   0.1070117   0.1296504), wk =   0.0438957
        k(   71) = (   0.1070117   0.1070117   0.0000000), wk =   0.0109739
        k(   72) = (   0.1070117   0.1070117   0.0324126), wk =   0.0219479
        k(   73) = (   0.1070117   0.1070117   0.0648252), wk =   0.0219479
        k(   74) = (   0.1070117   0.1070117   0.0972378), wk =   0.0219479
        k(   75) = (   0.1070117   0.1070117   0.1296504), wk =   0.0219479

     Largest allocated arrays     est. size (Mb)     dimensions
     Largest temporary arrays     est. size (Mb)     dimensions

     Initial potential from superposition of free atoms
     Check: negative starting charge=   -0.155214

     starting charge   70.99970, renormalised to   72.00000

     negative rho (up, down):  1.574E-01 0.000E+00

     *
     * You are using vdW-DF for exchange-correlation in this calculation.
     * Please cite the following three references that made this development
     * possible:
     *
     *   M. Dion, H. Rydberg, E. Schroder, D. C. Langreth, and
     *   B. I. Lundqvist, Phys. Rev. Lett. 92, 246401 (2004).
     *
     *   T. Thonhauser, V. R. Cooper, S. Li, A. Puzder, P. Hyldgaard, and
     *   D. C. Langreth, Phys. Rev. B 76, 125112 (2007).
     *
     *   G. Roman-Perez and J. M. Soler, Phys. Rev. Lett. 103, 096102 (2009).
     *
     *
     * If you are using vdW-DF2, please also cite:
     *
     *   K. Lee, E. D. Murray, L. Kong, B. I. Lundqvist, and
     *   D. C. Langreth, Phys. Rev. B 82, 081101(R) (2010).
     *
     *
     * If you are calculating the stress with vdW-DF, please also cite:
     *
     *   R. Sabatini, E. Kucukbenli, B. Kolb, T. Thonhauser, and
     *   S. de Gironcoli, J. Phys.: Condens. Matter 24, 424209 (2012).
     *

     Carrying out vdW-DF run using the following parameters:

     Nqs =      20    Nr_points =    1024   r_max =   100.000
     q_mesh =
               0.00001000     0.04494208     0.09755937     0.15916263
               0.23128650     0.31572767     0.41458969     0.53033537
               0.66584808     0.82450364     1.01025438     1.22772762
               1.48234092     1.78043706     2.12944203     2.53805004
               3.01644009     3.57652955     4.23227104     5.00000000

     Gradients computed in reciprocal space

     Starting wfc are   50 randomized atomic wfcs +    6 random wfc

     Self-consistent Calculation

     iteration #  1     ecut=    58.80 Ry     beta=0.10
     Davidson diagonalization with overlap
     ethr =  1.00E-02,  avg # of iterations =  4.5

[...]

     total energy              =   -1325.51401247 Ry
     Harris-Foulkes estimate   =   -1325.86595333 Ry
     estimated scf accuracy    <       2.15284235 Ry

[...]

     total energy              =   -1325.34788880 Ry
     Harris-Foulkes estimate   =   -1325.34793626 Ry
     estimated scf accuracy    <       0.00012201 Ry

     iteration # 10     ecut=    58.80 Ry     beta=0.10
     Davidson diagonalization with overlap
     ethr =  1.69E-07,  avg # of iterations =  2.0

     negative rho (up, down):  1.627E-01 0.000E+00

     End of self-consistent calculation

          k = 0.0000 0.0000 0.0000 (  3075 PWs)   bands (ev):

  -110.1049-110.1044 -64.2988 -64.2988 -64.2940 -64.2940 -64.2771 -64.2763
   -34.3145 -34.3145 -34.2885 -34.2696 -34.2191 -34.2191   7.1909   8.3427
     8.4185   8.4593   8.6072   8.6072   8.6095   9.0055   9.0055   9.1417
     9.3735  11.3532  12.2421  12.5611  13.4885  13.6081  13.6081  14.2582
    14.2582  14.5728  15.2787  16.0420  16.0420  19.8552  20.3271  21.7253
    24.3632  24.3632  25.9532  26.1995  29.0906  29.0906  30.0805  30.8280
    32.0280  33.3702  34.5289  34.5289  35.1923  37.3356  37.3356  38.5536

[...]

          k = 0.1070 0.1070 0.1297 (  3023 PWs)   bands (ev):

  -110.1046-110.1046 -64.2991 -64.2990 -64.2937 -64.2936 -64.2772 -64.2772
   -34.3233 -34.3204 -34.2954 -34.2948 -34.2126 -34.2097   8.4568   8.4623
     8.4702   8.4850   8.8482   8.8646   8.9257   8.9359   9.1946   9.2046
    10.8919  10.9406  12.5872  12.6792  13.6679  13.7832  13.9051  14.1390
    14.1789  14.4442  14.7883  15.4780  15.6118  15.6302  19.3612  19.4422
    20.3926  20.7541  28.9957  29.4600  31.4503  31.7131  31.7861  32.1697
    35.1409  35.2373  35.5469  35.7794  36.9955  37.3352  38.1867  38.2735

     the Fermi energy is    16.1527 ev

!    total energy              =   -1325.34791770 Ry
     Harris-Foulkes estimate   =   -1325.34790802 Ry
     estimated scf accuracy    <       0.00000047 Ry

     The total energy is the sum of the following terms:

     one-electron contribution =    -811.67754267 Ry
     hartree contribution      =     450.97096437 Ry
     xc contribution           =    -152.16454003 Ry
     ewald contribution        =    -812.47438169 Ry
     smearing contrib. (-TS)   =      -0.00241768 Ry

     convergence has been achieved in  10 iterations

     Forces acting on atoms (Ry/au):

     negative rho (up, down):  1.627E-01 0.000E+00
     atom    1 type  1   force =     0.00000000    0.00000000    0.00000000
     atom    2 type  1   force =     0.00000000    0.00000000    0.00000000
     atom    3 type  2   force =     0.00000000    0.00000000    0.00000000
     atom    4 type  2   force =     0.00000000    0.00000000    0.00000000

     Total force =     0.000000     Total SCF correction =     0.000000

     General routines

     Parallel routines

   This run was terminated on:   9:41: 5  14Nov2017

   JOB DONE.