     Program PWSCF v.5.1rc2 starts on 14Nov2017 at  8: 6:26

     Current dimensions of program PWSCF are:
     Max number of different atomic species (ntypx) = 10
     Max number of k-points (npk) =  40000
     Max angular momentum in pseudopotentials (lmaxx) =  3

     IMPORTANT: XC functional enforced from input :
     Exchange-correlation      = BEEF-VDW ( 1  4 27 13 2)
     Any further DFT definition will be discarded
     Please, verify this is what you really want

     Found symmetry operation: I + ( -0.5000 -0.5000  0.0000)
     This is a supercell, fractional translations are disabled

     bravais-lattice index     =            0
     lattice parameter (alat)  =       1.8897  a.u.
     unit-cell volume          =     780.0872 (a.u.)^3
     number of atoms/cell      =            4
     number of atomic types    =            2
     number of electrons       =        50.00
     number of Kohn-Sham states=           45
     kinetic-energy cutoff     =      58.7989  Ry
     charge density cutoff     =     587.9892  Ry
     convergence threshold     =      1.0E-06
     mixing beta               =       0.1000
     number of iterations used =           10  plain     mixing
     Exchange-correlation      = BEEF-VDW ( 1  4 27 13 2)

     celldm(1)=   1.889726  celldm(2)=   0.000000  celldm(3)=   0.000000
     celldm(4)=   0.000000  celldm(5)=   0.000000  celldm(6)=   0.000000

     crystal axes: (cart. coord. in units of alat)
               a(1) = (   5.210474   0.000000   0.000000 )
               a(2) = (   0.000000   5.210474   0.000000 )
               a(3) = (   0.000000   0.000000   4.257867 )

     reciprocal axes: (cart. coord. in units 2 pi/alat)
               b(1) = (  0.191921  0.000000  0.000000 )
               b(2) = (  0.000000  0.191921  0.000000 )
               b(3) = (  0.000000  0.000000  0.234859 )

     PseudoPot. # 1 for In read from file:
     /home/users/vossj/suncat/psp/gbrv1.5pbe/In.UPF
     MD5 check sum: 90777abd96fbb83f2e67db2a40c566b9
     Pseudo is Ultrasoft + core correction, Zval = 13.0
     Generated by new atomic code, or converted to UPF format
     Using radial grid of  889 points,  6 beta functions with:
                l(1) =   0
                l(2) =   0
                l(3) =   1
                l(4) =   1
                l(5) =   2
                l(6) =   2
     Q(r) pseudized with  6 coefficients,  rinner =    1.400   1.400   1.400
                                                       1.400   1.400

     PseudoPot. # 2 for Hg read from file:
     /home/users/vossj/suncat/psp/gbrv1.5pbe/Hg.UPF
     MD5 check sum: 8f42caffe07f7fd9c0a564347f8c5498
     Pseudo is Ultrasoft + core correction, Zval = 12.0
     Generated by new atomic code, or converted to UPF format
     Using radial grid of  985 points,  6 beta functions with:
                l(1) =   0
                l(2) =   0
                l(3) =   1
                l(4) =   1
                l(5) =   2
                l(6) =   2
     Q(r) pseudized with  8 coefficients,  rinner =    2.000   2.000   2.000
                                                       2.000   2.000

     vdW kernel table read from file vdW_kernel_table
     MD5 check sum: 095c7af220d748ca6e76c0b4c6cfb241

     atomic species   valence    mass     pseudopotential
        In1           13.00   114.82000     In( 1.00)
        Hg1           12.00   200.59000     Hg( 1.00)

     16 Sym. Ops., with inversion, found

   Cartesian axes

     site n.     atom                  positions (alat units)
         1           In1 tau(   1) = (   0.0000000   0.0000000   0.0000000  )
         2           In1 tau(   2) = (   2.6052371   2.6052371   0.0000000  )
         3           Hg1 tau(   3) = (   2.6052371   0.0000000   2.1289333  )
         4           Hg1 tau(   4) = (   0.0000000   2.6052371   2.1289333  )

     number of k points=    75  Fermi-Dirac smearing, width (Ry)=  0.0073
                       cart. coord. in units 2pi/alat
        k(    1) = (   0.0000000   0.0000000   0.0000000), wk =   0.0027435
        k(    2) = (   0.0000000   0.0000000   0.0260955), wk =   0.0054870
        k(    3) = (   0.0000000   0.0000000   0.0521910), wk =   0.0054870
        k(    4) = (   0.0000000   0.0000000   0.0782865), wk =   0.0054870
        k(    5) = (   0.0000000   0.0000000   0.1043820), wk =   0.0054870
        k(    6) = (   0.0000000   0.0213246   0.0000000), wk =   0.0109739
        k(    7) = (   0.0000000   0.0213246   0.0260955), wk =   0.0219479
        k(    8) = (   0.0000000   0.0213246   0.0521910), wk =   0.0219479
        k(    9) = (   0.0000000   0.0213246   0.0782865), wk =   0.0219479
        k(   10) = (   0.0000000   0.0213246   0.1043820), wk =   0.0219479
        k(   11) = (   0.0000000   0.0426491   0.0000000), wk =   0.0109739
        k(   12) = (   0.0000000   0.0426491   0.0260955), wk =   0.0219479
        k(   13) = (   0.0000000   0.0426491   0.0521910), wk =   0.0219479
        k(   14) = (   0.0000000   0.0426491   0.0782865), wk =   0.0219479
        k(   15) = (   0.0000000   0.0426491   0.1043820), wk =   0.0219479
        k(   16) = (   0.0000000   0.0639737   0.0000000), wk =   0.0109739
        k(   17) = (   0.0000000   0.0639737   0.0260955), wk =   0.0219479
        k(   18) = (   0.0000000   0.0639737   0.0521910), wk =   0.0219479
        k(   19) = (   0.0000000   0.0639737   0.0782865), wk =   0.0219479
        k(   20) = (   0.0000000   0.0639737   0.1043820), wk =   0.0219479
        k(   21) = (   0.0000000   0.0852983   0.0000000), wk =   0.0109739
        k(   22) = (   0.0000000   0.0852983   0.0260955), wk =   0.0219479
        k(   23) = (   0.0000000   0.0852983   0.0521910), wk =   0.0219479
        k(   24) = (   0.0000000   0.0852983   0.0782865), wk =   0.0219479
        k(   25) = (   0.0000000   0.0852983   0.1043820), wk =   0.0219479
        k(   26) = (   0.0213246   0.0213246   0.0000000), wk =   0.0109739
        k(   27) = (   0.0213246   0.0213246   0.0260955), wk =   0.0219479
        k(   28) = (   0.0213246   0.0213246   0.0521910), wk =   0.0219479
        k(   29) = (   0.0213246   0.0213246   0.0782865), wk =   0.0219479
        k(   30) = (   0.0213246   0.0213246   0.1043820), wk =   0.0219479
        k(   31) = (   0.0213246   0.0426491   0.0000000), wk =   0.0219479
        k(   32) = (   0.0213246   0.0426491   0.0260955), wk =   0.0438957
        k(   33) = (   0.0213246   0.0426491   0.0521910), wk =   0.0438957
        k(   34) = (   0.0213246   0.0426491   0.0782865), wk =   0.0438957
        k(   35) = (   0.0213246   0.0426491   0.1043820), wk =   0.0438957
        k(   36) = (   0.0213246   0.0639737   0.0000000), wk =   0.0219479
        k(   37) = (   0.0213246   0.0639737   0.0260955), wk =   0.0438957
        k(   38) = (   0.0213246   0.0639737   0.0521910), wk =   0.0438957
        k(   39) = (   0.0213246   0.0639737   0.0782865), wk =   0.0438957
        k(   40) = (   0.0213246   0.0639737   0.1043820), wk =   0.0438957
        k(   41) = (   0.0213246   0.0852983   0.0000000), wk =   0.0219479
        k(   42) = (   0.0213246   0.0852983   0.0260955), wk =   0.0438957
        k(   43) = (   0.0213246   0.0852983   0.0521910), wk =   0.0438957
        k(   44) = (   0.0213246   0.0852983   0.0782865), wk =   0.0438957
        k(   45) = (   0.0213246   0.0852983   0.1043820), wk =   0.0438957
        k(   46) = (   0.0426491   0.0426491   0.0000000), wk =   0.0109739
        k(   47) = (   0.0426491   0.0426491   0.0260955), wk =   0.0219479
        k(   48) = (   0.0426491   0.0426491   0.0521910), wk =   0.0219479
        k(   49) = (   0.0426491   0.0426491   0.0782865), wk =   0.0219479
        k(   50) = (   0.0426491   0.0426491   0.1043820), wk =   0.0219479
        k(   51) = (   0.0426491   0.0639737   0.0000000), wk =   0.0219479
        k(   52) = (   0.0426491   0.0639737   0.0260955), wk =   0.0438957
        k(   53) = (   0.0426491   0.0639737   0.0521910), wk =   0.0438957
        k(   54) = (   0.0426491   0.0639737   0.0782865), wk =   0.0438957
        k(   55) = (   0.0426491   0.0639737   0.1043820), wk =   0.0438957
        k(   56) = (   0.0426491   0.0852983   0.0000000), wk =   0.0219479
        k(   57) = (   0.0426491   0.0852983   0.0260955), wk =   0.0438957
        k(   58) = (   0.0426491   0.0852983   0.0521910), wk =   0.0438957
        k(   59) = (   0.0426491   0.0852983   0.0782865), wk =   0.0438957
        k(   60) = (   0.0426491   0.0852983   0.1043820), wk =   0.0438957
        k(   61) = (   0.0639737   0.0639737   0.0000000), wk =   0.0109739
        k(   62) = (   0.0639737   0.0639737   0.0260955), wk =   0.0219479
        k(   63) = (   0.0639737   0.0639737   0.0521910), wk =   0.0219479
        k(   64) = (   0.0639737   0.0639737   0.0782865), wk =   0.0219479
        k(   65) = (   0.0639737   0.0639737   0.1043820), wk =   0.0219479
        k(   66) = (   0.0639737   0.0852983   0.0000000), wk =   0.0219479
        k(   67) = (   0.0639737   0.0852983   0.0260955), wk =   0.0438957
        k(   68) = (   0.0639737   0.0852983   0.0521910), wk =   0.0438957
        k(   69) = (   0.0639737   0.0852983   0.0782865), wk =   0.0438957
        k(   70) = (   0.0639737   0.0852983   0.1043820), wk =   0.0438957
        k(   71) = (   0.0852983   0.0852983   0.0000000), wk =   0.0109739
        k(   72) = (   0.0852983   0.0852983   0.0260955), wk =   0.0219479
        k(   73) = (   0.0852983   0.0852983   0.0521910), wk =   0.0219479
        k(   74) = (   0.0852983   0.0852983   0.0782865), wk =   0.0219479
        k(   75) = (   0.0852983   0.0852983   0.1043820), wk =   0.0219479

     Largest allocated arrays     est. size (Mb)     dimensions
     Largest temporary arrays     est. size (Mb)     dimensions

     Initial potential from superposition of free atoms

     starting charge   46.99988, renormalised to   50.00000

     *
     * You are using vdW-DF for exchange-correlation in this calculation.
     * Please cite the following three references that made this development
     * possible:
     *
     *   M. Dion, H. Rydberg, E. Schroder, D. C. Langreth, and
     *   B. I. Lundqvist, Phys. Rev. Lett. 92, 246401 (2004).
     *
     *   T. Thonhauser, V. R. Cooper, S. Li, A. Puzder, P. Hyldgaard, and
     *   D. C. Langreth, Phys. Rev. B 76, 125112 (2007).
     *
     *   G. Roman-Perez and J. M. Soler, Phys. Rev. Lett. 103, 096102 (2009).
     *
     *
     * If you are using vdW-DF2, please also cite:
     *
     *   K. Lee, E. D. Murray, L. Kong, B. I. Lundqvist, and
     *   D. C. Langreth, Phys. Rev. B 82, 081101(R) (2010).
     *
     *
     * If you are calculating the stress with vdW-DF, please also cite:
     *
     *   R. Sabatini, E. Kucukbenli, B. Kolb, T. Thonhauser, and
     *   S. de Gironcoli, J. Phys.: Condens. Matter 24, 424209 (2012).
     *

     Carrying out vdW-DF run using the following parameters:

     Nqs =      20    Nr_points =    1024   r_max =   100.000
     q_mesh =
               0.00001000     0.04494208     0.09755937     0.15916263
               0.23128650     0.31572767     0.41458969     0.53033537
               0.66584808     0.82450364     1.01025438     1.22772762
               1.48234092     1.78043706     2.12944203     2.53805004
               3.01644009     3.57652955     4.23227104     5.00000000

     Gradients computed in reciprocal space

     Starting wfc are   36 randomized atomic wfcs +    9 random wfc

     Self-consistent Calculation

     iteration #  1     ecut=    58.80 Ry     beta=0.10
     Davidson diagonalization with overlap
     ethr =  1.00E-02,  avg # of iterations =  5.4

     total energy              =    -488.32427902 Ry
     Harris-Foulkes estimate   =    -488.90568949 Ry
     estimated scf accuracy    <       3.62593479 Ry

[...]

     total energy              =    -487.80908079 Ry
     Harris-Foulkes estimate   =    -487.80907926 Ry
     estimated scf accuracy    <       0.00000196 Ry

     iteration # 12     ecut=    58.80 Ry     beta=0.10
     Davidson diagonalization with overlap
     ethr =  3.92E-09,  avg # of iterations =  2.0

     End of self-consistent calculation

          k = 0.0000 0.0000 0.0000 (  5915 PWs)   bands (ev):

    -6.2764  -6.2410  -6.2396  -6.2091  -6.2091  -6.1691  -6.1644  -6.1644
    -6.1367  -6.0791   0.3240   1.3321   1.5331   1.6266   1.8036   1.8036
     1.8690   1.9738   1.9738   2.0588   2.2737   6.2513   6.4134   7.1640
     7.1640   8.9761   9.3521  11.9051  11.9051  13.3871  15.2918  15.2978
    15.2978  15.6121  16.4017  18.1639  18.4518  19.1302  19.1302  19.7216
    20.1729  20.1729  21.1078  23.4090  23.7726

[...]

          k = 0.0853 0.0853 0.1044 (  5962 PWs)   bands (ev):

    -6.2340  -6.2327  -6.2284  -6.2241  -6.1806  -6.1777  -6.1713  -6.1699
    -6.1218  -6.1181   1.2484   1.2485   1.6567   1.6768   1.8818   1.9007
     1.9337   1.9454   2.1015   2.1143   4.8276   5.3589   5.4128   5.5554
     6.8217   6.9001   7.1329   7.5976  14.7483  15.0124  16.6790  17.1611
    17.2381  17.2744  17.3356  17.5980  19.8584  20.0581  20.9590  21.1589
    21.5063  21.5720  21.7279  21.8839  21.9251

     the Fermi energy is     8.7848 ev

!    total energy              =    -487.80909216 Ry
     Harris-Foulkes estimate   =    -487.80908116 Ry
     estimated scf accuracy    <       0.00000003 Ry

     The total energy is the sum of the following terms:

     one-electron contribution =    -121.26861176 Ry
     hartree contribution      =     104.05376317 Ry
     xc contribution           =    -159.05641793 Ry
     ewald contribution        =    -311.53284389 Ry
     smearing contrib. (-TS)   =      -0.00498174 Ry

     convergence has been achieved in  12 iterations

     Forces acting on atoms (Ry/au):

     atom    1 type  1   force =     0.00000000    0.00000000    0.00000000
     atom    2 type  1   force =     0.00000000    0.00000000    0.00000000
     atom    3 type  2   force =     0.00000000    0.00000000    0.00000000
     atom    4 type  2   force =     0.00000000    0.00000000    0.00000000

     Total force =     0.000000     Total SCF correction =     0.000000

     General routines

     Parallel routines

   This run was terminated on:   8: 7:28  14Nov2017

   JOB DONE.