     Program PWSCF v.5.1rc2 starts on 15Nov2017 at  5:39:10

     Current dimensions of program PWSCF are:
     Max number of different atomic species (ntypx) = 10
     Max number of k-points (npk) =  40000
     Max angular momentum in pseudopotentials (lmaxx) =  3

     IMPORTANT: XC functional enforced from input :
     Exchange-correlation      = BEEF-VDW ( 1  4 27 13 2)
     Any further DFT definition will be discarded
     Please, verify this is what you really want

     Found symmetry operation: I + ( -0.5000 -0.5000  0.0000)
     This is a supercell, fractional translations are disabled

     bravais-lattice index     =            0
     lattice parameter (alat)  =       1.8897  a.u.
     unit-cell volume          =     562.7778 (a.u.)^3
     number of atoms/cell      =            4
     number of atomic types    =            2
     number of electrons       =        52.00
     number of Kohn-Sham states=           46
     kinetic-energy cutoff     =      58.7989  Ry
     charge density cutoff     =     587.9892  Ry
     convergence threshold     =      1.0E-06
     mixing beta               =       0.1000
     number of iterations used =           10  plain     mixing
     Exchange-correlation      = BEEF-VDW ( 1  4 27 13 2)

     celldm(1)=   1.889726  celldm(2)=   0.000000  celldm(3)=   0.000000
     celldm(4)=   0.000000  celldm(5)=   0.000000  celldm(6)=   0.000000

     crystal axes: (cart. coord. in units of alat)
               a(1) = (   4.265114   0.000000   0.000000 )
               a(2) = (   0.000000   4.265114   0.000000 )
               a(3) = (   0.000000   0.000000   4.584364 )

     reciprocal axes: (cart. coord. in units 2 pi/alat)
               b(1) = (  0.234460  0.000000  0.000000 )
               b(2) = (  0.000000  0.234460  0.000000 )
               b(3) = (  0.000000  0.000000  0.218133 )

     PseudoPot. # 1 for Ta read from file:
     /home/users/vossj/suncat/psp/gbrv1.5pbe/Ta.UPF
     MD5 check sum: f8bbe9446314a3b8ea5d9f3e3836c939
     Pseudo is Ultrasoft + core correction, Zval = 13.0
     Generated by new atomic code, or converted to UPF format
     Using radial grid of  921 points,  7 beta functions with:
                l(1) =   0
                l(2) =   0
                l(3) =   1
                l(4) =   1
                l(5) =   2
                l(6) =   2
                l(7) =   3
     Q(r) pseudized with  6 coefficients,  rinner =    1.300   1.300   1.300
                                                       1.300   1.300   1.300
                                                       1.300

     PseudoPot. # 2 for Tl read from file:
     /home/users/vossj/suncat/psp/gbrv1.5pbe/Tl.UPF
     MD5 check sum: b76cf1f7e72655a2b2c53cf6385d7059
     Pseudo is Ultrasoft + core correction, Zval = 13.0
     Generated by new atomic code, or converted to UPF format
     Using radial grid of  899 points,  6 beta functions with:
                l(1) =   0
                l(2) =   0
                l(3) =   1
                l(4) =   1
                l(5) =   2
                l(6) =   2
     Q(r) pseudized with  6 coefficients,  rinner =    1.100   1.100   1.100
                                                       1.100   1.100

     vdW kernel table read from file vdW_kernel_table
     MD5 check sum: 095c7af220d748ca6e76c0b4c6cfb241

     atomic species   valence    mass     pseudopotential
        Ta1           13.00   180.94790     Ta( 1.00)
        Tl1           13.00   204.38300     Tl( 1.00)

     16 Sym. Ops., with inversion, found

   Cartesian axes

     site n.     atom                  positions (alat units)
         1           Ta1 tau(   1) = (   0.0000000   0.0000000   0.0000000  )
         2           Ta1 tau(   2) = (   2.1325570   2.1325570   0.0000000  )
         3           Tl1 tau(   3) = (   2.1325570   0.0000000   2.2921819  )
         4           Tl1 tau(   4) = (   0.0000000   2.1325570   2.2921819  )

     number of k points=    75  Fermi-Dirac smearing, width (Ry)=  0.0073
                       cart. coord. in units 2pi/alat
        k(    1) = (   0.0000000   0.0000000   0.0000000), wk =   0.0027435
        k(    2) = (   0.0000000   0.0000000   0.0242370), wk =   0.0054870
        k(    3) = (   0.0000000   0.0000000   0.0484739), wk =   0.0054870
        k(    4) = (   0.0000000   0.0000000   0.0727109), wk =   0.0054870
        k(    5) = (   0.0000000   0.0000000   0.0969479), wk =   0.0054870
        k(    6) = (   0.0000000   0.0260511   0.0000000), wk =   0.0109739
        k(    7) = (   0.0000000   0.0260511   0.0242370), wk =   0.0219479
        k(    8) = (   0.0000000   0.0260511   0.0484739), wk =   0.0219479
        k(    9) = (   0.0000000   0.0260511   0.0727109), wk =   0.0219479
        k(   10) = (   0.0000000   0.0260511   0.0969479), wk =   0.0219479
        k(   11) = (   0.0000000   0.0521023   0.0000000), wk =   0.0109739
        k(   12) = (   0.0000000   0.0521023   0.0242370), wk =   0.0219479
        k(   13) = (   0.0000000   0.0521023   0.0484739), wk =   0.0219479
        k(   14) = (   0.0000000   0.0521023   0.0727109), wk =   0.0219479
        k(   15) = (   0.0000000   0.0521023   0.0969479), wk =   0.0219479
        k(   16) = (   0.0000000   0.0781534   0.0000000), wk =   0.0109739
        k(   17) = (   0.0000000   0.0781534   0.0242370), wk =   0.0219479
        k(   18) = (   0.0000000   0.0781534   0.0484739), wk =   0.0219479
        k(   19) = (   0.0000000   0.0781534   0.0727109), wk =   0.0219479
        k(   20) = (   0.0000000   0.0781534   0.0969479), wk =   0.0219479
        k(   21) = (   0.0000000   0.1042046   0.0000000), wk =   0.0109739
        k(   22) = (   0.0000000   0.1042046   0.0242370), wk =   0.0219479
        k(   23) = (   0.0000000   0.1042046   0.0484739), wk =   0.0219479
        k(   24) = (   0.0000000   0.1042046   0.0727109), wk =   0.0219479
        k(   25) = (   0.0000000   0.1042046   0.0969479), wk =   0.0219479
        k(   26) = (   0.0260511   0.0260511   0.0000000), wk =   0.0109739
        k(   27) = (   0.0260511   0.0260511   0.0242370), wk =   0.0219479
        k(   28) = (   0.0260511   0.0260511   0.0484739), wk =   0.0219479
        k(   29) = (   0.0260511   0.0260511   0.0727109), wk =   0.0219479
        k(   30) = (   0.0260511   0.0260511   0.0969479), wk =   0.0219479
        k(   31) = (   0.0260511   0.0521023   0.0000000), wk =   0.0219479
        k(   32) = (   0.0260511   0.0521023   0.0242370), wk =   0.0438957
        k(   33) = (   0.0260511   0.0521023   0.0484739), wk =   0.0438957
        k(   34) = (   0.0260511   0.0521023   0.0727109), wk =   0.0438957
        k(   35) = (   0.0260511   0.0521023   0.0969479), wk =   0.0438957
        k(   36) = (   0.0260511   0.0781534   0.0000000), wk =   0.0219479
        k(   37) = (   0.0260511   0.0781534   0.0242370), wk =   0.0438957
        k(   38) = (   0.0260511   0.0781534   0.0484739), wk =   0.0438957
        k(   39) = (   0.0260511   0.0781534   0.0727109), wk =   0.0438957
        k(   40) = (   0.0260511   0.0781534   0.0969479), wk =   0.0438957
        k(   41) = (   0.0260511   0.1042046   0.0000000), wk =   0.0219479
        k(   42) = (   0.0260511   0.1042046   0.0242370), wk =   0.0438957
        k(   43) = (   0.0260511   0.1042046   0.0484739), wk =   0.0438957
        k(   44) = (   0.0260511   0.1042046   0.0727109), wk =   0.0438957
        k(   45) = (   0.0260511   0.1042046   0.0969479), wk =   0.0438957
        k(   46) = (   0.0521023   0.0521023   0.0000000), wk =   0.0109739
        k(   47) = (   0.0521023   0.0521023   0.0242370), wk =   0.0219479
        k(   48) = (   0.0521023   0.0521023   0.0484739), wk =   0.0219479
        k(   49) = (   0.0521023   0.0521023   0.0727109), wk =   0.0219479
        k(   50) = (   0.0521023   0.0521023   0.0969479), wk =   0.0219479
        k(   51) = (   0.0521023   0.0781534   0.0000000), wk =   0.0219479
        k(   52) = (   0.0521023   0.0781534   0.0242370), wk =   0.0438957
        k(   53) = (   0.0521023   0.0781534   0.0484739), wk =   0.0438957
        k(   54) = (   0.0521023   0.0781534   0.0727109), wk =   0.0438957
        k(   55) = (   0.0521023   0.0781534   0.0969479), wk =   0.0438957
        k(   56) = (   0.0521023   0.1042046   0.0000000), wk =   0.0219479
        k(   57) = (   0.0521023   0.1042046   0.0242370), wk =   0.0438957
        k(   58) = (   0.0521023   0.1042046   0.0484739), wk =   0.0438957
        k(   59) = (   0.0521023   0.1042046   0.0727109), wk =   0.0438957
        k(   60) = (   0.0521023   0.1042046   0.0969479), wk =   0.0438957
        k(   61) = (   0.0781534   0.0781534   0.0000000), wk =   0.0109739
        k(   62) = (   0.0781534   0.0781534   0.0242370), wk =   0.0219479
        k(   63) = (   0.0781534   0.0781534   0.0484739), wk =   0.0219479
        k(   64) = (   0.0781534   0.0781534   0.0727109), wk =   0.0219479
        k(   65) = (   0.0781534   0.0781534   0.0969479), wk =   0.0219479
        k(   66) = (   0.0781534   0.1042046   0.0000000), wk =   0.0219479
        k(   67) = (   0.0781534   0.1042046   0.0242370), wk =   0.0438957
        k(   68) = (   0.0781534   0.1042046   0.0484739), wk =   0.0438957
        k(   69) = (   0.0781534   0.1042046   0.0727109), wk =   0.0438957
        k(   70) = (   0.0781534   0.1042046   0.0969479), wk =   0.0438957
        k(   71) = (   0.1042046   0.1042046   0.0000000), wk =   0.0109739
        k(   72) = (   0.1042046   0.1042046   0.0242370), wk =   0.0219479
        k(   73) = (   0.1042046   0.1042046   0.0484739), wk =   0.0219479
        k(   74) = (   0.1042046   0.1042046   0.0727109), wk =   0.0219479
        k(   75) = (   0.1042046   0.1042046   0.0969479), wk =   0.0219479

     Largest allocated arrays     est. size (Mb)     dimensions
     Largest temporary arrays     est. size (Mb)     dimensions

     Initial potential from superposition of free atoms
     Check: negative starting charge=   -0.287218

     starting charge   51.98804, renormalised to   52.00000

     negative rho (up, down):  2.873E-01 0.000E+00

     *
     * You are using vdW-DF for exchange-correlation in this calculation.
     * Please cite the following three references that made this development
     * possible:
     *
     *   M. Dion, H. Rydberg, E. Schroder, D. C. Langreth, and
     *   B. I. Lundqvist, Phys. Rev. Lett. 92, 246401 (2004).
     *
     *   T. Thonhauser, V. R. Cooper, S. Li, A. Puzder, P. Hyldgaard, and
     *   D. C. Langreth, Phys. Rev. B 76, 125112 (2007).
     *
     *   G. Roman-Perez and J. M. Soler, Phys. Rev. Lett. 103, 096102 (2009).
     *
     *
     * If you are using vdW-DF2, please also cite:
     *
     *   K. Lee, E. D. Murray, L. Kong, B. I. Lundqvist, and
     *   D. C. Langreth, Phys. Rev. B 82, 081101(R) (2010).
     *
     *
     * If you are calculating the stress with vdW-DF, please also cite:
     *
     *   R. Sabatini, E. Kucukbenli, B. Kolb, T. Thonhauser, and
     *   S. de Gironcoli, J. Phys.: Condens. Matter 24, 424209 (2012).
     *

     Carrying out vdW-DF run using the following parameters:

     Nqs =      20    Nr_points =    1024   r_max =   100.000
     q_mesh =
               0.00001000     0.04494208     0.09755937     0.15916263
               0.23128650     0.31572767     0.41458969     0.53033537
               0.66584808     0.82450364     1.01025438     1.22772762
               1.48234092     1.78043706     2.12944203     2.53805004
               3.01644009     3.57652955     4.23227104     5.00000000

     Gradients computed in reciprocal space

     Starting wfc are   44 randomized atomic wfcs +    2 random wfc

     Self-consistent Calculation

     iteration #  1     ecut=    58.80 Ry     beta=0.10
     Davidson diagonalization with overlap
     ethr =  1.00E-02,  avg # of iterations =  4.6

     Threshold (ethr) on eigenvalues was too large:
     Diagonalizing with lowered threshold

     Davidson diagonalization with overlap
     ethr =  2.27E-04,  avg # of iterations =  2.3

[...]

     total energy              =    -579.93398346 Ry
     Harris-Foulkes estimate   =    -579.94638805 Ry
     estimated scf accuracy    <       0.11827759 Ry

[...]

     total energy              =    -579.92697499 Ry
     Harris-Foulkes estimate   =    -579.92684643 Ry
     estimated scf accuracy    <       0.00000157 Ry

     iteration #  9     ecut=    58.80 Ry     beta=0.10
     Davidson diagonalization with overlap
     ethr =  3.03E-09,  avg # of iterations =  3.0

     negative rho (up, down):  3.114E-01 0.000E+00

     End of self-consistent calculation

          k = 0.0000 0.0000 0.0000 (  4329 PWs)   bands (ev):

   -52.6726 -52.6248 -19.1584 -19.1037 -19.1037 -19.0595 -18.6959 -18.6959
     3.1527   3.3293   3.5480   3.7412   3.7412   4.3186   4.3186   4.3197
     4.5482   5.0092   5.3000  11.7084  13.1607  14.1113  14.6458  15.2779
    15.2779  15.9010  15.9010  16.3369  17.6874  18.4342  18.4342  20.0152
    20.2522  20.8871  21.6828  23.4146  23.4146  23.9422  23.9422  24.2276
    24.9350  27.5536  29.8383  30.3121  30.3683  30.7843

[...]

          k = 0.1042 0.1042 0.0969 (  4275 PWs)   bands (ev):

   -52.6492 -52.6477 -19.1580 -19.1461 -19.1132 -19.1101 -18.6698 -18.6571
     3.4658   3.5113   3.6051   3.6170   4.0776   4.1137   4.3622   4.3793
     4.4166   4.4417   9.3166   9.6052  12.7165  12.8829  13.5776  13.9619
    14.3711  14.6575  16.9868  16.9909  17.7432  17.7466  18.6288  18.6416
    18.6642  18.7907  22.6216  22.6964  26.3196  26.3219  27.0187  27.1612
    27.2903  27.7464  29.2172  29.3636  29.3820  29.7917

     the Fermi energy is    16.3638 ev

!    total energy              =    -579.92751867 Ry
     Harris-Foulkes estimate   =    -579.92697556 Ry
     estimated scf accuracy    <       0.00000079 Ry

     The total energy is the sum of the following terms:

     one-electron contribution =     -54.32483565 Ry
     hartree contribution      =      65.21324137 Ry
     xc contribution           =    -215.45476884 Ry
     ewald contribution        =    -375.35522220 Ry
     smearing contrib. (-TS)   =      -0.00593336 Ry

     convergence has been achieved in   9 iterations

     Forces acting on atoms (Ry/au):

     negative rho (up, down):  3.114E-01 0.000E+00
     atom    1 type  1   force =     0.00000000    0.00000000    0.00000000
     atom    2 type  1   force =     0.00000000    0.00000000    0.00000000
     atom    3 type  2   force =     0.00000000    0.00000000    0.00000000
     atom    4 type  2   force =     0.00000000    0.00000000    0.00000000

     Total force =     0.000000     Total SCF correction =     0.000000

     General routines

     Parallel routines

   This run was terminated on:   5:39:48  15Nov2017

   JOB DONE.