     Program PWSCF v.5.1rc2 starts on 13Nov2017 at 16:59:23

     Current dimensions of program PWSCF are:
     Max number of different atomic species (ntypx) = 10
     Max number of k-points (npk) =  40000
     Max angular momentum in pseudopotentials (lmaxx) =  3

     IMPORTANT: XC functional enforced from input :
     Exchange-correlation      = BEEF-VDW ( 1  4 27 13 2)
     Any further DFT definition will be discarded
     Please, verify this is what you really want

     Found symmetry operation: I + ( -0.5000 -0.5000  0.0000)
     This is a supercell, fractional translations are disabled

     bravais-lattice index     =            0
     lattice parameter (alat)  =       1.8897  a.u.
     unit-cell volume          =     457.7664 (a.u.)^3
     number of atoms/cell      =            4
     number of atomic types    =            2
     number of electrons       =        28.00
     number of Kohn-Sham states=           34
     kinetic-energy cutoff     =      58.7989  Ry
     charge density cutoff     =     587.9892  Ry
     convergence threshold     =      1.0E-06
     mixing beta               =       0.1000
     number of iterations used =           10  plain     mixing
     Exchange-correlation      = BEEF-VDW ( 1  4 27 13 2)

     celldm(1)=   1.889726  celldm(2)=   0.000000  celldm(3)=   0.000000
     celldm(4)=   0.000000  celldm(5)=   0.000000  celldm(6)=   0.000000

     crystal axes: (cart. coord. in units of alat)
               a(1) = (   4.445113   0.000000   0.000000 )
               a(2) = (   0.000000   4.445113   0.000000 )
               a(3) = (   0.000000   0.000000   3.433062 )

     reciprocal axes: (cart. coord. in units 2 pi/alat)
               b(1) = (  0.224966  0.000000  0.000000 )
               b(2) = (  0.000000  0.224966  0.000000 )
               b(3) = (  0.000000  0.000000  0.291285 )

     PseudoPot. # 1 for Al read from file:
     /home/users/vossj/suncat/psp/gbrv1.5pbe/Al.UPF
     MD5 check sum: 0a6289f5291fc8f409219462bc851e1f
     Pseudo is Ultrasoft + core correction, Zval =  3.0
     Generated by new atomic code, or converted to UPF format
     Using radial grid of  893 points,  3 beta functions with:
                l(1) =   0
                l(2) =   1
                l(3) =   2
     Q(r) pseudized with  8 coefficients,  rinner =    0.900   0.900   0.900
                                                       0.900   0.900

     PseudoPot. # 2 for Au read from file:
     /home/users/vossj/suncat/psp/gbrv1.5pbe/Au.UPF
     MD5 check sum: 9d7f43293ad2c663164586bc4b293ffc
     Pseudo is Ultrasoft + core correction, Zval = 11.0
     Generated by new atomic code, or converted to UPF format
     Using radial grid of  985 points,  7 beta functions with:
                l(1) =   0
                l(2) =   0
                l(3) =   1
                l(4) =   1
                l(5) =   2
                l(6) =   2
                l(7) =   3
     Q(r) pseudized with  6 coefficients,  rinner =    1.900   1.900   1.900
                                                       1.900   1.900   1.900
                                                       1.900

     vdW kernel table read from file vdW_kernel_table
     MD5 check sum: 095c7af220d748ca6e76c0b4c6cfb241

     atomic species   valence    mass     pseudopotential
        Al1            3.00    26.98154     Al( 1.00)
        Au1           11.00   196.96650     Au( 1.00)

     16 Sym. Ops., with inversion, found

   Cartesian axes

     site n.     atom                  positions (alat units)
         1           Al1 tau(   1) = (   0.0000000   0.0000000   0.0000000  )
         2           Al1 tau(   2) = (   2.2225566   2.2225566   0.0000000  )
         3           Au1 tau(   3) = (   2.2225566   0.0000000   1.7165311  )
         4           Au1 tau(   4) = (   0.0000000   2.2225566   1.7165311  )

     number of k points=    75  Fermi-Dirac smearing, width (Ry)=  0.0073
                       cart. coord. in units 2pi/alat
        k(    1) = (   0.0000000   0.0000000   0.0000000), wk =   0.0027435
        k(    2) = (   0.0000000   0.0000000   0.0323650), wk =   0.0054870
        k(    3) = (   0.0000000   0.0000000   0.0647300), wk =   0.0054870
        k(    4) = (   0.0000000   0.0000000   0.0970950), wk =   0.0054870
        k(    5) = (   0.0000000   0.0000000   0.1294601), wk =   0.0054870
        k(    6) = (   0.0000000   0.0249962   0.0000000), wk =   0.0109739
        k(    7) = (   0.0000000   0.0249962   0.0323650), wk =   0.0219479
        k(    8) = (   0.0000000   0.0249962   0.0647300), wk =   0.0219479
        k(    9) = (   0.0000000   0.0249962   0.0970950), wk =   0.0219479
        k(   10) = (   0.0000000   0.0249962   0.1294601), wk =   0.0219479
        k(   11) = (   0.0000000   0.0499925   0.0000000), wk =   0.0109739
        k(   12) = (   0.0000000   0.0499925   0.0323650), wk =   0.0219479
        k(   13) = (   0.0000000   0.0499925   0.0647300), wk =   0.0219479
        k(   14) = (   0.0000000   0.0499925   0.0970950), wk =   0.0219479
        k(   15) = (   0.0000000   0.0499925   0.1294601), wk =   0.0219479
        k(   16) = (   0.0000000   0.0749887   0.0000000), wk =   0.0109739
        k(   17) = (   0.0000000   0.0749887   0.0323650), wk =   0.0219479
        k(   18) = (   0.0000000   0.0749887   0.0647300), wk =   0.0219479
        k(   19) = (   0.0000000   0.0749887   0.0970950), wk =   0.0219479
        k(   20) = (   0.0000000   0.0749887   0.1294601), wk =   0.0219479
        k(   21) = (   0.0000000   0.0999850   0.0000000), wk =   0.0109739
        k(   22) = (   0.0000000   0.0999850   0.0323650), wk =   0.0219479
        k(   23) = (   0.0000000   0.0999850   0.0647300), wk =   0.0219479
        k(   24) = (   0.0000000   0.0999850   0.0970950), wk =   0.0219479
        k(   25) = (   0.0000000   0.0999850   0.1294601), wk =   0.0219479
        k(   26) = (   0.0249962   0.0249962   0.0000000), wk =   0.0109739
        k(   27) = (   0.0249962   0.0249962   0.0323650), wk =   0.0219479
        k(   28) = (   0.0249962   0.0249962   0.0647300), wk =   0.0219479
        k(   29) = (   0.0249962   0.0249962   0.0970950), wk =   0.0219479
        k(   30) = (   0.0249962   0.0249962   0.1294601), wk =   0.0219479
        k(   31) = (   0.0249962   0.0499925   0.0000000), wk =   0.0219479
        k(   32) = (   0.0249962   0.0499925   0.0323650), wk =   0.0438957
        k(   33) = (   0.0249962   0.0499925   0.0647300), wk =   0.0438957
        k(   34) = (   0.0249962   0.0499925   0.0970950), wk =   0.0438957
        k(   35) = (   0.0249962   0.0499925   0.1294601), wk =   0.0438957
        k(   36) = (   0.0249962   0.0749887   0.0000000), wk =   0.0219479
        k(   37) = (   0.0249962   0.0749887   0.0323650), wk =   0.0438957
        k(   38) = (   0.0249962   0.0749887   0.0647300), wk =   0.0438957
        k(   39) = (   0.0249962   0.0749887   0.0970950), wk =   0.0438957
        k(   40) = (   0.0249962   0.0749887   0.1294601), wk =   0.0438957
        k(   41) = (   0.0249962   0.0999850   0.0000000), wk =   0.0219479
        k(   42) = (   0.0249962   0.0999850   0.0323650), wk =   0.0438957
        k(   43) = (   0.0249962   0.0999850   0.0647300), wk =   0.0438957
        k(   44) = (   0.0249962   0.0999850   0.0970950), wk =   0.0438957
        k(   45) = (   0.0249962   0.0999850   0.1294601), wk =   0.0438957
        k(   46) = (   0.0499925   0.0499925   0.0000000), wk =   0.0109739
        k(   47) = (   0.0499925   0.0499925   0.0323650), wk =   0.0219479
        k(   48) = (   0.0499925   0.0499925   0.0647300), wk =   0.0219479
        k(   49) = (   0.0499925   0.0499925   0.0970950), wk =   0.0219479
        k(   50) = (   0.0499925   0.0499925   0.1294601), wk =   0.0219479
        k(   51) = (   0.0499925   0.0749887   0.0000000), wk =   0.0219479
        k(   52) = (   0.0499925   0.0749887   0.0323650), wk =   0.0438957
        k(   53) = (   0.0499925   0.0749887   0.0647300), wk =   0.0438957
        k(   54) = (   0.0499925   0.0749887   0.0970950), wk =   0.0438957
        k(   55) = (   0.0499925   0.0749887   0.1294601), wk =   0.0438957
        k(   56) = (   0.0499925   0.0999850   0.0000000), wk =   0.0219479
        k(   57) = (   0.0499925   0.0999850   0.0323650), wk =   0.0438957
        k(   58) = (   0.0499925   0.0999850   0.0647300), wk =   0.0438957
        k(   59) = (   0.0499925   0.0999850   0.0970950), wk =   0.0438957
        k(   60) = (   0.0499925   0.0999850   0.1294601), wk =   0.0438957
        k(   61) = (   0.0749887   0.0749887   0.0000000), wk =   0.0109739
        k(   62) = (   0.0749887   0.0749887   0.0323650), wk =   0.0219479
        k(   63) = (   0.0749887   0.0749887   0.0647300), wk =   0.0219479
        k(   64) = (   0.0749887   0.0749887   0.0970950), wk =   0.0219479
        k(   65) = (   0.0749887   0.0749887   0.1294601), wk =   0.0219479
        k(   66) = (   0.0749887   0.0999850   0.0000000), wk =   0.0219479
        k(   67) = (   0.0749887   0.0999850   0.0323650), wk =   0.0438957
        k(   68) = (   0.0749887   0.0999850   0.0647300), wk =   0.0438957
        k(   69) = (   0.0749887   0.0999850   0.0970950), wk =   0.0438957
        k(   70) = (   0.0749887   0.0999850   0.1294601), wk =   0.0438957
        k(   71) = (   0.0999850   0.0999850   0.0000000), wk =   0.0109739
        k(   72) = (   0.0999850   0.0999850   0.0323650), wk =   0.0219479
        k(   73) = (   0.0999850   0.0999850   0.0647300), wk =   0.0219479
        k(   74) = (   0.0999850   0.0999850   0.0970950), wk =   0.0219479
        k(   75) = (   0.0999850   0.0999850   0.1294601), wk =   0.0219479

     Largest allocated arrays     est. size (Mb)     dimensions
     Largest temporary arrays     est. size (Mb)     dimensions

     Initial potential from superposition of free atoms

     starting charge   27.99482, renormalised to   28.00000

     *
     * You are using vdW-DF for exchange-correlation in this calculation.
     * Please cite the following three references that made this development
     * possible:
     *
     *   M. Dion, H. Rydberg, E. Schroder, D. C. Langreth, and
     *   B. I. Lundqvist, Phys. Rev. Lett. 92, 246401 (2004).
     *
     *   T. Thonhauser, V. R. Cooper, S. Li, A. Puzder, P. Hyldgaard, and
     *   D. C. Langreth, Phys. Rev. B 76, 125112 (2007).
     *
     *   G. Roman-Perez and J. M. Soler, Phys. Rev. Lett. 103, 096102 (2009).
     *
     *
     * If you are using vdW-DF2, please also cite:
     *
     *   K. Lee, E. D. Murray, L. Kong, B. I. Lundqvist, and
     *   D. C. Langreth, Phys. Rev. B 82, 081101(R) (2010).
     *
     *
     * If you are calculating the stress with vdW-DF, please also cite:
     *
     *   R. Sabatini, E. Kucukbenli, B. Kolb, T. Thonhauser, and
     *   S. de Gironcoli, J. Phys.: Condens. Matter 24, 424209 (2012).
     *

     Carrying out vdW-DF run using the following parameters:

     Nqs =      20    Nr_points =    1024   r_max =   100.000
     q_mesh =
               0.00001000     0.04494208     0.09755937     0.15916263
               0.23128650     0.31572767     0.41458969     0.53033537
               0.66584808     0.82450364     1.01025438     1.22772762
               1.48234092     1.78043706     2.12944203     2.53805004
               3.01644009     3.57652955     4.23227104     5.00000000

     Gradients computed in reciprocal space

     Starting wfc are   26 randomized atomic wfcs +    8 random wfc

     Self-consistent Calculation

     iteration #  1     ecut=    58.80 Ry     beta=0.10
     Davidson diagonalization with overlap
     ethr =  1.00E-02,  avg # of iterations =  5.6

     Threshold (ethr) on eigenvalues was too large:
     Diagonalizing with lowered threshold

     Davidson diagonalization with overlap
     ethr =  9.22E-04,  avg # of iterations =  1.1

     total energy              =    -247.28289447 Ry
     Harris-Foulkes estimate   =    -247.32148661 Ry
     estimated scf accuracy    <       0.25597431 Ry

[...]

     total energy              =    -247.26067067 Ry
     Harris-Foulkes estimate   =    -247.26066652 Ry
     estimated scf accuracy    <       0.00000184 Ry

     iteration #  9     ecut=    58.80 Ry     beta=0.10
     Davidson diagonalization with overlap
     ethr =  6.56E-09,  avg # of iterations =  2.0

     End of self-consistent calculation

          k = 0.0000 0.0000 0.0000 (  3459 PWs)   bands (ev):

     1.0941   4.4162   5.6190   5.6900   6.1048   6.5961   6.5961   7.4149
     7.4149   7.6784   8.4768   9.1654   9.1654  11.6984  13.1197  13.6111
    15.9017  15.9017  17.7805  18.3304  19.6465  20.3347  22.0336  22.0336
    23.6471  24.6322  24.8489  24.8489  28.0701  28.5971  28.9061  28.9061
    29.0806  29.0808

[...]

          k = 0.1000 0.1000 0.1295 (  3489 PWs)   bands (ev):

     4.2400   4.2567   5.6502   5.7519   6.7955   6.9350   6.9400   7.0723
     7.7171   7.8158   8.2434   8.9237   8.9731   9.1052  11.0909  11.3130
    12.6617  12.8880  19.5125  19.8987  22.6337  22.9174  22.9916  23.8252
    24.2209  24.6815  24.7692  25.4568  26.0397  26.9639  27.0503  28.0465
    29.8744  30.1988

     the Fermi energy is    12.2063 ev

!    total energy              =    -247.26067354 Ry
     Harris-Foulkes estimate   =    -247.26067104 Ry
     estimated scf accuracy    <       0.00000014 Ry

     The total energy is the sum of the following terms:

     one-electron contribution =      -1.53224026 Ry
     hartree contribution      =      28.98623519 Ry
     xc contribution           =    -136.97221266 Ry
     ewald contribution        =    -137.73894590 Ry
     smearing contrib. (-TS)   =      -0.00350992 Ry

     convergence has been achieved in   9 iterations

     Forces acting on atoms (Ry/au):

     atom    1 type  1   force =     0.00000000    0.00000000    0.00000000
     atom    2 type  1   force =     0.00000000    0.00000000    0.00000000
     atom    3 type  2   force =     0.00000000    0.00000000    0.00000000
     atom    4 type  2   force =     0.00000000    0.00000000    0.00000000

     Total force =     0.000000     Total SCF correction =     0.000000

     General routines

     Parallel routines

   This run was terminated on:  16:59:50  13Nov2017

   JOB DONE.