     Program PWSCF v.5.1rc2 starts on 14Nov2017 at  8: 5:15

     Current dimensions of program PWSCF are:
     Max number of different atomic species (ntypx) = 10
     Max number of k-points (npk) =  40000
     Max angular momentum in pseudopotentials (lmaxx) =  3

     IMPORTANT: XC functional enforced from input :
     Exchange-correlation      = BEEF-VDW ( 1  4 27 13 2)
     Any further DFT definition will be discarded
     Please, verify this is what you really want

     Found symmetry operation: I + ( -0.5000 -0.5000  0.0000)
     This is a supercell, fractional translations are disabled

     bravais-lattice index     =            0
     lattice parameter (alat)  =       1.8897  a.u.
     unit-cell volume          =     302.6441 (a.u.)^3
     number of atoms/cell      =            4
     number of atomic types    =            2
     number of electrons       =        64.00
     number of Kohn-Sham states=           52
     kinetic-energy cutoff     =      58.7989  Ry
     charge density cutoff     =     587.9892  Ry
     convergence threshold     =      1.0E-06
     mixing beta               =       0.1000
     number of iterations used =           10  plain     mixing
     Exchange-correlation      = BEEF-VDW ( 1  4 27 13 2)

     celldm(1)=   1.889726  celldm(2)=   0.000000  celldm(3)=   0.000000
     celldm(4)=   0.000000  celldm(5)=   0.000000  celldm(6)=   0.000000

     crystal axes: (cart. coord. in units of alat)
               a(1) = (   3.453756   0.000000   0.000000 )
               a(2) = (   0.000000   3.453756   0.000000 )
               a(3) = (   0.000000   0.000000   3.759692 )

     reciprocal axes: (cart. coord. in units 2 pi/alat)
               b(1) = (  0.289540  0.000000  0.000000 )
               b(2) = (  0.000000  0.289540  0.000000 )
               b(3) = (  0.000000  0.000000  0.265979 )

     PseudoPot. # 1 for Cr read from file:
     /home/users/vossj/suncat/psp/gbrv1.5pbe/Cr.UPF
     MD5 check sum: 0d52af634a40206e4dee301ad30da4bf
     Pseudo is Ultrasoft + core correction, Zval = 14.0
     Generated by new atomic code, or converted to UPF format
     Using radial grid of  857 points,  6 beta functions with:
                l(1) =   0
                l(2) =   0
                l(3) =   1
                l(4) =   1
                l(5) =   2
                l(6) =   2
     Q(r) pseudized with  8 coefficients,  rinner =    0.950   0.950   0.950
                                                       0.950   0.950

     PseudoPot. # 2 for Ni read from file:
     /home/users/vossj/suncat/psp/gbrv1.5pbe/Ni.UPF
     MD5 check sum: 1ee80287db30b12d2bc1f57a5b5d6409
     Pseudo is Ultrasoft + core correction, Zval = 18.0
     Generated by new atomic code, or converted to UPF format
     Using radial grid of  865 points,  6 beta functions with:
                l(1) =   0
                l(2) =   0
                l(3) =   1
                l(4) =   1
                l(5) =   2
                l(6) =   2
     Q(r) pseudized with 10 coefficients,  rinner =    0.980   0.980   0.980
                                                       0.980   0.980

     vdW kernel table read from file vdW_kernel_table
     MD5 check sum: 095c7af220d748ca6e76c0b4c6cfb241

     atomic species   valence    mass     pseudopotential
        Cr1           14.00    51.99600     Cr( 1.00)
        Ni1           18.00    58.69340     Ni( 1.00)

     16 Sym. Ops., with inversion, found

   Cartesian axes

     site n.     atom                  positions (alat units)
         1           Cr1 tau(   1) = (   0.0000000   0.0000000   0.0000000  )
         2           Cr1 tau(   2) = (   1.7268779   1.7268779   0.0000000  )
         3           Ni1 tau(   3) = (   1.7268779   0.0000000   1.8798462  )
         4           Ni1 tau(   4) = (   0.0000000   1.7268779   1.8798462  )

     number of k points=    75  Fermi-Dirac smearing, width (Ry)=  0.0073
                       cart. coord. in units 2pi/alat
        k(    1) = (   0.0000000   0.0000000   0.0000000), wk =   0.0027435
        k(    2) = (   0.0000000   0.0000000   0.0295532), wk =   0.0054870
        k(    3) = (   0.0000000   0.0000000   0.0591065), wk =   0.0054870
        k(    4) = (   0.0000000   0.0000000   0.0886597), wk =   0.0054870
        k(    5) = (   0.0000000   0.0000000   0.1182130), wk =   0.0054870
        k(    6) = (   0.0000000   0.0321711   0.0000000), wk =   0.0109739
        k(    7) = (   0.0000000   0.0321711   0.0295532), wk =   0.0219479
        k(    8) = (   0.0000000   0.0321711   0.0591065), wk =   0.0219479
        k(    9) = (   0.0000000   0.0321711   0.0886597), wk =   0.0219479
        k(   10) = (   0.0000000   0.0321711   0.1182130), wk =   0.0219479
        k(   11) = (   0.0000000   0.0643422   0.0000000), wk =   0.0109739
        k(   12) = (   0.0000000   0.0643422   0.0295532), wk =   0.0219479
        k(   13) = (   0.0000000   0.0643422   0.0591065), wk =   0.0219479
        k(   14) = (   0.0000000   0.0643422   0.0886597), wk =   0.0219479
        k(   15) = (   0.0000000   0.0643422   0.1182130), wk =   0.0219479
        k(   16) = (   0.0000000   0.0965133   0.0000000), wk =   0.0109739
        k(   17) = (   0.0000000   0.0965133   0.0295532), wk =   0.0219479
        k(   18) = (   0.0000000   0.0965133   0.0591065), wk =   0.0219479
        k(   19) = (   0.0000000   0.0965133   0.0886597), wk =   0.0219479
        k(   20) = (   0.0000000   0.0965133   0.1182130), wk =   0.0219479
        k(   21) = (   0.0000000   0.1286844   0.0000000), wk =   0.0109739
        k(   22) = (   0.0000000   0.1286844   0.0295532), wk =   0.0219479
        k(   23) = (   0.0000000   0.1286844   0.0591065), wk =   0.0219479
        k(   24) = (   0.0000000   0.1286844   0.0886597), wk =   0.0219479
        k(   25) = (   0.0000000   0.1286844   0.1182130), wk =   0.0219479
        k(   26) = (   0.0321711   0.0321711   0.0000000), wk =   0.0109739
        k(   27) = (   0.0321711   0.0321711   0.0295532), wk =   0.0219479
        k(   28) = (   0.0321711   0.0321711   0.0591065), wk =   0.0219479
        k(   29) = (   0.0321711   0.0321711   0.0886597), wk =   0.0219479
        k(   30) = (   0.0321711   0.0321711   0.1182130), wk =   0.0219479
        k(   31) = (   0.0321711   0.0643422   0.0000000), wk =   0.0219479
        k(   32) = (   0.0321711   0.0643422   0.0295532), wk =   0.0438957
        k(   33) = (   0.0321711   0.0643422   0.0591065), wk =   0.0438957
        k(   34) = (   0.0321711   0.0643422   0.0886597), wk =   0.0438957
        k(   35) = (   0.0321711   0.0643422   0.1182130), wk =   0.0438957
        k(   36) = (   0.0321711   0.0965133   0.0000000), wk =   0.0219479
        k(   37) = (   0.0321711   0.0965133   0.0295532), wk =   0.0438957
        k(   38) = (   0.0321711   0.0965133   0.0591065), wk =   0.0438957
        k(   39) = (   0.0321711   0.0965133   0.0886597), wk =   0.0438957
        k(   40) = (   0.0321711   0.0965133   0.1182130), wk =   0.0438957
        k(   41) = (   0.0321711   0.1286844   0.0000000), wk =   0.0219479
        k(   42) = (   0.0321711   0.1286844   0.0295532), wk =   0.0438957
        k(   43) = (   0.0321711   0.1286844   0.0591065), wk =   0.0438957
        k(   44) = (   0.0321711   0.1286844   0.0886597), wk =   0.0438957
        k(   45) = (   0.0321711   0.1286844   0.1182130), wk =   0.0438957
        k(   46) = (   0.0643422   0.0643422   0.0000000), wk =   0.0109739
        k(   47) = (   0.0643422   0.0643422   0.0295532), wk =   0.0219479
        k(   48) = (   0.0643422   0.0643422   0.0591065), wk =   0.0219479
        k(   49) = (   0.0643422   0.0643422   0.0886597), wk =   0.0219479
        k(   50) = (   0.0643422   0.0643422   0.1182130), wk =   0.0219479
        k(   51) = (   0.0643422   0.0965133   0.0000000), wk =   0.0219479
        k(   52) = (   0.0643422   0.0965133   0.0295532), wk =   0.0438957
        k(   53) = (   0.0643422   0.0965133   0.0591065), wk =   0.0438957
        k(   54) = (   0.0643422   0.0965133   0.0886597), wk =   0.0438957
        k(   55) = (   0.0643422   0.0965133   0.1182130), wk =   0.0438957
        k(   56) = (   0.0643422   0.1286844   0.0000000), wk =   0.0219479
        k(   57) = (   0.0643422   0.1286844   0.0295532), wk =   0.0438957
        k(   58) = (   0.0643422   0.1286844   0.0591065), wk =   0.0438957
        k(   59) = (   0.0643422   0.1286844   0.0886597), wk =   0.0438957
        k(   60) = (   0.0643422   0.1286844   0.1182130), wk =   0.0438957
        k(   61) = (   0.0965133   0.0965133   0.0000000), wk =   0.0109739
        k(   62) = (   0.0965133   0.0965133   0.0295532), wk =   0.0219479
        k(   63) = (   0.0965133   0.0965133   0.0591065), wk =   0.0219479
        k(   64) = (   0.0965133   0.0965133   0.0886597), wk =   0.0219479
        k(   65) = (   0.0965133   0.0965133   0.1182130), wk =   0.0219479
        k(   66) = (   0.0965133   0.1286844   0.0000000), wk =   0.0219479
        k(   67) = (   0.0965133   0.1286844   0.0295532), wk =   0.0438957
        k(   68) = (   0.0965133   0.1286844   0.0591065), wk =   0.0438957
        k(   69) = (   0.0965133   0.1286844   0.0886597), wk =   0.0438957
        k(   70) = (   0.0965133   0.1286844   0.1182130), wk =   0.0438957
        k(   71) = (   0.1286844   0.1286844   0.0000000), wk =   0.0109739
        k(   72) = (   0.1286844   0.1286844   0.0295532), wk =   0.0219479
        k(   73) = (   0.1286844   0.1286844   0.0591065), wk =   0.0219479
        k(   74) = (   0.1286844   0.1286844   0.0886597), wk =   0.0219479
        k(   75) = (   0.1286844   0.1286844   0.1182130), wk =   0.0219479

     Largest allocated arrays     est. size (Mb)     dimensions
     Largest temporary arrays     est. size (Mb)     dimensions

     Check: negative/imaginary core charge=   -0.000010    0.000000

     Initial potential from superposition of free atoms
     Check: negative starting charge=   -0.001100

     starting charge   57.99997, renormalised to   64.00000

     negative rho (up, down):  1.214E-03 0.000E+00

     *
     * You are using vdW-DF for exchange-correlation in this calculation.
     * Please cite the following three references that made this development
     * possible:
     *
     *   M. Dion, H. Rydberg, E. Schroder, D. C. Langreth, and
     *   B. I. Lundqvist, Phys. Rev. Lett. 92, 246401 (2004).
     *
     *   T. Thonhauser, V. R. Cooper, S. Li, A. Puzder, P. Hyldgaard, and
     *   D. C. Langreth, Phys. Rev. B 76, 125112 (2007).
     *
     *   G. Roman-Perez and J. M. Soler, Phys. Rev. Lett. 103, 096102 (2009).
     *
     *
     * If you are using vdW-DF2, please also cite:
     *
     *   K. Lee, E. D. Murray, L. Kong, B. I. Lundqvist, and
     *   D. C. Langreth, Phys. Rev. B 82, 081101(R) (2010).
     *
     *
     * If you are calculating the stress with vdW-DF, please also cite:
     *
     *   R. Sabatini, E. Kucukbenli, B. Kolb, T. Thonhauser, and
     *   S. de Gironcoli, J. Phys.: Condens. Matter 24, 424209 (2012).
     *

     Carrying out vdW-DF run using the following parameters:

     Nqs =      20    Nr_points =    1024   r_max =   100.000
     q_mesh =
               0.00001000     0.04494208     0.09755937     0.15916263
               0.23128650     0.31572767     0.41458969     0.53033537
               0.66584808     0.82450364     1.01025438     1.22772762
               1.48234092     1.78043706     2.12944203     2.53805004
               3.01644009     3.57652955     4.23227104     5.00000000

     Gradients computed in reciprocal space

     Starting wfc are   46 randomized atomic wfcs +    6 random wfc

     Self-consistent Calculation

     iteration #  1     ecut=    58.80 Ry     beta=0.10
     Davidson diagonalization with overlap
     ethr =  1.00E-02,  avg # of iterations =  4.4

[...]

     total energy              =   -1040.93659427 Ry
     Harris-Foulkes estimate   =   -1058.30220548 Ry
     estimated scf accuracy    <      98.78100919 Ry

[...]

     total energy              =   -1041.52102274 Ry
     Harris-Foulkes estimate   =   -1041.52102481 Ry
     estimated scf accuracy    <       0.00000122 Ry

     iteration # 17     ecut=    58.80 Ry     beta=0.10
     Davidson diagonalization with overlap
     ethr =  1.91E-09,  avg # of iterations =  1.0

     negative rho (up, down):  1.127E-03 0.000E+00

     End of self-consistent calculation

          k = 0.0000 0.0000 0.0000 (  2273 PWs)   bands (ev):

   -85.2223 -85.1939 -53.5416 -53.3488 -45.6598 -45.6320 -45.6128 -45.6128
   -45.4875 -45.4875 -25.0208 -25.0208 -24.8454 -24.6931 -24.4375 -24.4375
     9.9572  13.6941  13.8044  13.9685  14.4741  14.4741  14.5697  16.5304
    16.6775  16.6775  17.6480  17.7776  18.3008  18.3132  19.2822  19.2822
    19.9377  19.9784  19.9784  20.1332  20.4641  21.4274  22.0856  22.0856
    28.0551  29.5496  30.1843  31.1044  33.3807  33.3807  34.3511  34.7503
    34.7503  38.3327  38.3327  39.7587

[...]

          k = 0.1287 0.1287 0.1182 (  2326 PWs)   bands (ev):

   -85.2084 -85.2075 -53.4461 -53.4403 -45.6466 -45.6458 -45.6275 -45.6238
   -45.4801 -45.4763 -25.1104 -25.0933 -24.7752 -24.7704 -24.3976 -24.3795
    13.6168  13.6923  14.1047  14.1448  15.8864  15.9274  16.4949  16.6359
    16.7852  16.8364  16.9075  17.0212  17.6917  18.0909  18.1348  18.4222
    18.6380  19.0694  19.3451  19.9639  20.0124  20.0428  20.2927  20.4217
    25.4791  25.7149  27.0425  27.3731  37.3570  37.5260  38.5170  38.5491
    41.4453  41.7497  42.0439  42.5112

     the Fermi energy is    18.4542 ev

!    total energy              =   -1041.52102875 Ry
     Harris-Foulkes estimate   =   -1041.52102275 Ry
     estimated scf accuracy    <       0.00000061 Ry

     The total energy is the sum of the following terms:

     one-electron contribution =    -515.73857213 Ry
     hartree contribution      =     298.57171391 Ry
     xc contribution           =    -120.24917220 Ry
     ewald contribution        =    -704.09213322 Ry
     smearing contrib. (-TS)   =      -0.01286511 Ry

     convergence has been achieved in  17 iterations

     Forces acting on atoms (Ry/au):

     negative rho (up, down):  1.127E-03 0.000E+00
     atom    1 type  1   force =     0.00000000    0.00000000    0.00000000
     atom    2 type  1   force =     0.00000000    0.00000000    0.00000000
     atom    3 type  2   force =     0.00000000    0.00000000    0.00000000
     atom    4 type  2   force =     0.00000000    0.00000000    0.00000000

     Total force =     0.000000     Total SCF correction =     0.000000

     General routines

     Parallel routines

   This run was terminated on:   8: 5:58  14Nov2017

   JOB DONE.