     Program PWSCF v.5.1rc2 starts on 15Nov2017 at  1:20:38

     Current dimensions of program PWSCF are:
     Max number of different atomic species (ntypx) = 10
     Max number of k-points (npk) =  40000
     Max angular momentum in pseudopotentials (lmaxx) =  3

     IMPORTANT: XC functional enforced from input :
     Exchange-correlation      = BEEF-VDW ( 1  4 27 13 2)
     Any further DFT definition will be discarded
     Please, verify this is what you really want

     Found symmetry operation: I + ( -0.5000 -0.5000  0.0000)
     This is a supercell, fractional translations are disabled

     bravais-lattice index     =            0
     lattice parameter (alat)  =       1.8897  a.u.
     unit-cell volume          =     434.3119 (a.u.)^3
     number of atoms/cell      =            4
     number of atomic types    =            2
     number of electrons       =        54.00
     number of Kohn-Sham states=           47
     kinetic-energy cutoff     =      58.7989  Ry
     charge density cutoff     =     587.9892  Ry
     convergence threshold     =      1.0E-06
     mixing beta               =       0.1000
     number of iterations used =           10  plain     mixing
     Exchange-correlation      = BEEF-VDW ( 1  4 27 13 2)

     celldm(1)=   1.889726  celldm(2)=   0.000000  celldm(3)=   0.000000
     celldm(4)=   0.000000  celldm(5)=   0.000000  celldm(6)=   0.000000

     crystal axes: (cart. coord. in units of alat)
               a(1) = (   3.955379   0.000000   0.000000 )
               a(2) = (   0.000000   3.955379   0.000000 )
               a(3) = (   0.000000   0.000000   4.113665 )

     reciprocal axes: (cart. coord. in units 2 pi/alat)
               b(1) = (  0.252820  0.000000  0.000000 )
               b(2) = (  0.000000  0.252820  0.000000 )
               b(3) = (  0.000000  0.000000  0.243092 )

     PseudoPot. # 1 for Os read from file:
     /home/users/vossj/suncat/psp/gbrv1.5pbe/Os.UPF
     MD5 check sum: a3fb40a04f0c37c25c34bbc47164c9a8
     Pseudo is Ultrasoft + core correction, Zval = 16.0
     Generated by new atomic code, or converted to UPF format
     Using radial grid of  983 points,  8 beta functions with:
                l(1) =   0
                l(2) =   0
                l(3) =   1
                l(4) =   1
                l(5) =   2
                l(6) =   2
                l(7) =   3
                l(8) =   3
     Q(r) pseudized with  8 coefficients,  rinner =    1.150   1.150   1.150
                                                       1.150   1.150   1.150
                                                       1.150

     PseudoPot. # 2 for Au read from file:
     /home/users/vossj/suncat/psp/gbrv1.5pbe/Au.UPF
     MD5 check sum: 9d7f43293ad2c663164586bc4b293ffc
     Pseudo is Ultrasoft + core correction, Zval = 11.0
     Generated by new atomic code, or converted to UPF format
     Using radial grid of  985 points,  7 beta functions with:
                l(1) =   0
                l(2) =   0
                l(3) =   1
                l(4) =   1
                l(5) =   2
                l(6) =   2
                l(7) =   3
     Q(r) pseudized with  6 coefficients,  rinner =    1.900   1.900   1.900
                                                       1.900   1.900   1.900
                                                       1.900

     vdW kernel table read from file vdW_kernel_table
     MD5 check sum: 095c7af220d748ca6e76c0b4c6cfb241

     atomic species   valence    mass     pseudopotential
        Os1           16.00   190.20000     Os( 1.00)
        Au1           11.00   196.96650     Au( 1.00)

     16 Sym. Ops., with inversion, found

   Cartesian axes

     site n.     atom                  positions (alat units)
         1           Os1 tau(   1) = (   0.0000000   0.0000000   0.0000000  )
         2           Os1 tau(   2) = (   1.9776895   1.9776895   0.0000000  )
         3           Au1 tau(   3) = (   1.9776895   0.0000000   2.0568324  )
         4           Au1 tau(   4) = (   0.0000000   1.9776895   2.0568324  )

     number of k points=    75  Fermi-Dirac smearing, width (Ry)=  0.0073
                       cart. coord. in units 2pi/alat
        k(    1) = (   0.0000000   0.0000000   0.0000000), wk =   0.0027435
        k(    2) = (   0.0000000   0.0000000   0.0270102), wk =   0.0054870
        k(    3) = (   0.0000000   0.0000000   0.0540205), wk =   0.0054870
        k(    4) = (   0.0000000   0.0000000   0.0810307), wk =   0.0054870
        k(    5) = (   0.0000000   0.0000000   0.1080410), wk =   0.0054870
        k(    6) = (   0.0000000   0.0280911   0.0000000), wk =   0.0109739
        k(    7) = (   0.0000000   0.0280911   0.0270102), wk =   0.0219479
        k(    8) = (   0.0000000   0.0280911   0.0540205), wk =   0.0219479
        k(    9) = (   0.0000000   0.0280911   0.0810307), wk =   0.0219479
        k(   10) = (   0.0000000   0.0280911   0.1080410), wk =   0.0219479
        k(   11) = (   0.0000000   0.0561823   0.0000000), wk =   0.0109739
        k(   12) = (   0.0000000   0.0561823   0.0270102), wk =   0.0219479
        k(   13) = (   0.0000000   0.0561823   0.0540205), wk =   0.0219479
        k(   14) = (   0.0000000   0.0561823   0.0810307), wk =   0.0219479
        k(   15) = (   0.0000000   0.0561823   0.1080410), wk =   0.0219479
        k(   16) = (   0.0000000   0.0842734   0.0000000), wk =   0.0109739
        k(   17) = (   0.0000000   0.0842734   0.0270102), wk =   0.0219479
        k(   18) = (   0.0000000   0.0842734   0.0540205), wk =   0.0219479
        k(   19) = (   0.0000000   0.0842734   0.0810307), wk =   0.0219479
        k(   20) = (   0.0000000   0.0842734   0.1080410), wk =   0.0219479
        k(   21) = (   0.0000000   0.1123646   0.0000000), wk =   0.0109739
        k(   22) = (   0.0000000   0.1123646   0.0270102), wk =   0.0219479
        k(   23) = (   0.0000000   0.1123646   0.0540205), wk =   0.0219479
        k(   24) = (   0.0000000   0.1123646   0.0810307), wk =   0.0219479
        k(   25) = (   0.0000000   0.1123646   0.1080410), wk =   0.0219479
        k(   26) = (   0.0280911   0.0280911   0.0000000), wk =   0.0109739
        k(   27) = (   0.0280911   0.0280911   0.0270102), wk =   0.0219479
        k(   28) = (   0.0280911   0.0280911   0.0540205), wk =   0.0219479
        k(   29) = (   0.0280911   0.0280911   0.0810307), wk =   0.0219479
        k(   30) = (   0.0280911   0.0280911   0.1080410), wk =   0.0219479
        k(   31) = (   0.0280911   0.0561823   0.0000000), wk =   0.0219479
        k(   32) = (   0.0280911   0.0561823   0.0270102), wk =   0.0438957
        k(   33) = (   0.0280911   0.0561823   0.0540205), wk =   0.0438957
        k(   34) = (   0.0280911   0.0561823   0.0810307), wk =   0.0438957
        k(   35) = (   0.0280911   0.0561823   0.1080410), wk =   0.0438957
        k(   36) = (   0.0280911   0.0842734   0.0000000), wk =   0.0219479
        k(   37) = (   0.0280911   0.0842734   0.0270102), wk =   0.0438957
        k(   38) = (   0.0280911   0.0842734   0.0540205), wk =   0.0438957
        k(   39) = (   0.0280911   0.0842734   0.0810307), wk =   0.0438957
        k(   40) = (   0.0280911   0.0842734   0.1080410), wk =   0.0438957
        k(   41) = (   0.0280911   0.1123646   0.0000000), wk =   0.0219479
        k(   42) = (   0.0280911   0.1123646   0.0270102), wk =   0.0438957
        k(   43) = (   0.0280911   0.1123646   0.0540205), wk =   0.0438957
        k(   44) = (   0.0280911   0.1123646   0.0810307), wk =   0.0438957
        k(   45) = (   0.0280911   0.1123646   0.1080410), wk =   0.0438957
        k(   46) = (   0.0561823   0.0561823   0.0000000), wk =   0.0109739
        k(   47) = (   0.0561823   0.0561823   0.0270102), wk =   0.0219479
        k(   48) = (   0.0561823   0.0561823   0.0540205), wk =   0.0219479
        k(   49) = (   0.0561823   0.0561823   0.0810307), wk =   0.0219479
        k(   50) = (   0.0561823   0.0561823   0.1080410), wk =   0.0219479
        k(   51) = (   0.0561823   0.0842734   0.0000000), wk =   0.0219479
        k(   52) = (   0.0561823   0.0842734   0.0270102), wk =   0.0438957
        k(   53) = (   0.0561823   0.0842734   0.0540205), wk =   0.0438957
        k(   54) = (   0.0561823   0.0842734   0.0810307), wk =   0.0438957
        k(   55) = (   0.0561823   0.0842734   0.1080410), wk =   0.0438957
        k(   56) = (   0.0561823   0.1123646   0.0000000), wk =   0.0219479
        k(   57) = (   0.0561823   0.1123646   0.0270102), wk =   0.0438957
        k(   58) = (   0.0561823   0.1123646   0.0540205), wk =   0.0438957
        k(   59) = (   0.0561823   0.1123646   0.0810307), wk =   0.0438957
        k(   60) = (   0.0561823   0.1123646   0.1080410), wk =   0.0438957
        k(   61) = (   0.0842734   0.0842734   0.0000000), wk =   0.0109739
        k(   62) = (   0.0842734   0.0842734   0.0270102), wk =   0.0219479
        k(   63) = (   0.0842734   0.0842734   0.0540205), wk =   0.0219479
        k(   64) = (   0.0842734   0.0842734   0.0810307), wk =   0.0219479
        k(   65) = (   0.0842734   0.0842734   0.1080410), wk =   0.0219479
        k(   66) = (   0.0842734   0.1123646   0.0000000), wk =   0.0219479
        k(   67) = (   0.0842734   0.1123646   0.0270102), wk =   0.0438957
        k(   68) = (   0.0842734   0.1123646   0.0540205), wk =   0.0438957
        k(   69) = (   0.0842734   0.1123646   0.0810307), wk =   0.0438957
        k(   70) = (   0.0842734   0.1123646   0.1080410), wk =   0.0438957
        k(   71) = (   0.1123646   0.1123646   0.0000000), wk =   0.0109739
        k(   72) = (   0.1123646   0.1123646   0.0270102), wk =   0.0219479
        k(   73) = (   0.1123646   0.1123646   0.0540205), wk =   0.0219479
        k(   74) = (   0.1123646   0.1123646   0.0810307), wk =   0.0219479
        k(   75) = (   0.1123646   0.1123646   0.1080410), wk =   0.0219479

     Largest allocated arrays     est. size (Mb)     dimensions
     Largest temporary arrays     est. size (Mb)     dimensions

     Initial potential from superposition of free atoms
     Check: negative starting charge=   -0.248260

     starting charge   52.99968, renormalised to   54.00000

     negative rho (up, down):  2.529E-01 0.000E+00

     *
     * You are using vdW-DF for exchange-correlation in this calculation.
     * Please cite the following three references that made this development
     * possible:
     *
     *   M. Dion, H. Rydberg, E. Schroder, D. C. Langreth, and
     *   B. I. Lundqvist, Phys. Rev. Lett. 92, 246401 (2004).
     *
     *   T. Thonhauser, V. R. Cooper, S. Li, A. Puzder, P. Hyldgaard, and
     *   D. C. Langreth, Phys. Rev. B 76, 125112 (2007).
     *
     *   G. Roman-Perez and J. M. Soler, Phys. Rev. Lett. 103, 096102 (2009).
     *
     *
     * If you are using vdW-DF2, please also cite:
     *
     *   K. Lee, E. D. Murray, L. Kong, B. I. Lundqvist, and
     *   D. C. Langreth, Phys. Rev. B 82, 081101(R) (2010).
     *
     *
     * If you are calculating the stress with vdW-DF, please also cite:
     *
     *   R. Sabatini, E. Kucukbenli, B. Kolb, T. Thonhauser, and
     *   S. de Gironcoli, J. Phys.: Condens. Matter 24, 424209 (2012).
     *

     Carrying out vdW-DF run using the following parameters:

     Nqs =      20    Nr_points =    1024   r_max =   100.000
     q_mesh =
               0.00001000     0.04494208     0.09755937     0.15916263
               0.23128650     0.31572767     0.41458969     0.53033537
               0.66584808     0.82450364     1.01025438     1.22772762
               1.48234092     1.78043706     2.12944203     2.53805004
               3.01644009     3.57652955     4.23227104     5.00000000

     Gradients computed in reciprocal space

     Starting wfc are   44 randomized atomic wfcs +    3 random wfc

     Self-consistent Calculation

     iteration #  1     ecut=    58.80 Ry     beta=0.10
     Davidson diagonalization with overlap
     ethr =  1.00E-02,  avg # of iterations =  4.7

[...]

     total energy              =    -632.71015143 Ry
     Harris-Foulkes estimate   =    -633.26538814 Ry
     estimated scf accuracy    <       3.14571911 Ry

[...]

     iteration #  9     ecut=    58.80 Ry     beta=0.10
     Davidson diagonalization with overlap
     ethr =  9.42E-07,  avg # of iterations =  1.2

[...]

     total energy              =    -632.86109011 Ry
     Harris-Foulkes estimate   =    -632.86109724 Ry
     estimated scf accuracy    <       0.00003113 Ry

     iteration # 10     ecut=    58.80 Ry     beta=0.10
     Davidson diagonalization with overlap
     c_bands:  1 eigenvalues not converged
     ethr =  5.77E-08,  avg # of iterations =  1.8

     negative rho (up, down):  2.396E-01 0.000E+00

     End of self-consistent calculation

          k = 0.0000 0.0000 0.0000 (  3287 PWs)   bands (ev):

   -67.1193 -67.0785 -26.5440 -26.5440 -26.4069 -26.3290 -26.1943 -26.1943
     9.3329  11.8475  12.0807  12.3393  12.5020  12.5020  12.5208  14.8818
    14.8818  15.7437  16.2340  17.3214  17.4350  17.9212  19.5841  19.5841
    20.1394  20.2862  20.2862  20.3505  20.6886  21.0709  21.0709  22.2044
    26.9458  27.0124  28.8109  28.9536  30.1196  30.1196  30.5123  30.5123
    30.5646  33.4283  37.5330  38.4206  38.4238  38.4246  38.4282

[...]

          k = 0.1124 0.1124 0.1080 (  3302 PWs)   bands (ev):

   -67.0994 -67.0981 -26.5860 -26.5757 -26.3720 -26.3696 -26.1731 -26.1622
    11.9111  11.9526  12.0017  12.0557  14.1020  14.1331  14.5755  14.7017
    15.0213  15.0841  16.1864  16.3203  17.1991  17.7201  18.1203  18.3187
    18.3295  18.9781  19.3780  20.0739  20.1585  20.2600  20.5359  20.7308
    24.4938  24.7203  25.5699  25.9494  32.9727  33.0199  33.1067  33.1909
    36.5623  36.7575  36.7688  37.0521  37.3902  37.6861  38.3466

     the Fermi energy is    19.4599 ev

!    total energy              =    -632.86109755 Ry
     Harris-Foulkes estimate   =    -632.86109408 Ry
     estimated scf accuracy    <       0.00000074 Ry

     The total energy is the sum of the following terms:

     one-electron contribution =     -52.08139895 Ry
     hartree contribution      =      73.28346246 Ry
     xc contribution           =    -205.52673895 Ry
     ewald contribution        =    -448.52415620 Ry
     smearing contrib. (-TS)   =      -0.01226592 Ry

     convergence has been achieved in  10 iterations

     Forces acting on atoms (Ry/au):

     negative rho (up, down):  2.396E-01 0.000E+00
     atom    1 type  1   force =     0.00000000    0.00000000    0.00000000
     atom    2 type  1   force =     0.00000000    0.00000000    0.00000000
     atom    3 type  2   force =     0.00000000    0.00000000    0.00000000
     atom    4 type  2   force =     0.00000000    0.00000000    0.00000000

     Total force =     0.000000     Total SCF correction =     0.000000

     General routines

     Parallel routines

   This run was terminated on:   1:21:18  15Nov2017

   JOB DONE.