     Program PWSCF v.5.1rc2 starts on 14Nov2017 at 20:15:25

     Current dimensions of program PWSCF are:
     Max number of different atomic species (ntypx) = 10
     Max number of k-points (npk) =  40000
     Max angular momentum in pseudopotentials (lmaxx) =  3

     IMPORTANT: XC functional enforced from input :
     Exchange-correlation      = BEEF-VDW ( 1  4 27 13 2)
     Any further DFT definition will be discarded
     Please, verify this is what you really want

     Found symmetry operation: I + ( -0.5000 -0.5000  0.0000)
     This is a supercell, fractional translations are disabled

     bravais-lattice index     =            0
     lattice parameter (alat)  =       1.8897  a.u.
     unit-cell volume          =     505.8775 (a.u.)^3
     number of atoms/cell      =            4
     number of atomic types    =            2
     number of electrons       =        52.00
     number of Kohn-Sham states=           46
     kinetic-energy cutoff     =      58.7989  Ry
     charge density cutoff     =     587.9892  Ry
     convergence threshold     =      1.0E-06
     mixing beta               =       0.1000
     number of iterations used =           10  plain     mixing
     Exchange-correlation      = BEEF-VDW ( 1  4 27 13 2)

     celldm(1)=   1.889726  celldm(2)=   0.000000  celldm(3)=   0.000000
     celldm(4)=   0.000000  celldm(5)=   0.000000  celldm(6)=   0.000000

     crystal axes: (cart. coord. in units of alat)
               a(1) = (   3.896950   0.000000   0.000000 )
               a(2) = (   0.000000   3.896950   0.000000 )
               a(3) = (   0.000000   0.000000   4.936273 )

     reciprocal axes: (cart. coord. in units 2 pi/alat)
               b(1) = (  0.256611  0.000000  0.000000 )
               b(2) = (  0.000000  0.256611  0.000000 )
               b(3) = (  0.000000  0.000000  0.202582 )

     PseudoPot. # 1 for Nb read from file:
     /home/users/vossj/suncat/psp/gbrv1.5pbe/Nb.UPF
     MD5 check sum: 573aab8a2fa660278ed4a62cd769473f
     Pseudo is Ultrasoft + core correction, Zval = 13.0
     Generated by new atomic code, or converted to UPF format
     Using radial grid of  887 points,  6 beta functions with:
                l(1) =   0
                l(2) =   0
                l(3) =   1
                l(4) =   1
                l(5) =   2
                l(6) =   2
     Q(r) pseudized with  6 coefficients,  rinner =    1.000   1.000   1.000
                                                       1.000   1.000

     PseudoPot. # 2 for Ta read from file:
     /home/users/vossj/suncat/psp/gbrv1.5pbe/Ta.UPF
     MD5 check sum: f8bbe9446314a3b8ea5d9f3e3836c939
     Pseudo is Ultrasoft + core correction, Zval = 13.0
     Generated by new atomic code, or converted to UPF format
     Using radial grid of  921 points,  7 beta functions with:
                l(1) =   0
                l(2) =   0
                l(3) =   1
                l(4) =   1
                l(5) =   2
                l(6) =   2
                l(7) =   3
     Q(r) pseudized with  6 coefficients,  rinner =    1.300   1.300   1.300
                                                       1.300   1.300   1.300
                                                       1.300

     vdW kernel table read from file vdW_kernel_table
     MD5 check sum: 095c7af220d748ca6e76c0b4c6cfb241

     atomic species   valence    mass     pseudopotential
        Nb1           13.00    92.90640     Nb( 1.00)
        Ta1           13.00   180.94790     Ta( 1.00)

     16 Sym. Ops., with inversion, found

   Cartesian axes

     site n.     atom                  positions (alat units)
         1           Nb1 tau(   1) = (   0.0000000   0.0000000   0.0000000  )
         2           Nb1 tau(   2) = (   1.9484750   1.9484750   0.0000000  )
         3           Ta1 tau(   3) = (   1.9484750   0.0000000   2.4681363  )
         4           Ta1 tau(   4) = (   0.0000000   1.9484750   2.4681363  )

     number of k points=    75  Fermi-Dirac smearing, width (Ry)=  0.0073
                       cart. coord. in units 2pi/alat
        k(    1) = (   0.0000000   0.0000000   0.0000000), wk =   0.0027435
        k(    2) = (   0.0000000   0.0000000   0.0225091), wk =   0.0054870
        k(    3) = (   0.0000000   0.0000000   0.0450182), wk =   0.0054870
        k(    4) = (   0.0000000   0.0000000   0.0675273), wk =   0.0054870
        k(    5) = (   0.0000000   0.0000000   0.0900364), wk =   0.0054870
        k(    6) = (   0.0000000   0.0285123   0.0000000), wk =   0.0109739
        k(    7) = (   0.0000000   0.0285123   0.0225091), wk =   0.0219479
        k(    8) = (   0.0000000   0.0285123   0.0450182), wk =   0.0219479
        k(    9) = (   0.0000000   0.0285123   0.0675273), wk =   0.0219479
        k(   10) = (   0.0000000   0.0285123   0.0900364), wk =   0.0219479
        k(   11) = (   0.0000000   0.0570247   0.0000000), wk =   0.0109739
        k(   12) = (   0.0000000   0.0570247   0.0225091), wk =   0.0219479
        k(   13) = (   0.0000000   0.0570247   0.0450182), wk =   0.0219479
        k(   14) = (   0.0000000   0.0570247   0.0675273), wk =   0.0219479
        k(   15) = (   0.0000000   0.0570247   0.0900364), wk =   0.0219479
        k(   16) = (   0.0000000   0.0855370   0.0000000), wk =   0.0109739
        k(   17) = (   0.0000000   0.0855370   0.0225091), wk =   0.0219479
        k(   18) = (   0.0000000   0.0855370   0.0450182), wk =   0.0219479
        k(   19) = (   0.0000000   0.0855370   0.0675273), wk =   0.0219479
        k(   20) = (   0.0000000   0.0855370   0.0900364), wk =   0.0219479
        k(   21) = (   0.0000000   0.1140493   0.0000000), wk =   0.0109739
        k(   22) = (   0.0000000   0.1140493   0.0225091), wk =   0.0219479
        k(   23) = (   0.0000000   0.1140493   0.0450182), wk =   0.0219479
        k(   24) = (   0.0000000   0.1140493   0.0675273), wk =   0.0219479
        k(   25) = (   0.0000000   0.1140493   0.0900364), wk =   0.0219479
        k(   26) = (   0.0285123   0.0285123   0.0000000), wk =   0.0109739
        k(   27) = (   0.0285123   0.0285123   0.0225091), wk =   0.0219479
        k(   28) = (   0.0285123   0.0285123   0.0450182), wk =   0.0219479
        k(   29) = (   0.0285123   0.0285123   0.0675273), wk =   0.0219479
        k(   30) = (   0.0285123   0.0285123   0.0900364), wk =   0.0219479
        k(   31) = (   0.0285123   0.0570247   0.0000000), wk =   0.0219479
        k(   32) = (   0.0285123   0.0570247   0.0225091), wk =   0.0438957
        k(   33) = (   0.0285123   0.0570247   0.0450182), wk =   0.0438957
        k(   34) = (   0.0285123   0.0570247   0.0675273), wk =   0.0438957
        k(   35) = (   0.0285123   0.0570247   0.0900364), wk =   0.0438957
        k(   36) = (   0.0285123   0.0855370   0.0000000), wk =   0.0219479
        k(   37) = (   0.0285123   0.0855370   0.0225091), wk =   0.0438957
        k(   38) = (   0.0285123   0.0855370   0.0450182), wk =   0.0438957
        k(   39) = (   0.0285123   0.0855370   0.0675273), wk =   0.0438957
        k(   40) = (   0.0285123   0.0855370   0.0900364), wk =   0.0438957
        k(   41) = (   0.0285123   0.1140493   0.0000000), wk =   0.0219479
        k(   42) = (   0.0285123   0.1140493   0.0225091), wk =   0.0438957
        k(   43) = (   0.0285123   0.1140493   0.0450182), wk =   0.0438957
        k(   44) = (   0.0285123   0.1140493   0.0675273), wk =   0.0438957
        k(   45) = (   0.0285123   0.1140493   0.0900364), wk =   0.0438957
        k(   46) = (   0.0570247   0.0570247   0.0000000), wk =   0.0109739
        k(   47) = (   0.0570247   0.0570247   0.0225091), wk =   0.0219479
        k(   48) = (   0.0570247   0.0570247   0.0450182), wk =   0.0219479
        k(   49) = (   0.0570247   0.0570247   0.0675273), wk =   0.0219479
        k(   50) = (   0.0570247   0.0570247   0.0900364), wk =   0.0219479
        k(   51) = (   0.0570247   0.0855370   0.0000000), wk =   0.0219479
        k(   52) = (   0.0570247   0.0855370   0.0225091), wk =   0.0438957
        k(   53) = (   0.0570247   0.0855370   0.0450182), wk =   0.0438957
        k(   54) = (   0.0570247   0.0855370   0.0675273), wk =   0.0438957
        k(   55) = (   0.0570247   0.0855370   0.0900364), wk =   0.0438957
        k(   56) = (   0.0570247   0.1140493   0.0000000), wk =   0.0219479
        k(   57) = (   0.0570247   0.1140493   0.0225091), wk =   0.0438957
        k(   58) = (   0.0570247   0.1140493   0.0450182), wk =   0.0438957
        k(   59) = (   0.0570247   0.1140493   0.0675273), wk =   0.0438957
        k(   60) = (   0.0570247   0.1140493   0.0900364), wk =   0.0438957
        k(   61) = (   0.0855370   0.0855370   0.0000000), wk =   0.0109739
        k(   62) = (   0.0855370   0.0855370   0.0225091), wk =   0.0219479
        k(   63) = (   0.0855370   0.0855370   0.0450182), wk =   0.0219479
        k(   64) = (   0.0855370   0.0855370   0.0675273), wk =   0.0219479
        k(   65) = (   0.0855370   0.0855370   0.0900364), wk =   0.0219479
        k(   66) = (   0.0855370   0.1140493   0.0000000), wk =   0.0219479
        k(   67) = (   0.0855370   0.1140493   0.0225091), wk =   0.0438957
        k(   68) = (   0.0855370   0.1140493   0.0450182), wk =   0.0438957
        k(   69) = (   0.0855370   0.1140493   0.0675273), wk =   0.0438957
        k(   70) = (   0.0855370   0.1140493   0.0900364), wk =   0.0438957
        k(   71) = (   0.1140493   0.1140493   0.0000000), wk =   0.0109739
        k(   72) = (   0.1140493   0.1140493   0.0225091), wk =   0.0219479
        k(   73) = (   0.1140493   0.1140493   0.0450182), wk =   0.0219479
        k(   74) = (   0.1140493   0.1140493   0.0675273), wk =   0.0219479
        k(   75) = (   0.1140493   0.1140493   0.0900364), wk =   0.0219479

     Largest allocated arrays     est. size (Mb)     dimensions
     Largest temporary arrays     est. size (Mb)     dimensions

     Initial potential from superposition of free atoms
     Check: negative starting charge=   -0.187381

     starting charge   51.99231, renormalised to   52.00000

     negative rho (up, down):  1.874E-01 0.000E+00

     *
     * You are using vdW-DF for exchange-correlation in this calculation.
     * Please cite the following three references that made this development
     * possible:
     *
     *   M. Dion, H. Rydberg, E. Schroder, D. C. Langreth, and
     *   B. I. Lundqvist, Phys. Rev. Lett. 92, 246401 (2004).
     *
     *   T. Thonhauser, V. R. Cooper, S. Li, A. Puzder, P. Hyldgaard, and
     *   D. C. Langreth, Phys. Rev. B 76, 125112 (2007).
     *
     *   G. Roman-Perez and J. M. Soler, Phys. Rev. Lett. 103, 096102 (2009).
     *
     *
     * If you are using vdW-DF2, please also cite:
     *
     *   K. Lee, E. D. Murray, L. Kong, B. I. Lundqvist, and
     *   D. C. Langreth, Phys. Rev. B 82, 081101(R) (2010).
     *
     *
     * If you are calculating the stress with vdW-DF, please also cite:
     *
     *   R. Sabatini, E. Kucukbenli, B. Kolb, T. Thonhauser, and
     *   S. de Gironcoli, J. Phys.: Condens. Matter 24, 424209 (2012).
     *

     Carrying out vdW-DF run using the following parameters:

     Nqs =      20    Nr_points =    1024   r_max =   100.000
     q_mesh =
               0.00001000     0.04494208     0.09755937     0.15916263
               0.23128650     0.31572767     0.41458969     0.53033537
               0.66584808     0.82450364     1.01025438     1.22772762
               1.48234092     1.78043706     2.12944203     2.53805004
               3.01644009     3.57652955     4.23227104     5.00000000

     Gradients computed in reciprocal space

     Starting wfc are   52 randomized atomic wfcs

     Self-consistent Calculation

     iteration #  1     ecut=    58.80 Ry     beta=0.10
     Davidson diagonalization with overlap
     ethr =  1.00E-02,  avg # of iterations =  4.3

[...]

     total energy              =    -523.62540155 Ry
     Harris-Foulkes estimate   =    -523.73423653 Ry
     estimated scf accuracy    <       0.68739832 Ry

[...]

     iteration #  5     ecut=    58.80 Ry     beta=0.10
     Davidson diagonalization with overlap
     c_bands:  1 eigenvalues not converged
     ethr =  8.38E-06,  avg # of iterations =  4.8

[...]

     total energy              =    -523.64736325 Ry
     Harris-Foulkes estimate   =    -523.64736539 Ry
     estimated scf accuracy    <       0.00000117 Ry

     iteration # 10     ecut=    58.80 Ry     beta=0.10
     Davidson diagonalization with overlap
     ethr =  2.25E-09,  avg # of iterations =  2.0

     negative rho (up, down):  2.014E-01 0.000E+00

     End of self-consistent calculation

          k = 0.0000 0.0000 0.0000 (  3887 PWs)   bands (ev):

   -50.4684 -50.3157 -37.4226 -37.1176 -17.2404 -17.2404 -16.9048 -16.6189
   -16.3045 -16.3045 -13.8368 -13.8368 -13.3709 -13.1243 -12.7921 -12.7921
    10.3329  13.3513  13.3721  13.4165  14.4520  14.5072  14.5072  16.0945
    18.0659  18.3355  19.2022  19.2022  21.2904  21.2904  21.5555  21.9483
    22.2628  22.3328  22.3328  23.1223  23.1223  23.6548  24.3013  25.9159
    26.4594  26.8201  27.2982  29.6429  29.6429  30.3304

[...]

          k = 0.1140 0.1140 0.0900 (  3864 PWs)   bands (ev):

   -50.3935 -50.3889 -37.2723 -37.2631 -17.3890 -17.3630 -16.7628 -16.7556
   -16.2390 -16.2088 -13.9891 -13.9600 -13.2557 -13.2468 -12.7185 -12.6845
    13.1642  13.2506  13.8007  13.8430  16.3138  16.4015  16.5010  16.5271
    18.1155  18.2176  18.3602  18.7084  19.1029  19.3346  19.3637  19.3765
    21.9521  22.1293  22.5273  22.5685  22.6076  22.7407  22.9205  22.9687
    28.0692  28.1960  28.7908  28.7971  28.8042  28.9844

     the Fermi energy is    17.3971 ev

!    total energy              =    -523.64737065 Ry
     Harris-Foulkes estimate   =    -523.64736337 Ry
     estimated scf accuracy    <       0.00000028 Ry

     The total energy is the sum of the following terms:

     one-electron contribution =     -71.68564963 Ry
     hartree contribution      =      61.64037682 Ry
     xc contribution           =    -125.56701384 Ry
     ewald contribution        =    -388.02358930 Ry
     smearing contrib. (-TS)   =      -0.01149470 Ry

     convergence has been achieved in  10 iterations

     Forces acting on atoms (Ry/au):

     negative rho (up, down):  2.014E-01 0.000E+00
     atom    1 type  1   force =     0.00000000    0.00000000    0.00000000
     atom    2 type  1   force =     0.00000000    0.00000000    0.00000000
     atom    3 type  2   force =     0.00000000    0.00000000    0.00000000
     atom    4 type  2   force =     0.00000000    0.00000000    0.00000000

     Total force =     0.000000     Total SCF correction =     0.000000

     General routines

     Parallel routines

   This run was terminated on:  20:15:57  14Nov2017

   JOB DONE.