     Program PWSCF v.5.1rc2 starts on 15Nov2017 at  3:36:18

     Current dimensions of program PWSCF are:
     Max number of different atomic species (ntypx) = 10
     Max number of k-points (npk) =  40000
     Max angular momentum in pseudopotentials (lmaxx) =  3

     IMPORTANT: XC functional enforced from input :
     Exchange-correlation      = BEEF-VDW ( 1  4 27 13 2)
     Any further DFT definition will be discarded
     Please, verify this is what you really want

     Found symmetry operation: I + ( -0.5000 -0.5000  0.0000)
     This is a supercell, fractional translations are disabled

     bravais-lattice index     =            0
     lattice parameter (alat)  =       1.8897  a.u.
     unit-cell volume          =     558.1581 (a.u.)^3
     number of atoms/cell      =            4
     number of atomic types    =            2
     number of electrons       =        58.00
     number of Kohn-Sham states=           49
     kinetic-energy cutoff     =      58.7989  Ry
     charge density cutoff     =     587.9892  Ry
     convergence threshold     =      1.0E-06
     mixing beta               =       0.1000
     number of iterations used =           10  plain     mixing
     Exchange-correlation      = BEEF-VDW ( 1  4 27 13 2)

     celldm(1)=   1.889726  celldm(2)=   0.000000  celldm(3)=   0.000000
     celldm(4)=   0.000000  celldm(5)=   0.000000  celldm(6)=   0.000000

     crystal axes: (cart. coord. in units of alat)
               a(1) = (   4.936275   0.000000   0.000000 )
               a(2) = (   0.000000   4.936275   0.000000 )
               a(3) = (   0.000000   0.000000   3.394391 )

     reciprocal axes: (cart. coord. in units 2 pi/alat)
               b(1) = (  0.202582  0.000000  0.000000 )
               b(2) = (  0.000000  0.202582  0.000000 )
               b(3) = (  0.000000  0.000000  0.294604 )

     PseudoPot. # 1 for Pd read from file:
     /home/users/vossj/suncat/psp/gbrv1.5pbe/Pd.UPF
     MD5 check sum: 2d733d2bc2cbfd217af676df1668a4bc
     Pseudo is Ultrasoft + core correction, Zval = 16.0
     Generated by new atomic code, or converted to UPF format
     Using radial grid of  887 points,  6 beta functions with:
                l(1) =   0
                l(2) =   0
                l(3) =   1
                l(4) =   1
                l(5) =   2
                l(6) =   2
     Q(r) pseudized with  8 coefficients,  rinner =    1.130   1.130   1.130
                                                       1.130   1.130

     PseudoPot. # 2 for Tl read from file:
     /home/users/vossj/suncat/psp/gbrv1.5pbe/Tl.UPF
     MD5 check sum: b76cf1f7e72655a2b2c53cf6385d7059
     Pseudo is Ultrasoft + core correction, Zval = 13.0
     Generated by new atomic code, or converted to UPF format
     Using radial grid of  899 points,  6 beta functions with:
                l(1) =   0
                l(2) =   0
                l(3) =   1
                l(4) =   1
                l(5) =   2
                l(6) =   2
     Q(r) pseudized with  6 coefficients,  rinner =    1.100   1.100   1.100
                                                       1.100   1.100

     vdW kernel table read from file vdW_kernel_table
     MD5 check sum: 095c7af220d748ca6e76c0b4c6cfb241

     atomic species   valence    mass     pseudopotential
        Pd1           16.00   106.42000     Pd( 1.00)
        Tl1           13.00   204.38300     Tl( 1.00)

     16 Sym. Ops., with inversion, found

   Cartesian axes

     site n.     atom                  positions (alat units)
         1           Pd1 tau(   1) = (   0.0000000   0.0000000   0.0000000  )
         2           Pd1 tau(   2) = (   2.4681377   2.4681377   0.0000000  )
         3           Tl1 tau(   3) = (   2.4681377   0.0000000   1.6971957  )
         4           Tl1 tau(   4) = (   0.0000000   2.4681377   1.6971957  )

     number of k points=    75  Fermi-Dirac smearing, width (Ry)=  0.0073
                       cart. coord. in units 2pi/alat
        k(    1) = (   0.0000000   0.0000000   0.0000000), wk =   0.0027435
        k(    2) = (   0.0000000   0.0000000   0.0327337), wk =   0.0054870
        k(    3) = (   0.0000000   0.0000000   0.0654675), wk =   0.0054870
        k(    4) = (   0.0000000   0.0000000   0.0982012), wk =   0.0054870
        k(    5) = (   0.0000000   0.0000000   0.1309349), wk =   0.0054870
        k(    6) = (   0.0000000   0.0225091   0.0000000), wk =   0.0109739
        k(    7) = (   0.0000000   0.0225091   0.0327337), wk =   0.0219479
        k(    8) = (   0.0000000   0.0225091   0.0654675), wk =   0.0219479
        k(    9) = (   0.0000000   0.0225091   0.0982012), wk =   0.0219479
        k(   10) = (   0.0000000   0.0225091   0.1309349), wk =   0.0219479
        k(   11) = (   0.0000000   0.0450182   0.0000000), wk =   0.0109739
        k(   12) = (   0.0000000   0.0450182   0.0327337), wk =   0.0219479
        k(   13) = (   0.0000000   0.0450182   0.0654675), wk =   0.0219479
        k(   14) = (   0.0000000   0.0450182   0.0982012), wk =   0.0219479
        k(   15) = (   0.0000000   0.0450182   0.1309349), wk =   0.0219479
        k(   16) = (   0.0000000   0.0675273   0.0000000), wk =   0.0109739
        k(   17) = (   0.0000000   0.0675273   0.0327337), wk =   0.0219479
        k(   18) = (   0.0000000   0.0675273   0.0654675), wk =   0.0219479
        k(   19) = (   0.0000000   0.0675273   0.0982012), wk =   0.0219479
        k(   20) = (   0.0000000   0.0675273   0.1309349), wk =   0.0219479
        k(   21) = (   0.0000000   0.0900364   0.0000000), wk =   0.0109739
        k(   22) = (   0.0000000   0.0900364   0.0327337), wk =   0.0219479
        k(   23) = (   0.0000000   0.0900364   0.0654675), wk =   0.0219479
        k(   24) = (   0.0000000   0.0900364   0.0982012), wk =   0.0219479
        k(   25) = (   0.0000000   0.0900364   0.1309349), wk =   0.0219479
        k(   26) = (   0.0225091   0.0225091   0.0000000), wk =   0.0109739
        k(   27) = (   0.0225091   0.0225091   0.0327337), wk =   0.0219479
        k(   28) = (   0.0225091   0.0225091   0.0654675), wk =   0.0219479
        k(   29) = (   0.0225091   0.0225091   0.0982012), wk =   0.0219479
        k(   30) = (   0.0225091   0.0225091   0.1309349), wk =   0.0219479
        k(   31) = (   0.0225091   0.0450182   0.0000000), wk =   0.0219479
        k(   32) = (   0.0225091   0.0450182   0.0327337), wk =   0.0438957
        k(   33) = (   0.0225091   0.0450182   0.0654675), wk =   0.0438957
        k(   34) = (   0.0225091   0.0450182   0.0982012), wk =   0.0438957
        k(   35) = (   0.0225091   0.0450182   0.1309349), wk =   0.0438957
        k(   36) = (   0.0225091   0.0675273   0.0000000), wk =   0.0219479
        k(   37) = (   0.0225091   0.0675273   0.0327337), wk =   0.0438957
        k(   38) = (   0.0225091   0.0675273   0.0654675), wk =   0.0438957
        k(   39) = (   0.0225091   0.0675273   0.0982012), wk =   0.0438957
        k(   40) = (   0.0225091   0.0675273   0.1309349), wk =   0.0438957
        k(   41) = (   0.0225091   0.0900364   0.0000000), wk =   0.0219479
        k(   42) = (   0.0225091   0.0900364   0.0327337), wk =   0.0438957
        k(   43) = (   0.0225091   0.0900364   0.0654675), wk =   0.0438957
        k(   44) = (   0.0225091   0.0900364   0.0982012), wk =   0.0438957
        k(   45) = (   0.0225091   0.0900364   0.1309349), wk =   0.0438957
        k(   46) = (   0.0450182   0.0450182   0.0000000), wk =   0.0109739
        k(   47) = (   0.0450182   0.0450182   0.0327337), wk =   0.0219479
        k(   48) = (   0.0450182   0.0450182   0.0654675), wk =   0.0219479
        k(   49) = (   0.0450182   0.0450182   0.0982012), wk =   0.0219479
        k(   50) = (   0.0450182   0.0450182   0.1309349), wk =   0.0219479
        k(   51) = (   0.0450182   0.0675273   0.0000000), wk =   0.0219479
        k(   52) = (   0.0450182   0.0675273   0.0327337), wk =   0.0438957
        k(   53) = (   0.0450182   0.0675273   0.0654675), wk =   0.0438957
        k(   54) = (   0.0450182   0.0675273   0.0982012), wk =   0.0438957
        k(   55) = (   0.0450182   0.0675273   0.1309349), wk =   0.0438957
        k(   56) = (   0.0450182   0.0900364   0.0000000), wk =   0.0219479
        k(   57) = (   0.0450182   0.0900364   0.0327337), wk =   0.0438957
        k(   58) = (   0.0450182   0.0900364   0.0654675), wk =   0.0438957
        k(   59) = (   0.0450182   0.0900364   0.0982012), wk =   0.0438957
        k(   60) = (   0.0450182   0.0900364   0.1309349), wk =   0.0438957
        k(   61) = (   0.0675273   0.0675273   0.0000000), wk =   0.0109739
        k(   62) = (   0.0675273   0.0675273   0.0327337), wk =   0.0219479
        k(   63) = (   0.0675273   0.0675273   0.0654675), wk =   0.0219479
        k(   64) = (   0.0675273   0.0675273   0.0982012), wk =   0.0219479
        k(   65) = (   0.0675273   0.0675273   0.1309349), wk =   0.0219479
        k(   66) = (   0.0675273   0.0900364   0.0000000), wk =   0.0219479
        k(   67) = (   0.0675273   0.0900364   0.0327337), wk =   0.0438957
        k(   68) = (   0.0675273   0.0900364   0.0654675), wk =   0.0438957
        k(   69) = (   0.0675273   0.0900364   0.0982012), wk =   0.0438957
        k(   70) = (   0.0675273   0.0900364   0.1309349), wk =   0.0438957
        k(   71) = (   0.0900364   0.0900364   0.0000000), wk =   0.0109739
        k(   72) = (   0.0900364   0.0900364   0.0327337), wk =   0.0219479
        k(   73) = (   0.0900364   0.0900364   0.0654675), wk =   0.0219479
        k(   74) = (   0.0900364   0.0900364   0.0982012), wk =   0.0219479
        k(   75) = (   0.0900364   0.0900364   0.1309349), wk =   0.0219479

     Largest allocated arrays     est. size (Mb)     dimensions
     Largest temporary arrays     est. size (Mb)     dimensions

     Initial potential from superposition of free atoms
     Check: negative starting charge=   -0.253012

     starting charge   56.99025, renormalised to   58.00000

     negative rho (up, down):  2.575E-01 0.000E+00

     *
     * You are using vdW-DF for exchange-correlation in this calculation.
     * Please cite the following three references that made this development
     * possible:
     *
     *   M. Dion, H. Rydberg, E. Schroder, D. C. Langreth, and
     *   B. I. Lundqvist, Phys. Rev. Lett. 92, 246401 (2004).
     *
     *   T. Thonhauser, V. R. Cooper, S. Li, A. Puzder, P. Hyldgaard, and
     *   D. C. Langreth, Phys. Rev. B 76, 125112 (2007).
     *
     *   G. Roman-Perez and J. M. Soler, Phys. Rev. Lett. 103, 096102 (2009).
     *
     *
     * If you are using vdW-DF2, please also cite:
     *
     *   K. Lee, E. D. Murray, L. Kong, B. I. Lundqvist, and
     *   D. C. Langreth, Phys. Rev. B 82, 081101(R) (2010).
     *
     *
     * If you are calculating the stress with vdW-DF, please also cite:
     *
     *   R. Sabatini, E. Kucukbenli, B. Kolb, T. Thonhauser, and
     *   S. de Gironcoli, J. Phys.: Condens. Matter 24, 424209 (2012).
     *

     Carrying out vdW-DF run using the following parameters:

     Nqs =      20    Nr_points =    1024   r_max =   100.000
     q_mesh =
               0.00001000     0.04494208     0.09755937     0.15916263
               0.23128650     0.31572767     0.41458969     0.53033537
               0.66584808     0.82450364     1.01025438     1.22772762
               1.48234092     1.78043706     2.12944203     2.53805004
               3.01644009     3.57652955     4.23227104     5.00000000

     Gradients computed in reciprocal space

     Starting wfc are   42 randomized atomic wfcs +    7 random wfc

     Self-consistent Calculation

     iteration #  1     ecut=    58.80 Ry     beta=0.10
     Davidson diagonalization with overlap
     ethr =  1.00E-02,  avg # of iterations =  5.2

[...]

     total energy              =    -693.31348161 Ry
     Harris-Foulkes estimate   =    -693.56651743 Ry
     estimated scf accuracy    <       1.57451732 Ry

[...]

     total energy              =    -693.27408135 Ry
     Harris-Foulkes estimate   =    -693.27395551 Ry
     estimated scf accuracy    <       0.00000109 Ry

     iteration # 11     ecut=    58.80 Ry     beta=0.10
     Davidson diagonalization with overlap
     ethr =  1.89E-09,  avg # of iterations =  1.2

     negative rho (up, down):  2.685E-01 0.000E+00

     End of self-consistent calculation

          k = 0.0000 0.0000 0.0000 (  4243 PWs)   bands (ev):

   -35.8231 -35.8231 -35.8111 -35.8111 -35.8024 -35.8005   1.9719   2.0255
     2.0748   2.1520   2.3677   2.3677   2.5031   2.5248   2.5248   2.7414
     4.4709   7.9428  11.1371  11.1792  11.3580  12.0547  12.0547  12.2244
    12.2704  12.2704  12.4744  12.4744  12.5783  14.0400  16.5548  18.0854
    18.0854  18.7905  20.4938  23.3848  24.7604  25.2047  25.2880  25.2880
    27.0202  29.4210  29.4307  29.4307  29.8959  31.0807  31.0807  32.5769
    32.5769

[...]

          k = 0.0900 0.0900 0.1309 (  4256 PWs)   bands (ev):

   -35.8226 -35.8222 -35.8196 -35.8192 -35.8091 -35.8088   2.0613   2.0666
     2.2277   2.2449   2.3178   2.3238   2.3409   2.3519   2.7427   2.7556
     8.0507   8.1207  11.3471  11.4196  11.7580  11.7860  11.9617  12.0073
    12.1693  12.2675  12.4627  12.6770  13.0078  13.1077  14.3398  14.4802
    17.0304  17.2048  22.5398  22.8505  24.6511  24.6896  24.7209  24.9670
    26.1247  26.2941  29.0651  29.2759  30.6058  30.8487  30.9290  31.0334
    32.5909

     the Fermi energy is    14.0817 ev

!    total energy              =    -693.27461147 Ry
     Harris-Foulkes estimate   =    -693.27408140 Ry
     estimated scf accuracy    <       0.00000054 Ry

     The total energy is the sum of the following terms:

     one-electron contribution =    -156.63946666 Ry
     hartree contribution      =     127.88071826 Ry
     xc contribution           =    -193.37608066 Ry
     ewald contribution        =    -471.13589234 Ry
     smearing contrib. (-TS)   =      -0.00389006 Ry

     convergence has been achieved in  11 iterations

     Forces acting on atoms (Ry/au):

     negative rho (up, down):  2.685E-01 0.000E+00
     atom    1 type  1   force =     0.00000000    0.00000000    0.00000000
     atom    2 type  1   force =     0.00000000    0.00000000    0.00000000
     atom    3 type  2   force =     0.00000000    0.00000000    0.00000000
     atom    4 type  2   force =     0.00000000    0.00000000    0.00000000

     Total force =     0.000000     Total SCF correction =     0.000000

     General routines

     Parallel routines

   This run was terminated on:   3:37: 0  15Nov2017

   JOB DONE.