     Program PWSCF v.5.1rc2 starts on 15Nov2017 at  5:25:26

     Current dimensions of program PWSCF are:
     Max number of different atomic species (ntypx) = 10
     Max number of k-points (npk) =  40000
     Max angular momentum in pseudopotentials (lmaxx) =  3

     IMPORTANT: XC functional enforced from input :
     Exchange-correlation      = BEEF-VDW ( 1  4 27 13 2)
     Any further DFT definition will be discarded
     Please, verify this is what you really want

     Found symmetry operation: I + (  0.5000  0.5000  0.0000)
     This is a supercell, fractional translations are disabled

     bravais-lattice index     =            0
     lattice parameter (alat)  =       1.8897  a.u.
     unit-cell volume          =     454.1309 (a.u.)^3
     number of atoms/cell      =            4
     number of atomic types    =            2
     number of electrons       =        56.00
     number of Kohn-Sham states=           48
     kinetic-energy cutoff     =      58.7989  Ry
     charge density cutoff     =     587.9892  Ry
     convergence threshold     =      1.0E-06
     mixing beta               =       0.1000
     number of iterations used =           10  plain     mixing
     Exchange-correlation      = BEEF-VDW ( 1  4 27 13 2)

     celldm(1)=   1.889726  celldm(2)=   0.000000  celldm(3)=   0.000000
     celldm(4)=   0.000000  celldm(5)=   0.000000  celldm(6)=   0.000000

     crystal axes: (cart. coord. in units of alat)
               a(1) = (   4.619343   0.000000   0.000000 )
               a(2) = (   0.000000   4.619343   0.000000 )
               a(3) = (   0.000000   0.000000   3.153726 )

     reciprocal axes: (cart. coord. in units 2 pi/alat)
               b(1) = (  0.216481  0.000000  0.000000 )
               b(2) = (  0.000000  0.216481  0.000000 )
               b(3) = (  0.000000  0.000000  0.317085 )

     PseudoPot. # 1 for Ru read from file:
     /home/users/vossj/suncat/psp/gbrv1.5pbe/Ru.UPF
     MD5 check sum: 7158a806dd851261a58e6920c40ebe78
     Pseudo is Ultrasoft + core correction, Zval = 16.0
     Generated by new atomic code, or converted to UPF format
     Using radial grid of  967 points,  6 beta functions with:
                l(1) =   0
                l(2) =   0
                l(3) =   1
                l(4) =   1
                l(5) =   2
                l(6) =   2
     Q(r) pseudized with  8 coefficients,  rinner =    1.300   1.300   1.300
                                                       1.300   1.300

     PseudoPot. # 2 for Hf read from file:
     /home/users/vossj/suncat/psp/gbrv1.5pbe/Hf.UPF
     MD5 check sum: 8ee9378dfe14276e333edf04c5e4aa26
     Pseudo is Ultrasoft + core correction, Zval = 12.0
     Generated by new atomic code, or converted to UPF format
     Using radial grid of  921 points,  8 beta functions with:
                l(1) =   0
                l(2) =   0
                l(3) =   0
                l(4) =   1
                l(5) =   1
                l(6) =   2
                l(7) =   2
                l(8) =   3
     Q(r) pseudized with  6 coefficients,  rinner =    1.200   1.200   1.200
                                                       1.200   1.200   1.200
                                                       1.200

     vdW kernel table read from file vdW_kernel_table
     MD5 check sum: 095c7af220d748ca6e76c0b4c6cfb241

     atomic species   valence    mass     pseudopotential
        Ru1           16.00   101.07000     Ru( 1.00)
        Hf1           12.00   178.49000     Hf( 1.00)

     16 Sym. Ops., with inversion, found

   Cartesian axes

     site n.     atom                  positions (alat units)
         1           Ru1 tau(   1) = (   0.0000000   0.0000000   0.0000000  )
         2           Ru1 tau(   2) = (   2.3096717   2.3096717   0.0000000  )
         3           Hf1 tau(   3) = (   2.3096717   0.0000000   1.5768631  )
         4           Hf1 tau(   4) = (   0.0000000   2.3096717   1.5768631  )

     number of k points=    75  Fermi-Dirac smearing, width (Ry)=  0.0073
                       cart. coord. in units 2pi/alat
        k(    1) = (   0.0000000   0.0000000   0.0000000), wk =   0.0027435
        k(    2) = (   0.0000000   0.0000000   0.0352317), wk =   0.0054870
        k(    3) = (   0.0000000   0.0000000   0.0704634), wk =   0.0054870
        k(    4) = (   0.0000000   0.0000000   0.1056951), wk =   0.0054870
        k(    5) = (   0.0000000   0.0000000   0.1409268), wk =   0.0054870
        k(    6) = (   0.0000000   0.0240534   0.0000000), wk =   0.0109739
        k(    7) = (   0.0000000   0.0240534   0.0352317), wk =   0.0219479
        k(    8) = (   0.0000000   0.0240534   0.0704634), wk =   0.0219479
        k(    9) = (   0.0000000   0.0240534   0.1056951), wk =   0.0219479
        k(   10) = (   0.0000000   0.0240534   0.1409268), wk =   0.0219479
        k(   11) = (   0.0000000   0.0481069   0.0000000), wk =   0.0109739
        k(   12) = (   0.0000000   0.0481069   0.0352317), wk =   0.0219479
        k(   13) = (   0.0000000   0.0481069   0.0704634), wk =   0.0219479
        k(   14) = (   0.0000000   0.0481069   0.1056951), wk =   0.0219479
        k(   15) = (   0.0000000   0.0481069   0.1409268), wk =   0.0219479
        k(   16) = (   0.0000000   0.0721603   0.0000000), wk =   0.0109739
        k(   17) = (   0.0000000   0.0721603   0.0352317), wk =   0.0219479
        k(   18) = (   0.0000000   0.0721603   0.0704634), wk =   0.0219479
        k(   19) = (   0.0000000   0.0721603   0.1056951), wk =   0.0219479
        k(   20) = (   0.0000000   0.0721603   0.1409268), wk =   0.0219479
        k(   21) = (   0.0000000   0.0962138   0.0000000), wk =   0.0109739
        k(   22) = (   0.0000000   0.0962138   0.0352317), wk =   0.0219479
        k(   23) = (   0.0000000   0.0962138   0.0704634), wk =   0.0219479
        k(   24) = (   0.0000000   0.0962138   0.1056951), wk =   0.0219479
        k(   25) = (   0.0000000   0.0962138   0.1409268), wk =   0.0219479
        k(   26) = (   0.0240534   0.0240534   0.0000000), wk =   0.0109739
        k(   27) = (   0.0240534   0.0240534   0.0352317), wk =   0.0219479
        k(   28) = (   0.0240534   0.0240534   0.0704634), wk =   0.0219479
        k(   29) = (   0.0240534   0.0240534   0.1056951), wk =   0.0219479
        k(   30) = (   0.0240534   0.0240534   0.1409268), wk =   0.0219479
        k(   31) = (   0.0240534   0.0481069   0.0000000), wk =   0.0219479
        k(   32) = (   0.0240534   0.0481069   0.0352317), wk =   0.0438957
        k(   33) = (   0.0240534   0.0481069   0.0704634), wk =   0.0438957
        k(   34) = (   0.0240534   0.0481069   0.1056951), wk =   0.0438957
        k(   35) = (   0.0240534   0.0481069   0.1409268), wk =   0.0438957
        k(   36) = (   0.0240534   0.0721603   0.0000000), wk =   0.0219479
        k(   37) = (   0.0240534   0.0721603   0.0352317), wk =   0.0438957
        k(   38) = (   0.0240534   0.0721603   0.0704634), wk =   0.0438957
        k(   39) = (   0.0240534   0.0721603   0.1056951), wk =   0.0438957
        k(   40) = (   0.0240534   0.0721603   0.1409268), wk =   0.0438957
        k(   41) = (   0.0240534   0.0962138   0.0000000), wk =   0.0219479
        k(   42) = (   0.0240534   0.0962138   0.0352317), wk =   0.0438957
        k(   43) = (   0.0240534   0.0962138   0.0704634), wk =   0.0438957
        k(   44) = (   0.0240534   0.0962138   0.1056951), wk =   0.0438957
        k(   45) = (   0.0240534   0.0962138   0.1409268), wk =   0.0438957
        k(   46) = (   0.0481069   0.0481069   0.0000000), wk =   0.0109739
        k(   47) = (   0.0481069   0.0481069   0.0352317), wk =   0.0219479
        k(   48) = (   0.0481069   0.0481069   0.0704634), wk =   0.0219479
        k(   49) = (   0.0481069   0.0481069   0.1056951), wk =   0.0219479
        k(   50) = (   0.0481069   0.0481069   0.1409268), wk =   0.0219479
        k(   51) = (   0.0481069   0.0721603   0.0000000), wk =   0.0219479
        k(   52) = (   0.0481069   0.0721603   0.0352317), wk =   0.0438957
        k(   53) = (   0.0481069   0.0721603   0.0704634), wk =   0.0438957
        k(   54) = (   0.0481069   0.0721603   0.1056951), wk =   0.0438957
        k(   55) = (   0.0481069   0.0721603   0.1409268), wk =   0.0438957
        k(   56) = (   0.0481069   0.0962138   0.0000000), wk =   0.0219479
        k(   57) = (   0.0481069   0.0962138   0.0352317), wk =   0.0438957
        k(   58) = (   0.0481069   0.0962138   0.0704634), wk =   0.0438957
        k(   59) = (   0.0481069   0.0962138   0.1056951), wk =   0.0438957
        k(   60) = (   0.0481069   0.0962138   0.1409268), wk =   0.0438957
        k(   61) = (   0.0721603   0.0721603   0.0000000), wk =   0.0109739
        k(   62) = (   0.0721603   0.0721603   0.0352317), wk =   0.0219479
        k(   63) = (   0.0721603   0.0721603   0.0704634), wk =   0.0219479
        k(   64) = (   0.0721603   0.0721603   0.1056951), wk =   0.0219479
        k(   65) = (   0.0721603   0.0721603   0.1409268), wk =   0.0219479
        k(   66) = (   0.0721603   0.0962138   0.0000000), wk =   0.0219479
        k(   67) = (   0.0721603   0.0962138   0.0352317), wk =   0.0438957
        k(   68) = (   0.0721603   0.0962138   0.0704634), wk =   0.0438957
        k(   69) = (   0.0721603   0.0962138   0.1056951), wk =   0.0438957
        k(   70) = (   0.0721603   0.0962138   0.1409268), wk =   0.0438957
        k(   71) = (   0.0962138   0.0962138   0.0000000), wk =   0.0109739
        k(   72) = (   0.0962138   0.0962138   0.0352317), wk =   0.0219479
        k(   73) = (   0.0962138   0.0962138   0.0704634), wk =   0.0219479
        k(   74) = (   0.0962138   0.0962138   0.1056951), wk =   0.0219479
        k(   75) = (   0.0962138   0.0962138   0.1409268), wk =   0.0219479

     Largest allocated arrays     est. size (Mb)     dimensions
     Largest temporary arrays     est. size (Mb)     dimensions

     Initial potential from superposition of free atoms
     Check: negative starting charge=   -0.365676

     starting charge   49.99996, renormalised to   56.00000

     negative rho (up, down):  4.096E-01 0.000E+00

     *
     * You are using vdW-DF for exchange-correlation in this calculation.
     * Please cite the following three references that made this development
     * possible:
     *
     *   M. Dion, H. Rydberg, E. Schroder, D. C. Langreth, and
     *   B. I. Lundqvist, Phys. Rev. Lett. 92, 246401 (2004).
     *
     *   T. Thonhauser, V. R. Cooper, S. Li, A. Puzder, P. Hyldgaard, and
     *   D. C. Langreth, Phys. Rev. B 76, 125112 (2007).
     *
     *   G. Roman-Perez and J. M. Soler, Phys. Rev. Lett. 103, 096102 (2009).
     *
     *
     * If you are using vdW-DF2, please also cite:
     *
     *   K. Lee, E. D. Murray, L. Kong, B. I. Lundqvist, and
     *   D. C. Langreth, Phys. Rev. B 82, 081101(R) (2010).
     *
     *
     * If you are calculating the stress with vdW-DF, please also cite:
     *
     *   R. Sabatini, E. Kucukbenli, B. Kolb, T. Thonhauser, and
     *   S. de Gironcoli, J. Phys.: Condens. Matter 24, 424209 (2012).
     *

     Carrying out vdW-DF run using the following parameters:

     Nqs =      20    Nr_points =    1024   r_max =   100.000
     q_mesh =
               0.00001000     0.04494208     0.09755937     0.15916263
               0.23128650     0.31572767     0.41458969     0.53033537
               0.66584808     0.82450364     1.01025438     1.22772762
               1.48234092     1.78043706     2.12944203     2.53805004
               3.01644009     3.57652955     4.23227104     5.00000000

     Gradients computed in reciprocal space

     Starting wfc are   52 randomized atomic wfcs

     Self-consistent Calculation

     iteration #  1     ecut=    58.80 Ry     beta=0.10
     Davidson diagonalization with overlap
     ethr =  1.00E-02,  avg # of iterations =  4.5

[...]

     total energy              =    -713.31109384 Ry
     Harris-Foulkes estimate   =    -715.56860847 Ry
     estimated scf accuracy    <      14.43756352 Ry

[...]

     total energy              =    -711.75067344 Ry
     Harris-Foulkes estimate   =    -711.75067371 Ry
     estimated scf accuracy    <       0.00000100 Ry

     iteration # 15     ecut=    58.80 Ry     beta=0.10
     Davidson diagonalization with overlap
     ethr =  1.79E-09,  avg # of iterations =  2.1

     negative rho (up, down):  3.902E-01 0.000E+00

     End of self-consistent calculation

          k = 0.0000 0.0000 0.0000 (  3435 PWs)   bands (ev):

   -53.5489 -53.5394 -43.1021 -43.0769 -23.5950 -23.5950 -23.5206 -23.5206
   -23.4564 -23.4389 -11.7954 -11.7954 -11.5250 -11.5250 -11.4824 -11.4419
    11.4850  14.0674  14.3384  14.3909  14.4347  16.3836  16.3836  17.4459
    17.7491  17.7491  19.1939  19.8045  20.3475  20.3475  21.1226  21.5904
    21.6884  24.8790  24.8790  24.9129  24.9181  24.9181  25.0919  27.4832
    27.4832  28.4311  28.8483  31.4901  31.4901  31.9882  34.2411  34.2411

[...]

          k = 0.0962 0.0962 0.1409 (  3437 PWs)   bands (ev):

   -53.5370 -53.5367 -43.0700 -43.0692 -23.5900 -23.5879 -23.5614 -23.5611
   -23.5010 -23.4989 -11.8670 -11.8649 -11.7841 -11.7757 -11.4833 -11.4744
    14.1654  14.2021  14.3900  14.4099  16.0504  16.0666  16.0750  16.1360
    18.9213  19.1324  19.7317  19.9269  20.2749  20.6571  20.9398  20.9594
    22.1183  22.2455  24.5065  24.7813  24.8635  24.9860  25.4825  25.4919
    29.2725  29.3527  31.4535  31.5426  31.7446  31.7721  31.9545  32.3679

     the Fermi energy is    19.2750 ev

!    total energy              =    -711.75067363 Ry
     Harris-Foulkes estimate   =    -711.75067359 Ry
     estimated scf accuracy    <          2.0E-09 Ry

     The total energy is the sum of the following terms:

     one-electron contribution =    -125.02407238 Ry
     hartree contribution      =      95.18822751 Ry
     xc contribution           =    -208.91972329 Ry
     ewald contribution        =    -472.99251542 Ry
     smearing contrib. (-TS)   =      -0.00259005 Ry

     convergence has been achieved in  15 iterations

     Forces acting on atoms (Ry/au):

     negative rho (up, down):  3.902E-01 0.000E+00
     atom    1 type  1   force =     0.00000000    0.00000000    0.00000000
     atom    2 type  1   force =     0.00000000    0.00000000    0.00000000
     atom    3 type  2   force =     0.00000000    0.00000000    0.00000000
     atom    4 type  2   force =     0.00000000    0.00000000    0.00000000

     Total force =     0.000000     Total SCF correction =     0.000000

     General routines

     Parallel routines

   This run was terminated on:   5:26:15  15Nov2017

   JOB DONE.