     Program PWSCF v.5.1rc2 (svn rev. ) starts on 14Nov2017 at 21:10:10

     Current dimensions of program PWSCF are:
     Max number of different atomic species (ntypx) = 10
     Max number of k-points (npk) =  40000
     Max angular momentum in pseudopotentials (lmaxx) =  3

     IMPORTANT: XC functional enforced from input :
     Exchange-correlation      = BEEF-VDW ( 1  4 27 13 2)
     Any further DFT definition will be discarded
     Please, verify this is what you really want

     Subspace diagonalization in iterative solution of the eigenvalue problem:
     a serial algorithm will be used

     Found symmetry operation: I + (  0.5000  0.5000  0.0000)
     This is a supercell, fractional translations are disabled

     bravais-lattice index     =            0
     lattice parameter (alat)  =       1.8897  a.u.
     unit-cell volume          =     434.7634 (a.u.)^3
     number of atoms/cell      =            4
     number of atomic types    =            2
     number of electrons       =        56.00
     number of Kohn-Sham states=           48
     kinetic-energy cutoff     =      58.7989  Ry
     charge density cutoff     =     587.9892  Ry
     convergence threshold     =      1.0E-06
     mixing beta               =       0.1000
     number of iterations used =           10  plain     mixing
     Exchange-correlation      = BEEF-VDW ( 1  4 27 13 2)

     celldm(1)=   1.889726  celldm(2)=   0.000000  celldm(3)=   0.000000
     celldm(4)=   0.000000  celldm(5)=   0.000000  celldm(6)=   0.000000

     crystal axes: (cart. coord. in units of alat)
               a(1) = (   4.519773   0.000000   0.000000 )
               a(2) = (   0.000000   4.519773   0.000000 )
               a(3) = (   0.000000   0.000000   3.153720 )

     reciprocal axes: (cart. coord. in units 2 pi/alat)
               b(1) = (  0.221250  0.000000  0.000000 )
               b(2) = (  0.000000  0.221250  0.000000 )
               b(3) = (  0.000000  0.000000  0.317086 )

     PseudoPot. # 1 for Nb read from file:
     /home/vossj/suncat/psp/gbrv1.5pbe/Nb.UPF
     MD5 check sum: 573aab8a2fa660278ed4a62cd769473f
     Pseudo is Ultrasoft + core correction, Zval = 13.0
     Generated by new atomic code, or converted to UPF format
     Using radial grid of  887 points,  6 beta functions with:
                l(1) =   0
                l(2) =   0
                l(3) =   1
                l(4) =   1
                l(5) =   2
                l(6) =   2
     Q(r) pseudized with  6 coefficients,  rinner =    1.000   1.000   1.000
                                                       1.000   1.000

     PseudoPot. # 2 for Tc read from file:
     /home/vossj/suncat/psp/gbrv1.5pbe/Tc.UPF
     MD5 check sum: 9eb49e5b028550b2339a02317eb7b844
     Pseudo is Ultrasoft + core correction, Zval = 15.0
     Generated by new atomic code, or converted to UPF format
     Using radial grid of  965 points,  6 beta functions with:
                l(1) =   0
                l(2) =   0
                l(3) =   1
                l(4) =   1
                l(5) =   2
                l(6) =   2
     Q(r) pseudized with  8 coefficients,  rinner =    1.300   1.300   1.300
                                                       1.300   1.300

     vdW kernel table read from file vdW_kernel_table
     MD5 check sum: 095c7af220d748ca6e76c0b4c6cfb241

     atomic species   valence    mass     pseudopotential
        Nb1           13.00    92.90637     Nb( 1.00)
        Tc1           15.00    97.90721     Tc( 1.00)

     16 Sym. Ops., with inversion, found

   Cartesian axes

     site n.     atom                  positions (alat units)
         1           Nb1 tau(   1) = (   0.0000000   0.0000000   0.0000000  )
         2           Nb1 tau(   2) = (   2.2598866   2.2598866   0.0000000  )
         3           Tc1 tau(   3) = (   2.2598866   0.0000000   1.5768598  )
         4           Tc1 tau(   4) = (   0.0000000   2.2598866   1.5768598  )

     number of k points=    75  Fermi-Dirac smearing, width (Ry)=  0.0073
                       cart. coord. in units 2pi/alat
        k(    1) = (   0.0000000   0.0000000   0.0000000), wk =   0.0027435
        k(    2) = (   0.0000000   0.0000000   0.0352318), wk =   0.0054870
        k(    3) = (   0.0000000   0.0000000   0.0704635), wk =   0.0054870
        k(    4) = (   0.0000000   0.0000000   0.1056953), wk =   0.0054870
        k(    5) = (   0.0000000   0.0000000   0.1409271), wk =   0.0054870
        k(    6) = (   0.0000000   0.0245833   0.0000000), wk =   0.0109739
        k(    7) = (   0.0000000   0.0245833   0.0352318), wk =   0.0219479
        k(    8) = (   0.0000000   0.0245833   0.0704635), wk =   0.0219479
        k(    9) = (   0.0000000   0.0245833   0.1056953), wk =   0.0219479
        k(   10) = (   0.0000000   0.0245833   0.1409271), wk =   0.0219479
        k(   11) = (   0.0000000   0.0491667   0.0000000), wk =   0.0109739
        k(   12) = (   0.0000000   0.0491667   0.0352318), wk =   0.0219479
        k(   13) = (   0.0000000   0.0491667   0.0704635), wk =   0.0219479
        k(   14) = (   0.0000000   0.0491667   0.1056953), wk =   0.0219479
        k(   15) = (   0.0000000   0.0491667   0.1409271), wk =   0.0219479
        k(   16) = (   0.0000000   0.0737500   0.0000000), wk =   0.0109739
        k(   17) = (   0.0000000   0.0737500   0.0352318), wk =   0.0219479
        k(   18) = (   0.0000000   0.0737500   0.0704635), wk =   0.0219479
        k(   19) = (   0.0000000   0.0737500   0.1056953), wk =   0.0219479
        k(   20) = (   0.0000000   0.0737500   0.1409271), wk =   0.0219479
        k(   21) = (   0.0000000   0.0983334   0.0000000), wk =   0.0109739
        k(   22) = (   0.0000000   0.0983334   0.0352318), wk =   0.0219479
        k(   23) = (   0.0000000   0.0983334   0.0704635), wk =   0.0219479
        k(   24) = (   0.0000000   0.0983334   0.1056953), wk =   0.0219479
        k(   25) = (   0.0000000   0.0983334   0.1409271), wk =   0.0219479
        k(   26) = (   0.0245833   0.0245833   0.0000000), wk =   0.0109739
        k(   27) = (   0.0245833   0.0245833   0.0352318), wk =   0.0219479
        k(   28) = (   0.0245833   0.0245833   0.0704635), wk =   0.0219479
        k(   29) = (   0.0245833   0.0245833   0.1056953), wk =   0.0219479
        k(   30) = (   0.0245833   0.0245833   0.1409271), wk =   0.0219479
        k(   31) = (   0.0245833   0.0491667   0.0000000), wk =   0.0219479
        k(   32) = (   0.0245833   0.0491667   0.0352318), wk =   0.0438957
        k(   33) = (   0.0245833   0.0491667   0.0704635), wk =   0.0438957
        k(   34) = (   0.0245833   0.0491667   0.1056953), wk =   0.0438957
        k(   35) = (   0.0245833   0.0491667   0.1409271), wk =   0.0438957
        k(   36) = (   0.0245833   0.0737500   0.0000000), wk =   0.0219479
        k(   37) = (   0.0245833   0.0737500   0.0352318), wk =   0.0438957
        k(   38) = (   0.0245833   0.0737500   0.0704635), wk =   0.0438957
        k(   39) = (   0.0245833   0.0737500   0.1056953), wk =   0.0438957
        k(   40) = (   0.0245833   0.0737500   0.1409271), wk =   0.0438957
        k(   41) = (   0.0245833   0.0983334   0.0000000), wk =   0.0219479
        k(   42) = (   0.0245833   0.0983334   0.0352318), wk =   0.0438957
        k(   43) = (   0.0245833   0.0983334   0.0704635), wk =   0.0438957
        k(   44) = (   0.0245833   0.0983334   0.1056953), wk =   0.0438957
        k(   45) = (   0.0245833   0.0983334   0.1409271), wk =   0.0438957
        k(   46) = (   0.0491667   0.0491667   0.0000000), wk =   0.0109739
        k(   47) = (   0.0491667   0.0491667   0.0352318), wk =   0.0219479
        k(   48) = (   0.0491667   0.0491667   0.0704635), wk =   0.0219479
        k(   49) = (   0.0491667   0.0491667   0.1056953), wk =   0.0219479
        k(   50) = (   0.0491667   0.0491667   0.1409271), wk =   0.0219479
        k(   51) = (   0.0491667   0.0737500   0.0000000), wk =   0.0219479
        k(   52) = (   0.0491667   0.0737500   0.0352318), wk =   0.0438957
        k(   53) = (   0.0491667   0.0737500   0.0704635), wk =   0.0438957
        k(   54) = (   0.0491667   0.0737500   0.1056953), wk =   0.0438957
        k(   55) = (   0.0491667   0.0737500   0.1409271), wk =   0.0438957
        k(   56) = (   0.0491667   0.0983334   0.0000000), wk =   0.0219479
        k(   57) = (   0.0491667   0.0983334   0.0352318), wk =   0.0438957
        k(   58) = (   0.0491667   0.0983334   0.0704635), wk =   0.0438957
        k(   59) = (   0.0491667   0.0983334   0.1056953), wk =   0.0438957
        k(   60) = (   0.0491667   0.0983334   0.1409271), wk =   0.0438957
        k(   61) = (   0.0737500   0.0737500   0.0000000), wk =   0.0109739
        k(   62) = (   0.0737500   0.0737500   0.0352318), wk =   0.0219479
        k(   63) = (   0.0737500   0.0737500   0.0704635), wk =   0.0219479
        k(   64) = (   0.0737500   0.0737500   0.1056953), wk =   0.0219479
        k(   65) = (   0.0737500   0.0737500   0.1409271), wk =   0.0219479
        k(   66) = (   0.0737500   0.0983334   0.0000000), wk =   0.0219479
        k(   67) = (   0.0737500   0.0983334   0.0352318), wk =   0.0438957
        k(   68) = (   0.0737500   0.0983334   0.0704635), wk =   0.0438957
        k(   69) = (   0.0737500   0.0983334   0.1056953), wk =   0.0438957
        k(   70) = (   0.0737500   0.0983334   0.1409271), wk =   0.0438957
        k(   71) = (   0.0983334   0.0983334   0.0000000), wk =   0.0109739
        k(   72) = (   0.0983334   0.0983334   0.0352318), wk =   0.0219479
        k(   73) = (   0.0983334   0.0983334   0.0704635), wk =   0.0219479
        k(   74) = (   0.0983334   0.0983334   0.1056953), wk =   0.0219479
        k(   75) = (   0.0983334   0.0983334   0.1409271), wk =   0.0219479

     Largest allocated arrays     est. size (Mb)     dimensions
     Largest temporary arrays     est. size (Mb)     dimensions

     Check: negative/imaginary core charge=   -0.000007    0.000000

     Initial potential from superposition of free atoms
     Check: negative starting charge=   -0.248697

     starting charge   53.99448, renormalised to   56.00000

     negative rho (up, down):  2.579E-01 0.000E+00

     *
     * You are using vdW-DF for exchange-correlation in this calculation.
     * Please cite the following three references that made this development
     * possible:
     *
     *   M. Dion, H. Rydberg, E. Schroder, D. C. Langreth, and
     *   B. I. Lundqvist, Phys. Rev. Lett. 92, 246401 (2004).
     *
     *   T. Thonhauser, V. R. Cooper, S. Li, A. Puzder, P. Hyldgaard, and
     *   D. C. Langreth, Phys. Rev. B 76, 125112 (2007).
     *
     *   G. Roman-Perez and J. M. Soler, Phys. Rev. Lett. 103, 096102 (2009).
     *
     *
     * If you are using vdW-DF2, please also cite:
     *
     *   K. Lee, E. D. Murray, L. Kong, B. I. Lundqvist, and
     *   D. C. Langreth, Phys. Rev. B 82, 081101(R) (2010).
     *
     *
     * If you are calculating the stress with vdW-DF, please also cite:
     *
     *   R. Sabatini, E. Kucukbenli, B. Kolb, T. Thonhauser, and
     *   S. de Gironcoli, J. Phys.: Condens. Matter 24, 424209 (2012).
     *

     Carrying out vdW-DF run using the following parameters:

     Nqs =      20    Nr_points =    1024   r_max =   100.000
     q_mesh =
               0.00001000     0.04494208     0.09755937     0.15916263
               0.23128650     0.31572767     0.41458969     0.53033537
               0.66584808     0.82450364     1.01025438     1.22772762
               1.48234092     1.78043706     2.12944203     2.53805004
               3.01644009     3.57652955     4.23227104     5.00000000

     Gradients computed in reciprocal space

     Starting wfc are   52 randomized atomic wfcs

     Self-consistent Calculation

     iteration #  1     ecut=    58.80 Ry     beta=0.10
     Davidson diagonalization with overlap
     ethr =  1.00E-02,  avg # of iterations =  4.6

[...]

     total energy              =    -588.25038395 Ry
     Harris-Foulkes estimate   =    -588.43555950 Ry
     estimated scf accuracy    <       1.36741540 Ry

[...]

     total energy              =    -587.92803962 Ry
     Harris-Foulkes estimate   =    -587.92804093 Ry
     estimated scf accuracy    <       0.00000345 Ry

     iteration # 23     ecut=    58.80 Ry     beta=0.10
     Davidson diagonalization with overlap
     ethr =  6.17E-09,  avg # of iterations =  2.0

     negative rho (up, down):  2.604E-01 0.000E+00

     End of self-consistent calculation

          k = 0.0000 0.0000 0.0000 (  3347 PWs)   bands (ev):

   -46.7033 -46.6815 -35.1198 -35.0689 -18.8282 -18.8282 -18.6796 -18.6796
   -18.6557 -18.6149 -11.2111 -11.2111 -10.9476 -10.9476 -10.9261 -10.8982
    13.3752  15.1891  15.2226  15.2378  15.3758  17.2173  17.2173  18.8714
    19.0106  19.0106  21.4566  21.4630  21.9032  21.9032  21.9283  22.1144
    22.2593  23.8021  24.4134  24.4134  24.4462  24.9728  24.9728  29.1909
    29.1909  29.5387  31.5580  31.8272  32.3203  32.3203  35.0336  35.0336

[...]

          k = 0.0983 0.0983 0.1409 (  3303 PWs)   bands (ev):

   -46.6803 -46.6797 -35.0659 -35.0642 -18.8228 -18.8204 -18.8184 -18.8173
   -18.6401 -18.6361 -11.2277 -11.2253 -11.2118 -11.2026 -10.9282 -10.9189
    15.2885  15.3170  15.4408  15.4628  17.1036  17.1092  17.1114  17.1920
    20.7341  20.9941  21.2646  21.5422  21.5497  21.9185  22.2992  22.3080
    22.4060  22.4095  24.0018  24.3134  24.7081  24.9733  25.1670  25.1962
    31.6887  31.6939  31.9229  32.1530  32.4420  32.4690  32.5857  32.7770

     the Fermi energy is    20.3262 ev

!    total energy              =    -587.92804007 Ry
     Harris-Foulkes estimate   =    -587.92804031 Ry
     estimated scf accuracy    <       0.00000068 Ry

     The total energy is the sum of the following terms:

     one-electron contribution =     -85.32029309 Ry
     hartree contribution      =      77.88727314 Ry
     xc contribution           =    -104.62269164 Ry
     ewald contribution        =    -475.86903844 Ry
     smearing contrib. (-TS)   =      -0.00329005 Ry

     convergence has been achieved in  23 iterations

     Forces acting on atoms (Ry/au):

     negative rho (up, down):  2.604E-01 0.000E+00
     atom    1 type  1   force =     0.00000000    0.00000000    0.00000000
     atom    2 type  1   force =     0.00000000    0.00000000    0.00000000
     atom    3 type  2   force =     0.00000000    0.00000000    0.00000000
     atom    4 type  2   force =     0.00000000    0.00000000    0.00000000

     Total force =     0.000000     Total SCF correction =     0.000000

     General routines

     Parallel routines

   This run was terminated on:  21:11:28  14Nov2017

   JOB DONE.