     Program PWSCF v.5.1rc2 starts on 14Nov2017 at  1:29:14

     Current dimensions of program PWSCF are:
     Max number of different atomic species (ntypx) = 10
     Max number of k-points (npk) =  40000
     Max angular momentum in pseudopotentials (lmaxx) =  3

     IMPORTANT: XC functional enforced from input :
     Exchange-correlation      = BEEF-VDW ( 1  4 27 13 2)
     Any further DFT definition will be discarded
     Please, verify this is what you really want

     Found symmetry operation: I + ( -0.5000 -0.5000  0.0000)
     This is a supercell, fractional translations are disabled

     bravais-lattice index     =            0
     lattice parameter (alat)  =       1.8897  a.u.
     unit-cell volume          =     688.8434 (a.u.)^3
     number of atoms/cell      =            4
     number of atomic types    =            2
     number of electrons       =        32.00
     number of Kohn-Sham states=           36
     kinetic-energy cutoff     =      58.7989  Ry
     charge density cutoff     =     587.9892  Ry
     convergence threshold     =      1.0E-06
     mixing beta               =       0.1000
     number of iterations used =           10  plain     mixing
     Exchange-correlation      = BEEF-VDW ( 1  4 27 13 2)

     celldm(1)=   1.889726  celldm(2)=   0.000000  celldm(3)=   0.000000
     celldm(4)=   0.000000  celldm(5)=   0.000000  celldm(6)=   0.000000

     crystal axes: (cart. coord. in units of alat)
               a(1) = (   4.936276   0.000000   0.000000 )
               a(2) = (   0.000000   4.936276   0.000000 )
               a(3) = (   0.000000   0.000000   4.189142 )

     reciprocal axes: (cart. coord. in units 2 pi/alat)
               b(1) = (  0.202582  0.000000  0.000000 )
               b(2) = (  0.000000  0.202582  0.000000 )
               b(3) = (  0.000000  0.000000  0.238712 )

     PseudoPot. # 1 for Al read from file:
     /home/users/vossj/suncat/psp/gbrv1.5pbe/Al.UPF
     MD5 check sum: 0a6289f5291fc8f409219462bc851e1f
     Pseudo is Ultrasoft + core correction, Zval =  3.0
     Generated by new atomic code, or converted to UPF format
     Using radial grid of  893 points,  3 beta functions with:
                l(1) =   0
                l(2) =   1
                l(3) =   2
     Q(r) pseudized with  8 coefficients,  rinner =    0.900   0.900   0.900
                                                       0.900   0.900

     PseudoPot. # 2 for Tl read from file:
     /home/users/vossj/suncat/psp/gbrv1.5pbe/Tl.UPF
     MD5 check sum: b76cf1f7e72655a2b2c53cf6385d7059
     Pseudo is Ultrasoft + core correction, Zval = 13.0
     Generated by new atomic code, or converted to UPF format
     Using radial grid of  899 points,  6 beta functions with:
                l(1) =   0
                l(2) =   0
                l(3) =   1
                l(4) =   1
                l(5) =   2
                l(6) =   2
     Q(r) pseudized with  6 coefficients,  rinner =    1.100   1.100   1.100
                                                       1.100   1.100

     vdW kernel table read from file vdW_kernel_table
     MD5 check sum: 095c7af220d748ca6e76c0b4c6cfb241

     atomic species   valence    mass     pseudopotential
        Al1            3.00    26.98154     Al( 1.00)
        Tl1           13.00   204.38300     Tl( 1.00)

     16 Sym. Ops., with inversion, found

   Cartesian axes

     site n.     atom                  positions (alat units)
         1           Al1 tau(   1) = (   0.0000000   0.0000000   0.0000000  )
         2           Al1 tau(   2) = (   2.4681379   2.4681379   0.0000000  )
         3           Tl1 tau(   3) = (   2.4681379   0.0000000   2.0945708  )
         4           Tl1 tau(   4) = (   0.0000000   2.4681379   2.0945708  )

     number of k points=    75  Fermi-Dirac smearing, width (Ry)=  0.0073
                       cart. coord. in units 2pi/alat
        k(    1) = (   0.0000000   0.0000000   0.0000000), wk =   0.0027435
        k(    2) = (   0.0000000   0.0000000   0.0265236), wk =   0.0054870
        k(    3) = (   0.0000000   0.0000000   0.0530472), wk =   0.0054870
        k(    4) = (   0.0000000   0.0000000   0.0795708), wk =   0.0054870
        k(    5) = (   0.0000000   0.0000000   0.1060944), wk =   0.0054870
        k(    6) = (   0.0000000   0.0225091   0.0000000), wk =   0.0109739
        k(    7) = (   0.0000000   0.0225091   0.0265236), wk =   0.0219479
        k(    8) = (   0.0000000   0.0225091   0.0530472), wk =   0.0219479
        k(    9) = (   0.0000000   0.0225091   0.0795708), wk =   0.0219479
        k(   10) = (   0.0000000   0.0225091   0.1060944), wk =   0.0219479
        k(   11) = (   0.0000000   0.0450182   0.0000000), wk =   0.0109739
        k(   12) = (   0.0000000   0.0450182   0.0265236), wk =   0.0219479
        k(   13) = (   0.0000000   0.0450182   0.0530472), wk =   0.0219479
        k(   14) = (   0.0000000   0.0450182   0.0795708), wk =   0.0219479
        k(   15) = (   0.0000000   0.0450182   0.1060944), wk =   0.0219479
        k(   16) = (   0.0000000   0.0675273   0.0000000), wk =   0.0109739
        k(   17) = (   0.0000000   0.0675273   0.0265236), wk =   0.0219479
        k(   18) = (   0.0000000   0.0675273   0.0530472), wk =   0.0219479
        k(   19) = (   0.0000000   0.0675273   0.0795708), wk =   0.0219479
        k(   20) = (   0.0000000   0.0675273   0.1060944), wk =   0.0219479
        k(   21) = (   0.0000000   0.0900364   0.0000000), wk =   0.0109739
        k(   22) = (   0.0000000   0.0900364   0.0265236), wk =   0.0219479
        k(   23) = (   0.0000000   0.0900364   0.0530472), wk =   0.0219479
        k(   24) = (   0.0000000   0.0900364   0.0795708), wk =   0.0219479
        k(   25) = (   0.0000000   0.0900364   0.1060944), wk =   0.0219479
        k(   26) = (   0.0225091   0.0225091   0.0000000), wk =   0.0109739
        k(   27) = (   0.0225091   0.0225091   0.0265236), wk =   0.0219479
        k(   28) = (   0.0225091   0.0225091   0.0530472), wk =   0.0219479
        k(   29) = (   0.0225091   0.0225091   0.0795708), wk =   0.0219479
        k(   30) = (   0.0225091   0.0225091   0.1060944), wk =   0.0219479
        k(   31) = (   0.0225091   0.0450182   0.0000000), wk =   0.0219479
        k(   32) = (   0.0225091   0.0450182   0.0265236), wk =   0.0438957
        k(   33) = (   0.0225091   0.0450182   0.0530472), wk =   0.0438957
        k(   34) = (   0.0225091   0.0450182   0.0795708), wk =   0.0438957
        k(   35) = (   0.0225091   0.0450182   0.1060944), wk =   0.0438957
        k(   36) = (   0.0225091   0.0675273   0.0000000), wk =   0.0219479
        k(   37) = (   0.0225091   0.0675273   0.0265236), wk =   0.0438957
        k(   38) = (   0.0225091   0.0675273   0.0530472), wk =   0.0438957
        k(   39) = (   0.0225091   0.0675273   0.0795708), wk =   0.0438957
        k(   40) = (   0.0225091   0.0675273   0.1060944), wk =   0.0438957
        k(   41) = (   0.0225091   0.0900364   0.0000000), wk =   0.0219479
        k(   42) = (   0.0225091   0.0900364   0.0265236), wk =   0.0438957
        k(   43) = (   0.0225091   0.0900364   0.0530472), wk =   0.0438957
        k(   44) = (   0.0225091   0.0900364   0.0795708), wk =   0.0438957
        k(   45) = (   0.0225091   0.0900364   0.1060944), wk =   0.0438957
        k(   46) = (   0.0450182   0.0450182   0.0000000), wk =   0.0109739
        k(   47) = (   0.0450182   0.0450182   0.0265236), wk =   0.0219479
        k(   48) = (   0.0450182   0.0450182   0.0530472), wk =   0.0219479
        k(   49) = (   0.0450182   0.0450182   0.0795708), wk =   0.0219479
        k(   50) = (   0.0450182   0.0450182   0.1060944), wk =   0.0219479
        k(   51) = (   0.0450182   0.0675273   0.0000000), wk =   0.0219479
        k(   52) = (   0.0450182   0.0675273   0.0265236), wk =   0.0438957
        k(   53) = (   0.0450182   0.0675273   0.0530472), wk =   0.0438957
        k(   54) = (   0.0450182   0.0675273   0.0795708), wk =   0.0438957
        k(   55) = (   0.0450182   0.0675273   0.1060944), wk =   0.0438957
        k(   56) = (   0.0450182   0.0900364   0.0000000), wk =   0.0219479
        k(   57) = (   0.0450182   0.0900364   0.0265236), wk =   0.0438957
        k(   58) = (   0.0450182   0.0900364   0.0530472), wk =   0.0438957
        k(   59) = (   0.0450182   0.0900364   0.0795708), wk =   0.0438957
        k(   60) = (   0.0450182   0.0900364   0.1060944), wk =   0.0438957
        k(   61) = (   0.0675273   0.0675273   0.0000000), wk =   0.0109739
        k(   62) = (   0.0675273   0.0675273   0.0265236), wk =   0.0219479
        k(   63) = (   0.0675273   0.0675273   0.0530472), wk =   0.0219479
        k(   64) = (   0.0675273   0.0675273   0.0795708), wk =   0.0219479
        k(   65) = (   0.0675273   0.0675273   0.1060944), wk =   0.0219479
        k(   66) = (   0.0675273   0.0900364   0.0000000), wk =   0.0219479
        k(   67) = (   0.0675273   0.0900364   0.0265236), wk =   0.0438957
        k(   68) = (   0.0675273   0.0900364   0.0530472), wk =   0.0438957
        k(   69) = (   0.0675273   0.0900364   0.0795708), wk =   0.0438957
        k(   70) = (   0.0675273   0.0900364   0.1060944), wk =   0.0438957
        k(   71) = (   0.0900364   0.0900364   0.0000000), wk =   0.0109739
        k(   72) = (   0.0900364   0.0900364   0.0265236), wk =   0.0219479
        k(   73) = (   0.0900364   0.0900364   0.0530472), wk =   0.0219479
        k(   74) = (   0.0900364   0.0900364   0.0795708), wk =   0.0219479
        k(   75) = (   0.0900364   0.0900364   0.1060944), wk =   0.0219479

     Largest allocated arrays     est. size (Mb)     dimensions
     Largest temporary arrays     est. size (Mb)     dimensions

     Initial potential from superposition of free atoms
     Check: negative starting charge=   -0.100817

     starting charge   31.98534, renormalised to   32.00000

     negative rho (up, down):  1.009E-01 0.000E+00

     *
     * You are using vdW-DF for exchange-correlation in this calculation.
     * Please cite the following three references that made this development
     * possible:
     *
     *   M. Dion, H. Rydberg, E. Schroder, D. C. Langreth, and
     *   B. I. Lundqvist, Phys. Rev. Lett. 92, 246401 (2004).
     *
     *   T. Thonhauser, V. R. Cooper, S. Li, A. Puzder, P. Hyldgaard, and
     *   D. C. Langreth, Phys. Rev. B 76, 125112 (2007).
     *
     *   G. Roman-Perez and J. M. Soler, Phys. Rev. Lett. 103, 096102 (2009).
     *
     *
     * If you are using vdW-DF2, please also cite:
     *
     *   K. Lee, E. D. Murray, L. Kong, B. I. Lundqvist, and
     *   D. C. Langreth, Phys. Rev. B 82, 081101(R) (2010).
     *
     *
     * If you are calculating the stress with vdW-DF, please also cite:
     *
     *   R. Sabatini, E. Kucukbenli, B. Kolb, T. Thonhauser, and
     *   S. de Gironcoli, J. Phys.: Condens. Matter 24, 424209 (2012).
     *

     Carrying out vdW-DF run using the following parameters:

     Nqs =      20    Nr_points =    1024   r_max =   100.000
     q_mesh =
               0.00001000     0.04494208     0.09755937     0.15916263
               0.23128650     0.31572767     0.41458969     0.53033537
               0.66584808     0.82450364     1.01025438     1.22772762
               1.48234092     1.78043706     2.12944203     2.53805004
               3.01644009     3.57652955     4.23227104     5.00000000

     Gradients computed in reciprocal space

     Starting wfc are   26 randomized atomic wfcs +   10 random wfc

     Self-consistent Calculation

     iteration #  1     ecut=    58.80 Ry     beta=0.10
     Davidson diagonalization with overlap
     ethr =  1.00E-02,  avg # of iterations =  5.5

     Threshold (ethr) on eigenvalues was too large:
     Diagonalizing with lowered threshold

     Davidson diagonalization with overlap
     ethr =  2.87E-05,  avg # of iterations =  3.9

[...]

     total energy              =    -307.28037992 Ry
     Harris-Foulkes estimate   =    -307.27854891 Ry
     estimated scf accuracy    <       0.00901975 Ry

[...]

     total energy              =    -307.28564254 Ry
     Harris-Foulkes estimate   =    -307.28511952 Ry
     estimated scf accuracy    <       0.00000518 Ry

     iteration #  7     ecut=    58.80 Ry     beta=0.10
     Davidson diagonalization with overlap
     ethr =  1.62E-08,  avg # of iterations =  2.0

     negative rho (up, down):  1.070E-01 0.000E+00

     End of self-consistent calculation

          k = 0.0000 0.0000 0.0000 (  5239 PWs)   bands (ev):

    -3.8444  -3.7981  -3.6916  -3.5935  -3.5935  -3.4520  -3.4328  -3.4328
    -3.3700  -3.1840  -1.5785   3.7486   5.6183   5.6183   5.8466   7.4270
     7.4506  10.8128  10.8128  11.9161  13.4959  13.6895  13.6895  13.7262
    13.7750  15.9293  15.9558  15.9558  16.1156  18.3179  18.7262  18.7262
    20.4203  20.4203  20.9008  22.7719

[...]

          k = 0.0900 0.0900 0.1061 (  5214 PWs)   bands (ev):

    -3.7479  -3.7426  -3.6982  -3.6821  -3.5259  -3.5135  -3.4492  -3.4427
    -3.3180  -3.3065   2.2812   2.5244   4.1840   4.3742   5.1359   5.1976
     5.4626   5.9510  13.6699  13.9748  15.3762  15.9193  15.9554  16.0990
    16.3574  16.6113  17.4855  17.5662  18.2663  18.7290  19.0921  19.1153
    19.5025  20.0241  20.5615  20.8706

     the Fermi energy is     8.1265 ev

!    total energy              =    -307.28771889 Ry
     Harris-Foulkes estimate   =    -307.28564370 Ry
     estimated scf accuracy    <       0.00000047 Ry

     The total energy is the sum of the following terms:

     one-electron contribution =     -66.47557362 Ry
     hartree contribution      =      56.90743538 Ry
     xc contribution           =    -136.71739420 Ry
     ewald contribution        =    -160.99808818 Ry
     smearing contrib. (-TS)   =      -0.00409826 Ry

     convergence has been achieved in   7 iterations

     Forces acting on atoms (Ry/au):

     negative rho (up, down):  1.070E-01 0.000E+00
     atom    1 type  1   force =     0.00000000    0.00000000    0.00000000
     atom    2 type  1   force =     0.00000000    0.00000000    0.00000000
     atom    3 type  2   force =     0.00000000    0.00000000    0.00000000
     atom    4 type  2   force =     0.00000000    0.00000000    0.00000000

     Total force =     0.000000     Total SCF correction =     0.000000

     General routines

     Parallel routines

   This run was terminated on:   1:29:42  14Nov2017

   JOB DONE.