     Program PWSCF v.5.1rc2 (svn rev. ) starts on 14Nov2017 at 21: 0: 4

     Current dimensions of program PWSCF are:
     Max number of different atomic species (ntypx) = 10
     Max number of k-points (npk) =  40000
     Max angular momentum in pseudopotentials (lmaxx) =  3

     IMPORTANT: XC functional enforced from input :
     Exchange-correlation      = BEEF-VDW ( 1  4 27 13 2)
     Any further DFT definition will be discarded
     Please, verify this is what you really want

     Subspace diagonalization in iterative solution of the eigenvalue problem:
     a serial algorithm will be used

     Found symmetry operation: I + ( -0.5000 -0.5000  0.0000)
     This is a supercell, fractional translations are disabled

     bravais-lattice index     =            0
     lattice parameter (alat)  =       1.8897  a.u.
     unit-cell volume          =     454.2994 (a.u.)^3
     number of atoms/cell      =            4
     number of atomic types    =            2
     number of electrons       =        52.00
     number of Kohn-Sham states=           46
     kinetic-energy cutoff     =      58.7989  Ry
     charge density cutoff     =     587.9892  Ry
     convergence threshold     =      1.0E-06
     mixing beta               =       0.1000
     number of iterations used =           10  plain     mixing
     Exchange-correlation      = BEEF-VDW ( 1  4 27 13 2)

     celldm(1)=   1.889726  celldm(2)=   0.000000  celldm(3)=   0.000000
     celldm(4)=   0.000000  celldm(5)=   0.000000  celldm(6)=   0.000000

     crystal axes: (cart. coord. in units of alat)
               a(1) = (   4.620291   0.000000   0.000000 )
               a(2) = (   0.000000   4.620291   0.000000 )
               a(3) = (   0.000000   0.000000   3.153603 )

     reciprocal axes: (cart. coord. in units 2 pi/alat)
               b(1) = (  0.216437  0.000000  0.000000 )
               b(2) = (  0.000000  0.216437  0.000000 )
               b(3) = (  0.000000  0.000000  0.317098 )

     PseudoPot. # 1 for Sc read from file:
     /home/vossj/suncat/psp/gbrv1.5pbe/Sc.UPF
     MD5 check sum: db30a2753ba66ef00f23801d899b7e7f
     Pseudo is Ultrasoft + core correction, Zval = 11.0
     Generated by new atomic code, or converted to UPF format
     Using radial grid of  849 points,  6 beta functions with:
                l(1) =   0
                l(2) =   0
                l(3) =   1
                l(4) =   1
                l(5) =   2
                l(6) =   2
     Q(r) pseudized with  6 coefficients,  rinner =    1.200   1.200   1.200
                                                       1.200   1.200

     PseudoPot. # 2 for Tc read from file:
     /home/vossj/suncat/psp/gbrv1.5pbe/Tc.UPF
     MD5 check sum: 9eb49e5b028550b2339a02317eb7b844
     Pseudo is Ultrasoft + core correction, Zval = 15.0
     Generated by new atomic code, or converted to UPF format
     Using radial grid of  965 points,  6 beta functions with:
                l(1) =   0
                l(2) =   0
                l(3) =   1
                l(4) =   1
                l(5) =   2
                l(6) =   2
     Q(r) pseudized with  8 coefficients,  rinner =    1.300   1.300   1.300
                                                       1.300   1.300

     vdW kernel table read from file vdW_kernel_table
     MD5 check sum: 095c7af220d748ca6e76c0b4c6cfb241

     atomic species   valence    mass     pseudopotential
        Sc1           11.00    44.95591     Sc( 1.00)
        Tc1           15.00    97.90721     Tc( 1.00)

     16 Sym. Ops., with inversion, found

   Cartesian axes

     site n.     atom                  positions (alat units)
         1           Sc1 tau(   1) = (   0.0000000   0.0000000   0.0000000  )
         2           Sc1 tau(   2) = (   2.3101453   2.3101453   0.0000000  )
         3           Tc1 tau(   3) = (   2.3101453   0.0000000   1.5768014  )
         4           Tc1 tau(   4) = (   0.0000000   2.3101453   1.5768014  )

     number of k points=    75  Fermi-Dirac smearing, width (Ry)=  0.0073
                       cart. coord. in units 2pi/alat
        k(    1) = (   0.0000000   0.0000000   0.0000000), wk =   0.0027435
        k(    2) = (   0.0000000   0.0000000   0.0352331), wk =   0.0054870
        k(    3) = (   0.0000000   0.0000000   0.0704661), wk =   0.0054870
        k(    4) = (   0.0000000   0.0000000   0.1056992), wk =   0.0054870
        k(    5) = (   0.0000000   0.0000000   0.1409323), wk =   0.0054870
        k(    6) = (   0.0000000   0.0240485   0.0000000), wk =   0.0109739
        k(    7) = (   0.0000000   0.0240485   0.0352331), wk =   0.0219479
        k(    8) = (   0.0000000   0.0240485   0.0704661), wk =   0.0219479
        k(    9) = (   0.0000000   0.0240485   0.1056992), wk =   0.0219479
        k(   10) = (   0.0000000   0.0240485   0.1409323), wk =   0.0219479
        k(   11) = (   0.0000000   0.0480970   0.0000000), wk =   0.0109739
        k(   12) = (   0.0000000   0.0480970   0.0352331), wk =   0.0219479
        k(   13) = (   0.0000000   0.0480970   0.0704661), wk =   0.0219479
        k(   14) = (   0.0000000   0.0480970   0.1056992), wk =   0.0219479
        k(   15) = (   0.0000000   0.0480970   0.1409323), wk =   0.0219479
        k(   16) = (   0.0000000   0.0721455   0.0000000), wk =   0.0109739
        k(   17) = (   0.0000000   0.0721455   0.0352331), wk =   0.0219479
        k(   18) = (   0.0000000   0.0721455   0.0704661), wk =   0.0219479
        k(   19) = (   0.0000000   0.0721455   0.1056992), wk =   0.0219479
        k(   20) = (   0.0000000   0.0721455   0.1409323), wk =   0.0219479
        k(   21) = (   0.0000000   0.0961940   0.0000000), wk =   0.0109739
        k(   22) = (   0.0000000   0.0961940   0.0352331), wk =   0.0219479
        k(   23) = (   0.0000000   0.0961940   0.0704661), wk =   0.0219479
        k(   24) = (   0.0000000   0.0961940   0.1056992), wk =   0.0219479
        k(   25) = (   0.0000000   0.0961940   0.1409323), wk =   0.0219479
        k(   26) = (   0.0240485   0.0240485   0.0000000), wk =   0.0109739
        k(   27) = (   0.0240485   0.0240485   0.0352331), wk =   0.0219479
        k(   28) = (   0.0240485   0.0240485   0.0704661), wk =   0.0219479
        k(   29) = (   0.0240485   0.0240485   0.1056992), wk =   0.0219479
        k(   30) = (   0.0240485   0.0240485   0.1409323), wk =   0.0219479
        k(   31) = (   0.0240485   0.0480970   0.0000000), wk =   0.0219479
        k(   32) = (   0.0240485   0.0480970   0.0352331), wk =   0.0438957
        k(   33) = (   0.0240485   0.0480970   0.0704661), wk =   0.0438957
        k(   34) = (   0.0240485   0.0480970   0.1056992), wk =   0.0438957
        k(   35) = (   0.0240485   0.0480970   0.1409323), wk =   0.0438957
        k(   36) = (   0.0240485   0.0721455   0.0000000), wk =   0.0219479
        k(   37) = (   0.0240485   0.0721455   0.0352331), wk =   0.0438957
        k(   38) = (   0.0240485   0.0721455   0.0704661), wk =   0.0438957
        k(   39) = (   0.0240485   0.0721455   0.1056992), wk =   0.0438957
        k(   40) = (   0.0240485   0.0721455   0.1409323), wk =   0.0438957
        k(   41) = (   0.0240485   0.0961940   0.0000000), wk =   0.0219479
        k(   42) = (   0.0240485   0.0961940   0.0352331), wk =   0.0438957
        k(   43) = (   0.0240485   0.0961940   0.0704661), wk =   0.0438957
        k(   44) = (   0.0240485   0.0961940   0.1056992), wk =   0.0438957
        k(   45) = (   0.0240485   0.0961940   0.1409323), wk =   0.0438957
        k(   46) = (   0.0480970   0.0480970   0.0000000), wk =   0.0109739
        k(   47) = (   0.0480970   0.0480970   0.0352331), wk =   0.0219479
        k(   48) = (   0.0480970   0.0480970   0.0704661), wk =   0.0219479
        k(   49) = (   0.0480970   0.0480970   0.1056992), wk =   0.0219479
        k(   50) = (   0.0480970   0.0480970   0.1409323), wk =   0.0219479
        k(   51) = (   0.0480970   0.0721455   0.0000000), wk =   0.0219479
        k(   52) = (   0.0480970   0.0721455   0.0352331), wk =   0.0438957
        k(   53) = (   0.0480970   0.0721455   0.0704661), wk =   0.0438957
        k(   54) = (   0.0480970   0.0721455   0.1056992), wk =   0.0438957
        k(   55) = (   0.0480970   0.0721455   0.1409323), wk =   0.0438957
        k(   56) = (   0.0480970   0.0961940   0.0000000), wk =   0.0219479
        k(   57) = (   0.0480970   0.0961940   0.0352331), wk =   0.0438957
        k(   58) = (   0.0480970   0.0961940   0.0704661), wk =   0.0438957
        k(   59) = (   0.0480970   0.0961940   0.1056992), wk =   0.0438957
        k(   60) = (   0.0480970   0.0961940   0.1409323), wk =   0.0438957
        k(   61) = (   0.0721455   0.0721455   0.0000000), wk =   0.0109739
        k(   62) = (   0.0721455   0.0721455   0.0352331), wk =   0.0219479
        k(   63) = (   0.0721455   0.0721455   0.0704661), wk =   0.0219479
        k(   64) = (   0.0721455   0.0721455   0.1056992), wk =   0.0219479
        k(   65) = (   0.0721455   0.0721455   0.1409323), wk =   0.0219479
        k(   66) = (   0.0721455   0.0961940   0.0000000), wk =   0.0219479
        k(   67) = (   0.0721455   0.0961940   0.0352331), wk =   0.0438957
        k(   68) = (   0.0721455   0.0961940   0.0704661), wk =   0.0438957
        k(   69) = (   0.0721455   0.0961940   0.1056992), wk =   0.0438957
        k(   70) = (   0.0721455   0.0961940   0.1409323), wk =   0.0438957
        k(   71) = (   0.0961940   0.0961940   0.0000000), wk =   0.0109739
        k(   72) = (   0.0961940   0.0961940   0.0352331), wk =   0.0219479
        k(   73) = (   0.0961940   0.0961940   0.0704661), wk =   0.0219479
        k(   74) = (   0.0961940   0.0961940   0.1056992), wk =   0.0219479
        k(   75) = (   0.0961940   0.0961940   0.1409323), wk =   0.0219479

     Largest allocated arrays     est. size (Mb)     dimensions
     Largest temporary arrays     est. size (Mb)     dimensions

     Check: negative/imaginary core charge=   -0.000008    0.000000

     Initial potential from superposition of free atoms
     Check: negative starting charge=   -0.248118

     starting charge   49.99514, renormalised to   52.00000

     negative rho (up, down):  2.581E-01 0.000E+00

     *
     * You are using vdW-DF for exchange-correlation in this calculation.
     * Please cite the following three references that made this development
     * possible:
     *
     *   M. Dion, H. Rydberg, E. Schroder, D. C. Langreth, and
     *   B. I. Lundqvist, Phys. Rev. Lett. 92, 246401 (2004).
     *
     *   T. Thonhauser, V. R. Cooper, S. Li, A. Puzder, P. Hyldgaard, and
     *   D. C. Langreth, Phys. Rev. B 76, 125112 (2007).
     *
     *   G. Roman-Perez and J. M. Soler, Phys. Rev. Lett. 103, 096102 (2009).
     *
     *
     * If you are using vdW-DF2, please also cite:
     *
     *   K. Lee, E. D. Murray, L. Kong, B. I. Lundqvist, and
     *   D. C. Langreth, Phys. Rev. B 82, 081101(R) (2010).
     *
     *
     * If you are calculating the stress with vdW-DF, please also cite:
     *
     *   R. Sabatini, E. Kucukbenli, B. Kolb, T. Thonhauser, and
     *   S. de Gironcoli, J. Phys.: Condens. Matter 24, 424209 (2012).
     *

     Carrying out vdW-DF run using the following parameters:

     Nqs =      20    Nr_points =    1024   r_max =   100.000
     q_mesh =
               0.00001000     0.04494208     0.09755937     0.15916263
               0.23128650     0.31572767     0.41458969     0.53033537
               0.66584808     0.82450364     1.01025438     1.22772762
               1.48234092     1.78043706     2.12944203     2.53805004
               3.01644009     3.57652955     4.23227104     5.00000000

     Gradients computed in reciprocal space

     Starting wfc are   52 randomized atomic wfcs

     Self-consistent Calculation

     iteration #  1     ecut=    58.80 Ry     beta=0.10
     Davidson diagonalization with overlap
     ethr =  1.00E-02,  avg # of iterations =  4.6

[...]

     total energy              =    -540.54682101 Ry
     Harris-Foulkes estimate   =    -540.76861073 Ry
     estimated scf accuracy    <       1.44883930 Ry

[...]

     total energy              =    -540.35500165 Ry
     Harris-Foulkes estimate   =    -540.35505413 Ry
     estimated scf accuracy    <       0.00021212 Ry

     iteration #  9     ecut=    58.80 Ry     beta=0.10
     Davidson diagonalization with overlap
     ethr =  2.76E-07,  avg # of iterations =  1.0

     negative rho (up, down):  2.530E-01 0.000E+00

     End of self-consistent calculation

          k = 0.0000 0.0000 0.0000 (  3435 PWs)   bands (ev):

   -50.1947 -50.1794 -32.6011 -32.5613 -22.3025 -22.3025 -22.1929 -22.1929
   -22.1765 -22.1527 -11.3064 -11.3064 -11.1195 -11.1195 -11.0901 -11.0643
    10.2282  12.6504  12.6618  12.7130  12.7223  14.7485  14.7485  15.8330
    16.1086  16.1086  17.6689  17.8440  17.8440  18.1288  19.0400  19.4138
    19.4213  20.8358  21.0957  21.0957  21.1548  21.4115  21.4115  25.0537
    25.0537  26.0199  26.1311  27.0607  29.4615  29.4615

[...]

          k = 0.0962 0.0962 0.1409 (  3439 PWs)   bands (ev):

   -50.1755 -50.1751 -32.5523 -32.5510 -22.3310 -22.3306 -22.2952 -22.2922
   -22.1663 -22.1632 -11.3532 -11.3516 -11.2998 -11.2937 -11.0939 -11.0876
    12.6559  12.6687  12.7915  12.8301  14.4169  14.4448  14.4502  14.5149
    17.0740  17.3066  17.6123  17.8740  18.1101  18.5567  18.8537  18.8598
    19.6781  19.7651  21.0143  21.1518  21.2446  21.4374  21.5501  21.5620
    26.4515  26.5166  27.4310  27.5733  29.3177  29.3250

     the Fermi energy is    15.8528 ev

!    total energy              =    -540.35503528 Ry
     Harris-Foulkes estimate   =    -540.35502526 Ry
     estimated scf accuracy    <       0.00000077 Ry

     The total energy is the sum of the following terms:

     one-electron contribution =    -126.77882731 Ry
     hartree contribution      =      89.40887925 Ry
     xc contribution           =     -94.45195813 Ry
     ewald contribution        =    -408.51914162 Ry
     smearing contrib. (-TS)   =      -0.01398747 Ry

     convergence has been achieved in   9 iterations

     Forces acting on atoms (Ry/au):

     negative rho (up, down):  2.530E-01 0.000E+00
     atom    1 type  1   force =     0.00000000    0.00000000    0.00000000
     atom    2 type  1   force =     0.00000000    0.00000000    0.00000000
     atom    3 type  2   force =     0.00000000    0.00000000    0.00000000
     atom    4 type  2   force =     0.00000000    0.00000000    0.00000000

     Total force =     0.000000     Total SCF correction =     0.000000

     General routines

     Parallel routines

   This run was terminated on:  21: 0:37  14Nov2017

   JOB DONE.