     Program PWSCF v.5.1rc2 starts on 14Nov2017 at 15:15:41

     Current dimensions of program PWSCF are:
     Max number of different atomic species (ntypx) = 10
     Max number of k-points (npk) =  40000
     Max angular momentum in pseudopotentials (lmaxx) =  3

     IMPORTANT: XC functional enforced from input :
     Exchange-correlation      = BEEF-VDW ( 1  4 27 13 2)
     Any further DFT definition will be discarded
     Please, verify this is what you really want

     Found symmetry operation: I + ( -0.5000 -0.5000  0.0000)
     This is a supercell, fractional translations are disabled

     Generating pointlists ...
     new r_m :   0.4125 (alat units)  0.7795 (a.u.) for type    1
     new r_m :   0.4125 (alat units)  0.7795 (a.u.) for type    2

     bravais-lattice index     =            0
     lattice parameter (alat)  =       1.8897  a.u.
     unit-cell volume          =     428.1558 (a.u.)^3
     number of atoms/cell      =            4
     number of atomic types    =            2
     number of electrons       =        56.00
     number of Kohn-Sham states=           48
     kinetic-energy cutoff     =      58.7989  Ry
     charge density cutoff     =     587.9892  Ry
     convergence threshold     =      1.0E-06
     mixing beta               =       0.1000
     number of iterations used =           10  plain     mixing
     Exchange-correlation      = BEEF-VDW ( 1  4 27 13 2)

     celldm(1)=   1.889726  celldm(2)=   0.000000  celldm(3)=   0.000000
     celldm(4)=   0.000000  celldm(5)=   0.000000  celldm(6)=   0.000000

     crystal axes: (cart. coord. in units of alat)
               a(1) = (   4.485566   0.000000   0.000000 )
               a(2) = (   0.000000   4.485566   0.000000 )
               a(3) = (   0.000000   0.000000   3.153339 )

     reciprocal axes: (cart. coord. in units 2 pi/alat)
               b(1) = (  0.222937  0.000000  0.000000 )
               b(2) = (  0.000000  0.222937  0.000000 )
               b(3) = (  0.000000  0.000000  0.317124 )

     PseudoPot. # 1 for Fe read from file:
     /home/users/vossj/suncat/psp/gbrv1.5pbe/Fe.UPF
     MD5 check sum: a130daea23fe5165f5d574ae7f82ed95
     Pseudo is Ultrasoft + core correction, Zval = 16.0
     Generated by new atomic code, or converted to UPF format
     Using radial grid of  861 points,  6 beta functions with:
                l(1) =   0
                l(2) =   0
                l(3) =   1
                l(4) =   1
                l(5) =   2
                l(6) =   2
     Q(r) pseudized with  8 coefficients,  rinner =    1.000   1.000   1.000
                                                       1.000   1.000

     PseudoPot. # 2 for Zr read from file:
     /home/users/vossj/suncat/psp/gbrv1.5pbe/Zr.UPF
     MD5 check sum: 5db81b1e868ab7776c4564c113de050b
     Pseudo is Ultrasoft + core correction, Zval = 12.0
     Generated by new atomic code, or converted to UPF format
     Using radial grid of  887 points,  6 beta functions with:
                l(1) =   0
                l(2) =   0
                l(3) =   1
                l(4) =   1
                l(5) =   2
                l(6) =   2
     Q(r) pseudized with  6 coefficients,  rinner =    1.200   1.200   1.200
                                                       1.200   1.200

     vdW kernel table read from file vdW_kernel_table
     MD5 check sum: 095c7af220d748ca6e76c0b4c6cfb241

     atomic species   valence    mass     pseudopotential
        Fe1           16.00    55.84700     Fe( 1.00)
        Zr1           12.00    91.22400     Zr( 1.00)

     Starting magnetic structure
     atomic species   magnetization
        Fe1          0.125
        Zr1          0.167

     16 Sym. Ops., with inversion, found

   Cartesian axes

     site n.     atom                  positions (alat units)
         1           Fe1 tau(   1) = (   0.0000000   0.0000000   0.0000000  )
         2           Fe1 tau(   2) = (   2.2427830   2.2427830   0.0000000  )
         3           Zr1 tau(   3) = (   2.2427830   0.0000000   1.5766697  )
         4           Zr1 tau(   4) = (   0.0000000   2.2427830   1.5766697  )

     number of k points=   150  Fermi-Dirac smearing, width (Ry)=  0.0073

     Number of k-points >= 100: set verbosity='high' to print them.

     Largest allocated arrays     est. size (Mb)     dimensions
     Largest temporary arrays     est. size (Mb)     dimensions

     Check: negative/imaginary core charge=   -0.000026    0.000000

     Initial potential from superposition of free atoms
     Check: negative starting charge=(component1):   -0.070626
     Check: negative starting charge=(component2):   -0.050427

     starting charge   53.99569, renormalised to   56.00000

     negative rho (up, down):  7.325E-02 5.230E-02

     *
     * You are using vdW-DF for exchange-correlation in this calculation.
     * Please cite the following three references that made this development
     * possible:
     *
     *   M. Dion, H. Rydberg, E. Schroder, D. C. Langreth, and
     *   B. I. Lundqvist, Phys. Rev. Lett. 92, 246401 (2004).
     *
     *   T. Thonhauser, V. R. Cooper, S. Li, A. Puzder, P. Hyldgaard, and
     *   D. C. Langreth, Phys. Rev. B 76, 125112 (2007).
     *
     *   G. Roman-Perez and J. M. Soler, Phys. Rev. Lett. 103, 096102 (2009).
     *
     *
     * If you are using vdW-DF2, please also cite:
     *
     *   K. Lee, E. D. Murray, L. Kong, B. I. Lundqvist, and
     *   D. C. Langreth, Phys. Rev. B 82, 081101(R) (2010).
     *
     *
     * If you are calculating the stress with vdW-DF, please also cite:
     *
     *   R. Sabatini, E. Kucukbenli, B. Kolb, T. Thonhauser, and
     *   S. de Gironcoli, J. Phys.: Condens. Matter 24, 424209 (2012).
     *

     Carrying out vdW-DF run using the following parameters:

     Nqs =      20    Nr_points =    1024   r_max =   100.000
     q_mesh =
               0.00001000     0.04494208     0.09755937     0.15916263
               0.23128650     0.31572767     0.41458969     0.53033537
               0.66584808     0.82450364     1.01025438     1.22772762
               1.48234092     1.78043706     2.12944203     2.53805004
               3.01644009     3.57652955     4.23227104     5.00000000

     Gradients computed in reciprocal space

     Starting wfc are   52 randomized atomic wfcs

     Self-consistent Calculation

     iteration #  1     ecut=    58.80 Ry     beta=0.10
     Davidson diagonalization with overlap
     ethr =  1.00E-02,  avg # of iterations =  4.1

[...]

     Magnetic moment per site:
     atom:    1    charge:    7.2183    magn:    0.8641    constr:    0.0000
     atom:    2    charge:    7.2183    magn:    0.8641    constr:    0.0000
     atom:    3    charge:    1.1432    magn:    0.1733    constr:    0.0000
     atom:    4    charge:    1.1432    magn:    0.1733    constr:    0.0000

     total energy              =    -702.37435629 Ry
     Harris-Foulkes estimate   =    -702.49454274 Ry
     estimated scf accuracy    <       1.01492105 Ry

     total magnetization       =     2.08 Bohr mag/cell
     absolute magnetization    =     2.27 Bohr mag/cell

[...]

     total energy              =    -702.36424306 Ry
     Harris-Foulkes estimate   =    -702.36424611 Ry
     estimated scf accuracy    <       0.00000291 Ry

[...]

     iteration # 22     ecut=    58.80 Ry     beta=0.10
     Davidson diagonalization with overlap
     ethr =  5.19E-09,  avg # of iterations =  2.0

     negative rho (up, down):  6.322E-02 6.303E-02

     Magnetic moment per site:
     atom:    1    charge:    7.0629    magn:    0.0905    constr:    0.0000
     atom:    2    charge:    7.0629    magn:    0.0905    constr:    0.0000
     atom:    3    charge:    1.1135    magn:   -0.0029    constr:    0.0000
     atom:    4    charge:    1.1135    magn:   -0.0029    constr:    0.0000

     End of self-consistent calculation

     Number of k-points >= 100: set verbosity='high' to print the bands.

     the Fermi energy is    16.7460 ev

!    total energy              =    -702.36425605 Ry
     Harris-Foulkes estimate   =    -702.36424907 Ry
     estimated scf accuracy    <       0.00000021 Ry

     The total energy is the sum of the following terms:

     one-electron contribution =    -306.37841124 Ry
     hartree contribution      =     183.97339116 Ry
     xc contribution           =     -97.56516494 Ry
     ewald contribution        =    -482.38879738 Ry
     smearing contrib. (-TS)   =      -0.00527365 Ry

     total magnetization       =     0.15 Bohr mag/cell
     absolute magnetization    =     0.60 Bohr mag/cell

     convergence has been achieved in  22 iterations

     Forces acting on atoms (Ry/au):

     negative rho (up, down):  6.322E-02 6.303E-02
     atom    1 type  1   force =     0.00000000    0.00000000    0.00000000
     atom    2 type  1   force =     0.00000000    0.00000000    0.00000000
     atom    3 type  2   force =     0.00000000    0.00000000    0.00000000
     atom    4 type  2   force =     0.00000000    0.00000000    0.00000000

     Total force =     0.000000     Total SCF correction =     0.000000

     General routines

     Parallel routines

   This run was terminated on:  15:17:51  14Nov2017

   JOB DONE.