     Program PWSCF v.5.1rc2 starts on 13Nov2017 at 16: 0:43

     Current dimensions of program PWSCF are:
     Max number of different atomic species (ntypx) = 10
     Max number of k-points (npk) =  40000
     Max angular momentum in pseudopotentials (lmaxx) =  3

     IMPORTANT: XC functional enforced from input :
     Exchange-correlation      = BEEF-VDW ( 1  4 27 13 2)
     Any further DFT definition will be discarded
     Please, verify this is what you really want

     Found symmetry operation: I + ( -0.5000 -0.5000  0.0000)
     This is a supercell, fractional translations are disabled

     bravais-lattice index     =            0
     lattice parameter (alat)  =       1.8897  a.u.
     unit-cell volume          =     482.8666 (a.u.)^3
     number of atoms/cell      =            4
     number of atomic types    =            2
     number of electrons       =        64.00
     number of Kohn-Sham states=           52
     kinetic-energy cutoff     =      58.7989  Ry
     charge density cutoff     =     587.9892  Ry
     convergence threshold     =      1.0E-06
     mixing beta               =       0.1000
     number of iterations used =           10  plain     mixing
     Exchange-correlation      = BEEF-VDW ( 1  4 27 13 2)

     celldm(1)=   1.889726  celldm(2)=   0.000000  celldm(3)=   0.000000
     celldm(4)=   0.000000  celldm(5)=   0.000000  celldm(6)=   0.000000

     crystal axes: (cart. coord. in units of alat)
               a(1) = (   4.016516   0.000000   0.000000 )
               a(2) = (   0.000000   4.016516   0.000000 )
               a(3) = (   0.000000   0.000000   4.435387 )

     reciprocal axes: (cart. coord. in units 2 pi/alat)
               b(1) = (  0.248972  0.000000  0.000000 )
               b(2) = (  0.000000  0.248972  0.000000 )
               b(3) = (  0.000000  0.000000  0.225459 )

     PseudoPot. # 1 for Ag read from file:
     /home/users/vossj/suncat/psp/gbrv1.5pbe/Ag.UPF
     MD5 check sum: d66d668201baa78d5eb5b04ef7011058
     Pseudo is Ultrasoft + core correction, Zval = 19.0
     Generated by new atomic code, or converted to UPF format
     Using radial grid of  887 points,  6 beta functions with:
                l(1) =   0
                l(2) =   0
                l(3) =   1
                l(4) =   1
                l(5) =   2
                l(6) =   2
     Q(r) pseudized with  6 coefficients,  rinner =    1.300   1.300   1.300
                                                       1.300   1.300

     PseudoPot. # 2 for Ta read from file:
     /home/users/vossj/suncat/psp/gbrv1.5pbe/Ta.UPF
     MD5 check sum: f8bbe9446314a3b8ea5d9f3e3836c939
     Pseudo is Ultrasoft + core correction, Zval = 13.0
     Generated by new atomic code, or converted to UPF format
     Using radial grid of  921 points,  7 beta functions with:
                l(1) =   0
                l(2) =   0
                l(3) =   1
                l(4) =   1
                l(5) =   2
                l(6) =   2
                l(7) =   3
     Q(r) pseudized with  6 coefficients,  rinner =    1.300   1.300   1.300
                                                       1.300   1.300   1.300
                                                       1.300

     vdW kernel table read from file vdW_kernel_table
     MD5 check sum: 095c7af220d748ca6e76c0b4c6cfb241

     atomic species   valence    mass     pseudopotential
        Ag1           19.00   107.86800     Ag( 1.00)
        Ta1           13.00   180.94790     Ta( 1.00)

     16 Sym. Ops., with inversion, found

   Cartesian axes

     site n.     atom                  positions (alat units)
         1           Ag1 tau(   1) = (   0.0000000   0.0000000   0.0000000  )
         2           Ag1 tau(   2) = (   2.0082581   2.0082581   0.0000000  )
         3           Ta1 tau(   3) = (   2.0082581   0.0000000   2.2176933  )
         4           Ta1 tau(   4) = (   0.0000000   2.0082581   2.2176933  )

     number of k points=    75  Fermi-Dirac smearing, width (Ry)=  0.0073
                       cart. coord. in units 2pi/alat
        k(    1) = (   0.0000000   0.0000000   0.0000000), wk =   0.0027435
        k(    2) = (   0.0000000   0.0000000   0.0250511), wk =   0.0054870
        k(    3) = (   0.0000000   0.0000000   0.0501021), wk =   0.0054870
        k(    4) = (   0.0000000   0.0000000   0.0751532), wk =   0.0054870
        k(    5) = (   0.0000000   0.0000000   0.1002042), wk =   0.0054870
        k(    6) = (   0.0000000   0.0276636   0.0000000), wk =   0.0109739
        k(    7) = (   0.0000000   0.0276636   0.0250511), wk =   0.0219479
        k(    8) = (   0.0000000   0.0276636   0.0501021), wk =   0.0219479
        k(    9) = (   0.0000000   0.0276636   0.0751532), wk =   0.0219479
        k(   10) = (   0.0000000   0.0276636   0.1002042), wk =   0.0219479
        k(   11) = (   0.0000000   0.0553271   0.0000000), wk =   0.0109739
        k(   12) = (   0.0000000   0.0553271   0.0250511), wk =   0.0219479
        k(   13) = (   0.0000000   0.0553271   0.0501021), wk =   0.0219479
        k(   14) = (   0.0000000   0.0553271   0.0751532), wk =   0.0219479
        k(   15) = (   0.0000000   0.0553271   0.1002042), wk =   0.0219479
        k(   16) = (   0.0000000   0.0829907   0.0000000), wk =   0.0109739
        k(   17) = (   0.0000000   0.0829907   0.0250511), wk =   0.0219479
        k(   18) = (   0.0000000   0.0829907   0.0501021), wk =   0.0219479
        k(   19) = (   0.0000000   0.0829907   0.0751532), wk =   0.0219479
        k(   20) = (   0.0000000   0.0829907   0.1002042), wk =   0.0219479
        k(   21) = (   0.0000000   0.1106542   0.0000000), wk =   0.0109739
        k(   22) = (   0.0000000   0.1106542   0.0250511), wk =   0.0219479
        k(   23) = (   0.0000000   0.1106542   0.0501021), wk =   0.0219479
        k(   24) = (   0.0000000   0.1106542   0.0751532), wk =   0.0219479
        k(   25) = (   0.0000000   0.1106542   0.1002042), wk =   0.0219479
        k(   26) = (   0.0276636   0.0276636   0.0000000), wk =   0.0109739
        k(   27) = (   0.0276636   0.0276636   0.0250511), wk =   0.0219479
        k(   28) = (   0.0276636   0.0276636   0.0501021), wk =   0.0219479
        k(   29) = (   0.0276636   0.0276636   0.0751532), wk =   0.0219479
        k(   30) = (   0.0276636   0.0276636   0.1002042), wk =   0.0219479
        k(   31) = (   0.0276636   0.0553271   0.0000000), wk =   0.0219479
        k(   32) = (   0.0276636   0.0553271   0.0250511), wk =   0.0438957
        k(   33) = (   0.0276636   0.0553271   0.0501021), wk =   0.0438957
        k(   34) = (   0.0276636   0.0553271   0.0751532), wk =   0.0438957
        k(   35) = (   0.0276636   0.0553271   0.1002042), wk =   0.0438957
        k(   36) = (   0.0276636   0.0829907   0.0000000), wk =   0.0219479
        k(   37) = (   0.0276636   0.0829907   0.0250511), wk =   0.0438957
        k(   38) = (   0.0276636   0.0829907   0.0501021), wk =   0.0438957
        k(   39) = (   0.0276636   0.0829907   0.0751532), wk =   0.0438957
        k(   40) = (   0.0276636   0.0829907   0.1002042), wk =   0.0438957
        k(   41) = (   0.0276636   0.1106542   0.0000000), wk =   0.0219479
        k(   42) = (   0.0276636   0.1106542   0.0250511), wk =   0.0438957
        k(   43) = (   0.0276636   0.1106542   0.0501021), wk =   0.0438957
        k(   44) = (   0.0276636   0.1106542   0.0751532), wk =   0.0438957
        k(   45) = (   0.0276636   0.1106542   0.1002042), wk =   0.0438957
        k(   46) = (   0.0553271   0.0553271   0.0000000), wk =   0.0109739
        k(   47) = (   0.0553271   0.0553271   0.0250511), wk =   0.0219479
        k(   48) = (   0.0553271   0.0553271   0.0501021), wk =   0.0219479
        k(   49) = (   0.0553271   0.0553271   0.0751532), wk =   0.0219479
        k(   50) = (   0.0553271   0.0553271   0.1002042), wk =   0.0219479
        k(   51) = (   0.0553271   0.0829907   0.0000000), wk =   0.0219479
        k(   52) = (   0.0553271   0.0829907   0.0250511), wk =   0.0438957
        k(   53) = (   0.0553271   0.0829907   0.0501021), wk =   0.0438957
        k(   54) = (   0.0553271   0.0829907   0.0751532), wk =   0.0438957
        k(   55) = (   0.0553271   0.0829907   0.1002042), wk =   0.0438957
        k(   56) = (   0.0553271   0.1106542   0.0000000), wk =   0.0219479
        k(   57) = (   0.0553271   0.1106542   0.0250511), wk =   0.0438957
        k(   58) = (   0.0553271   0.1106542   0.0501021), wk =   0.0438957
        k(   59) = (   0.0553271   0.1106542   0.0751532), wk =   0.0438957
        k(   60) = (   0.0553271   0.1106542   0.1002042), wk =   0.0438957
        k(   61) = (   0.0829907   0.0829907   0.0000000), wk =   0.0109739
        k(   62) = (   0.0829907   0.0829907   0.0250511), wk =   0.0219479
        k(   63) = (   0.0829907   0.0829907   0.0501021), wk =   0.0219479
        k(   64) = (   0.0829907   0.0829907   0.0751532), wk =   0.0219479
        k(   65) = (   0.0829907   0.0829907   0.1002042), wk =   0.0219479
        k(   66) = (   0.0829907   0.1106542   0.0000000), wk =   0.0219479
        k(   67) = (   0.0829907   0.1106542   0.0250511), wk =   0.0438957
        k(   68) = (   0.0829907   0.1106542   0.0501021), wk =   0.0438957
        k(   69) = (   0.0829907   0.1106542   0.0751532), wk =   0.0438957
        k(   70) = (   0.0829907   0.1106542   0.1002042), wk =   0.0438957
        k(   71) = (   0.1106542   0.1106542   0.0000000), wk =   0.0109739
        k(   72) = (   0.1106542   0.1106542   0.0250511), wk =   0.0219479
        k(   73) = (   0.1106542   0.1106542   0.0501021), wk =   0.0219479
        k(   74) = (   0.1106542   0.1106542   0.0751532), wk =   0.0219479
        k(   75) = (   0.1106542   0.1106542   0.1002042), wk =   0.0219479

     Largest allocated arrays     est. size (Mb)     dimensions
     Largest temporary arrays     est. size (Mb)     dimensions

     Initial potential from superposition of free atoms
     Check: negative starting charge=   -0.189115

     starting charge   62.99768, renormalised to   64.00000

     negative rho (up, down):  1.921E-01 0.000E+00

     *
     * You are using vdW-DF for exchange-correlation in this calculation.
     * Please cite the following three references that made this development
     * possible:
     *
     *   M. Dion, H. Rydberg, E. Schroder, D. C. Langreth, and
     *   B. I. Lundqvist, Phys. Rev. Lett. 92, 246401 (2004).
     *
     *   T. Thonhauser, V. R. Cooper, S. Li, A. Puzder, P. Hyldgaard, and
     *   D. C. Langreth, Phys. Rev. B 76, 125112 (2007).
     *
     *   G. Roman-Perez and J. M. Soler, Phys. Rev. Lett. 103, 096102 (2009).
     *
     *
     * If you are using vdW-DF2, please also cite:
     *
     *   K. Lee, E. D. Murray, L. Kong, B. I. Lundqvist, and
     *   D. C. Langreth, Phys. Rev. B 82, 081101(R) (2010).
     *
     *
     * If you are calculating the stress with vdW-DF, please also cite:
     *
     *   R. Sabatini, E. Kucukbenli, B. Kolb, T. Thonhauser, and
     *   S. de Gironcoli, J. Phys.: Condens. Matter 24, 424209 (2012).
     *

     Carrying out vdW-DF run using the following parameters:

     Nqs =      20    Nr_points =    1024   r_max =   100.000
     q_mesh =
               0.00001000     0.04494208     0.09755937     0.15916263
               0.23128650     0.31572767     0.41458969     0.53033537
               0.66584808     0.82450364     1.01025438     1.22772762
               1.48234092     1.78043706     2.12944203     2.53805004
               3.01644009     3.57652955     4.23227104     5.00000000

     Gradients computed in reciprocal space

     Starting wfc are   52 randomized atomic wfcs

     Self-consistent Calculation

     iteration #  1     ecut=    58.80 Ry     beta=0.10
     Davidson diagonalization with overlap
     ethr =  1.00E-02,  avg # of iterations =  4.5

[...]

     total energy              =    -879.67607503 Ry
     Harris-Foulkes estimate   =    -880.32876392 Ry
     estimated scf accuracy    <       3.80405677 Ry

[...]

     total energy              =    -879.74964769 Ry
     Harris-Foulkes estimate   =    -879.74964554 Ry
     estimated scf accuracy    <       0.00000209 Ry

     iteration # 11     ecut=    58.80 Ry     beta=0.10
     Davidson diagonalization with overlap
     ethr =  3.26E-09,  avg # of iterations =  2.0

     negative rho (up, down):  2.014E-01 0.000E+00

     End of self-consistent calculation

          k = 0.0000 0.0000 0.0000 (  3665 PWs)   bands (ev):

   -74.9470 -74.9327 -50.6443 -50.5408 -38.4403 -38.4403 -38.4340 -38.4155
   -38.3489 -38.3489 -17.2051 -17.2051 -17.1681 -16.9912 -16.4967 -16.4967
     9.6743  11.1834  11.4493  11.5082  11.7400  11.7400  12.0691  13.2307
    13.2307  13.9139  14.6198  15.8428  16.0788  16.2768  18.6441  18.9154
    18.9154  20.1207  20.3085  20.3085  21.3434  21.3434  23.0069  25.0828
    26.0667  26.2394  27.4422  28.7493  28.7493  28.9909  29.3832  29.4471
    29.4471  31.7684  34.6302  35.8284

[...]

          k = 0.1107 0.1107 0.1002 (  3664 PWs)   bands (ev):

   -74.9400 -74.9396 -50.5936 -50.5905 -38.4497 -38.4471 -38.4251 -38.4246
   -38.3439 -38.3411 -17.3064 -17.2863 -17.0851 -17.0796 -16.4494 -16.4267
    11.3230  11.3317  11.7157  11.7819  12.6488  12.6597  12.9943  13.0800
    13.3422  13.3810  15.6760  16.0122  16.0806  16.2418  17.3061  17.5202
    17.8033  18.0479  20.2614  20.3522  20.3653  20.4638  21.5666  21.5988
    24.8299  25.0061  26.7296  26.7416  30.4474  30.4899  31.2096  31.4314
    34.1869  34.4405  34.5743  35.0142

     the Fermi energy is    17.8122 ev

!    total energy              =    -879.74966175 Ry
     Harris-Foulkes estimate   =    -879.74964838 Ry
     estimated scf accuracy    <       0.00000046 Ry

     The total energy is the sum of the following terms:

     one-electron contribution =    -314.40746862 Ry
     hartree contribution      =     189.70621610 Ry
     xc contribution           =    -147.41161823 Ry
     ewald contribution        =    -607.62741112 Ry
     smearing contrib. (-TS)   =      -0.00937988 Ry

     convergence has been achieved in  11 iterations

     Forces acting on atoms (Ry/au):

     negative rho (up, down):  2.014E-01 0.000E+00
     atom    1 type  1   force =     0.00000000    0.00000000    0.00000000
     atom    2 type  1   force =     0.00000000    0.00000000    0.00000000
     atom    3 type  2   force =     0.00000000    0.00000000    0.00000000
     atom    4 type  2   force =     0.00000000    0.00000000    0.00000000

     Total force =     0.000000     Total SCF correction =     0.000000

     General routines

     Parallel routines

   This run was terminated on:  16: 1:24  13Nov2017

   JOB DONE.