     Program PWSCF v.5.1rc2 starts on 14Nov2017 at 14:11:47

     Current dimensions of program PWSCF are:
     Max number of different atomic species (ntypx) = 10
     Max number of k-points (npk) =  40000
     Max angular momentum in pseudopotentials (lmaxx) =  3

     IMPORTANT: XC functional enforced from input :
     Exchange-correlation      = BEEF-VDW ( 1  4 27 13 2)
     Any further DFT definition will be discarded
     Please, verify this is what you really want

     Found symmetry operation: I + ( -0.5000 -0.5000  0.0000)
     This is a supercell, fractional translations are disabled

     bravais-lattice index     =            0
     lattice parameter (alat)  =       1.8897  a.u.
     unit-cell volume          =     501.4001 (a.u.)^3
     number of atoms/cell      =            4
     number of atomic types    =            2
     number of electrons       =        58.00
     number of Kohn-Sham states=           49
     kinetic-energy cutoff     =      58.7989  Ry
     charge density cutoff     =     587.9892  Ry
     convergence threshold     =      1.0E-06
     mixing beta               =       0.1000
     number of iterations used =           10  plain     mixing
     Exchange-correlation      = BEEF-VDW ( 1  4 27 13 2)

     celldm(1)=   1.889726  celldm(2)=   0.000000  celldm(3)=   0.000000
     celldm(4)=   0.000000  celldm(5)=   0.000000  celldm(6)=   0.000000

     crystal axes: (cart. coord. in units of alat)
               a(1) = (   4.723223   0.000000   0.000000 )
               a(2) = (   0.000000   4.723223   0.000000 )
               a(3) = (   0.000000   0.000000   3.330512 )

     reciprocal axes: (cart. coord. in units 2 pi/alat)
               b(1) = (  0.211720  0.000000  0.000000 )
               b(2) = (  0.000000  0.211720  0.000000 )
               b(3) = (  0.000000  0.000000  0.300254 )

     PseudoPot. # 1 for In read from file:
     /home/users/vossj/suncat/psp/gbrv1.5pbe/In.UPF
     MD5 check sum: 90777abd96fbb83f2e67db2a40c566b9
     Pseudo is Ultrasoft + core correction, Zval = 13.0
     Generated by new atomic code, or converted to UPF format
     Using radial grid of  889 points,  6 beta functions with:
                l(1) =   0
                l(2) =   0
                l(3) =   1
                l(4) =   1
                l(5) =   2
                l(6) =   2
     Q(r) pseudized with  6 coefficients,  rinner =    1.400   1.400   1.400
                                                       1.400   1.400

     PseudoPot. # 2 for Pt read from file:
     /home/users/vossj/suncat/psp/gbrv1.5pbe/Pt.UPF
     MD5 check sum: f09d6de1a584b5a045c4fc126da2d0c4
     Pseudo is Ultrasoft + core correction, Zval = 16.0
     Generated by new atomic code, or converted to UPF format
     Using radial grid of  985 points,  6 beta functions with:
                l(1) =   0
                l(2) =   0
                l(3) =   1
                l(4) =   1
                l(5) =   2
                l(6) =   2
     Q(r) pseudized with  8 coefficients,  rinner =    1.300   1.300   1.300
                                                       1.300   1.300

     vdW kernel table read from file vdW_kernel_table
     MD5 check sum: 095c7af220d748ca6e76c0b4c6cfb241

     atomic species   valence    mass     pseudopotential
        In1           13.00   114.82000     In( 1.00)
        Pt1           16.00   195.08000     Pt( 1.00)

     16 Sym. Ops., with inversion, found

   Cartesian axes

     site n.     atom                  positions (alat units)
         1           In1 tau(   1) = (   0.0000000   0.0000000   0.0000000  )
         2           In1 tau(   2) = (   2.3616114   2.3616114   0.0000000  )
         3           Pt1 tau(   3) = (   2.3616114   0.0000000   1.6652560  )
         4           Pt1 tau(   4) = (   0.0000000   2.3616114   1.6652560  )

     number of k points=    75  Fermi-Dirac smearing, width (Ry)=  0.0073
                       cart. coord. in units 2pi/alat
        k(    1) = (   0.0000000   0.0000000   0.0000000), wk =   0.0027435
        k(    2) = (   0.0000000   0.0000000   0.0333616), wk =   0.0054870
        k(    3) = (   0.0000000   0.0000000   0.0667231), wk =   0.0054870
        k(    4) = (   0.0000000   0.0000000   0.1000847), wk =   0.0054870
        k(    5) = (   0.0000000   0.0000000   0.1334463), wk =   0.0054870
        k(    6) = (   0.0000000   0.0235244   0.0000000), wk =   0.0109739
        k(    7) = (   0.0000000   0.0235244   0.0333616), wk =   0.0219479
        k(    8) = (   0.0000000   0.0235244   0.0667231), wk =   0.0219479
        k(    9) = (   0.0000000   0.0235244   0.1000847), wk =   0.0219479
        k(   10) = (   0.0000000   0.0235244   0.1334463), wk =   0.0219479
        k(   11) = (   0.0000000   0.0470489   0.0000000), wk =   0.0109739
        k(   12) = (   0.0000000   0.0470489   0.0333616), wk =   0.0219479
        k(   13) = (   0.0000000   0.0470489   0.0667231), wk =   0.0219479
        k(   14) = (   0.0000000   0.0470489   0.1000847), wk =   0.0219479
        k(   15) = (   0.0000000   0.0470489   0.1334463), wk =   0.0219479
        k(   16) = (   0.0000000   0.0705733   0.0000000), wk =   0.0109739
        k(   17) = (   0.0000000   0.0705733   0.0333616), wk =   0.0219479
        k(   18) = (   0.0000000   0.0705733   0.0667231), wk =   0.0219479
        k(   19) = (   0.0000000   0.0705733   0.1000847), wk =   0.0219479
        k(   20) = (   0.0000000   0.0705733   0.1334463), wk =   0.0219479
        k(   21) = (   0.0000000   0.0940977   0.0000000), wk =   0.0109739
        k(   22) = (   0.0000000   0.0940977   0.0333616), wk =   0.0219479
        k(   23) = (   0.0000000   0.0940977   0.0667231), wk =   0.0219479
        k(   24) = (   0.0000000   0.0940977   0.1000847), wk =   0.0219479
        k(   25) = (   0.0000000   0.0940977   0.1334463), wk =   0.0219479
        k(   26) = (   0.0235244   0.0235244   0.0000000), wk =   0.0109739
        k(   27) = (   0.0235244   0.0235244   0.0333616), wk =   0.0219479
        k(   28) = (   0.0235244   0.0235244   0.0667231), wk =   0.0219479
        k(   29) = (   0.0235244   0.0235244   0.1000847), wk =   0.0219479
        k(   30) = (   0.0235244   0.0235244   0.1334463), wk =   0.0219479
        k(   31) = (   0.0235244   0.0470489   0.0000000), wk =   0.0219479
        k(   32) = (   0.0235244   0.0470489   0.0333616), wk =   0.0438957
        k(   33) = (   0.0235244   0.0470489   0.0667231), wk =   0.0438957
        k(   34) = (   0.0235244   0.0470489   0.1000847), wk =   0.0438957
        k(   35) = (   0.0235244   0.0470489   0.1334463), wk =   0.0438957
        k(   36) = (   0.0235244   0.0705733   0.0000000), wk =   0.0219479
        k(   37) = (   0.0235244   0.0705733   0.0333616), wk =   0.0438957
        k(   38) = (   0.0235244   0.0705733   0.0667231), wk =   0.0438957
        k(   39) = (   0.0235244   0.0705733   0.1000847), wk =   0.0438957
        k(   40) = (   0.0235244   0.0705733   0.1334463), wk =   0.0438957
        k(   41) = (   0.0235244   0.0940977   0.0000000), wk =   0.0219479
        k(   42) = (   0.0235244   0.0940977   0.0333616), wk =   0.0438957
        k(   43) = (   0.0235244   0.0940977   0.0667231), wk =   0.0438957
        k(   44) = (   0.0235244   0.0940977   0.1000847), wk =   0.0438957
        k(   45) = (   0.0235244   0.0940977   0.1334463), wk =   0.0438957
        k(   46) = (   0.0470489   0.0470489   0.0000000), wk =   0.0109739
        k(   47) = (   0.0470489   0.0470489   0.0333616), wk =   0.0219479
        k(   48) = (   0.0470489   0.0470489   0.0667231), wk =   0.0219479
        k(   49) = (   0.0470489   0.0470489   0.1000847), wk =   0.0219479
        k(   50) = (   0.0470489   0.0470489   0.1334463), wk =   0.0219479
        k(   51) = (   0.0470489   0.0705733   0.0000000), wk =   0.0219479
        k(   52) = (   0.0470489   0.0705733   0.0333616), wk =   0.0438957
        k(   53) = (   0.0470489   0.0705733   0.0667231), wk =   0.0438957
        k(   54) = (   0.0470489   0.0705733   0.1000847), wk =   0.0438957
        k(   55) = (   0.0470489   0.0705733   0.1334463), wk =   0.0438957
        k(   56) = (   0.0470489   0.0940977   0.0000000), wk =   0.0219479
        k(   57) = (   0.0470489   0.0940977   0.0333616), wk =   0.0438957
        k(   58) = (   0.0470489   0.0940977   0.0667231), wk =   0.0438957
        k(   59) = (   0.0470489   0.0940977   0.1000847), wk =   0.0438957
        k(   60) = (   0.0470489   0.0940977   0.1334463), wk =   0.0438957
        k(   61) = (   0.0705733   0.0705733   0.0000000), wk =   0.0109739
        k(   62) = (   0.0705733   0.0705733   0.0333616), wk =   0.0219479
        k(   63) = (   0.0705733   0.0705733   0.0667231), wk =   0.0219479
        k(   64) = (   0.0705733   0.0705733   0.1000847), wk =   0.0219479
        k(   65) = (   0.0705733   0.0705733   0.1334463), wk =   0.0219479
        k(   66) = (   0.0705733   0.0940977   0.0000000), wk =   0.0219479
        k(   67) = (   0.0705733   0.0940977   0.0333616), wk =   0.0438957
        k(   68) = (   0.0705733   0.0940977   0.0667231), wk =   0.0438957
        k(   69) = (   0.0705733   0.0940977   0.1000847), wk =   0.0438957
        k(   70) = (   0.0705733   0.0940977   0.1334463), wk =   0.0438957
        k(   71) = (   0.0940977   0.0940977   0.0000000), wk =   0.0109739
        k(   72) = (   0.0940977   0.0940977   0.0333616), wk =   0.0219479
        k(   73) = (   0.0940977   0.0940977   0.0667231), wk =   0.0219479
        k(   74) = (   0.0940977   0.0940977   0.1000847), wk =   0.0219479
        k(   75) = (   0.0940977   0.0940977   0.1334463), wk =   0.0219479

     Largest allocated arrays     est. size (Mb)     dimensions
     Largest temporary arrays     est. size (Mb)     dimensions

     Initial potential from superposition of free atoms
     Check: negative starting charge=   -0.369848

     starting charge   53.99998, renormalised to   58.00000

     negative rho (up, down):  3.972E-01 0.000E+00

     *
     * You are using vdW-DF for exchange-correlation in this calculation.
     * Please cite the following three references that made this development
     * possible:
     *
     *   M. Dion, H. Rydberg, E. Schroder, D. C. Langreth, and
     *   B. I. Lundqvist, Phys. Rev. Lett. 92, 246401 (2004).
     *
     *   T. Thonhauser, V. R. Cooper, S. Li, A. Puzder, P. Hyldgaard, and
     *   D. C. Langreth, Phys. Rev. B 76, 125112 (2007).
     *
     *   G. Roman-Perez and J. M. Soler, Phys. Rev. Lett. 103, 096102 (2009).
     *
     *
     * If you are using vdW-DF2, please also cite:
     *
     *   K. Lee, E. D. Murray, L. Kong, B. I. Lundqvist, and
     *   D. C. Langreth, Phys. Rev. B 82, 081101(R) (2010).
     *
     *
     * If you are calculating the stress with vdW-DF, please also cite:
     *
     *   R. Sabatini, E. Kucukbenli, B. Kolb, T. Thonhauser, and
     *   S. de Gironcoli, J. Phys.: Condens. Matter 24, 424209 (2012).
     *

     Carrying out vdW-DF run using the following parameters:

     Nqs =      20    Nr_points =    1024   r_max =   100.000
     q_mesh =
               0.00001000     0.04494208     0.09755937     0.15916263
               0.23128650     0.31572767     0.41458969     0.53033537
               0.66584808     0.82450364     1.01025438     1.22772762
               1.48234092     1.78043706     2.12944203     2.53805004
               3.01644009     3.57652955     4.23227104     5.00000000

     Gradients computed in reciprocal space

     Starting wfc are   42 randomized atomic wfcs +    7 random wfc

     Self-consistent Calculation

     iteration #  1     ecut=    58.80 Ry     beta=0.10
     Davidson diagonalization with overlap
     ethr =  1.00E-02,  avg # of iterations =  5.2

[...]

     total energy              =    -695.45961220 Ry
     Harris-Foulkes estimate   =    -696.90950049 Ry
     estimated scf accuracy    <       9.19346629 Ry

[...]

     total energy              =    -694.43553075 Ry
     Harris-Foulkes estimate   =    -694.43552888 Ry
     estimated scf accuracy    <       0.00000501 Ry

     iteration # 11     ecut=    58.80 Ry     beta=0.10
     Davidson diagonalization with overlap
     ethr =  8.64E-09,  avg # of iterations =  2.0

     negative rho (up, down):  3.560E-01 0.000E+00

     End of self-consistent calculation

          k = 0.0000 0.0000 0.0000 (  3859 PWs)   bands (ev):

   -36.2275 -36.2275 -36.2024 -36.2024 -36.2024 -36.1982   1.1405   1.1446
     1.1704   1.2988   1.3618   1.3618   1.4765   1.4778   1.4778   1.6452
     6.0447  10.0559  12.4912  12.4966  12.6242  13.8336  13.8336  14.0458
    14.0458  14.3381  14.3461  14.3461  15.0436  17.4246  18.2525  20.2144
    20.2144  20.2887  23.5019  25.1753  27.1710  27.1710  27.3629  27.3897
    29.6323  31.2830  31.6018  31.6418  31.6418  31.6900  31.9227  33.8380
    33.8380

[...]

          k = 0.0941 0.0941 0.1334 (  3841 PWs)   bands (ev):

   -36.2276 -36.2275 -36.2274 -36.2267 -36.1990 -36.1983   1.1777   1.1812
     1.3012   1.3129   1.3584   1.3597   1.3628   1.3666   1.6303   1.6386
    10.0399  10.0873  12.4134  12.5607  13.4015  13.4348  13.7928  13.8278
    13.8363  13.8769  14.3039  14.4585  15.1982  15.3129  17.7029  17.7255
    18.3701  18.6740  24.8812  25.1681  26.9861  27.0214  27.0621  27.2597
    29.1096  29.2990  31.3623  31.4242  31.9894  32.1270  33.7415  33.9587
    34.0214

     the Fermi energy is    16.4445 ev

!    total energy              =    -694.43554479 Ry
     Harris-Foulkes estimate   =    -694.43553155 Ry
     estimated scf accuracy    <       0.00000004 Ry

     The total energy is the sum of the following terms:

     one-electron contribution =    -123.25954740 Ry
     hartree contribution      =     113.06113052 Ry
     xc contribution           =    -195.94167014 Ry
     ewald contribution        =    -488.29161579 Ry
     smearing contrib. (-TS)   =      -0.00384197 Ry

     convergence has been achieved in  11 iterations

     Forces acting on atoms (Ry/au):

     negative rho (up, down):  3.560E-01 0.000E+00
     atom    1 type  1   force =     0.00000000    0.00000000    0.00000000
     atom    2 type  1   force =     0.00000000    0.00000000    0.00000000
     atom    3 type  2   force =     0.00000000    0.00000000    0.00000000
     atom    4 type  2   force =     0.00000000    0.00000000    0.00000000

     Total force =     0.000000     Total SCF correction =     0.000000

     General routines

     Parallel routines

   This run was terminated on:  14:12:28  14Nov2017

   JOB DONE.