     Program PWSCF v.5.1rc2 starts on 15Nov2017 at  6:14: 0

     Current dimensions of program PWSCF are:
     Max number of different atomic species (ntypx) = 10
     Max number of k-points (npk) =  40000
     Max angular momentum in pseudopotentials (lmaxx) =  3

     IMPORTANT: XC functional enforced from input :
     Exchange-correlation      = BEEF-VDW ( 1  4 27 13 2)
     Any further DFT definition will be discarded
     Please, verify this is what you really want

     Found symmetry operation: I + (  0.5000  0.5000  0.0000)
     This is a supercell, fractional translations are disabled

     bravais-lattice index     =            0
     lattice parameter (alat)  =       1.8897  a.u.
     unit-cell volume          =     389.9389 (a.u.)^3
     number of atoms/cell      =            4
     number of atomic types    =            2
     number of electrons       =        62.00
     number of Kohn-Sham states=           51
     kinetic-energy cutoff     =      58.7989  Ry
     charge density cutoff     =     587.9892  Ry
     convergence threshold     =      1.0E-06
     mixing beta               =       0.1000
     number of iterations used =           10  plain     mixing
     Exchange-correlation      = BEEF-VDW ( 1  4 27 13 2)

     celldm(1)=   1.889726  celldm(2)=   0.000000  celldm(3)=   0.000000
     celldm(4)=   0.000000  celldm(5)=   0.000000  celldm(6)=   0.000000

     crystal axes: (cart. coord. in units of alat)
               a(1) = (   3.855798   0.000000   0.000000 )
               a(2) = (   0.000000   3.855798   0.000000 )
               a(3) = (   0.000000   0.000000   3.886613 )

     reciprocal axes: (cart. coord. in units 2 pi/alat)
               b(1) = (  0.259350  0.000000  0.000000 )
               b(2) = (  0.000000  0.259350  0.000000 )
               b(3) = (  0.000000  0.000000  0.257293 )

     PseudoPot. # 1 for Ti read from file:
     /home/users/vossj/suncat/psp/gbrv1.5pbe/Ti.UPF
     MD5 check sum: 88a00a6731bd790ddea75d31a80cb452
     Pseudo is Ultrasoft + core correction, Zval = 12.0
     Generated by new atomic code, or converted to UPF format
     Using radial grid of  851 points,  6 beta functions with:
                l(1) =   0
                l(2) =   0
                l(3) =   1
                l(4) =   1
                l(5) =   2
                l(6) =   2
     Q(r) pseudized with  6 coefficients,  rinner =    1.000   1.000   1.000
                                                       1.000   1.000

     PseudoPot. # 2 for Cu read from file:
     /home/users/vossj/suncat/psp/gbrv1.5pbe/Cu.UPF
     MD5 check sum: 6e991ff952a84172a2a52a1c1e996048
     Pseudo is Ultrasoft + core correction, Zval = 19.0
     Generated by new atomic code, or converted to UPF format
     Using radial grid of  867 points,  6 beta functions with:
                l(1) =   0
                l(2) =   0
                l(3) =   1
                l(4) =   1
                l(5) =   2
                l(6) =   2
     Q(r) pseudized with  8 coefficients,  rinner =    1.150   1.150   1.150
                                                       1.150   1.150

     vdW kernel table read from file vdW_kernel_table
     MD5 check sum: 095c7af220d748ca6e76c0b4c6cfb241

     atomic species   valence    mass     pseudopotential
        Ti1           12.00    47.88000     Ti( 1.00)
        Cu1           19.00    63.54600     Cu( 1.00)

     16 Sym. Ops., with inversion, found

   Cartesian axes

     site n.     atom                  positions (alat units)
         1           Ti1 tau(   1) = (   0.0000000   0.0000000   0.0000000  )
         2           Ti1 tau(   2) = (   1.9278991   1.9278991   0.0000000  )
         3           Cu1 tau(   3) = (   1.9278991   0.0000000   1.9433066  )
         4           Cu1 tau(   4) = (   0.0000000   1.9278991   1.9433066  )

     number of k points=    75  Fermi-Dirac smearing, width (Ry)=  0.0073
                       cart. coord. in units 2pi/alat
        k(    1) = (   0.0000000   0.0000000   0.0000000), wk =   0.0027435
        k(    2) = (   0.0000000   0.0000000   0.0285882), wk =   0.0054870
        k(    3) = (   0.0000000   0.0000000   0.0571763), wk =   0.0054870
        k(    4) = (   0.0000000   0.0000000   0.0857645), wk =   0.0054870
        k(    5) = (   0.0000000   0.0000000   0.1143526), wk =   0.0054870
        k(    6) = (   0.0000000   0.0288166   0.0000000), wk =   0.0109739
        k(    7) = (   0.0000000   0.0288166   0.0285882), wk =   0.0219479
        k(    8) = (   0.0000000   0.0288166   0.0571763), wk =   0.0219479
        k(    9) = (   0.0000000   0.0288166   0.0857645), wk =   0.0219479
        k(   10) = (   0.0000000   0.0288166   0.1143526), wk =   0.0219479
        k(   11) = (   0.0000000   0.0576333   0.0000000), wk =   0.0109739
        k(   12) = (   0.0000000   0.0576333   0.0285882), wk =   0.0219479
        k(   13) = (   0.0000000   0.0576333   0.0571763), wk =   0.0219479
        k(   14) = (   0.0000000   0.0576333   0.0857645), wk =   0.0219479
        k(   15) = (   0.0000000   0.0576333   0.1143526), wk =   0.0219479
        k(   16) = (   0.0000000   0.0864499   0.0000000), wk =   0.0109739
        k(   17) = (   0.0000000   0.0864499   0.0285882), wk =   0.0219479
        k(   18) = (   0.0000000   0.0864499   0.0571763), wk =   0.0219479
        k(   19) = (   0.0000000   0.0864499   0.0857645), wk =   0.0219479
        k(   20) = (   0.0000000   0.0864499   0.1143526), wk =   0.0219479
        k(   21) = (   0.0000000   0.1152665   0.0000000), wk =   0.0109739
        k(   22) = (   0.0000000   0.1152665   0.0285882), wk =   0.0219479
        k(   23) = (   0.0000000   0.1152665   0.0571763), wk =   0.0219479
        k(   24) = (   0.0000000   0.1152665   0.0857645), wk =   0.0219479
        k(   25) = (   0.0000000   0.1152665   0.1143526), wk =   0.0219479
        k(   26) = (   0.0288166   0.0288166   0.0000000), wk =   0.0109739
        k(   27) = (   0.0288166   0.0288166   0.0285882), wk =   0.0219479
        k(   28) = (   0.0288166   0.0288166   0.0571763), wk =   0.0219479
        k(   29) = (   0.0288166   0.0288166   0.0857645), wk =   0.0219479
        k(   30) = (   0.0288166   0.0288166   0.1143526), wk =   0.0219479
        k(   31) = (   0.0288166   0.0576333   0.0000000), wk =   0.0219479
        k(   32) = (   0.0288166   0.0576333   0.0285882), wk =   0.0438957
        k(   33) = (   0.0288166   0.0576333   0.0571763), wk =   0.0438957
        k(   34) = (   0.0288166   0.0576333   0.0857645), wk =   0.0438957
        k(   35) = (   0.0288166   0.0576333   0.1143526), wk =   0.0438957
        k(   36) = (   0.0288166   0.0864499   0.0000000), wk =   0.0219479
        k(   37) = (   0.0288166   0.0864499   0.0285882), wk =   0.0438957
        k(   38) = (   0.0288166   0.0864499   0.0571763), wk =   0.0438957
        k(   39) = (   0.0288166   0.0864499   0.0857645), wk =   0.0438957
        k(   40) = (   0.0288166   0.0864499   0.1143526), wk =   0.0438957
        k(   41) = (   0.0288166   0.1152665   0.0000000), wk =   0.0219479
        k(   42) = (   0.0288166   0.1152665   0.0285882), wk =   0.0438957
        k(   43) = (   0.0288166   0.1152665   0.0571763), wk =   0.0438957
        k(   44) = (   0.0288166   0.1152665   0.0857645), wk =   0.0438957
        k(   45) = (   0.0288166   0.1152665   0.1143526), wk =   0.0438957
        k(   46) = (   0.0576333   0.0576333   0.0000000), wk =   0.0109739
        k(   47) = (   0.0576333   0.0576333   0.0285882), wk =   0.0219479
        k(   48) = (   0.0576333   0.0576333   0.0571763), wk =   0.0219479
        k(   49) = (   0.0576333   0.0576333   0.0857645), wk =   0.0219479
        k(   50) = (   0.0576333   0.0576333   0.1143526), wk =   0.0219479
        k(   51) = (   0.0576333   0.0864499   0.0000000), wk =   0.0219479
        k(   52) = (   0.0576333   0.0864499   0.0285882), wk =   0.0438957
        k(   53) = (   0.0576333   0.0864499   0.0571763), wk =   0.0438957
        k(   54) = (   0.0576333   0.0864499   0.0857645), wk =   0.0438957
        k(   55) = (   0.0576333   0.0864499   0.1143526), wk =   0.0438957
        k(   56) = (   0.0576333   0.1152665   0.0000000), wk =   0.0219479
        k(   57) = (   0.0576333   0.1152665   0.0285882), wk =   0.0438957
        k(   58) = (   0.0576333   0.1152665   0.0571763), wk =   0.0438957
        k(   59) = (   0.0576333   0.1152665   0.0857645), wk =   0.0438957
        k(   60) = (   0.0576333   0.1152665   0.1143526), wk =   0.0438957
        k(   61) = (   0.0864499   0.0864499   0.0000000), wk =   0.0109739
        k(   62) = (   0.0864499   0.0864499   0.0285882), wk =   0.0219479
        k(   63) = (   0.0864499   0.0864499   0.0571763), wk =   0.0219479
        k(   64) = (   0.0864499   0.0864499   0.0857645), wk =   0.0219479
        k(   65) = (   0.0864499   0.0864499   0.1143526), wk =   0.0219479
        k(   66) = (   0.0864499   0.1152665   0.0000000), wk =   0.0219479
        k(   67) = (   0.0864499   0.1152665   0.0285882), wk =   0.0438957
        k(   68) = (   0.0864499   0.1152665   0.0571763), wk =   0.0438957
        k(   69) = (   0.0864499   0.1152665   0.0857645), wk =   0.0438957
        k(   70) = (   0.0864499   0.1152665   0.1143526), wk =   0.0438957
        k(   71) = (   0.1152665   0.1152665   0.0000000), wk =   0.0109739
        k(   72) = (   0.1152665   0.1152665   0.0285882), wk =   0.0219479
        k(   73) = (   0.1152665   0.1152665   0.0571763), wk =   0.0219479
        k(   74) = (   0.1152665   0.1152665   0.0857645), wk =   0.0219479
        k(   75) = (   0.1152665   0.1152665   0.1143526), wk =   0.0219479

     Largest allocated arrays     est. size (Mb)     dimensions
     Largest temporary arrays     est. size (Mb)     dimensions

     Check: negative/imaginary core charge=   -0.000003    0.000000

     Initial potential from superposition of free atoms
     Check: negative starting charge=   -0.002624

     starting charge   57.99991, renormalised to   62.00000

     negative rho (up, down):  2.805E-03 0.000E+00

     *
     * You are using vdW-DF for exchange-correlation in this calculation.
     * Please cite the following three references that made this development
     * possible:
     *
     *   M. Dion, H. Rydberg, E. Schroder, D. C. Langreth, and
     *   B. I. Lundqvist, Phys. Rev. Lett. 92, 246401 (2004).
     *
     *   T. Thonhauser, V. R. Cooper, S. Li, A. Puzder, P. Hyldgaard, and
     *   D. C. Langreth, Phys. Rev. B 76, 125112 (2007).
     *
     *   G. Roman-Perez and J. M. Soler, Phys. Rev. Lett. 103, 096102 (2009).
     *
     *
     * If you are using vdW-DF2, please also cite:
     *
     *   K. Lee, E. D. Murray, L. Kong, B. I. Lundqvist, and
     *   D. C. Langreth, Phys. Rev. B 82, 081101(R) (2010).
     *
     *
     * If you are calculating the stress with vdW-DF, please also cite:
     *
     *   R. Sabatini, E. Kucukbenli, B. Kolb, T. Thonhauser, and
     *   S. de Gironcoli, J. Phys.: Condens. Matter 24, 424209 (2012).
     *

     Carrying out vdW-DF run using the following parameters:

     Nqs =      20    Nr_points =    1024   r_max =   100.000
     q_mesh =
               0.00001000     0.04494208     0.09755937     0.15916263
               0.23128650     0.31572767     0.41458969     0.53033537
               0.66584808     0.82450364     1.01025438     1.22772762
               1.48234092     1.78043706     2.12944203     2.53805004
               3.01644009     3.57652955     4.23227104     5.00000000

     Gradients computed in reciprocal space

     Starting wfc are   46 randomized atomic wfcs +    5 random wfc

     Self-consistent Calculation

     iteration #  1     ecut=    58.80 Ry     beta=0.10
     Davidson diagonalization with overlap
     ethr =  1.00E-02,  avg # of iterations =  4.4

[...]

     total energy              =   -1034.81183241 Ry
     Harris-Foulkes estimate   =   -1059.41236904 Ry
     estimated scf accuracy    <     134.95499294 Ry

[...]

     total energy              =   -1049.77135337 Ry
     Harris-Foulkes estimate   =   -1049.77135723 Ry
     estimated scf accuracy    <       0.00001952 Ry

     iteration # 26     ecut=    58.80 Ry     beta=0.10
     Davidson diagonalization with overlap
     ethr =  4.67E-09,  avg # of iterations =  2.1

     negative rho (up, down):  1.365E-03 0.000E+00

     End of self-consistent calculation

          k = 0.0000 0.0000 0.0000 (  2953 PWs)   bands (ev):

   -98.7205 -98.7171 -56.1157 -56.1114 -56.0895 -56.0895 -56.0663 -56.0663
   -42.6218 -42.4577 -19.0020 -19.0020 -18.9057 -18.7616 -18.4697 -18.4697
     6.7506  10.0189  10.0835  10.1453  10.3637  10.4215  10.4215  11.4314
    11.4314  11.8482  12.2245  13.3873  13.6807  14.1125  15.6737  15.6737
    16.3549  16.4987  16.5777  16.5777  16.9844  16.9844  17.7555  18.6778
    22.4827  23.6847  24.1139  24.1613  26.5071  26.5071  27.2415  27.2415
    29.5542  31.4200  31.9978

[...]

          k = 0.1153 0.1153 0.1144 (  2990 PWs)   bands (ev):

   -98.7189 -98.7188 -56.1138 -56.1136 -56.0916 -56.0909 -56.0652 -56.0645
   -42.5398 -42.5349 -19.0865 -19.0711 -18.8506 -18.8460 -18.4318 -18.4152
     9.7842   9.8514  10.2048  10.2137  11.1870  11.1968  11.2960  11.3519
    11.4625  11.4860  12.6364  13.0267  13.7854  13.8495  14.2543  14.2818
    14.5408  14.7588  16.4354  16.6448  16.9608  16.9918  17.0557  17.2091
    20.2924  20.4275  22.2122  22.4373  30.9751  31.1385  31.6205  31.6713
    31.7742  32.0435  33.1714

     the Fermi energy is    14.3543 ev

!    total energy              =   -1049.77135667 Ry
     Harris-Foulkes estimate   =   -1049.77135537 Ry
     estimated scf accuracy    <       0.00000002 Ry

     The total energy is the sum of the following terms:

     one-electron contribution =    -689.19958056 Ry
     hartree contribution      =     375.10901862 Ry
     xc contribution           =    -117.55512706 Ry
     ewald contribution        =    -618.11332450 Ry
     smearing contrib. (-TS)   =      -0.01234317 Ry

     convergence has been achieved in  26 iterations

     Forces acting on atoms (Ry/au):

     negative rho (up, down):  1.365E-03 0.000E+00
     atom    1 type  1   force =     0.00000000    0.00000000    0.00000000
     atom    2 type  1   force =     0.00000000    0.00000000    0.00000000
     atom    3 type  2   force =     0.00000000    0.00000000    0.00000000
     atom    4 type  2   force =     0.00000000    0.00000000    0.00000000

     Total force =     0.000000     Total SCF correction =     0.000000

     General routines

     Parallel routines

   This run was terminated on:   6:15:18  15Nov2017

   JOB DONE.