     Program PWSCF v.5.1rc2 starts on 15Nov2017 at  4:28:15

     Current dimensions of program PWSCF are:
     Max number of different atomic species (ntypx) = 10
     Max number of k-points (npk) =  40000
     Max angular momentum in pseudopotentials (lmaxx) =  3

     IMPORTANT: XC functional enforced from input :
     Exchange-correlation      = BEEF-VDW ( 1  4 27 13 2)
     Any further DFT definition will be discarded
     Please, verify this is what you really want

     Found symmetry operation: I + ( -0.5000 -0.5000  0.0000)
     This is a supercell, fractional translations are disabled

     bravais-lattice index     =            0
     lattice parameter (alat)  =       1.8897  a.u.
     unit-cell volume          =     485.8593 (a.u.)^3
     number of atoms/cell      =            4
     number of atomic types    =            2
     number of electrons       =        54.00
     number of Kohn-Sham states=           47
     kinetic-energy cutoff     =      58.7989  Ry
     charge density cutoff     =     587.9892  Ry
     convergence threshold     =      1.0E-06
     mixing beta               =       0.1000
     number of iterations used =           10  plain     mixing
     Exchange-correlation      = BEEF-VDW ( 1  4 27 13 2)

     celldm(1)=   1.889726  celldm(2)=   0.000000  celldm(3)=   0.000000
     celldm(4)=   0.000000  celldm(5)=   0.000000  celldm(6)=   0.000000

     crystal axes: (cart. coord. in units of alat)
               a(1) = (   3.948686   0.000000   0.000000 )
               a(2) = (   0.000000   3.948686   0.000000 )
               a(3) = (   0.000000   0.000000   4.617519 )

     reciprocal axes: (cart. coord. in units 2 pi/alat)
               b(1) = (  0.253249  0.000000  0.000000 )
               b(2) = (  0.000000  0.253249  0.000000 )
               b(3) = (  0.000000  0.000000  0.216567 )

     PseudoPot. # 1 for Re read from file:
     /home/users/vossj/suncat/psp/gbrv1.5pbe/Re.UPF
     MD5 check sum: 85f993410f3e006da9d71c142b4ad953
     Pseudo is Ultrasoft + core correction, Zval = 15.0
     Generated by new atomic code, or converted to UPF format
     Using radial grid of  981 points,  8 beta functions with:
                l(1) =   0
                l(2) =   0
                l(3) =   1
                l(4) =   1
                l(5) =   2
                l(6) =   2
                l(7) =   3
                l(8) =   3
     Q(r) pseudized with  8 coefficients,  rinner =    1.150   1.150   1.150
                                                       1.150   1.150   1.150
                                                       1.150

     PseudoPot. # 2 for Hg read from file:
     /home/users/vossj/suncat/psp/gbrv1.5pbe/Hg.UPF
     MD5 check sum: 8f42caffe07f7fd9c0a564347f8c5498
     Pseudo is Ultrasoft + core correction, Zval = 12.0
     Generated by new atomic code, or converted to UPF format
     Using radial grid of  985 points,  6 beta functions with:
                l(1) =   0
                l(2) =   0
                l(3) =   1
                l(4) =   1
                l(5) =   2
                l(6) =   2
     Q(r) pseudized with  8 coefficients,  rinner =    2.000   2.000   2.000
                                                       2.000   2.000

     vdW kernel table read from file vdW_kernel_table
     MD5 check sum: 095c7af220d748ca6e76c0b4c6cfb241

     atomic species   valence    mass     pseudopotential
        Re1           15.00   186.20700     Re( 1.00)
        Hg1           12.00   200.59000     Hg( 1.00)

     16 Sym. Ops., with inversion, found

   Cartesian axes

     site n.     atom                  positions (alat units)
         1           Re1 tau(   1) = (   0.0000000   0.0000000   0.0000000  )
         2           Re1 tau(   2) = (   1.9743431   1.9743431   0.0000000  )
         3           Hg1 tau(   3) = (   1.9743431   0.0000000   2.3087595  )
         4           Hg1 tau(   4) = (   0.0000000   1.9743431   2.3087595  )

     number of k points=    75  Fermi-Dirac smearing, width (Ry)=  0.0073
                       cart. coord. in units 2pi/alat
        k(    1) = (   0.0000000   0.0000000   0.0000000), wk =   0.0027435
        k(    2) = (   0.0000000   0.0000000   0.0240629), wk =   0.0054870
        k(    3) = (   0.0000000   0.0000000   0.0481259), wk =   0.0054870
        k(    4) = (   0.0000000   0.0000000   0.0721888), wk =   0.0054870
        k(    5) = (   0.0000000   0.0000000   0.0962518), wk =   0.0054870
        k(    6) = (   0.0000000   0.0281388   0.0000000), wk =   0.0109739
        k(    7) = (   0.0000000   0.0281388   0.0240629), wk =   0.0219479
        k(    8) = (   0.0000000   0.0281388   0.0481259), wk =   0.0219479
        k(    9) = (   0.0000000   0.0281388   0.0721888), wk =   0.0219479
        k(   10) = (   0.0000000   0.0281388   0.0962518), wk =   0.0219479
        k(   11) = (   0.0000000   0.0562775   0.0000000), wk =   0.0109739
        k(   12) = (   0.0000000   0.0562775   0.0240629), wk =   0.0219479
        k(   13) = (   0.0000000   0.0562775   0.0481259), wk =   0.0219479
        k(   14) = (   0.0000000   0.0562775   0.0721888), wk =   0.0219479
        k(   15) = (   0.0000000   0.0562775   0.0962518), wk =   0.0219479
        k(   16) = (   0.0000000   0.0844163   0.0000000), wk =   0.0109739
        k(   17) = (   0.0000000   0.0844163   0.0240629), wk =   0.0219479
        k(   18) = (   0.0000000   0.0844163   0.0481259), wk =   0.0219479
        k(   19) = (   0.0000000   0.0844163   0.0721888), wk =   0.0219479
        k(   20) = (   0.0000000   0.0844163   0.0962518), wk =   0.0219479
        k(   21) = (   0.0000000   0.1125550   0.0000000), wk =   0.0109739
        k(   22) = (   0.0000000   0.1125550   0.0240629), wk =   0.0219479
        k(   23) = (   0.0000000   0.1125550   0.0481259), wk =   0.0219479
        k(   24) = (   0.0000000   0.1125550   0.0721888), wk =   0.0219479
        k(   25) = (   0.0000000   0.1125550   0.0962518), wk =   0.0219479
        k(   26) = (   0.0281388   0.0281388   0.0000000), wk =   0.0109739
        k(   27) = (   0.0281388   0.0281388   0.0240629), wk =   0.0219479
        k(   28) = (   0.0281388   0.0281388   0.0481259), wk =   0.0219479
        k(   29) = (   0.0281388   0.0281388   0.0721888), wk =   0.0219479
        k(   30) = (   0.0281388   0.0281388   0.0962518), wk =   0.0219479
        k(   31) = (   0.0281388   0.0562775   0.0000000), wk =   0.0219479
        k(   32) = (   0.0281388   0.0562775   0.0240629), wk =   0.0438957
        k(   33) = (   0.0281388   0.0562775   0.0481259), wk =   0.0438957
        k(   34) = (   0.0281388   0.0562775   0.0721888), wk =   0.0438957
        k(   35) = (   0.0281388   0.0562775   0.0962518), wk =   0.0438957
        k(   36) = (   0.0281388   0.0844163   0.0000000), wk =   0.0219479
        k(   37) = (   0.0281388   0.0844163   0.0240629), wk =   0.0438957
        k(   38) = (   0.0281388   0.0844163   0.0481259), wk =   0.0438957
        k(   39) = (   0.0281388   0.0844163   0.0721888), wk =   0.0438957
        k(   40) = (   0.0281388   0.0844163   0.0962518), wk =   0.0438957
        k(   41) = (   0.0281388   0.1125550   0.0000000), wk =   0.0219479
        k(   42) = (   0.0281388   0.1125550   0.0240629), wk =   0.0438957
        k(   43) = (   0.0281388   0.1125550   0.0481259), wk =   0.0438957
        k(   44) = (   0.0281388   0.1125550   0.0721888), wk =   0.0438957
        k(   45) = (   0.0281388   0.1125550   0.0962518), wk =   0.0438957
        k(   46) = (   0.0562775   0.0562775   0.0000000), wk =   0.0109739
        k(   47) = (   0.0562775   0.0562775   0.0240629), wk =   0.0219479
        k(   48) = (   0.0562775   0.0562775   0.0481259), wk =   0.0219479
        k(   49) = (   0.0562775   0.0562775   0.0721888), wk =   0.0219479
        k(   50) = (   0.0562775   0.0562775   0.0962518), wk =   0.0219479
        k(   51) = (   0.0562775   0.0844163   0.0000000), wk =   0.0219479
        k(   52) = (   0.0562775   0.0844163   0.0240629), wk =   0.0438957
        k(   53) = (   0.0562775   0.0844163   0.0481259), wk =   0.0438957
        k(   54) = (   0.0562775   0.0844163   0.0721888), wk =   0.0438957
        k(   55) = (   0.0562775   0.0844163   0.0962518), wk =   0.0438957
        k(   56) = (   0.0562775   0.1125550   0.0000000), wk =   0.0219479
        k(   57) = (   0.0562775   0.1125550   0.0240629), wk =   0.0438957
        k(   58) = (   0.0562775   0.1125550   0.0481259), wk =   0.0438957
        k(   59) = (   0.0562775   0.1125550   0.0721888), wk =   0.0438957
        k(   60) = (   0.0562775   0.1125550   0.0962518), wk =   0.0438957
        k(   61) = (   0.0844163   0.0844163   0.0000000), wk =   0.0109739
        k(   62) = (   0.0844163   0.0844163   0.0240629), wk =   0.0219479
        k(   63) = (   0.0844163   0.0844163   0.0481259), wk =   0.0219479
        k(   64) = (   0.0844163   0.0844163   0.0721888), wk =   0.0219479
        k(   65) = (   0.0844163   0.0844163   0.0962518), wk =   0.0219479
        k(   66) = (   0.0844163   0.1125550   0.0000000), wk =   0.0219479
        k(   67) = (   0.0844163   0.1125550   0.0240629), wk =   0.0438957
        k(   68) = (   0.0844163   0.1125550   0.0481259), wk =   0.0438957
        k(   69) = (   0.0844163   0.1125550   0.0721888), wk =   0.0438957
        k(   70) = (   0.0844163   0.1125550   0.0962518), wk =   0.0438957
        k(   71) = (   0.1125550   0.1125550   0.0000000), wk =   0.0109739
        k(   72) = (   0.1125550   0.1125550   0.0240629), wk =   0.0219479
        k(   73) = (   0.1125550   0.1125550   0.0481259), wk =   0.0219479
        k(   74) = (   0.1125550   0.1125550   0.0721888), wk =   0.0219479
        k(   75) = (   0.1125550   0.1125550   0.0962518), wk =   0.0219479

     Largest allocated arrays     est. size (Mb)     dimensions
     Largest temporary arrays     est. size (Mb)     dimensions

     Initial potential from superposition of free atoms
     Check: negative starting charge=   -0.257971

     starting charge   52.99979, renormalised to   54.00000

     negative rho (up, down):  2.628E-01 0.000E+00

     *
     * You are using vdW-DF for exchange-correlation in this calculation.
     * Please cite the following three references that made this development
     * possible:
     *
     *   M. Dion, H. Rydberg, E. Schroder, D. C. Langreth, and
     *   B. I. Lundqvist, Phys. Rev. Lett. 92, 246401 (2004).
     *
     *   T. Thonhauser, V. R. Cooper, S. Li, A. Puzder, P. Hyldgaard, and
     *   D. C. Langreth, Phys. Rev. B 76, 125112 (2007).
     *
     *   G. Roman-Perez and J. M. Soler, Phys. Rev. Lett. 103, 096102 (2009).
     *
     *
     * If you are using vdW-DF2, please also cite:
     *
     *   K. Lee, E. D. Murray, L. Kong, B. I. Lundqvist, and
     *   D. C. Langreth, Phys. Rev. B 82, 081101(R) (2010).
     *
     *
     * If you are calculating the stress with vdW-DF, please also cite:
     *
     *   R. Sabatini, E. Kucukbenli, B. Kolb, T. Thonhauser, and
     *   S. de Gironcoli, J. Phys.: Condens. Matter 24, 424209 (2012).
     *

     Carrying out vdW-DF run using the following parameters:

     Nqs =      20    Nr_points =    1024   r_max =   100.000
     q_mesh =
               0.00001000     0.04494208     0.09755937     0.15916263
               0.23128650     0.31572767     0.41458969     0.53033537
               0.66584808     0.82450364     1.01025438     1.22772762
               1.48234092     1.78043706     2.12944203     2.53805004
               3.01644009     3.57652955     4.23227104     5.00000000

     Gradients computed in reciprocal space

     Starting wfc are   44 randomized atomic wfcs +    3 random wfc

     Self-consistent Calculation

     iteration #  1     ecut=    58.80 Ry     beta=0.10
     Davidson diagonalization with overlap
     ethr =  1.00E-02,  avg # of iterations =  5.1

[...]

     total energy              =    -602.30959179 Ry
     Harris-Foulkes estimate   =    -602.58780000 Ry
     estimated scf accuracy    <       1.58480109 Ry

[...]

     total energy              =    -602.27316593 Ry
     Harris-Foulkes estimate   =    -602.27316599 Ry
     estimated scf accuracy    <       0.00000103 Ry

     iteration # 13     ecut=    58.80 Ry     beta=0.10
     Davidson diagonalization with overlap
     ethr =  1.91E-09,  avg # of iterations =  2.0

     negative rho (up, down):  2.656E-01 0.000E+00

     End of self-consistent calculation

          k = 0.0000 0.0000 0.0000 (  3665 PWs)   bands (ev):

   -62.7222 -62.6616 -24.6187 -24.6187 -24.4076 -24.2975 -24.1495 -24.1495
     7.3282   8.3527   8.3766   8.9123   9.2392   9.2392  10.0659  10.7627
    10.7627  11.4127  12.3304  14.1880  14.3006  14.3036  16.7019  16.9174
    16.9174  18.2823  18.9802  18.9802  19.0431  19.0431  20.2727  22.0011
    22.0620  22.5263  24.9643  26.8598  26.8598  27.1382  27.2252  28.5467
    28.5467  31.1301  33.0147  33.9421  35.4107  35.4461  35.9964

[...]

          k = 0.1126 0.1126 0.0963 (  3679 PWs)   bands (ev):

   -62.6926 -62.6908 -24.6789 -24.6652 -24.3540 -24.3506 -24.1201 -24.1055
     8.6324   8.7305   8.8050   8.8175  10.1509  10.1676  10.2837  10.3870
    10.8961  10.9442  13.5974  14.1325  14.3767  14.5777  15.7177  15.9478
    16.5118  16.7676  18.0745  18.3327  18.3491  18.3803  19.2343  19.2680
    20.5806  20.8395  24.2018  24.3279  28.9846  29.0482  29.7925  29.9770
    33.3541  33.5012  33.5426  33.8559  33.9174  34.3397  36.2463

     the Fermi energy is    18.0525 ev

!    total energy              =    -602.27316813 Ry
     Harris-Foulkes estimate   =    -602.27316613 Ry
     estimated scf accuracy    <       0.00000004 Ry

     The total energy is the sum of the following terms:

     one-electron contribution =     -59.91894113 Ry
     hartree contribution      =      73.85209514 Ry
     xc contribution           =    -189.22682061 Ry
     ewald contribution        =    -426.96740762 Ry
     smearing contrib. (-TS)   =      -0.01209391 Ry

     convergence has been achieved in  13 iterations

     Forces acting on atoms (Ry/au):

     negative rho (up, down):  2.656E-01 0.000E+00
     atom    1 type  1   force =     0.00000000    0.00000000    0.00000000
     atom    2 type  1   force =     0.00000000    0.00000000    0.00000000
     atom    3 type  2   force =     0.00000000    0.00000000    0.00000000
     atom    4 type  2   force =     0.00000000    0.00000000    0.00000000

     Total force =     0.000000     Total SCF correction =     0.000000

     General routines

     Parallel routines

   This run was terminated on:   4:29: 0  15Nov2017

   JOB DONE.