     Program PWSCF v.5.1rc2 starts on 14Nov2017 at 20:21:45

     Current dimensions of program PWSCF are:
     Max number of different atomic species (ntypx) = 10
     Max number of k-points (npk) =  40000
     Max angular momentum in pseudopotentials (lmaxx) =  3

     IMPORTANT: XC functional enforced from input :
     Exchange-correlation      = BEEF-VDW ( 1  4 27 13 2)
     Any further DFT definition will be discarded
     Please, verify this is what you really want

     Found symmetry operation: I + ( -0.5000 -0.5000  0.0000)
     This is a supercell, fractional translations are disabled

     bravais-lattice index     =            0
     lattice parameter (alat)  =       1.8897  a.u.
     unit-cell volume          =     545.6456 (a.u.)^3
     number of atoms/cell      =            4
     number of atomic types    =            2
     number of electrons       =        54.00
     number of Kohn-Sham states=           47
     kinetic-energy cutoff     =      58.7989  Ry
     charge density cutoff     =     587.9892  Ry
     convergence threshold     =      1.0E-06
     mixing beta               =       0.1000
     number of iterations used =           10  plain     mixing
     Exchange-correlation      = BEEF-VDW ( 1  4 27 13 2)

     celldm(1)=   1.889726  celldm(2)=   0.000000  celldm(3)=   0.000000
     celldm(4)=   0.000000  celldm(5)=   0.000000  celldm(6)=   0.000000

     crystal axes: (cart. coord. in units of alat)
               a(1) = (   5.101318   0.000000   0.000000 )
               a(2) = (   0.000000   5.101318   0.000000 )
               a(3) = (   0.000000   0.000000   3.107057 )

     reciprocal axes: (cart. coord. in units 2 pi/alat)
               b(1) = (  0.196028  0.000000  0.000000 )
               b(2) = (  0.000000  0.196028  0.000000 )
               b(3) = (  0.000000  0.000000  0.321848 )

     PseudoPot. # 1 for Nb read from file:
     /home/users/vossj/suncat/psp/gbrv1.5pbe/Nb.UPF
     MD5 check sum: 573aab8a2fa660278ed4a62cd769473f
     Pseudo is Ultrasoft + core correction, Zval = 13.0
     Generated by new atomic code, or converted to UPF format
     Using radial grid of  887 points,  6 beta functions with:
                l(1) =   0
                l(2) =   0
                l(3) =   1
                l(4) =   1
                l(5) =   2
                l(6) =   2
     Q(r) pseudized with  6 coefficients,  rinner =    1.000   1.000   1.000
                                                       1.000   1.000

     PseudoPot. # 2 for Sn read from file:
     /home/users/vossj/suncat/psp/gbrv1.5pbe/Sn.UPF
     MD5 check sum: 469debedee59599fedebd795477fea03
     Pseudo is Ultrasoft + core correction, Zval = 14.0
     Generated by new atomic code, or converted to UPF format
     Using radial grid of  891 points,  6 beta functions with:
                l(1) =   0
                l(2) =   0
                l(3) =   1
                l(4) =   1
                l(5) =   2
                l(6) =   2
     Q(r) pseudized with  8 coefficients,  rinner =    1.350   1.350   1.350
                                                       1.350   1.350

     vdW kernel table read from file vdW_kernel_table
     MD5 check sum: 095c7af220d748ca6e76c0b4c6cfb241

     atomic species   valence    mass     pseudopotential
        Nb1           13.00    92.90640     Nb( 1.00)
        Sn1           14.00   118.71000     Sn( 1.00)

     16 Sym. Ops., with inversion, found

   Cartesian axes

     site n.     atom                  positions (alat units)
         1           Nb1 tau(   1) = (   0.0000000   0.0000000   0.0000000  )
         2           Nb1 tau(   2) = (   2.5506590   2.5506590   0.0000000  )
         3           Sn1 tau(   3) = (   2.5506590   0.0000000   1.5535286  )
         4           Sn1 tau(   4) = (   0.0000000   2.5506590   1.5535286  )

     number of k points=    75  Fermi-Dirac smearing, width (Ry)=  0.0073
                       cart. coord. in units 2pi/alat
        k(    1) = (   0.0000000   0.0000000   0.0000000), wk =   0.0027435
        k(    2) = (   0.0000000   0.0000000   0.0357609), wk =   0.0054870
        k(    3) = (   0.0000000   0.0000000   0.0715218), wk =   0.0054870
        k(    4) = (   0.0000000   0.0000000   0.1072826), wk =   0.0054870
        k(    5) = (   0.0000000   0.0000000   0.1430435), wk =   0.0054870
        k(    6) = (   0.0000000   0.0217809   0.0000000), wk =   0.0109739
        k(    7) = (   0.0000000   0.0217809   0.0357609), wk =   0.0219479
        k(    8) = (   0.0000000   0.0217809   0.0715218), wk =   0.0219479
        k(    9) = (   0.0000000   0.0217809   0.1072826), wk =   0.0219479
        k(   10) = (   0.0000000   0.0217809   0.1430435), wk =   0.0219479
        k(   11) = (   0.0000000   0.0435617   0.0000000), wk =   0.0109739
        k(   12) = (   0.0000000   0.0435617   0.0357609), wk =   0.0219479
        k(   13) = (   0.0000000   0.0435617   0.0715218), wk =   0.0219479
        k(   14) = (   0.0000000   0.0435617   0.1072826), wk =   0.0219479
        k(   15) = (   0.0000000   0.0435617   0.1430435), wk =   0.0219479
        k(   16) = (   0.0000000   0.0653426   0.0000000), wk =   0.0109739
        k(   17) = (   0.0000000   0.0653426   0.0357609), wk =   0.0219479
        k(   18) = (   0.0000000   0.0653426   0.0715218), wk =   0.0219479
        k(   19) = (   0.0000000   0.0653426   0.1072826), wk =   0.0219479
        k(   20) = (   0.0000000   0.0653426   0.1430435), wk =   0.0219479
        k(   21) = (   0.0000000   0.0871235   0.0000000), wk =   0.0109739
        k(   22) = (   0.0000000   0.0871235   0.0357609), wk =   0.0219479
        k(   23) = (   0.0000000   0.0871235   0.0715218), wk =   0.0219479
        k(   24) = (   0.0000000   0.0871235   0.1072826), wk =   0.0219479
        k(   25) = (   0.0000000   0.0871235   0.1430435), wk =   0.0219479
        k(   26) = (   0.0217809   0.0217809   0.0000000), wk =   0.0109739
        k(   27) = (   0.0217809   0.0217809   0.0357609), wk =   0.0219479
        k(   28) = (   0.0217809   0.0217809   0.0715218), wk =   0.0219479
        k(   29) = (   0.0217809   0.0217809   0.1072826), wk =   0.0219479
        k(   30) = (   0.0217809   0.0217809   0.1430435), wk =   0.0219479
        k(   31) = (   0.0217809   0.0435617   0.0000000), wk =   0.0219479
        k(   32) = (   0.0217809   0.0435617   0.0357609), wk =   0.0438957
        k(   33) = (   0.0217809   0.0435617   0.0715218), wk =   0.0438957
        k(   34) = (   0.0217809   0.0435617   0.1072826), wk =   0.0438957
        k(   35) = (   0.0217809   0.0435617   0.1430435), wk =   0.0438957
        k(   36) = (   0.0217809   0.0653426   0.0000000), wk =   0.0219479
        k(   37) = (   0.0217809   0.0653426   0.0357609), wk =   0.0438957
        k(   38) = (   0.0217809   0.0653426   0.0715218), wk =   0.0438957
        k(   39) = (   0.0217809   0.0653426   0.1072826), wk =   0.0438957
        k(   40) = (   0.0217809   0.0653426   0.1430435), wk =   0.0438957
        k(   41) = (   0.0217809   0.0871235   0.0000000), wk =   0.0219479
        k(   42) = (   0.0217809   0.0871235   0.0357609), wk =   0.0438957
        k(   43) = (   0.0217809   0.0871235   0.0715218), wk =   0.0438957
        k(   44) = (   0.0217809   0.0871235   0.1072826), wk =   0.0438957
        k(   45) = (   0.0217809   0.0871235   0.1430435), wk =   0.0438957
        k(   46) = (   0.0435617   0.0435617   0.0000000), wk =   0.0109739
        k(   47) = (   0.0435617   0.0435617   0.0357609), wk =   0.0219479
        k(   48) = (   0.0435617   0.0435617   0.0715218), wk =   0.0219479
        k(   49) = (   0.0435617   0.0435617   0.1072826), wk =   0.0219479
        k(   50) = (   0.0435617   0.0435617   0.1430435), wk =   0.0219479
        k(   51) = (   0.0435617   0.0653426   0.0000000), wk =   0.0219479
        k(   52) = (   0.0435617   0.0653426   0.0357609), wk =   0.0438957
        k(   53) = (   0.0435617   0.0653426   0.0715218), wk =   0.0438957
        k(   54) = (   0.0435617   0.0653426   0.1072826), wk =   0.0438957
        k(   55) = (   0.0435617   0.0653426   0.1430435), wk =   0.0438957
        k(   56) = (   0.0435617   0.0871235   0.0000000), wk =   0.0219479
        k(   57) = (   0.0435617   0.0871235   0.0357609), wk =   0.0438957
        k(   58) = (   0.0435617   0.0871235   0.0715218), wk =   0.0438957
        k(   59) = (   0.0435617   0.0871235   0.1072826), wk =   0.0438957
        k(   60) = (   0.0435617   0.0871235   0.1430435), wk =   0.0438957
        k(   61) = (   0.0653426   0.0653426   0.0000000), wk =   0.0109739
        k(   62) = (   0.0653426   0.0653426   0.0357609), wk =   0.0219479
        k(   63) = (   0.0653426   0.0653426   0.0715218), wk =   0.0219479
        k(   64) = (   0.0653426   0.0653426   0.1072826), wk =   0.0219479
        k(   65) = (   0.0653426   0.0653426   0.1430435), wk =   0.0219479
        k(   66) = (   0.0653426   0.0871235   0.0000000), wk =   0.0219479
        k(   67) = (   0.0653426   0.0871235   0.0357609), wk =   0.0438957
        k(   68) = (   0.0653426   0.0871235   0.0715218), wk =   0.0438957
        k(   69) = (   0.0653426   0.0871235   0.1072826), wk =   0.0438957
        k(   70) = (   0.0653426   0.0871235   0.1430435), wk =   0.0438957
        k(   71) = (   0.0871235   0.0871235   0.0000000), wk =   0.0109739
        k(   72) = (   0.0871235   0.0871235   0.0357609), wk =   0.0219479
        k(   73) = (   0.0871235   0.0871235   0.0715218), wk =   0.0219479
        k(   74) = (   0.0871235   0.0871235   0.1072826), wk =   0.0219479
        k(   75) = (   0.0871235   0.0871235   0.1430435), wk =   0.0219479

     Largest allocated arrays     est. size (Mb)     dimensions
     Largest temporary arrays     est. size (Mb)     dimensions

     Initial potential from superposition of free atoms

     starting charge   51.99444, renormalised to   54.00000

     *
     * You are using vdW-DF for exchange-correlation in this calculation.
     * Please cite the following three references that made this development
     * possible:
     *
     *   M. Dion, H. Rydberg, E. Schroder, D. C. Langreth, and
     *   B. I. Lundqvist, Phys. Rev. Lett. 92, 246401 (2004).
     *
     *   T. Thonhauser, V. R. Cooper, S. Li, A. Puzder, P. Hyldgaard, and
     *   D. C. Langreth, Phys. Rev. B 76, 125112 (2007).
     *
     *   G. Roman-Perez and J. M. Soler, Phys. Rev. Lett. 103, 096102 (2009).
     *
     *
     * If you are using vdW-DF2, please also cite:
     *
     *   K. Lee, E. D. Murray, L. Kong, B. I. Lundqvist, and
     *   D. C. Langreth, Phys. Rev. B 82, 081101(R) (2010).
     *
     *
     * If you are calculating the stress with vdW-DF, please also cite:
     *
     *   R. Sabatini, E. Kucukbenli, B. Kolb, T. Thonhauser, and
     *   S. de Gironcoli, J. Phys.: Condens. Matter 24, 424209 (2012).
     *

     Carrying out vdW-DF run using the following parameters:

     Nqs =      20    Nr_points =    1024   r_max =   100.000
     q_mesh =
               0.00001000     0.04494208     0.09755937     0.15916263
               0.23128650     0.31572767     0.41458969     0.53033537
               0.66584808     0.82450364     1.01025438     1.22772762
               1.48234092     1.78043706     2.12944203     2.53805004
               3.01644009     3.57652955     4.23227104     5.00000000

     Gradients computed in reciprocal space

     Starting wfc are   44 randomized atomic wfcs +    3 random wfc

     Self-consistent Calculation

     iteration #  1     ecut=    58.80 Ry     beta=0.10
     Davidson diagonalization with overlap
     ethr =  1.00E-02,  avg # of iterations =  5.1

     total energy              =    -558.86898801 Ry
     Harris-Foulkes estimate   =    -559.07515279 Ry
     estimated scf accuracy    <       1.39896305 Ry

[...]

     total energy              =    -558.55317549 Ry
     Harris-Foulkes estimate   =    -558.55317376 Ry
     estimated scf accuracy    <       0.00000138 Ry

     iteration # 18     ecut=    58.80 Ry     beta=0.10
     Davidson diagonalization with overlap
     ethr =  2.55E-09,  avg # of iterations =  2.7

     End of self-consistent calculation

          k = 0.0000 0.0000 0.0000 (  4139 PWs)   bands (ev):

   -39.6580 -39.6463 -15.7754 -15.7754 -15.6805 -15.6805 -15.4081 -15.3929
    -6.1430  -6.1037  -5.9696  -5.9645  -5.9303  -5.9303  -5.9192  -5.9093
    -5.9093  -5.8333   4.9939   7.4997  12.4183  12.4183  13.5186  13.6289
    13.6367  16.5937  16.9067  16.9067  16.9643  16.9643  17.6277  17.6277
    17.7545  19.2205  19.2355  20.6272  22.3170  23.1013  25.9601  26.5442
    26.5442  26.8029  28.2227  28.2227  28.8202  31.8285  31.8287

[...]

          k = 0.0871 0.0871 0.1430 (  4165 PWs)   bands (ev):

   -39.6151 -39.6146 -15.8129 -15.8121 -15.7360 -15.7333 -15.6301 -15.6273
    -6.0456  -6.0452  -6.0169  -6.0164  -5.9342  -5.9334  -5.9067  -5.9036
    -5.8132  -5.8114   8.6921   8.7387  12.3012  12.4300  13.0472  13.2184
    14.4740  14.5608  15.3724  15.6115  15.8062  15.8458  18.2346  18.2504
    18.3673  18.8060  20.6035  20.7944  21.6284  21.6396  24.3582  24.5501
    25.5131  25.5382  28.3360  28.3894  28.6715  28.9271  30.5580

     the Fermi energy is    15.7632 ev

!    total energy              =    -558.55318394 Ry
     Harris-Foulkes estimate   =    -558.55317564 Ry
     estimated scf accuracy    <       0.00000068 Ry

     The total energy is the sum of the following terms:

     one-electron contribution =    -119.46975062 Ry
     hartree contribution      =      97.45718796 Ry
     xc contribution           =    -127.49261162 Ry
     ewald contribution        =    -409.03977469 Ry
     smearing contrib. (-TS)   =      -0.00823498 Ry

     convergence has been achieved in  18 iterations

     Forces acting on atoms (Ry/au):

     atom    1 type  1   force =     0.00000000    0.00000000    0.00000000
     atom    2 type  1   force =     0.00000000    0.00000000    0.00000000
     atom    3 type  2   force =     0.00000000    0.00000000    0.00000000
     atom    4 type  2   force =     0.00000000    0.00000000    0.00000000

     Total force =     0.000000     Total SCF correction =     0.000000

     General routines

     Parallel routines

   This run was terminated on:  20:22:42  14Nov2017

   JOB DONE.