     Program PWSCF v.5.1rc2 starts on 15Nov2017 at  7: 6:23

     Current dimensions of program PWSCF are:
     Max number of different atomic species (ntypx) = 10
     Max number of k-points (npk) =  40000
     Max angular momentum in pseudopotentials (lmaxx) =  3

     IMPORTANT: XC functional enforced from input :
     Exchange-correlation      = BEEF-VDW ( 1  4 27 13 2)
     Any further DFT definition will be discarded
     Please, verify this is what you really want

     Found symmetry operation: I + ( -0.5000 -0.5000  0.0000)
     This is a supercell, fractional translations are disabled

     bravais-lattice index     =            0
     lattice parameter (alat)  =       1.8897  a.u.
     unit-cell volume          =     555.0155 (a.u.)^3
     number of atoms/cell      =            4
     number of atomic types    =            2
     number of electrons       =        50.00
     number of Kohn-Sham states=           45
     kinetic-energy cutoff     =      58.7989  Ry
     charge density cutoff     =     587.9892  Ry
     convergence threshold     =      1.0E-06
     mixing beta               =       0.1000
     number of iterations used =           10  plain     mixing
     Exchange-correlation      = BEEF-VDW ( 1  4 27 13 2)

     celldm(1)=   1.889726  celldm(2)=   0.000000  celldm(3)=   0.000000
     celldm(4)=   0.000000  celldm(5)=   0.000000  celldm(6)=   0.000000

     crystal axes: (cart. coord. in units of alat)
               a(1) = (   4.080930   0.000000   0.000000 )
               a(2) = (   0.000000   4.080930   0.000000 )
               a(3) = (   0.000000   0.000000   4.938446 )

     reciprocal axes: (cart. coord. in units 2 pi/alat)
               b(1) = (  0.245042  0.000000  0.000000 )
               b(2) = (  0.000000  0.245042  0.000000 )
               b(3) = (  0.000000  0.000000  0.202493 )

     PseudoPot. # 1 for Zr read from file:
     /home/users/vossj/suncat/psp/gbrv1.5pbe/Zr.UPF
     MD5 check sum: 5db81b1e868ab7776c4564c113de050b
     Pseudo is Ultrasoft + core correction, Zval = 12.0
     Generated by new atomic code, or converted to UPF format
     Using radial grid of  887 points,  6 beta functions with:
                l(1) =   0
                l(2) =   0
                l(3) =   1
                l(4) =   1
                l(5) =   2
                l(6) =   2
     Q(r) pseudized with  6 coefficients,  rinner =    1.200   1.200   1.200
                                                       1.200   1.200

     PseudoPot. # 2 for Nb read from file:
     /home/users/vossj/suncat/psp/gbrv1.5pbe/Nb.UPF
     MD5 check sum: 573aab8a2fa660278ed4a62cd769473f
     Pseudo is Ultrasoft + core correction, Zval = 13.0
     Generated by new atomic code, or converted to UPF format
     Using radial grid of  887 points,  6 beta functions with:
                l(1) =   0
                l(2) =   0
                l(3) =   1
                l(4) =   1
                l(5) =   2
                l(6) =   2
     Q(r) pseudized with  6 coefficients,  rinner =    1.000   1.000   1.000
                                                       1.000   1.000

     vdW kernel table read from file vdW_kernel_table
     MD5 check sum: 095c7af220d748ca6e76c0b4c6cfb241

     atomic species   valence    mass     pseudopotential
        Zr1           12.00    91.22400     Zr( 1.00)
        Nb1           13.00    92.90640     Nb( 1.00)

     16 Sym. Ops., with inversion, found

   Cartesian axes

     site n.     atom                  positions (alat units)
         1           Zr1 tau(   1) = (   0.0000000   0.0000000   0.0000000  )
         2           Zr1 tau(   2) = (   2.0404648   2.0404648   0.0000000  )
         3           Nb1 tau(   3) = (   2.0404648   0.0000000   2.4692230  )
         4           Nb1 tau(   4) = (   0.0000000   2.0404648   2.4692230  )

     number of k points=    75  Fermi-Dirac smearing, width (Ry)=  0.0073
                       cart. coord. in units 2pi/alat
        k(    1) = (   0.0000000   0.0000000   0.0000000), wk =   0.0027435
        k(    2) = (   0.0000000   0.0000000   0.0224992), wk =   0.0054870
        k(    3) = (   0.0000000   0.0000000   0.0449984), wk =   0.0054870
        k(    4) = (   0.0000000   0.0000000   0.0674976), wk =   0.0054870
        k(    5) = (   0.0000000   0.0000000   0.0899968), wk =   0.0054870
        k(    6) = (   0.0000000   0.0272269   0.0000000), wk =   0.0109739
        k(    7) = (   0.0000000   0.0272269   0.0224992), wk =   0.0219479
        k(    8) = (   0.0000000   0.0272269   0.0449984), wk =   0.0219479
        k(    9) = (   0.0000000   0.0272269   0.0674976), wk =   0.0219479
        k(   10) = (   0.0000000   0.0272269   0.0899968), wk =   0.0219479
        k(   11) = (   0.0000000   0.0544538   0.0000000), wk =   0.0109739
        k(   12) = (   0.0000000   0.0544538   0.0224992), wk =   0.0219479
        k(   13) = (   0.0000000   0.0544538   0.0449984), wk =   0.0219479
        k(   14) = (   0.0000000   0.0544538   0.0674976), wk =   0.0219479
        k(   15) = (   0.0000000   0.0544538   0.0899968), wk =   0.0219479
        k(   16) = (   0.0000000   0.0816807   0.0000000), wk =   0.0109739
        k(   17) = (   0.0000000   0.0816807   0.0224992), wk =   0.0219479
        k(   18) = (   0.0000000   0.0816807   0.0449984), wk =   0.0219479
        k(   19) = (   0.0000000   0.0816807   0.0674976), wk =   0.0219479
        k(   20) = (   0.0000000   0.0816807   0.0899968), wk =   0.0219479
        k(   21) = (   0.0000000   0.1089076   0.0000000), wk =   0.0109739
        k(   22) = (   0.0000000   0.1089076   0.0224992), wk =   0.0219479
        k(   23) = (   0.0000000   0.1089076   0.0449984), wk =   0.0219479
        k(   24) = (   0.0000000   0.1089076   0.0674976), wk =   0.0219479
        k(   25) = (   0.0000000   0.1089076   0.0899968), wk =   0.0219479
        k(   26) = (   0.0272269   0.0272269   0.0000000), wk =   0.0109739
        k(   27) = (   0.0272269   0.0272269   0.0224992), wk =   0.0219479
        k(   28) = (   0.0272269   0.0272269   0.0449984), wk =   0.0219479
        k(   29) = (   0.0272269   0.0272269   0.0674976), wk =   0.0219479
        k(   30) = (   0.0272269   0.0272269   0.0899968), wk =   0.0219479
        k(   31) = (   0.0272269   0.0544538   0.0000000), wk =   0.0219479
        k(   32) = (   0.0272269   0.0544538   0.0224992), wk =   0.0438957
        k(   33) = (   0.0272269   0.0544538   0.0449984), wk =   0.0438957
        k(   34) = (   0.0272269   0.0544538   0.0674976), wk =   0.0438957
        k(   35) = (   0.0272269   0.0544538   0.0899968), wk =   0.0438957
        k(   36) = (   0.0272269   0.0816807   0.0000000), wk =   0.0219479
        k(   37) = (   0.0272269   0.0816807   0.0224992), wk =   0.0438957
        k(   38) = (   0.0272269   0.0816807   0.0449984), wk =   0.0438957
        k(   39) = (   0.0272269   0.0816807   0.0674976), wk =   0.0438957
        k(   40) = (   0.0272269   0.0816807   0.0899968), wk =   0.0438957
        k(   41) = (   0.0272269   0.1089076   0.0000000), wk =   0.0219479
        k(   42) = (   0.0272269   0.1089076   0.0224992), wk =   0.0438957
        k(   43) = (   0.0272269   0.1089076   0.0449984), wk =   0.0438957
        k(   44) = (   0.0272269   0.1089076   0.0674976), wk =   0.0438957
        k(   45) = (   0.0272269   0.1089076   0.0899968), wk =   0.0438957
        k(   46) = (   0.0544538   0.0544538   0.0000000), wk =   0.0109739
        k(   47) = (   0.0544538   0.0544538   0.0224992), wk =   0.0219479
        k(   48) = (   0.0544538   0.0544538   0.0449984), wk =   0.0219479
        k(   49) = (   0.0544538   0.0544538   0.0674976), wk =   0.0219479
        k(   50) = (   0.0544538   0.0544538   0.0899968), wk =   0.0219479
        k(   51) = (   0.0544538   0.0816807   0.0000000), wk =   0.0219479
        k(   52) = (   0.0544538   0.0816807   0.0224992), wk =   0.0438957
        k(   53) = (   0.0544538   0.0816807   0.0449984), wk =   0.0438957
        k(   54) = (   0.0544538   0.0816807   0.0674976), wk =   0.0438957
        k(   55) = (   0.0544538   0.0816807   0.0899968), wk =   0.0438957
        k(   56) = (   0.0544538   0.1089076   0.0000000), wk =   0.0219479
        k(   57) = (   0.0544538   0.1089076   0.0224992), wk =   0.0438957
        k(   58) = (   0.0544538   0.1089076   0.0449984), wk =   0.0438957
        k(   59) = (   0.0544538   0.1089076   0.0674976), wk =   0.0438957
        k(   60) = (   0.0544538   0.1089076   0.0899968), wk =   0.0438957
        k(   61) = (   0.0816807   0.0816807   0.0000000), wk =   0.0109739
        k(   62) = (   0.0816807   0.0816807   0.0224992), wk =   0.0219479
        k(   63) = (   0.0816807   0.0816807   0.0449984), wk =   0.0219479
        k(   64) = (   0.0816807   0.0816807   0.0674976), wk =   0.0219479
        k(   65) = (   0.0816807   0.0816807   0.0899968), wk =   0.0219479
        k(   66) = (   0.0816807   0.1089076   0.0000000), wk =   0.0219479
        k(   67) = (   0.0816807   0.1089076   0.0224992), wk =   0.0438957
        k(   68) = (   0.0816807   0.1089076   0.0449984), wk =   0.0438957
        k(   69) = (   0.0816807   0.1089076   0.0674976), wk =   0.0438957
        k(   70) = (   0.0816807   0.1089076   0.0899968), wk =   0.0438957
        k(   71) = (   0.1089076   0.1089076   0.0000000), wk =   0.0109739
        k(   72) = (   0.1089076   0.1089076   0.0224992), wk =   0.0219479
        k(   73) = (   0.1089076   0.1089076   0.0449984), wk =   0.0219479
        k(   74) = (   0.1089076   0.1089076   0.0674976), wk =   0.0219479
        k(   75) = (   0.1089076   0.1089076   0.0899968), wk =   0.0219479

     Largest allocated arrays     est. size (Mb)     dimensions
     Largest temporary arrays     est. size (Mb)     dimensions

     Initial potential from superposition of free atoms
     Check: negative starting charge=   -0.119433

     starting charge   49.99024, renormalised to   50.00000

     negative rho (up, down):  1.195E-01 0.000E+00

     *
     * You are using vdW-DF for exchange-correlation in this calculation.
     * Please cite the following three references that made this development
     * possible:
     *
     *   M. Dion, H. Rydberg, E. Schroder, D. C. Langreth, and
     *   B. I. Lundqvist, Phys. Rev. Lett. 92, 246401 (2004).
     *
     *   T. Thonhauser, V. R. Cooper, S. Li, A. Puzder, P. Hyldgaard, and
     *   D. C. Langreth, Phys. Rev. B 76, 125112 (2007).
     *
     *   G. Roman-Perez and J. M. Soler, Phys. Rev. Lett. 103, 096102 (2009).
     *
     *
     * If you are using vdW-DF2, please also cite:
     *
     *   K. Lee, E. D. Murray, L. Kong, B. I. Lundqvist, and
     *   D. C. Langreth, Phys. Rev. B 82, 081101(R) (2010).
     *
     *
     * If you are calculating the stress with vdW-DF, please also cite:
     *
     *   R. Sabatini, E. Kucukbenli, B. Kolb, T. Thonhauser, and
     *   S. de Gironcoli, J. Phys.: Condens. Matter 24, 424209 (2012).
     *

     Carrying out vdW-DF run using the following parameters:

     Nqs =      20    Nr_points =    1024   r_max =   100.000
     q_mesh =
               0.00001000     0.04494208     0.09755937     0.15916263
               0.23128650     0.31572767     0.41458969     0.53033537
               0.66584808     0.82450364     1.01025438     1.22772762
               1.48234092     1.78043706     2.12944203     2.53805004
               3.01644009     3.57652955     4.23227104     5.00000000

     Gradients computed in reciprocal space

     Starting wfc are   52 randomized atomic wfcs

     Self-consistent Calculation

     iteration #  1     ecut=    58.80 Ry     beta=0.10
     Davidson diagonalization with overlap
     ethr =  1.00E-02,  avg # of iterations =  4.3

[...]

     total energy              =    -436.56787597 Ry
     Harris-Foulkes estimate   =    -436.85223012 Ry
     estimated scf accuracy    <       1.65427078 Ry

[...]

     total energy              =    -436.67406513 Ry
     Harris-Foulkes estimate   =    -436.67406296 Ry
     estimated scf accuracy    <       0.00000157 Ry

     iteration # 10     ecut=    58.80 Ry     beta=0.10
     Davidson diagonalization with overlap
     ethr =  3.14E-09,  avg # of iterations =  1.3

     negative rho (up, down):  1.229E-01 0.000E+00

     End of self-consistent calculation

          k = 0.0000 0.0000 0.0000 (  4227 PWs)   bands (ev):

   -39.3224 -39.1401 -33.1472 -32.8499 -15.6176 -15.6176 -15.3627 -15.1355
   -14.9031 -14.9031 -11.5683 -11.5683 -11.0486 -10.7932 -10.5243 -10.5243
     9.9209  12.1426  12.1480  12.2443  13.0677  13.0677  13.0999  15.0068
    16.9672  17.1221  17.1221  17.2065  19.5388  19.6685  19.7922  19.7922
    20.2371  20.2371  20.6270  21.1459  21.1459  21.3689  21.5357  23.3786
    24.2566  25.1480  26.0588  27.1723  27.1725

[...]

          k = 0.1089 0.1089 0.0900 (  4217 PWs)   bands (ev):

   -39.2324 -39.2269 -33.0009 -32.9919 -15.7334 -15.7132 -15.2524 -15.2469
   -14.8523 -14.8297 -11.7270 -11.6981 -10.9280 -10.9187 -10.4493 -10.4149
    12.3394  12.4024  12.4726  12.5004  14.8062  14.9219  15.4420  15.5958
    16.3246  16.7653  16.7673  17.0041  17.0935  17.3325  17.3730  17.3796
    19.9133  20.1401  20.4548  20.5682  20.7127  20.7771  21.2010  21.2917
    25.6874  25.7622  26.4048  26.5774  26.5804

     the Fermi energy is    15.5639 ev

!    total energy              =    -436.67407630 Ry
     Harris-Foulkes estimate   =    -436.67406531 Ry
     estimated scf accuracy    <       0.00000010 Ry

     The total energy is the sum of the following terms:

     one-electron contribution =     -72.51640789 Ry
     hartree contribution      =      59.44274135 Ry
     xc contribution           =     -75.15610368 Ry
     ewald contribution        =    -348.42958369 Ry
     smearing contrib. (-TS)   =      -0.01472238 Ry

     convergence has been achieved in  10 iterations

     Forces acting on atoms (Ry/au):

     negative rho (up, down):  1.229E-01 0.000E+00
     atom    1 type  1   force =     0.00000000    0.00000000    0.00000000
     atom    2 type  1   force =     0.00000000    0.00000000    0.00000000
     atom    3 type  2   force =     0.00000000    0.00000000    0.00000000
     atom    4 type  2   force =     0.00000000    0.00000000    0.00000000

     Total force =     0.000000     Total SCF correction =     0.000000

     General routines

     Parallel routines

   This run was terminated on:   7: 6:56  15Nov2017

   JOB DONE.