     Program PWSCF v.5.1rc2 starts on 14Nov2017 at 13:30:14

     Current dimensions of program PWSCF are:
     Max number of different atomic species (ntypx) = 10
     Max number of k-points (npk) =  40000
     Max angular momentum in pseudopotentials (lmaxx) =  3

     IMPORTANT: XC functional enforced from input :
     Exchange-correlation      = BEEF-VDW ( 1  4 27 13 2)
     Any further DFT definition will be discarded
     Please, verify this is what you really want

     Found symmetry operation: I + ( -0.5000 -0.5000  0.0000)
     This is a supercell, fractional translations are disabled

     bravais-lattice index     =            0
     lattice parameter (alat)  =       1.8897  a.u.
     unit-cell volume          =     511.1773 (a.u.)^3
     number of atoms/cell      =            4
     number of atomic types    =            2
     number of electrons       =        60.00
     number of Kohn-Sham states=           50
     kinetic-energy cutoff     =      58.7989  Ry
     charge density cutoff     =     587.9892  Ry
     convergence threshold     =      1.0E-06
     mixing beta               =       0.1000
     number of iterations used =           10  plain     mixing
     Exchange-correlation      = BEEF-VDW ( 1  4 27 13 2)

     celldm(1)=   1.889726  celldm(2)=   0.000000  celldm(3)=   0.000000
     celldm(4)=   0.000000  celldm(5)=   0.000000  celldm(6)=   0.000000

     crystal axes: (cart. coord. in units of alat)
               a(1) = (   4.614422   0.000000   0.000000 )
               a(2) = (   0.000000   4.614422   0.000000 )
               a(3) = (   0.000000   0.000000   3.557463 )

     reciprocal axes: (cart. coord. in units 2 pi/alat)
               b(1) = (  0.216712  0.000000  0.000000 )
               b(2) = (  0.000000  0.216712  0.000000 )
               b(3) = (  0.000000  0.000000  0.281099 )

     PseudoPot. # 1 for Ga read from file:
     /home/users/vossj/suncat/psp/gbrv1.5pbe/Ga.UPF
     MD5 check sum: ccd671392a58a050fbb373893b4fcd66
     Pseudo is Ultrasoft + core correction, Zval = 19.0
     Generated by new atomic code, or converted to UPF format
     Using radial grid of  871 points,  6 beta functions with:
                l(1) =   0
                l(2) =   0
                l(3) =   1
                l(4) =   1
                l(5) =   2
                l(6) =   2
     Q(r) pseudized with  8 coefficients,  rinner =    1.250   1.250   1.250
                                                       1.250   1.250

     PseudoPot. # 2 for Au read from file:
     /home/users/vossj/suncat/psp/gbrv1.5pbe/Au.UPF
     MD5 check sum: 9d7f43293ad2c663164586bc4b293ffc
     Pseudo is Ultrasoft + core correction, Zval = 11.0
     Generated by new atomic code, or converted to UPF format
     Using radial grid of  985 points,  7 beta functions with:
                l(1) =   0
                l(2) =   0
                l(3) =   1
                l(4) =   1
                l(5) =   2
                l(6) =   2
                l(7) =   3
     Q(r) pseudized with  6 coefficients,  rinner =    1.900   1.900   1.900
                                                       1.900   1.900   1.900
                                                       1.900

     vdW kernel table read from file vdW_kernel_table
     MD5 check sum: 095c7af220d748ca6e76c0b4c6cfb241

     atomic species   valence    mass     pseudopotential
        Ga1           19.00    69.72300     Ga( 1.00)
        Au1           11.00   196.96650     Au( 1.00)

     16 Sym. Ops., with inversion, found

   Cartesian axes

     site n.     atom                  positions (alat units)
         1           Ga1 tau(   1) = (   0.0000000   0.0000000   0.0000000  )
         2           Ga1 tau(   2) = (   2.3072109   2.3072109   0.0000000  )
         3           Au1 tau(   3) = (   2.3072109   0.0000000   1.7787314  )
         4           Au1 tau(   4) = (   0.0000000   2.3072109   1.7787314  )

     number of k points=    75  Fermi-Dirac smearing, width (Ry)=  0.0073
                       cart. coord. in units 2pi/alat
        k(    1) = (   0.0000000   0.0000000   0.0000000), wk =   0.0027435
        k(    2) = (   0.0000000   0.0000000   0.0312332), wk =   0.0054870
        k(    3) = (   0.0000000   0.0000000   0.0624665), wk =   0.0054870
        k(    4) = (   0.0000000   0.0000000   0.0936997), wk =   0.0054870
        k(    5) = (   0.0000000   0.0000000   0.1249330), wk =   0.0054870
        k(    6) = (   0.0000000   0.0240791   0.0000000), wk =   0.0109739
        k(    7) = (   0.0000000   0.0240791   0.0312332), wk =   0.0219479
        k(    8) = (   0.0000000   0.0240791   0.0624665), wk =   0.0219479
        k(    9) = (   0.0000000   0.0240791   0.0936997), wk =   0.0219479
        k(   10) = (   0.0000000   0.0240791   0.1249330), wk =   0.0219479
        k(   11) = (   0.0000000   0.0481582   0.0000000), wk =   0.0109739
        k(   12) = (   0.0000000   0.0481582   0.0312332), wk =   0.0219479
        k(   13) = (   0.0000000   0.0481582   0.0624665), wk =   0.0219479
        k(   14) = (   0.0000000   0.0481582   0.0936997), wk =   0.0219479
        k(   15) = (   0.0000000   0.0481582   0.1249330), wk =   0.0219479
        k(   16) = (   0.0000000   0.0722373   0.0000000), wk =   0.0109739
        k(   17) = (   0.0000000   0.0722373   0.0312332), wk =   0.0219479
        k(   18) = (   0.0000000   0.0722373   0.0624665), wk =   0.0219479
        k(   19) = (   0.0000000   0.0722373   0.0936997), wk =   0.0219479
        k(   20) = (   0.0000000   0.0722373   0.1249330), wk =   0.0219479
        k(   21) = (   0.0000000   0.0963164   0.0000000), wk =   0.0109739
        k(   22) = (   0.0000000   0.0963164   0.0312332), wk =   0.0219479
        k(   23) = (   0.0000000   0.0963164   0.0624665), wk =   0.0219479
        k(   24) = (   0.0000000   0.0963164   0.0936997), wk =   0.0219479
        k(   25) = (   0.0000000   0.0963164   0.1249330), wk =   0.0219479
        k(   26) = (   0.0240791   0.0240791   0.0000000), wk =   0.0109739
        k(   27) = (   0.0240791   0.0240791   0.0312332), wk =   0.0219479
        k(   28) = (   0.0240791   0.0240791   0.0624665), wk =   0.0219479
        k(   29) = (   0.0240791   0.0240791   0.0936997), wk =   0.0219479
        k(   30) = (   0.0240791   0.0240791   0.1249330), wk =   0.0219479
        k(   31) = (   0.0240791   0.0481582   0.0000000), wk =   0.0219479
        k(   32) = (   0.0240791   0.0481582   0.0312332), wk =   0.0438957
        k(   33) = (   0.0240791   0.0481582   0.0624665), wk =   0.0438957
        k(   34) = (   0.0240791   0.0481582   0.0936997), wk =   0.0438957
        k(   35) = (   0.0240791   0.0481582   0.1249330), wk =   0.0438957
        k(   36) = (   0.0240791   0.0722373   0.0000000), wk =   0.0219479
        k(   37) = (   0.0240791   0.0722373   0.0312332), wk =   0.0438957
        k(   38) = (   0.0240791   0.0722373   0.0624665), wk =   0.0438957
        k(   39) = (   0.0240791   0.0722373   0.0936997), wk =   0.0438957
        k(   40) = (   0.0240791   0.0722373   0.1249330), wk =   0.0438957
        k(   41) = (   0.0240791   0.0963164   0.0000000), wk =   0.0219479
        k(   42) = (   0.0240791   0.0963164   0.0312332), wk =   0.0438957
        k(   43) = (   0.0240791   0.0963164   0.0624665), wk =   0.0438957
        k(   44) = (   0.0240791   0.0963164   0.0936997), wk =   0.0438957
        k(   45) = (   0.0240791   0.0963164   0.1249330), wk =   0.0438957
        k(   46) = (   0.0481582   0.0481582   0.0000000), wk =   0.0109739
        k(   47) = (   0.0481582   0.0481582   0.0312332), wk =   0.0219479
        k(   48) = (   0.0481582   0.0481582   0.0624665), wk =   0.0219479
        k(   49) = (   0.0481582   0.0481582   0.0936997), wk =   0.0219479
        k(   50) = (   0.0481582   0.0481582   0.1249330), wk =   0.0219479
        k(   51) = (   0.0481582   0.0722373   0.0000000), wk =   0.0219479
        k(   52) = (   0.0481582   0.0722373   0.0312332), wk =   0.0438957
        k(   53) = (   0.0481582   0.0722373   0.0624665), wk =   0.0438957
        k(   54) = (   0.0481582   0.0722373   0.0936997), wk =   0.0438957
        k(   55) = (   0.0481582   0.0722373   0.1249330), wk =   0.0438957
        k(   56) = (   0.0481582   0.0963164   0.0000000), wk =   0.0219479
        k(   57) = (   0.0481582   0.0963164   0.0312332), wk =   0.0438957
        k(   58) = (   0.0481582   0.0963164   0.0624665), wk =   0.0438957
        k(   59) = (   0.0481582   0.0963164   0.0936997), wk =   0.0438957
        k(   60) = (   0.0481582   0.0963164   0.1249330), wk =   0.0438957
        k(   61) = (   0.0722373   0.0722373   0.0000000), wk =   0.0109739
        k(   62) = (   0.0722373   0.0722373   0.0312332), wk =   0.0219479
        k(   63) = (   0.0722373   0.0722373   0.0624665), wk =   0.0219479
        k(   64) = (   0.0722373   0.0722373   0.0936997), wk =   0.0219479
        k(   65) = (   0.0722373   0.0722373   0.1249330), wk =   0.0219479
        k(   66) = (   0.0722373   0.0963164   0.0000000), wk =   0.0219479
        k(   67) = (   0.0722373   0.0963164   0.0312332), wk =   0.0438957
        k(   68) = (   0.0722373   0.0963164   0.0624665), wk =   0.0438957
        k(   69) = (   0.0722373   0.0963164   0.0936997), wk =   0.0438957
        k(   70) = (   0.0722373   0.0963164   0.1249330), wk =   0.0438957
        k(   71) = (   0.0963164   0.0963164   0.0000000), wk =   0.0109739
        k(   72) = (   0.0963164   0.0963164   0.0312332), wk =   0.0219479
        k(   73) = (   0.0963164   0.0963164   0.0624665), wk =   0.0219479
        k(   74) = (   0.0963164   0.0963164   0.0936997), wk =   0.0219479
        k(   75) = (   0.0963164   0.0963164   0.1249330), wk =   0.0219479

     Largest allocated arrays     est. size (Mb)     dimensions
     Largest temporary arrays     est. size (Mb)     dimensions

     Initial potential from superposition of free atoms

     starting charge   57.99975, renormalised to   60.00000

     *
     * You are using vdW-DF for exchange-correlation in this calculation.
     * Please cite the following three references that made this development
     * possible:
     *
     *   M. Dion, H. Rydberg, E. Schroder, D. C. Langreth, and
     *   B. I. Lundqvist, Phys. Rev. Lett. 92, 246401 (2004).
     *
     *   T. Thonhauser, V. R. Cooper, S. Li, A. Puzder, P. Hyldgaard, and
     *   D. C. Langreth, Phys. Rev. B 76, 125112 (2007).
     *
     *   G. Roman-Perez and J. M. Soler, Phys. Rev. Lett. 103, 096102 (2009).
     *
     *
     * If you are using vdW-DF2, please also cite:
     *
     *   K. Lee, E. D. Murray, L. Kong, B. I. Lundqvist, and
     *   D. C. Langreth, Phys. Rev. B 82, 081101(R) (2010).
     *
     *
     * If you are calculating the stress with vdW-DF, please also cite:
     *
     *   R. Sabatini, E. Kucukbenli, B. Kolb, T. Thonhauser, and
     *   S. de Gironcoli, J. Phys.: Condens. Matter 24, 424209 (2012).
     *

     Carrying out vdW-DF run using the following parameters:

     Nqs =      20    Nr_points =    1024   r_max =   100.000
     q_mesh =
               0.00001000     0.04494208     0.09755937     0.15916263
               0.23128650     0.31572767     0.41458969     0.53033537
               0.66584808     0.82450364     1.01025438     1.22772762
               1.48234092     1.78043706     2.12944203     2.53805004
               3.01644009     3.57652955     4.23227104     5.00000000

     Gradients computed in reciprocal space

     Starting wfc are   42 randomized atomic wfcs +    8 random wfc

     Self-consistent Calculation

     iteration #  1     ecut=    58.80 Ry     beta=0.10
     Davidson diagonalization with overlap
     ethr =  1.00E-02,  avg # of iterations =  5.2

     total energy              =   -1067.22217011 Ry
     Harris-Foulkes estimate   =   -1068.11832998 Ry
     estimated scf accuracy    <       5.11424714 Ry

[...]

     total energy              =   -1066.65949357 Ry
     Harris-Foulkes estimate   =   -1066.65949108 Ry
     estimated scf accuracy    <       0.00000353 Ry

     iteration # 13     ecut=    58.80 Ry     beta=0.10
     Davidson diagonalization with overlap
     ethr =  5.88E-09,  avg # of iterations =  2.0

     End of self-consistent calculation

          k = 0.0000 0.0000 0.0000 (  3917 PWs)   bands (ev):

   -82.5810 -82.5810 -82.5806 -82.5806 -82.5779 -82.5778  -2.9923  -2.9809
    -2.9649  -2.9304  -2.9304  -2.9031  -2.8845  -2.8845  -2.8709  -2.8152
     2.1002   5.4380   7.0297   7.1282   7.5349   7.9177   7.9177   8.4884
     8.4884   8.6732   9.2748  10.2420  10.2420  11.7411  12.5748  14.2129
    16.2342  16.2342  16.3057  18.3325  21.8186  22.2231  22.2494  22.2494
    24.3374  24.9916  27.1317  27.1317  28.4559  28.8765  28.9651  28.9651
    28.9833  30.8678

[...]

          k = 0.0963 0.0963 0.1249 (  3900 PWs)   bands (ev):

   -82.5810 -82.5810 -82.5806 -82.5806 -82.5779 -82.5779  -2.9681  -2.9668
    -2.9419  -2.9377  -2.9148  -2.9120  -2.9019  -2.9005  -2.8377  -2.8348
     5.1109   5.1511   7.1040   7.1905   8.0161   8.1297   8.1408   8.2514
     8.7242   8.8043   9.2417   9.9302   9.9697  10.1535  11.6299  11.7710
    12.0592  12.6516  19.3990  19.6773  23.4577  23.4769  23.5045  23.9740
    25.5572  25.6260  26.0525  26.1023  28.3084  28.6515  29.2233  29.3365
    30.7488  30.8806

     the Fermi energy is    12.2317 ev

!    total energy              =   -1066.65950137 Ry
     Harris-Foulkes estimate   =   -1066.65949401 Ry
     estimated scf accuracy    <       0.00000025 Ry

     The total energy is the sum of the following terms:

     one-electron contribution =    -690.73442504 Ry
     hartree contribution      =     388.07700597 Ry
     xc contribution           =    -227.55173256 Ry
     ewald contribution        =    -536.44715921 Ry
     smearing contrib. (-TS)   =      -0.00319052 Ry

     convergence has been achieved in  13 iterations

     Forces acting on atoms (Ry/au):

     atom    1 type  1   force =     0.00000000    0.00000000    0.00000000
     atom    2 type  1   force =     0.00000000    0.00000000    0.00000000
     atom    3 type  2   force =     0.00000000    0.00000000    0.00000000
     atom    4 type  2   force =     0.00000000    0.00000000    0.00000000

     Total force =     0.000000     Total SCF correction =     0.000000

     General routines

     Parallel routines

   This run was terminated on:  13:31:13  14Nov2017

   JOB DONE.