     Program PWSCF v.5.1rc2 (svn rev. ) starts on 14Nov2017 at 23: 6:27

     Current dimensions of program PWSCF are:
     Max number of different atomic species (ntypx) = 10
     Max number of k-points (npk) =  40000
     Max angular momentum in pseudopotentials (lmaxx) =  3

     IMPORTANT: XC functional enforced from input :
     Exchange-correlation      = BEEF-VDW ( 1  4 27 13 2)
     Any further DFT definition will be discarded
     Please, verify this is what you really want

     Subspace diagonalization in iterative solution of the eigenvalue problem:
     a serial algorithm will be used

     Found symmetry operation: I + ( -0.5000 -0.5000  0.0000)
     This is a supercell, fractional translations are disabled

     bravais-lattice index     =            0
     lattice parameter (alat)  =       1.8897  a.u.
     unit-cell volume          =     503.8624 (a.u.)^3
     number of atoms/cell      =            4
     number of atomic types    =            2
     number of electrons       =        56.00
     number of Kohn-Sham states=           48
     kinetic-energy cutoff     =      58.7989  Ry
     charge density cutoff     =     587.9892  Ry
     convergence threshold     =      1.0E-06
     mixing beta               =       0.1000
     number of iterations used =           10  plain     mixing
     Exchange-correlation      = BEEF-VDW ( 1  4 27 13 2)

     celldm(1)=   1.889726  celldm(2)=   0.000000  celldm(3)=   0.000000
     celldm(4)=   0.000000  celldm(5)=   0.000000  celldm(6)=   0.000000

     crystal axes: (cart. coord. in units of alat)
               a(1) = (   4.721108   0.000000   0.000000 )
               a(2) = (   0.000000   4.721108   0.000000 )
               a(3) = (   0.000000   0.000000   3.349867 )

     reciprocal axes: (cart. coord. in units 2 pi/alat)
               b(1) = (  0.211815  0.000000  0.000000 )
               b(2) = (  0.000000  0.211815  0.000000 )
               b(3) = (  0.000000  0.000000  0.298519 )

     PseudoPot. # 1 for Tc read from file:
     /home/vossj/suncat/psp/gbrv1.5pbe/Tc.UPF
     MD5 check sum: 9eb49e5b028550b2339a02317eb7b844
     Pseudo is Ultrasoft + core correction, Zval = 15.0
     Generated by new atomic code, or converted to UPF format
     Using radial grid of  965 points,  6 beta functions with:
                l(1) =   0
                l(2) =   0
                l(3) =   1
                l(4) =   1
                l(5) =   2
                l(6) =   2
     Q(r) pseudized with  8 coefficients,  rinner =    1.300   1.300   1.300
                                                       1.300   1.300

     PseudoPot. # 2 for Tl read from file:
     /home/vossj/suncat/psp/gbrv1.5pbe/Tl.UPF
     MD5 check sum: b76cf1f7e72655a2b2c53cf6385d7059
     Pseudo is Ultrasoft + core correction, Zval = 13.0
     Generated by new atomic code, or converted to UPF format
     Using radial grid of  899 points,  6 beta functions with:
                l(1) =   0
                l(2) =   0
                l(3) =   1
                l(4) =   1
                l(5) =   2
                l(6) =   2
     Q(r) pseudized with  6 coefficients,  rinner =    1.100   1.100   1.100
                                                       1.100   1.100

     vdW kernel table read from file vdW_kernel_table
     MD5 check sum: 095c7af220d748ca6e76c0b4c6cfb241

     atomic species   valence    mass     pseudopotential
        Tc1           15.00    97.90721     Tc( 1.00)
        Tl1           13.00   204.38000     Tl( 1.00)

     16 Sym. Ops., with inversion, found

   Cartesian axes

     site n.     atom                  positions (alat units)
         1           Tc1 tau(   1) = (   0.0000000   0.0000000   0.0000000  )
         2           Tc1 tau(   2) = (   2.3605539   2.3605539   0.0000000  )
         3           Tl1 tau(   3) = (   2.3605539   0.0000000   1.6749334  )
         4           Tl1 tau(   4) = (   0.0000000   2.3605539   1.6749334  )

     number of k points=    75  Fermi-Dirac smearing, width (Ry)=  0.0073
                       cart. coord. in units 2pi/alat
        k(    1) = (   0.0000000   0.0000000   0.0000000), wk =   0.0027435
        k(    2) = (   0.0000000   0.0000000   0.0331688), wk =   0.0054870
        k(    3) = (   0.0000000   0.0000000   0.0663376), wk =   0.0054870
        k(    4) = (   0.0000000   0.0000000   0.0995064), wk =   0.0054870
        k(    5) = (   0.0000000   0.0000000   0.1326753), wk =   0.0054870
        k(    6) = (   0.0000000   0.0235350   0.0000000), wk =   0.0109739
        k(    7) = (   0.0000000   0.0235350   0.0331688), wk =   0.0219479
        k(    8) = (   0.0000000   0.0235350   0.0663376), wk =   0.0219479
        k(    9) = (   0.0000000   0.0235350   0.0995064), wk =   0.0219479
        k(   10) = (   0.0000000   0.0235350   0.1326753), wk =   0.0219479
        k(   11) = (   0.0000000   0.0470699   0.0000000), wk =   0.0109739
        k(   12) = (   0.0000000   0.0470699   0.0331688), wk =   0.0219479
        k(   13) = (   0.0000000   0.0470699   0.0663376), wk =   0.0219479
        k(   14) = (   0.0000000   0.0470699   0.0995064), wk =   0.0219479
        k(   15) = (   0.0000000   0.0470699   0.1326753), wk =   0.0219479
        k(   16) = (   0.0000000   0.0706049   0.0000000), wk =   0.0109739
        k(   17) = (   0.0000000   0.0706049   0.0331688), wk =   0.0219479
        k(   18) = (   0.0000000   0.0706049   0.0663376), wk =   0.0219479
        k(   19) = (   0.0000000   0.0706049   0.0995064), wk =   0.0219479
        k(   20) = (   0.0000000   0.0706049   0.1326753), wk =   0.0219479
        k(   21) = (   0.0000000   0.0941399   0.0000000), wk =   0.0109739
        k(   22) = (   0.0000000   0.0941399   0.0331688), wk =   0.0219479
        k(   23) = (   0.0000000   0.0941399   0.0663376), wk =   0.0219479
        k(   24) = (   0.0000000   0.0941399   0.0995064), wk =   0.0219479
        k(   25) = (   0.0000000   0.0941399   0.1326753), wk =   0.0219479
        k(   26) = (   0.0235350   0.0235350   0.0000000), wk =   0.0109739
        k(   27) = (   0.0235350   0.0235350   0.0331688), wk =   0.0219479
        k(   28) = (   0.0235350   0.0235350   0.0663376), wk =   0.0219479
        k(   29) = (   0.0235350   0.0235350   0.0995064), wk =   0.0219479
        k(   30) = (   0.0235350   0.0235350   0.1326753), wk =   0.0219479
        k(   31) = (   0.0235350   0.0470699   0.0000000), wk =   0.0219479
        k(   32) = (   0.0235350   0.0470699   0.0331688), wk =   0.0438957
        k(   33) = (   0.0235350   0.0470699   0.0663376), wk =   0.0438957
        k(   34) = (   0.0235350   0.0470699   0.0995064), wk =   0.0438957
        k(   35) = (   0.0235350   0.0470699   0.1326753), wk =   0.0438957
        k(   36) = (   0.0235350   0.0706049   0.0000000), wk =   0.0219479
        k(   37) = (   0.0235350   0.0706049   0.0331688), wk =   0.0438957
        k(   38) = (   0.0235350   0.0706049   0.0663376), wk =   0.0438957
        k(   39) = (   0.0235350   0.0706049   0.0995064), wk =   0.0438957
        k(   40) = (   0.0235350   0.0706049   0.1326753), wk =   0.0438957
        k(   41) = (   0.0235350   0.0941399   0.0000000), wk =   0.0219479
        k(   42) = (   0.0235350   0.0941399   0.0331688), wk =   0.0438957
        k(   43) = (   0.0235350   0.0941399   0.0663376), wk =   0.0438957
        k(   44) = (   0.0235350   0.0941399   0.0995064), wk =   0.0438957
        k(   45) = (   0.0235350   0.0941399   0.1326753), wk =   0.0438957
        k(   46) = (   0.0470699   0.0470699   0.0000000), wk =   0.0109739
        k(   47) = (   0.0470699   0.0470699   0.0331688), wk =   0.0219479
        k(   48) = (   0.0470699   0.0470699   0.0663376), wk =   0.0219479
        k(   49) = (   0.0470699   0.0470699   0.0995064), wk =   0.0219479
        k(   50) = (   0.0470699   0.0470699   0.1326753), wk =   0.0219479
        k(   51) = (   0.0470699   0.0706049   0.0000000), wk =   0.0219479
        k(   52) = (   0.0470699   0.0706049   0.0331688), wk =   0.0438957
        k(   53) = (   0.0470699   0.0706049   0.0663376), wk =   0.0438957
        k(   54) = (   0.0470699   0.0706049   0.0995064), wk =   0.0438957
        k(   55) = (   0.0470699   0.0706049   0.1326753), wk =   0.0438957
        k(   56) = (   0.0470699   0.0941399   0.0000000), wk =   0.0219479
        k(   57) = (   0.0470699   0.0941399   0.0331688), wk =   0.0438957
        k(   58) = (   0.0470699   0.0941399   0.0663376), wk =   0.0438957
        k(   59) = (   0.0470699   0.0941399   0.0995064), wk =   0.0438957
        k(   60) = (   0.0470699   0.0941399   0.1326753), wk =   0.0438957
        k(   61) = (   0.0706049   0.0706049   0.0000000), wk =   0.0109739
        k(   62) = (   0.0706049   0.0706049   0.0331688), wk =   0.0219479
        k(   63) = (   0.0706049   0.0706049   0.0663376), wk =   0.0219479
        k(   64) = (   0.0706049   0.0706049   0.0995064), wk =   0.0219479
        k(   65) = (   0.0706049   0.0706049   0.1326753), wk =   0.0219479
        k(   66) = (   0.0706049   0.0941399   0.0000000), wk =   0.0219479
        k(   67) = (   0.0706049   0.0941399   0.0331688), wk =   0.0438957
        k(   68) = (   0.0706049   0.0941399   0.0663376), wk =   0.0438957
        k(   69) = (   0.0706049   0.0941399   0.0995064), wk =   0.0438957
        k(   70) = (   0.0706049   0.0941399   0.1326753), wk =   0.0438957
        k(   71) = (   0.0941399   0.0941399   0.0000000), wk =   0.0109739
        k(   72) = (   0.0941399   0.0941399   0.0331688), wk =   0.0219479
        k(   73) = (   0.0941399   0.0941399   0.0663376), wk =   0.0219479
        k(   74) = (   0.0941399   0.0941399   0.0995064), wk =   0.0219479
        k(   75) = (   0.0941399   0.0941399   0.1326753), wk =   0.0219479

     Largest allocated arrays     est. size (Mb)     dimensions
     Largest temporary arrays     est. size (Mb)     dimensions

     Check: negative/imaginary core charge=   -0.000004    0.000000

     Initial potential from superposition of free atoms
     Check: negative starting charge=   -0.346879

     starting charge   53.99021, renormalised to   56.00000

     negative rho (up, down):  3.598E-01 0.000E+00

     *
     * You are using vdW-DF for exchange-correlation in this calculation.
     * Please cite the following three references that made this development
     * possible:
     *
     *   M. Dion, H. Rydberg, E. Schroder, D. C. Langreth, and
     *   B. I. Lundqvist, Phys. Rev. Lett. 92, 246401 (2004).
     *
     *   T. Thonhauser, V. R. Cooper, S. Li, A. Puzder, P. Hyldgaard, and
     *   D. C. Langreth, Phys. Rev. B 76, 125112 (2007).
     *
     *   G. Roman-Perez and J. M. Soler, Phys. Rev. Lett. 103, 096102 (2009).
     *
     *
     * If you are using vdW-DF2, please also cite:
     *
     *   K. Lee, E. D. Murray, L. Kong, B. I. Lundqvist, and
     *   D. C. Langreth, Phys. Rev. B 82, 081101(R) (2010).
     *
     *
     * If you are calculating the stress with vdW-DF, please also cite:
     *
     *   R. Sabatini, E. Kucukbenli, B. Kolb, T. Thonhauser, and
     *   S. de Gironcoli, J. Phys.: Condens. Matter 24, 424209 (2012).
     *

     Carrying out vdW-DF run using the following parameters:

     Nqs =      20    Nr_points =    1024   r_max =   100.000
     q_mesh =
               0.00001000     0.04494208     0.09755937     0.15916263
               0.23128650     0.31572767     0.41458969     0.53033537
               0.66584808     0.82450364     1.01025438     1.22772762
               1.48234092     1.78043706     2.12944203     2.53805004
               3.01644009     3.57652955     4.23227104     5.00000000

     Gradients computed in reciprocal space

     Starting wfc are   44 randomized atomic wfcs +    4 random wfc

     Self-consistent Calculation

     iteration #  1     ecut=    58.80 Ry     beta=0.10
     Davidson diagonalization with overlap
     ethr =  1.00E-02,  avg # of iterations =  4.9

[...]

     total energy              =    -644.18287991 Ry
     Harris-Foulkes estimate   =    -644.30346093 Ry
     estimated scf accuracy    <       0.82843688 Ry

[...]

     total energy              =    -644.00149664 Ry
     Harris-Foulkes estimate   =    -644.00146447 Ry
     estimated scf accuracy    <       0.00000462 Ry

     iteration # 15     ecut=    58.80 Ry     beta=0.10
     Davidson diagonalization with overlap
     ethr =  8.25E-09,  avg # of iterations =  2.0

     negative rho (up, down):  3.619E-01 0.000E+00

     End of self-consistent calculation

          k = 0.0000 0.0000 0.0000 (  3859 PWs)   bands (ev):

   -49.5998 -49.5892 -21.6836 -21.6836 -21.6077 -21.6037 -21.6037 -21.5928
     4.8279   4.8349   4.8814   5.0944   5.2464   5.2464   5.5091   5.5091
     5.5129   5.8875   6.7516  10.8136  15.0877  15.0930  15.3934  15.3934
    15.5097  16.8661  16.8661  17.3893  17.3893  17.4010  18.1007  19.8709
    21.6113  21.7010  21.7010  21.9787  25.8913  26.3920  27.8863  27.8863
    29.9915  30.0361  31.6974  31.7048  31.7617  31.7617  33.4552  36.0066

[...]

          k = 0.0941 0.0941 0.1327 (  3866 PWs)   bands (ev):

   -49.5898 -49.5894 -21.6841 -21.6824 -21.6818 -21.6817 -21.5920 -21.5896
     4.9043   4.9109   5.0818   5.1062   5.2483   5.2589   5.2603   5.2700
     5.8461   5.8650  10.6903  10.7740  14.8457  14.9197  15.2547  15.3679
    15.6921  15.7936  16.8091  16.8918  17.0511  17.0570  18.1444  18.1730
    19.8909  20.0586  22.0686  22.2175  26.2769  26.5418  27.9120  27.9478
    27.9867  28.0702  31.4287  31.5870  33.6190  33.8517  35.9208  36.0862

     the Fermi energy is    16.9765 ev

!    total energy              =    -644.00164144 Ry
     Harris-Foulkes estimate   =    -644.00149709 Ry
     estimated scf accuracy    <       0.00000087 Ry

     The total energy is the sum of the following terms:

     one-electron contribution =     -83.78653524 Ry
     hartree contribution      =      87.42475856 Ry
     xc contribution           =    -194.58199859 Ry
     ewald contribution        =    -453.03946178 Ry
     smearing contrib. (-TS)   =      -0.01840438 Ry

     convergence has been achieved in  15 iterations

     Forces acting on atoms (Ry/au):

     negative rho (up, down):  3.619E-01 0.000E+00
     atom    1 type  1   force =     0.00000000    0.00000000    0.00000000
     atom    2 type  1   force =     0.00000000    0.00000000    0.00000000
     atom    3 type  2   force =     0.00000000    0.00000000    0.00000000
     atom    4 type  2   force =     0.00000000    0.00000000    0.00000000

     Total force =     0.000000     Total SCF correction =     0.000000

     General routines

     Parallel routines

   This run was terminated on:  23: 7:26  14Nov2017

   JOB DONE.