     Program PWSCF v.5.1rc2 starts on 14Nov2017 at 13:42:22

     Current dimensions of program PWSCF are:
     Max number of different atomic species (ntypx) = 10
     Max number of k-points (npk) =  40000
     Max angular momentum in pseudopotentials (lmaxx) =  3

     IMPORTANT: XC functional enforced from input :
     Exchange-correlation      = BEEF-VDW ( 1  4 27 13 2)
     Any further DFT definition will be discarded
     Please, verify this is what you really want

     Found symmetry operation: I + (  0.5000  0.5000  0.0000)
     This is a supercell, fractional translations are disabled

     bravais-lattice index     =            0
     lattice parameter (alat)  =       1.8897  a.u.
     unit-cell volume          =     608.6933 (a.u.)^3
     number of atoms/cell      =            4
     number of atomic types    =            2
     number of electrons       =        62.00
     number of Kohn-Sham states=           51
     kinetic-energy cutoff     =      58.7989  Ry
     charge density cutoff     =     587.9892  Ry
     convergence threshold     =      1.0E-06
     mixing beta               =       0.1000
     number of iterations used =           10  plain     mixing
     Exchange-correlation      = BEEF-VDW ( 1  4 27 13 2)

     celldm(1)=   1.889726  celldm(2)=   0.000000  celldm(3)=   0.000000
     celldm(4)=   0.000000  celldm(5)=   0.000000  celldm(6)=   0.000000

     crystal axes: (cart. coord. in units of alat)
               a(1) = (   4.455002   0.000000   0.000000 )
               a(2) = (   0.000000   4.455002   0.000000 )
               a(3) = (   0.000000   0.000000   4.544708 )

     reciprocal axes: (cart. coord. in units 2 pi/alat)
               b(1) = (  0.224467  0.000000  0.000000 )
               b(2) = (  0.000000  0.224467  0.000000 )
               b(3) = (  0.000000  0.000000  0.220036 )

     PseudoPot. # 1 for Ga read from file:
     /home/users/vossj/suncat/psp/gbrv1.5pbe/Ga.UPF
     MD5 check sum: ccd671392a58a050fbb373893b4fcd66
     Pseudo is Ultrasoft + core correction, Zval = 19.0
     Generated by new atomic code, or converted to UPF format
     Using radial grid of  871 points,  6 beta functions with:
                l(1) =   0
                l(2) =   0
                l(3) =   1
                l(4) =   1
                l(5) =   2
                l(6) =   2
     Q(r) pseudized with  8 coefficients,  rinner =    1.250   1.250   1.250
                                                       1.250   1.250

     PseudoPot. # 2 for Cd read from file:
     /home/users/vossj/suncat/psp/gbrv1.5pbe/Cd.UPF
     MD5 check sum: 17164a7926edb8e0dc231208abae86a6
     Pseudo is Ultrasoft + core correction, Zval = 12.0
     Generated by new atomic code, or converted to UPF format
     Using radial grid of  889 points,  6 beta functions with:
                l(1) =   0
                l(2) =   0
                l(3) =   1
                l(4) =   1
                l(5) =   2
                l(6) =   2
     Q(r) pseudized with  6 coefficients,  rinner =    1.000   1.000   1.000
                                                       1.000   1.000

     vdW kernel table read from file vdW_kernel_table
     MD5 check sum: 095c7af220d748ca6e76c0b4c6cfb241

     atomic species   valence    mass     pseudopotential
        Ga1           19.00    69.72300     Ga( 1.00)
        Cd1           12.00   112.41000     Cd( 1.00)

     16 Sym. Ops., with inversion, found

   Cartesian axes

     site n.     atom                  positions (alat units)
         1           Ga1 tau(   1) = (   0.0000000   0.0000000   0.0000000  )
         2           Ga1 tau(   2) = (   2.2275012   2.2275012   0.0000000  )
         3           Cd1 tau(   3) = (   2.2275012   0.0000000   2.2723542  )
         4           Cd1 tau(   4) = (   0.0000000   2.2275012   2.2723542  )

     number of k points=    75  Fermi-Dirac smearing, width (Ry)=  0.0073
                       cart. coord. in units 2pi/alat
        k(    1) = (   0.0000000   0.0000000   0.0000000), wk =   0.0027435
        k(    2) = (   0.0000000   0.0000000   0.0244485), wk =   0.0054870
        k(    3) = (   0.0000000   0.0000000   0.0488969), wk =   0.0054870
        k(    4) = (   0.0000000   0.0000000   0.0733454), wk =   0.0054870
        k(    5) = (   0.0000000   0.0000000   0.0977938), wk =   0.0054870
        k(    6) = (   0.0000000   0.0249408   0.0000000), wk =   0.0109739
        k(    7) = (   0.0000000   0.0249408   0.0244485), wk =   0.0219479
        k(    8) = (   0.0000000   0.0249408   0.0488969), wk =   0.0219479
        k(    9) = (   0.0000000   0.0249408   0.0733454), wk =   0.0219479
        k(   10) = (   0.0000000   0.0249408   0.0977938), wk =   0.0219479
        k(   11) = (   0.0000000   0.0498815   0.0000000), wk =   0.0109739
        k(   12) = (   0.0000000   0.0498815   0.0244485), wk =   0.0219479
        k(   13) = (   0.0000000   0.0498815   0.0488969), wk =   0.0219479
        k(   14) = (   0.0000000   0.0498815   0.0733454), wk =   0.0219479
        k(   15) = (   0.0000000   0.0498815   0.0977938), wk =   0.0219479
        k(   16) = (   0.0000000   0.0748223   0.0000000), wk =   0.0109739
        k(   17) = (   0.0000000   0.0748223   0.0244485), wk =   0.0219479
        k(   18) = (   0.0000000   0.0748223   0.0488969), wk =   0.0219479
        k(   19) = (   0.0000000   0.0748223   0.0733454), wk =   0.0219479
        k(   20) = (   0.0000000   0.0748223   0.0977938), wk =   0.0219479
        k(   21) = (   0.0000000   0.0997630   0.0000000), wk =   0.0109739
        k(   22) = (   0.0000000   0.0997630   0.0244485), wk =   0.0219479
        k(   23) = (   0.0000000   0.0997630   0.0488969), wk =   0.0219479
        k(   24) = (   0.0000000   0.0997630   0.0733454), wk =   0.0219479
        k(   25) = (   0.0000000   0.0997630   0.0977938), wk =   0.0219479
        k(   26) = (   0.0249408   0.0249408   0.0000000), wk =   0.0109739
        k(   27) = (   0.0249408   0.0249408   0.0244485), wk =   0.0219479
        k(   28) = (   0.0249408   0.0249408   0.0488969), wk =   0.0219479
        k(   29) = (   0.0249408   0.0249408   0.0733454), wk =   0.0219479
        k(   30) = (   0.0249408   0.0249408   0.0977938), wk =   0.0219479
        k(   31) = (   0.0249408   0.0498815   0.0000000), wk =   0.0219479
        k(   32) = (   0.0249408   0.0498815   0.0244485), wk =   0.0438957
        k(   33) = (   0.0249408   0.0498815   0.0488969), wk =   0.0438957
        k(   34) = (   0.0249408   0.0498815   0.0733454), wk =   0.0438957
        k(   35) = (   0.0249408   0.0498815   0.0977938), wk =   0.0438957
        k(   36) = (   0.0249408   0.0748223   0.0000000), wk =   0.0219479
        k(   37) = (   0.0249408   0.0748223   0.0244485), wk =   0.0438957
        k(   38) = (   0.0249408   0.0748223   0.0488969), wk =   0.0438957
        k(   39) = (   0.0249408   0.0748223   0.0733454), wk =   0.0438957
        k(   40) = (   0.0249408   0.0748223   0.0977938), wk =   0.0438957
        k(   41) = (   0.0249408   0.0997630   0.0000000), wk =   0.0219479
        k(   42) = (   0.0249408   0.0997630   0.0244485), wk =   0.0438957
        k(   43) = (   0.0249408   0.0997630   0.0488969), wk =   0.0438957
        k(   44) = (   0.0249408   0.0997630   0.0733454), wk =   0.0438957
        k(   45) = (   0.0249408   0.0997630   0.0977938), wk =   0.0438957
        k(   46) = (   0.0498815   0.0498815   0.0000000), wk =   0.0109739
        k(   47) = (   0.0498815   0.0498815   0.0244485), wk =   0.0219479
        k(   48) = (   0.0498815   0.0498815   0.0488969), wk =   0.0219479
        k(   49) = (   0.0498815   0.0498815   0.0733454), wk =   0.0219479
        k(   50) = (   0.0498815   0.0498815   0.0977938), wk =   0.0219479
        k(   51) = (   0.0498815   0.0748223   0.0000000), wk =   0.0219479
        k(   52) = (   0.0498815   0.0748223   0.0244485), wk =   0.0438957
        k(   53) = (   0.0498815   0.0748223   0.0488969), wk =   0.0438957
        k(   54) = (   0.0498815   0.0748223   0.0733454), wk =   0.0438957
        k(   55) = (   0.0498815   0.0748223   0.0977938), wk =   0.0438957
        k(   56) = (   0.0498815   0.0997630   0.0000000), wk =   0.0219479
        k(   57) = (   0.0498815   0.0997630   0.0244485), wk =   0.0438957
        k(   58) = (   0.0498815   0.0997630   0.0488969), wk =   0.0438957
        k(   59) = (   0.0498815   0.0997630   0.0733454), wk =   0.0438957
        k(   60) = (   0.0498815   0.0997630   0.0977938), wk =   0.0438957
        k(   61) = (   0.0748223   0.0748223   0.0000000), wk =   0.0109739
        k(   62) = (   0.0748223   0.0748223   0.0244485), wk =   0.0219479
        k(   63) = (   0.0748223   0.0748223   0.0488969), wk =   0.0219479
        k(   64) = (   0.0748223   0.0748223   0.0733454), wk =   0.0219479
        k(   65) = (   0.0748223   0.0748223   0.0977938), wk =   0.0219479
        k(   66) = (   0.0748223   0.0997630   0.0000000), wk =   0.0219479
        k(   67) = (   0.0748223   0.0997630   0.0244485), wk =   0.0438957
        k(   68) = (   0.0748223   0.0997630   0.0488969), wk =   0.0438957
        k(   69) = (   0.0748223   0.0997630   0.0733454), wk =   0.0438957
        k(   70) = (   0.0748223   0.0997630   0.0977938), wk =   0.0438957
        k(   71) = (   0.0997630   0.0997630   0.0000000), wk =   0.0109739
        k(   72) = (   0.0997630   0.0997630   0.0244485), wk =   0.0219479
        k(   73) = (   0.0997630   0.0997630   0.0488969), wk =   0.0219479
        k(   74) = (   0.0997630   0.0997630   0.0733454), wk =   0.0219479
        k(   75) = (   0.0997630   0.0997630   0.0977938), wk =   0.0219479

     Largest allocated arrays     est. size (Mb)     dimensions
     Largest temporary arrays     est. size (Mb)     dimensions

     Initial potential from superposition of free atoms
     Check: negative starting charge=   -0.042370

     starting charge   58.99992, renormalised to   62.00000

     negative rho (up, down):  4.452E-02 0.000E+00

     *
     * You are using vdW-DF for exchange-correlation in this calculation.
     * Please cite the following three references that made this development
     * possible:
     *
     *   M. Dion, H. Rydberg, E. Schroder, D. C. Langreth, and
     *   B. I. Lundqvist, Phys. Rev. Lett. 92, 246401 (2004).
     *
     *   T. Thonhauser, V. R. Cooper, S. Li, A. Puzder, P. Hyldgaard, and
     *   D. C. Langreth, Phys. Rev. B 76, 125112 (2007).
     *
     *   G. Roman-Perez and J. M. Soler, Phys. Rev. Lett. 103, 096102 (2009).
     *
     *
     * If you are using vdW-DF2, please also cite:
     *
     *   K. Lee, E. D. Murray, L. Kong, B. I. Lundqvist, and
     *   D. C. Langreth, Phys. Rev. B 82, 081101(R) (2010).
     *
     *
     * If you are calculating the stress with vdW-DF, please also cite:
     *
     *   R. Sabatini, E. Kucukbenli, B. Kolb, T. Thonhauser, and
     *   S. de Gironcoli, J. Phys.: Condens. Matter 24, 424209 (2012).
     *

     Carrying out vdW-DF run using the following parameters:

     Nqs =      20    Nr_points =    1024   r_max =   100.000
     q_mesh =
               0.00001000     0.04494208     0.09755937     0.15916263
               0.23128650     0.31572767     0.41458969     0.53033537
               0.66584808     0.82450364     1.01025438     1.22772762
               1.48234092     1.78043706     2.12944203     2.53805004
               3.01644009     3.57652955     4.23227104     5.00000000

     Gradients computed in reciprocal space

     Starting wfc are   42 randomized atomic wfcs +    9 random wfc

     Self-consistent Calculation

     iteration #  1     ecut=    58.80 Ry     beta=0.10
     Davidson diagonalization with overlap
     ethr =  1.00E-02,  avg # of iterations =  5.1

[...]

     total energy              =   -1065.39674700 Ry
     Harris-Foulkes estimate   =   -1068.78963441 Ry
     estimated scf accuracy    <      18.98012289 Ry

[...]

     total energy              =   -1065.38544249 Ry
     Harris-Foulkes estimate   =   -1065.38543961 Ry
     estimated scf accuracy    <       0.00000156 Ry

     iteration # 21     ecut=    58.80 Ry     beta=0.10
     Davidson diagonalization with overlap
     ethr =  2.52E-09,  avg # of iterations =  2.0

     negative rho (up, down):  4.370E-02 0.000E+00

     End of self-consistent calculation

          k = 0.0000 0.0000 0.0000 (  4649 PWs)   bands (ev):

   -85.1090 -85.1089 -85.1046 -85.1046 -85.1040 -85.1040  -5.5236  -5.4840
    -5.4718  -5.4556  -5.4556  -5.3992  -5.3992  -5.3922  -5.3639  -5.3077
     0.2521   0.3123   0.3452   0.5512   0.6822   0.6822   0.9886   0.9962
     0.9962   1.1438   1.4196   7.2909   8.1565   8.3381   8.3381   8.7633
    10.5457  13.7351  15.0391  15.0391  15.2523  15.2523  16.7352  18.3951
    18.8088  18.8866  18.9929  18.9929  19.5841  22.2713  22.5342  22.5342
    23.8881  25.7786  25.7786

[...]

          k = 0.0998 0.0998 0.0978 (  4659 PWs)   bands (ev):

   -85.1090 -85.1089 -85.1046 -85.1046 -85.1039 -85.1039  -5.4786  -5.4739
    -5.4683  -5.4667  -5.4127  -5.4092  -5.3957  -5.3941  -5.3696  -5.3654
     0.3360   0.3393   0.4640   0.4918   0.8560   0.8824   1.0073   1.0206
     1.0803   1.1008   4.8211   5.2084   6.6994   6.7485   7.1705   7.4281
     8.0641   8.7513  17.5557  17.9567  18.5680  18.6056  20.0513  20.2796
    21.7130  21.9269  22.0742  22.1972  22.4062  23.0178  23.4102  23.7056
    24.2018  24.2648  24.3608

     the Fermi energy is     9.6828 ev

!    total energy              =   -1065.38545565 Ry
     Harris-Foulkes estimate   =   -1065.38544258 Ry
     estimated scf accuracy    <       0.00000004 Ry

     The total energy is the sum of the following terms:

     one-electron contribution =    -778.31472713 Ry
     hartree contribution      =     426.68193802 Ry
     xc contribution           =    -181.04356161 Ry
     ewald contribution        =    -532.70549767 Ry
     smearing contrib. (-TS)   =      -0.00360725 Ry

     convergence has been achieved in  21 iterations

     Forces acting on atoms (Ry/au):

     negative rho (up, down):  4.370E-02 0.000E+00
     atom    1 type  1   force =     0.00000000    0.00000000    0.00000000
     atom    2 type  1   force =     0.00000000    0.00000000    0.00000000
     atom    3 type  2   force =     0.00000000    0.00000000    0.00000000
     atom    4 type  2   force =     0.00000000    0.00000000    0.00000000

     Total force =     0.000000     Total SCF correction =     0.000000

     General routines

     Parallel routines

   This run was terminated on:  13:43:51  14Nov2017

   JOB DONE.