     Program PWSCF v.5.1rc2 starts on 14Nov2017 at  8:21:37

     Current dimensions of program PWSCF are:
     Max number of different atomic species (ntypx) = 10
     Max number of k-points (npk) =  40000
     Max angular momentum in pseudopotentials (lmaxx) =  3

     IMPORTANT: XC functional enforced from input :
     Exchange-correlation      = BEEF-VDW ( 1  4 27 13 2)
     Any further DFT definition will be discarded
     Please, verify this is what you really want

     Found symmetry operation: I + ( -0.5000 -0.5000  0.0000)
     This is a supercell, fractional translations are disabled

     bravais-lattice index     =            0
     lattice parameter (alat)  =       1.8897  a.u.
     unit-cell volume          =     459.2579 (a.u.)^3
     number of atoms/cell      =            4
     number of atomic types    =            2
     number of electrons       =        52.00
     number of Kohn-Sham states=           46
     kinetic-energy cutoff     =      58.7989  Ry
     charge density cutoff     =     587.9892  Ry
     convergence threshold     =      1.0E-06
     mixing beta               =       0.1000
     number of iterations used =           10  plain     mixing
     Exchange-correlation      = BEEF-VDW ( 1  4 27 13 2)

     celldm(1)=   1.889726  celldm(2)=   0.000000  celldm(3)=   0.000000
     celldm(4)=   0.000000  celldm(5)=   0.000000  celldm(6)=   0.000000

     crystal axes: (cart. coord. in units of alat)
               a(1) = (   4.582026   0.000000   0.000000 )
               a(2) = (   0.000000   4.582026   0.000000 )
               a(3) = (   0.000000   0.000000   3.241491 )

     reciprocal axes: (cart. coord. in units 2 pi/alat)
               b(1) = (  0.218244  0.000000  0.000000 )
               b(2) = (  0.000000  0.218244  0.000000 )
               b(3) = (  0.000000  0.000000  0.308500 )

     PseudoPot. # 1 for Cr read from file:
     /home/users/vossj/suncat/psp/gbrv1.5pbe/Cr.UPF
     MD5 check sum: 0d52af634a40206e4dee301ad30da4bf
     Pseudo is Ultrasoft + core correction, Zval = 14.0
     Generated by new atomic code, or converted to UPF format
     Using radial grid of  857 points,  6 beta functions with:
                l(1) =   0
                l(2) =   0
                l(3) =   1
                l(4) =   1
                l(5) =   2
                l(6) =   2
     Q(r) pseudized with  8 coefficients,  rinner =    0.950   0.950   0.950
                                                       0.950   0.950

     PseudoPot. # 2 for Zr read from file:
     /home/users/vossj/suncat/psp/gbrv1.5pbe/Zr.UPF
     MD5 check sum: 5db81b1e868ab7776c4564c113de050b
     Pseudo is Ultrasoft + core correction, Zval = 12.0
     Generated by new atomic code, or converted to UPF format
     Using radial grid of  887 points,  6 beta functions with:
                l(1) =   0
                l(2) =   0
                l(3) =   1
                l(4) =   1
                l(5) =   2
                l(6) =   2
     Q(r) pseudized with  6 coefficients,  rinner =    1.200   1.200   1.200
                                                       1.200   1.200

     vdW kernel table read from file vdW_kernel_table
     MD5 check sum: 095c7af220d748ca6e76c0b4c6cfb241

     atomic species   valence    mass     pseudopotential
        Cr1           14.00    51.99600     Cr( 1.00)
        Zr1           12.00    91.22400     Zr( 1.00)

     16 Sym. Ops., with inversion, found

   Cartesian axes

     site n.     atom                  positions (alat units)
         1           Cr1 tau(   1) = (   0.0000000   0.0000000   0.0000000  )
         2           Cr1 tau(   2) = (   2.2910131   2.2910131   0.0000000  )
         3           Zr1 tau(   3) = (   2.2910131   0.0000000   1.6207456  )
         4           Zr1 tau(   4) = (   0.0000000   2.2910131   1.6207456  )

     number of k points=    75  Fermi-Dirac smearing, width (Ry)=  0.0073
                       cart. coord. in units 2pi/alat
        k(    1) = (   0.0000000   0.0000000   0.0000000), wk =   0.0027435
        k(    2) = (   0.0000000   0.0000000   0.0342778), wk =   0.0054870
        k(    3) = (   0.0000000   0.0000000   0.0685556), wk =   0.0054870
        k(    4) = (   0.0000000   0.0000000   0.1028333), wk =   0.0054870
        k(    5) = (   0.0000000   0.0000000   0.1371111), wk =   0.0054870
        k(    6) = (   0.0000000   0.0242493   0.0000000), wk =   0.0109739
        k(    7) = (   0.0000000   0.0242493   0.0342778), wk =   0.0219479
        k(    8) = (   0.0000000   0.0242493   0.0685556), wk =   0.0219479
        k(    9) = (   0.0000000   0.0242493   0.1028333), wk =   0.0219479
        k(   10) = (   0.0000000   0.0242493   0.1371111), wk =   0.0219479
        k(   11) = (   0.0000000   0.0484987   0.0000000), wk =   0.0109739
        k(   12) = (   0.0000000   0.0484987   0.0342778), wk =   0.0219479
        k(   13) = (   0.0000000   0.0484987   0.0685556), wk =   0.0219479
        k(   14) = (   0.0000000   0.0484987   0.1028333), wk =   0.0219479
        k(   15) = (   0.0000000   0.0484987   0.1371111), wk =   0.0219479
        k(   16) = (   0.0000000   0.0727480   0.0000000), wk =   0.0109739
        k(   17) = (   0.0000000   0.0727480   0.0342778), wk =   0.0219479
        k(   18) = (   0.0000000   0.0727480   0.0685556), wk =   0.0219479
        k(   19) = (   0.0000000   0.0727480   0.1028333), wk =   0.0219479
        k(   20) = (   0.0000000   0.0727480   0.1371111), wk =   0.0219479
        k(   21) = (   0.0000000   0.0969974   0.0000000), wk =   0.0109739
        k(   22) = (   0.0000000   0.0969974   0.0342778), wk =   0.0219479
        k(   23) = (   0.0000000   0.0969974   0.0685556), wk =   0.0219479
        k(   24) = (   0.0000000   0.0969974   0.1028333), wk =   0.0219479
        k(   25) = (   0.0000000   0.0969974   0.1371111), wk =   0.0219479
        k(   26) = (   0.0242493   0.0242493   0.0000000), wk =   0.0109739
        k(   27) = (   0.0242493   0.0242493   0.0342778), wk =   0.0219479
        k(   28) = (   0.0242493   0.0242493   0.0685556), wk =   0.0219479
        k(   29) = (   0.0242493   0.0242493   0.1028333), wk =   0.0219479
        k(   30) = (   0.0242493   0.0242493   0.1371111), wk =   0.0219479
        k(   31) = (   0.0242493   0.0484987   0.0000000), wk =   0.0219479
        k(   32) = (   0.0242493   0.0484987   0.0342778), wk =   0.0438957
        k(   33) = (   0.0242493   0.0484987   0.0685556), wk =   0.0438957
        k(   34) = (   0.0242493   0.0484987   0.1028333), wk =   0.0438957
        k(   35) = (   0.0242493   0.0484987   0.1371111), wk =   0.0438957
        k(   36) = (   0.0242493   0.0727480   0.0000000), wk =   0.0219479
        k(   37) = (   0.0242493   0.0727480   0.0342778), wk =   0.0438957
        k(   38) = (   0.0242493   0.0727480   0.0685556), wk =   0.0438957
        k(   39) = (   0.0242493   0.0727480   0.1028333), wk =   0.0438957
        k(   40) = (   0.0242493   0.0727480   0.1371111), wk =   0.0438957
        k(   41) = (   0.0242493   0.0969974   0.0000000), wk =   0.0219479
        k(   42) = (   0.0242493   0.0969974   0.0342778), wk =   0.0438957
        k(   43) = (   0.0242493   0.0969974   0.0685556), wk =   0.0438957
        k(   44) = (   0.0242493   0.0969974   0.1028333), wk =   0.0438957
        k(   45) = (   0.0242493   0.0969974   0.1371111), wk =   0.0438957
        k(   46) = (   0.0484987   0.0484987   0.0000000), wk =   0.0109739
        k(   47) = (   0.0484987   0.0484987   0.0342778), wk =   0.0219479
        k(   48) = (   0.0484987   0.0484987   0.0685556), wk =   0.0219479
        k(   49) = (   0.0484987   0.0484987   0.1028333), wk =   0.0219479
        k(   50) = (   0.0484987   0.0484987   0.1371111), wk =   0.0219479
        k(   51) = (   0.0484987   0.0727480   0.0000000), wk =   0.0219479
        k(   52) = (   0.0484987   0.0727480   0.0342778), wk =   0.0438957
        k(   53) = (   0.0484987   0.0727480   0.0685556), wk =   0.0438957
        k(   54) = (   0.0484987   0.0727480   0.1028333), wk =   0.0438957
        k(   55) = (   0.0484987   0.0727480   0.1371111), wk =   0.0438957
        k(   56) = (   0.0484987   0.0969974   0.0000000), wk =   0.0219479
        k(   57) = (   0.0484987   0.0969974   0.0342778), wk =   0.0438957
        k(   58) = (   0.0484987   0.0969974   0.0685556), wk =   0.0438957
        k(   59) = (   0.0484987   0.0969974   0.1028333), wk =   0.0438957
        k(   60) = (   0.0484987   0.0969974   0.1371111), wk =   0.0438957
        k(   61) = (   0.0727480   0.0727480   0.0000000), wk =   0.0109739
        k(   62) = (   0.0727480   0.0727480   0.0342778), wk =   0.0219479
        k(   63) = (   0.0727480   0.0727480   0.0685556), wk =   0.0219479
        k(   64) = (   0.0727480   0.0727480   0.1028333), wk =   0.0219479
        k(   65) = (   0.0727480   0.0727480   0.1371111), wk =   0.0219479
        k(   66) = (   0.0727480   0.0969974   0.0000000), wk =   0.0219479
        k(   67) = (   0.0727480   0.0969974   0.0342778), wk =   0.0438957
        k(   68) = (   0.0727480   0.0969974   0.0685556), wk =   0.0438957
        k(   69) = (   0.0727480   0.0969974   0.1028333), wk =   0.0438957
        k(   70) = (   0.0727480   0.0969974   0.1371111), wk =   0.0438957
        k(   71) = (   0.0969974   0.0969974   0.0000000), wk =   0.0109739
        k(   72) = (   0.0969974   0.0969974   0.0342778), wk =   0.0219479
        k(   73) = (   0.0969974   0.0969974   0.0685556), wk =   0.0219479
        k(   74) = (   0.0969974   0.0969974   0.1028333), wk =   0.0219479
        k(   75) = (   0.0969974   0.0969974   0.1371111), wk =   0.0219479

     Largest allocated arrays     est. size (Mb)     dimensions
     Largest temporary arrays     est. size (Mb)     dimensions

     Check: negative/imaginary core charge=   -0.000005    0.000000

     Initial potential from superposition of free atoms
     Check: negative starting charge=   -0.122399

     starting charge   49.99567, renormalised to   52.00000

     negative rho (up, down):  1.273E-01 0.000E+00

     *
     * You are using vdW-DF for exchange-correlation in this calculation.
     * Please cite the following three references that made this development
     * possible:
     *
     *   M. Dion, H. Rydberg, E. Schroder, D. C. Langreth, and
     *   B. I. Lundqvist, Phys. Rev. Lett. 92, 246401 (2004).
     *
     *   T. Thonhauser, V. R. Cooper, S. Li, A. Puzder, P. Hyldgaard, and
     *   D. C. Langreth, Phys. Rev. B 76, 125112 (2007).
     *
     *   G. Roman-Perez and J. M. Soler, Phys. Rev. Lett. 103, 096102 (2009).
     *
     *
     * If you are using vdW-DF2, please also cite:
     *
     *   K. Lee, E. D. Murray, L. Kong, B. I. Lundqvist, and
     *   D. C. Langreth, Phys. Rev. B 82, 081101(R) (2010).
     *
     *
     * If you are calculating the stress with vdW-DF, please also cite:
     *
     *   R. Sabatini, E. Kucukbenli, B. Kolb, T. Thonhauser, and
     *   S. de Gironcoli, J. Phys.: Condens. Matter 24, 424209 (2012).
     *

     Carrying out vdW-DF run using the following parameters:

     Nqs =      20    Nr_points =    1024   r_max =   100.000
     q_mesh =
               0.00001000     0.04494208     0.09755937     0.15916263
               0.23128650     0.31572767     0.41458969     0.53033537
               0.66584808     0.82450364     1.01025438     1.22772762
               1.48234092     1.78043706     2.12944203     2.53805004
               3.01644009     3.57652955     4.23227104     5.00000000

     Gradients computed in reciprocal space

     Starting wfc are   46 randomized atomic wfcs

     Self-consistent Calculation

     iteration #  1     ecut=    58.80 Ry     beta=0.10
     Davidson diagonalization with overlap
     ethr =  1.00E-02,  avg # of iterations =  4.0

[...]

     total energy              =    -552.21130986 Ry
     Harris-Foulkes estimate   =    -552.47261687 Ry
     estimated scf accuracy    <       1.61036945 Ry

[...]

     total energy              =    -552.11759496 Ry
     Harris-Foulkes estimate   =    -552.11755891 Ry
     estimated scf accuracy    <       0.00000120 Ry

     iteration # 12     ecut=    58.80 Ry     beta=0.10
     Davidson diagonalization with overlap
     ethr =  2.31E-09,  avg # of iterations =  2.0

     negative rho (up, down):  1.262E-01 0.000E+00

     End of self-consistent calculation

          k = 0.0000 0.0000 0.0000 (  3483 PWs)   bands (ev):

   -55.6324 -55.6266 -32.6663 -32.5836 -26.9690 -26.9690 -26.9289 -26.9289
   -26.9288 -26.9198 -10.8672 -10.8672 -10.4529 -10.4524 -10.4524 -10.3722
     9.6236  12.0886  12.7416  12.7425  12.9486  14.4809  14.4809  15.7551
    15.7551  15.7577  16.9833  17.2345  17.4386  17.4386  18.0775  18.0822
    18.5668  20.5378  20.5378  20.8574  20.8574  20.8579  21.5168  24.3314
    24.3437  24.3437  26.2221  27.4688  28.5433  28.5434

[...]

          k = 0.0970 0.0970 0.1371 (  3458 PWs)   bands (ev):

   -55.6268 -55.6266 -32.5867 -32.5841 -26.9685 -26.9677 -26.9671 -26.9667
   -26.9214 -26.9202 -10.8692 -10.8584 -10.8546 -10.8520 -10.3878 -10.3748
    12.1649  12.1732  12.9737  13.0250  14.5016  14.5056  14.5206  14.5755
    16.5465  16.6553  16.8381  17.1377  17.1666  17.5303  17.6384  17.7453
    18.4909  18.5602  20.3597  20.5389  20.6411  20.6523  21.5803  21.5885
    26.2143  26.2148  27.2738  27.4822  28.5898  28.7736

     the Fermi energy is    15.5467 ev

!    total energy              =    -552.11760534 Ry
     Harris-Foulkes estimate   =    -552.11759515 Ry
     estimated scf accuracy    <       0.00000018 Ry

     The total energy is the sum of the following terms:

     one-electron contribution =    -181.32020529 Ry
     hartree contribution      =     115.94614585 Ry
     xc contribution           =     -83.65016752 Ry
     ewald contribution        =    -403.07198214 Ry
     smearing contrib. (-TS)   =      -0.02139624 Ry

     convergence has been achieved in  12 iterations

     Forces acting on atoms (Ry/au):

     negative rho (up, down):  1.262E-01 0.000E+00
     atom    1 type  1   force =     0.00000000    0.00000000    0.00000000
     atom    2 type  1   force =     0.00000000    0.00000000    0.00000000
     atom    3 type  2   force =     0.00000000    0.00000000    0.00000000
     atom    4 type  2   force =     0.00000000    0.00000000    0.00000000

     Total force =     0.000000     Total SCF correction =     0.000000

     General routines

     Parallel routines

   This run was terminated on:   8:22:11  14Nov2017

   JOB DONE.