     Program PWSCF v.5.1rc2 starts on 14Nov2017 at 14:25:36

     Current dimensions of program PWSCF are:
     Max number of different atomic species (ntypx) = 10
     Max number of k-points (npk) =  40000
     Max angular momentum in pseudopotentials (lmaxx) =  3

     IMPORTANT: XC functional enforced from input :
     Exchange-correlation      = BEEF-VDW ( 1  4 27 13 2)
     Any further DFT definition will be discarded
     Please, verify this is what you really want

     Found symmetry operation: I + ( -0.5000 -0.5000  0.0000)
     This is a supercell, fractional translations are disabled

     bravais-lattice index     =            0
     lattice parameter (alat)  =       1.8897  a.u.
     unit-cell volume          =     623.6228 (a.u.)^3
     number of atoms/cell      =            4
     number of atomic types    =            2
     number of electrons       =        50.00
     number of Kohn-Sham states=           45
     kinetic-energy cutoff     =      58.7989  Ry
     charge density cutoff     =     587.9892  Ry
     convergence threshold     =      1.0E-06
     mixing beta               =       0.1000
     number of iterations used =           10  plain     mixing
     Exchange-correlation      = BEEF-VDW ( 1  4 27 13 2)

     celldm(1)=   1.889726  celldm(2)=   0.000000  celldm(3)=   0.000000
     celldm(4)=   0.000000  celldm(5)=   0.000000  celldm(6)=   0.000000

     crystal axes: (cart. coord. in units of alat)
               a(1) = (   4.192824   0.000000   0.000000 )
               a(2) = (   0.000000   4.192824   0.000000 )
               a(3) = (   0.000000   0.000000   5.256687 )

     reciprocal axes: (cart. coord. in units 2 pi/alat)
               b(1) = (  0.238503  0.000000  0.000000 )
               b(2) = (  0.000000  0.238503  0.000000 )
               b(3) = (  0.000000  0.000000  0.190234 )

     PseudoPot. # 1 for La read from file:
     /home/users/vossj/suncat/psp/gbrv1.5pbe/La.UPF
     MD5 check sum: 5937b0c7494ba0601a847275249473aa
     Pseudo is Ultrasoft + core correction, Zval = 11.0
     Generated by new atomic code, or converted to UPF format
     Using radial grid of  995 points,  8 beta functions with:
                l(1) =   0
                l(2) =   0
                l(3) =   1
                l(4) =   1
                l(5) =   2
                l(6) =   2
                l(7) =   3
                l(8) =   3
     Q(r) pseudized with  8 coefficients,  rinner =    1.700   1.700   1.700
                                                       1.700   1.700   1.700
                                                       1.700

     PseudoPot. # 2 for Mo read from file:
     /home/users/vossj/suncat/psp/gbrv1.5pbe/Mo.UPF
     MD5 check sum: 30c4dcd161f5d35cd49bb5239c51a633
     Pseudo is Ultrasoft + core correction, Zval = 14.0
     Generated by new atomic code, or converted to UPF format
     Using radial grid of  889 points,  6 beta functions with:
                l(1) =   0
                l(2) =   0
                l(3) =   1
                l(4) =   1
                l(5) =   2
                l(6) =   2
     Q(r) pseudized with  6 coefficients,  rinner =    1.000   1.000   1.000
                                                       1.000   1.000

     vdW kernel table read from file vdW_kernel_table
     MD5 check sum: 095c7af220d748ca6e76c0b4c6cfb241

     atomic species   valence    mass     pseudopotential
        La1           11.00   138.90550     La( 1.00)
        Mo1           14.00    95.94000     Mo( 1.00)

     16 Sym. Ops., with inversion, found

   Cartesian axes

     site n.     atom                  positions (alat units)
         1           La1 tau(   1) = (   0.0000000   0.0000000   0.0000000  )
         2           La1 tau(   2) = (   2.0964119   2.0964119   0.0000000  )
         3           Mo1 tau(   3) = (   2.0964119   0.0000000   2.6283437  )
         4           Mo1 tau(   4) = (   0.0000000   2.0964119   2.6283437  )

     number of k points=    75  Fermi-Dirac smearing, width (Ry)=  0.0073
                       cart. coord. in units 2pi/alat
        k(    1) = (   0.0000000   0.0000000   0.0000000), wk =   0.0027435
        k(    2) = (   0.0000000   0.0000000   0.0211371), wk =   0.0054870
        k(    3) = (   0.0000000   0.0000000   0.0422742), wk =   0.0054870
        k(    4) = (   0.0000000   0.0000000   0.0634113), wk =   0.0054870
        k(    5) = (   0.0000000   0.0000000   0.0845484), wk =   0.0054870
        k(    6) = (   0.0000000   0.0265003   0.0000000), wk =   0.0109739
        k(    7) = (   0.0000000   0.0265003   0.0211371), wk =   0.0219479
        k(    8) = (   0.0000000   0.0265003   0.0422742), wk =   0.0219479
        k(    9) = (   0.0000000   0.0265003   0.0634113), wk =   0.0219479
        k(   10) = (   0.0000000   0.0265003   0.0845484), wk =   0.0219479
        k(   11) = (   0.0000000   0.0530006   0.0000000), wk =   0.0109739
        k(   12) = (   0.0000000   0.0530006   0.0211371), wk =   0.0219479
        k(   13) = (   0.0000000   0.0530006   0.0422742), wk =   0.0219479
        k(   14) = (   0.0000000   0.0530006   0.0634113), wk =   0.0219479
        k(   15) = (   0.0000000   0.0530006   0.0845484), wk =   0.0219479
        k(   16) = (   0.0000000   0.0795009   0.0000000), wk =   0.0109739
        k(   17) = (   0.0000000   0.0795009   0.0211371), wk =   0.0219479
        k(   18) = (   0.0000000   0.0795009   0.0422742), wk =   0.0219479
        k(   19) = (   0.0000000   0.0795009   0.0634113), wk =   0.0219479
        k(   20) = (   0.0000000   0.0795009   0.0845484), wk =   0.0219479
        k(   21) = (   0.0000000   0.1060012   0.0000000), wk =   0.0109739
        k(   22) = (   0.0000000   0.1060012   0.0211371), wk =   0.0219479
        k(   23) = (   0.0000000   0.1060012   0.0422742), wk =   0.0219479
        k(   24) = (   0.0000000   0.1060012   0.0634113), wk =   0.0219479
        k(   25) = (   0.0000000   0.1060012   0.0845484), wk =   0.0219479
        k(   26) = (   0.0265003   0.0265003   0.0000000), wk =   0.0109739
        k(   27) = (   0.0265003   0.0265003   0.0211371), wk =   0.0219479
        k(   28) = (   0.0265003   0.0265003   0.0422742), wk =   0.0219479
        k(   29) = (   0.0265003   0.0265003   0.0634113), wk =   0.0219479
        k(   30) = (   0.0265003   0.0265003   0.0845484), wk =   0.0219479
        k(   31) = (   0.0265003   0.0530006   0.0000000), wk =   0.0219479
        k(   32) = (   0.0265003   0.0530006   0.0211371), wk =   0.0438957
        k(   33) = (   0.0265003   0.0530006   0.0422742), wk =   0.0438957
        k(   34) = (   0.0265003   0.0530006   0.0634113), wk =   0.0438957
        k(   35) = (   0.0265003   0.0530006   0.0845484), wk =   0.0438957
        k(   36) = (   0.0265003   0.0795009   0.0000000), wk =   0.0219479
        k(   37) = (   0.0265003   0.0795009   0.0211371), wk =   0.0438957
        k(   38) = (   0.0265003   0.0795009   0.0422742), wk =   0.0438957
        k(   39) = (   0.0265003   0.0795009   0.0634113), wk =   0.0438957
        k(   40) = (   0.0265003   0.0795009   0.0845484), wk =   0.0438957
        k(   41) = (   0.0265003   0.1060012   0.0000000), wk =   0.0219479
        k(   42) = (   0.0265003   0.1060012   0.0211371), wk =   0.0438957
        k(   43) = (   0.0265003   0.1060012   0.0422742), wk =   0.0438957
        k(   44) = (   0.0265003   0.1060012   0.0634113), wk =   0.0438957
        k(   45) = (   0.0265003   0.1060012   0.0845484), wk =   0.0438957
        k(   46) = (   0.0530006   0.0530006   0.0000000), wk =   0.0109739
        k(   47) = (   0.0530006   0.0530006   0.0211371), wk =   0.0219479
        k(   48) = (   0.0530006   0.0530006   0.0422742), wk =   0.0219479
        k(   49) = (   0.0530006   0.0530006   0.0634113), wk =   0.0219479
        k(   50) = (   0.0530006   0.0530006   0.0845484), wk =   0.0219479
        k(   51) = (   0.0530006   0.0795009   0.0000000), wk =   0.0219479
        k(   52) = (   0.0530006   0.0795009   0.0211371), wk =   0.0438957
        k(   53) = (   0.0530006   0.0795009   0.0422742), wk =   0.0438957
        k(   54) = (   0.0530006   0.0795009   0.0634113), wk =   0.0438957
        k(   55) = (   0.0530006   0.0795009   0.0845484), wk =   0.0438957
        k(   56) = (   0.0530006   0.1060012   0.0000000), wk =   0.0219479
        k(   57) = (   0.0530006   0.1060012   0.0211371), wk =   0.0438957
        k(   58) = (   0.0530006   0.1060012   0.0422742), wk =   0.0438957
        k(   59) = (   0.0530006   0.1060012   0.0634113), wk =   0.0438957
        k(   60) = (   0.0530006   0.1060012   0.0845484), wk =   0.0438957
        k(   61) = (   0.0795009   0.0795009   0.0000000), wk =   0.0109739
        k(   62) = (   0.0795009   0.0795009   0.0211371), wk =   0.0219479
        k(   63) = (   0.0795009   0.0795009   0.0422742), wk =   0.0219479
        k(   64) = (   0.0795009   0.0795009   0.0634113), wk =   0.0219479
        k(   65) = (   0.0795009   0.0795009   0.0845484), wk =   0.0219479
        k(   66) = (   0.0795009   0.1060012   0.0000000), wk =   0.0219479
        k(   67) = (   0.0795009   0.1060012   0.0211371), wk =   0.0438957
        k(   68) = (   0.0795009   0.1060012   0.0422742), wk =   0.0438957
        k(   69) = (   0.0795009   0.1060012   0.0634113), wk =   0.0438957
        k(   70) = (   0.0795009   0.1060012   0.0845484), wk =   0.0438957
        k(   71) = (   0.1060012   0.1060012   0.0000000), wk =   0.0109739
        k(   72) = (   0.1060012   0.1060012   0.0211371), wk =   0.0219479
        k(   73) = (   0.1060012   0.1060012   0.0422742), wk =   0.0219479
        k(   74) = (   0.1060012   0.1060012   0.0634113), wk =   0.0219479
        k(   75) = (   0.1060012   0.1060012   0.0845484), wk =   0.0219479

     Largest allocated arrays     est. size (Mb)     dimensions
     Largest temporary arrays     est. size (Mb)     dimensions

     Initial potential from superposition of free atoms
     Check: negative starting charge=   -0.134651

     starting charge   49.93374, renormalised to   50.00000

     negative rho (up, down):  1.348E-01 0.000E+00

     *
     * You are using vdW-DF for exchange-correlation in this calculation.
     * Please cite the following three references that made this development
     * possible:
     *
     *   M. Dion, H. Rydberg, E. Schroder, D. C. Langreth, and
     *   B. I. Lundqvist, Phys. Rev. Lett. 92, 246401 (2004).
     *
     *   T. Thonhauser, V. R. Cooper, S. Li, A. Puzder, P. Hyldgaard, and
     *   D. C. Langreth, Phys. Rev. B 76, 125112 (2007).
     *
     *   G. Roman-Perez and J. M. Soler, Phys. Rev. Lett. 103, 096102 (2009).
     *
     *
     * If you are using vdW-DF2, please also cite:
     *
     *   K. Lee, E. D. Murray, L. Kong, B. I. Lundqvist, and
     *   D. C. Langreth, Phys. Rev. B 82, 081101(R) (2010).
     *
     *
     * If you are calculating the stress with vdW-DF, please also cite:
     *
     *   R. Sabatini, E. Kucukbenli, B. Kolb, T. Thonhauser, and
     *   S. de Gironcoli, J. Phys.: Condens. Matter 24, 424209 (2012).
     *

     Carrying out vdW-DF run using the following parameters:

     Nqs =      20    Nr_points =    1024   r_max =   100.000
     q_mesh =
               0.00001000     0.04494208     0.09755937     0.15916263
               0.23128650     0.31572767     0.41458969     0.53033537
               0.66584808     0.82450364     1.01025438     1.22772762
               1.48234092     1.78043706     2.12944203     2.53805004
               3.01644009     3.57652955     4.23227104     5.00000000

     Gradients computed in reciprocal space

     Starting wfc are   66 randomized atomic wfcs

     Self-consistent Calculation

     iteration #  1     ecut=    58.80 Ry     beta=0.10
     Davidson diagonalization with overlap
     ethr =  1.00E-02,  avg # of iterations =  2.0

[...]

     total energy              =    -487.70263316 Ry
     Harris-Foulkes estimate   =    -487.94919093 Ry
     estimated scf accuracy    <       1.38175060 Ry

[...]

     total energy              =    -487.85324195 Ry
     Harris-Foulkes estimate   =    -487.85321679 Ry
     estimated scf accuracy    <       0.00000432 Ry

     iteration # 11     ecut=    58.80 Ry     beta=0.10
     Davidson diagonalization with overlap
     ethr =  8.64E-09,  avg # of iterations =  1.8

     negative rho (up, down):  6.231E-02 0.000E+00

     End of self-consistent calculation

          k = 0.0000 0.0000 0.0000 (  4765 PWs)   bands (ev):

   -45.1055 -45.0249 -19.2679 -19.2679 -19.1102 -19.0144 -18.8931 -18.8931
   -17.1941 -15.8212  -1.9324  -1.9324  -0.6348   0.6383   1.3902   1.3902
    11.1634  11.8842  12.8070  13.3220  13.3229  13.3229  13.4864  15.2331
    16.6961  16.6961  16.9090  17.7850  18.0683  18.1423  18.1992  18.1992
    18.2156  18.2565  18.7445  18.7445  19.0576  19.0576  19.3300  19.3327
    19.3623  19.3623  19.5612  19.5962  19.8623

[...]

          k = 0.1060 0.1060 0.0845 (  4760 PWs)   bands (ev):

   -45.0660 -45.0636 -19.3187 -19.3077 -19.0633 -19.0599 -18.8691 -18.8575
   -16.5219 -16.4810  -2.6054  -2.5261  -0.0207   0.0217   1.7307   1.8644
    12.3806  12.3807  13.5015  13.5042  14.4727  14.5610  16.1586  16.4690
    16.5435  16.7872  16.8733  17.0305  17.2363  17.2413  17.4368  17.6414
    18.2202  18.3186  18.3716  18.3983  18.9570  18.9797  19.2972  19.3110
    19.3370  19.4221  19.6553  19.7277  19.7487

     the Fermi energy is    15.9035 ev

!    total energy              =    -487.85335243 Ry
     Harris-Foulkes estimate   =    -487.85324241 Ry
     estimated scf accuracy    <       0.00000043 Ry

     The total energy is the sum of the following terms:

     one-electron contribution =     -72.56902617 Ry
     hartree contribution      =      63.18336795 Ry
     xc contribution           =    -142.03405279 Ry
     ewald contribution        =    -336.42059217 Ry
     smearing contrib. (-TS)   =      -0.01304924 Ry

     convergence has been achieved in  11 iterations

     Forces acting on atoms (Ry/au):

     negative rho (up, down):  6.231E-02 0.000E+00
     atom    1 type  1   force =     0.00000000    0.00000000    0.00000000
     atom    2 type  1   force =     0.00000000    0.00000000    0.00000000
     atom    3 type  2   force =     0.00000000    0.00000000    0.00000000
     atom    4 type  2   force =     0.00000000    0.00000000    0.00000000

     Total force =     0.000000     Total SCF correction =     0.000000

     General routines

     Parallel routines

   This run was terminated on:  14:26:23  14Nov2017

   JOB DONE.