     Program PWSCF v.5.1rc2 starts on 14Nov2017 at 15:51:12

     Current dimensions of program PWSCF are:
     Max number of different atomic species (ntypx) = 10
     Max number of k-points (npk) =  40000
     Max angular momentum in pseudopotentials (lmaxx) =  3

     IMPORTANT: XC functional enforced from input :
     Exchange-correlation      = BEEF-VDW ( 1  4 27 13 2)
     Any further DFT definition will be discarded
     Please, verify this is what you really want

     Found symmetry operation: I + ( -0.5000 -0.5000  0.0000)
     This is a supercell, fractional translations are disabled

     bravais-lattice index     =            0
     lattice parameter (alat)  =       1.8897  a.u.
     unit-cell volume          =     537.1347 (a.u.)^3
     number of atoms/cell      =            4
     number of atomic types    =            2
     number of electrons       =        52.00
     number of Kohn-Sham states=           46
     kinetic-energy cutoff     =      58.7989  Ry
     charge density cutoff     =     587.9892  Ry
     convergence threshold     =      1.0E-06
     mixing beta               =       0.1000
     number of iterations used =           10  plain     mixing
     Exchange-correlation      = BEEF-VDW ( 1  4 27 13 2)

     celldm(1)=   1.889726  celldm(2)=   0.000000  celldm(3)=   0.000000
     celldm(4)=   0.000000  celldm(5)=   0.000000  celldm(6)=   0.000000

     crystal axes: (cart. coord. in units of alat)
               a(1) = (   4.199316   0.000000   0.000000 )
               a(2) = (   0.000000   4.199316   0.000000 )
               a(3) = (   0.000000   0.000000   4.513668 )

     reciprocal axes: (cart. coord. in units 2 pi/alat)
               b(1) = (  0.238134  0.000000  0.000000 )
               b(2) = (  0.000000  0.238134  0.000000 )
               b(3) = (  0.000000  0.000000  0.221549 )

     PseudoPot. # 1 for Nb read from file:
     /home/users/vossj/suncat/psp/gbrv1.5pbe/Nb.UPF
     MD5 check sum: 573aab8a2fa660278ed4a62cd769473f
     Pseudo is Ultrasoft + core correction, Zval = 13.0
     Generated by new atomic code, or converted to UPF format
     Using radial grid of  887 points,  6 beta functions with:
                l(1) =   0
                l(2) =   0
                l(3) =   1
                l(4) =   1
                l(5) =   2
                l(6) =   2
     Q(r) pseudized with  6 coefficients,  rinner =    1.000   1.000   1.000
                                                       1.000   1.000

     PseudoPot. # 2 for In read from file:
     /home/users/vossj/suncat/psp/gbrv1.5pbe/In.UPF
     MD5 check sum: 90777abd96fbb83f2e67db2a40c566b9
     Pseudo is Ultrasoft + core correction, Zval = 13.0
     Generated by new atomic code, or converted to UPF format
     Using radial grid of  889 points,  6 beta functions with:
                l(1) =   0
                l(2) =   0
                l(3) =   1
                l(4) =   1
                l(5) =   2
                l(6) =   2
     Q(r) pseudized with  6 coefficients,  rinner =    1.400   1.400   1.400
                                                       1.400   1.400

     vdW kernel table read from file vdW_kernel_table
     MD5 check sum: 095c7af220d748ca6e76c0b4c6cfb241

     atomic species   valence    mass     pseudopotential
        Nb1           13.00    92.90640     Nb( 1.00)
        In1           13.00   114.82000     In( 1.00)

     16 Sym. Ops., with inversion, found

   Cartesian axes

     site n.     atom                  positions (alat units)
         1           Nb1 tau(   1) = (   0.0000000   0.0000000   0.0000000  )
         2           Nb1 tau(   2) = (   2.0996578   2.0996578   0.0000000  )
         3           In1 tau(   3) = (   2.0996578   0.0000000   2.2568338  )
         4           In1 tau(   4) = (   0.0000000   2.0996578   2.2568338  )

     number of k points=    75  Fermi-Dirac smearing, width (Ry)=  0.0073
                       cart. coord. in units 2pi/alat
        k(    1) = (   0.0000000   0.0000000   0.0000000), wk =   0.0027435
        k(    2) = (   0.0000000   0.0000000   0.0246166), wk =   0.0054870
        k(    3) = (   0.0000000   0.0000000   0.0492332), wk =   0.0054870
        k(    4) = (   0.0000000   0.0000000   0.0738498), wk =   0.0054870
        k(    5) = (   0.0000000   0.0000000   0.0984664), wk =   0.0054870
        k(    6) = (   0.0000000   0.0264593   0.0000000), wk =   0.0109739
        k(    7) = (   0.0000000   0.0264593   0.0246166), wk =   0.0219479
        k(    8) = (   0.0000000   0.0264593   0.0492332), wk =   0.0219479
        k(    9) = (   0.0000000   0.0264593   0.0738498), wk =   0.0219479
        k(   10) = (   0.0000000   0.0264593   0.0984664), wk =   0.0219479
        k(   11) = (   0.0000000   0.0529187   0.0000000), wk =   0.0109739
        k(   12) = (   0.0000000   0.0529187   0.0246166), wk =   0.0219479
        k(   13) = (   0.0000000   0.0529187   0.0492332), wk =   0.0219479
        k(   14) = (   0.0000000   0.0529187   0.0738498), wk =   0.0219479
        k(   15) = (   0.0000000   0.0529187   0.0984664), wk =   0.0219479
        k(   16) = (   0.0000000   0.0793780   0.0000000), wk =   0.0109739
        k(   17) = (   0.0000000   0.0793780   0.0246166), wk =   0.0219479
        k(   18) = (   0.0000000   0.0793780   0.0492332), wk =   0.0219479
        k(   19) = (   0.0000000   0.0793780   0.0738498), wk =   0.0219479
        k(   20) = (   0.0000000   0.0793780   0.0984664), wk =   0.0219479
        k(   21) = (   0.0000000   0.1058374   0.0000000), wk =   0.0109739
        k(   22) = (   0.0000000   0.1058374   0.0246166), wk =   0.0219479
        k(   23) = (   0.0000000   0.1058374   0.0492332), wk =   0.0219479
        k(   24) = (   0.0000000   0.1058374   0.0738498), wk =   0.0219479
        k(   25) = (   0.0000000   0.1058374   0.0984664), wk =   0.0219479
        k(   26) = (   0.0264593   0.0264593   0.0000000), wk =   0.0109739
        k(   27) = (   0.0264593   0.0264593   0.0246166), wk =   0.0219479
        k(   28) = (   0.0264593   0.0264593   0.0492332), wk =   0.0219479
        k(   29) = (   0.0264593   0.0264593   0.0738498), wk =   0.0219479
        k(   30) = (   0.0264593   0.0264593   0.0984664), wk =   0.0219479
        k(   31) = (   0.0264593   0.0529187   0.0000000), wk =   0.0219479
        k(   32) = (   0.0264593   0.0529187   0.0246166), wk =   0.0438957
        k(   33) = (   0.0264593   0.0529187   0.0492332), wk =   0.0438957
        k(   34) = (   0.0264593   0.0529187   0.0738498), wk =   0.0438957
        k(   35) = (   0.0264593   0.0529187   0.0984664), wk =   0.0438957
        k(   36) = (   0.0264593   0.0793780   0.0000000), wk =   0.0219479
        k(   37) = (   0.0264593   0.0793780   0.0246166), wk =   0.0438957
        k(   38) = (   0.0264593   0.0793780   0.0492332), wk =   0.0438957
        k(   39) = (   0.0264593   0.0793780   0.0738498), wk =   0.0438957
        k(   40) = (   0.0264593   0.0793780   0.0984664), wk =   0.0438957
        k(   41) = (   0.0264593   0.1058374   0.0000000), wk =   0.0219479
        k(   42) = (   0.0264593   0.1058374   0.0246166), wk =   0.0438957
        k(   43) = (   0.0264593   0.1058374   0.0492332), wk =   0.0438957
        k(   44) = (   0.0264593   0.1058374   0.0738498), wk =   0.0438957
        k(   45) = (   0.0264593   0.1058374   0.0984664), wk =   0.0438957
        k(   46) = (   0.0529187   0.0529187   0.0000000), wk =   0.0109739
        k(   47) = (   0.0529187   0.0529187   0.0246166), wk =   0.0219479
        k(   48) = (   0.0529187   0.0529187   0.0492332), wk =   0.0219479
        k(   49) = (   0.0529187   0.0529187   0.0738498), wk =   0.0219479
        k(   50) = (   0.0529187   0.0529187   0.0984664), wk =   0.0219479
        k(   51) = (   0.0529187   0.0793780   0.0000000), wk =   0.0219479
        k(   52) = (   0.0529187   0.0793780   0.0246166), wk =   0.0438957
        k(   53) = (   0.0529187   0.0793780   0.0492332), wk =   0.0438957
        k(   54) = (   0.0529187   0.0793780   0.0738498), wk =   0.0438957
        k(   55) = (   0.0529187   0.0793780   0.0984664), wk =   0.0438957
        k(   56) = (   0.0529187   0.1058374   0.0000000), wk =   0.0219479
        k(   57) = (   0.0529187   0.1058374   0.0246166), wk =   0.0438957
        k(   58) = (   0.0529187   0.1058374   0.0492332), wk =   0.0438957
        k(   59) = (   0.0529187   0.1058374   0.0738498), wk =   0.0438957
        k(   60) = (   0.0529187   0.1058374   0.0984664), wk =   0.0438957
        k(   61) = (   0.0793780   0.0793780   0.0000000), wk =   0.0109739
        k(   62) = (   0.0793780   0.0793780   0.0246166), wk =   0.0219479
        k(   63) = (   0.0793780   0.0793780   0.0492332), wk =   0.0219479
        k(   64) = (   0.0793780   0.0793780   0.0738498), wk =   0.0219479
        k(   65) = (   0.0793780   0.0793780   0.0984664), wk =   0.0219479
        k(   66) = (   0.0793780   0.1058374   0.0000000), wk =   0.0219479
        k(   67) = (   0.0793780   0.1058374   0.0246166), wk =   0.0438957
        k(   68) = (   0.0793780   0.1058374   0.0492332), wk =   0.0438957
        k(   69) = (   0.0793780   0.1058374   0.0738498), wk =   0.0438957
        k(   70) = (   0.0793780   0.1058374   0.0984664), wk =   0.0438957
        k(   71) = (   0.1058374   0.1058374   0.0000000), wk =   0.0109739
        k(   72) = (   0.1058374   0.1058374   0.0246166), wk =   0.0219479
        k(   73) = (   0.1058374   0.1058374   0.0492332), wk =   0.0219479
        k(   74) = (   0.1058374   0.1058374   0.0738498), wk =   0.0219479
        k(   75) = (   0.1058374   0.1058374   0.0984664), wk =   0.0219479

     Largest allocated arrays     est. size (Mb)     dimensions
     Largest temporary arrays     est. size (Mb)     dimensions

     Initial potential from superposition of free atoms

     starting charge   48.99453, renormalised to   52.00000

     *
     * You are using vdW-DF for exchange-correlation in this calculation.
     * Please cite the following three references that made this development
     * possible:
     *
     *   M. Dion, H. Rydberg, E. Schroder, D. C. Langreth, and
     *   B. I. Lundqvist, Phys. Rev. Lett. 92, 246401 (2004).
     *
     *   T. Thonhauser, V. R. Cooper, S. Li, A. Puzder, P. Hyldgaard, and
     *   D. C. Langreth, Phys. Rev. B 76, 125112 (2007).
     *
     *   G. Roman-Perez and J. M. Soler, Phys. Rev. Lett. 103, 096102 (2009).
     *
     *
     * If you are using vdW-DF2, please also cite:
     *
     *   K. Lee, E. D. Murray, L. Kong, B. I. Lundqvist, and
     *   D. C. Langreth, Phys. Rev. B 82, 081101(R) (2010).
     *
     *
     * If you are calculating the stress with vdW-DF, please also cite:
     *
     *   R. Sabatini, E. Kucukbenli, B. Kolb, T. Thonhauser, and
     *   S. de Gironcoli, J. Phys.: Condens. Matter 24, 424209 (2012).
     *

     Carrying out vdW-DF run using the following parameters:

     Nqs =      20    Nr_points =    1024   r_max =   100.000
     q_mesh =
               0.00001000     0.04494208     0.09755937     0.15916263
               0.23128650     0.31572767     0.41458969     0.53033537
               0.66584808     0.82450364     1.01025438     1.22772762
               1.48234092     1.78043706     2.12944203     2.53805004
               3.01644009     3.57652955     4.23227104     5.00000000

     Gradients computed in reciprocal space

     Starting wfc are   44 randomized atomic wfcs +    2 random wfc

     Self-consistent Calculation

     iteration #  1     ecut=    58.80 Ry     beta=0.10
     Davidson diagonalization with overlap
     ethr =  1.00E-02,  avg # of iterations =  4.5

     total energy              =    -507.38842382 Ry
     Harris-Foulkes estimate   =    -507.91226150 Ry
     estimated scf accuracy    <       3.43750466 Ry

[...]

     total energy              =    -506.70416411 Ry
     Harris-Foulkes estimate   =    -506.70416376 Ry
     estimated scf accuracy    <       0.00000221 Ry

     iteration # 13     ecut=    58.80 Ry     beta=0.10
     Davidson diagonalization with overlap
     ethr =  2.39E-09,  avg # of iterations =  2.0

     End of self-consistent calculation

          k = 0.0000 0.0000 0.0000 (  4081 PWs)   bands (ev):

   -40.0782 -39.9480 -16.2638 -16.2638 -16.2138 -16.0660 -15.7086 -15.7086
    -0.1586   0.0125   0.2104   0.2690   0.2690   0.5808   0.5808   0.6404
     0.6744   0.9458   5.6929  11.2922  12.6605  13.1724  14.1658  14.5807
    14.5807  14.5928  14.5928  15.2225  17.1751  17.1751  18.5488  18.6674
    20.0349  20.1142  20.8448  22.8529  22.8529  23.1841  24.0788  24.0788
    25.2246  27.1293  28.0613  29.1682  30.0420  30.4063

[...]

          k = 0.1058 0.1058 0.0985 (  4093 PWs)   bands (ev):

   -40.0140 -40.0101 -16.3458 -16.3298 -16.1477 -16.1430 -15.6707 -15.6532
     0.0958   0.1219   0.2202   0.2278   0.4111   0.4304   0.6034   0.6124
     0.6874   0.7063   9.2925   9.5406  12.0155  12.2163  13.2340  13.5687
    13.9807  14.1810  16.0793  16.0880  16.5874  16.6440  17.3831  17.3941
    18.2596  18.3678  22.0360  22.0391  25.7231  25.7450  26.3716  26.5763
    26.7035  26.8877  28.8535  29.0739  29.3672  29.8086

     the Fermi energy is    15.4301 ev

!    total energy              =    -506.70417066 Ry
     Harris-Foulkes estimate   =    -506.70416447 Ry
     estimated scf accuracy    <       0.00000001 Ry

     The total energy is the sum of the following terms:

     one-electron contribution =     -94.51245335 Ry
     hartree contribution      =      85.73888132 Ry
     xc contribution           =    -116.68859763 Ry
     ewald contribution        =    -381.23582944 Ry
     smearing contrib. (-TS)   =      -0.00617157 Ry

     convergence has been achieved in  13 iterations

     Forces acting on atoms (Ry/au):

     atom    1 type  1   force =     0.00000000    0.00000000    0.00000000
     atom    2 type  1   force =     0.00000000    0.00000000    0.00000000
     atom    3 type  2   force =     0.00000000    0.00000000    0.00000000
     atom    4 type  2   force =     0.00000000    0.00000000    0.00000000

     Total force =     0.000000     Total SCF correction =     0.000000

     General routines

     Parallel routines

   This run was terminated on:  15:51:58  14Nov2017

   JOB DONE.