     Program PWSCF v.5.1rc2 starts on 14Nov2017 at  1: 7:40

     Current dimensions of program PWSCF are:
     Max number of different atomic species (ntypx) = 10
     Max number of k-points (npk) =  40000
     Max angular momentum in pseudopotentials (lmaxx) =  3

     IMPORTANT: XC functional enforced from input :
     Exchange-correlation      = BEEF-VDW ( 1  4 27 13 2)
     Any further DFT definition will be discarded
     Please, verify this is what you really want

     Found symmetry operation: I + ( -0.5000 -0.5000  0.0000)
     This is a supercell, fractional translations are disabled

     bravais-lattice index     =            0
     lattice parameter (alat)  =       1.8897  a.u.
     unit-cell volume          =     397.8505 (a.u.)^3
     number of atoms/cell      =            4
     number of atomic types    =            2
     number of electrons       =        38.00
     number of Kohn-Sham states=           39
     kinetic-energy cutoff     =      58.7989  Ry
     charge density cutoff     =     587.9892  Ry
     convergence threshold     =      1.0E-06
     mixing beta               =       0.1000
     number of iterations used =           10  plain     mixing
     Exchange-correlation      = BEEF-VDW ( 1  4 27 13 2)

     celldm(1)=   1.889726  celldm(2)=   0.000000  celldm(3)=   0.000000
     celldm(4)=   0.000000  celldm(5)=   0.000000  celldm(6)=   0.000000

     crystal axes: (cart. coord. in units of alat)
               a(1) = (   4.370397   0.000000   0.000000 )
               a(2) = (   0.000000   4.370397   0.000000 )
               a(3) = (   0.000000   0.000000   3.086609 )

     reciprocal axes: (cart. coord. in units 2 pi/alat)
               b(1) = (  0.228812  0.000000  0.000000 )
               b(2) = (  0.000000  0.228812  0.000000 )
               b(3) = (  0.000000  0.000000  0.323980 )

     PseudoPot. # 1 for Al read from file:
     /home/users/vossj/suncat/psp/gbrv1.5pbe/Al.UPF
     MD5 check sum: 0a6289f5291fc8f409219462bc851e1f
     Pseudo is Ultrasoft + core correction, Zval =  3.0
     Generated by new atomic code, or converted to UPF format
     Using radial grid of  893 points,  3 beta functions with:
                l(1) =   0
                l(2) =   1
                l(3) =   2
     Q(r) pseudized with  8 coefficients,  rinner =    0.900   0.900   0.900
                                                       0.900   0.900

     PseudoPot. # 2 for Pd read from file:
     /home/users/vossj/suncat/psp/gbrv1.5pbe/Pd.UPF
     MD5 check sum: 2d733d2bc2cbfd217af676df1668a4bc
     Pseudo is Ultrasoft + core correction, Zval = 16.0
     Generated by new atomic code, or converted to UPF format
     Using radial grid of  887 points,  6 beta functions with:
                l(1) =   0
                l(2) =   0
                l(3) =   1
                l(4) =   1
                l(5) =   2
                l(6) =   2
     Q(r) pseudized with  8 coefficients,  rinner =    1.130   1.130   1.130
                                                       1.130   1.130

     vdW kernel table read from file vdW_kernel_table
     MD5 check sum: 095c7af220d748ca6e76c0b4c6cfb241

     atomic species   valence    mass     pseudopotential
        Al1            3.00    26.98154     Al( 1.00)
        Pd1           16.00   106.42000     Pd( 1.00)

     16 Sym. Ops., with inversion, found

   Cartesian axes

     site n.     atom                  positions (alat units)
         1           Al1 tau(   1) = (   0.0000000   0.0000000   0.0000000  )
         2           Al1 tau(   2) = (   2.1851983   2.1851983   0.0000000  )
         3           Pd1 tau(   3) = (   2.1851983   0.0000000   1.5433044  )
         4           Pd1 tau(   4) = (   0.0000000   2.1851983   1.5433044  )

     number of k points=    75  Fermi-Dirac smearing, width (Ry)=  0.0073
                       cart. coord. in units 2pi/alat
        k(    1) = (   0.0000000   0.0000000   0.0000000), wk =   0.0027435
        k(    2) = (   0.0000000   0.0000000   0.0359978), wk =   0.0054870
        k(    3) = (   0.0000000   0.0000000   0.0719956), wk =   0.0054870
        k(    4) = (   0.0000000   0.0000000   0.1079934), wk =   0.0054870
        k(    5) = (   0.0000000   0.0000000   0.1439912), wk =   0.0054870
        k(    6) = (   0.0000000   0.0254236   0.0000000), wk =   0.0109739
        k(    7) = (   0.0000000   0.0254236   0.0359978), wk =   0.0219479
        k(    8) = (   0.0000000   0.0254236   0.0719956), wk =   0.0219479
        k(    9) = (   0.0000000   0.0254236   0.1079934), wk =   0.0219479
        k(   10) = (   0.0000000   0.0254236   0.1439912), wk =   0.0219479
        k(   11) = (   0.0000000   0.0508472   0.0000000), wk =   0.0109739
        k(   12) = (   0.0000000   0.0508472   0.0359978), wk =   0.0219479
        k(   13) = (   0.0000000   0.0508472   0.0719956), wk =   0.0219479
        k(   14) = (   0.0000000   0.0508472   0.1079934), wk =   0.0219479
        k(   15) = (   0.0000000   0.0508472   0.1439912), wk =   0.0219479
        k(   16) = (   0.0000000   0.0762707   0.0000000), wk =   0.0109739
        k(   17) = (   0.0000000   0.0762707   0.0359978), wk =   0.0219479
        k(   18) = (   0.0000000   0.0762707   0.0719956), wk =   0.0219479
        k(   19) = (   0.0000000   0.0762707   0.1079934), wk =   0.0219479
        k(   20) = (   0.0000000   0.0762707   0.1439912), wk =   0.0219479
        k(   21) = (   0.0000000   0.1016943   0.0000000), wk =   0.0109739
        k(   22) = (   0.0000000   0.1016943   0.0359978), wk =   0.0219479
        k(   23) = (   0.0000000   0.1016943   0.0719956), wk =   0.0219479
        k(   24) = (   0.0000000   0.1016943   0.1079934), wk =   0.0219479
        k(   25) = (   0.0000000   0.1016943   0.1439912), wk =   0.0219479
        k(   26) = (   0.0254236   0.0254236   0.0000000), wk =   0.0109739
        k(   27) = (   0.0254236   0.0254236   0.0359978), wk =   0.0219479
        k(   28) = (   0.0254236   0.0254236   0.0719956), wk =   0.0219479
        k(   29) = (   0.0254236   0.0254236   0.1079934), wk =   0.0219479
        k(   30) = (   0.0254236   0.0254236   0.1439912), wk =   0.0219479
        k(   31) = (   0.0254236   0.0508472   0.0000000), wk =   0.0219479
        k(   32) = (   0.0254236   0.0508472   0.0359978), wk =   0.0438957
        k(   33) = (   0.0254236   0.0508472   0.0719956), wk =   0.0438957
        k(   34) = (   0.0254236   0.0508472   0.1079934), wk =   0.0438957
        k(   35) = (   0.0254236   0.0508472   0.1439912), wk =   0.0438957
        k(   36) = (   0.0254236   0.0762707   0.0000000), wk =   0.0219479
        k(   37) = (   0.0254236   0.0762707   0.0359978), wk =   0.0438957
        k(   38) = (   0.0254236   0.0762707   0.0719956), wk =   0.0438957
        k(   39) = (   0.0254236   0.0762707   0.1079934), wk =   0.0438957
        k(   40) = (   0.0254236   0.0762707   0.1439912), wk =   0.0438957
        k(   41) = (   0.0254236   0.1016943   0.0000000), wk =   0.0219479
        k(   42) = (   0.0254236   0.1016943   0.0359978), wk =   0.0438957
        k(   43) = (   0.0254236   0.1016943   0.0719956), wk =   0.0438957
        k(   44) = (   0.0254236   0.1016943   0.1079934), wk =   0.0438957
        k(   45) = (   0.0254236   0.1016943   0.1439912), wk =   0.0438957
        k(   46) = (   0.0508472   0.0508472   0.0000000), wk =   0.0109739
        k(   47) = (   0.0508472   0.0508472   0.0359978), wk =   0.0219479
        k(   48) = (   0.0508472   0.0508472   0.0719956), wk =   0.0219479
        k(   49) = (   0.0508472   0.0508472   0.1079934), wk =   0.0219479
        k(   50) = (   0.0508472   0.0508472   0.1439912), wk =   0.0219479
        k(   51) = (   0.0508472   0.0762707   0.0000000), wk =   0.0219479
        k(   52) = (   0.0508472   0.0762707   0.0359978), wk =   0.0438957
        k(   53) = (   0.0508472   0.0762707   0.0719956), wk =   0.0438957
        k(   54) = (   0.0508472   0.0762707   0.1079934), wk =   0.0438957
        k(   55) = (   0.0508472   0.0762707   0.1439912), wk =   0.0438957
        k(   56) = (   0.0508472   0.1016943   0.0000000), wk =   0.0219479
        k(   57) = (   0.0508472   0.1016943   0.0359978), wk =   0.0438957
        k(   58) = (   0.0508472   0.1016943   0.0719956), wk =   0.0438957
        k(   59) = (   0.0508472   0.1016943   0.1079934), wk =   0.0438957
        k(   60) = (   0.0508472   0.1016943   0.1439912), wk =   0.0438957
        k(   61) = (   0.0762707   0.0762707   0.0000000), wk =   0.0109739
        k(   62) = (   0.0762707   0.0762707   0.0359978), wk =   0.0219479
        k(   63) = (   0.0762707   0.0762707   0.0719956), wk =   0.0219479
        k(   64) = (   0.0762707   0.0762707   0.1079934), wk =   0.0219479
        k(   65) = (   0.0762707   0.0762707   0.1439912), wk =   0.0219479
        k(   66) = (   0.0762707   0.1016943   0.0000000), wk =   0.0219479
        k(   67) = (   0.0762707   0.1016943   0.0359978), wk =   0.0438957
        k(   68) = (   0.0762707   0.1016943   0.0719956), wk =   0.0438957
        k(   69) = (   0.0762707   0.1016943   0.1079934), wk =   0.0438957
        k(   70) = (   0.0762707   0.1016943   0.1439912), wk =   0.0438957
        k(   71) = (   0.1016943   0.1016943   0.0000000), wk =   0.0109739
        k(   72) = (   0.1016943   0.1016943   0.0359978), wk =   0.0219479
        k(   73) = (   0.1016943   0.1016943   0.0719956), wk =   0.0219479
        k(   74) = (   0.1016943   0.1016943   0.1079934), wk =   0.0219479
        k(   75) = (   0.1016943   0.1016943   0.1439912), wk =   0.0219479

     Largest allocated arrays     est. size (Mb)     dimensions
     Largest temporary arrays     est. size (Mb)     dimensions

     Initial potential from superposition of free atoms
     Check: negative starting charge=   -0.150824

     starting charge   36.99506, renormalised to   38.00000

     negative rho (up, down):  1.549E-01 0.000E+00

     *
     * You are using vdW-DF for exchange-correlation in this calculation.
     * Please cite the following three references that made this development
     * possible:
     *
     *   M. Dion, H. Rydberg, E. Schroder, D. C. Langreth, and
     *   B. I. Lundqvist, Phys. Rev. Lett. 92, 246401 (2004).
     *
     *   T. Thonhauser, V. R. Cooper, S. Li, A. Puzder, P. Hyldgaard, and
     *   D. C. Langreth, Phys. Rev. B 76, 125112 (2007).
     *
     *   G. Roman-Perez and J. M. Soler, Phys. Rev. Lett. 103, 096102 (2009).
     *
     *
     * If you are using vdW-DF2, please also cite:
     *
     *   K. Lee, E. D. Murray, L. Kong, B. I. Lundqvist, and
     *   D. C. Langreth, Phys. Rev. B 82, 081101(R) (2010).
     *
     *
     * If you are calculating the stress with vdW-DF, please also cite:
     *
     *   R. Sabatini, E. Kucukbenli, B. Kolb, T. Thonhauser, and
     *   S. de Gironcoli, J. Phys.: Condens. Matter 24, 424209 (2012).
     *

     Carrying out vdW-DF run using the following parameters:

     Nqs =      20    Nr_points =    1024   r_max =   100.000
     q_mesh =
               0.00001000     0.04494208     0.09755937     0.15916263
               0.23128650     0.31572767     0.41458969     0.53033537
               0.66584808     0.82450364     1.01025438     1.22772762
               1.48234092     1.78043706     2.12944203     2.53805004
               3.01644009     3.57652955     4.23227104     5.00000000

     Gradients computed in reciprocal space

     Starting wfc are   32 randomized atomic wfcs +    7 random wfc

     Self-consistent Calculation

     iteration #  1     ecut=    58.80 Ry     beta=0.10
     Davidson diagonalization with overlap
     ethr =  1.00E-02,  avg # of iterations =  4.8

[...]

     total energy              =    -413.69230121 Ry
     Harris-Foulkes estimate   =    -414.56953568 Ry
     estimated scf accuracy    <       5.24268229 Ry

[...]

     total energy              =    -413.61985423 Ry
     Harris-Foulkes estimate   =    -413.61985251 Ry
     estimated scf accuracy    <       0.00000185 Ry

     iteration # 10     ecut=    58.80 Ry     beta=0.10
     Davidson diagonalization with overlap
     ethr =  4.86E-09,  avg # of iterations =  1.0

     negative rho (up, down):  1.602E-01 0.000E+00

     End of self-consistent calculation

          k = 0.0000 0.0000 0.0000 (  3019 PWs)   bands (ev):

   -36.8325 -36.8325 -36.7793 -36.7778 -36.7778 -36.7694   3.9833   7.4130
     9.3331   9.3352   9.7047  10.7480  10.7480  11.4950  11.4987  11.4987
    11.6929  11.6929  12.3470  16.3852  16.5711  18.7009  18.7009  18.7365
    22.6668  22.6683  23.2532  25.5273  27.3245  27.4730  27.4730  29.1981
    29.1981  31.7660  33.2351  33.2532  33.2533  33.6039  33.6049

[...]

          k = 0.1017 0.1017 0.1440 (  3042 PWs)   bands (ev):

   -36.8332 -36.8329 -36.8324 -36.8308 -36.7697 -36.7681   7.4314   7.4545
     9.5932   9.7051  10.5072  10.5416  10.7499  10.7637  11.3801  11.4237
    11.6642  11.9024  12.5860  12.7276  16.4906  16.5926  16.6949  17.0621
    22.8891  23.2595  26.2340  26.4617  26.6585  27.5920  27.9676  28.4290
    28.6416  29.2091  29.5571  30.1280  31.7782  32.6815  35.2493

     the Fermi energy is    14.2343 ev

!    total energy              =    -413.61986508 Ry
     Harris-Foulkes estimate   =    -413.61985453 Ry
     estimated scf accuracy    <          8.7E-09 Ry

     The total energy is the sum of the following terms:

     one-electron contribution =    -163.78497384 Ry
     hartree contribution      =     108.38601372 Ry
     xc contribution           =     -74.23828878 Ry
     ewald contribution        =    -283.97895699 Ry
     smearing contrib. (-TS)   =      -0.00365920 Ry

     convergence has been achieved in  10 iterations

     Forces acting on atoms (Ry/au):

     negative rho (up, down):  1.602E-01 0.000E+00
     atom    1 type  1   force =     0.00000000    0.00000000    0.00000000
     atom    2 type  1   force =     0.00000000    0.00000000    0.00000000
     atom    3 type  2   force =     0.00000000    0.00000000    0.00000000
     atom    4 type  2   force =     0.00000000    0.00000000    0.00000000

     Total force =     0.000000     Total SCF correction =     0.000000

     General routines

     Parallel routines

   This run was terminated on:   1: 8: 5  14Nov2017

   JOB DONE.