     Program PWSCF v.5.1rc2 starts on 14Nov2017 at 14:17:32

     Current dimensions of program PWSCF are:
     Max number of different atomic species (ntypx) = 10
     Max number of k-points (npk) =  40000
     Max angular momentum in pseudopotentials (lmaxx) =  3

     IMPORTANT: XC functional enforced from input :
     Exchange-correlation      = BEEF-VDW ( 1  4 27 13 2)
     Any further DFT definition will be discarded
     Please, verify this is what you really want

     Found symmetry operation: I + ( -0.5000 -0.5000  0.0000)
     This is a supercell, fractional translations are disabled

     bravais-lattice index     =            0
     lattice parameter (alat)  =       1.8897  a.u.
     unit-cell volume          =     539.7328 (a.u.)^3
     number of atoms/cell      =            4
     number of atomic types    =            2
     number of electrons       =        58.00
     number of Kohn-Sham states=           49
     kinetic-energy cutoff     =      58.7989  Ry
     charge density cutoff     =     587.9892  Ry
     convergence threshold     =      1.0E-06
     mixing beta               =       0.1000
     number of iterations used =           10  plain     mixing
     Exchange-correlation      = BEEF-VDW ( 1  4 27 13 2)

     celldm(1)=   1.889726  celldm(2)=   0.000000  celldm(3)=   0.000000
     celldm(4)=   0.000000  celldm(5)=   0.000000  celldm(6)=   0.000000

     crystal axes: (cart. coord. in units of alat)
               a(1) = (   4.596450   0.000000   0.000000 )
               a(2) = (   0.000000   4.596450   0.000000 )
               a(3) = (   0.000000   0.000000   3.785621 )

     reciprocal axes: (cart. coord. in units 2 pi/alat)
               b(1) = (  0.217559  0.000000  0.000000 )
               b(2) = (  0.000000  0.217559  0.000000 )
               b(3) = (  0.000000  0.000000  0.264157 )

     PseudoPot. # 1 for Ir read from file:
     /home/users/vossj/suncat/psp/gbrv1.5pbe/Ir.UPF
     MD5 check sum: 8836f839c3459d2b385c504ce6d91f2c
     Pseudo is Ultrasoft + core correction, Zval = 15.0
     Generated by new atomic code, or converted to UPF format
     Using radial grid of  983 points,  7 beta functions with:
                l(1) =   0
                l(2) =   0
                l(3) =   1
                l(4) =   1
                l(5) =   1
                l(6) =   2
                l(7) =   2
     Q(r) pseudized with  8 coefficients,  rinner =    1.400   1.400   1.400
                                                       1.400   1.400

     PseudoPot. # 2 for Pb read from file:
     /home/users/vossj/suncat/psp/gbrv1.5pbe/Pb.UPF
     MD5 check sum: 3d1c1779aa92214d1e8f3a7db79003e2
     Pseudo is Ultrasoft + core correction, Zval = 14.0
     Generated by new atomic code, or converted to UPF format
     Using radial grid of  899 points,  6 beta functions with:
                l(1) =   0
                l(2) =   0
                l(3) =   1
                l(4) =   1
                l(5) =   2
                l(6) =   2
     Q(r) pseudized with  6 coefficients,  rinner =    1.000   1.000   1.000
                                                       1.000   1.000

     vdW kernel table read from file vdW_kernel_table
     MD5 check sum: 095c7af220d748ca6e76c0b4c6cfb241

     atomic species   valence    mass     pseudopotential
        Ir1           15.00   192.22000     Ir( 1.00)
        Pb1           14.00   207.20000     Pb( 1.00)

     16 Sym. Ops., with inversion, found

   Cartesian axes

     site n.     atom                  positions (alat units)
         1           Ir1 tau(   1) = (   0.0000000   0.0000000   0.0000000  )
         2           Ir1 tau(   2) = (   2.2982251   2.2982251   0.0000000  )
         3           Pb1 tau(   3) = (   2.2982251   0.0000000   1.8928103  )
         4           Pb1 tau(   4) = (   0.0000000   2.2982251   1.8928103  )

     number of k points=    75  Fermi-Dirac smearing, width (Ry)=  0.0073
                       cart. coord. in units 2pi/alat
        k(    1) = (   0.0000000   0.0000000   0.0000000), wk =   0.0027435
        k(    2) = (   0.0000000   0.0000000   0.0293508), wk =   0.0054870
        k(    3) = (   0.0000000   0.0000000   0.0587017), wk =   0.0054870
        k(    4) = (   0.0000000   0.0000000   0.0880525), wk =   0.0054870
        k(    5) = (   0.0000000   0.0000000   0.1174033), wk =   0.0054870
        k(    6) = (   0.0000000   0.0241732   0.0000000), wk =   0.0109739
        k(    7) = (   0.0000000   0.0241732   0.0293508), wk =   0.0219479
        k(    8) = (   0.0000000   0.0241732   0.0587017), wk =   0.0219479
        k(    9) = (   0.0000000   0.0241732   0.0880525), wk =   0.0219479
        k(   10) = (   0.0000000   0.0241732   0.1174033), wk =   0.0219479
        k(   11) = (   0.0000000   0.0483465   0.0000000), wk =   0.0109739
        k(   12) = (   0.0000000   0.0483465   0.0293508), wk =   0.0219479
        k(   13) = (   0.0000000   0.0483465   0.0587017), wk =   0.0219479
        k(   14) = (   0.0000000   0.0483465   0.0880525), wk =   0.0219479
        k(   15) = (   0.0000000   0.0483465   0.1174033), wk =   0.0219479
        k(   16) = (   0.0000000   0.0725197   0.0000000), wk =   0.0109739
        k(   17) = (   0.0000000   0.0725197   0.0293508), wk =   0.0219479
        k(   18) = (   0.0000000   0.0725197   0.0587017), wk =   0.0219479
        k(   19) = (   0.0000000   0.0725197   0.0880525), wk =   0.0219479
        k(   20) = (   0.0000000   0.0725197   0.1174033), wk =   0.0219479
        k(   21) = (   0.0000000   0.0966930   0.0000000), wk =   0.0109739
        k(   22) = (   0.0000000   0.0966930   0.0293508), wk =   0.0219479
        k(   23) = (   0.0000000   0.0966930   0.0587017), wk =   0.0219479
        k(   24) = (   0.0000000   0.0966930   0.0880525), wk =   0.0219479
        k(   25) = (   0.0000000   0.0966930   0.1174033), wk =   0.0219479
        k(   26) = (   0.0241732   0.0241732   0.0000000), wk =   0.0109739
        k(   27) = (   0.0241732   0.0241732   0.0293508), wk =   0.0219479
        k(   28) = (   0.0241732   0.0241732   0.0587017), wk =   0.0219479
        k(   29) = (   0.0241732   0.0241732   0.0880525), wk =   0.0219479
        k(   30) = (   0.0241732   0.0241732   0.1174033), wk =   0.0219479
        k(   31) = (   0.0241732   0.0483465   0.0000000), wk =   0.0219479
        k(   32) = (   0.0241732   0.0483465   0.0293508), wk =   0.0438957
        k(   33) = (   0.0241732   0.0483465   0.0587017), wk =   0.0438957
        k(   34) = (   0.0241732   0.0483465   0.0880525), wk =   0.0438957
        k(   35) = (   0.0241732   0.0483465   0.1174033), wk =   0.0438957
        k(   36) = (   0.0241732   0.0725197   0.0000000), wk =   0.0219479
        k(   37) = (   0.0241732   0.0725197   0.0293508), wk =   0.0438957
        k(   38) = (   0.0241732   0.0725197   0.0587017), wk =   0.0438957
        k(   39) = (   0.0241732   0.0725197   0.0880525), wk =   0.0438957
        k(   40) = (   0.0241732   0.0725197   0.1174033), wk =   0.0438957
        k(   41) = (   0.0241732   0.0966930   0.0000000), wk =   0.0219479
        k(   42) = (   0.0241732   0.0966930   0.0293508), wk =   0.0438957
        k(   43) = (   0.0241732   0.0966930   0.0587017), wk =   0.0438957
        k(   44) = (   0.0241732   0.0966930   0.0880525), wk =   0.0438957
        k(   45) = (   0.0241732   0.0966930   0.1174033), wk =   0.0438957
        k(   46) = (   0.0483465   0.0483465   0.0000000), wk =   0.0109739
        k(   47) = (   0.0483465   0.0483465   0.0293508), wk =   0.0219479
        k(   48) = (   0.0483465   0.0483465   0.0587017), wk =   0.0219479
        k(   49) = (   0.0483465   0.0483465   0.0880525), wk =   0.0219479
        k(   50) = (   0.0483465   0.0483465   0.1174033), wk =   0.0219479
        k(   51) = (   0.0483465   0.0725197   0.0000000), wk =   0.0219479
        k(   52) = (   0.0483465   0.0725197   0.0293508), wk =   0.0438957
        k(   53) = (   0.0483465   0.0725197   0.0587017), wk =   0.0438957
        k(   54) = (   0.0483465   0.0725197   0.0880525), wk =   0.0438957
        k(   55) = (   0.0483465   0.0725197   0.1174033), wk =   0.0438957
        k(   56) = (   0.0483465   0.0966930   0.0000000), wk =   0.0219479
        k(   57) = (   0.0483465   0.0966930   0.0293508), wk =   0.0438957
        k(   58) = (   0.0483465   0.0966930   0.0587017), wk =   0.0438957
        k(   59) = (   0.0483465   0.0966930   0.0880525), wk =   0.0438957
        k(   60) = (   0.0483465   0.0966930   0.1174033), wk =   0.0438957
        k(   61) = (   0.0725197   0.0725197   0.0000000), wk =   0.0109739
        k(   62) = (   0.0725197   0.0725197   0.0293508), wk =   0.0219479
        k(   63) = (   0.0725197   0.0725197   0.0587017), wk =   0.0219479
        k(   64) = (   0.0725197   0.0725197   0.0880525), wk =   0.0219479
        k(   65) = (   0.0725197   0.0725197   0.1174033), wk =   0.0219479
        k(   66) = (   0.0725197   0.0966930   0.0000000), wk =   0.0219479
        k(   67) = (   0.0725197   0.0966930   0.0293508), wk =   0.0438957
        k(   68) = (   0.0725197   0.0966930   0.0587017), wk =   0.0438957
        k(   69) = (   0.0725197   0.0966930   0.0880525), wk =   0.0438957
        k(   70) = (   0.0725197   0.0966930   0.1174033), wk =   0.0438957
        k(   71) = (   0.0966930   0.0966930   0.0000000), wk =   0.0109739
        k(   72) = (   0.0966930   0.0966930   0.0293508), wk =   0.0219479
        k(   73) = (   0.0966930   0.0966930   0.0587017), wk =   0.0219479
        k(   74) = (   0.0966930   0.0966930   0.0880525), wk =   0.0219479
        k(   75) = (   0.0966930   0.0966930   0.1174033), wk =   0.0219479

     Largest allocated arrays     est. size (Mb)     dimensions
     Largest temporary arrays     est. size (Mb)     dimensions

     Initial potential from superposition of free atoms
     Check: negative starting charge=   -0.759690

     starting charge   56.99523, renormalised to   58.00000

     negative rho (up, down):  7.731E-01 0.000E+00

     *
     * You are using vdW-DF for exchange-correlation in this calculation.
     * Please cite the following three references that made this development
     * possible:
     *
     *   M. Dion, H. Rydberg, E. Schroder, D. C. Langreth, and
     *   B. I. Lundqvist, Phys. Rev. Lett. 92, 246401 (2004).
     *
     *   T. Thonhauser, V. R. Cooper, S. Li, A. Puzder, P. Hyldgaard, and
     *   D. C. Langreth, Phys. Rev. B 76, 125112 (2007).
     *
     *   G. Roman-Perez and J. M. Soler, Phys. Rev. Lett. 103, 096102 (2009).
     *
     *
     * If you are using vdW-DF2, please also cite:
     *
     *   K. Lee, E. D. Murray, L. Kong, B. I. Lundqvist, and
     *   D. C. Langreth, Phys. Rev. B 82, 081101(R) (2010).
     *
     *
     * If you are calculating the stress with vdW-DF, please also cite:
     *
     *   R. Sabatini, E. Kucukbenli, B. Kolb, T. Thonhauser, and
     *   S. de Gironcoli, J. Phys.: Condens. Matter 24, 424209 (2012).
     *

     Carrying out vdW-DF run using the following parameters:

     Nqs =      20    Nr_points =    1024   r_max =   100.000
     q_mesh =
               0.00001000     0.04494208     0.09755937     0.15916263
               0.23128650     0.31572767     0.41458969     0.53033537
               0.66584808     0.82450364     1.01025438     1.22772762
               1.48234092     1.78043706     2.12944203     2.53805004
               3.01644009     3.57652955     4.23227104     5.00000000

     Gradients computed in reciprocal space

     Starting wfc are   42 randomized atomic wfcs +    7 random wfc

     Self-consistent Calculation

     iteration #  1     ecut=    58.80 Ry     beta=0.10
     Davidson diagonalization with overlap
     ethr =  1.00E-02,  avg # of iterations =  4.7

[...]

     total energy              =    -698.69331821 Ry
     Harris-Foulkes estimate   =    -698.85235322 Ry
     estimated scf accuracy    <       1.07871781 Ry

[...]

     total energy              =    -698.60768406 Ry
     Harris-Foulkes estimate   =    -698.60754489 Ry
     estimated scf accuracy    <       0.00000169 Ry

     iteration # 10     ecut=    58.80 Ry     beta=0.10
     Davidson diagonalization with overlap
     ethr =  2.92E-09,  avg # of iterations =  2.0

     negative rho (up, down):  7.120E-01 0.000E+00

     End of self-consistent calculation

          k = 0.0000 0.0000 0.0000 (  4125 PWs)   bands (ev):

   -31.5619 -31.5619 -31.5114 -31.5114 -31.4376 -31.4278  -0.6060  -0.4741
    -0.3804  -0.2788  -0.2788  -0.1174  -0.1009  -0.1009  -0.0719   0.1186
     4.9276   9.4087  13.7874  13.8858  14.3065  14.3065  14.5068  15.0503
    15.0503  15.9482  15.9482  16.2987  17.0297  17.1455  17.4049  19.6287
    20.3921  20.9055  20.9055  22.2418  25.3811  25.3811  27.4223  27.6782
    27.7454  28.0057  28.4349  28.7321  28.7332  29.6543  30.1092  31.6095
    31.6095

[...]

          k = 0.0967 0.0967 0.1174 (  4090 PWs)   bands (ev):

   -31.5662 -31.5647 -31.5081 -31.5066 -31.4406 -31.4403  -0.4145  -0.3968
    -0.3614  -0.3566  -0.2414  -0.2306  -0.1262  -0.1208   0.0300   0.0422
     8.1990   8.3208  12.9984  13.0160  13.7403  13.9558  14.0752  14.3666
    15.4739  15.6451  15.7521  15.8292  16.3907  16.4441  17.4587  17.5732
    18.5554  18.8075  24.4505  24.7637  27.1644  27.2663  27.6827  27.7380
    27.7698  27.8906  28.7326  28.7328  30.0875  30.2925  31.5048  31.7277
    32.6282

     the Fermi energy is    17.0935 ev

!    total energy              =    -698.60827309 Ry
     Harris-Foulkes estimate   =    -698.60768466 Ry
     estimated scf accuracy    <       0.00000081 Ry

     The total energy is the sum of the following terms:

     one-electron contribution =     -79.74022557 Ry
     hartree contribution      =      89.97942054 Ry
     xc contribution           =    -234.98946802 Ry
     ewald contribution        =    -473.84961553 Ry
     smearing contrib. (-TS)   =      -0.00838452 Ry

     convergence has been achieved in  10 iterations

     Forces acting on atoms (Ry/au):

     negative rho (up, down):  7.120E-01 0.000E+00
     atom    1 type  1   force =     0.00000000    0.00000000    0.00000000
     atom    2 type  1   force =     0.00000000    0.00000000    0.00000000
     atom    3 type  2   force =     0.00000000    0.00000000    0.00000000
     atom    4 type  2   force =     0.00000000    0.00000000    0.00000000

     Total force =     0.000000     Total SCF correction =     0.000000

     General routines

     Parallel routines

   This run was terminated on:  14:18:19  14Nov2017

   JOB DONE.