     Program PWSCF v.5.1rc2 (svn rev. ) starts on 14Nov2017 at 19:31:19

     Current dimensions of program PWSCF are:
     Max number of different atomic species (ntypx) = 10
     Max number of k-points (npk) =  40000
     Max angular momentum in pseudopotentials (lmaxx) =  3

     IMPORTANT: XC functional enforced from input :
     Exchange-correlation      = BEEF-VDW ( 1  4 27 13 2)
     Any further DFT definition will be discarded
     Please, verify this is what you really want

     Subspace diagonalization in iterative solution of the eigenvalue problem:
     a serial algorithm will be used

     Found symmetry operation: I + ( -0.5000 -0.5000  0.0000)
     This is a supercell, fractional translations are disabled

     bravais-lattice index     =            0
     lattice parameter (alat)  =       1.8897  a.u.
     unit-cell volume          =     357.5365 (a.u.)^3
     number of atoms/cell      =            4
     number of atomic types    =            2
     number of electrons       =        78.00
     number of Kohn-Sham states=           59
     kinetic-energy cutoff     =      58.7989  Ry
     charge density cutoff     =     587.9892  Ry
     convergence threshold     =      1.0E-06
     mixing beta               =       0.1000
     number of iterations used =           10  plain     mixing
     Exchange-correlation      = BEEF-VDW ( 1  4 27 13 2)

     celldm(1)=   1.889726  celldm(2)=   0.000000  celldm(3)=   0.000000
     celldm(4)=   0.000000  celldm(5)=   0.000000  celldm(6)=   0.000000

     crystal axes: (cart. coord. in units of alat)
               a(1) = (   3.931328   0.000000   0.000000 )
               a(2) = (   0.000000   3.931328   0.000000 )
               a(3) = (   0.000000   0.000000   3.428035 )

     reciprocal axes: (cart. coord. in units 2 pi/alat)
               b(1) = (  0.254367  0.000000  0.000000 )
               b(2) = (  0.000000  0.254367  0.000000 )
               b(3) = (  0.000000  0.000000  0.291712 )

     PseudoPot. # 1 for Cu read from file:
     /home/vossj/suncat/psp/gbrv1.5pbe/Cu.UPF
     MD5 check sum: 6e991ff952a84172a2a52a1c1e996048
     Pseudo is Ultrasoft + core correction, Zval = 19.0
     Generated by new atomic code, or converted to UPF format
     Using radial grid of  867 points,  6 beta functions with:
                l(1) =   0
                l(2) =   0
                l(3) =   1
                l(4) =   1
                l(5) =   2
                l(6) =   2
     Q(r) pseudized with  8 coefficients,  rinner =    1.150   1.150   1.150
                                                       1.150   1.150

     PseudoPot. # 2 for Zn read from file:
     /home/vossj/suncat/psp/gbrv1.5pbe/Zn.UPF
     MD5 check sum: df62231357ef9e81f77b2b3087fa5675
     Pseudo is Ultrasoft, Zval = 20.0
     Generated by new atomic code, or converted to UPF format
     Using radial grid of  943 points,  6 beta functions with:
                l(1) =   0
                l(2) =   0
                l(3) =   1
                l(4) =   1
                l(5) =   2
                l(6) =   2
     Q(r) pseudized with  8 coefficients,  rinner =    1.100   1.100   1.100
                                                       1.100   1.100

     vdW kernel table read from file vdW_kernel_table
     MD5 check sum: 095c7af220d748ca6e76c0b4c6cfb241

     atomic species   valence    mass     pseudopotential
        Cu1           19.00    63.54600     Cu( 1.00)
        Zn1           20.00    65.38000     Zn( 1.00)

     16 Sym. Ops., with inversion, found

   Cartesian axes

     site n.     atom                  positions (alat units)
         1           Cu1 tau(   1) = (   0.0000000   0.0000000   0.0000000  )
         2           Cu1 tau(   2) = (   1.9656639   1.9656639   0.0000000  )
         3           Zn1 tau(   3) = (   1.9656639   0.0000000   1.7140175  )
         4           Zn1 tau(   4) = (   0.0000000   1.9656639   1.7140175  )

     number of k points=    75  Fermi-Dirac smearing, width (Ry)=  0.0073
                       cart. coord. in units 2pi/alat
        k(    1) = (   0.0000000   0.0000000   0.0000000), wk =   0.0027435
        k(    2) = (   0.0000000   0.0000000   0.0324125), wk =   0.0054870
        k(    3) = (   0.0000000   0.0000000   0.0648250), wk =   0.0054870
        k(    4) = (   0.0000000   0.0000000   0.0972374), wk =   0.0054870
        k(    5) = (   0.0000000   0.0000000   0.1296499), wk =   0.0054870
        k(    6) = (   0.0000000   0.0282630   0.0000000), wk =   0.0109739
        k(    7) = (   0.0000000   0.0282630   0.0324125), wk =   0.0219479
        k(    8) = (   0.0000000   0.0282630   0.0648250), wk =   0.0219479
        k(    9) = (   0.0000000   0.0282630   0.0972374), wk =   0.0219479
        k(   10) = (   0.0000000   0.0282630   0.1296499), wk =   0.0219479
        k(   11) = (   0.0000000   0.0565260   0.0000000), wk =   0.0109739
        k(   12) = (   0.0000000   0.0565260   0.0324125), wk =   0.0219479
        k(   13) = (   0.0000000   0.0565260   0.0648250), wk =   0.0219479
        k(   14) = (   0.0000000   0.0565260   0.0972374), wk =   0.0219479
        k(   15) = (   0.0000000   0.0565260   0.1296499), wk =   0.0219479
        k(   16) = (   0.0000000   0.0847890   0.0000000), wk =   0.0109739
        k(   17) = (   0.0000000   0.0847890   0.0324125), wk =   0.0219479
        k(   18) = (   0.0000000   0.0847890   0.0648250), wk =   0.0219479
        k(   19) = (   0.0000000   0.0847890   0.0972374), wk =   0.0219479
        k(   20) = (   0.0000000   0.0847890   0.1296499), wk =   0.0219479
        k(   21) = (   0.0000000   0.1130520   0.0000000), wk =   0.0109739
        k(   22) = (   0.0000000   0.1130520   0.0324125), wk =   0.0219479
        k(   23) = (   0.0000000   0.1130520   0.0648250), wk =   0.0219479
        k(   24) = (   0.0000000   0.1130520   0.0972374), wk =   0.0219479
        k(   25) = (   0.0000000   0.1130520   0.1296499), wk =   0.0219479
        k(   26) = (   0.0282630   0.0282630   0.0000000), wk =   0.0109739
        k(   27) = (   0.0282630   0.0282630   0.0324125), wk =   0.0219479
        k(   28) = (   0.0282630   0.0282630   0.0648250), wk =   0.0219479
        k(   29) = (   0.0282630   0.0282630   0.0972374), wk =   0.0219479
        k(   30) = (   0.0282630   0.0282630   0.1296499), wk =   0.0219479
        k(   31) = (   0.0282630   0.0565260   0.0000000), wk =   0.0219479
        k(   32) = (   0.0282630   0.0565260   0.0324125), wk =   0.0438957
        k(   33) = (   0.0282630   0.0565260   0.0648250), wk =   0.0438957
        k(   34) = (   0.0282630   0.0565260   0.0972374), wk =   0.0438957
        k(   35) = (   0.0282630   0.0565260   0.1296499), wk =   0.0438957
        k(   36) = (   0.0282630   0.0847890   0.0000000), wk =   0.0219479
        k(   37) = (   0.0282630   0.0847890   0.0324125), wk =   0.0438957
        k(   38) = (   0.0282630   0.0847890   0.0648250), wk =   0.0438957
        k(   39) = (   0.0282630   0.0847890   0.0972374), wk =   0.0438957
        k(   40) = (   0.0282630   0.0847890   0.1296499), wk =   0.0438957
        k(   41) = (   0.0282630   0.1130520   0.0000000), wk =   0.0219479
        k(   42) = (   0.0282630   0.1130520   0.0324125), wk =   0.0438957
        k(   43) = (   0.0282630   0.1130520   0.0648250), wk =   0.0438957
        k(   44) = (   0.0282630   0.1130520   0.0972374), wk =   0.0438957
        k(   45) = (   0.0282630   0.1130520   0.1296499), wk =   0.0438957
        k(   46) = (   0.0565260   0.0565260   0.0000000), wk =   0.0109739
        k(   47) = (   0.0565260   0.0565260   0.0324125), wk =   0.0219479
        k(   48) = (   0.0565260   0.0565260   0.0648250), wk =   0.0219479
        k(   49) = (   0.0565260   0.0565260   0.0972374), wk =   0.0219479
        k(   50) = (   0.0565260   0.0565260   0.1296499), wk =   0.0219479
        k(   51) = (   0.0565260   0.0847890   0.0000000), wk =   0.0219479
        k(   52) = (   0.0565260   0.0847890   0.0324125), wk =   0.0438957
        k(   53) = (   0.0565260   0.0847890   0.0648250), wk =   0.0438957
        k(   54) = (   0.0565260   0.0847890   0.0972374), wk =   0.0438957
        k(   55) = (   0.0565260   0.0847890   0.1296499), wk =   0.0438957
        k(   56) = (   0.0565260   0.1130520   0.0000000), wk =   0.0219479
        k(   57) = (   0.0565260   0.1130520   0.0324125), wk =   0.0438957
        k(   58) = (   0.0565260   0.1130520   0.0648250), wk =   0.0438957
        k(   59) = (   0.0565260   0.1130520   0.0972374), wk =   0.0438957
        k(   60) = (   0.0565260   0.1130520   0.1296499), wk =   0.0438957
        k(   61) = (   0.0847890   0.0847890   0.0000000), wk =   0.0109739
        k(   62) = (   0.0847890   0.0847890   0.0324125), wk =   0.0219479
        k(   63) = (   0.0847890   0.0847890   0.0648250), wk =   0.0219479
        k(   64) = (   0.0847890   0.0847890   0.0972374), wk =   0.0219479
        k(   65) = (   0.0847890   0.0847890   0.1296499), wk =   0.0219479
        k(   66) = (   0.0847890   0.1130520   0.0000000), wk =   0.0219479
        k(   67) = (   0.0847890   0.1130520   0.0324125), wk =   0.0438957
        k(   68) = (   0.0847890   0.1130520   0.0648250), wk =   0.0438957
        k(   69) = (   0.0847890   0.1130520   0.0972374), wk =   0.0438957
        k(   70) = (   0.0847890   0.1130520   0.1296499), wk =   0.0438957
        k(   71) = (   0.1130520   0.1130520   0.0000000), wk =   0.0109739
        k(   72) = (   0.1130520   0.1130520   0.0324125), wk =   0.0219479
        k(   73) = (   0.1130520   0.1130520   0.0648250), wk =   0.0219479
        k(   74) = (   0.1130520   0.1130520   0.0972374), wk =   0.0219479
        k(   75) = (   0.1130520   0.1130520   0.1296499), wk =   0.0219479

     Largest allocated arrays     est. size (Mb)     dimensions
     Largest temporary arrays     est. size (Mb)     dimensions

     Initial potential from superposition of free atoms

     starting charge   75.99971, renormalised to   78.00000

     *
     * You are using vdW-DF for exchange-correlation in this calculation.
     * Please cite the following three references that made this development
     * possible:
     *
     *   M. Dion, H. Rydberg, E. Schroder, D. C. Langreth, and
     *   B. I. Lundqvist, Phys. Rev. Lett. 92, 246401 (2004).
     *
     *   T. Thonhauser, V. R. Cooper, S. Li, A. Puzder, P. Hyldgaard, and
     *   D. C. Langreth, Phys. Rev. B 76, 125112 (2007).
     *
     *   G. Roman-Perez and J. M. Soler, Phys. Rev. Lett. 103, 096102 (2009).
     *
     *
     * If you are using vdW-DF2, please also cite:
     *
     *   K. Lee, E. D. Murray, L. Kong, B. I. Lundqvist, and
     *   D. C. Langreth, Phys. Rev. B 82, 081101(R) (2010).
     *
     *
     * If you are calculating the stress with vdW-DF, please also cite:
     *
     *   R. Sabatini, E. Kucukbenli, B. Kolb, T. Thonhauser, and
     *   S. de Gironcoli, J. Phys.: Condens. Matter 24, 424209 (2012).
     *

     Carrying out vdW-DF run using the following parameters:

     Nqs =      20    Nr_points =    1024   r_max =   100.000
     q_mesh =
               0.00001000     0.04494208     0.09755937     0.15916263
               0.23128650     0.31572767     0.41458969     0.53033537
               0.66584808     0.82450364     1.01025438     1.22772762
               1.48234092     1.78043706     2.12944203     2.53805004
               3.01644009     3.57652955     4.23227104     5.00000000

     Gradients computed in reciprocal space

     Starting wfc are   52 randomized atomic wfcs +    7 random wfc

     Self-consistent Calculation

     iteration #  1     ecut=    58.80 Ry     beta=0.10
     Davidson diagonalization with overlap
     ethr =  1.00E-02,  avg # of iterations =  4.4

     total energy              =   -1734.47468276 Ry
     Harris-Foulkes estimate   =   -1737.80578054 Ry
     estimated scf accuracy    <      18.45904885 Ry

[...]

     total energy              =   -1735.51198740 Ry
     Harris-Foulkes estimate   =   -1735.51204651 Ry
     estimated scf accuracy    <       0.00013610 Ry

     iteration # 11     ecut=    58.80 Ry     beta=0.10
     Davidson diagonalization with overlap
     ethr =  4.96E-08,  avg # of iterations =  2.0

     End of self-consistent calculation

          k = 0.0000 0.0000 0.0000 (  2699 PWs)   bands (ev):

  -111.8340-111.8327 -98.2689 -98.2663 -66.0178 -66.0178 -66.0076 -66.0076
   -66.0058 -66.0041 -55.6869 -55.6836 -55.6567 -55.6567 -55.6381 -55.6381
     4.7106   6.5470   6.6980   6.7810   6.9836   6.9836   7.1152   7.3965
     7.3965   7.5643   7.8168  10.5140  11.0358  11.1820  11.7230  11.7230
    11.7496  12.0281  12.0281  12.2001  12.5169  14.0372  14.0372  16.8266
    17.7146  18.2940  21.6048  23.4503  23.4503  25.7031  26.9129  26.9129
    27.1705  27.8727  29.2575  30.5810  30.5810  31.9680  33.3057  35.7260
    36.8126  36.8505  36.8505

[...]

          k = 0.1131 0.1131 0.1296 (  2734 PWs)   bands (ev):

  -111.8334-111.8333 -98.2676 -98.2675 -66.0187 -66.0184 -66.0071 -66.0068
   -66.0054 -66.0054 -55.6864 -55.6863 -55.6583 -55.6577 -55.6372 -55.6366
     6.6386   6.6413   6.8038   6.8357   7.2427   7.2704   7.3589   7.3739
     7.5276   7.5412   9.9466  10.0804  11.0973  11.1718  11.7419  11.7447
    11.8956  11.8979  12.0084  12.0828  12.2858  12.8675  12.9906  13.0212
    16.0345  16.0680  16.5229  17.0564  29.6815  30.1713  30.7226  31.4257
    31.6965  31.9230  32.0455  32.1853  35.0799  35.6224  35.8505  35.8655
    36.0203  36.6145  36.8413

     the Fermi energy is    14.8213 ev

!    total energy              =   -1735.51203712 Ry
     Harris-Foulkes estimate   =   -1735.51201599 Ry
     estimated scf accuracy    <       0.00000049 Ry

     The total energy is the sum of the following terms:

     one-electron contribution =   -1249.72384050 Ry
     hartree contribution      =     664.01128962 Ry
     xc contribution           =    -167.00834394 Ry
     ewald contribution        =    -982.78886823 Ry
     smearing contrib. (-TS)   =      -0.00227407 Ry

     convergence has been achieved in  11 iterations

     Forces acting on atoms (Ry/au):

     atom    1 type  1   force =     0.00000000    0.00000000    0.00000000
     atom    2 type  1   force =     0.00000000    0.00000000    0.00000000
     atom    3 type  2   force =     0.00000000    0.00000000    0.00000000
     atom    4 type  2   force =     0.00000000    0.00000000    0.00000000

     Total force =     0.000000     Total SCF correction =     0.000000

     General routines

     Parallel routines

   This run was terminated on:  19:32:18  14Nov2017

   JOB DONE.