     Program PWSCF v.5.1rc2 starts on 14Nov2017 at  1:20:13

     Current dimensions of program PWSCF are:
     Max number of different atomic species (ntypx) = 10
     Max number of k-points (npk) =  40000
     Max angular momentum in pseudopotentials (lmaxx) =  3

     IMPORTANT: XC functional enforced from input :
     Exchange-correlation      = BEEF-VDW ( 1  4 27 13 2)
     Any further DFT definition will be discarded
     Please, verify this is what you really want

     Found symmetry operation: I + ( -0.5000 -0.5000  0.0000)
     This is a supercell, fractional translations are disabled

     bravais-lattice index     =            0
     lattice parameter (alat)  =       1.8897  a.u.
     unit-cell volume          =     618.9021 (a.u.)^3
     number of atoms/cell      =            4
     number of atomic types    =            2
     number of electrons       =        34.00
     number of Kohn-Sham states=           37
     kinetic-energy cutoff     =      58.7989  Ry
     charge density cutoff     =     587.9892  Ry
     convergence threshold     =      1.0E-06
     mixing beta               =       0.1000
     number of iterations used =           10  plain     mixing
     Exchange-correlation      = BEEF-VDW ( 1  4 27 13 2)

     celldm(1)=   1.889726  celldm(2)=   0.000000  celldm(3)=   0.000000
     celldm(4)=   0.000000  celldm(5)=   0.000000  celldm(6)=   0.000000

     crystal axes: (cart. coord. in units of alat)
               a(1) = (   4.806908   0.000000   0.000000 )
               a(2) = (   0.000000   4.806908   0.000000 )
               a(3) = (   0.000000   0.000000   3.969116 )

     reciprocal axes: (cart. coord. in units 2 pi/alat)
               b(1) = (  0.208034  0.000000  0.000000 )
               b(2) = (  0.000000  0.208034  0.000000 )
               b(3) = (  0.000000  0.000000  0.251945 )

     PseudoPot. # 1 for Al read from file:
     /home/users/vossj/suncat/psp/gbrv1.5pbe/Al.UPF
     MD5 check sum: 0a6289f5291fc8f409219462bc851e1f
     Pseudo is Ultrasoft + core correction, Zval =  3.0
     Generated by new atomic code, or converted to UPF format
     Using radial grid of  893 points,  3 beta functions with:
                l(1) =   0
                l(2) =   1
                l(3) =   2
     Q(r) pseudized with  8 coefficients,  rinner =    0.900   0.900   0.900
                                                       0.900   0.900

     PseudoPot. # 2 for Sn read from file:
     /home/users/vossj/suncat/psp/gbrv1.5pbe/Sn.UPF
     MD5 check sum: 469debedee59599fedebd795477fea03
     Pseudo is Ultrasoft + core correction, Zval = 14.0
     Generated by new atomic code, or converted to UPF format
     Using radial grid of  891 points,  6 beta functions with:
                l(1) =   0
                l(2) =   0
                l(3) =   1
                l(4) =   1
                l(5) =   2
                l(6) =   2
     Q(r) pseudized with  8 coefficients,  rinner =    1.350   1.350   1.350
                                                       1.350   1.350

     vdW kernel table read from file vdW_kernel_table
     MD5 check sum: 095c7af220d748ca6e76c0b4c6cfb241

     atomic species   valence    mass     pseudopotential
        Al1            3.00    26.98154     Al( 1.00)
        Sn1           14.00   118.71000     Sn( 1.00)

     16 Sym. Ops., with inversion, found

   Cartesian axes

     site n.     atom                  positions (alat units)
         1           Al1 tau(   1) = (   0.0000000   0.0000000   0.0000000  )
         2           Al1 tau(   2) = (   2.4034539   2.4034539   0.0000000  )
         3           Sn1 tau(   3) = (   2.4034539   0.0000000   1.9845579  )
         4           Sn1 tau(   4) = (   0.0000000   2.4034539   1.9845579  )

     number of k points=    75  Fermi-Dirac smearing, width (Ry)=  0.0073
                       cart. coord. in units 2pi/alat
        k(    1) = (   0.0000000   0.0000000   0.0000000), wk =   0.0027435
        k(    2) = (   0.0000000   0.0000000   0.0279939), wk =   0.0054870
        k(    3) = (   0.0000000   0.0000000   0.0559878), wk =   0.0054870
        k(    4) = (   0.0000000   0.0000000   0.0839818), wk =   0.0054870
        k(    5) = (   0.0000000   0.0000000   0.1119757), wk =   0.0054870
        k(    6) = (   0.0000000   0.0231149   0.0000000), wk =   0.0109739
        k(    7) = (   0.0000000   0.0231149   0.0279939), wk =   0.0219479
        k(    8) = (   0.0000000   0.0231149   0.0559878), wk =   0.0219479
        k(    9) = (   0.0000000   0.0231149   0.0839818), wk =   0.0219479
        k(   10) = (   0.0000000   0.0231149   0.1119757), wk =   0.0219479
        k(   11) = (   0.0000000   0.0462298   0.0000000), wk =   0.0109739
        k(   12) = (   0.0000000   0.0462298   0.0279939), wk =   0.0219479
        k(   13) = (   0.0000000   0.0462298   0.0559878), wk =   0.0219479
        k(   14) = (   0.0000000   0.0462298   0.0839818), wk =   0.0219479
        k(   15) = (   0.0000000   0.0462298   0.1119757), wk =   0.0219479
        k(   16) = (   0.0000000   0.0693446   0.0000000), wk =   0.0109739
        k(   17) = (   0.0000000   0.0693446   0.0279939), wk =   0.0219479
        k(   18) = (   0.0000000   0.0693446   0.0559878), wk =   0.0219479
        k(   19) = (   0.0000000   0.0693446   0.0839818), wk =   0.0219479
        k(   20) = (   0.0000000   0.0693446   0.1119757), wk =   0.0219479
        k(   21) = (   0.0000000   0.0924595   0.0000000), wk =   0.0109739
        k(   22) = (   0.0000000   0.0924595   0.0279939), wk =   0.0219479
        k(   23) = (   0.0000000   0.0924595   0.0559878), wk =   0.0219479
        k(   24) = (   0.0000000   0.0924595   0.0839818), wk =   0.0219479
        k(   25) = (   0.0000000   0.0924595   0.1119757), wk =   0.0219479
        k(   26) = (   0.0231149   0.0231149   0.0000000), wk =   0.0109739
        k(   27) = (   0.0231149   0.0231149   0.0279939), wk =   0.0219479
        k(   28) = (   0.0231149   0.0231149   0.0559878), wk =   0.0219479
        k(   29) = (   0.0231149   0.0231149   0.0839818), wk =   0.0219479
        k(   30) = (   0.0231149   0.0231149   0.1119757), wk =   0.0219479
        k(   31) = (   0.0231149   0.0462298   0.0000000), wk =   0.0219479
        k(   32) = (   0.0231149   0.0462298   0.0279939), wk =   0.0438957
        k(   33) = (   0.0231149   0.0462298   0.0559878), wk =   0.0438957
        k(   34) = (   0.0231149   0.0462298   0.0839818), wk =   0.0438957
        k(   35) = (   0.0231149   0.0462298   0.1119757), wk =   0.0438957
        k(   36) = (   0.0231149   0.0693446   0.0000000), wk =   0.0219479
        k(   37) = (   0.0231149   0.0693446   0.0279939), wk =   0.0438957
        k(   38) = (   0.0231149   0.0693446   0.0559878), wk =   0.0438957
        k(   39) = (   0.0231149   0.0693446   0.0839818), wk =   0.0438957
        k(   40) = (   0.0231149   0.0693446   0.1119757), wk =   0.0438957
        k(   41) = (   0.0231149   0.0924595   0.0000000), wk =   0.0219479
        k(   42) = (   0.0231149   0.0924595   0.0279939), wk =   0.0438957
        k(   43) = (   0.0231149   0.0924595   0.0559878), wk =   0.0438957
        k(   44) = (   0.0231149   0.0924595   0.0839818), wk =   0.0438957
        k(   45) = (   0.0231149   0.0924595   0.1119757), wk =   0.0438957
        k(   46) = (   0.0462298   0.0462298   0.0000000), wk =   0.0109739
        k(   47) = (   0.0462298   0.0462298   0.0279939), wk =   0.0219479
        k(   48) = (   0.0462298   0.0462298   0.0559878), wk =   0.0219479
        k(   49) = (   0.0462298   0.0462298   0.0839818), wk =   0.0219479
        k(   50) = (   0.0462298   0.0462298   0.1119757), wk =   0.0219479
        k(   51) = (   0.0462298   0.0693446   0.0000000), wk =   0.0219479
        k(   52) = (   0.0462298   0.0693446   0.0279939), wk =   0.0438957
        k(   53) = (   0.0462298   0.0693446   0.0559878), wk =   0.0438957
        k(   54) = (   0.0462298   0.0693446   0.0839818), wk =   0.0438957
        k(   55) = (   0.0462298   0.0693446   0.1119757), wk =   0.0438957
        k(   56) = (   0.0462298   0.0924595   0.0000000), wk =   0.0219479
        k(   57) = (   0.0462298   0.0924595   0.0279939), wk =   0.0438957
        k(   58) = (   0.0462298   0.0924595   0.0559878), wk =   0.0438957
        k(   59) = (   0.0462298   0.0924595   0.0839818), wk =   0.0438957
        k(   60) = (   0.0462298   0.0924595   0.1119757), wk =   0.0438957
        k(   61) = (   0.0693446   0.0693446   0.0000000), wk =   0.0109739
        k(   62) = (   0.0693446   0.0693446   0.0279939), wk =   0.0219479
        k(   63) = (   0.0693446   0.0693446   0.0559878), wk =   0.0219479
        k(   64) = (   0.0693446   0.0693446   0.0839818), wk =   0.0219479
        k(   65) = (   0.0693446   0.0693446   0.1119757), wk =   0.0219479
        k(   66) = (   0.0693446   0.0924595   0.0000000), wk =   0.0219479
        k(   67) = (   0.0693446   0.0924595   0.0279939), wk =   0.0438957
        k(   68) = (   0.0693446   0.0924595   0.0559878), wk =   0.0438957
        k(   69) = (   0.0693446   0.0924595   0.0839818), wk =   0.0438957
        k(   70) = (   0.0693446   0.0924595   0.1119757), wk =   0.0438957
        k(   71) = (   0.0924595   0.0924595   0.0000000), wk =   0.0109739
        k(   72) = (   0.0924595   0.0924595   0.0279939), wk =   0.0219479
        k(   73) = (   0.0924595   0.0924595   0.0559878), wk =   0.0219479
        k(   74) = (   0.0924595   0.0924595   0.0839818), wk =   0.0219479
        k(   75) = (   0.0924595   0.0924595   0.1119757), wk =   0.0219479

     Largest allocated arrays     est. size (Mb)     dimensions
     Largest temporary arrays     est. size (Mb)     dimensions

     Initial potential from superposition of free atoms

     starting charge   31.99498, renormalised to   34.00000

     *
     * You are using vdW-DF for exchange-correlation in this calculation.
     * Please cite the following three references that made this development
     * possible:
     *
     *   M. Dion, H. Rydberg, E. Schroder, D. C. Langreth, and
     *   B. I. Lundqvist, Phys. Rev. Lett. 92, 246401 (2004).
     *
     *   T. Thonhauser, V. R. Cooper, S. Li, A. Puzder, P. Hyldgaard, and
     *   D. C. Langreth, Phys. Rev. B 76, 125112 (2007).
     *
     *   G. Roman-Perez and J. M. Soler, Phys. Rev. Lett. 103, 096102 (2009).
     *
     *
     * If you are using vdW-DF2, please also cite:
     *
     *   K. Lee, E. D. Murray, L. Kong, B. I. Lundqvist, and
     *   D. C. Langreth, Phys. Rev. B 82, 081101(R) (2010).
     *
     *
     * If you are calculating the stress with vdW-DF, please also cite:
     *
     *   R. Sabatini, E. Kucukbenli, B. Kolb, T. Thonhauser, and
     *   S. de Gironcoli, J. Phys.: Condens. Matter 24, 424209 (2012).
     *

     Carrying out vdW-DF run using the following parameters:

     Nqs =      20    Nr_points =    1024   r_max =   100.000
     q_mesh =
               0.00001000     0.04494208     0.09755937     0.15916263
               0.23128650     0.31572767     0.41458969     0.53033537
               0.66584808     0.82450364     1.01025438     1.22772762
               1.48234092     1.78043706     2.12944203     2.53805004
               3.01644009     3.57652955     4.23227104     5.00000000

     Gradients computed in reciprocal space

     Starting wfc are   26 randomized atomic wfcs +   11 random wfc

     Self-consistent Calculation

     iteration #  1     ecut=    58.80 Ry     beta=0.10
     Davidson diagonalization with overlap
     ethr =  1.00E-02,  avg # of iterations =  6.0

     total energy              =    -335.58161492 Ry
     Harris-Foulkes estimate   =    -335.91813508 Ry
     estimated scf accuracy    <       1.92267349 Ry

[...]

     total energy              =    -335.13527475 Ry
     Harris-Foulkes estimate   =    -335.13525313 Ry
     estimated scf accuracy    <       0.00000802 Ry

     iteration #  9     ecut=    58.80 Ry     beta=0.10
     Davidson diagonalization with overlap
     ethr =  1.65E-08,  avg # of iterations =  2.0

     End of self-consistent calculation

          k = 0.0000 0.0000 0.0000 (  4731 PWs)   bands (ev):

   -12.9163 -12.8741 -12.8377 -12.8171 -12.8171 -12.7804 -12.7774 -12.7774
   -12.7662 -12.7184  -1.8277   3.5482   5.2057   5.2057   6.0851   7.5145
     8.4757  10.6554  10.6554  12.8419  13.2403  13.2809  13.4329  14.2396
    14.2396  15.6940  15.6940  16.4523  16.8697  18.7156  19.1144  19.1144
    20.7192  20.7192  22.1877  22.3379  23.4208

[...]

          k = 0.0925 0.0925 0.1120 (  4745 PWs)   bands (ev):

   -12.8568 -12.8520 -12.8379 -12.8367 -12.8207 -12.8179 -12.7821 -12.7807
   -12.7384 -12.7351   2.0737   2.3279   4.2437   4.2553   4.7539   5.0122
     5.4258   5.9482  14.3422  14.6345  14.8250  15.2850  16.1812  16.3110
    16.4997  17.0242  18.2225  18.5479  18.6829  18.6863  18.8645  19.1746
    19.4699  19.9397  21.8237  22.3371  22.3566

     the Fermi energy is     9.0346 ev

!    total energy              =    -335.13538018 Ry
     Harris-Foulkes estimate   =    -335.13527604 Ry
     estimated scf accuracy    <       0.00000008 Ry

     The total energy is the sum of the following terms:

     one-electron contribution =    -137.33631068 Ry
     hartree contribution      =      91.09550143 Ry
     xc contribution           =     -97.84161279 Ry
     ewald contribution        =    -191.04828474 Ry
     smearing contrib. (-TS)   =      -0.00467341 Ry

     convergence has been achieved in   9 iterations

     Forces acting on atoms (Ry/au):

     atom    1 type  1   force =     0.00000000    0.00000000    0.00000000
     atom    2 type  1   force =     0.00000000    0.00000000    0.00000000
     atom    3 type  2   force =     0.00000000    0.00000000    0.00000000
     atom    4 type  2   force =     0.00000000    0.00000000    0.00000000

     Total force =     0.000000     Total SCF correction =     0.000000

     General routines

     Parallel routines

   This run was terminated on:   1:20:46  14Nov2017

   JOB DONE.