     Program PWSCF v.5.1rc2 starts on 14Nov2017 at  8: 0:29

     Current dimensions of program PWSCF are:
     Max number of different atomic species (ntypx) = 10
     Max number of k-points (npk) =  40000
     Max angular momentum in pseudopotentials (lmaxx) =  3

     IMPORTANT: XC functional enforced from input :
     Exchange-correlation      = BEEF-VDW ( 1  4 27 13 2)
     Any further DFT definition will be discarded
     Please, verify this is what you really want

     Found symmetry operation: I + ( -0.5000 -0.5000  0.0000)
     This is a supercell, fractional translations are disabled

     bravais-lattice index     =            0
     lattice parameter (alat)  =       1.8897  a.u.
     unit-cell volume          =     384.0349 (a.u.)^3
     number of atoms/cell      =            4
     number of atomic types    =            2
     number of electrons       =        56.00
     number of Kohn-Sham states=           48
     kinetic-energy cutoff     =      58.7989  Ry
     charge density cutoff     =     587.9892  Ry
     convergence threshold     =      1.0E-06
     mixing beta               =       0.1000
     number of iterations used =           10  plain     mixing
     Exchange-correlation      = BEEF-VDW ( 1  4 27 13 2)

     celldm(1)=   1.889726  celldm(2)=   0.000000  celldm(3)=   0.000000
     celldm(4)=   0.000000  celldm(5)=   0.000000  celldm(6)=   0.000000

     crystal axes: (cart. coord. in units of alat)
               a(1) = (   3.601300   0.000000   0.000000 )
               a(2) = (   0.000000   3.601300   0.000000 )
               a(3) = (   0.000000   0.000000   4.387888 )

     reciprocal axes: (cart. coord. in units 2 pi/alat)
               b(1) = (  0.277678  0.000000  0.000000 )
               b(2) = (  0.000000  0.277678  0.000000 )
               b(3) = (  0.000000  0.000000  0.227900 )

     PseudoPot. # 1 for Cr read from file:
     /home/users/vossj/suncat/psp/gbrv1.5pbe/Cr.UPF
     MD5 check sum: 0d52af634a40206e4dee301ad30da4bf
     Pseudo is Ultrasoft + core correction, Zval = 14.0
     Generated by new atomic code, or converted to UPF format
     Using radial grid of  857 points,  6 beta functions with:
                l(1) =   0
                l(2) =   0
                l(3) =   1
                l(4) =   1
                l(5) =   2
                l(6) =   2
     Q(r) pseudized with  8 coefficients,  rinner =    0.950   0.950   0.950
                                                       0.950   0.950

     PseudoPot. # 2 for Mo read from file:
     /home/users/vossj/suncat/psp/gbrv1.5pbe/Mo.UPF
     MD5 check sum: 30c4dcd161f5d35cd49bb5239c51a633
     Pseudo is Ultrasoft + core correction, Zval = 14.0
     Generated by new atomic code, or converted to UPF format
     Using radial grid of  889 points,  6 beta functions with:
                l(1) =   0
                l(2) =   0
                l(3) =   1
                l(4) =   1
                l(5) =   2
                l(6) =   2
     Q(r) pseudized with  6 coefficients,  rinner =    1.000   1.000   1.000
                                                       1.000   1.000

     vdW kernel table read from file vdW_kernel_table
     MD5 check sum: 095c7af220d748ca6e76c0b4c6cfb241

     atomic species   valence    mass     pseudopotential
        Cr1           14.00    51.99600     Cr( 1.00)
        Mo1           14.00    95.94000     Mo( 1.00)

     16 Sym. Ops., with inversion, found

   Cartesian axes

     site n.     atom                  positions (alat units)
         1           Cr1 tau(   1) = (   0.0000000   0.0000000   0.0000000  )
         2           Cr1 tau(   2) = (   1.8006498   1.8006498   0.0000000  )
         3           Mo1 tau(   3) = (   1.8006498   0.0000000   2.1939442  )
         4           Mo1 tau(   4) = (   0.0000000   1.8006498   2.1939442  )

     number of k points=    75  Fermi-Dirac smearing, width (Ry)=  0.0073
                       cart. coord. in units 2pi/alat
        k(    1) = (   0.0000000   0.0000000   0.0000000), wk =   0.0027435
        k(    2) = (   0.0000000   0.0000000   0.0253222), wk =   0.0054870
        k(    3) = (   0.0000000   0.0000000   0.0506445), wk =   0.0054870
        k(    4) = (   0.0000000   0.0000000   0.0759667), wk =   0.0054870
        k(    5) = (   0.0000000   0.0000000   0.1012889), wk =   0.0054870
        k(    6) = (   0.0000000   0.0308531   0.0000000), wk =   0.0109739
        k(    7) = (   0.0000000   0.0308531   0.0253222), wk =   0.0219479
        k(    8) = (   0.0000000   0.0308531   0.0506445), wk =   0.0219479
        k(    9) = (   0.0000000   0.0308531   0.0759667), wk =   0.0219479
        k(   10) = (   0.0000000   0.0308531   0.1012889), wk =   0.0219479
        k(   11) = (   0.0000000   0.0617061   0.0000000), wk =   0.0109739
        k(   12) = (   0.0000000   0.0617061   0.0253222), wk =   0.0219479
        k(   13) = (   0.0000000   0.0617061   0.0506445), wk =   0.0219479
        k(   14) = (   0.0000000   0.0617061   0.0759667), wk =   0.0219479
        k(   15) = (   0.0000000   0.0617061   0.1012889), wk =   0.0219479
        k(   16) = (   0.0000000   0.0925592   0.0000000), wk =   0.0109739
        k(   17) = (   0.0000000   0.0925592   0.0253222), wk =   0.0219479
        k(   18) = (   0.0000000   0.0925592   0.0506445), wk =   0.0219479
        k(   19) = (   0.0000000   0.0925592   0.0759667), wk =   0.0219479
        k(   20) = (   0.0000000   0.0925592   0.1012889), wk =   0.0219479
        k(   21) = (   0.0000000   0.1234122   0.0000000), wk =   0.0109739
        k(   22) = (   0.0000000   0.1234122   0.0253222), wk =   0.0219479
        k(   23) = (   0.0000000   0.1234122   0.0506445), wk =   0.0219479
        k(   24) = (   0.0000000   0.1234122   0.0759667), wk =   0.0219479
        k(   25) = (   0.0000000   0.1234122   0.1012889), wk =   0.0219479
        k(   26) = (   0.0308531   0.0308531   0.0000000), wk =   0.0109739
        k(   27) = (   0.0308531   0.0308531   0.0253222), wk =   0.0219479
        k(   28) = (   0.0308531   0.0308531   0.0506445), wk =   0.0219479
        k(   29) = (   0.0308531   0.0308531   0.0759667), wk =   0.0219479
        k(   30) = (   0.0308531   0.0308531   0.1012889), wk =   0.0219479
        k(   31) = (   0.0308531   0.0617061   0.0000000), wk =   0.0219479
        k(   32) = (   0.0308531   0.0617061   0.0253222), wk =   0.0438957
        k(   33) = (   0.0308531   0.0617061   0.0506445), wk =   0.0438957
        k(   34) = (   0.0308531   0.0617061   0.0759667), wk =   0.0438957
        k(   35) = (   0.0308531   0.0617061   0.1012889), wk =   0.0438957
        k(   36) = (   0.0308531   0.0925592   0.0000000), wk =   0.0219479
        k(   37) = (   0.0308531   0.0925592   0.0253222), wk =   0.0438957
        k(   38) = (   0.0308531   0.0925592   0.0506445), wk =   0.0438957
        k(   39) = (   0.0308531   0.0925592   0.0759667), wk =   0.0438957
        k(   40) = (   0.0308531   0.0925592   0.1012889), wk =   0.0438957
        k(   41) = (   0.0308531   0.1234122   0.0000000), wk =   0.0219479
        k(   42) = (   0.0308531   0.1234122   0.0253222), wk =   0.0438957
        k(   43) = (   0.0308531   0.1234122   0.0506445), wk =   0.0438957
        k(   44) = (   0.0308531   0.1234122   0.0759667), wk =   0.0438957
        k(   45) = (   0.0308531   0.1234122   0.1012889), wk =   0.0438957
        k(   46) = (   0.0617061   0.0617061   0.0000000), wk =   0.0109739
        k(   47) = (   0.0617061   0.0617061   0.0253222), wk =   0.0219479
        k(   48) = (   0.0617061   0.0617061   0.0506445), wk =   0.0219479
        k(   49) = (   0.0617061   0.0617061   0.0759667), wk =   0.0219479
        k(   50) = (   0.0617061   0.0617061   0.1012889), wk =   0.0219479
        k(   51) = (   0.0617061   0.0925592   0.0000000), wk =   0.0219479
        k(   52) = (   0.0617061   0.0925592   0.0253222), wk =   0.0438957
        k(   53) = (   0.0617061   0.0925592   0.0506445), wk =   0.0438957
        k(   54) = (   0.0617061   0.0925592   0.0759667), wk =   0.0438957
        k(   55) = (   0.0617061   0.0925592   0.1012889), wk =   0.0438957
        k(   56) = (   0.0617061   0.1234122   0.0000000), wk =   0.0219479
        k(   57) = (   0.0617061   0.1234122   0.0253222), wk =   0.0438957
        k(   58) = (   0.0617061   0.1234122   0.0506445), wk =   0.0438957
        k(   59) = (   0.0617061   0.1234122   0.0759667), wk =   0.0438957
        k(   60) = (   0.0617061   0.1234122   0.1012889), wk =   0.0438957
        k(   61) = (   0.0925592   0.0925592   0.0000000), wk =   0.0109739
        k(   62) = (   0.0925592   0.0925592   0.0253222), wk =   0.0219479
        k(   63) = (   0.0925592   0.0925592   0.0506445), wk =   0.0219479
        k(   64) = (   0.0925592   0.0925592   0.0759667), wk =   0.0219479
        k(   65) = (   0.0925592   0.0925592   0.1012889), wk =   0.0219479
        k(   66) = (   0.0925592   0.1234122   0.0000000), wk =   0.0219479
        k(   67) = (   0.0925592   0.1234122   0.0253222), wk =   0.0438957
        k(   68) = (   0.0925592   0.1234122   0.0506445), wk =   0.0438957
        k(   69) = (   0.0925592   0.1234122   0.0759667), wk =   0.0438957
        k(   70) = (   0.0925592   0.1234122   0.1012889), wk =   0.0438957
        k(   71) = (   0.1234122   0.1234122   0.0000000), wk =   0.0109739
        k(   72) = (   0.1234122   0.1234122   0.0253222), wk =   0.0219479
        k(   73) = (   0.1234122   0.1234122   0.0506445), wk =   0.0219479
        k(   74) = (   0.1234122   0.1234122   0.0759667), wk =   0.0219479
        k(   75) = (   0.1234122   0.1234122   0.1012889), wk =   0.0219479

     Largest allocated arrays     est. size (Mb)     dimensions
     Largest temporary arrays     est. size (Mb)     dimensions

     Check: negative/imaginary core charge=   -0.000005    0.000000

     Initial potential from superposition of free atoms
     Check: negative starting charge=   -0.001209

     starting charge   53.99784, renormalised to   56.00000

     negative rho (up, down):  1.254E-03 0.000E+00

     *
     * You are using vdW-DF for exchange-correlation in this calculation.
     * Please cite the following three references that made this development
     * possible:
     *
     *   M. Dion, H. Rydberg, E. Schroder, D. C. Langreth, and
     *   B. I. Lundqvist, Phys. Rev. Lett. 92, 246401 (2004).
     *
     *   T. Thonhauser, V. R. Cooper, S. Li, A. Puzder, P. Hyldgaard, and
     *   D. C. Langreth, Phys. Rev. B 76, 125112 (2007).
     *
     *   G. Roman-Perez and J. M. Soler, Phys. Rev. Lett. 103, 096102 (2009).
     *
     *
     * If you are using vdW-DF2, please also cite:
     *
     *   K. Lee, E. D. Murray, L. Kong, B. I. Lundqvist, and
     *   D. C. Langreth, Phys. Rev. B 82, 081101(R) (2010).
     *
     *
     * If you are calculating the stress with vdW-DF, please also cite:
     *
     *   R. Sabatini, E. Kucukbenli, B. Kolb, T. Thonhauser, and
     *   S. de Gironcoli, J. Phys.: Condens. Matter 24, 424209 (2012).
     *

     Carrying out vdW-DF run using the following parameters:

     Nqs =      20    Nr_points =    1024   r_max =   100.000
     q_mesh =
               0.00001000     0.04494208     0.09755937     0.15916263
               0.23128650     0.31572767     0.41458969     0.53033537
               0.66584808     0.82450364     1.01025438     1.22772762
               1.48234092     1.78043706     2.12944203     2.53805004
               3.01644009     3.57652955     4.23227104     5.00000000

     Gradients computed in reciprocal space

     Starting wfc are   46 randomized atomic wfcs +    2 random wfc

     Self-consistent Calculation

     iteration #  1     ecut=    58.80 Ry     beta=0.10
     Davidson diagonalization with overlap
     ethr =  1.00E-02,  avg # of iterations =  3.9

[...]

     total energy              =    -632.69490250 Ry
     Harris-Foulkes estimate   =    -633.09156137 Ry
     estimated scf accuracy    <       2.38335216 Ry

[...]

     total energy              =    -632.53697952 Ry
     Harris-Foulkes estimate   =    -632.53697904 Ry
     estimated scf accuracy    <       0.00000139 Ry

     iteration # 15     ecut=    58.80 Ry     beta=0.10
     Davidson diagonalization with overlap
     ethr =  2.47E-09,  avg # of iterations =  1.0

     negative rho (up, down):  1.301E-03 0.000E+00

     End of self-consistent calculation

          k = 0.0000 0.0000 0.0000 (  2937 PWs)   bands (ev):

   -52.8233 -52.7040 -42.1947 -41.7272 -24.2428 -24.2428 -24.1262 -24.0121
   -23.8423 -23.8423 -16.7504 -16.7504 -16.1596 -15.7681 -15.3198 -15.3198
    11.9727  13.4181  14.4284  14.8364  15.3040  15.3360  15.3360  17.2837
    18.7934  19.1530  19.1530  20.2083  20.6871  20.7756  21.0116  21.0116
    21.6317  22.1905  22.3767  22.3767  23.4206  24.0068  24.0068  25.7033
    28.7347  29.0130  32.2875  32.8340  33.1957  33.1957  33.4109  34.7919

[...]

          k = 0.1234 0.1234 0.1013 (  2902 PWs)   bands (ev):

   -52.7644 -52.7608 -41.9642 -41.9501 -24.3035 -24.2917 -24.0696 -24.0666
   -23.8155 -23.8032 -16.9823 -16.9426 -15.9679 -15.9553 -15.2147 -15.1677
    14.1972  14.2052  15.1714  15.2866  16.8435  16.9717  17.6385  17.7358
    18.8762  18.9017  19.2185  19.2431  19.4410  19.7225  19.9347  20.2736
    21.1334  21.2797  21.5193  22.0791  22.3309  22.4003  22.6183  22.7876
    28.3373  28.5709  30.2767  30.3349  32.5464  32.6182  33.9074  34.2000

     the Fermi energy is    19.1235 ev

!    total energy              =    -632.53698248 Ry
     Harris-Foulkes estimate   =    -632.53697961 Ry
     estimated scf accuracy    <          4.1E-09 Ry

     The total energy is the sum of the following terms:

     one-electron contribution =    -169.27387533 Ry
     hartree contribution      =     117.30574400 Ry
     xc contribution           =     -86.77504293 Ry
     ewald contribution        =    -493.78082106 Ry
     smearing contrib. (-TS)   =      -0.01298715 Ry

     convergence has been achieved in  15 iterations

     Forces acting on atoms (Ry/au):

     negative rho (up, down):  1.301E-03 0.000E+00
     atom    1 type  1   force =     0.00000000    0.00000000    0.00000000
     atom    2 type  1   force =     0.00000000    0.00000000    0.00000000
     atom    3 type  2   force =     0.00000000    0.00000000    0.00000000
     atom    4 type  2   force =     0.00000000    0.00000000    0.00000000

     Total force =     0.000000     Total SCF correction =     0.000000

     General routines

     Parallel routines

   This run was terminated on:   8: 1: 9  14Nov2017

   JOB DONE.