     Program PWSCF v.5.1rc2 starts on 14Nov2017 at 13:29:28

     Current dimensions of program PWSCF are:
     Max number of different atomic species (ntypx) = 10
     Max number of k-points (npk) =  40000
     Max angular momentum in pseudopotentials (lmaxx) =  3

     IMPORTANT: XC functional enforced from input :
     Exchange-correlation      = BEEF-VDW ( 1  4 27 13 2)
     Any further DFT definition will be discarded
     Please, verify this is what you really want

     Found symmetry operation: I + ( -0.5000 -0.5000  0.0000)
     This is a supercell, fractional translations are disabled

     bravais-lattice index     =            0
     lattice parameter (alat)  =       1.8897  a.u.
     unit-cell volume          =     502.6893 (a.u.)^3
     number of atoms/cell      =            4
     number of atomic types    =            2
     number of electrons       =        76.00
     number of Kohn-Sham states=           58
     kinetic-energy cutoff     =      58.7989  Ry
     charge density cutoff     =     587.9892  Ry
     convergence threshold     =      1.0E-06
     mixing beta               =       0.1000
     number of iterations used =           10  plain     mixing
     Exchange-correlation      = BEEF-VDW ( 1  4 27 13 2)

     celldm(1)=   1.889726  celldm(2)=   0.000000  celldm(3)=   0.000000
     celldm(4)=   0.000000  celldm(5)=   0.000000  celldm(6)=   0.000000

     crystal axes: (cart. coord. in units of alat)
               a(1) = (   4.182495   0.000000   0.000000 )
               a(2) = (   0.000000   4.182495   0.000000 )
               a(3) = (   0.000000   0.000000   4.258261 )

     reciprocal axes: (cart. coord. in units 2 pi/alat)
               b(1) = (  0.239092  0.000000  0.000000 )
               b(2) = (  0.000000  0.239092  0.000000 )
               b(3) = (  0.000000  0.000000  0.234838 )

     PseudoPot. # 1 for Ga read from file:
     /home/users/vossj/suncat/psp/gbrv1.5pbe/Ga.UPF
     MD5 check sum: ccd671392a58a050fbb373893b4fcd66
     Pseudo is Ultrasoft + core correction, Zval = 19.0
     Generated by new atomic code, or converted to UPF format
     Using radial grid of  871 points,  6 beta functions with:
                l(1) =   0
                l(2) =   0
                l(3) =   1
                l(4) =   1
                l(5) =   2
                l(6) =   2
     Q(r) pseudized with  8 coefficients,  rinner =    1.250   1.250   1.250
                                                       1.250   1.250

     PseudoPot. # 2 for Ag read from file:
     /home/users/vossj/suncat/psp/gbrv1.5pbe/Ag.UPF
     MD5 check sum: d66d668201baa78d5eb5b04ef7011058
     Pseudo is Ultrasoft + core correction, Zval = 19.0
     Generated by new atomic code, or converted to UPF format
     Using radial grid of  887 points,  6 beta functions with:
                l(1) =   0
                l(2) =   0
                l(3) =   1
                l(4) =   1
                l(5) =   2
                l(6) =   2
     Q(r) pseudized with  6 coefficients,  rinner =    1.300   1.300   1.300
                                                       1.300   1.300

     vdW kernel table read from file vdW_kernel_table
     MD5 check sum: 095c7af220d748ca6e76c0b4c6cfb241

     atomic species   valence    mass     pseudopotential
        Ga1           19.00    69.72300     Ga( 1.00)
        Ag1           19.00   107.86800     Ag( 1.00)

     16 Sym. Ops., with inversion, found

   Cartesian axes

     site n.     atom                  positions (alat units)
         1           Ga1 tau(   1) = (   0.0000000   0.0000000   0.0000000  )
         2           Ga1 tau(   2) = (   2.0912473   2.0912473   0.0000000  )
         3           Ag1 tau(   3) = (   2.0912473   0.0000000   2.1291304  )
         4           Ag1 tau(   4) = (   0.0000000   2.0912473   2.1291304  )

     number of k points=    75  Fermi-Dirac smearing, width (Ry)=  0.0073
                       cart. coord. in units 2pi/alat
        k(    1) = (   0.0000000   0.0000000   0.0000000), wk =   0.0027435
        k(    2) = (   0.0000000   0.0000000   0.0260931), wk =   0.0054870
        k(    3) = (   0.0000000   0.0000000   0.0521861), wk =   0.0054870
        k(    4) = (   0.0000000   0.0000000   0.0782792), wk =   0.0054870
        k(    5) = (   0.0000000   0.0000000   0.1043723), wk =   0.0054870
        k(    6) = (   0.0000000   0.0265658   0.0000000), wk =   0.0109739
        k(    7) = (   0.0000000   0.0265658   0.0260931), wk =   0.0219479
        k(    8) = (   0.0000000   0.0265658   0.0521861), wk =   0.0219479
        k(    9) = (   0.0000000   0.0265658   0.0782792), wk =   0.0219479
        k(   10) = (   0.0000000   0.0265658   0.1043723), wk =   0.0219479
        k(   11) = (   0.0000000   0.0531315   0.0000000), wk =   0.0109739
        k(   12) = (   0.0000000   0.0531315   0.0260931), wk =   0.0219479
        k(   13) = (   0.0000000   0.0531315   0.0521861), wk =   0.0219479
        k(   14) = (   0.0000000   0.0531315   0.0782792), wk =   0.0219479
        k(   15) = (   0.0000000   0.0531315   0.1043723), wk =   0.0219479
        k(   16) = (   0.0000000   0.0796973   0.0000000), wk =   0.0109739
        k(   17) = (   0.0000000   0.0796973   0.0260931), wk =   0.0219479
        k(   18) = (   0.0000000   0.0796973   0.0521861), wk =   0.0219479
        k(   19) = (   0.0000000   0.0796973   0.0782792), wk =   0.0219479
        k(   20) = (   0.0000000   0.0796973   0.1043723), wk =   0.0219479
        k(   21) = (   0.0000000   0.1062630   0.0000000), wk =   0.0109739
        k(   22) = (   0.0000000   0.1062630   0.0260931), wk =   0.0219479
        k(   23) = (   0.0000000   0.1062630   0.0521861), wk =   0.0219479
        k(   24) = (   0.0000000   0.1062630   0.0782792), wk =   0.0219479
        k(   25) = (   0.0000000   0.1062630   0.1043723), wk =   0.0219479
        k(   26) = (   0.0265658   0.0265658   0.0000000), wk =   0.0109739
        k(   27) = (   0.0265658   0.0265658   0.0260931), wk =   0.0219479
        k(   28) = (   0.0265658   0.0265658   0.0521861), wk =   0.0219479
        k(   29) = (   0.0265658   0.0265658   0.0782792), wk =   0.0219479
        k(   30) = (   0.0265658   0.0265658   0.1043723), wk =   0.0219479
        k(   31) = (   0.0265658   0.0531315   0.0000000), wk =   0.0219479
        k(   32) = (   0.0265658   0.0531315   0.0260931), wk =   0.0438957
        k(   33) = (   0.0265658   0.0531315   0.0521861), wk =   0.0438957
        k(   34) = (   0.0265658   0.0531315   0.0782792), wk =   0.0438957
        k(   35) = (   0.0265658   0.0531315   0.1043723), wk =   0.0438957
        k(   36) = (   0.0265658   0.0796973   0.0000000), wk =   0.0219479
        k(   37) = (   0.0265658   0.0796973   0.0260931), wk =   0.0438957
        k(   38) = (   0.0265658   0.0796973   0.0521861), wk =   0.0438957
        k(   39) = (   0.0265658   0.0796973   0.0782792), wk =   0.0438957
        k(   40) = (   0.0265658   0.0796973   0.1043723), wk =   0.0438957
        k(   41) = (   0.0265658   0.1062630   0.0000000), wk =   0.0219479
        k(   42) = (   0.0265658   0.1062630   0.0260931), wk =   0.0438957
        k(   43) = (   0.0265658   0.1062630   0.0521861), wk =   0.0438957
        k(   44) = (   0.0265658   0.1062630   0.0782792), wk =   0.0438957
        k(   45) = (   0.0265658   0.1062630   0.1043723), wk =   0.0438957
        k(   46) = (   0.0531315   0.0531315   0.0000000), wk =   0.0109739
        k(   47) = (   0.0531315   0.0531315   0.0260931), wk =   0.0219479
        k(   48) = (   0.0531315   0.0531315   0.0521861), wk =   0.0219479
        k(   49) = (   0.0531315   0.0531315   0.0782792), wk =   0.0219479
        k(   50) = (   0.0531315   0.0531315   0.1043723), wk =   0.0219479
        k(   51) = (   0.0531315   0.0796973   0.0000000), wk =   0.0219479
        k(   52) = (   0.0531315   0.0796973   0.0260931), wk =   0.0438957
        k(   53) = (   0.0531315   0.0796973   0.0521861), wk =   0.0438957
        k(   54) = (   0.0531315   0.0796973   0.0782792), wk =   0.0438957
        k(   55) = (   0.0531315   0.0796973   0.1043723), wk =   0.0438957
        k(   56) = (   0.0531315   0.1062630   0.0000000), wk =   0.0219479
        k(   57) = (   0.0531315   0.1062630   0.0260931), wk =   0.0438957
        k(   58) = (   0.0531315   0.1062630   0.0521861), wk =   0.0438957
        k(   59) = (   0.0531315   0.1062630   0.0782792), wk =   0.0438957
        k(   60) = (   0.0531315   0.1062630   0.1043723), wk =   0.0438957
        k(   61) = (   0.0796973   0.0796973   0.0000000), wk =   0.0109739
        k(   62) = (   0.0796973   0.0796973   0.0260931), wk =   0.0219479
        k(   63) = (   0.0796973   0.0796973   0.0521861), wk =   0.0219479
        k(   64) = (   0.0796973   0.0796973   0.0782792), wk =   0.0219479
        k(   65) = (   0.0796973   0.0796973   0.1043723), wk =   0.0219479
        k(   66) = (   0.0796973   0.1062630   0.0000000), wk =   0.0219479
        k(   67) = (   0.0796973   0.1062630   0.0260931), wk =   0.0438957
        k(   68) = (   0.0796973   0.1062630   0.0521861), wk =   0.0438957
        k(   69) = (   0.0796973   0.1062630   0.0782792), wk =   0.0438957
        k(   70) = (   0.0796973   0.1062630   0.1043723), wk =   0.0438957
        k(   71) = (   0.1062630   0.1062630   0.0000000), wk =   0.0109739
        k(   72) = (   0.1062630   0.1062630   0.0260931), wk =   0.0219479
        k(   73) = (   0.1062630   0.1062630   0.0521861), wk =   0.0219479
        k(   74) = (   0.1062630   0.1062630   0.0782792), wk =   0.0219479
        k(   75) = (   0.1062630   0.1062630   0.1043723), wk =   0.0219479

     Largest allocated arrays     est. size (Mb)     dimensions
     Largest temporary arrays     est. size (Mb)     dimensions

     Initial potential from superposition of free atoms

     starting charge   72.99990, renormalised to   76.00000

     *
     * You are using vdW-DF for exchange-correlation in this calculation.
     * Please cite the following three references that made this development
     * possible:
     *
     *   M. Dion, H. Rydberg, E. Schroder, D. C. Langreth, and
     *   B. I. Lundqvist, Phys. Rev. Lett. 92, 246401 (2004).
     *
     *   T. Thonhauser, V. R. Cooper, S. Li, A. Puzder, P. Hyldgaard, and
     *   D. C. Langreth, Phys. Rev. B 76, 125112 (2007).
     *
     *   G. Roman-Perez and J. M. Soler, Phys. Rev. Lett. 103, 096102 (2009).
     *
     *
     * If you are using vdW-DF2, please also cite:
     *
     *   K. Lee, E. D. Murray, L. Kong, B. I. Lundqvist, and
     *   D. C. Langreth, Phys. Rev. B 82, 081101(R) (2010).
     *
     *
     * If you are calculating the stress with vdW-DF, please also cite:
     *
     *   R. Sabatini, E. Kucukbenli, B. Kolb, T. Thonhauser, and
     *   S. de Gironcoli, J. Phys.: Condens. Matter 24, 424209 (2012).
     *

     Carrying out vdW-DF run using the following parameters:

     Nqs =      20    Nr_points =    1024   r_max =   100.000
     q_mesh =
               0.00001000     0.04494208     0.09755937     0.15916263
               0.23128650     0.31572767     0.41458969     0.53033537
               0.66584808     0.82450364     1.01025438     1.22772762
               1.48234092     1.78043706     2.12944203     2.53805004
               3.01644009     3.57652955     4.23227104     5.00000000

     Gradients computed in reciprocal space

     Starting wfc are   50 randomized atomic wfcs +    8 random wfc

     Self-consistent Calculation

     iteration #  1     ecut=    58.80 Ry     beta=0.10
     Davidson diagonalization with overlap
     ethr =  1.00E-02,  avg # of iterations =  4.5

     total energy              =   -1427.55626719 Ry
     Harris-Foulkes estimate   =   -1429.52888726 Ry
     estimated scf accuracy    <      11.70851581 Ry

[...]

     total energy              =   -1426.53480555 Ry
     Harris-Foulkes estimate   =   -1426.53480197 Ry
     estimated scf accuracy    <       0.00000249 Ry

     iteration # 13     ecut=    58.80 Ry     beta=0.10
     Davidson diagonalization with overlap
     ethr =  3.28E-09,  avg # of iterations =  2.0

     End of self-consistent calculation

          k = 0.0000 0.0000 0.0000 (  3839 PWs)   bands (ev):

   -81.4159 -81.4159 -81.4139 -81.4139 -81.4090 -81.4088 -79.0342 -79.0263
   -42.5486 -42.5486 -42.5289 -42.5183 -42.4908 -42.4908  -1.9108  -1.8506
    -1.8119  -1.7835  -1.7835  -1.6893  -1.6893  -1.6791  -1.6462  -1.5610
     3.6717   7.1717   7.6498   7.8407   8.3716   8.3716   8.9050   9.1559
     9.1559   9.5402  10.0919  12.3837  12.4059  12.4059  12.8100  15.1096
    16.8195  18.4726  20.2322  20.2322  21.3194  21.3194  23.2567  24.3611
    25.0632  25.0971  25.2847  25.2847  27.1984  29.3389  29.5973  30.1040
    30.1040  32.6479

[...]

          k = 0.1063 0.1063 0.1044 (  3834 PWs)   bands (ev):

   -81.4161 -81.4160 -81.4139 -81.4138 -81.4089 -81.4089 -79.0303 -79.0301
   -42.5542 -42.5524 -42.5242 -42.5238 -42.4878 -42.4861  -1.8325  -1.8245
    -1.8051  -1.8025  -1.7270  -1.7210  -1.6836  -1.6808  -1.6508  -1.6445
     6.3980   6.4845   7.9348   8.0011   8.8371   8.9366   9.0607   9.0877
     9.1959   9.2120   9.9904  10.6039  10.8562  11.1727  11.9088  12.0572
    14.4263  14.8579  23.0586  23.5475  25.0222  25.0748  26.6665  27.2321
    27.5960  27.9485  28.1406  28.5749  29.1503  29.3932  29.5470  29.7555
    30.5650  31.1754

     the Fermi energy is    13.4320 ev

!    total energy              =   -1426.53482658 Ry
     Harris-Foulkes estimate   =   -1426.53480597 Ry
     estimated scf accuracy    <       0.00000004 Ry

     The total energy is the sum of the following terms:

     one-electron contribution =    -936.01489232 Ry
     hartree contribution      =     501.85211333 Ry
     xc contribution           =    -159.72773704 Ry
     ewald contribution        =    -832.64113820 Ry
     smearing contrib. (-TS)   =      -0.00317235 Ry

     convergence has been achieved in  13 iterations

     Forces acting on atoms (Ry/au):

     atom    1 type  1   force =     0.00000000    0.00000000    0.00000000
     atom    2 type  1   force =     0.00000000    0.00000000    0.00000000
     atom    3 type  2   force =     0.00000000    0.00000000    0.00000000
     atom    4 type  2   force =     0.00000000    0.00000000    0.00000000

     Total force =     0.000000     Total SCF correction =     0.000000

     General routines

     Parallel routines

   This run was terminated on:  13:30:25  14Nov2017

   JOB DONE.