     Program PWSCF v.5.1rc2 starts on 15Nov2017 at  3:22:34

     Current dimensions of program PWSCF are:
     Max number of different atomic species (ntypx) = 10
     Max number of k-points (npk) =  40000
     Max angular momentum in pseudopotentials (lmaxx) =  3

     IMPORTANT: XC functional enforced from input :
     Exchange-correlation      = BEEF-VDW ( 1  4 27 13 2)
     Any further DFT definition will be discarded
     Please, verify this is what you really want

     Found symmetry operation: I + ( -0.5000 -0.5000  0.0000)
     This is a supercell, fractional translations are disabled

     bravais-lattice index     =            0
     lattice parameter (alat)  =       1.8897  a.u.
     unit-cell volume          =     509.7744 (a.u.)^3
     number of atoms/cell      =            4
     number of atomic types    =            2
     number of electrons       =        60.00
     number of Kohn-Sham states=           50
     kinetic-energy cutoff     =      58.7989  Ry
     charge density cutoff     =     587.9892  Ry
     convergence threshold     =      1.0E-06
     mixing beta               =       0.1000
     number of iterations used =           10  plain     mixing
     Exchange-correlation      = BEEF-VDW ( 1  4 27 13 2)

     celldm(1)=   1.889726  celldm(2)=   0.000000  celldm(3)=   0.000000
     celldm(4)=   0.000000  celldm(5)=   0.000000  celldm(6)=   0.000000

     crystal axes: (cart. coord. in units of alat)
               a(1) = (   4.511603   0.000000   0.000000 )
               a(2) = (   0.000000   4.511603   0.000000 )
               a(3) = (   0.000000   0.000000   3.711246 )

     reciprocal axes: (cart. coord. in units 2 pi/alat)
               b(1) = (  0.221651  0.000000  0.000000 )
               b(2) = (  0.000000  0.221651  0.000000 )
               b(3) = (  0.000000  0.000000  0.269451 )

     PseudoPot. # 1 for Sc read from file:
     /home/users/vossj/suncat/psp/gbrv1.5pbe/Sc.UPF
     MD5 check sum: db30a2753ba66ef00f23801d899b7e7f
     Pseudo is Ultrasoft + core correction, Zval = 11.0
     Generated by new atomic code, or converted to UPF format
     Using radial grid of  849 points,  6 beta functions with:
                l(1) =   0
                l(2) =   0
                l(3) =   1
                l(4) =   1
                l(5) =   2
                l(6) =   2
     Q(r) pseudized with  6 coefficients,  rinner =    1.200   1.200   1.200
                                                       1.200   1.200

     PseudoPot. # 2 for Ga read from file:
     /home/users/vossj/suncat/psp/gbrv1.5pbe/Ga.UPF
     MD5 check sum: ccd671392a58a050fbb373893b4fcd66
     Pseudo is Ultrasoft + core correction, Zval = 19.0
     Generated by new atomic code, or converted to UPF format
     Using radial grid of  871 points,  6 beta functions with:
                l(1) =   0
                l(2) =   0
                l(3) =   1
                l(4) =   1
                l(5) =   2
                l(6) =   2
     Q(r) pseudized with  8 coefficients,  rinner =    1.250   1.250   1.250
                                                       1.250   1.250

     vdW kernel table read from file vdW_kernel_table
     MD5 check sum: 095c7af220d748ca6e76c0b4c6cfb241

     atomic species   valence    mass     pseudopotential
        Sc1           11.00    44.95590     Sc( 1.00)
        Ga1           19.00    69.72300     Ga( 1.00)

     16 Sym. Ops., with inversion, found

   Cartesian axes

     site n.     atom                  positions (alat units)
         1           Sc1 tau(   1) = (   0.0000000   0.0000000   0.0000000  )
         2           Sc1 tau(   2) = (   2.2558014   2.2558014   0.0000000  )
         3           Ga1 tau(   3) = (   2.2558014   0.0000000   1.8556228  )
         4           Ga1 tau(   4) = (   0.0000000   2.2558014   1.8556228  )

     number of k points=    75  Fermi-Dirac smearing, width (Ry)=  0.0073
                       cart. coord. in units 2pi/alat
        k(    1) = (   0.0000000   0.0000000   0.0000000), wk =   0.0027435
        k(    2) = (   0.0000000   0.0000000   0.0299390), wk =   0.0054870
        k(    3) = (   0.0000000   0.0000000   0.0598781), wk =   0.0054870
        k(    4) = (   0.0000000   0.0000000   0.0898171), wk =   0.0054870
        k(    5) = (   0.0000000   0.0000000   0.1197561), wk =   0.0054870
        k(    6) = (   0.0000000   0.0246279   0.0000000), wk =   0.0109739
        k(    7) = (   0.0000000   0.0246279   0.0299390), wk =   0.0219479
        k(    8) = (   0.0000000   0.0246279   0.0598781), wk =   0.0219479
        k(    9) = (   0.0000000   0.0246279   0.0898171), wk =   0.0219479
        k(   10) = (   0.0000000   0.0246279   0.1197561), wk =   0.0219479
        k(   11) = (   0.0000000   0.0492557   0.0000000), wk =   0.0109739
        k(   12) = (   0.0000000   0.0492557   0.0299390), wk =   0.0219479
        k(   13) = (   0.0000000   0.0492557   0.0598781), wk =   0.0219479
        k(   14) = (   0.0000000   0.0492557   0.0898171), wk =   0.0219479
        k(   15) = (   0.0000000   0.0492557   0.1197561), wk =   0.0219479
        k(   16) = (   0.0000000   0.0738836   0.0000000), wk =   0.0109739
        k(   17) = (   0.0000000   0.0738836   0.0299390), wk =   0.0219479
        k(   18) = (   0.0000000   0.0738836   0.0598781), wk =   0.0219479
        k(   19) = (   0.0000000   0.0738836   0.0898171), wk =   0.0219479
        k(   20) = (   0.0000000   0.0738836   0.1197561), wk =   0.0219479
        k(   21) = (   0.0000000   0.0985114   0.0000000), wk =   0.0109739
        k(   22) = (   0.0000000   0.0985114   0.0299390), wk =   0.0219479
        k(   23) = (   0.0000000   0.0985114   0.0598781), wk =   0.0219479
        k(   24) = (   0.0000000   0.0985114   0.0898171), wk =   0.0219479
        k(   25) = (   0.0000000   0.0985114   0.1197561), wk =   0.0219479
        k(   26) = (   0.0246279   0.0246279   0.0000000), wk =   0.0109739
        k(   27) = (   0.0246279   0.0246279   0.0299390), wk =   0.0219479
        k(   28) = (   0.0246279   0.0246279   0.0598781), wk =   0.0219479
        k(   29) = (   0.0246279   0.0246279   0.0898171), wk =   0.0219479
        k(   30) = (   0.0246279   0.0246279   0.1197561), wk =   0.0219479
        k(   31) = (   0.0246279   0.0492557   0.0000000), wk =   0.0219479
        k(   32) = (   0.0246279   0.0492557   0.0299390), wk =   0.0438957
        k(   33) = (   0.0246279   0.0492557   0.0598781), wk =   0.0438957
        k(   34) = (   0.0246279   0.0492557   0.0898171), wk =   0.0438957
        k(   35) = (   0.0246279   0.0492557   0.1197561), wk =   0.0438957
        k(   36) = (   0.0246279   0.0738836   0.0000000), wk =   0.0219479
        k(   37) = (   0.0246279   0.0738836   0.0299390), wk =   0.0438957
        k(   38) = (   0.0246279   0.0738836   0.0598781), wk =   0.0438957
        k(   39) = (   0.0246279   0.0738836   0.0898171), wk =   0.0438957
        k(   40) = (   0.0246279   0.0738836   0.1197561), wk =   0.0438957
        k(   41) = (   0.0246279   0.0985114   0.0000000), wk =   0.0219479
        k(   42) = (   0.0246279   0.0985114   0.0299390), wk =   0.0438957
        k(   43) = (   0.0246279   0.0985114   0.0598781), wk =   0.0438957
        k(   44) = (   0.0246279   0.0985114   0.0898171), wk =   0.0438957
        k(   45) = (   0.0246279   0.0985114   0.1197561), wk =   0.0438957
        k(   46) = (   0.0492557   0.0492557   0.0000000), wk =   0.0109739
        k(   47) = (   0.0492557   0.0492557   0.0299390), wk =   0.0219479
        k(   48) = (   0.0492557   0.0492557   0.0598781), wk =   0.0219479
        k(   49) = (   0.0492557   0.0492557   0.0898171), wk =   0.0219479
        k(   50) = (   0.0492557   0.0492557   0.1197561), wk =   0.0219479
        k(   51) = (   0.0492557   0.0738836   0.0000000), wk =   0.0219479
        k(   52) = (   0.0492557   0.0738836   0.0299390), wk =   0.0438957
        k(   53) = (   0.0492557   0.0738836   0.0598781), wk =   0.0438957
        k(   54) = (   0.0492557   0.0738836   0.0898171), wk =   0.0438957
        k(   55) = (   0.0492557   0.0738836   0.1197561), wk =   0.0438957
        k(   56) = (   0.0492557   0.0985114   0.0000000), wk =   0.0219479
        k(   57) = (   0.0492557   0.0985114   0.0299390), wk =   0.0438957
        k(   58) = (   0.0492557   0.0985114   0.0598781), wk =   0.0438957
        k(   59) = (   0.0492557   0.0985114   0.0898171), wk =   0.0438957
        k(   60) = (   0.0492557   0.0985114   0.1197561), wk =   0.0438957
        k(   61) = (   0.0738836   0.0738836   0.0000000), wk =   0.0109739
        k(   62) = (   0.0738836   0.0738836   0.0299390), wk =   0.0219479
        k(   63) = (   0.0738836   0.0738836   0.0598781), wk =   0.0219479
        k(   64) = (   0.0738836   0.0738836   0.0898171), wk =   0.0219479
        k(   65) = (   0.0738836   0.0738836   0.1197561), wk =   0.0219479
        k(   66) = (   0.0738836   0.0985114   0.0000000), wk =   0.0219479
        k(   67) = (   0.0738836   0.0985114   0.0299390), wk =   0.0438957
        k(   68) = (   0.0738836   0.0985114   0.0598781), wk =   0.0438957
        k(   69) = (   0.0738836   0.0985114   0.0898171), wk =   0.0438957
        k(   70) = (   0.0738836   0.0985114   0.1197561), wk =   0.0438957
        k(   71) = (   0.0985114   0.0985114   0.0000000), wk =   0.0109739
        k(   72) = (   0.0985114   0.0985114   0.0299390), wk =   0.0219479
        k(   73) = (   0.0985114   0.0985114   0.0598781), wk =   0.0219479
        k(   74) = (   0.0985114   0.0985114   0.0898171), wk =   0.0219479
        k(   75) = (   0.0985114   0.0985114   0.1197561), wk =   0.0219479

     Largest allocated arrays     est. size (Mb)     dimensions
     Largest temporary arrays     est. size (Mb)     dimensions

     Initial potential from superposition of free atoms

     starting charge   57.99519, renormalised to   60.00000

     *
     * You are using vdW-DF for exchange-correlation in this calculation.
     * Please cite the following three references that made this development
     * possible:
     *
     *   M. Dion, H. Rydberg, E. Schroder, D. C. Langreth, and
     *   B. I. Lundqvist, Phys. Rev. Lett. 92, 246401 (2004).
     *
     *   T. Thonhauser, V. R. Cooper, S. Li, A. Puzder, P. Hyldgaard, and
     *   D. C. Langreth, Phys. Rev. B 76, 125112 (2007).
     *
     *   G. Roman-Perez and J. M. Soler, Phys. Rev. Lett. 103, 096102 (2009).
     *
     *
     * If you are using vdW-DF2, please also cite:
     *
     *   K. Lee, E. D. Murray, L. Kong, B. I. Lundqvist, and
     *   D. C. Langreth, Phys. Rev. B 82, 081101(R) (2010).
     *
     *
     * If you are calculating the stress with vdW-DF, please also cite:
     *
     *   R. Sabatini, E. Kucukbenli, B. Kolb, T. Thonhauser, and
     *   S. de Gironcoli, J. Phys.: Condens. Matter 24, 424209 (2012).
     *

     Carrying out vdW-DF run using the following parameters:

     Nqs =      20    Nr_points =    1024   r_max =   100.000
     q_mesh =
               0.00001000     0.04494208     0.09755937     0.15916263
               0.23128650     0.31572767     0.41458969     0.53033537
               0.66584808     0.82450364     1.01025438     1.22772762
               1.48234092     1.78043706     2.12944203     2.53805004
               3.01644009     3.57652955     4.23227104     5.00000000

     Gradients computed in reciprocal space

     Starting wfc are   50 randomized atomic wfcs

     Self-consistent Calculation

     iteration #  1     ecut=    58.80 Ry     beta=0.10
     Davidson diagonalization with overlap
     ethr =  1.00E-02,  avg # of iterations =  3.9

     total energy              =   -1023.46853282 Ry
     Harris-Foulkes estimate   =   -1024.72071125 Ry
     estimated scf accuracy    <       7.04039366 Ry

[...]

     total energy              =   -1023.03469171 Ry
     Harris-Foulkes estimate   =   -1023.03469099 Ry
     estimated scf accuracy    <       0.00000351 Ry

     iteration # 13     ecut=    58.80 Ry     beta=0.10
     Davidson diagonalization with overlap
     ethr =  5.85E-09,  avg # of iterations =  2.1

     End of self-consistent calculation

          k = 0.0000 0.0000 0.0000 (  3885 PWs)   bands (ev):

   -82.7123 -82.7123 -82.7117 -82.7117 -82.6952 -82.6951 -37.9898 -37.9371
   -16.6862 -16.6862 -16.5995 -16.5415 -16.4527 -16.4527  -3.1404  -3.1256
    -3.0851  -3.0734  -3.0734  -3.0170  -3.0170  -3.0073  -3.0018  -2.9222
     2.5884   6.8846  10.3956  10.3956  11.2559  11.5357  11.9507  13.0043
    13.0043  13.4045  14.4373  14.4373  14.9741  15.3461  15.7596  16.7406
    16.7406  17.1961  18.2408  19.3985  22.0925  22.0925  22.3221  22.6248
    24.3092  26.1618

[...]

          k = 0.0985 0.0985 0.1198 (  3887 PWs)   bands (ev):

   -82.7123 -82.7123 -82.7117 -82.7117 -82.6953 -82.6952 -37.9600 -37.9584
   -16.7142 -16.7074 -16.6323 -16.6301 -16.4316 -16.4245  -3.0946  -3.0932
    -3.0808  -3.0755  -3.0534  -3.0503  -3.0258  -3.0243  -2.9538  -2.9502
     5.7899   5.9177   9.3479   9.4663  10.0136  10.1827  11.5188  11.6117
    13.7818  13.8004  14.0751  14.1126  14.9087  14.9479  15.7892  15.9408
    17.3365  17.4140  19.3985  19.6700  23.7129  23.8059  24.0247  24.4464
    25.6050  25.6910

     the Fermi energy is    11.8173 ev

!    total energy              =   -1023.03470391 Ry
     Harris-Foulkes estimate   =   -1023.03469257 Ry
     estimated scf accuracy    <       0.00000006 Ry

     The total energy is the sum of the following terms:

     one-electron contribution =    -764.51898656 Ry
     hartree contribution      =     405.63419998 Ry
     xc contribution           =    -127.54369573 Ry
     ewald contribution        =    -536.60052166 Ry
     smearing contrib. (-TS)   =      -0.00569995 Ry

     convergence has been achieved in  13 iterations

     Forces acting on atoms (Ry/au):

     atom    1 type  1   force =     0.00000000    0.00000000    0.00000000
     atom    2 type  1   force =     0.00000000    0.00000000    0.00000000
     atom    3 type  2   force =     0.00000000    0.00000000    0.00000000
     atom    4 type  2   force =     0.00000000    0.00000000    0.00000000

     Total force =     0.000000     Total SCF correction =     0.000000

     General routines

     Parallel routines

   This run was terminated on:   3:23:26  15Nov2017

   JOB DONE.