     Program PWSCF v.5.1rc2 (svn rev. ) starts on 14Nov2017 at 23:59:55

     Current dimensions of program PWSCF are:
     Max number of different atomic species (ntypx) = 10
     Max number of k-points (npk) =  40000
     Max angular momentum in pseudopotentials (lmaxx) =  3

     IMPORTANT: XC functional enforced from input :
     Exchange-correlation      = BEEF-VDW ( 1  4 27 13 2)
     Any further DFT definition will be discarded
     Please, verify this is what you really want

     Subspace diagonalization in iterative solution of the eigenvalue problem:
     a serial algorithm will be used

     Found symmetry operation: I + ( -0.5000 -0.5000  0.0000)
     This is a supercell, fractional translations are disabled

     bravais-lattice index     =            0
     lattice parameter (alat)  =       1.8897  a.u.
     unit-cell volume          =     436.1480 (a.u.)^3
     number of atoms/cell      =            4
     number of atomic types    =            2
     number of electrons       =        68.00
     number of Kohn-Sham states=           54
     kinetic-energy cutoff     =      58.7989  Ry
     charge density cutoff     =     587.9892  Ry
     convergence threshold     =      1.0E-06
     mixing beta               =       0.1000
     number of iterations used =           10  plain     mixing
     Exchange-correlation      = BEEF-VDW ( 1  4 27 13 2)

     celldm(1)=   1.889726  celldm(2)=   0.000000  celldm(3)=   0.000000
     celldm(4)=   0.000000  celldm(5)=   0.000000  celldm(6)=   0.000000

     crystal axes: (cart. coord. in units of alat)
               a(1) = (   3.738697   0.000000   0.000000 )
               a(2) = (   0.000000   3.738697   0.000000 )
               a(3) = (   0.000000   0.000000   4.623775 )

     reciprocal axes: (cart. coord. in units 2 pi/alat)
               b(1) = (  0.267473  0.000000  0.000000 )
               b(2) = (  0.000000  0.267473  0.000000 )
               b(3) = (  0.000000  0.000000  0.216274 )

     PseudoPot. # 1 for Tc read from file:
     /home/vossj/suncat/psp/gbrv1.5pbe/Tc.UPF
     MD5 check sum: 9eb49e5b028550b2339a02317eb7b844
     Pseudo is Ultrasoft + core correction, Zval = 15.0
     Generated by new atomic code, or converted to UPF format
     Using radial grid of  965 points,  6 beta functions with:
                l(1) =   0
                l(2) =   0
                l(3) =   1
                l(4) =   1
                l(5) =   2
                l(6) =   2
     Q(r) pseudized with  8 coefficients,  rinner =    1.300   1.300   1.300
                                                       1.300   1.300

     PseudoPot. # 2 for Ag read from file:
     /home/vossj/suncat/psp/gbrv1.5pbe/Ag.UPF
     MD5 check sum: d66d668201baa78d5eb5b04ef7011058
     Pseudo is Ultrasoft + core correction, Zval = 19.0
     Generated by new atomic code, or converted to UPF format
     Using radial grid of  887 points,  6 beta functions with:
                l(1) =   0
                l(2) =   0
                l(3) =   1
                l(4) =   1
                l(5) =   2
                l(6) =   2
     Q(r) pseudized with  6 coefficients,  rinner =    1.300   1.300   1.300
                                                       1.300   1.300

     vdW kernel table read from file vdW_kernel_table
     MD5 check sum: 095c7af220d748ca6e76c0b4c6cfb241

     atomic species   valence    mass     pseudopotential
        Tc1           15.00    97.90721     Tc( 1.00)
        Ag1           19.00   107.86820     Ag( 1.00)

     16 Sym. Ops., with inversion, found

   Cartesian axes

     site n.     atom                  positions (alat units)
         1           Tc1 tau(   1) = (   0.0000000   0.0000000   0.0000000  )
         2           Tc1 tau(   2) = (   1.8693486   1.8693486   0.0000000  )
         3           Ag1 tau(   3) = (   1.8693486   0.0000000   2.3118874  )
         4           Ag1 tau(   4) = (   0.0000000   1.8693486   2.3118874  )

     number of k points=    75  Fermi-Dirac smearing, width (Ry)=  0.0073
                       cart. coord. in units 2pi/alat
        k(    1) = (   0.0000000   0.0000000   0.0000000), wk =   0.0027435
        k(    2) = (   0.0000000   0.0000000   0.0240304), wk =   0.0054870
        k(    3) = (   0.0000000   0.0000000   0.0480608), wk =   0.0054870
        k(    4) = (   0.0000000   0.0000000   0.0720912), wk =   0.0054870
        k(    5) = (   0.0000000   0.0000000   0.0961216), wk =   0.0054870
        k(    6) = (   0.0000000   0.0297192   0.0000000), wk =   0.0109739
        k(    7) = (   0.0000000   0.0297192   0.0240304), wk =   0.0219479
        k(    8) = (   0.0000000   0.0297192   0.0480608), wk =   0.0219479
        k(    9) = (   0.0000000   0.0297192   0.0720912), wk =   0.0219479
        k(   10) = (   0.0000000   0.0297192   0.0961216), wk =   0.0219479
        k(   11) = (   0.0000000   0.0594384   0.0000000), wk =   0.0109739
        k(   12) = (   0.0000000   0.0594384   0.0240304), wk =   0.0219479
        k(   13) = (   0.0000000   0.0594384   0.0480608), wk =   0.0219479
        k(   14) = (   0.0000000   0.0594384   0.0720912), wk =   0.0219479
        k(   15) = (   0.0000000   0.0594384   0.0961216), wk =   0.0219479
        k(   16) = (   0.0000000   0.0891576   0.0000000), wk =   0.0109739
        k(   17) = (   0.0000000   0.0891576   0.0240304), wk =   0.0219479
        k(   18) = (   0.0000000   0.0891576   0.0480608), wk =   0.0219479
        k(   19) = (   0.0000000   0.0891576   0.0720912), wk =   0.0219479
        k(   20) = (   0.0000000   0.0891576   0.0961216), wk =   0.0219479
        k(   21) = (   0.0000000   0.1188768   0.0000000), wk =   0.0109739
        k(   22) = (   0.0000000   0.1188768   0.0240304), wk =   0.0219479
        k(   23) = (   0.0000000   0.1188768   0.0480608), wk =   0.0219479
        k(   24) = (   0.0000000   0.1188768   0.0720912), wk =   0.0219479
        k(   25) = (   0.0000000   0.1188768   0.0961216), wk =   0.0219479
        k(   26) = (   0.0297192   0.0297192   0.0000000), wk =   0.0109739
        k(   27) = (   0.0297192   0.0297192   0.0240304), wk =   0.0219479
        k(   28) = (   0.0297192   0.0297192   0.0480608), wk =   0.0219479
        k(   29) = (   0.0297192   0.0297192   0.0720912), wk =   0.0219479
        k(   30) = (   0.0297192   0.0297192   0.0961216), wk =   0.0219479
        k(   31) = (   0.0297192   0.0594384   0.0000000), wk =   0.0219479
        k(   32) = (   0.0297192   0.0594384   0.0240304), wk =   0.0438957
        k(   33) = (   0.0297192   0.0594384   0.0480608), wk =   0.0438957
        k(   34) = (   0.0297192   0.0594384   0.0720912), wk =   0.0438957
        k(   35) = (   0.0297192   0.0594384   0.0961216), wk =   0.0438957
        k(   36) = (   0.0297192   0.0891576   0.0000000), wk =   0.0219479
        k(   37) = (   0.0297192   0.0891576   0.0240304), wk =   0.0438957
        k(   38) = (   0.0297192   0.0891576   0.0480608), wk =   0.0438957
        k(   39) = (   0.0297192   0.0891576   0.0720912), wk =   0.0438957
        k(   40) = (   0.0297192   0.0891576   0.0961216), wk =   0.0438957
        k(   41) = (   0.0297192   0.1188768   0.0000000), wk =   0.0219479
        k(   42) = (   0.0297192   0.1188768   0.0240304), wk =   0.0438957
        k(   43) = (   0.0297192   0.1188768   0.0480608), wk =   0.0438957
        k(   44) = (   0.0297192   0.1188768   0.0720912), wk =   0.0438957
        k(   45) = (   0.0297192   0.1188768   0.0961216), wk =   0.0438957
        k(   46) = (   0.0594384   0.0594384   0.0000000), wk =   0.0109739
        k(   47) = (   0.0594384   0.0594384   0.0240304), wk =   0.0219479
        k(   48) = (   0.0594384   0.0594384   0.0480608), wk =   0.0219479
        k(   49) = (   0.0594384   0.0594384   0.0720912), wk =   0.0219479
        k(   50) = (   0.0594384   0.0594384   0.0961216), wk =   0.0219479
        k(   51) = (   0.0594384   0.0891576   0.0000000), wk =   0.0219479
        k(   52) = (   0.0594384   0.0891576   0.0240304), wk =   0.0438957
        k(   53) = (   0.0594384   0.0891576   0.0480608), wk =   0.0438957
        k(   54) = (   0.0594384   0.0891576   0.0720912), wk =   0.0438957
        k(   55) = (   0.0594384   0.0891576   0.0961216), wk =   0.0438957
        k(   56) = (   0.0594384   0.1188768   0.0000000), wk =   0.0219479
        k(   57) = (   0.0594384   0.1188768   0.0240304), wk =   0.0438957
        k(   58) = (   0.0594384   0.1188768   0.0480608), wk =   0.0438957
        k(   59) = (   0.0594384   0.1188768   0.0720912), wk =   0.0438957
        k(   60) = (   0.0594384   0.1188768   0.0961216), wk =   0.0438957
        k(   61) = (   0.0891576   0.0891576   0.0000000), wk =   0.0109739
        k(   62) = (   0.0891576   0.0891576   0.0240304), wk =   0.0219479
        k(   63) = (   0.0891576   0.0891576   0.0480608), wk =   0.0219479
        k(   64) = (   0.0891576   0.0891576   0.0720912), wk =   0.0219479
        k(   65) = (   0.0891576   0.0891576   0.0961216), wk =   0.0219479
        k(   66) = (   0.0891576   0.1188768   0.0000000), wk =   0.0219479
        k(   67) = (   0.0891576   0.1188768   0.0240304), wk =   0.0438957
        k(   68) = (   0.0891576   0.1188768   0.0480608), wk =   0.0438957
        k(   69) = (   0.0891576   0.1188768   0.0720912), wk =   0.0438957
        k(   70) = (   0.0891576   0.1188768   0.0961216), wk =   0.0438957
        k(   71) = (   0.1188768   0.1188768   0.0000000), wk =   0.0109739
        k(   72) = (   0.1188768   0.1188768   0.0240304), wk =   0.0219479
        k(   73) = (   0.1188768   0.1188768   0.0480608), wk =   0.0219479
        k(   74) = (   0.1188768   0.1188768   0.0720912), wk =   0.0219479
        k(   75) = (   0.1188768   0.1188768   0.0961216), wk =   0.0219479

     Largest allocated arrays     est. size (Mb)     dimensions
     Largest temporary arrays     est. size (Mb)     dimensions

     Check: negative/imaginary core charge=   -0.000007    0.000000

     Initial potential from superposition of free atoms
     Check: negative starting charge=   -0.250047

     starting charge   64.99985, renormalised to   68.00000

     negative rho (up, down):  2.616E-01 0.000E+00

     *
     * You are using vdW-DF for exchange-correlation in this calculation.
     * Please cite the following three references that made this development
     * possible:
     *
     *   M. Dion, H. Rydberg, E. Schroder, D. C. Langreth, and
     *   B. I. Lundqvist, Phys. Rev. Lett. 92, 246401 (2004).
     *
     *   T. Thonhauser, V. R. Cooper, S. Li, A. Puzder, P. Hyldgaard, and
     *   D. C. Langreth, Phys. Rev. B 76, 125112 (2007).
     *
     *   G. Roman-Perez and J. M. Soler, Phys. Rev. Lett. 103, 096102 (2009).
     *
     *
     * If you are using vdW-DF2, please also cite:
     *
     *   K. Lee, E. D. Murray, L. Kong, B. I. Lundqvist, and
     *   D. C. Langreth, Phys. Rev. B 82, 081101(R) (2010).
     *
     *
     * If you are calculating the stress with vdW-DF, please also cite:
     *
     *   R. Sabatini, E. Kucukbenli, B. Kolb, T. Thonhauser, and
     *   S. de Gironcoli, J. Phys.: Condens. Matter 24, 424209 (2012).
     *

     Carrying out vdW-DF run using the following parameters:

     Nqs =      20    Nr_points =    1024   r_max =   100.000
     q_mesh =
               0.00001000     0.04494208     0.09755937     0.15916263
               0.23128650     0.31572767     0.41458969     0.53033537
               0.66584808     0.82450364     1.01025438     1.22772762
               1.48234092     1.78043706     2.12944203     2.53805004
               3.01644009     3.57652955     4.23227104     5.00000000

     Gradients computed in reciprocal space

     Starting wfc are   52 randomized atomic wfcs +    2 random wfc

     Self-consistent Calculation

     iteration #  1     ecut=    58.80 Ry     beta=0.10
     Davidson diagonalization with overlap
     ethr =  1.00E-02,  avg # of iterations =  4.4

[...]

     total energy              =    -940.70021070 Ry
     Harris-Foulkes estimate   =    -947.56868477 Ry
     estimated scf accuracy    <      38.26851116 Ry

[...]

     total energy              =    -943.83492193 Ry
     Harris-Foulkes estimate   =    -943.83492550 Ry
     estimated scf accuracy    <       0.00000971 Ry

     iteration # 15     ecut=    58.80 Ry     beta=0.10
     Davidson diagonalization with overlap
     ethr =  1.22E-08,  avg # of iterations =  2.0

     negative rho (up, down):  2.575E-01 0.000E+00

     End of self-consistent calculation

          k = 0.0000 0.0000 0.0000 (  3317 PWs)   bands (ev):

   -73.3917 -73.3519 -48.2097 -48.0058 -36.9730 -36.9730 -36.8566 -36.8130
   -36.7686 -36.7686 -20.5006 -20.5006 -20.1624 -19.9719 -19.7484 -19.7484
    11.4406  12.2234  12.4477  12.6617  13.0443  13.0443  13.2415  15.0338
    15.0338  15.2183  15.8493  16.1285  16.5930  16.7792  18.2170  18.2170
    19.2180  19.8607  20.1339  20.1339  21.2245  22.8565  22.8565  22.9098
    25.6108  28.2463  29.7484  30.4340  30.7555  30.7555  30.8799  33.2797
    33.2797  34.7465  35.6339  38.0401  38.0401  38.4635

[...]

          k = 0.1189 0.1189 0.0961 (  3316 PWs)   bands (ev):

   -73.3723 -73.3711 -48.1095 -48.1033 -36.9961 -36.9900 -36.8352 -36.8339
   -36.7568 -36.7506 -20.6089 -20.5873 -20.0683 -20.0625 -19.6978 -19.6741
    12.6777  12.6836  12.8406  12.9305  13.7265  13.7413  14.5754  14.7090
    15.2045  15.2624  15.9783  16.1434  17.0939  17.3292  18.4656  18.7072
    18.7333  19.1220  19.6100  20.0967  20.1666  20.3129  20.4079  20.5949
    24.9403  25.2428  27.2713  27.4988  31.6999  31.8062  32.7589  32.9650
    37.2053  37.4724  38.3101  38.6327  38.7313  40.7528

     the Fermi energy is    19.0729 ev

!    total energy              =    -943.83492912 Ry
     Harris-Foulkes estimate   =    -943.83492383 Ry
     estimated scf accuracy    <       0.00000036 Ry

     The total energy is the sum of the following terms:

     one-electron contribution =    -313.57581443 Ry
     hartree contribution      =     197.42429669 Ry
     xc contribution           =    -126.47256353 Ry
     ewald contribution        =    -701.20348423 Ry
     smearing contrib. (-TS)   =      -0.00736362 Ry

     convergence has been achieved in  15 iterations

     Forces acting on atoms (Ry/au):

     negative rho (up, down):  2.575E-01 0.000E+00
     atom    1 type  1   force =     0.00000000    0.00000000    0.00000000
     atom    2 type  1   force =     0.00000000    0.00000000    0.00000000
     atom    3 type  2   force =     0.00000000    0.00000000    0.00000000
     atom    4 type  2   force =     0.00000000    0.00000000    0.00000000

     Total force =     0.000000     Total SCF correction =     0.000000

     General routines

     Parallel routines

   This run was terminated on:   0: 1: 0  15Nov2017

   JOB DONE.