     Program PWSCF v.5.1rc2 starts on 13Nov2017 at 16:12:38

     Current dimensions of program PWSCF are:
     Max number of different atomic species (ntypx) = 10
     Max number of k-points (npk) =  40000
     Max angular momentum in pseudopotentials (lmaxx) =  3

     IMPORTANT: XC functional enforced from input :
     Exchange-correlation      = BEEF-VDW ( 1  4 27 13 2)
     Any further DFT definition will be discarded
     Please, verify this is what you really want

     Found symmetry operation: I + ( -0.5000 -0.5000  0.0000)
     This is a supercell, fractional translations are disabled

     bravais-lattice index     =            0
     lattice parameter (alat)  =       1.8897  a.u.
     unit-cell volume          =     460.8677 (a.u.)^3
     number of atoms/cell      =            4
     number of atomic types    =            2
     number of electrons       =        70.00
     number of Kohn-Sham states=           55
     kinetic-energy cutoff     =      58.7989  Ry
     charge density cutoff     =     587.9892  Ry
     convergence threshold     =      1.0E-06
     mixing beta               =       0.1000
     number of iterations used =           10  plain     mixing
     Exchange-correlation      = BEEF-VDW ( 1  4 27 13 2)

     celldm(1)=   1.889726  celldm(2)=   0.000000  celldm(3)=   0.000000
     celldm(4)=   0.000000  celldm(5)=   0.000000  celldm(6)=   0.000000

     crystal axes: (cart. coord. in units of alat)
               a(1) = (   3.980818   0.000000   0.000000 )
               a(2) = (   0.000000   3.980818   0.000000 )
               a(3) = (   0.000000   0.000000   4.309580 )

     reciprocal axes: (cart. coord. in units 2 pi/alat)
               b(1) = (  0.251205  0.000000  0.000000 )
               b(2) = (  0.000000  0.251205  0.000000 )
               b(3) = (  0.000000  0.000000  0.232041 )

     PseudoPot. # 1 for Ag read from file:
     /home/users/vossj/suncat/psp/gbrv1.5pbe/Ag.UPF
     MD5 check sum: d66d668201baa78d5eb5b04ef7011058
     Pseudo is Ultrasoft + core correction, Zval = 19.0
     Generated by new atomic code, or converted to UPF format
     Using radial grid of  887 points,  6 beta functions with:
                l(1) =   0
                l(2) =   0
                l(3) =   1
                l(4) =   1
                l(5) =   2
                l(6) =   2
     Q(r) pseudized with  6 coefficients,  rinner =    1.300   1.300   1.300
                                                       1.300   1.300

     PseudoPot. # 2 for Pt read from file:
     /home/users/vossj/suncat/psp/gbrv1.5pbe/Pt.UPF
     MD5 check sum: f09d6de1a584b5a045c4fc126da2d0c4
     Pseudo is Ultrasoft + core correction, Zval = 16.0
     Generated by new atomic code, or converted to UPF format
     Using radial grid of  985 points,  6 beta functions with:
                l(1) =   0
                l(2) =   0
                l(3) =   1
                l(4) =   1
                l(5) =   2
                l(6) =   2
     Q(r) pseudized with  8 coefficients,  rinner =    1.300   1.300   1.300
                                                       1.300   1.300

     vdW kernel table read from file vdW_kernel_table
     MD5 check sum: 095c7af220d748ca6e76c0b4c6cfb241

     atomic species   valence    mass     pseudopotential
        Ag1           19.00   107.86800     Ag( 1.00)
        Pt1           16.00   195.08000     Pt( 1.00)

     16 Sym. Ops., with inversion, found

   Cartesian axes

     site n.     atom                  positions (alat units)
         1           Ag1 tau(   1) = (   0.0000000   0.0000000   0.0000000  )
         2           Ag1 tau(   2) = (   1.9904092   1.9904092   0.0000000  )
         3           Pt1 tau(   3) = (   1.9904092   0.0000000   2.1547900  )
         4           Pt1 tau(   4) = (   0.0000000   1.9904092   2.1547900  )

     number of k points=    75  Fermi-Dirac smearing, width (Ry)=  0.0073
                       cart. coord. in units 2pi/alat
        k(    1) = (   0.0000000   0.0000000   0.0000000), wk =   0.0027435
        k(    2) = (   0.0000000   0.0000000   0.0257824), wk =   0.0054870
        k(    3) = (   0.0000000   0.0000000   0.0515647), wk =   0.0054870
        k(    4) = (   0.0000000   0.0000000   0.0773471), wk =   0.0054870
        k(    5) = (   0.0000000   0.0000000   0.1031294), wk =   0.0054870
        k(    6) = (   0.0000000   0.0279116   0.0000000), wk =   0.0109739
        k(    7) = (   0.0000000   0.0279116   0.0257824), wk =   0.0219479
        k(    8) = (   0.0000000   0.0279116   0.0515647), wk =   0.0219479
        k(    9) = (   0.0000000   0.0279116   0.0773471), wk =   0.0219479
        k(   10) = (   0.0000000   0.0279116   0.1031294), wk =   0.0219479
        k(   11) = (   0.0000000   0.0558233   0.0000000), wk =   0.0109739
        k(   12) = (   0.0000000   0.0558233   0.0257824), wk =   0.0219479
        k(   13) = (   0.0000000   0.0558233   0.0515647), wk =   0.0219479
        k(   14) = (   0.0000000   0.0558233   0.0773471), wk =   0.0219479
        k(   15) = (   0.0000000   0.0558233   0.1031294), wk =   0.0219479
        k(   16) = (   0.0000000   0.0837349   0.0000000), wk =   0.0109739
        k(   17) = (   0.0000000   0.0837349   0.0257824), wk =   0.0219479
        k(   18) = (   0.0000000   0.0837349   0.0515647), wk =   0.0219479
        k(   19) = (   0.0000000   0.0837349   0.0773471), wk =   0.0219479
        k(   20) = (   0.0000000   0.0837349   0.1031294), wk =   0.0219479
        k(   21) = (   0.0000000   0.1116465   0.0000000), wk =   0.0109739
        k(   22) = (   0.0000000   0.1116465   0.0257824), wk =   0.0219479
        k(   23) = (   0.0000000   0.1116465   0.0515647), wk =   0.0219479
        k(   24) = (   0.0000000   0.1116465   0.0773471), wk =   0.0219479
        k(   25) = (   0.0000000   0.1116465   0.1031294), wk =   0.0219479
        k(   26) = (   0.0279116   0.0279116   0.0000000), wk =   0.0109739
        k(   27) = (   0.0279116   0.0279116   0.0257824), wk =   0.0219479
        k(   28) = (   0.0279116   0.0279116   0.0515647), wk =   0.0219479
        k(   29) = (   0.0279116   0.0279116   0.0773471), wk =   0.0219479
        k(   30) = (   0.0279116   0.0279116   0.1031294), wk =   0.0219479
        k(   31) = (   0.0279116   0.0558233   0.0000000), wk =   0.0219479
        k(   32) = (   0.0279116   0.0558233   0.0257824), wk =   0.0438957
        k(   33) = (   0.0279116   0.0558233   0.0515647), wk =   0.0438957
        k(   34) = (   0.0279116   0.0558233   0.0773471), wk =   0.0438957
        k(   35) = (   0.0279116   0.0558233   0.1031294), wk =   0.0438957
        k(   36) = (   0.0279116   0.0837349   0.0000000), wk =   0.0219479
        k(   37) = (   0.0279116   0.0837349   0.0257824), wk =   0.0438957
        k(   38) = (   0.0279116   0.0837349   0.0515647), wk =   0.0438957
        k(   39) = (   0.0279116   0.0837349   0.0773471), wk =   0.0438957
        k(   40) = (   0.0279116   0.0837349   0.1031294), wk =   0.0438957
        k(   41) = (   0.0279116   0.1116465   0.0000000), wk =   0.0219479
        k(   42) = (   0.0279116   0.1116465   0.0257824), wk =   0.0438957
        k(   43) = (   0.0279116   0.1116465   0.0515647), wk =   0.0438957
        k(   44) = (   0.0279116   0.1116465   0.0773471), wk =   0.0438957
        k(   45) = (   0.0279116   0.1116465   0.1031294), wk =   0.0438957
        k(   46) = (   0.0558233   0.0558233   0.0000000), wk =   0.0109739
        k(   47) = (   0.0558233   0.0558233   0.0257824), wk =   0.0219479
        k(   48) = (   0.0558233   0.0558233   0.0515647), wk =   0.0219479
        k(   49) = (   0.0558233   0.0558233   0.0773471), wk =   0.0219479
        k(   50) = (   0.0558233   0.0558233   0.1031294), wk =   0.0219479
        k(   51) = (   0.0558233   0.0837349   0.0000000), wk =   0.0219479
        k(   52) = (   0.0558233   0.0837349   0.0257824), wk =   0.0438957
        k(   53) = (   0.0558233   0.0837349   0.0515647), wk =   0.0438957
        k(   54) = (   0.0558233   0.0837349   0.0773471), wk =   0.0438957
        k(   55) = (   0.0558233   0.0837349   0.1031294), wk =   0.0438957
        k(   56) = (   0.0558233   0.1116465   0.0000000), wk =   0.0219479
        k(   57) = (   0.0558233   0.1116465   0.0257824), wk =   0.0438957
        k(   58) = (   0.0558233   0.1116465   0.0515647), wk =   0.0438957
        k(   59) = (   0.0558233   0.1116465   0.0773471), wk =   0.0438957
        k(   60) = (   0.0558233   0.1116465   0.1031294), wk =   0.0438957
        k(   61) = (   0.0837349   0.0837349   0.0000000), wk =   0.0109739
        k(   62) = (   0.0837349   0.0837349   0.0257824), wk =   0.0219479
        k(   63) = (   0.0837349   0.0837349   0.0515647), wk =   0.0219479
        k(   64) = (   0.0837349   0.0837349   0.0773471), wk =   0.0219479
        k(   65) = (   0.0837349   0.0837349   0.1031294), wk =   0.0219479
        k(   66) = (   0.0837349   0.1116465   0.0000000), wk =   0.0219479
        k(   67) = (   0.0837349   0.1116465   0.0257824), wk =   0.0438957
        k(   68) = (   0.0837349   0.1116465   0.0515647), wk =   0.0438957
        k(   69) = (   0.0837349   0.1116465   0.0773471), wk =   0.0438957
        k(   70) = (   0.0837349   0.1116465   0.1031294), wk =   0.0438957
        k(   71) = (   0.1116465   0.1116465   0.0000000), wk =   0.0109739
        k(   72) = (   0.1116465   0.1116465   0.0257824), wk =   0.0219479
        k(   73) = (   0.1116465   0.1116465   0.0515647), wk =   0.0219479
        k(   74) = (   0.1116465   0.1116465   0.0773471), wk =   0.0219479
        k(   75) = (   0.1116465   0.1116465   0.1031294), wk =   0.0219479

     Largest allocated arrays     est. size (Mb)     dimensions
     Largest temporary arrays     est. size (Mb)     dimensions

     Initial potential from superposition of free atoms
     Check: negative starting charge=   -0.368442

     starting charge   67.99988, renormalised to   70.00000

     negative rho (up, down):  3.793E-01 0.000E+00

     *
     * You are using vdW-DF for exchange-correlation in this calculation.
     * Please cite the following three references that made this development
     * possible:
     *
     *   M. Dion, H. Rydberg, E. Schroder, D. C. Langreth, and
     *   B. I. Lundqvist, Phys. Rev. Lett. 92, 246401 (2004).
     *
     *   T. Thonhauser, V. R. Cooper, S. Li, A. Puzder, P. Hyldgaard, and
     *   D. C. Langreth, Phys. Rev. B 76, 125112 (2007).
     *
     *   G. Roman-Perez and J. M. Soler, Phys. Rev. Lett. 103, 096102 (2009).
     *
     *
     * If you are using vdW-DF2, please also cite:
     *
     *   K. Lee, E. D. Murray, L. Kong, B. I. Lundqvist, and
     *   D. C. Langreth, Phys. Rev. B 82, 081101(R) (2010).
     *
     *
     * If you are calculating the stress with vdW-DF, please also cite:
     *
     *   R. Sabatini, E. Kucukbenli, B. Kolb, T. Thonhauser, and
     *   S. de Gironcoli, J. Phys.: Condens. Matter 24, 424209 (2012).
     *

     Carrying out vdW-DF run using the following parameters:

     Nqs =      20    Nr_points =    1024   r_max =   100.000
     q_mesh =
               0.00001000     0.04494208     0.09755937     0.15916263
               0.23128650     0.31572767     0.41458969     0.53033537
               0.66584808     0.82450364     1.01025438     1.22772762
               1.48234092     1.78043706     2.12944203     2.53805004
               3.01644009     3.57652955     4.23227104     5.00000000

     Gradients computed in reciprocal space

     Starting wfc are   50 randomized atomic wfcs +    5 random wfc

     Self-consistent Calculation

     iteration #  1     ecut=    58.80 Ry     beta=0.10
     Davidson diagonalization with overlap
     ethr =  1.00E-02,  avg # of iterations =  4.7

[...]

     total energy              =   -1018.48798598 Ry
     Harris-Foulkes estimate   =   -1019.03897417 Ry
     estimated scf accuracy    <       3.53273466 Ry

[...]

     total energy              =   -1018.08601910 Ry
     Harris-Foulkes estimate   =   -1018.08601543 Ry
     estimated scf accuracy    <       0.00000391 Ry

     iteration # 12     ecut=    58.80 Ry     beta=0.10
     Davidson diagonalization with overlap
     ethr =  5.58E-09,  avg # of iterations =  1.0

     negative rho (up, down):  3.551E-01 0.000E+00

     End of self-consistent calculation

          k = 0.0000 0.0000 0.0000 (  3503 PWs)   bands (ev):

   -74.1399 -74.1233 -37.6900 -37.6900 -37.6089 -37.5872 -37.5872 -37.5865
   -34.5292 -34.5292 -34.3444 -34.3444 -34.3072 -34.2725   9.7691  11.6048
    11.7913  11.9049  12.0779  12.0779  12.0898  13.7797  13.8083  13.8083
    14.6155  15.0471  15.3422  15.5356  16.5606  16.5606  17.1511  17.2171
    17.2171  17.5479  18.6926  19.1221  20.4287  20.4287  24.2004  25.3343
    26.9325  28.1377  28.6669  28.6669  28.9763  29.9681  29.9681  33.8286
    34.6707  36.4595  36.7302  36.8171  36.9654  36.9654  37.6683

[...]

          k = 0.1116 0.1116 0.1031 (  3514 PWs)   bands (ev):

   -74.1318 -74.1313 -37.7013 -37.6982 -37.5985 -37.5978 -37.5813 -37.5782
   -34.5479 -34.5424 -34.3344 -34.3288 -34.2907 -34.2895  11.5717  11.5999
    12.0278  12.0727  13.1312  13.1525  13.5706  13.6542  13.9228  13.9645
    14.2012  14.2950  15.5145  15.6420  16.1945  16.5042  16.6932  16.9452
    17.1616  17.2584  17.4805  18.2976  18.3775  18.4930  22.0662  22.4278
    23.2042  23.5781  32.5260  32.6545  32.8669  32.9470  35.1266  35.3611
    35.8081  36.1991  36.2395  36.6332  37.2425  37.5891  40.5884

     the Fermi energy is    17.4985 ev

!    total energy              =   -1018.08603756 Ry
     Harris-Foulkes estimate   =   -1018.08601929 Ry
     estimated scf accuracy    <       0.00000078 Ry

     The total energy is the sum of the following terms:

     one-electron contribution =    -315.98286232 Ry
     hartree contribution      =     204.93063386 Ry
     xc contribution           =    -177.58997452 Ry
     ewald contribution        =    -729.43762897 Ry
     smearing contrib. (-TS)   =      -0.00620560 Ry

     convergence has been achieved in  12 iterations

     Forces acting on atoms (Ry/au):

     negative rho (up, down):  3.551E-01 0.000E+00
     atom    1 type  1   force =     0.00000000    0.00000000    0.00000000
     atom    2 type  1   force =     0.00000000    0.00000000    0.00000000
     atom    3 type  2   force =     0.00000000    0.00000000    0.00000000
     atom    4 type  2   force =     0.00000000    0.00000000    0.00000000

     Total force =     0.000000     Total SCF correction =     0.000000

     General routines

     Parallel routines

   This run was terminated on:  16:13:23  13Nov2017

   JOB DONE.