     Program PWSCF v.5.1rc2 starts on 13Nov2017 at 17:33:35

     Current dimensions of program PWSCF are:
     Max number of different atomic species (ntypx) = 10
     Max number of k-points (npk) =  40000
     Max angular momentum in pseudopotentials (lmaxx) =  3

     IMPORTANT: XC functional enforced from input :
     Exchange-correlation      = BEEF-VDW ( 1  4 27 13 2)
     Any further DFT definition will be discarded
     Please, verify this is what you really want

     Found symmetry operation: I + (  0.5000  0.5000  0.0000)
     This is a supercell, fractional translations are disabled

     bravais-lattice index     =            0
     lattice parameter (alat)  =       1.8897  a.u.
     unit-cell volume          =     367.6653 (a.u.)^3
     number of atoms/cell      =            4
     number of atomic types    =            2
     number of electrons       =        44.00
     number of Kohn-Sham states=           42
     kinetic-energy cutoff     =      58.7989  Ry
     charge density cutoff     =     587.9892  Ry
     convergence threshold     =      1.0E-06
     mixing beta               =       0.1000
     number of iterations used =           10  plain     mixing
     Exchange-correlation      = BEEF-VDW ( 1  4 27 13 2)

     celldm(1)=   1.889726  celldm(2)=   0.000000  celldm(3)=   0.000000
     celldm(4)=   0.000000  celldm(5)=   0.000000  celldm(6)=   0.000000

     crystal axes: (cart. coord. in units of alat)
               a(1) = (   3.971166   0.000000   0.000000 )
               a(2) = (   0.000000   3.971166   0.000000 )
               a(3) = (   0.000000   0.000000   3.454777 )

     reciprocal axes: (cart. coord. in units 2 pi/alat)
               b(1) = (  0.251815  0.000000  0.000000 )
               b(2) = (  0.000000  0.251815  0.000000 )
               b(3) = (  0.000000  0.000000  0.289454 )

     PseudoPot. # 1 for Al read from file:
     /home/users/vossj/suncat/psp/gbrv1.5pbe/Al.UPF
     MD5 check sum: 0a6289f5291fc8f409219462bc851e1f
     Pseudo is Ultrasoft + core correction, Zval =  3.0
     Generated by new atomic code, or converted to UPF format
     Using radial grid of  893 points,  3 beta functions with:
                l(1) =   0
                l(2) =   1
                l(3) =   2
     Q(r) pseudized with  8 coefficients,  rinner =    0.900   0.900   0.900
                                                       0.900   0.900

     PseudoPot. # 2 for Cu read from file:
     /home/users/vossj/suncat/psp/gbrv1.5pbe/Cu.UPF
     MD5 check sum: 6e991ff952a84172a2a52a1c1e996048
     Pseudo is Ultrasoft + core correction, Zval = 19.0
     Generated by new atomic code, or converted to UPF format
     Using radial grid of  867 points,  6 beta functions with:
                l(1) =   0
                l(2) =   0
                l(3) =   1
                l(4) =   1
                l(5) =   2
                l(6) =   2
     Q(r) pseudized with  8 coefficients,  rinner =    1.150   1.150   1.150
                                                       1.150   1.150

     vdW kernel table read from file vdW_kernel_table
     MD5 check sum: 095c7af220d748ca6e76c0b4c6cfb241

     atomic species   valence    mass     pseudopotential
        Al1            3.00    26.98154     Al( 1.00)
        Cu1           19.00    63.54600     Cu( 1.00)

     16 Sym. Ops., with inversion, found

   Cartesian axes

     site n.     atom                  positions (alat units)
         1           Al1 tau(   1) = (   0.0000000   0.0000000   0.0000000  )
         2           Al1 tau(   2) = (   1.9855828   1.9855828   0.0000000  )
         3           Cu1 tau(   3) = (   1.9855828   0.0000000   1.7273885  )
         4           Cu1 tau(   4) = (   0.0000000   1.9855828   1.7273885  )

     number of k points=    75  Fermi-Dirac smearing, width (Ry)=  0.0073
                       cart. coord. in units 2pi/alat
        k(    1) = (   0.0000000   0.0000000   0.0000000), wk =   0.0027435
        k(    2) = (   0.0000000   0.0000000   0.0321616), wk =   0.0054870
        k(    3) = (   0.0000000   0.0000000   0.0643232), wk =   0.0054870
        k(    4) = (   0.0000000   0.0000000   0.0964848), wk =   0.0054870
        k(    5) = (   0.0000000   0.0000000   0.1286463), wk =   0.0054870
        k(    6) = (   0.0000000   0.0279795   0.0000000), wk =   0.0109739
        k(    7) = (   0.0000000   0.0279795   0.0321616), wk =   0.0219479
        k(    8) = (   0.0000000   0.0279795   0.0643232), wk =   0.0219479
        k(    9) = (   0.0000000   0.0279795   0.0964848), wk =   0.0219479
        k(   10) = (   0.0000000   0.0279795   0.1286463), wk =   0.0219479
        k(   11) = (   0.0000000   0.0559589   0.0000000), wk =   0.0109739
        k(   12) = (   0.0000000   0.0559589   0.0321616), wk =   0.0219479
        k(   13) = (   0.0000000   0.0559589   0.0643232), wk =   0.0219479
        k(   14) = (   0.0000000   0.0559589   0.0964848), wk =   0.0219479
        k(   15) = (   0.0000000   0.0559589   0.1286463), wk =   0.0219479
        k(   16) = (   0.0000000   0.0839384   0.0000000), wk =   0.0109739
        k(   17) = (   0.0000000   0.0839384   0.0321616), wk =   0.0219479
        k(   18) = (   0.0000000   0.0839384   0.0643232), wk =   0.0219479
        k(   19) = (   0.0000000   0.0839384   0.0964848), wk =   0.0219479
        k(   20) = (   0.0000000   0.0839384   0.1286463), wk =   0.0219479
        k(   21) = (   0.0000000   0.1119179   0.0000000), wk =   0.0109739
        k(   22) = (   0.0000000   0.1119179   0.0321616), wk =   0.0219479
        k(   23) = (   0.0000000   0.1119179   0.0643232), wk =   0.0219479
        k(   24) = (   0.0000000   0.1119179   0.0964848), wk =   0.0219479
        k(   25) = (   0.0000000   0.1119179   0.1286463), wk =   0.0219479
        k(   26) = (   0.0279795   0.0279795   0.0000000), wk =   0.0109739
        k(   27) = (   0.0279795   0.0279795   0.0321616), wk =   0.0219479
        k(   28) = (   0.0279795   0.0279795   0.0643232), wk =   0.0219479
        k(   29) = (   0.0279795   0.0279795   0.0964848), wk =   0.0219479
        k(   30) = (   0.0279795   0.0279795   0.1286463), wk =   0.0219479
        k(   31) = (   0.0279795   0.0559589   0.0000000), wk =   0.0219479
        k(   32) = (   0.0279795   0.0559589   0.0321616), wk =   0.0438957
        k(   33) = (   0.0279795   0.0559589   0.0643232), wk =   0.0438957
        k(   34) = (   0.0279795   0.0559589   0.0964848), wk =   0.0438957
        k(   35) = (   0.0279795   0.0559589   0.1286463), wk =   0.0438957
        k(   36) = (   0.0279795   0.0839384   0.0000000), wk =   0.0219479
        k(   37) = (   0.0279795   0.0839384   0.0321616), wk =   0.0438957
        k(   38) = (   0.0279795   0.0839384   0.0643232), wk =   0.0438957
        k(   39) = (   0.0279795   0.0839384   0.0964848), wk =   0.0438957
        k(   40) = (   0.0279795   0.0839384   0.1286463), wk =   0.0438957
        k(   41) = (   0.0279795   0.1119179   0.0000000), wk =   0.0219479
        k(   42) = (   0.0279795   0.1119179   0.0321616), wk =   0.0438957
        k(   43) = (   0.0279795   0.1119179   0.0643232), wk =   0.0438957
        k(   44) = (   0.0279795   0.1119179   0.0964848), wk =   0.0438957
        k(   45) = (   0.0279795   0.1119179   0.1286463), wk =   0.0438957
        k(   46) = (   0.0559589   0.0559589   0.0000000), wk =   0.0109739
        k(   47) = (   0.0559589   0.0559589   0.0321616), wk =   0.0219479
        k(   48) = (   0.0559589   0.0559589   0.0643232), wk =   0.0219479
        k(   49) = (   0.0559589   0.0559589   0.0964848), wk =   0.0219479
        k(   50) = (   0.0559589   0.0559589   0.1286463), wk =   0.0219479
        k(   51) = (   0.0559589   0.0839384   0.0000000), wk =   0.0219479
        k(   52) = (   0.0559589   0.0839384   0.0321616), wk =   0.0438957
        k(   53) = (   0.0559589   0.0839384   0.0643232), wk =   0.0438957
        k(   54) = (   0.0559589   0.0839384   0.0964848), wk =   0.0438957
        k(   55) = (   0.0559589   0.0839384   0.1286463), wk =   0.0438957
        k(   56) = (   0.0559589   0.1119179   0.0000000), wk =   0.0219479
        k(   57) = (   0.0559589   0.1119179   0.0321616), wk =   0.0438957
        k(   58) = (   0.0559589   0.1119179   0.0643232), wk =   0.0438957
        k(   59) = (   0.0559589   0.1119179   0.0964848), wk =   0.0438957
        k(   60) = (   0.0559589   0.1119179   0.1286463), wk =   0.0438957
        k(   61) = (   0.0839384   0.0839384   0.0000000), wk =   0.0109739
        k(   62) = (   0.0839384   0.0839384   0.0321616), wk =   0.0219479
        k(   63) = (   0.0839384   0.0839384   0.0643232), wk =   0.0219479
        k(   64) = (   0.0839384   0.0839384   0.0964848), wk =   0.0219479
        k(   65) = (   0.0839384   0.0839384   0.1286463), wk =   0.0219479
        k(   66) = (   0.0839384   0.1119179   0.0000000), wk =   0.0219479
        k(   67) = (   0.0839384   0.1119179   0.0321616), wk =   0.0438957
        k(   68) = (   0.0839384   0.1119179   0.0643232), wk =   0.0438957
        k(   69) = (   0.0839384   0.1119179   0.0964848), wk =   0.0438957
        k(   70) = (   0.0839384   0.1119179   0.1286463), wk =   0.0438957
        k(   71) = (   0.1119179   0.1119179   0.0000000), wk =   0.0109739
        k(   72) = (   0.1119179   0.1119179   0.0321616), wk =   0.0219479
        k(   73) = (   0.1119179   0.1119179   0.0643232), wk =   0.0219479
        k(   74) = (   0.1119179   0.1119179   0.0964848), wk =   0.0219479
        k(   75) = (   0.1119179   0.1119179   0.1286463), wk =   0.0219479

     Largest allocated arrays     est. size (Mb)     dimensions
     Largest temporary arrays     est. size (Mb)     dimensions

     Initial potential from superposition of free atoms

     starting charge   41.99507, renormalised to   44.00000

     *
     * You are using vdW-DF for exchange-correlation in this calculation.
     * Please cite the following three references that made this development
     * possible:
     *
     *   M. Dion, H. Rydberg, E. Schroder, D. C. Langreth, and
     *   B. I. Lundqvist, Phys. Rev. Lett. 92, 246401 (2004).
     *
     *   T. Thonhauser, V. R. Cooper, S. Li, A. Puzder, P. Hyldgaard, and
     *   D. C. Langreth, Phys. Rev. B 76, 125112 (2007).
     *
     *   G. Roman-Perez and J. M. Soler, Phys. Rev. Lett. 103, 096102 (2009).
     *
     *
     * If you are using vdW-DF2, please also cite:
     *
     *   K. Lee, E. D. Murray, L. Kong, B. I. Lundqvist, and
     *   D. C. Langreth, Phys. Rev. B 82, 081101(R) (2010).
     *
     *
     * If you are calculating the stress with vdW-DF, please also cite:
     *
     *   R. Sabatini, E. Kucukbenli, B. Kolb, T. Thonhauser, and
     *   S. de Gironcoli, J. Phys.: Condens. Matter 24, 424209 (2012).
     *

     Carrying out vdW-DF run using the following parameters:

     Nqs =      20    Nr_points =    1024   r_max =   100.000
     q_mesh =
               0.00001000     0.04494208     0.09755937     0.15916263
               0.23128650     0.31572767     0.41458969     0.53033537
               0.66584808     0.82450364     1.01025438     1.22772762
               1.48234092     1.78043706     2.12944203     2.53805004
               3.01644009     3.57652955     4.23227104     5.00000000

     Gradients computed in reciprocal space

     Starting wfc are   34 randomized atomic wfcs +    8 random wfc

     Self-consistent Calculation

     iteration #  1     ecut=    58.80 Ry     beta=0.10
     Davidson diagonalization with overlap
     ethr =  1.00E-02,  avg # of iterations =  4.9

     total energy              =    -822.48285858 Ry
     Harris-Foulkes estimate   =    -825.50261331 Ry
     estimated scf accuracy    <      16.90325594 Ry

[...]

     total energy              =    -823.72533246 Ry
     Harris-Foulkes estimate   =    -823.72533276 Ry
     estimated scf accuracy    <       0.00001695 Ry

     iteration # 12     ecut=    58.80 Ry     beta=0.10
     Davidson diagonalization with overlap
     ethr =  3.84E-08,  avg # of iterations =  1.5

     End of self-consistent calculation

          k = 0.0000 0.0000 0.0000 (  2763 PWs)   bands (ev):

  -101.7020-101.6998 -59.1199 -59.1170 -59.0734 -59.0734 -59.0571 -59.0571
     0.9080   6.5298   7.3583   7.4861   7.7436   7.8842   7.8842   8.4664
     8.4664   8.7410   9.0963   9.5413   9.5413  12.3028  12.7689  13.3792
    16.0501  18.5187  18.5187  19.6320  19.9960  22.3624  22.3624  22.8432
    22.8432  23.2036  23.7878  25.5289  27.9411  29.7110  29.7110  31.2099
    31.6766  31.6766

[...]

          k = 0.1119 0.1119 0.1286 (  2800 PWs)   bands (ev):

  -101.7009-101.7008 -59.1195 -59.1194 -59.0748 -59.0743 -59.0563 -59.0558
     5.7221   5.8980   7.1491   7.2554   7.8628   7.9321   8.1240   8.3297
     8.4177   8.4631   8.4722   8.8341   8.8472   8.9193  11.4885  11.5281
    11.7418  12.1990  23.1436  23.7833  24.4767  25.3073  25.8483  26.0767
    26.6201  27.0197  27.4184  27.5703  27.6898  28.6671  29.3809  29.4195
    31.1831  31.7162

     the Fermi energy is    12.0768 ev

!    total energy              =    -823.72535276 Ry
     Harris-Foulkes estimate   =    -823.72533476 Ry
     estimated scf accuracy    <       0.00000002 Ry

     The total energy is the sum of the following terms:

     one-electron contribution =    -715.72085782 Ry
     hartree contribution      =     378.60852136 Ry
     xc contribution           =     -89.04234465 Ry
     ewald contribution        =    -397.56741089 Ry
     smearing contrib. (-TS)   =      -0.00326077 Ry

     convergence has been achieved in  12 iterations

     Forces acting on atoms (Ry/au):

     atom    1 type  1   force =     0.00000000    0.00000000    0.00000000
     atom    2 type  1   force =     0.00000000    0.00000000    0.00000000
     atom    3 type  2   force =     0.00000000    0.00000000    0.00000000
     atom    4 type  2   force =     0.00000000    0.00000000    0.00000000

     Total force =     0.000000     Total SCF correction =     0.000000

     General routines

     Parallel routines

   This run was terminated on:  17:34: 4  13Nov2017

   JOB DONE.