     Program PWSCF v.5.1rc2 starts on 14Nov2017 at  8:25:16

     Current dimensions of program PWSCF are:
     Max number of different atomic species (ntypx) = 10
     Max number of k-points (npk) =  40000
     Max angular momentum in pseudopotentials (lmaxx) =  3

     IMPORTANT: XC functional enforced from input :
     Exchange-correlation      = BEEF-VDW ( 1  4 27 13 2)
     Any further DFT definition will be discarded
     Please, verify this is what you really want

     Found symmetry operation: I + ( -0.5000 -0.5000  0.0000)
     This is a supercell, fractional translations are disabled

     bravais-lattice index     =            0
     lattice parameter (alat)  =       1.8897  a.u.
     unit-cell volume          =     608.2449 (a.u.)^3
     number of atoms/cell      =            4
     number of atomic types    =            2
     number of electrons       =        50.00
     number of Kohn-Sham states=           45
     kinetic-energy cutoff     =      58.7989  Ry
     charge density cutoff     =     587.9892  Ry
     convergence threshold     =      1.0E-06
     mixing beta               =       0.1000
     number of iterations used =           10  plain     mixing
     Exchange-correlation      = BEEF-VDW ( 1  4 27 13 2)

     celldm(1)=   1.889726  celldm(2)=   0.000000  celldm(3)=   0.000000
     celldm(4)=   0.000000  celldm(5)=   0.000000  celldm(6)=   0.000000

     crystal axes: (cart. coord. in units of alat)
               a(1) = (   5.033249   0.000000   0.000000 )
               a(2) = (   0.000000   5.033249   0.000000 )
               a(3) = (   0.000000   0.000000   3.557830 )

     reciprocal axes: (cart. coord. in units 2 pi/alat)
               b(1) = (  0.198679  0.000000  0.000000 )
               b(2) = (  0.000000  0.198679  0.000000 )
               b(3) = (  0.000000  0.000000  0.281070 )

     PseudoPot. # 1 for Cr read from file:
     /home/users/vossj/suncat/psp/gbrv1.5pbe/Cr.UPF
     MD5 check sum: 0d52af634a40206e4dee301ad30da4bf
     Pseudo is Ultrasoft + core correction, Zval = 14.0
     Generated by new atomic code, or converted to UPF format
     Using radial grid of  857 points,  6 beta functions with:
                l(1) =   0
                l(2) =   0
                l(3) =   1
                l(4) =   1
                l(5) =   2
                l(6) =   2
     Q(r) pseudized with  8 coefficients,  rinner =    0.950   0.950   0.950
                                                       0.950   0.950

     PseudoPot. # 2 for La read from file:
     /home/users/vossj/suncat/psp/gbrv1.5pbe/La.UPF
     MD5 check sum: 5937b0c7494ba0601a847275249473aa
     Pseudo is Ultrasoft + core correction, Zval = 11.0
     Generated by new atomic code, or converted to UPF format
     Using radial grid of  995 points,  8 beta functions with:
                l(1) =   0
                l(2) =   0
                l(3) =   1
                l(4) =   1
                l(5) =   2
                l(6) =   2
                l(7) =   3
                l(8) =   3
     Q(r) pseudized with  8 coefficients,  rinner =    1.700   1.700   1.700
                                                       1.700   1.700   1.700
                                                       1.700

     vdW kernel table read from file vdW_kernel_table
     MD5 check sum: 095c7af220d748ca6e76c0b4c6cfb241

     atomic species   valence    mass     pseudopotential
        Cr1           14.00    51.99600     Cr( 1.00)
        La1           11.00   138.90550     La( 1.00)

     16 Sym. Ops., with inversion, found

   Cartesian axes

     site n.     atom                  positions (alat units)
         1           Cr1 tau(   1) = (   0.0000000   0.0000000   0.0000000  )
         2           Cr1 tau(   2) = (   2.5166243   2.5166243   0.0000000  )
         3           La1 tau(   3) = (   2.5166243   0.0000000   1.7789148  )
         4           La1 tau(   4) = (   0.0000000   2.5166243   1.7789148  )

     number of k points=    75  Fermi-Dirac smearing, width (Ry)=  0.0073
                       cart. coord. in units 2pi/alat
        k(    1) = (   0.0000000   0.0000000   0.0000000), wk =   0.0027435
        k(    2) = (   0.0000000   0.0000000   0.0312300), wk =   0.0054870
        k(    3) = (   0.0000000   0.0000000   0.0624601), wk =   0.0054870
        k(    4) = (   0.0000000   0.0000000   0.0936901), wk =   0.0054870
        k(    5) = (   0.0000000   0.0000000   0.1249201), wk =   0.0054870
        k(    6) = (   0.0000000   0.0220754   0.0000000), wk =   0.0109739
        k(    7) = (   0.0000000   0.0220754   0.0312300), wk =   0.0219479
        k(    8) = (   0.0000000   0.0220754   0.0624601), wk =   0.0219479
        k(    9) = (   0.0000000   0.0220754   0.0936901), wk =   0.0219479
        k(   10) = (   0.0000000   0.0220754   0.1249201), wk =   0.0219479
        k(   11) = (   0.0000000   0.0441509   0.0000000), wk =   0.0109739
        k(   12) = (   0.0000000   0.0441509   0.0312300), wk =   0.0219479
        k(   13) = (   0.0000000   0.0441509   0.0624601), wk =   0.0219479
        k(   14) = (   0.0000000   0.0441509   0.0936901), wk =   0.0219479
        k(   15) = (   0.0000000   0.0441509   0.1249201), wk =   0.0219479
        k(   16) = (   0.0000000   0.0662263   0.0000000), wk =   0.0109739
        k(   17) = (   0.0000000   0.0662263   0.0312300), wk =   0.0219479
        k(   18) = (   0.0000000   0.0662263   0.0624601), wk =   0.0219479
        k(   19) = (   0.0000000   0.0662263   0.0936901), wk =   0.0219479
        k(   20) = (   0.0000000   0.0662263   0.1249201), wk =   0.0219479
        k(   21) = (   0.0000000   0.0883017   0.0000000), wk =   0.0109739
        k(   22) = (   0.0000000   0.0883017   0.0312300), wk =   0.0219479
        k(   23) = (   0.0000000   0.0883017   0.0624601), wk =   0.0219479
        k(   24) = (   0.0000000   0.0883017   0.0936901), wk =   0.0219479
        k(   25) = (   0.0000000   0.0883017   0.1249201), wk =   0.0219479
        k(   26) = (   0.0220754   0.0220754   0.0000000), wk =   0.0109739
        k(   27) = (   0.0220754   0.0220754   0.0312300), wk =   0.0219479
        k(   28) = (   0.0220754   0.0220754   0.0624601), wk =   0.0219479
        k(   29) = (   0.0220754   0.0220754   0.0936901), wk =   0.0219479
        k(   30) = (   0.0220754   0.0220754   0.1249201), wk =   0.0219479
        k(   31) = (   0.0220754   0.0441509   0.0000000), wk =   0.0219479
        k(   32) = (   0.0220754   0.0441509   0.0312300), wk =   0.0438957
        k(   33) = (   0.0220754   0.0441509   0.0624601), wk =   0.0438957
        k(   34) = (   0.0220754   0.0441509   0.0936901), wk =   0.0438957
        k(   35) = (   0.0220754   0.0441509   0.1249201), wk =   0.0438957
        k(   36) = (   0.0220754   0.0662263   0.0000000), wk =   0.0219479
        k(   37) = (   0.0220754   0.0662263   0.0312300), wk =   0.0438957
        k(   38) = (   0.0220754   0.0662263   0.0624601), wk =   0.0438957
        k(   39) = (   0.0220754   0.0662263   0.0936901), wk =   0.0438957
        k(   40) = (   0.0220754   0.0662263   0.1249201), wk =   0.0438957
        k(   41) = (   0.0220754   0.0883017   0.0000000), wk =   0.0219479
        k(   42) = (   0.0220754   0.0883017   0.0312300), wk =   0.0438957
        k(   43) = (   0.0220754   0.0883017   0.0624601), wk =   0.0438957
        k(   44) = (   0.0220754   0.0883017   0.0936901), wk =   0.0438957
        k(   45) = (   0.0220754   0.0883017   0.1249201), wk =   0.0438957
        k(   46) = (   0.0441509   0.0441509   0.0000000), wk =   0.0109739
        k(   47) = (   0.0441509   0.0441509   0.0312300), wk =   0.0219479
        k(   48) = (   0.0441509   0.0441509   0.0624601), wk =   0.0219479
        k(   49) = (   0.0441509   0.0441509   0.0936901), wk =   0.0219479
        k(   50) = (   0.0441509   0.0441509   0.1249201), wk =   0.0219479
        k(   51) = (   0.0441509   0.0662263   0.0000000), wk =   0.0219479
        k(   52) = (   0.0441509   0.0662263   0.0312300), wk =   0.0438957
        k(   53) = (   0.0441509   0.0662263   0.0624601), wk =   0.0438957
        k(   54) = (   0.0441509   0.0662263   0.0936901), wk =   0.0438957
        k(   55) = (   0.0441509   0.0662263   0.1249201), wk =   0.0438957
        k(   56) = (   0.0441509   0.0883017   0.0000000), wk =   0.0219479
        k(   57) = (   0.0441509   0.0883017   0.0312300), wk =   0.0438957
        k(   58) = (   0.0441509   0.0883017   0.0624601), wk =   0.0438957
        k(   59) = (   0.0441509   0.0883017   0.0936901), wk =   0.0438957
        k(   60) = (   0.0441509   0.0883017   0.1249201), wk =   0.0438957
        k(   61) = (   0.0662263   0.0662263   0.0000000), wk =   0.0109739
        k(   62) = (   0.0662263   0.0662263   0.0312300), wk =   0.0219479
        k(   63) = (   0.0662263   0.0662263   0.0624601), wk =   0.0219479
        k(   64) = (   0.0662263   0.0662263   0.0936901), wk =   0.0219479
        k(   65) = (   0.0662263   0.0662263   0.1249201), wk =   0.0219479
        k(   66) = (   0.0662263   0.0883017   0.0000000), wk =   0.0219479
        k(   67) = (   0.0662263   0.0883017   0.0312300), wk =   0.0438957
        k(   68) = (   0.0662263   0.0883017   0.0624601), wk =   0.0438957
        k(   69) = (   0.0662263   0.0883017   0.0936901), wk =   0.0438957
        k(   70) = (   0.0662263   0.0883017   0.1249201), wk =   0.0438957
        k(   71) = (   0.0883017   0.0883017   0.0000000), wk =   0.0109739
        k(   72) = (   0.0883017   0.0883017   0.0312300), wk =   0.0219479
        k(   73) = (   0.0883017   0.0883017   0.0624601), wk =   0.0219479
        k(   74) = (   0.0883017   0.0883017   0.0936901), wk =   0.0219479
        k(   75) = (   0.0883017   0.0883017   0.1249201), wk =   0.0219479

     Largest allocated arrays     est. size (Mb)     dimensions
     Largest temporary arrays     est. size (Mb)     dimensions

     Check: negative/imaginary core charge=   -0.000004    0.000000

     Initial potential from superposition of free atoms
     Check: negative starting charge=   -0.140170

     starting charge   47.93583, renormalised to   50.00000

     negative rho (up, down):  1.462E-01 0.000E+00

     *
     * You are using vdW-DF for exchange-correlation in this calculation.
     * Please cite the following three references that made this development
     * possible:
     *
     *   M. Dion, H. Rydberg, E. Schroder, D. C. Langreth, and
     *   B. I. Lundqvist, Phys. Rev. Lett. 92, 246401 (2004).
     *
     *   T. Thonhauser, V. R. Cooper, S. Li, A. Puzder, P. Hyldgaard, and
     *   D. C. Langreth, Phys. Rev. B 76, 125112 (2007).
     *
     *   G. Roman-Perez and J. M. Soler, Phys. Rev. Lett. 103, 096102 (2009).
     *
     *
     * If you are using vdW-DF2, please also cite:
     *
     *   K. Lee, E. D. Murray, L. Kong, B. I. Lundqvist, and
     *   D. C. Langreth, Phys. Rev. B 82, 081101(R) (2010).
     *
     *
     * If you are calculating the stress with vdW-DF, please also cite:
     *
     *   R. Sabatini, E. Kucukbenli, B. Kolb, T. Thonhauser, and
     *   S. de Gironcoli, J. Phys.: Condens. Matter 24, 424209 (2012).
     *

     Carrying out vdW-DF run using the following parameters:

     Nqs =      20    Nr_points =    1024   r_max =   100.000
     q_mesh =
               0.00001000     0.04494208     0.09755937     0.15916263
               0.23128650     0.31572767     0.41458969     0.53033537
               0.66584808     0.82450364     1.01025438     1.22772762
               1.48234092     1.78043706     2.12944203     2.53805004
               3.01644009     3.57652955     4.23227104     5.00000000

     Gradients computed in reciprocal space

     Starting wfc are   60 randomized atomic wfcs

     Self-consistent Calculation

     iteration #  1     ecut=    58.80 Ry     beta=0.10
     Davidson diagonalization with overlap
     ethr =  1.00E-02,  avg # of iterations =  2.6

[...]

     total energy              =    -560.25262671 Ry
     Harris-Foulkes estimate   =    -560.80049734 Ry
     estimated scf accuracy    <       3.17597721 Ry

[...]

     total energy              =    -560.42966444 Ry
     Harris-Foulkes estimate   =    -560.42965317 Ry
     estimated scf accuracy    <       0.00000201 Ry

     iteration # 16     ecut=    58.80 Ry     beta=0.10
     Davidson diagonalization with overlap
     ethr =  4.02E-09,  avg # of iterations =  4.0

     negative rho (up, down):  8.755E-02 0.000E+00

     End of self-consistent calculation

          k = 0.0000 0.0000 0.0000 (  4621 PWs)   bands (ev):

   -57.5031 -57.5015 -28.8402 -28.8402 -28.8282 -28.8273 -28.8273 -28.8256
   -18.3377 -18.0968  -2.4942  -2.4942  -1.4676  -1.4676  -1.4659  -1.2206
     9.5582  10.5507  11.5359  11.5362  12.2188  12.9804  12.9804  13.8790
    13.8796  13.8796  14.6894  14.8843  15.8001  15.8001  16.2446  16.2472
    16.6978  16.7115  16.7115  16.7122  16.7537  16.7537  16.7546  16.7781
    16.7781  16.8393  17.0788  17.2133  17.2791

[...]

          k = 0.0883 0.0883 0.1249 (  4630 PWs)   bands (ev):

   -57.5020 -57.5012 -28.8409 -28.8405 -28.8403 -28.8399 -28.8252 -28.8249
   -18.1032 -18.0963  -2.4979  -2.4768  -2.4673  -2.4608  -1.2650  -1.2308
    10.6435  10.6584  12.2394  12.2980  12.9832  12.9912  13.0024  13.0472
    14.5523  14.6004  14.7299  14.8330  15.6582  15.7668  15.8428  15.9062
    16.6816  16.6919  16.7118  16.7199  16.7655  16.7829  16.8645  16.9110
    17.2022  17.2047  17.2803  17.3505  17.7683

     the Fermi energy is    13.7925 ev

!    total energy              =    -560.42971289 Ry
     Harris-Foulkes estimate   =    -560.42966489 Ry
     estimated scf accuracy    <       0.00000040 Ry

     The total energy is the sum of the following terms:

     one-electron contribution =    -190.59348818 Ry
     hartree contribution      =     119.53433510 Ry
     xc contribution           =    -148.38814232 Ry
     ewald contribution        =    -340.95004762 Ry
     smearing contrib. (-TS)   =      -0.03236986 Ry

     convergence has been achieved in  16 iterations

     Forces acting on atoms (Ry/au):

     negative rho (up, down):  8.755E-02 0.000E+00
     atom    1 type  1   force =     0.00000000    0.00000000    0.00000000
     atom    2 type  1   force =     0.00000000    0.00000000    0.00000000
     atom    3 type  2   force =     0.00000000    0.00000000    0.00000000
     atom    4 type  2   force =     0.00000000    0.00000000    0.00000000

     Total force =     0.000000     Total SCF correction =     0.000000

     General routines

     Parallel routines

   This run was terminated on:   8:26:31  14Nov2017

   JOB DONE.