     Program PWSCF v.5.1rc2 starts on 14Nov2017 at 14:55:26

     Current dimensions of program PWSCF are:
     Max number of different atomic species (ntypx) = 10
     Max number of k-points (npk) =  40000
     Max angular momentum in pseudopotentials (lmaxx) =  3

     IMPORTANT: XC functional enforced from input :
     Exchange-correlation      = BEEF-VDW ( 1  4 27 13 2)
     Any further DFT definition will be discarded
     Please, verify this is what you really want

     Found symmetry operation: I + ( -0.5000 -0.5000  0.0000)
     This is a supercell, fractional translations are disabled

     bravais-lattice index     =            0
     lattice parameter (alat)  =       1.8897  a.u.
     unit-cell volume          =     769.1278 (a.u.)^3
     number of atoms/cell      =            4
     number of atomic types    =            2
     number of electrons       =        46.00
     number of Kohn-Sham states=           43
     kinetic-energy cutoff     =      58.7989  Ry
     charge density cutoff     =     587.9892  Ry
     convergence threshold     =      1.0E-06
     mixing beta               =       0.1000
     number of iterations used =           10  plain     mixing
     Exchange-correlation      = BEEF-VDW ( 1  4 27 13 2)

     celldm(1)=   1.889726  celldm(2)=   0.000000  celldm(3)=   0.000000
     celldm(4)=   0.000000  celldm(5)=   0.000000  celldm(6)=   0.000000

     crystal axes: (cart. coord. in units of alat)
               a(1) = (   4.803129   0.000000   0.000000 )
               a(2) = (   0.000000   4.803129   0.000000 )
               a(3) = (   0.000000   0.000000   4.940301 )

     reciprocal axes: (cart. coord. in units 2 pi/alat)
               b(1) = (  0.208198  0.000000  0.000000 )
               b(2) = (  0.000000  0.208198  0.000000 )
               b(3) = (  0.000000  0.000000  0.202417 )

     PseudoPot. # 1 for La read from file:
     /home/users/vossj/suncat/psp/gbrv1.5pbe/La.UPF
     MD5 check sum: 5937b0c7494ba0601a847275249473aa
     Pseudo is Ultrasoft + core correction, Zval = 11.0
     Generated by new atomic code, or converted to UPF format
     Using radial grid of  995 points,  8 beta functions with:
                l(1) =   0
                l(2) =   0
                l(3) =   1
                l(4) =   1
                l(5) =   2
                l(6) =   2
                l(7) =   3
                l(8) =   3
     Q(r) pseudized with  8 coefficients,  rinner =    1.700   1.700   1.700
                                                       1.700   1.700   1.700
                                                       1.700

     PseudoPot. # 2 for Hf read from file:
     /home/users/vossj/suncat/psp/gbrv1.5pbe/Hf.UPF
     MD5 check sum: 8ee9378dfe14276e333edf04c5e4aa26
     Pseudo is Ultrasoft + core correction, Zval = 12.0
     Generated by new atomic code, or converted to UPF format
     Using radial grid of  921 points,  8 beta functions with:
                l(1) =   0
                l(2) =   0
                l(3) =   0
                l(4) =   1
                l(5) =   1
                l(6) =   2
                l(7) =   2
                l(8) =   3
     Q(r) pseudized with  6 coefficients,  rinner =    1.200   1.200   1.200
                                                       1.200   1.200   1.200
                                                       1.200

     vdW kernel table read from file vdW_kernel_table
     MD5 check sum: 095c7af220d748ca6e76c0b4c6cfb241

     atomic species   valence    mass     pseudopotential
        La1           11.00   138.90550     La( 1.00)
        Hf1           12.00   178.49000     Hf( 1.00)

     16 Sym. Ops., with inversion, found

   Cartesian axes

     site n.     atom                  positions (alat units)
         1           La1 tau(   1) = (   0.0000000   0.0000000   0.0000000  )
         2           La1 tau(   2) = (   2.4015646   2.4015646   0.0000000  )
         3           Hf1 tau(   3) = (   2.4015646   0.0000000   2.4701503  )
         4           Hf1 tau(   4) = (   0.0000000   2.4015646   2.4701503  )

     number of k points=    75  Fermi-Dirac smearing, width (Ry)=  0.0073
                       cart. coord. in units 2pi/alat
        k(    1) = (   0.0000000   0.0000000   0.0000000), wk =   0.0027435
        k(    2) = (   0.0000000   0.0000000   0.0224908), wk =   0.0054870
        k(    3) = (   0.0000000   0.0000000   0.0449815), wk =   0.0054870
        k(    4) = (   0.0000000   0.0000000   0.0674723), wk =   0.0054870
        k(    5) = (   0.0000000   0.0000000   0.0899630), wk =   0.0054870
        k(    6) = (   0.0000000   0.0231331   0.0000000), wk =   0.0109739
        k(    7) = (   0.0000000   0.0231331   0.0224908), wk =   0.0219479
        k(    8) = (   0.0000000   0.0231331   0.0449815), wk =   0.0219479
        k(    9) = (   0.0000000   0.0231331   0.0674723), wk =   0.0219479
        k(   10) = (   0.0000000   0.0231331   0.0899630), wk =   0.0219479
        k(   11) = (   0.0000000   0.0462661   0.0000000), wk =   0.0109739
        k(   12) = (   0.0000000   0.0462661   0.0224908), wk =   0.0219479
        k(   13) = (   0.0000000   0.0462661   0.0449815), wk =   0.0219479
        k(   14) = (   0.0000000   0.0462661   0.0674723), wk =   0.0219479
        k(   15) = (   0.0000000   0.0462661   0.0899630), wk =   0.0219479
        k(   16) = (   0.0000000   0.0693992   0.0000000), wk =   0.0109739
        k(   17) = (   0.0000000   0.0693992   0.0224908), wk =   0.0219479
        k(   18) = (   0.0000000   0.0693992   0.0449815), wk =   0.0219479
        k(   19) = (   0.0000000   0.0693992   0.0674723), wk =   0.0219479
        k(   20) = (   0.0000000   0.0693992   0.0899630), wk =   0.0219479
        k(   21) = (   0.0000000   0.0925323   0.0000000), wk =   0.0109739
        k(   22) = (   0.0000000   0.0925323   0.0224908), wk =   0.0219479
        k(   23) = (   0.0000000   0.0925323   0.0449815), wk =   0.0219479
        k(   24) = (   0.0000000   0.0925323   0.0674723), wk =   0.0219479
        k(   25) = (   0.0000000   0.0925323   0.0899630), wk =   0.0219479
        k(   26) = (   0.0231331   0.0231331   0.0000000), wk =   0.0109739
        k(   27) = (   0.0231331   0.0231331   0.0224908), wk =   0.0219479
        k(   28) = (   0.0231331   0.0231331   0.0449815), wk =   0.0219479
        k(   29) = (   0.0231331   0.0231331   0.0674723), wk =   0.0219479
        k(   30) = (   0.0231331   0.0231331   0.0899630), wk =   0.0219479
        k(   31) = (   0.0231331   0.0462661   0.0000000), wk =   0.0219479
        k(   32) = (   0.0231331   0.0462661   0.0224908), wk =   0.0438957
        k(   33) = (   0.0231331   0.0462661   0.0449815), wk =   0.0438957
        k(   34) = (   0.0231331   0.0462661   0.0674723), wk =   0.0438957
        k(   35) = (   0.0231331   0.0462661   0.0899630), wk =   0.0438957
        k(   36) = (   0.0231331   0.0693992   0.0000000), wk =   0.0219479
        k(   37) = (   0.0231331   0.0693992   0.0224908), wk =   0.0438957
        k(   38) = (   0.0231331   0.0693992   0.0449815), wk =   0.0438957
        k(   39) = (   0.0231331   0.0693992   0.0674723), wk =   0.0438957
        k(   40) = (   0.0231331   0.0693992   0.0899630), wk =   0.0438957
        k(   41) = (   0.0231331   0.0925323   0.0000000), wk =   0.0219479
        k(   42) = (   0.0231331   0.0925323   0.0224908), wk =   0.0438957
        k(   43) = (   0.0231331   0.0925323   0.0449815), wk =   0.0438957
        k(   44) = (   0.0231331   0.0925323   0.0674723), wk =   0.0438957
        k(   45) = (   0.0231331   0.0925323   0.0899630), wk =   0.0438957
        k(   46) = (   0.0462661   0.0462661   0.0000000), wk =   0.0109739
        k(   47) = (   0.0462661   0.0462661   0.0224908), wk =   0.0219479
        k(   48) = (   0.0462661   0.0462661   0.0449815), wk =   0.0219479
        k(   49) = (   0.0462661   0.0462661   0.0674723), wk =   0.0219479
        k(   50) = (   0.0462661   0.0462661   0.0899630), wk =   0.0219479
        k(   51) = (   0.0462661   0.0693992   0.0000000), wk =   0.0219479
        k(   52) = (   0.0462661   0.0693992   0.0224908), wk =   0.0438957
        k(   53) = (   0.0462661   0.0693992   0.0449815), wk =   0.0438957
        k(   54) = (   0.0462661   0.0693992   0.0674723), wk =   0.0438957
        k(   55) = (   0.0462661   0.0693992   0.0899630), wk =   0.0438957
        k(   56) = (   0.0462661   0.0925323   0.0000000), wk =   0.0219479
        k(   57) = (   0.0462661   0.0925323   0.0224908), wk =   0.0438957
        k(   58) = (   0.0462661   0.0925323   0.0449815), wk =   0.0438957
        k(   59) = (   0.0462661   0.0925323   0.0674723), wk =   0.0438957
        k(   60) = (   0.0462661   0.0925323   0.0899630), wk =   0.0438957
        k(   61) = (   0.0693992   0.0693992   0.0000000), wk =   0.0109739
        k(   62) = (   0.0693992   0.0693992   0.0224908), wk =   0.0219479
        k(   63) = (   0.0693992   0.0693992   0.0449815), wk =   0.0219479
        k(   64) = (   0.0693992   0.0693992   0.0674723), wk =   0.0219479
        k(   65) = (   0.0693992   0.0693992   0.0899630), wk =   0.0219479
        k(   66) = (   0.0693992   0.0925323   0.0000000), wk =   0.0219479
        k(   67) = (   0.0693992   0.0925323   0.0224908), wk =   0.0438957
        k(   68) = (   0.0693992   0.0925323   0.0449815), wk =   0.0438957
        k(   69) = (   0.0693992   0.0925323   0.0674723), wk =   0.0438957
        k(   70) = (   0.0693992   0.0925323   0.0899630), wk =   0.0438957
        k(   71) = (   0.0925323   0.0925323   0.0000000), wk =   0.0109739
        k(   72) = (   0.0925323   0.0925323   0.0224908), wk =   0.0219479
        k(   73) = (   0.0925323   0.0925323   0.0449815), wk =   0.0219479
        k(   74) = (   0.0925323   0.0925323   0.0674723), wk =   0.0219479
        k(   75) = (   0.0925323   0.0925323   0.0899630), wk =   0.0219479

     Largest allocated arrays     est. size (Mb)     dimensions
     Largest temporary arrays     est. size (Mb)     dimensions

     Check: negative/imaginary core charge=   -0.000001    0.000000

     Initial potential from superposition of free atoms
     Check: negative starting charge=   -0.353662

     starting charge   41.93586, renormalised to   46.00000

     negative rho (up, down):  3.879E-01 0.000E+00

     *
     * You are using vdW-DF for exchange-correlation in this calculation.
     * Please cite the following three references that made this development
     * possible:
     *
     *   M. Dion, H. Rydberg, E. Schroder, D. C. Langreth, and
     *   B. I. Lundqvist, Phys. Rev. Lett. 92, 246401 (2004).
     *
     *   T. Thonhauser, V. R. Cooper, S. Li, A. Puzder, P. Hyldgaard, and
     *   D. C. Langreth, Phys. Rev. B 76, 125112 (2007).
     *
     *   G. Roman-Perez and J. M. Soler, Phys. Rev. Lett. 103, 096102 (2009).
     *
     *
     * If you are using vdW-DF2, please also cite:
     *
     *   K. Lee, E. D. Murray, L. Kong, B. I. Lundqvist, and
     *   D. C. Langreth, Phys. Rev. B 82, 081101(R) (2010).
     *
     *
     * If you are calculating the stress with vdW-DF, please also cite:
     *
     *   R. Sabatini, E. Kucukbenli, B. Kolb, T. Thonhauser, and
     *   S. de Gironcoli, J. Phys.: Condens. Matter 24, 424209 (2012).
     *

     Carrying out vdW-DF run using the following parameters:

     Nqs =      20    Nr_points =    1024   r_max =   100.000
     q_mesh =
               0.00001000     0.04494208     0.09755937     0.15916263
               0.23128650     0.31572767     0.41458969     0.53033537
               0.66584808     0.82450364     1.01025438     1.22772762
               1.48234092     1.78043706     2.12944203     2.53805004
               3.01644009     3.57652955     4.23227104     5.00000000

     Gradients computed in reciprocal space

     Starting wfc are   66 randomized atomic wfcs

     Self-consistent Calculation

     iteration #  1     ecut=    58.80 Ry     beta=0.10
     Davidson diagonalization with overlap
     ethr =  1.00E-02,  avg # of iterations =  2.4

[...]

     total energy              =    -529.94135169 Ry
     Harris-Foulkes estimate   =    -530.27103691 Ry
     estimated scf accuracy    <       2.34196707 Ry

[...]

     total energy              =    -529.19080358 Ry
     Harris-Foulkes estimate   =    -529.19079051 Ry
     estimated scf accuracy    <       0.00000113 Ry

     iteration # 15     ecut=    58.80 Ry     beta=0.10
     Davidson diagonalization with overlap
     ethr =  2.46E-09,  avg # of iterations =  2.1

     negative rho (up, down):  3.244E-01 0.000E+00

     End of self-consistent calculation

          k = 0.0000 0.0000 0.0000 (  5831 PWs)   bands (ev):

   -49.8739 -49.8593 -19.6755 -19.2992 -18.4326 -18.4306 -18.4306 -18.3876
   -18.2510 -18.2510  -3.8918  -3.8918  -3.2955  -2.8667  -2.5335  -2.5335
     7.6855   9.7549  10.5836  10.7975  11.1153  11.1153  11.1945  14.1789
    14.3055  14.3055  14.8388  14.8388  14.9273  14.9915  15.0190  15.4085
    15.4085  15.4675  15.4675  15.6707  15.6707  15.7110  15.7755  15.8415
    16.6079  16.9220  16.9343

[...]

          k = 0.0925 0.0925 0.0900 (  5844 PWs)   bands (ev):

   -49.8668 -49.8663 -19.4903 -19.4775 -18.4526 -18.4474 -18.4121 -18.4116
   -18.2395 -18.2340  -4.1336  -4.0981  -3.1381  -3.1222  -2.4189  -2.3704
     9.3987   9.4305  11.2751  11.3347  13.4314  13.5400  13.7153  13.7565
    13.9630  14.1145  14.2139  14.2511  14.2529  14.4268  14.6403  14.6662
    15.2100  15.2547  15.2927  15.3167  15.5096  15.5138  15.7225  15.7367
    15.9263  15.9380  15.9492

     the Fermi energy is    12.8806 ev

!    total energy              =    -529.19087653 Ry
     Harris-Foulkes estimate   =    -529.19080369 Ry
     estimated scf accuracy    <       0.00000048 Ry

     The total energy is the sum of the following terms:

     one-electron contribution =     -52.60364451 Ry
     hartree contribution      =      44.72609046 Ry
     xc contribution           =    -256.34754466 Ry
     ewald contribution        =    -264.95361654 Ry
     smearing contrib. (-TS)   =      -0.01216128 Ry

     convergence has been achieved in  15 iterations

     Forces acting on atoms (Ry/au):

     negative rho (up, down):  3.244E-01 0.000E+00
     atom    1 type  1   force =     0.00000000    0.00000000    0.00000000
     atom    2 type  1   force =     0.00000000    0.00000000    0.00000000
     atom    3 type  2   force =     0.00000000    0.00000000    0.00000000
     atom    4 type  2   force =     0.00000000    0.00000000    0.00000000

     Total force =     0.000000     Total SCF correction =     0.000000

     General routines

     Parallel routines

   This run was terminated on:  14:56:45  14Nov2017

   JOB DONE.