     Program PWSCF v.5.1rc2 (svn rev. ) starts on 14Nov2017 at 21:43:38

     Current dimensions of program PWSCF are:
     Max number of different atomic species (ntypx) = 10
     Max number of k-points (npk) =  40000
     Max angular momentum in pseudopotentials (lmaxx) =  3

     IMPORTANT: XC functional enforced from input :
     Exchange-correlation      = BEEF-VDW ( 1  4 27 13 2)
     Any further DFT definition will be discarded
     Please, verify this is what you really want

     Subspace diagonalization in iterative solution of the eigenvalue problem:
     a serial algorithm will be used

     Found symmetry operation: I + ( -0.5000 -0.5000  0.0000)
     This is a supercell, fractional translations are disabled

     bravais-lattice index     =            0
     lattice parameter (alat)  =       1.8897  a.u.
     unit-cell volume          =     468.8323 (a.u.)^3
     number of atoms/cell      =            4
     number of atomic types    =            2
     number of electrons       =        54.00
     number of Kohn-Sham states=           47
     kinetic-energy cutoff     =      58.7989  Ry
     charge density cutoff     =     587.9892  Ry
     convergence threshold     =      1.0E-06
     mixing beta               =       0.1000
     number of iterations used =           10  plain     mixing
     Exchange-correlation      = BEEF-VDW ( 1  4 27 13 2)

     celldm(1)=   1.889726  celldm(2)=   0.000000  celldm(3)=   0.000000
     celldm(4)=   0.000000  celldm(5)=   0.000000  celldm(6)=   0.000000

     crystal axes: (cart. coord. in units of alat)
               a(1) = (   3.893715   0.000000   0.000000 )
               a(2) = (   0.000000   3.893715   0.000000 )
               a(3) = (   0.000000   0.000000   4.582396 )

     reciprocal axes: (cart. coord. in units 2 pi/alat)
               b(1) = (  0.256824  0.000000  0.000000 )
               b(2) = (  0.000000  0.256824  0.000000 )
               b(3) = (  0.000000  0.000000  0.218226 )

     PseudoPot. # 1 for Tc read from file:
     /home/vossj/suncat/psp/gbrv1.5pbe/Tc.UPF
     MD5 check sum: 9eb49e5b028550b2339a02317eb7b844
     Pseudo is Ultrasoft + core correction, Zval = 15.0
     Generated by new atomic code, or converted to UPF format
     Using radial grid of  965 points,  6 beta functions with:
                l(1) =   0
                l(2) =   0
                l(3) =   1
                l(4) =   1
                l(5) =   2
                l(6) =   2
     Q(r) pseudized with  8 coefficients,  rinner =    1.300   1.300   1.300
                                                       1.300   1.300

     PseudoPot. # 2 for Cd read from file:
     /home/vossj/suncat/psp/gbrv1.5pbe/Cd.UPF
     MD5 check sum: 17164a7926edb8e0dc231208abae86a6
     Pseudo is Ultrasoft + core correction, Zval = 12.0
     Generated by new atomic code, or converted to UPF format
     Using radial grid of  889 points,  6 beta functions with:
                l(1) =   0
                l(2) =   0
                l(3) =   1
                l(4) =   1
                l(5) =   2
                l(6) =   2
     Q(r) pseudized with  6 coefficients,  rinner =    1.000   1.000   1.000
                                                       1.000   1.000

     vdW kernel table read from file vdW_kernel_table
     MD5 check sum: 095c7af220d748ca6e76c0b4c6cfb241

     atomic species   valence    mass     pseudopotential
        Tc1           15.00    97.90721     Tc( 1.00)
        Cd1           12.00   112.41400     Cd( 1.00)

     16 Sym. Ops., with inversion, found

   Cartesian axes

     site n.     atom                  positions (alat units)
         1           Tc1 tau(   1) = (   0.0000000   0.0000000   0.0000000  )
         2           Tc1 tau(   2) = (   1.9468575   1.9468575   0.0000000  )
         3           Cd1 tau(   3) = (   1.9468575   0.0000000   2.2911980  )
         4           Cd1 tau(   4) = (   0.0000000   1.9468575   2.2911980  )

     number of k points=    75  Fermi-Dirac smearing, width (Ry)=  0.0073
                       cart. coord. in units 2pi/alat
        k(    1) = (   0.0000000   0.0000000   0.0000000), wk =   0.0027435
        k(    2) = (   0.0000000   0.0000000   0.0242474), wk =   0.0054870
        k(    3) = (   0.0000000   0.0000000   0.0484948), wk =   0.0054870
        k(    4) = (   0.0000000   0.0000000   0.0727422), wk =   0.0054870
        k(    5) = (   0.0000000   0.0000000   0.0969895), wk =   0.0054870
        k(    6) = (   0.0000000   0.0285360   0.0000000), wk =   0.0109739
        k(    7) = (   0.0000000   0.0285360   0.0242474), wk =   0.0219479
        k(    8) = (   0.0000000   0.0285360   0.0484948), wk =   0.0219479
        k(    9) = (   0.0000000   0.0285360   0.0727422), wk =   0.0219479
        k(   10) = (   0.0000000   0.0285360   0.0969895), wk =   0.0219479
        k(   11) = (   0.0000000   0.0570720   0.0000000), wk =   0.0109739
        k(   12) = (   0.0000000   0.0570720   0.0242474), wk =   0.0219479
        k(   13) = (   0.0000000   0.0570720   0.0484948), wk =   0.0219479
        k(   14) = (   0.0000000   0.0570720   0.0727422), wk =   0.0219479
        k(   15) = (   0.0000000   0.0570720   0.0969895), wk =   0.0219479
        k(   16) = (   0.0000000   0.0856080   0.0000000), wk =   0.0109739
        k(   17) = (   0.0000000   0.0856080   0.0242474), wk =   0.0219479
        k(   18) = (   0.0000000   0.0856080   0.0484948), wk =   0.0219479
        k(   19) = (   0.0000000   0.0856080   0.0727422), wk =   0.0219479
        k(   20) = (   0.0000000   0.0856080   0.0969895), wk =   0.0219479
        k(   21) = (   0.0000000   0.1141441   0.0000000), wk =   0.0109739
        k(   22) = (   0.0000000   0.1141441   0.0242474), wk =   0.0219479
        k(   23) = (   0.0000000   0.1141441   0.0484948), wk =   0.0219479
        k(   24) = (   0.0000000   0.1141441   0.0727422), wk =   0.0219479
        k(   25) = (   0.0000000   0.1141441   0.0969895), wk =   0.0219479
        k(   26) = (   0.0285360   0.0285360   0.0000000), wk =   0.0109739
        k(   27) = (   0.0285360   0.0285360   0.0242474), wk =   0.0219479
        k(   28) = (   0.0285360   0.0285360   0.0484948), wk =   0.0219479
        k(   29) = (   0.0285360   0.0285360   0.0727422), wk =   0.0219479
        k(   30) = (   0.0285360   0.0285360   0.0969895), wk =   0.0219479
        k(   31) = (   0.0285360   0.0570720   0.0000000), wk =   0.0219479
        k(   32) = (   0.0285360   0.0570720   0.0242474), wk =   0.0438957
        k(   33) = (   0.0285360   0.0570720   0.0484948), wk =   0.0438957
        k(   34) = (   0.0285360   0.0570720   0.0727422), wk =   0.0438957
        k(   35) = (   0.0285360   0.0570720   0.0969895), wk =   0.0438957
        k(   36) = (   0.0285360   0.0856080   0.0000000), wk =   0.0219479
        k(   37) = (   0.0285360   0.0856080   0.0242474), wk =   0.0438957
        k(   38) = (   0.0285360   0.0856080   0.0484948), wk =   0.0438957
        k(   39) = (   0.0285360   0.0856080   0.0727422), wk =   0.0438957
        k(   40) = (   0.0285360   0.0856080   0.0969895), wk =   0.0438957
        k(   41) = (   0.0285360   0.1141441   0.0000000), wk =   0.0219479
        k(   42) = (   0.0285360   0.1141441   0.0242474), wk =   0.0438957
        k(   43) = (   0.0285360   0.1141441   0.0484948), wk =   0.0438957
        k(   44) = (   0.0285360   0.1141441   0.0727422), wk =   0.0438957
        k(   45) = (   0.0285360   0.1141441   0.0969895), wk =   0.0438957
        k(   46) = (   0.0570720   0.0570720   0.0000000), wk =   0.0109739
        k(   47) = (   0.0570720   0.0570720   0.0242474), wk =   0.0219479
        k(   48) = (   0.0570720   0.0570720   0.0484948), wk =   0.0219479
        k(   49) = (   0.0570720   0.0570720   0.0727422), wk =   0.0219479
        k(   50) = (   0.0570720   0.0570720   0.0969895), wk =   0.0219479
        k(   51) = (   0.0570720   0.0856080   0.0000000), wk =   0.0219479
        k(   52) = (   0.0570720   0.0856080   0.0242474), wk =   0.0438957
        k(   53) = (   0.0570720   0.0856080   0.0484948), wk =   0.0438957
        k(   54) = (   0.0570720   0.0856080   0.0727422), wk =   0.0438957
        k(   55) = (   0.0570720   0.0856080   0.0969895), wk =   0.0438957
        k(   56) = (   0.0570720   0.1141441   0.0000000), wk =   0.0219479
        k(   57) = (   0.0570720   0.1141441   0.0242474), wk =   0.0438957
        k(   58) = (   0.0570720   0.1141441   0.0484948), wk =   0.0438957
        k(   59) = (   0.0570720   0.1141441   0.0727422), wk =   0.0438957
        k(   60) = (   0.0570720   0.1141441   0.0969895), wk =   0.0438957
        k(   61) = (   0.0856080   0.0856080   0.0000000), wk =   0.0109739
        k(   62) = (   0.0856080   0.0856080   0.0242474), wk =   0.0219479
        k(   63) = (   0.0856080   0.0856080   0.0484948), wk =   0.0219479
        k(   64) = (   0.0856080   0.0856080   0.0727422), wk =   0.0219479
        k(   65) = (   0.0856080   0.0856080   0.0969895), wk =   0.0219479
        k(   66) = (   0.0856080   0.1141441   0.0000000), wk =   0.0219479
        k(   67) = (   0.0856080   0.1141441   0.0242474), wk =   0.0438957
        k(   68) = (   0.0856080   0.1141441   0.0484948), wk =   0.0438957
        k(   69) = (   0.0856080   0.1141441   0.0727422), wk =   0.0438957
        k(   70) = (   0.0856080   0.1141441   0.0969895), wk =   0.0438957
        k(   71) = (   0.1141441   0.1141441   0.0000000), wk =   0.0109739
        k(   72) = (   0.1141441   0.1141441   0.0242474), wk =   0.0219479
        k(   73) = (   0.1141441   0.1141441   0.0484948), wk =   0.0219479
        k(   74) = (   0.1141441   0.1141441   0.0727422), wk =   0.0219479
        k(   75) = (   0.1141441   0.1141441   0.0969895), wk =   0.0219479

     Largest allocated arrays     est. size (Mb)     dimensions
     Largest temporary arrays     est. size (Mb)     dimensions

     Check: negative/imaginary core charge=   -0.000004    0.000000

     Initial potential from superposition of free atoms
     Check: negative starting charge=   -0.290325

     starting charge   50.99986, renormalised to   54.00000

     negative rho (up, down):  3.074E-01 0.000E+00

     *
     * You are using vdW-DF for exchange-correlation in this calculation.
     * Please cite the following three references that made this development
     * possible:
     *
     *   M. Dion, H. Rydberg, E. Schroder, D. C. Langreth, and
     *   B. I. Lundqvist, Phys. Rev. Lett. 92, 246401 (2004).
     *
     *   T. Thonhauser, V. R. Cooper, S. Li, A. Puzder, P. Hyldgaard, and
     *   D. C. Langreth, Phys. Rev. B 76, 125112 (2007).
     *
     *   G. Roman-Perez and J. M. Soler, Phys. Rev. Lett. 103, 096102 (2009).
     *
     *
     * If you are using vdW-DF2, please also cite:
     *
     *   K. Lee, E. D. Murray, L. Kong, B. I. Lundqvist, and
     *   D. C. Langreth, Phys. Rev. B 82, 081101(R) (2010).
     *
     *
     * If you are calculating the stress with vdW-DF, please also cite:
     *
     *   R. Sabatini, E. Kucukbenli, B. Kolb, T. Thonhauser, and
     *   S. de Gironcoli, J. Phys.: Condens. Matter 24, 424209 (2012).
     *

     Carrying out vdW-DF run using the following parameters:

     Nqs =      20    Nr_points =    1024   r_max =   100.000
     q_mesh =
               0.00001000     0.04494208     0.09755937     0.15916263
               0.23128650     0.31572767     0.41458969     0.53033537
               0.66584808     0.82450364     1.01025438     1.22772762
               1.48234092     1.78043706     2.12944203     2.53805004
               3.01644009     3.57652955     4.23227104     5.00000000

     Gradients computed in reciprocal space

     Starting wfc are   44 randomized atomic wfcs +    3 random wfc

     Self-consistent Calculation

     iteration #  1     ecut=    58.80 Ry     beta=0.10
     Davidson diagonalization with overlap
     ethr =  1.00E-02,  avg # of iterations =  4.9

[...]

     total energy              =    -583.05320099 Ry
     Harris-Foulkes estimate   =    -583.33844891 Ry
     estimated scf accuracy    <       1.91760486 Ry

[...]

     total energy              =    -582.68570424 Ry
     Harris-Foulkes estimate   =    -582.68569780 Ry
     estimated scf accuracy    <       0.00000292 Ry

     iteration # 12     ecut=    58.80 Ry     beta=0.10
     Davidson diagonalization with overlap
     ethr =  5.40E-09,  avg # of iterations =  1.0

     negative rho (up, down):  2.995E-01 0.000E+00

     End of self-consistent calculation

          k = 0.0000 0.0000 0.0000 (  3573 PWs)   bands (ev):

   -50.6529 -50.5258 -22.8952 -22.8952 -22.5840 -22.4529 -22.3719 -22.3719
     6.0569   6.1822   6.5032   6.8625   6.8625   7.6452   7.8017   7.8017
     7.8926   8.1328   8.7123  12.5750  12.9783  13.1889  15.0151  15.0151
    15.7476  16.4725  17.1133  17.1133  18.0247  18.0247  18.1645  19.5998
    21.6031  23.3147  23.9758  25.5264  26.3999  26.3999  26.8058  27.9034
    27.9034  30.8473  32.5864  33.0682  33.0682  33.4505  34.1761

[...]

          k = 0.1141 0.1141 0.0970 (  3573 PWs)   bands (ev):

   -50.5905 -50.5867 -22.9673 -22.9520 -22.5200 -22.5160 -22.3378 -22.3214
     6.4967   6.5601   6.6493   6.6658   7.4223   7.4853   7.7082   7.7388
     7.8792   7.9073  12.1840  12.4663  13.5107  13.6791  14.5065  14.6029
    15.4867  15.9618  16.3316  16.6163  16.6448  16.9419  17.3298  17.3702
    19.8300  20.0510  23.0221  23.2311  28.1616  28.2477  29.3017  29.4986
    32.8389  32.9045  32.9498  33.0992  33.4907  33.5254  35.8098

     the Fermi energy is    16.4592 ev

!    total energy              =    -582.68573368 Ry
     Harris-Foulkes estimate   =    -582.68570447 Ry
     estimated scf accuracy    <       0.00000062 Ry

     The total energy is the sum of the following terms:

     one-electron contribution =     -94.70460929 Ry
     hartree contribution      =      92.05008334 Ry
     xc contribution           =    -148.00389864 Ry
     ewald contribution        =    -432.01469639 Ry
     smearing contrib. (-TS)   =      -0.01261270 Ry

     convergence has been achieved in  12 iterations

     Forces acting on atoms (Ry/au):

     negative rho (up, down):  2.995E-01 0.000E+00
     atom    1 type  1   force =     0.00000000    0.00000000    0.00000000
     atom    2 type  1   force =     0.00000000    0.00000000    0.00000000
     atom    3 type  2   force =     0.00000000    0.00000000    0.00000000
     atom    4 type  2   force =     0.00000000    0.00000000    0.00000000

     Total force =     0.000000     Total SCF correction =     0.000000

     General routines

     Parallel routines

   This run was terminated on:  21:44:23  14Nov2017

   JOB DONE.