     Program PWSCF v.5.1rc2 starts on 15Nov2017 at  4:28:28

     Current dimensions of program PWSCF are:
     Max number of different atomic species (ntypx) = 10
     Max number of k-points (npk) =  40000
     Max angular momentum in pseudopotentials (lmaxx) =  3

     IMPORTANT: XC functional enforced from input :
     Exchange-correlation      = BEEF-VDW ( 1  4 27 13 2)
     Any further DFT definition will be discarded
     Please, verify this is what you really want

     Found symmetry operation: I + ( -0.5000 -0.5000  0.0000)
     This is a supercell, fractional translations are disabled

     bravais-lattice index     =            0
     lattice parameter (alat)  =       1.8897  a.u.
     unit-cell volume          =     509.1189 (a.u.)^3
     number of atoms/cell      =            4
     number of atomic types    =            2
     number of electrons       =        56.00
     number of Kohn-Sham states=           48
     kinetic-energy cutoff     =      58.7989  Ry
     charge density cutoff     =     587.9892  Ry
     convergence threshold     =      1.0E-06
     mixing beta               =       0.1000
     number of iterations used =           10  plain     mixing
     Exchange-correlation      = BEEF-VDW ( 1  4 27 13 2)

     celldm(1)=   1.889726  celldm(2)=   0.000000  celldm(3)=   0.000000
     celldm(4)=   0.000000  celldm(5)=   0.000000  celldm(6)=   0.000000

     crystal axes: (cart. coord. in units of alat)
               a(1) = (   4.387827   0.000000   0.000000 )
               a(2) = (   0.000000   4.387827   0.000000 )
               a(3) = (   0.000000   0.000000   3.918534 )

     reciprocal axes: (cart. coord. in units 2 pi/alat)
               b(1) = (  0.227903  0.000000  0.000000 )
               b(2) = (  0.000000  0.227903  0.000000 )
               b(3) = (  0.000000  0.000000  0.255197 )

     PseudoPot. # 1 for Pt read from file:
     /home/users/vossj/suncat/psp/gbrv1.5pbe/Pt.UPF
     MD5 check sum: f09d6de1a584b5a045c4fc126da2d0c4
     Pseudo is Ultrasoft + core correction, Zval = 16.0
     Generated by new atomic code, or converted to UPF format
     Using radial grid of  985 points,  6 beta functions with:
                l(1) =   0
                l(2) =   0
                l(3) =   1
                l(4) =   1
                l(5) =   2
                l(6) =   2
     Q(r) pseudized with  8 coefficients,  rinner =    1.300   1.300   1.300
                                                       1.300   1.300

     PseudoPot. # 2 for Hg read from file:
     /home/users/vossj/suncat/psp/gbrv1.5pbe/Hg.UPF
     MD5 check sum: 8f42caffe07f7fd9c0a564347f8c5498
     Pseudo is Ultrasoft + core correction, Zval = 12.0
     Generated by new atomic code, or converted to UPF format
     Using radial grid of  985 points,  6 beta functions with:
                l(1) =   0
                l(2) =   0
                l(3) =   1
                l(4) =   1
                l(5) =   2
                l(6) =   2
     Q(r) pseudized with  8 coefficients,  rinner =    2.000   2.000   2.000
                                                       2.000   2.000

     vdW kernel table read from file vdW_kernel_table
     MD5 check sum: 095c7af220d748ca6e76c0b4c6cfb241

     atomic species   valence    mass     pseudopotential
        Pt1           16.00   195.08000     Pt( 1.00)
        Hg1           12.00   200.59000     Hg( 1.00)

     16 Sym. Ops., with inversion, found

   Cartesian axes

     site n.     atom                  positions (alat units)
         1           Pt1 tau(   1) = (   0.0000000   0.0000000   0.0000000  )
         2           Pt1 tau(   2) = (   2.1939136   2.1939136   0.0000000  )
         3           Hg1 tau(   3) = (   2.1939136   0.0000000   1.9592669  )
         4           Hg1 tau(   4) = (   0.0000000   2.1939136   1.9592669  )

     number of k points=    75  Fermi-Dirac smearing, width (Ry)=  0.0073
                       cart. coord. in units 2pi/alat
        k(    1) = (   0.0000000   0.0000000   0.0000000), wk =   0.0027435
        k(    2) = (   0.0000000   0.0000000   0.0283553), wk =   0.0054870
        k(    3) = (   0.0000000   0.0000000   0.0567106), wk =   0.0054870
        k(    4) = (   0.0000000   0.0000000   0.0850658), wk =   0.0054870
        k(    5) = (   0.0000000   0.0000000   0.1134211), wk =   0.0054870
        k(    6) = (   0.0000000   0.0253226   0.0000000), wk =   0.0109739
        k(    7) = (   0.0000000   0.0253226   0.0283553), wk =   0.0219479
        k(    8) = (   0.0000000   0.0253226   0.0567106), wk =   0.0219479
        k(    9) = (   0.0000000   0.0253226   0.0850658), wk =   0.0219479
        k(   10) = (   0.0000000   0.0253226   0.1134211), wk =   0.0219479
        k(   11) = (   0.0000000   0.0506452   0.0000000), wk =   0.0109739
        k(   12) = (   0.0000000   0.0506452   0.0283553), wk =   0.0219479
        k(   13) = (   0.0000000   0.0506452   0.0567106), wk =   0.0219479
        k(   14) = (   0.0000000   0.0506452   0.0850658), wk =   0.0219479
        k(   15) = (   0.0000000   0.0506452   0.1134211), wk =   0.0219479
        k(   16) = (   0.0000000   0.0759677   0.0000000), wk =   0.0109739
        k(   17) = (   0.0000000   0.0759677   0.0283553), wk =   0.0219479
        k(   18) = (   0.0000000   0.0759677   0.0567106), wk =   0.0219479
        k(   19) = (   0.0000000   0.0759677   0.0850658), wk =   0.0219479
        k(   20) = (   0.0000000   0.0759677   0.1134211), wk =   0.0219479
        k(   21) = (   0.0000000   0.1012903   0.0000000), wk =   0.0109739
        k(   22) = (   0.0000000   0.1012903   0.0283553), wk =   0.0219479
        k(   23) = (   0.0000000   0.1012903   0.0567106), wk =   0.0219479
        k(   24) = (   0.0000000   0.1012903   0.0850658), wk =   0.0219479
        k(   25) = (   0.0000000   0.1012903   0.1134211), wk =   0.0219479
        k(   26) = (   0.0253226   0.0253226   0.0000000), wk =   0.0109739
        k(   27) = (   0.0253226   0.0253226   0.0283553), wk =   0.0219479
        k(   28) = (   0.0253226   0.0253226   0.0567106), wk =   0.0219479
        k(   29) = (   0.0253226   0.0253226   0.0850658), wk =   0.0219479
        k(   30) = (   0.0253226   0.0253226   0.1134211), wk =   0.0219479
        k(   31) = (   0.0253226   0.0506452   0.0000000), wk =   0.0219479
        k(   32) = (   0.0253226   0.0506452   0.0283553), wk =   0.0438957
        k(   33) = (   0.0253226   0.0506452   0.0567106), wk =   0.0438957
        k(   34) = (   0.0253226   0.0506452   0.0850658), wk =   0.0438957
        k(   35) = (   0.0253226   0.0506452   0.1134211), wk =   0.0438957
        k(   36) = (   0.0253226   0.0759677   0.0000000), wk =   0.0219479
        k(   37) = (   0.0253226   0.0759677   0.0283553), wk =   0.0438957
        k(   38) = (   0.0253226   0.0759677   0.0567106), wk =   0.0438957
        k(   39) = (   0.0253226   0.0759677   0.0850658), wk =   0.0438957
        k(   40) = (   0.0253226   0.0759677   0.1134211), wk =   0.0438957
        k(   41) = (   0.0253226   0.1012903   0.0000000), wk =   0.0219479
        k(   42) = (   0.0253226   0.1012903   0.0283553), wk =   0.0438957
        k(   43) = (   0.0253226   0.1012903   0.0567106), wk =   0.0438957
        k(   44) = (   0.0253226   0.1012903   0.0850658), wk =   0.0438957
        k(   45) = (   0.0253226   0.1012903   0.1134211), wk =   0.0438957
        k(   46) = (   0.0506452   0.0506452   0.0000000), wk =   0.0109739
        k(   47) = (   0.0506452   0.0506452   0.0283553), wk =   0.0219479
        k(   48) = (   0.0506452   0.0506452   0.0567106), wk =   0.0219479
        k(   49) = (   0.0506452   0.0506452   0.0850658), wk =   0.0219479
        k(   50) = (   0.0506452   0.0506452   0.1134211), wk =   0.0219479
        k(   51) = (   0.0506452   0.0759677   0.0000000), wk =   0.0219479
        k(   52) = (   0.0506452   0.0759677   0.0283553), wk =   0.0438957
        k(   53) = (   0.0506452   0.0759677   0.0567106), wk =   0.0438957
        k(   54) = (   0.0506452   0.0759677   0.0850658), wk =   0.0438957
        k(   55) = (   0.0506452   0.0759677   0.1134211), wk =   0.0438957
        k(   56) = (   0.0506452   0.1012903   0.0000000), wk =   0.0219479
        k(   57) = (   0.0506452   0.1012903   0.0283553), wk =   0.0438957
        k(   58) = (   0.0506452   0.1012903   0.0567106), wk =   0.0438957
        k(   59) = (   0.0506452   0.1012903   0.0850658), wk =   0.0438957
        k(   60) = (   0.0506452   0.1012903   0.1134211), wk =   0.0438957
        k(   61) = (   0.0759677   0.0759677   0.0000000), wk =   0.0109739
        k(   62) = (   0.0759677   0.0759677   0.0283553), wk =   0.0219479
        k(   63) = (   0.0759677   0.0759677   0.0567106), wk =   0.0219479
        k(   64) = (   0.0759677   0.0759677   0.0850658), wk =   0.0219479
        k(   65) = (   0.0759677   0.0759677   0.1134211), wk =   0.0219479
        k(   66) = (   0.0759677   0.1012903   0.0000000), wk =   0.0219479
        k(   67) = (   0.0759677   0.1012903   0.0283553), wk =   0.0438957
        k(   68) = (   0.0759677   0.1012903   0.0567106), wk =   0.0438957
        k(   69) = (   0.0759677   0.1012903   0.0850658), wk =   0.0438957
        k(   70) = (   0.0759677   0.1012903   0.1134211), wk =   0.0438957
        k(   71) = (   0.1012903   0.1012903   0.0000000), wk =   0.0109739
        k(   72) = (   0.1012903   0.1012903   0.0283553), wk =   0.0219479
        k(   73) = (   0.1012903   0.1012903   0.0567106), wk =   0.0219479
        k(   74) = (   0.1012903   0.1012903   0.0850658), wk =   0.0219479
        k(   75) = (   0.1012903   0.1012903   0.1134211), wk =   0.0219479

     Largest allocated arrays     est. size (Mb)     dimensions
     Largest temporary arrays     est. size (Mb)     dimensions

     Initial potential from superposition of free atoms
     Check: negative starting charge=   -0.368539

     starting charge   54.99986, renormalised to   56.00000

     negative rho (up, down):  3.752E-01 0.000E+00

     *
     * You are using vdW-DF for exchange-correlation in this calculation.
     * Please cite the following three references that made this development
     * possible:
     *
     *   M. Dion, H. Rydberg, E. Schroder, D. C. Langreth, and
     *   B. I. Lundqvist, Phys. Rev. Lett. 92, 246401 (2004).
     *
     *   T. Thonhauser, V. R. Cooper, S. Li, A. Puzder, P. Hyldgaard, and
     *   D. C. Langreth, Phys. Rev. B 76, 125112 (2007).
     *
     *   G. Roman-Perez and J. M. Soler, Phys. Rev. Lett. 103, 096102 (2009).
     *
     *
     * If you are using vdW-DF2, please also cite:
     *
     *   K. Lee, E. D. Murray, L. Kong, B. I. Lundqvist, and
     *   D. C. Langreth, Phys. Rev. B 82, 081101(R) (2010).
     *
     *
     * If you are calculating the stress with vdW-DF, please also cite:
     *
     *   R. Sabatini, E. Kucukbenli, B. Kolb, T. Thonhauser, and
     *   S. de Gironcoli, J. Phys.: Condens. Matter 24, 424209 (2012).
     *

     Carrying out vdW-DF run using the following parameters:

     Nqs =      20    Nr_points =    1024   r_max =   100.000
     q_mesh =
               0.00001000     0.04494208     0.09755937     0.15916263
               0.23128650     0.31572767     0.41458969     0.53033537
               0.66584808     0.82450364     1.01025438     1.22772762
               1.48234092     1.78043706     2.12944203     2.53805004
               3.01644009     3.57652955     4.23227104     5.00000000

     Gradients computed in reciprocal space

     Starting wfc are   42 randomized atomic wfcs +    6 random wfc

     Self-consistent Calculation

     iteration #  1     ecut=    58.80 Ry     beta=0.10
     Davidson diagonalization with overlap
     ethr =  1.00E-02,  avg # of iterations =  5.1

[...]

     total energy              =    -643.04724591 Ry
     Harris-Foulkes estimate   =    -643.16419011 Ry
     estimated scf accuracy    <       0.82305232 Ry

[...]

     total energy              =    -642.94588026 Ry
     Harris-Foulkes estimate   =    -642.94587840 Ry
     estimated scf accuracy    <       0.00000927 Ry

     iteration # 10     ecut=    58.80 Ry     beta=0.10
     Davidson diagonalization with overlap
     ethr =  1.66E-08,  avg # of iterations =  2.0

     negative rho (up, down):  3.591E-01 0.000E+00

     End of self-consistent calculation

          k = 0.0000 0.0000 0.0000 (  3879 PWs)   bands (ev):

   -36.4077 -36.4077 -36.3872 -36.3759 -36.3468 -36.3468   6.3533   7.3993
     7.5588   7.7910   7.9707   7.9707   8.2893   8.8867   8.8867   9.3099
     9.9175  12.0520  12.4419  13.0661  14.2513  14.2513  14.2747  14.6004
    14.6004  14.8244  15.5449  16.0200  16.0200  17.9278  18.9461  20.2539
    21.8186  23.7559  23.7559  25.0822  25.7961  25.7961  26.6801  30.2145
    30.3754  32.0430  32.3252  32.6417  32.9924  32.9924  34.4037  34.4037

[...]

          k = 0.1013 0.1013 0.1134 (  3907 PWs)   bands (ev):

   -36.4133 -36.4115 -36.3846 -36.3842 -36.3436 -36.3417   7.5866   7.5900
     7.6935   7.7462   8.5851   8.6313   8.8427   8.8688   9.1185   9.1334
    11.1497  11.3097  12.6902  12.7867  13.8625  13.9388  14.0582  14.2818
    14.5754  14.5957  14.6519  15.3466  15.4015  15.4117  18.0513  18.0952
    18.5270  19.0869  28.7961  28.9250  28.9943  29.2893  29.3517  29.5086
    31.1428  31.4454  33.0257  33.0692  33.6052  33.8203  36.7933  37.1014

     the Fermi energy is    15.7968 ev

!    total energy              =    -642.94589251 Ry
     Harris-Foulkes estimate   =    -642.94588147 Ry
     estimated scf accuracy    <       0.00000072 Ry

     The total energy is the sum of the following terms:

     one-electron contribution =     -82.40819830 Ry
     hartree contribution      =      92.82519878 Ry
     xc contribution           =    -198.36924322 Ry
     ewald contribution        =    -454.99121584 Ry
     smearing contrib. (-TS)   =      -0.00243393 Ry

     convergence has been achieved in  10 iterations

     Forces acting on atoms (Ry/au):

     negative rho (up, down):  3.591E-01 0.000E+00
     atom    1 type  1   force =     0.00000000    0.00000000    0.00000000
     atom    2 type  1   force =     0.00000000    0.00000000    0.00000000
     atom    3 type  2   force =     0.00000000    0.00000000    0.00000000
     atom    4 type  2   force =     0.00000000    0.00000000    0.00000000

     Total force =     0.000000     Total SCF correction =     0.000000

     General routines

     Parallel routines

   This run was terminated on:   4:29: 7  15Nov2017

   JOB DONE.