     Program PWSCF v.5.1rc2 starts on 14Nov2017 at  8:11:52

     Current dimensions of program PWSCF are:
     Max number of different atomic species (ntypx) = 10
     Max number of k-points (npk) =  40000
     Max angular momentum in pseudopotentials (lmaxx) =  3

     IMPORTANT: XC functional enforced from input :
     Exchange-correlation      = BEEF-VDW ( 1  4 27 13 2)
     Any further DFT definition will be discarded
     Please, verify this is what you really want

     Found symmetry operation: I + ( -0.5000 -0.5000  0.0000)
     This is a supercell, fractional translations are disabled

     bravais-lattice index     =            0
     lattice parameter (alat)  =       1.8897  a.u.
     unit-cell volume          =     500.0575 (a.u.)^3
     number of atoms/cell      =            4
     number of atomic types    =            2
     number of electrons       =        56.00
     number of Kohn-Sham states=           48
     kinetic-energy cutoff     =      58.7989  Ry
     charge density cutoff     =     587.9892  Ry
     convergence threshold     =      1.0E-06
     mixing beta               =       0.1000
     number of iterations used =           10  plain     mixing
     Exchange-correlation      = BEEF-VDW ( 1  4 27 13 2)

     celldm(1)=   1.889726  celldm(2)=   0.000000  celldm(3)=   0.000000
     celldm(4)=   0.000000  celldm(5)=   0.000000  celldm(6)=   0.000000

     crystal axes: (cart. coord. in units of alat)
               a(1) = (   4.714612   0.000000   0.000000 )
               a(2) = (   0.000000   4.714612   0.000000 )
               a(3) = (   0.000000   0.000000   3.333738 )

     reciprocal axes: (cart. coord. in units 2 pi/alat)
               b(1) = (  0.212107  0.000000  0.000000 )
               b(2) = (  0.000000  0.212107  0.000000 )
               b(3) = (  0.000000  0.000000  0.299964 )

     PseudoPot. # 1 for Cr read from file:
     /home/users/vossj/suncat/psp/gbrv1.5pbe/Cr.UPF
     MD5 check sum: 0d52af634a40206e4dee301ad30da4bf
     Pseudo is Ultrasoft + core correction, Zval = 14.0
     Generated by new atomic code, or converted to UPF format
     Using radial grid of  857 points,  6 beta functions with:
                l(1) =   0
                l(2) =   0
                l(3) =   1
                l(4) =   1
                l(5) =   2
                l(6) =   2
     Q(r) pseudized with  8 coefficients,  rinner =    0.950   0.950   0.950
                                                       0.950   0.950

     PseudoPot. # 2 for Pb read from file:
     /home/users/vossj/suncat/psp/gbrv1.5pbe/Pb.UPF
     MD5 check sum: 3d1c1779aa92214d1e8f3a7db79003e2
     Pseudo is Ultrasoft + core correction, Zval = 14.0
     Generated by new atomic code, or converted to UPF format
     Using radial grid of  899 points,  6 beta functions with:
                l(1) =   0
                l(2) =   0
                l(3) =   1
                l(4) =   1
                l(5) =   2
                l(6) =   2
     Q(r) pseudized with  6 coefficients,  rinner =    1.000   1.000   1.000
                                                       1.000   1.000

     vdW kernel table read from file vdW_kernel_table
     MD5 check sum: 095c7af220d748ca6e76c0b4c6cfb241

     atomic species   valence    mass     pseudopotential
        Cr1           14.00    51.99600     Cr( 1.00)
        Pb1           14.00   207.20000     Pb( 1.00)

     16 Sym. Ops., with inversion, found

   Cartesian axes

     site n.     atom                  positions (alat units)
         1           Cr1 tau(   1) = (   0.0000000   0.0000000   0.0000000  )
         2           Cr1 tau(   2) = (   2.3573060   2.3573060   0.0000000  )
         3           Pb1 tau(   3) = (   2.3573060   0.0000000   1.6668688  )
         4           Pb1 tau(   4) = (   0.0000000   2.3573060   1.6668688  )

     number of k points=    75  Fermi-Dirac smearing, width (Ry)=  0.0073
                       cart. coord. in units 2pi/alat
        k(    1) = (   0.0000000   0.0000000   0.0000000), wk =   0.0027435
        k(    2) = (   0.0000000   0.0000000   0.0333293), wk =   0.0054870
        k(    3) = (   0.0000000   0.0000000   0.0666586), wk =   0.0054870
        k(    4) = (   0.0000000   0.0000000   0.0999879), wk =   0.0054870
        k(    5) = (   0.0000000   0.0000000   0.1333172), wk =   0.0054870
        k(    6) = (   0.0000000   0.0235674   0.0000000), wk =   0.0109739
        k(    7) = (   0.0000000   0.0235674   0.0333293), wk =   0.0219479
        k(    8) = (   0.0000000   0.0235674   0.0666586), wk =   0.0219479
        k(    9) = (   0.0000000   0.0235674   0.0999879), wk =   0.0219479
        k(   10) = (   0.0000000   0.0235674   0.1333172), wk =   0.0219479
        k(   11) = (   0.0000000   0.0471348   0.0000000), wk =   0.0109739
        k(   12) = (   0.0000000   0.0471348   0.0333293), wk =   0.0219479
        k(   13) = (   0.0000000   0.0471348   0.0666586), wk =   0.0219479
        k(   14) = (   0.0000000   0.0471348   0.0999879), wk =   0.0219479
        k(   15) = (   0.0000000   0.0471348   0.1333172), wk =   0.0219479
        k(   16) = (   0.0000000   0.0707022   0.0000000), wk =   0.0109739
        k(   17) = (   0.0000000   0.0707022   0.0333293), wk =   0.0219479
        k(   18) = (   0.0000000   0.0707022   0.0666586), wk =   0.0219479
        k(   19) = (   0.0000000   0.0707022   0.0999879), wk =   0.0219479
        k(   20) = (   0.0000000   0.0707022   0.1333172), wk =   0.0219479
        k(   21) = (   0.0000000   0.0942696   0.0000000), wk =   0.0109739
        k(   22) = (   0.0000000   0.0942696   0.0333293), wk =   0.0219479
        k(   23) = (   0.0000000   0.0942696   0.0666586), wk =   0.0219479
        k(   24) = (   0.0000000   0.0942696   0.0999879), wk =   0.0219479
        k(   25) = (   0.0000000   0.0942696   0.1333172), wk =   0.0219479
        k(   26) = (   0.0235674   0.0235674   0.0000000), wk =   0.0109739
        k(   27) = (   0.0235674   0.0235674   0.0333293), wk =   0.0219479
        k(   28) = (   0.0235674   0.0235674   0.0666586), wk =   0.0219479
        k(   29) = (   0.0235674   0.0235674   0.0999879), wk =   0.0219479
        k(   30) = (   0.0235674   0.0235674   0.1333172), wk =   0.0219479
        k(   31) = (   0.0235674   0.0471348   0.0000000), wk =   0.0219479
        k(   32) = (   0.0235674   0.0471348   0.0333293), wk =   0.0438957
        k(   33) = (   0.0235674   0.0471348   0.0666586), wk =   0.0438957
        k(   34) = (   0.0235674   0.0471348   0.0999879), wk =   0.0438957
        k(   35) = (   0.0235674   0.0471348   0.1333172), wk =   0.0438957
        k(   36) = (   0.0235674   0.0707022   0.0000000), wk =   0.0219479
        k(   37) = (   0.0235674   0.0707022   0.0333293), wk =   0.0438957
        k(   38) = (   0.0235674   0.0707022   0.0666586), wk =   0.0438957
        k(   39) = (   0.0235674   0.0707022   0.0999879), wk =   0.0438957
        k(   40) = (   0.0235674   0.0707022   0.1333172), wk =   0.0438957
        k(   41) = (   0.0235674   0.0942696   0.0000000), wk =   0.0219479
        k(   42) = (   0.0235674   0.0942696   0.0333293), wk =   0.0438957
        k(   43) = (   0.0235674   0.0942696   0.0666586), wk =   0.0438957
        k(   44) = (   0.0235674   0.0942696   0.0999879), wk =   0.0438957
        k(   45) = (   0.0235674   0.0942696   0.1333172), wk =   0.0438957
        k(   46) = (   0.0471348   0.0471348   0.0000000), wk =   0.0109739
        k(   47) = (   0.0471348   0.0471348   0.0333293), wk =   0.0219479
        k(   48) = (   0.0471348   0.0471348   0.0666586), wk =   0.0219479
        k(   49) = (   0.0471348   0.0471348   0.0999879), wk =   0.0219479
        k(   50) = (   0.0471348   0.0471348   0.1333172), wk =   0.0219479
        k(   51) = (   0.0471348   0.0707022   0.0000000), wk =   0.0219479
        k(   52) = (   0.0471348   0.0707022   0.0333293), wk =   0.0438957
        k(   53) = (   0.0471348   0.0707022   0.0666586), wk =   0.0438957
        k(   54) = (   0.0471348   0.0707022   0.0999879), wk =   0.0438957
        k(   55) = (   0.0471348   0.0707022   0.1333172), wk =   0.0438957
        k(   56) = (   0.0471348   0.0942696   0.0000000), wk =   0.0219479
        k(   57) = (   0.0471348   0.0942696   0.0333293), wk =   0.0438957
        k(   58) = (   0.0471348   0.0942696   0.0666586), wk =   0.0438957
        k(   59) = (   0.0471348   0.0942696   0.0999879), wk =   0.0438957
        k(   60) = (   0.0471348   0.0942696   0.1333172), wk =   0.0438957
        k(   61) = (   0.0707022   0.0707022   0.0000000), wk =   0.0109739
        k(   62) = (   0.0707022   0.0707022   0.0333293), wk =   0.0219479
        k(   63) = (   0.0707022   0.0707022   0.0666586), wk =   0.0219479
        k(   64) = (   0.0707022   0.0707022   0.0999879), wk =   0.0219479
        k(   65) = (   0.0707022   0.0707022   0.1333172), wk =   0.0219479
        k(   66) = (   0.0707022   0.0942696   0.0000000), wk =   0.0219479
        k(   67) = (   0.0707022   0.0942696   0.0333293), wk =   0.0438957
        k(   68) = (   0.0707022   0.0942696   0.0666586), wk =   0.0438957
        k(   69) = (   0.0707022   0.0942696   0.0999879), wk =   0.0438957
        k(   70) = (   0.0707022   0.0942696   0.1333172), wk =   0.0438957
        k(   71) = (   0.0942696   0.0942696   0.0000000), wk =   0.0109739
        k(   72) = (   0.0942696   0.0942696   0.0333293), wk =   0.0219479
        k(   73) = (   0.0942696   0.0942696   0.0666586), wk =   0.0219479
        k(   74) = (   0.0942696   0.0942696   0.0999879), wk =   0.0219479
        k(   75) = (   0.0942696   0.0942696   0.1333172), wk =   0.0219479

     Largest allocated arrays     est. size (Mb)     dimensions
     Largest temporary arrays     est. size (Mb)     dimensions

     Check: negative/imaginary core charge=   -0.000003    0.000000

     Initial potential from superposition of free atoms
     Check: negative starting charge=   -0.031946

     starting charge   53.99527, renormalised to   56.00000

     negative rho (up, down):  3.313E-02 0.000E+00

     *
     * You are using vdW-DF for exchange-correlation in this calculation.
     * Please cite the following three references that made this development
     * possible:
     *
     *   M. Dion, H. Rydberg, E. Schroder, D. C. Langreth, and
     *   B. I. Lundqvist, Phys. Rev. Lett. 92, 246401 (2004).
     *
     *   T. Thonhauser, V. R. Cooper, S. Li, A. Puzder, P. Hyldgaard, and
     *   D. C. Langreth, Phys. Rev. B 76, 125112 (2007).
     *
     *   G. Roman-Perez and J. M. Soler, Phys. Rev. Lett. 103, 096102 (2009).
     *
     *
     * If you are using vdW-DF2, please also cite:
     *
     *   K. Lee, E. D. Murray, L. Kong, B. I. Lundqvist, and
     *   D. C. Langreth, Phys. Rev. B 82, 081101(R) (2010).
     *
     *
     * If you are calculating the stress with vdW-DF, please also cite:
     *
     *   R. Sabatini, E. Kucukbenli, B. Kolb, T. Thonhauser, and
     *   S. de Gironcoli, J. Phys.: Condens. Matter 24, 424209 (2012).
     *

     Carrying out vdW-DF run using the following parameters:

     Nqs =      20    Nr_points =    1024   r_max =   100.000
     q_mesh =
               0.00001000     0.04494208     0.09755937     0.15916263
               0.23128650     0.31572767     0.41458969     0.53033537
               0.66584808     0.82450364     1.01025438     1.22772762
               1.48234092     1.78043706     2.12944203     2.53805004
               3.01644009     3.57652955     4.23227104     5.00000000

     Gradients computed in reciprocal space

     Starting wfc are   38 randomized atomic wfcs +   10 random wfc

     Self-consistent Calculation

     iteration #  1     ecut=    58.80 Ry     beta=0.10
     Davidson diagonalization with overlap
     ethr =  1.00E-02,  avg # of iterations =  4.7

[...]

     total energy              =    -684.53262095 Ry
     Harris-Foulkes estimate   =    -684.63536033 Ry
     estimated scf accuracy    <       0.64592148 Ry

[...]

     total energy              =    -684.36071383 Ry
     Harris-Foulkes estimate   =    -684.36057998 Ry
     estimated scf accuracy    <       0.00000271 Ry

     iteration # 10     ecut=    58.80 Ry     beta=0.10
     Davidson diagonalization with overlap
     ethr =  4.83E-09,  avg # of iterations =  2.6

     negative rho (up, down):  3.759E-02 0.000E+00

     End of self-consistent calculation

          k = 0.0000 0.0000 0.0000 (  3859 PWs)   bands (ev):

   -56.0606 -56.0568 -27.4110 -27.4110 -27.3840 -27.3833 -27.3833 -27.3789
    -1.9403  -1.9398  -1.8618  -1.7524  -1.6584  -1.6584  -1.5329  -1.5329
    -1.5326  -1.3272   3.4593   7.5890  12.1857  12.1857  14.2287  14.2771
    14.2777  15.4701  15.4701  15.8716  15.8716  15.8723  16.3287  16.7986
    18.3256  18.3257  18.3257  18.4238  21.7178  23.0610  25.0103  25.0109
    25.6335  25.6335  26.2203  26.2859  27.7566  29.2803  30.4620  30.4624

[...]

          k = 0.0943 0.0943 0.1333 (  3828 PWs)   bands (ev):

   -56.0570 -56.0568 -27.4111 -27.4109 -27.4107 -27.4102 -27.3792 -27.3784
    -1.8543  -1.8499  -1.7564  -1.7414  -1.6626  -1.6587  -1.6545  -1.6530
    -1.3480  -1.3375   7.4106   7.5407  12.0302  12.0904  12.2579  12.3249
    14.3573  14.3926  15.4270  15.4807  15.4882  15.5163  16.3396  16.3428
    16.7847  16.8886  18.5334  18.6500  22.7121  23.0433  25.4048  25.4398
    25.4862  25.7504  26.2307  26.2339  27.4336  27.5630  29.5013  29.7172

     the Fermi energy is    15.4752 ev

!    total energy              =    -684.36128949 Ry
     Harris-Foulkes estimate   =    -684.36071464 Ry
     estimated scf accuracy    <       0.00000046 Ry

     The total energy is the sum of the following terms:

     one-electron contribution =    -187.56691558 Ry
     hartree contribution      =     133.68387157 Ry
     xc contribution           =    -177.56388001 Ry
     ewald contribution        =    -452.89341030 Ry
     smearing contrib. (-TS)   =      -0.02095517 Ry

     convergence has been achieved in  10 iterations

     Forces acting on atoms (Ry/au):

     negative rho (up, down):  3.759E-02 0.000E+00
     atom    1 type  1   force =     0.00000000    0.00000000    0.00000000
     atom    2 type  1   force =     0.00000000    0.00000000    0.00000000
     atom    3 type  2   force =     0.00000000    0.00000000    0.00000000
     atom    4 type  2   force =     0.00000000    0.00000000    0.00000000

     Total force =     0.000000     Total SCF correction =     0.000000

     General routines

     Parallel routines

   This run was terminated on:   8:12:30  14Nov2017

   JOB DONE.