     Program PWSCF v.5.1rc2 starts on 14Nov2017 at  9:10: 7

     Current dimensions of program PWSCF are:
     Max number of different atomic species (ntypx) = 10
     Max number of k-points (npk) =  40000
     Max angular momentum in pseudopotentials (lmaxx) =  3

     IMPORTANT: XC functional enforced from input :
     Exchange-correlation      = BEEF-VDW ( 1  4 27 13 2)
     Any further DFT definition will be discarded
     Please, verify this is what you really want

     Found symmetry operation: I + ( -0.5000 -0.5000  0.0000)
     This is a supercell, fractional translations are disabled

     bravais-lattice index     =            0
     lattice parameter (alat)  =       1.8897  a.u.
     unit-cell volume          =     476.6038 (a.u.)^3
     number of atoms/cell      =            4
     number of atomic types    =            2
     number of electrons       =        62.00
     number of Kohn-Sham states=           51
     kinetic-energy cutoff     =      58.7989  Ry
     charge density cutoff     =     587.9892  Ry
     convergence threshold     =      1.0E-06
     mixing beta               =       0.1000
     number of iterations used =           10  plain     mixing
     Exchange-correlation      = BEEF-VDW ( 1  4 27 13 2)

     celldm(1)=   1.889726  celldm(2)=   0.000000  celldm(3)=   0.000000
     celldm(4)=   0.000000  celldm(5)=   0.000000  celldm(6)=   0.000000

     crystal axes: (cart. coord. in units of alat)
               a(1) = (   4.631788   0.000000   0.000000 )
               a(2) = (   0.000000   4.631788   0.000000 )
               a(3) = (   0.000000   0.000000   3.292029 )

     reciprocal axes: (cart. coord. in units 2 pi/alat)
               b(1) = (  0.215899  0.000000  0.000000 )
               b(2) = (  0.000000  0.215899  0.000000 )
               b(3) = (  0.000000  0.000000  0.303764 )

     PseudoPot. # 1 for Cu read from file:
     /home/users/vossj/suncat/psp/gbrv1.5pbe/Cu.UPF
     MD5 check sum: 6e991ff952a84172a2a52a1c1e996048
     Pseudo is Ultrasoft + core correction, Zval = 19.0
     Generated by new atomic code, or converted to UPF format
     Using radial grid of  867 points,  6 beta functions with:
                l(1) =   0
                l(2) =   0
                l(3) =   1
                l(4) =   1
                l(5) =   2
                l(6) =   2
     Q(r) pseudized with  8 coefficients,  rinner =    1.150   1.150   1.150
                                                       1.150   1.150

     PseudoPot. # 2 for Zr read from file:
     /home/users/vossj/suncat/psp/gbrv1.5pbe/Zr.UPF
     MD5 check sum: 5db81b1e868ab7776c4564c113de050b
     Pseudo is Ultrasoft + core correction, Zval = 12.0
     Generated by new atomic code, or converted to UPF format
     Using radial grid of  887 points,  6 beta functions with:
                l(1) =   0
                l(2) =   0
                l(3) =   1
                l(4) =   1
                l(5) =   2
                l(6) =   2
     Q(r) pseudized with  6 coefficients,  rinner =    1.200   1.200   1.200
                                                       1.200   1.200

     vdW kernel table read from file vdW_kernel_table
     MD5 check sum: 095c7af220d748ca6e76c0b4c6cfb241

     atomic species   valence    mass     pseudopotential
        Cu1           19.00    63.54600     Cu( 1.00)
        Zr1           12.00    91.22400     Zr( 1.00)

     16 Sym. Ops., with inversion, found

   Cartesian axes

     site n.     atom                  positions (alat units)
         1           Cu1 tau(   1) = (   0.0000000   0.0000000   0.0000000  )
         2           Cu1 tau(   2) = (   2.3158938   2.3158938   0.0000000  )
         3           Zr1 tau(   3) = (   2.3158938   0.0000000   1.6460144  )
         4           Zr1 tau(   4) = (   0.0000000   2.3158938   1.6460144  )

     number of k points=    75  Fermi-Dirac smearing, width (Ry)=  0.0073
                       cart. coord. in units 2pi/alat
        k(    1) = (   0.0000000   0.0000000   0.0000000), wk =   0.0027435
        k(    2) = (   0.0000000   0.0000000   0.0337516), wk =   0.0054870
        k(    3) = (   0.0000000   0.0000000   0.0675031), wk =   0.0054870
        k(    4) = (   0.0000000   0.0000000   0.1012547), wk =   0.0054870
        k(    5) = (   0.0000000   0.0000000   0.1350062), wk =   0.0054870
        k(    6) = (   0.0000000   0.0239888   0.0000000), wk =   0.0109739
        k(    7) = (   0.0000000   0.0239888   0.0337516), wk =   0.0219479
        k(    8) = (   0.0000000   0.0239888   0.0675031), wk =   0.0219479
        k(    9) = (   0.0000000   0.0239888   0.1012547), wk =   0.0219479
        k(   10) = (   0.0000000   0.0239888   0.1350062), wk =   0.0219479
        k(   11) = (   0.0000000   0.0479776   0.0000000), wk =   0.0109739
        k(   12) = (   0.0000000   0.0479776   0.0337516), wk =   0.0219479
        k(   13) = (   0.0000000   0.0479776   0.0675031), wk =   0.0219479
        k(   14) = (   0.0000000   0.0479776   0.1012547), wk =   0.0219479
        k(   15) = (   0.0000000   0.0479776   0.1350062), wk =   0.0219479
        k(   16) = (   0.0000000   0.0719665   0.0000000), wk =   0.0109739
        k(   17) = (   0.0000000   0.0719665   0.0337516), wk =   0.0219479
        k(   18) = (   0.0000000   0.0719665   0.0675031), wk =   0.0219479
        k(   19) = (   0.0000000   0.0719665   0.1012547), wk =   0.0219479
        k(   20) = (   0.0000000   0.0719665   0.1350062), wk =   0.0219479
        k(   21) = (   0.0000000   0.0959553   0.0000000), wk =   0.0109739
        k(   22) = (   0.0000000   0.0959553   0.0337516), wk =   0.0219479
        k(   23) = (   0.0000000   0.0959553   0.0675031), wk =   0.0219479
        k(   24) = (   0.0000000   0.0959553   0.1012547), wk =   0.0219479
        k(   25) = (   0.0000000   0.0959553   0.1350062), wk =   0.0219479
        k(   26) = (   0.0239888   0.0239888   0.0000000), wk =   0.0109739
        k(   27) = (   0.0239888   0.0239888   0.0337516), wk =   0.0219479
        k(   28) = (   0.0239888   0.0239888   0.0675031), wk =   0.0219479
        k(   29) = (   0.0239888   0.0239888   0.1012547), wk =   0.0219479
        k(   30) = (   0.0239888   0.0239888   0.1350062), wk =   0.0219479
        k(   31) = (   0.0239888   0.0479776   0.0000000), wk =   0.0219479
        k(   32) = (   0.0239888   0.0479776   0.0337516), wk =   0.0438957
        k(   33) = (   0.0239888   0.0479776   0.0675031), wk =   0.0438957
        k(   34) = (   0.0239888   0.0479776   0.1012547), wk =   0.0438957
        k(   35) = (   0.0239888   0.0479776   0.1350062), wk =   0.0438957
        k(   36) = (   0.0239888   0.0719665   0.0000000), wk =   0.0219479
        k(   37) = (   0.0239888   0.0719665   0.0337516), wk =   0.0438957
        k(   38) = (   0.0239888   0.0719665   0.0675031), wk =   0.0438957
        k(   39) = (   0.0239888   0.0719665   0.1012547), wk =   0.0438957
        k(   40) = (   0.0239888   0.0719665   0.1350062), wk =   0.0438957
        k(   41) = (   0.0239888   0.0959553   0.0000000), wk =   0.0219479
        k(   42) = (   0.0239888   0.0959553   0.0337516), wk =   0.0438957
        k(   43) = (   0.0239888   0.0959553   0.0675031), wk =   0.0438957
        k(   44) = (   0.0239888   0.0959553   0.1012547), wk =   0.0438957
        k(   45) = (   0.0239888   0.0959553   0.1350062), wk =   0.0438957
        k(   46) = (   0.0479776   0.0479776   0.0000000), wk =   0.0109739
        k(   47) = (   0.0479776   0.0479776   0.0337516), wk =   0.0219479
        k(   48) = (   0.0479776   0.0479776   0.0675031), wk =   0.0219479
        k(   49) = (   0.0479776   0.0479776   0.1012547), wk =   0.0219479
        k(   50) = (   0.0479776   0.0479776   0.1350062), wk =   0.0219479
        k(   51) = (   0.0479776   0.0719665   0.0000000), wk =   0.0219479
        k(   52) = (   0.0479776   0.0719665   0.0337516), wk =   0.0438957
        k(   53) = (   0.0479776   0.0719665   0.0675031), wk =   0.0438957
        k(   54) = (   0.0479776   0.0719665   0.1012547), wk =   0.0438957
        k(   55) = (   0.0479776   0.0719665   0.1350062), wk =   0.0438957
        k(   56) = (   0.0479776   0.0959553   0.0000000), wk =   0.0219479
        k(   57) = (   0.0479776   0.0959553   0.0337516), wk =   0.0438957
        k(   58) = (   0.0479776   0.0959553   0.0675031), wk =   0.0438957
        k(   59) = (   0.0479776   0.0959553   0.1012547), wk =   0.0438957
        k(   60) = (   0.0479776   0.0959553   0.1350062), wk =   0.0438957
        k(   61) = (   0.0719665   0.0719665   0.0000000), wk =   0.0109739
        k(   62) = (   0.0719665   0.0719665   0.0337516), wk =   0.0219479
        k(   63) = (   0.0719665   0.0719665   0.0675031), wk =   0.0219479
        k(   64) = (   0.0719665   0.0719665   0.1012547), wk =   0.0219479
        k(   65) = (   0.0719665   0.0719665   0.1350062), wk =   0.0219479
        k(   66) = (   0.0719665   0.0959553   0.0000000), wk =   0.0219479
        k(   67) = (   0.0719665   0.0959553   0.0337516), wk =   0.0438957
        k(   68) = (   0.0719665   0.0959553   0.0675031), wk =   0.0438957
        k(   69) = (   0.0719665   0.0959553   0.1012547), wk =   0.0438957
        k(   70) = (   0.0719665   0.0959553   0.1350062), wk =   0.0438957
        k(   71) = (   0.0959553   0.0959553   0.0000000), wk =   0.0109739
        k(   72) = (   0.0959553   0.0959553   0.0337516), wk =   0.0219479
        k(   73) = (   0.0959553   0.0959553   0.0675031), wk =   0.0219479
        k(   74) = (   0.0959553   0.0959553   0.1012547), wk =   0.0219479
        k(   75) = (   0.0959553   0.0959553   0.1350062), wk =   0.0219479

     Largest allocated arrays     est. size (Mb)     dimensions
     Largest temporary arrays     est. size (Mb)     dimensions

     Initial potential from superposition of free atoms
     Check: negative starting charge=   -0.121615

     starting charge   59.99570, renormalised to   62.00000

     negative rho (up, down):  1.257E-01 0.000E+00

     *
     * You are using vdW-DF for exchange-correlation in this calculation.
     * Please cite the following three references that made this development
     * possible:
     *
     *   M. Dion, H. Rydberg, E. Schroder, D. C. Langreth, and
     *   B. I. Lundqvist, Phys. Rev. Lett. 92, 246401 (2004).
     *
     *   T. Thonhauser, V. R. Cooper, S. Li, A. Puzder, P. Hyldgaard, and
     *   D. C. Langreth, Phys. Rev. B 76, 125112 (2007).
     *
     *   G. Roman-Perez and J. M. Soler, Phys. Rev. Lett. 103, 096102 (2009).
     *
     *
     * If you are using vdW-DF2, please also cite:
     *
     *   K. Lee, E. D. Murray, L. Kong, B. I. Lundqvist, and
     *   D. C. Langreth, Phys. Rev. B 82, 081101(R) (2010).
     *
     *
     * If you are calculating the stress with vdW-DF, please also cite:
     *
     *   R. Sabatini, E. Kucukbenli, B. Kolb, T. Thonhauser, and
     *   S. de Gironcoli, J. Phys.: Condens. Matter 24, 424209 (2012).
     *

     Carrying out vdW-DF run using the following parameters:

     Nqs =      20    Nr_points =    1024   r_max =   100.000
     q_mesh =
               0.00001000     0.04494208     0.09755937     0.15916263
               0.23128650     0.31572767     0.41458969     0.53033537
               0.66584808     0.82450364     1.01025438     1.22772762
               1.48234092     1.78043706     2.12944203     2.53805004
               3.01644009     3.57652955     4.23227104     5.00000000

     Gradients computed in reciprocal space

     Starting wfc are   52 randomized atomic wfcs

     Self-consistent Calculation

     iteration #  1     ecut=    58.80 Ry     beta=0.10
     Davidson diagonalization with overlap
     ethr =  1.00E-02,  avg # of iterations =  4.3

[...]

     total energy              =   -1009.62097578 Ry
     Harris-Foulkes estimate   =   -1009.95329596 Ry
     estimated scf accuracy    <       1.96734965 Ry

[...]

     total energy              =   -1009.52023506 Ry
     Harris-Foulkes estimate   =   -1009.52023146 Ry
     estimated scf accuracy    <       0.00000225 Ry

     iteration # 13     ecut=    58.80 Ry     beta=0.10
     Davidson diagonalization with overlap
     ethr =  2.18E-09,  avg # of iterations =  2.0

     negative rho (up, down):  1.250E-01 0.000E+00

     End of self-consistent calculation

          k = 0.0000 0.0000 0.0000 (  3627 PWs)   bands (ev):

   -98.5308 -98.5306 -55.9090 -55.9090 -55.9083 -55.9080 -55.9069 -55.9069
   -34.7486 -34.6780 -12.8714 -12.8714 -12.5194 -12.5059 -12.5059 -12.4435
     7.4044   9.8185  10.4074  10.4145  10.4525  11.0470  11.0470  11.4533
    11.4533  11.4633  11.8415  12.4008  14.3357  14.3544  14.9403  15.1046
    15.1046  17.1251  17.1251  18.2638  18.2638  18.2917  19.4258  21.2240
    21.3538  21.3538  22.8553  23.1653  24.9493  26.9646  26.9646  28.1556
    29.1481  29.1556  30.6950

[...]

          k = 0.0960 0.0960 0.1350 (  3593 PWs)   bands (ev):

   -98.5307 -98.5306 -55.9101 -55.9101 -55.9090 -55.9089 -55.9067 -55.9066
   -34.6821 -34.6800 -12.8744 -12.8642 -12.8573 -12.8540 -12.4458 -12.4348
     9.8618   9.8779  10.4787  10.4947  11.0728  11.0755  11.0765  11.0977
    11.7887  11.8101  12.3221  12.3586  14.3867  14.4922  14.9216  15.0540
    15.2165  15.3901  17.0724  17.1852  17.3192  17.3687  19.4047  19.4167
    22.6241  22.8562  23.1236  23.2490  25.2317  25.2453  26.9873  27.1841
    27.2339  27.2501  31.9176

     the Fermi energy is    14.4654 ev

!    total energy              =   -1009.52025947 Ry
     Harris-Foulkes estimate   =   -1009.52023535 Ry
     estimated scf accuracy    <       0.00000015 Ry

     The total energy is the sum of the following terms:

     one-electron contribution =    -687.17462693 Ry
     hartree contribution      =     374.70389756 Ry
     xc contribution           =    -116.84942196 Ry
     ewald contribution        =    -580.18763959 Ry
     smearing contrib. (-TS)   =      -0.01246855 Ry

     convergence has been achieved in  13 iterations

     Forces acting on atoms (Ry/au):

     negative rho (up, down):  1.250E-01 0.000E+00
     atom    1 type  1   force =     0.00000000    0.00000000    0.00000000
     atom    2 type  1   force =     0.00000000    0.00000000    0.00000000
     atom    3 type  2   force =     0.00000000    0.00000000    0.00000000
     atom    4 type  2   force =     0.00000000    0.00000000    0.00000000

     Total force =     0.000000     Total SCF correction =     0.000000

     General routines

     Parallel routines

   This run was terminated on:   9:10:54  14Nov2017

   JOB DONE.