     Program PWSCF v.5.1rc2 starts on 14Nov2017 at 15:10:48

     Current dimensions of program PWSCF are:
     Max number of different atomic species (ntypx) = 10
     Max number of k-points (npk) =  40000
     Max angular momentum in pseudopotentials (lmaxx) =  3

     IMPORTANT: XC functional enforced from input :
     Exchange-correlation      = BEEF-VDW ( 1  4 27 13 2)
     Any further DFT definition will be discarded
     Please, verify this is what you really want

     Found symmetry operation: I + ( -0.5000 -0.5000  0.0000)
     This is a supercell, fractional translations are disabled

     bravais-lattice index     =            0
     lattice parameter (alat)  =       1.8897  a.u.
     unit-cell volume          =     783.4058 (a.u.)^3
     number of atoms/cell      =            4
     number of atomic types    =            2
     number of electrons       =        60.00
     number of Kohn-Sham states=           50
     kinetic-energy cutoff     =      58.7989  Ry
     charge density cutoff     =     587.9892  Ry
     convergence threshold     =      1.0E-06
     mixing beta               =       0.1000
     number of iterations used =           10  plain     mixing
     Exchange-correlation      = BEEF-VDW ( 1  4 27 13 2)

     celldm(1)=   1.889726  celldm(2)=   0.000000  celldm(3)=   0.000000
     celldm(4)=   0.000000  celldm(5)=   0.000000  celldm(6)=   0.000000

     crystal axes: (cart. coord. in units of alat)
               a(1) = (   5.484824   0.000000   0.000000 )
               a(2) = (   0.000000   5.484824   0.000000 )
               a(3) = (   0.000000   0.000000   3.858912 )

     reciprocal axes: (cart. coord. in units 2 pi/alat)
               b(1) = (  0.182321  0.000000  0.000000 )
               b(2) = (  0.000000  0.182321  0.000000 )
               b(3) = (  0.000000  0.000000  0.259140 )

     PseudoPot. # 1 for La read from file:
     /home/users/vossj/suncat/psp/gbrv1.5pbe/La.UPF
     MD5 check sum: 5937b0c7494ba0601a847275249473aa
     Pseudo is Ultrasoft + core correction, Zval = 11.0
     Generated by new atomic code, or converted to UPF format
     Using radial grid of  995 points,  8 beta functions with:
                l(1) =   0
                l(2) =   0
                l(3) =   1
                l(4) =   1
                l(5) =   2
                l(6) =   2
                l(7) =   3
                l(8) =   3
     Q(r) pseudized with  8 coefficients,  rinner =    1.700   1.700   1.700
                                                       1.700   1.700   1.700
                                                       1.700

     PseudoPot. # 2 for Ag read from file:
     /home/users/vossj/suncat/psp/gbrv1.5pbe/Ag.UPF
     MD5 check sum: d66d668201baa78d5eb5b04ef7011058
     Pseudo is Ultrasoft + core correction, Zval = 19.0
     Generated by new atomic code, or converted to UPF format
     Using radial grid of  887 points,  6 beta functions with:
                l(1) =   0
                l(2) =   0
                l(3) =   1
                l(4) =   1
                l(5) =   2
                l(6) =   2
     Q(r) pseudized with  6 coefficients,  rinner =    1.300   1.300   1.300
                                                       1.300   1.300

     vdW kernel table read from file vdW_kernel_table
     MD5 check sum: 095c7af220d748ca6e76c0b4c6cfb241

     atomic species   valence    mass     pseudopotential
        La1           11.00   138.90550     La( 1.00)
        Ag1           19.00   107.86800     Ag( 1.00)

     16 Sym. Ops., with inversion, found

   Cartesian axes

     site n.     atom                  positions (alat units)
         1           La1 tau(   1) = (   0.0000000   0.0000000   0.0000000  )
         2           La1 tau(   2) = (   2.7424118   2.7424118   0.0000000  )
         3           Ag1 tau(   3) = (   2.7424118   0.0000000   1.9294558  )
         4           Ag1 tau(   4) = (   0.0000000   2.7424118   1.9294558  )

     number of k points=    75  Fermi-Dirac smearing, width (Ry)=  0.0073
                       cart. coord. in units 2pi/alat
        k(    1) = (   0.0000000   0.0000000   0.0000000), wk =   0.0027435
        k(    2) = (   0.0000000   0.0000000   0.0287934), wk =   0.0054870
        k(    3) = (   0.0000000   0.0000000   0.0575868), wk =   0.0054870
        k(    4) = (   0.0000000   0.0000000   0.0863801), wk =   0.0054870
        k(    5) = (   0.0000000   0.0000000   0.1151735), wk =   0.0054870
        k(    6) = (   0.0000000   0.0202579   0.0000000), wk =   0.0109739
        k(    7) = (   0.0000000   0.0202579   0.0287934), wk =   0.0219479
        k(    8) = (   0.0000000   0.0202579   0.0575868), wk =   0.0219479
        k(    9) = (   0.0000000   0.0202579   0.0863801), wk =   0.0219479
        k(   10) = (   0.0000000   0.0202579   0.1151735), wk =   0.0219479
        k(   11) = (   0.0000000   0.0405158   0.0000000), wk =   0.0109739
        k(   12) = (   0.0000000   0.0405158   0.0287934), wk =   0.0219479
        k(   13) = (   0.0000000   0.0405158   0.0575868), wk =   0.0219479
        k(   14) = (   0.0000000   0.0405158   0.0863801), wk =   0.0219479
        k(   15) = (   0.0000000   0.0405158   0.1151735), wk =   0.0219479
        k(   16) = (   0.0000000   0.0607738   0.0000000), wk =   0.0109739
        k(   17) = (   0.0000000   0.0607738   0.0287934), wk =   0.0219479
        k(   18) = (   0.0000000   0.0607738   0.0575868), wk =   0.0219479
        k(   19) = (   0.0000000   0.0607738   0.0863801), wk =   0.0219479
        k(   20) = (   0.0000000   0.0607738   0.1151735), wk =   0.0219479
        k(   21) = (   0.0000000   0.0810317   0.0000000), wk =   0.0109739
        k(   22) = (   0.0000000   0.0810317   0.0287934), wk =   0.0219479
        k(   23) = (   0.0000000   0.0810317   0.0575868), wk =   0.0219479
        k(   24) = (   0.0000000   0.0810317   0.0863801), wk =   0.0219479
        k(   25) = (   0.0000000   0.0810317   0.1151735), wk =   0.0219479
        k(   26) = (   0.0202579   0.0202579   0.0000000), wk =   0.0109739
        k(   27) = (   0.0202579   0.0202579   0.0287934), wk =   0.0219479
        k(   28) = (   0.0202579   0.0202579   0.0575868), wk =   0.0219479
        k(   29) = (   0.0202579   0.0202579   0.0863801), wk =   0.0219479
        k(   30) = (   0.0202579   0.0202579   0.1151735), wk =   0.0219479
        k(   31) = (   0.0202579   0.0405158   0.0000000), wk =   0.0219479
        k(   32) = (   0.0202579   0.0405158   0.0287934), wk =   0.0438957
        k(   33) = (   0.0202579   0.0405158   0.0575868), wk =   0.0438957
        k(   34) = (   0.0202579   0.0405158   0.0863801), wk =   0.0438957
        k(   35) = (   0.0202579   0.0405158   0.1151735), wk =   0.0438957
        k(   36) = (   0.0202579   0.0607738   0.0000000), wk =   0.0219479
        k(   37) = (   0.0202579   0.0607738   0.0287934), wk =   0.0438957
        k(   38) = (   0.0202579   0.0607738   0.0575868), wk =   0.0438957
        k(   39) = (   0.0202579   0.0607738   0.0863801), wk =   0.0438957
        k(   40) = (   0.0202579   0.0607738   0.1151735), wk =   0.0438957
        k(   41) = (   0.0202579   0.0810317   0.0000000), wk =   0.0219479
        k(   42) = (   0.0202579   0.0810317   0.0287934), wk =   0.0438957
        k(   43) = (   0.0202579   0.0810317   0.0575868), wk =   0.0438957
        k(   44) = (   0.0202579   0.0810317   0.0863801), wk =   0.0438957
        k(   45) = (   0.0202579   0.0810317   0.1151735), wk =   0.0438957
        k(   46) = (   0.0405158   0.0405158   0.0000000), wk =   0.0109739
        k(   47) = (   0.0405158   0.0405158   0.0287934), wk =   0.0219479
        k(   48) = (   0.0405158   0.0405158   0.0575868), wk =   0.0219479
        k(   49) = (   0.0405158   0.0405158   0.0863801), wk =   0.0219479
        k(   50) = (   0.0405158   0.0405158   0.1151735), wk =   0.0219479
        k(   51) = (   0.0405158   0.0607738   0.0000000), wk =   0.0219479
        k(   52) = (   0.0405158   0.0607738   0.0287934), wk =   0.0438957
        k(   53) = (   0.0405158   0.0607738   0.0575868), wk =   0.0438957
        k(   54) = (   0.0405158   0.0607738   0.0863801), wk =   0.0438957
        k(   55) = (   0.0405158   0.0607738   0.1151735), wk =   0.0438957
        k(   56) = (   0.0405158   0.0810317   0.0000000), wk =   0.0219479
        k(   57) = (   0.0405158   0.0810317   0.0287934), wk =   0.0438957
        k(   58) = (   0.0405158   0.0810317   0.0575868), wk =   0.0438957
        k(   59) = (   0.0405158   0.0810317   0.0863801), wk =   0.0438957
        k(   60) = (   0.0405158   0.0810317   0.1151735), wk =   0.0438957
        k(   61) = (   0.0607738   0.0607738   0.0000000), wk =   0.0109739
        k(   62) = (   0.0607738   0.0607738   0.0287934), wk =   0.0219479
        k(   63) = (   0.0607738   0.0607738   0.0575868), wk =   0.0219479
        k(   64) = (   0.0607738   0.0607738   0.0863801), wk =   0.0219479
        k(   65) = (   0.0607738   0.0607738   0.1151735), wk =   0.0219479
        k(   66) = (   0.0607738   0.0810317   0.0000000), wk =   0.0219479
        k(   67) = (   0.0607738   0.0810317   0.0287934), wk =   0.0438957
        k(   68) = (   0.0607738   0.0810317   0.0575868), wk =   0.0438957
        k(   69) = (   0.0607738   0.0810317   0.0863801), wk =   0.0438957
        k(   70) = (   0.0607738   0.0810317   0.1151735), wk =   0.0438957
        k(   71) = (   0.0810317   0.0810317   0.0000000), wk =   0.0109739
        k(   72) = (   0.0810317   0.0810317   0.0287934), wk =   0.0219479
        k(   73) = (   0.0810317   0.0810317   0.0575868), wk =   0.0219479
        k(   74) = (   0.0810317   0.0810317   0.0863801), wk =   0.0219479
        k(   75) = (   0.0810317   0.0810317   0.1151735), wk =   0.0219479

     Largest allocated arrays     est. size (Mb)     dimensions
     Largest temporary arrays     est. size (Mb)     dimensions

     Initial potential from superposition of free atoms
     Check: negative starting charge=   -0.140790

     starting charge   58.93577, renormalised to   60.00000

     negative rho (up, down):  1.433E-01 0.000E+00

     *
     * You are using vdW-DF for exchange-correlation in this calculation.
     * Please cite the following three references that made this development
     * possible:
     *
     *   M. Dion, H. Rydberg, E. Schroder, D. C. Langreth, and
     *   B. I. Lundqvist, Phys. Rev. Lett. 92, 246401 (2004).
     *
     *   T. Thonhauser, V. R. Cooper, S. Li, A. Puzder, P. Hyldgaard, and
     *   D. C. Langreth, Phys. Rev. B 76, 125112 (2007).
     *
     *   G. Roman-Perez and J. M. Soler, Phys. Rev. Lett. 103, 096102 (2009).
     *
     *
     * If you are using vdW-DF2, please also cite:
     *
     *   K. Lee, E. D. Murray, L. Kong, B. I. Lundqvist, and
     *   D. C. Langreth, Phys. Rev. B 82, 081101(R) (2010).
     *
     *
     * If you are calculating the stress with vdW-DF, please also cite:
     *
     *   R. Sabatini, E. Kucukbenli, B. Kolb, T. Thonhauser, and
     *   S. de Gironcoli, J. Phys.: Condens. Matter 24, 424209 (2012).
     *

     Carrying out vdW-DF run using the following parameters:

     Nqs =      20    Nr_points =    1024   r_max =   100.000
     q_mesh =
               0.00001000     0.04494208     0.09755937     0.15916263
               0.23128650     0.31572767     0.41458969     0.53033537
               0.66584808     0.82450364     1.01025438     1.22772762
               1.48234092     1.78043706     2.12944203     2.53805004
               3.01644009     3.57652955     4.23227104     5.00000000

     Gradients computed in reciprocal space

     Starting wfc are   66 randomized atomic wfcs

     Self-consistent Calculation

     iteration #  1     ecut=    58.80 Ry     beta=0.10
     Davidson diagonalization with overlap
     ethr =  1.00E-02,  avg # of iterations =  2.0

[...]

     total energy              =    -801.26848728 Ry
     Harris-Foulkes estimate   =    -802.17319240 Ry
     estimated scf accuracy    <       5.12682290 Ry

[...]

     total energy              =    -801.50677389 Ry
     Harris-Foulkes estimate   =    -801.50673470 Ry
     estimated scf accuracy    <       0.00000157 Ry

     iteration # 13     ecut=    58.80 Ry     beta=0.10
     Davidson diagonalization with overlap
     ethr =  2.62E-09,  avg # of iterations =  3.0

     negative rho (up, down):  1.048E-01 0.000E+00

     End of self-consistent calculation

          k = 0.0000 0.0000 0.0000 (  5969 PWs)   bands (ev):

   -80.2755 -80.2755 -43.7488 -43.7488 -43.7472 -43.7472 -43.7454 -43.7454
   -21.3507 -21.2676  -5.1320  -5.1320  -4.6597  -4.6597  -4.6471  -4.5446
     7.0590   7.0605   7.1230   7.1520   7.1918   7.3497   7.3497   7.5734
     7.5809   7.5809   7.8909   9.6767  12.3087  12.3232  12.8989  12.9228
    12.9228  13.4747  13.4747  13.4769  13.4769  13.4769  13.4865  13.4884
    13.4884  13.4938  13.6885  13.7519  13.7877  14.2945  14.2945  15.1567
    15.1567  16.3475

[...]

          k = 0.0810 0.0810 0.1152 (  5987 PWs)   bands (ev):

   -80.2754 -80.2754 -43.7488 -43.7488 -43.7472 -43.7472 -43.7470 -43.7470
   -21.2677 -21.2651  -5.1302  -5.1300  -5.1252  -5.1168  -4.5725  -4.5576
     7.1389   7.1432   7.1704   7.1822   7.3469   7.3497   7.3502   7.3607
     7.8729   7.8852   9.7095   9.7168  12.5074  12.6165  12.8522  12.9466
    13.1462  13.2212  13.4609  13.4636  13.4645  13.4658  13.4717  13.4774
    13.7419  13.7453  13.7815  13.8017  14.1227  14.1265  14.2494  14.2698
    15.0446  15.1555

     the Fermi energy is    12.1745 ev

!    total energy              =    -801.50694472 Ry
     Harris-Foulkes estimate   =    -801.50677474 Ry
     estimated scf accuracy    <       0.00000077 Ry

     The total energy is the sum of the following terms:

     one-electron contribution =    -394.82837434 Ry
     hartree contribution      =     220.32476243 Ry
     xc contribution           =    -161.54466181 Ry
     ewald contribution        =    -465.44752524 Ry
     smearing contrib. (-TS)   =      -0.01114576 Ry

     convergence has been achieved in  13 iterations

     Forces acting on atoms (Ry/au):

     negative rho (up, down):  1.048E-01 0.000E+00
     atom    1 type  1   force =     0.00000000    0.00000000    0.00000000
     atom    2 type  1   force =     0.00000000    0.00000000    0.00000000
     atom    3 type  2   force =     0.00000000    0.00000000    0.00000000
     atom    4 type  2   force =     0.00000000    0.00000000    0.00000000

     Total force =     0.000000     Total SCF correction =     0.000000

     General routines

     Parallel routines

   This run was terminated on:  15:12: 9  14Nov2017

   JOB DONE.