     Program PWSCF v.5.1rc2 starts on 15Nov2017 at  5:36:45

     Current dimensions of program PWSCF are:
     Max number of different atomic species (ntypx) = 10
     Max number of k-points (npk) =  40000
     Max angular momentum in pseudopotentials (lmaxx) =  3

     IMPORTANT: XC functional enforced from input :
     Exchange-correlation      = BEEF-VDW ( 1  4 27 13 2)
     Any further DFT definition will be discarded
     Please, verify this is what you really want

     Found symmetry operation: I + ( -0.5000 -0.5000  0.0000)
     This is a supercell, fractional translations are disabled

     bravais-lattice index     =            0
     lattice parameter (alat)  =       1.8897  a.u.
     unit-cell volume          =     476.5631 (a.u.)^3
     number of atoms/cell      =            4
     number of atomic types    =            2
     number of electrons       =        58.00
     number of Kohn-Sham states=           49
     kinetic-energy cutoff     =      58.7989  Ry
     charge density cutoff     =     587.9892  Ry
     convergence threshold     =      1.0E-06
     mixing beta               =       0.1000
     number of iterations used =           10  plain     mixing
     Exchange-correlation      = BEEF-VDW ( 1  4 27 13 2)

     celldm(1)=   1.889726  celldm(2)=   0.000000  celldm(3)=   0.000000
     celldm(4)=   0.000000  celldm(5)=   0.000000  celldm(6)=   0.000000

     crystal axes: (cart. coord. in units of alat)
               a(1) = (   4.632324   0.000000   0.000000 )
               a(2) = (   0.000000   4.632324   0.000000 )
               a(3) = (   0.000000   0.000000   3.290986 )

     reciprocal axes: (cart. coord. in units 2 pi/alat)
               b(1) = (  0.215874  0.000000  0.000000 )
               b(2) = (  0.000000  0.215874  0.000000 )
               b(3) = (  0.000000  0.000000  0.303860 )

     PseudoPot. # 1 for Sn read from file:
     /home/users/vossj/suncat/psp/gbrv1.5pbe/Sn.UPF
     MD5 check sum: 469debedee59599fedebd795477fea03
     Pseudo is Ultrasoft + core correction, Zval = 14.0
     Generated by new atomic code, or converted to UPF format
     Using radial grid of  891 points,  6 beta functions with:
                l(1) =   0
                l(2) =   0
                l(3) =   1
                l(4) =   1
                l(5) =   2
                l(6) =   2
     Q(r) pseudized with  8 coefficients,  rinner =    1.350   1.350   1.350
                                                       1.350   1.350

     PseudoPot. # 2 for Re read from file:
     /home/users/vossj/suncat/psp/gbrv1.5pbe/Re.UPF
     MD5 check sum: 85f993410f3e006da9d71c142b4ad953
     Pseudo is Ultrasoft + core correction, Zval = 15.0
     Generated by new atomic code, or converted to UPF format
     Using radial grid of  981 points,  8 beta functions with:
                l(1) =   0
                l(2) =   0
                l(3) =   1
                l(4) =   1
                l(5) =   2
                l(6) =   2
                l(7) =   3
                l(8) =   3
     Q(r) pseudized with  8 coefficients,  rinner =    1.150   1.150   1.150
                                                       1.150   1.150   1.150
                                                       1.150

     vdW kernel table read from file vdW_kernel_table
     MD5 check sum: 095c7af220d748ca6e76c0b4c6cfb241

     atomic species   valence    mass     pseudopotential
        Sn1           14.00   118.71000     Sn( 1.00)
        Re1           15.00   186.20700     Re( 1.00)

     16 Sym. Ops., with inversion, found

   Cartesian axes

     site n.     atom                  positions (alat units)
         1           Sn1 tau(   1) = (   0.0000000   0.0000000   0.0000000  )
         2           Sn1 tau(   2) = (   2.3161618   2.3161618   0.0000000  )
         3           Re1 tau(   3) = (   2.3161618   0.0000000   1.6454929  )
         4           Re1 tau(   4) = (   0.0000000   2.3161618   1.6454929  )

     number of k points=    75  Fermi-Dirac smearing, width (Ry)=  0.0073
                       cart. coord. in units 2pi/alat
        k(    1) = (   0.0000000   0.0000000   0.0000000), wk =   0.0027435
        k(    2) = (   0.0000000   0.0000000   0.0337623), wk =   0.0054870
        k(    3) = (   0.0000000   0.0000000   0.0675245), wk =   0.0054870
        k(    4) = (   0.0000000   0.0000000   0.1012868), wk =   0.0054870
        k(    5) = (   0.0000000   0.0000000   0.1350490), wk =   0.0054870
        k(    6) = (   0.0000000   0.0239860   0.0000000), wk =   0.0109739
        k(    7) = (   0.0000000   0.0239860   0.0337623), wk =   0.0219479
        k(    8) = (   0.0000000   0.0239860   0.0675245), wk =   0.0219479
        k(    9) = (   0.0000000   0.0239860   0.1012868), wk =   0.0219479
        k(   10) = (   0.0000000   0.0239860   0.1350490), wk =   0.0219479
        k(   11) = (   0.0000000   0.0479721   0.0000000), wk =   0.0109739
        k(   12) = (   0.0000000   0.0479721   0.0337623), wk =   0.0219479
        k(   13) = (   0.0000000   0.0479721   0.0675245), wk =   0.0219479
        k(   14) = (   0.0000000   0.0479721   0.1012868), wk =   0.0219479
        k(   15) = (   0.0000000   0.0479721   0.1350490), wk =   0.0219479
        k(   16) = (   0.0000000   0.0719581   0.0000000), wk =   0.0109739
        k(   17) = (   0.0000000   0.0719581   0.0337623), wk =   0.0219479
        k(   18) = (   0.0000000   0.0719581   0.0675245), wk =   0.0219479
        k(   19) = (   0.0000000   0.0719581   0.1012868), wk =   0.0219479
        k(   20) = (   0.0000000   0.0719581   0.1350490), wk =   0.0219479
        k(   21) = (   0.0000000   0.0959442   0.0000000), wk =   0.0109739
        k(   22) = (   0.0000000   0.0959442   0.0337623), wk =   0.0219479
        k(   23) = (   0.0000000   0.0959442   0.0675245), wk =   0.0219479
        k(   24) = (   0.0000000   0.0959442   0.1012868), wk =   0.0219479
        k(   25) = (   0.0000000   0.0959442   0.1350490), wk =   0.0219479
        k(   26) = (   0.0239860   0.0239860   0.0000000), wk =   0.0109739
        k(   27) = (   0.0239860   0.0239860   0.0337623), wk =   0.0219479
        k(   28) = (   0.0239860   0.0239860   0.0675245), wk =   0.0219479
        k(   29) = (   0.0239860   0.0239860   0.1012868), wk =   0.0219479
        k(   30) = (   0.0239860   0.0239860   0.1350490), wk =   0.0219479
        k(   31) = (   0.0239860   0.0479721   0.0000000), wk =   0.0219479
        k(   32) = (   0.0239860   0.0479721   0.0337623), wk =   0.0438957
        k(   33) = (   0.0239860   0.0479721   0.0675245), wk =   0.0438957
        k(   34) = (   0.0239860   0.0479721   0.1012868), wk =   0.0438957
        k(   35) = (   0.0239860   0.0479721   0.1350490), wk =   0.0438957
        k(   36) = (   0.0239860   0.0719581   0.0000000), wk =   0.0219479
        k(   37) = (   0.0239860   0.0719581   0.0337623), wk =   0.0438957
        k(   38) = (   0.0239860   0.0719581   0.0675245), wk =   0.0438957
        k(   39) = (   0.0239860   0.0719581   0.1012868), wk =   0.0438957
        k(   40) = (   0.0239860   0.0719581   0.1350490), wk =   0.0438957
        k(   41) = (   0.0239860   0.0959442   0.0000000), wk =   0.0219479
        k(   42) = (   0.0239860   0.0959442   0.0337623), wk =   0.0438957
        k(   43) = (   0.0239860   0.0959442   0.0675245), wk =   0.0438957
        k(   44) = (   0.0239860   0.0959442   0.1012868), wk =   0.0438957
        k(   45) = (   0.0239860   0.0959442   0.1350490), wk =   0.0438957
        k(   46) = (   0.0479721   0.0479721   0.0000000), wk =   0.0109739
        k(   47) = (   0.0479721   0.0479721   0.0337623), wk =   0.0219479
        k(   48) = (   0.0479721   0.0479721   0.0675245), wk =   0.0219479
        k(   49) = (   0.0479721   0.0479721   0.1012868), wk =   0.0219479
        k(   50) = (   0.0479721   0.0479721   0.1350490), wk =   0.0219479
        k(   51) = (   0.0479721   0.0719581   0.0000000), wk =   0.0219479
        k(   52) = (   0.0479721   0.0719581   0.0337623), wk =   0.0438957
        k(   53) = (   0.0479721   0.0719581   0.0675245), wk =   0.0438957
        k(   54) = (   0.0479721   0.0719581   0.1012868), wk =   0.0438957
        k(   55) = (   0.0479721   0.0719581   0.1350490), wk =   0.0438957
        k(   56) = (   0.0479721   0.0959442   0.0000000), wk =   0.0219479
        k(   57) = (   0.0479721   0.0959442   0.0337623), wk =   0.0438957
        k(   58) = (   0.0479721   0.0959442   0.0675245), wk =   0.0438957
        k(   59) = (   0.0479721   0.0959442   0.1012868), wk =   0.0438957
        k(   60) = (   0.0479721   0.0959442   0.1350490), wk =   0.0438957
        k(   61) = (   0.0719581   0.0719581   0.0000000), wk =   0.0109739
        k(   62) = (   0.0719581   0.0719581   0.0337623), wk =   0.0219479
        k(   63) = (   0.0719581   0.0719581   0.0675245), wk =   0.0219479
        k(   64) = (   0.0719581   0.0719581   0.1012868), wk =   0.0219479
        k(   65) = (   0.0719581   0.0719581   0.1350490), wk =   0.0219479
        k(   66) = (   0.0719581   0.0959442   0.0000000), wk =   0.0219479
        k(   67) = (   0.0719581   0.0959442   0.0337623), wk =   0.0438957
        k(   68) = (   0.0719581   0.0959442   0.0675245), wk =   0.0438957
        k(   69) = (   0.0719581   0.0959442   0.1012868), wk =   0.0438957
        k(   70) = (   0.0719581   0.0959442   0.1350490), wk =   0.0438957
        k(   71) = (   0.0959442   0.0959442   0.0000000), wk =   0.0109739
        k(   72) = (   0.0959442   0.0959442   0.0337623), wk =   0.0219479
        k(   73) = (   0.0959442   0.0959442   0.0675245), wk =   0.0219479
        k(   74) = (   0.0959442   0.0959442   0.1012868), wk =   0.0219479
        k(   75) = (   0.0959442   0.0959442   0.1350490), wk =   0.0219479

     Largest allocated arrays     est. size (Mb)     dimensions
     Largest temporary arrays     est. size (Mb)     dimensions

     Initial potential from superposition of free atoms
     Check: negative starting charge=   -0.258675

     starting charge   54.99982, renormalised to   58.00000

     negative rho (up, down):  2.728E-01 0.000E+00

     *
     * You are using vdW-DF for exchange-correlation in this calculation.
     * Please cite the following three references that made this development
     * possible:
     *
     *   M. Dion, H. Rydberg, E. Schroder, D. C. Langreth, and
     *   B. I. Lundqvist, Phys. Rev. Lett. 92, 246401 (2004).
     *
     *   T. Thonhauser, V. R. Cooper, S. Li, A. Puzder, P. Hyldgaard, and
     *   D. C. Langreth, Phys. Rev. B 76, 125112 (2007).
     *
     *   G. Roman-Perez and J. M. Soler, Phys. Rev. Lett. 103, 096102 (2009).
     *
     *
     * If you are using vdW-DF2, please also cite:
     *
     *   K. Lee, E. D. Murray, L. Kong, B. I. Lundqvist, and
     *   D. C. Langreth, Phys. Rev. B 82, 081101(R) (2010).
     *
     *
     * If you are calculating the stress with vdW-DF, please also cite:
     *
     *   R. Sabatini, E. Kucukbenli, B. Kolb, T. Thonhauser, and
     *   S. de Gironcoli, J. Phys.: Condens. Matter 24, 424209 (2012).
     *

     Carrying out vdW-DF run using the following parameters:

     Nqs =      20    Nr_points =    1024   r_max =   100.000
     q_mesh =
               0.00001000     0.04494208     0.09755937     0.15916263
               0.23128650     0.31572767     0.41458969     0.53033537
               0.66584808     0.82450364     1.01025438     1.22772762
               1.48234092     1.78043706     2.12944203     2.53805004
               3.01644009     3.57652955     4.23227104     5.00000000

     Gradients computed in reciprocal space

     Starting wfc are   44 randomized atomic wfcs +    5 random wfc

     Self-consistent Calculation

     iteration #  1     ecut=    58.80 Ry     beta=0.10
     Davidson diagonalization with overlap
     ethr =  1.00E-02,  avg # of iterations =  5.1

[...]

     total energy              =    -706.07984694 Ry
     Harris-Foulkes estimate   =    -706.31643005 Ry
     estimated scf accuracy    <       1.50067869 Ry

[...]

     total energy              =    -705.65088076 Ry
     Harris-Foulkes estimate   =    -705.65088238 Ry
     estimated scf accuracy    <       0.00002967 Ry

     iteration #  9     ecut=    58.80 Ry     beta=0.10
     Davidson diagonalization with overlap
     ethr =  5.12E-08,  avg # of iterations =  2.0

     negative rho (up, down):  2.612E-01 0.000E+00

     End of self-consistent calculation

          k = 0.0000 0.0000 0.0000 (  3627 PWs)   bands (ev):

   -61.3787 -61.3721 -23.1717 -23.1717 -23.0751 -23.0751 -23.0737 -23.0551
    -3.1012  -3.0960  -3.0664  -2.9914  -2.9776  -2.9776  -2.9123  -2.9123
    -2.9109  -2.7930   6.7232  10.8931  15.2269  15.2269  15.5809  15.7230
    15.7288  18.0162  18.0162  19.1988  19.1988  19.2224  20.5452  21.2741
    21.3977  21.3977  22.0180  22.1964  25.1997  25.8947  28.8572  28.8572
    29.9217  29.9274  32.6549  33.1030  33.1884  33.1884  33.4984  36.8456
    36.8456

[...]

          k = 0.0959 0.0959 0.1350 (  3595 PWs)   bands (ev):

   -61.3726 -61.3724 -23.1724 -23.1696 -23.1625 -23.1618 -23.0606 -23.0577
    -3.0600  -3.0582  -3.0000  -2.9926  -2.9768  -2.9737  -2.9733  -2.9711
    -2.8041  -2.7991  10.7893  10.8689  14.5113  14.6784  15.1864  15.2281
    15.9821  16.1849  17.9859  18.0821  18.1183  18.1911  20.5105  20.5262
    21.9708  22.0195  22.0264  22.4487  25.4137  25.4632  28.8044  28.8958
    29.0043  29.1014  32.8839  33.0162  33.0163  33.0682  36.7937  36.9452
    37.0806

     the Fermi energy is    18.6533 ev

!    total energy              =    -705.65092815 Ry
     Harris-Foulkes estimate   =    -705.65088553 Ry
     estimated scf accuracy    <       0.00000044 Ry

     The total energy is the sum of the following terms:

     one-electron contribution =    -116.94121638 Ry
     hartree contribution      =     103.08436072 Ry
     xc contribution           =    -197.78040834 Ry
     ewald contribution        =    -494.00459818 Ry
     smearing contrib. (-TS)   =      -0.00906597 Ry

     convergence has been achieved in   9 iterations

     Forces acting on atoms (Ry/au):

     negative rho (up, down):  2.612E-01 0.000E+00
     atom    1 type  1   force =     0.00000000    0.00000000    0.00000000
     atom    2 type  1   force =     0.00000000    0.00000000    0.00000000
     atom    3 type  2   force =     0.00000000    0.00000000    0.00000000
     atom    4 type  2   force =     0.00000000    0.00000000    0.00000000

     Total force =     0.000000     Total SCF correction =     0.000000

     General routines

     Parallel routines

   This run was terminated on:   5:37:22  15Nov2017

   JOB DONE.