     Program PWSCF v.5.1rc2 starts on 15Nov2017 at  7:25:15

     Current dimensions of program PWSCF are:
     Max number of different atomic species (ntypx) = 10
     Max number of k-points (npk) =  40000
     Max angular momentum in pseudopotentials (lmaxx) =  3

     IMPORTANT: XC functional enforced from input :
     Exchange-correlation      = BEEF-VDW ( 1  4 27 13 2)
     Any further DFT definition will be discarded
     Please, verify this is what you really want

     Found symmetry operation: I + (  0.5000  0.5000  0.0000)
     This is a supercell, fractional translations are disabled

     bravais-lattice index     =            0
     lattice parameter (alat)  =       1.8897  a.u.
     unit-cell volume          =     511.0811 (a.u.)^3
     number of atoms/cell      =            4
     number of atomic types    =            2
     number of electrons       =        56.00
     number of Kohn-Sham states=           48
     kinetic-energy cutoff     =      58.7989  Ry
     charge density cutoff     =     587.9892  Ry
     convergence threshold     =      1.0E-06
     mixing beta               =       0.1000
     number of iterations used =           10  plain     mixing
     Exchange-correlation      = BEEF-VDW ( 1  4 27 13 2)

     celldm(1)=   1.889726  celldm(2)=   0.000000  celldm(3)=   0.000000
     celldm(4)=   0.000000  celldm(5)=   0.000000  celldm(6)=   0.000000

     crystal axes: (cart. coord. in units of alat)
               a(1) = (   4.521796   0.000000   0.000000 )
               a(2) = (   0.000000   4.521796   0.000000 )
               a(3) = (   0.000000   0.000000   3.704002 )

     reciprocal axes: (cart. coord. in units 2 pi/alat)
               b(1) = (  0.221151  0.000000  0.000000 )
               b(2) = (  0.000000  0.221151  0.000000 )
               b(3) = (  0.000000  0.000000  0.269978 )

     PseudoPot. # 1 for Zr read from file:
     /home/users/vossj/suncat/psp/gbrv1.5pbe/Zr.UPF
     MD5 check sum: 5db81b1e868ab7776c4564c113de050b
     Pseudo is Ultrasoft + core correction, Zval = 12.0
     Generated by new atomic code, or converted to UPF format
     Using radial grid of  887 points,  6 beta functions with:
                l(1) =   0
                l(2) =   0
                l(3) =   1
                l(4) =   1
                l(5) =   2
                l(6) =   2
     Q(r) pseudized with  6 coefficients,  rinner =    1.200   1.200   1.200
                                                       1.200   1.200

     PseudoPot. # 2 for Pd read from file:
     /home/users/vossj/suncat/psp/gbrv1.5pbe/Pd.UPF
     MD5 check sum: 2d733d2bc2cbfd217af676df1668a4bc
     Pseudo is Ultrasoft + core correction, Zval = 16.0
     Generated by new atomic code, or converted to UPF format
     Using radial grid of  887 points,  6 beta functions with:
                l(1) =   0
                l(2) =   0
                l(3) =   1
                l(4) =   1
                l(5) =   2
                l(6) =   2
     Q(r) pseudized with  8 coefficients,  rinner =    1.130   1.130   1.130
                                                       1.130   1.130

     vdW kernel table read from file vdW_kernel_table
     MD5 check sum: 095c7af220d748ca6e76c0b4c6cfb241

     atomic species   valence    mass     pseudopotential
        Zr1           12.00    91.22400     Zr( 1.00)
        Pd1           16.00   106.42000     Pd( 1.00)

     16 Sym. Ops., with inversion, found

   Cartesian axes

     site n.     atom                  positions (alat units)
         1           Zr1 tau(   1) = (   0.0000000   0.0000000   0.0000000  )
         2           Zr1 tau(   2) = (   2.2608982   2.2608982   0.0000000  )
         3           Pd1 tau(   3) = (   2.2608982   0.0000000   1.8520008  )
         4           Pd1 tau(   4) = (   0.0000000   2.2608982   1.8520008  )

     number of k points=    75  Fermi-Dirac smearing, width (Ry)=  0.0073
                       cart. coord. in units 2pi/alat
        k(    1) = (   0.0000000   0.0000000   0.0000000), wk =   0.0027435
        k(    2) = (   0.0000000   0.0000000   0.0299976), wk =   0.0054870
        k(    3) = (   0.0000000   0.0000000   0.0599952), wk =   0.0054870
        k(    4) = (   0.0000000   0.0000000   0.0899928), wk =   0.0054870
        k(    5) = (   0.0000000   0.0000000   0.1199904), wk =   0.0054870
        k(    6) = (   0.0000000   0.0245723   0.0000000), wk =   0.0109739
        k(    7) = (   0.0000000   0.0245723   0.0299976), wk =   0.0219479
        k(    8) = (   0.0000000   0.0245723   0.0599952), wk =   0.0219479
        k(    9) = (   0.0000000   0.0245723   0.0899928), wk =   0.0219479
        k(   10) = (   0.0000000   0.0245723   0.1199904), wk =   0.0219479
        k(   11) = (   0.0000000   0.0491447   0.0000000), wk =   0.0109739
        k(   12) = (   0.0000000   0.0491447   0.0299976), wk =   0.0219479
        k(   13) = (   0.0000000   0.0491447   0.0599952), wk =   0.0219479
        k(   14) = (   0.0000000   0.0491447   0.0899928), wk =   0.0219479
        k(   15) = (   0.0000000   0.0491447   0.1199904), wk =   0.0219479
        k(   16) = (   0.0000000   0.0737170   0.0000000), wk =   0.0109739
        k(   17) = (   0.0000000   0.0737170   0.0299976), wk =   0.0219479
        k(   18) = (   0.0000000   0.0737170   0.0599952), wk =   0.0219479
        k(   19) = (   0.0000000   0.0737170   0.0899928), wk =   0.0219479
        k(   20) = (   0.0000000   0.0737170   0.1199904), wk =   0.0219479
        k(   21) = (   0.0000000   0.0982894   0.0000000), wk =   0.0109739
        k(   22) = (   0.0000000   0.0982894   0.0299976), wk =   0.0219479
        k(   23) = (   0.0000000   0.0982894   0.0599952), wk =   0.0219479
        k(   24) = (   0.0000000   0.0982894   0.0899928), wk =   0.0219479
        k(   25) = (   0.0000000   0.0982894   0.1199904), wk =   0.0219479
        k(   26) = (   0.0245723   0.0245723   0.0000000), wk =   0.0109739
        k(   27) = (   0.0245723   0.0245723   0.0299976), wk =   0.0219479
        k(   28) = (   0.0245723   0.0245723   0.0599952), wk =   0.0219479
        k(   29) = (   0.0245723   0.0245723   0.0899928), wk =   0.0219479
        k(   30) = (   0.0245723   0.0245723   0.1199904), wk =   0.0219479
        k(   31) = (   0.0245723   0.0491447   0.0000000), wk =   0.0219479
        k(   32) = (   0.0245723   0.0491447   0.0299976), wk =   0.0438957
        k(   33) = (   0.0245723   0.0491447   0.0599952), wk =   0.0438957
        k(   34) = (   0.0245723   0.0491447   0.0899928), wk =   0.0438957
        k(   35) = (   0.0245723   0.0491447   0.1199904), wk =   0.0438957
        k(   36) = (   0.0245723   0.0737170   0.0000000), wk =   0.0219479
        k(   37) = (   0.0245723   0.0737170   0.0299976), wk =   0.0438957
        k(   38) = (   0.0245723   0.0737170   0.0599952), wk =   0.0438957
        k(   39) = (   0.0245723   0.0737170   0.0899928), wk =   0.0438957
        k(   40) = (   0.0245723   0.0737170   0.1199904), wk =   0.0438957
        k(   41) = (   0.0245723   0.0982894   0.0000000), wk =   0.0219479
        k(   42) = (   0.0245723   0.0982894   0.0299976), wk =   0.0438957
        k(   43) = (   0.0245723   0.0982894   0.0599952), wk =   0.0438957
        k(   44) = (   0.0245723   0.0982894   0.0899928), wk =   0.0438957
        k(   45) = (   0.0245723   0.0982894   0.1199904), wk =   0.0438957
        k(   46) = (   0.0491447   0.0491447   0.0000000), wk =   0.0109739
        k(   47) = (   0.0491447   0.0491447   0.0299976), wk =   0.0219479
        k(   48) = (   0.0491447   0.0491447   0.0599952), wk =   0.0219479
        k(   49) = (   0.0491447   0.0491447   0.0899928), wk =   0.0219479
        k(   50) = (   0.0491447   0.0491447   0.1199904), wk =   0.0219479
        k(   51) = (   0.0491447   0.0737170   0.0000000), wk =   0.0219479
        k(   52) = (   0.0491447   0.0737170   0.0299976), wk =   0.0438957
        k(   53) = (   0.0491447   0.0737170   0.0599952), wk =   0.0438957
        k(   54) = (   0.0491447   0.0737170   0.0899928), wk =   0.0438957
        k(   55) = (   0.0491447   0.0737170   0.1199904), wk =   0.0438957
        k(   56) = (   0.0491447   0.0982894   0.0000000), wk =   0.0219479
        k(   57) = (   0.0491447   0.0982894   0.0299976), wk =   0.0438957
        k(   58) = (   0.0491447   0.0982894   0.0599952), wk =   0.0438957
        k(   59) = (   0.0491447   0.0982894   0.0899928), wk =   0.0438957
        k(   60) = (   0.0491447   0.0982894   0.1199904), wk =   0.0438957
        k(   61) = (   0.0737170   0.0737170   0.0000000), wk =   0.0109739
        k(   62) = (   0.0737170   0.0737170   0.0299976), wk =   0.0219479
        k(   63) = (   0.0737170   0.0737170   0.0599952), wk =   0.0219479
        k(   64) = (   0.0737170   0.0737170   0.0899928), wk =   0.0219479
        k(   65) = (   0.0737170   0.0737170   0.1199904), wk =   0.0219479
        k(   66) = (   0.0737170   0.0982894   0.0000000), wk =   0.0219479
        k(   67) = (   0.0737170   0.0982894   0.0299976), wk =   0.0438957
        k(   68) = (   0.0737170   0.0982894   0.0599952), wk =   0.0438957
        k(   69) = (   0.0737170   0.0982894   0.0899928), wk =   0.0438957
        k(   70) = (   0.0737170   0.0982894   0.1199904), wk =   0.0438957
        k(   71) = (   0.0982894   0.0982894   0.0000000), wk =   0.0109739
        k(   72) = (   0.0982894   0.0982894   0.0299976), wk =   0.0219479
        k(   73) = (   0.0982894   0.0982894   0.0599952), wk =   0.0219479
        k(   74) = (   0.0982894   0.0982894   0.0899928), wk =   0.0219479
        k(   75) = (   0.0982894   0.0982894   0.1199904), wk =   0.0219479

     Largest allocated arrays     est. size (Mb)     dimensions
     Largest temporary arrays     est. size (Mb)     dimensions

     Initial potential from superposition of free atoms
     Check: negative starting charge=   -0.275644

     starting charge   54.99569, renormalised to   56.00000

     negative rho (up, down):  2.807E-01 0.000E+00

     *
     * You are using vdW-DF for exchange-correlation in this calculation.
     * Please cite the following three references that made this development
     * possible:
     *
     *   M. Dion, H. Rydberg, E. Schroder, D. C. Langreth, and
     *   B. I. Lundqvist, Phys. Rev. Lett. 92, 246401 (2004).
     *
     *   T. Thonhauser, V. R. Cooper, S. Li, A. Puzder, P. Hyldgaard, and
     *   D. C. Langreth, Phys. Rev. B 76, 125112 (2007).
     *
     *   G. Roman-Perez and J. M. Soler, Phys. Rev. Lett. 103, 096102 (2009).
     *
     *
     * If you are using vdW-DF2, please also cite:
     *
     *   K. Lee, E. D. Murray, L. Kong, B. I. Lundqvist, and
     *   D. C. Langreth, Phys. Rev. B 82, 081101(R) (2010).
     *
     *
     * If you are calculating the stress with vdW-DF, please also cite:
     *
     *   R. Sabatini, E. Kucukbenli, B. Kolb, T. Thonhauser, and
     *   S. de Gironcoli, J. Phys.: Condens. Matter 24, 424209 (2012).
     *

     Carrying out vdW-DF run using the following parameters:

     Nqs =      20    Nr_points =    1024   r_max =   100.000
     q_mesh =
               0.00001000     0.04494208     0.09755937     0.15916263
               0.23128650     0.31572767     0.41458969     0.53033537
               0.66584808     0.82450364     1.01025438     1.22772762
               1.48234092     1.78043706     2.12944203     2.53805004
               3.01644009     3.57652955     4.23227104     5.00000000

     Gradients computed in reciprocal space

     Starting wfc are   50 randomized atomic wfcs

     Self-consistent Calculation

     iteration #  1     ecut=    58.80 Ry     beta=0.10
     Davidson diagonalization with overlap
     ethr =  1.00E-02,  avg # of iterations =  4.5

[...]

     total energy              =    -598.87515019 Ry
     Harris-Foulkes estimate   =    -600.22035733 Ry
     estimated scf accuracy    <       7.80154326 Ry

[...]

     total energy              =    -599.34411942 Ry
     Harris-Foulkes estimate   =    -599.34411860 Ry
     estimated scf accuracy    <       0.00000874 Ry

     iteration # 11     ecut=    58.80 Ry     beta=0.10
     Davidson diagonalization with overlap
     ethr =  1.56E-08,  avg # of iterations =  1.2

     negative rho (up, down):  2.879E-01 0.000E+00

     End of self-consistent calculation

          k = 0.0000 0.0000 0.0000 (  3885 PWs)   bands (ev):

   -34.6553 -34.6481 -34.6157 -34.6157 -34.5803 -34.5803 -33.3839 -33.2919
   -11.4995 -11.4995 -11.3112 -11.2118 -11.0613 -11.0613   9.5879  11.2782
    11.2804  11.3173  11.4825  11.8815  11.8815  13.0835  13.0835  13.6151
    14.4149  15.7646  16.1300  17.0309  17.8675  17.8675  18.4202  19.1901
    19.1901  19.8455  19.8455  20.1655  21.2412  21.4097  24.9768  24.9768
    25.8292  26.1270  26.7710  27.4170  27.4170  29.7956  30.0290  31.9930

[...]

          k = 0.0983 0.0983 0.1200 (  3888 PWs)   bands (ev):

   -34.6584 -34.6577 -34.6192 -34.6182 -34.5777 -34.5767 -33.3309 -33.3287
   -11.5490 -11.5362 -11.3762 -11.3725 -11.0250 -11.0111  11.3862  11.4293
    11.4548  11.4594  12.6765  12.7141  12.7430  12.7765  13.6125  13.6314
    14.9918  15.2003  16.4215  16.4869  16.8149  16.9056  16.9199  17.1542
    19.1745  19.4313  19.7167  19.8294  20.2660  20.3673  24.8449  24.8559
    24.9911  25.2531  28.4115  28.4263  28.4441  28.6393  29.8279  30.0765

     the Fermi energy is    16.1886 ev

!    total energy              =    -599.34413482 Ry
     Harris-Foulkes estimate   =    -599.34412061 Ry
     estimated scf accuracy    <       0.00000004 Ry

     The total energy is the sum of the following terms:

     one-electron contribution =    -157.08461422 Ry
     hartree contribution      =     114.29328447 Ry
     xc contribution           =    -101.96724651 Ry
     ewald contribution        =    -454.57465845 Ry
     smearing contrib. (-TS)   =      -0.01090011 Ry

     convergence has been achieved in  11 iterations

     Forces acting on atoms (Ry/au):

     negative rho (up, down):  2.879E-01 0.000E+00
     atom    1 type  1   force =     0.00000000    0.00000000    0.00000000
     atom    2 type  1   force =     0.00000000    0.00000000    0.00000000
     atom    3 type  2   force =     0.00000000    0.00000000    0.00000000
     atom    4 type  2   force =     0.00000000    0.00000000    0.00000000

     Total force =     0.000000     Total SCF correction =     0.000000

     General routines

     Parallel routines

   This run was terminated on:   7:25:55  15Nov2017

   JOB DONE.