     Program PWSCF v.5.1rc2 starts on 14Nov2017 at 14: 5:12

     Current dimensions of program PWSCF are:
     Max number of different atomic species (ntypx) = 10
     Max number of k-points (npk) =  40000
     Max angular momentum in pseudopotentials (lmaxx) =  3

     IMPORTANT: XC functional enforced from input :
     Exchange-correlation      = BEEF-VDW ( 1  4 27 13 2)
     Any further DFT definition will be discarded
     Please, verify this is what you really want

     Found symmetry operation: I + ( -0.5000 -0.5000  0.0000)
     This is a supercell, fractional translations are disabled

     bravais-lattice index     =            0
     lattice parameter (alat)  =       1.8897  a.u.
     unit-cell volume          =     840.0921 (a.u.)^3
     number of atoms/cell      =            4
     number of atomic types    =            2
     number of electrons       =        52.00
     number of Kohn-Sham states=           46
     kinetic-energy cutoff     =      58.7989  Ry
     charge density cutoff     =     587.9892  Ry
     convergence threshold     =      1.0E-06
     mixing beta               =       0.1000
     number of iterations used =           10  plain     mixing
     Exchange-correlation      = BEEF-VDW ( 1  4 27 13 2)

     celldm(1)=   1.889726  celldm(2)=   0.000000  celldm(3)=   0.000000
     celldm(4)=   0.000000  celldm(5)=   0.000000  celldm(6)=   0.000000

     crystal axes: (cart. coord. in units of alat)
               a(1) = (   4.948032   0.000000   0.000000 )
               a(2) = (   0.000000   4.948032   0.000000 )
               a(3) = (   0.000000   0.000000   5.084699 )

     reciprocal axes: (cart. coord. in units 2 pi/alat)
               b(1) = (  0.202101  0.000000  0.000000 )
               b(2) = (  0.000000  0.202101  0.000000 )
               b(3) = (  0.000000  0.000000  0.196668 )

     PseudoPot. # 1 for In read from file:
     /home/users/vossj/suncat/psp/gbrv1.5pbe/In.UPF
     MD5 check sum: 90777abd96fbb83f2e67db2a40c566b9
     Pseudo is Ultrasoft + core correction, Zval = 13.0
     Generated by new atomic code, or converted to UPF format
     Using radial grid of  889 points,  6 beta functions with:
                l(1) =   0
                l(2) =   0
                l(3) =   1
                l(4) =   1
                l(5) =   2
                l(6) =   2
     Q(r) pseudized with  6 coefficients,  rinner =    1.400   1.400   1.400
                                                       1.400   1.400

     PseudoPot. # 2 for Tl read from file:
     /home/users/vossj/suncat/psp/gbrv1.5pbe/Tl.UPF
     MD5 check sum: b76cf1f7e72655a2b2c53cf6385d7059
     Pseudo is Ultrasoft + core correction, Zval = 13.0
     Generated by new atomic code, or converted to UPF format
     Using radial grid of  899 points,  6 beta functions with:
                l(1) =   0
                l(2) =   0
                l(3) =   1
                l(4) =   1
                l(5) =   2
                l(6) =   2
     Q(r) pseudized with  6 coefficients,  rinner =    1.100   1.100   1.100
                                                       1.100   1.100

     vdW kernel table read from file vdW_kernel_table
     MD5 check sum: 095c7af220d748ca6e76c0b4c6cfb241

     atomic species   valence    mass     pseudopotential
        In1           13.00   114.82000     In( 1.00)
        Tl1           13.00   204.38300     Tl( 1.00)

     16 Sym. Ops., with inversion, found

   Cartesian axes

     site n.     atom                  positions (alat units)
         1           In1 tau(   1) = (   0.0000000   0.0000000   0.0000000  )
         2           In1 tau(   2) = (   2.4740161   2.4740161   0.0000000  )
         3           Tl1 tau(   3) = (   2.4740161   0.0000000   2.5423495  )
         4           Tl1 tau(   4) = (   0.0000000   2.4740161   2.5423495  )

     number of k points=    75  Fermi-Dirac smearing, width (Ry)=  0.0073
                       cart. coord. in units 2pi/alat
        k(    1) = (   0.0000000   0.0000000   0.0000000), wk =   0.0027435
        k(    2) = (   0.0000000   0.0000000   0.0218521), wk =   0.0054870
        k(    3) = (   0.0000000   0.0000000   0.0437041), wk =   0.0054870
        k(    4) = (   0.0000000   0.0000000   0.0655562), wk =   0.0054870
        k(    5) = (   0.0000000   0.0000000   0.0874082), wk =   0.0054870
        k(    6) = (   0.0000000   0.0224556   0.0000000), wk =   0.0109739
        k(    7) = (   0.0000000   0.0224556   0.0218521), wk =   0.0219479
        k(    8) = (   0.0000000   0.0224556   0.0437041), wk =   0.0219479
        k(    9) = (   0.0000000   0.0224556   0.0655562), wk =   0.0219479
        k(   10) = (   0.0000000   0.0224556   0.0874082), wk =   0.0219479
        k(   11) = (   0.0000000   0.0449112   0.0000000), wk =   0.0109739
        k(   12) = (   0.0000000   0.0449112   0.0218521), wk =   0.0219479
        k(   13) = (   0.0000000   0.0449112   0.0437041), wk =   0.0219479
        k(   14) = (   0.0000000   0.0449112   0.0655562), wk =   0.0219479
        k(   15) = (   0.0000000   0.0449112   0.0874082), wk =   0.0219479
        k(   16) = (   0.0000000   0.0673668   0.0000000), wk =   0.0109739
        k(   17) = (   0.0000000   0.0673668   0.0218521), wk =   0.0219479
        k(   18) = (   0.0000000   0.0673668   0.0437041), wk =   0.0219479
        k(   19) = (   0.0000000   0.0673668   0.0655562), wk =   0.0219479
        k(   20) = (   0.0000000   0.0673668   0.0874082), wk =   0.0219479
        k(   21) = (   0.0000000   0.0898225   0.0000000), wk =   0.0109739
        k(   22) = (   0.0000000   0.0898225   0.0218521), wk =   0.0219479
        k(   23) = (   0.0000000   0.0898225   0.0437041), wk =   0.0219479
        k(   24) = (   0.0000000   0.0898225   0.0655562), wk =   0.0219479
        k(   25) = (   0.0000000   0.0898225   0.0874082), wk =   0.0219479
        k(   26) = (   0.0224556   0.0224556   0.0000000), wk =   0.0109739
        k(   27) = (   0.0224556   0.0224556   0.0218521), wk =   0.0219479
        k(   28) = (   0.0224556   0.0224556   0.0437041), wk =   0.0219479
        k(   29) = (   0.0224556   0.0224556   0.0655562), wk =   0.0219479
        k(   30) = (   0.0224556   0.0224556   0.0874082), wk =   0.0219479
        k(   31) = (   0.0224556   0.0449112   0.0000000), wk =   0.0219479
        k(   32) = (   0.0224556   0.0449112   0.0218521), wk =   0.0438957
        k(   33) = (   0.0224556   0.0449112   0.0437041), wk =   0.0438957
        k(   34) = (   0.0224556   0.0449112   0.0655562), wk =   0.0438957
        k(   35) = (   0.0224556   0.0449112   0.0874082), wk =   0.0438957
        k(   36) = (   0.0224556   0.0673668   0.0000000), wk =   0.0219479
        k(   37) = (   0.0224556   0.0673668   0.0218521), wk =   0.0438957
        k(   38) = (   0.0224556   0.0673668   0.0437041), wk =   0.0438957
        k(   39) = (   0.0224556   0.0673668   0.0655562), wk =   0.0438957
        k(   40) = (   0.0224556   0.0673668   0.0874082), wk =   0.0438957
        k(   41) = (   0.0224556   0.0898225   0.0000000), wk =   0.0219479
        k(   42) = (   0.0224556   0.0898225   0.0218521), wk =   0.0438957
        k(   43) = (   0.0224556   0.0898225   0.0437041), wk =   0.0438957
        k(   44) = (   0.0224556   0.0898225   0.0655562), wk =   0.0438957
        k(   45) = (   0.0224556   0.0898225   0.0874082), wk =   0.0438957
        k(   46) = (   0.0449112   0.0449112   0.0000000), wk =   0.0109739
        k(   47) = (   0.0449112   0.0449112   0.0218521), wk =   0.0219479
        k(   48) = (   0.0449112   0.0449112   0.0437041), wk =   0.0219479
        k(   49) = (   0.0449112   0.0449112   0.0655562), wk =   0.0219479
        k(   50) = (   0.0449112   0.0449112   0.0874082), wk =   0.0219479
        k(   51) = (   0.0449112   0.0673668   0.0000000), wk =   0.0219479
        k(   52) = (   0.0449112   0.0673668   0.0218521), wk =   0.0438957
        k(   53) = (   0.0449112   0.0673668   0.0437041), wk =   0.0438957
        k(   54) = (   0.0449112   0.0673668   0.0655562), wk =   0.0438957
        k(   55) = (   0.0449112   0.0673668   0.0874082), wk =   0.0438957
        k(   56) = (   0.0449112   0.0898225   0.0000000), wk =   0.0219479
        k(   57) = (   0.0449112   0.0898225   0.0218521), wk =   0.0438957
        k(   58) = (   0.0449112   0.0898225   0.0437041), wk =   0.0438957
        k(   59) = (   0.0449112   0.0898225   0.0655562), wk =   0.0438957
        k(   60) = (   0.0449112   0.0898225   0.0874082), wk =   0.0438957
        k(   61) = (   0.0673668   0.0673668   0.0000000), wk =   0.0109739
        k(   62) = (   0.0673668   0.0673668   0.0218521), wk =   0.0219479
        k(   63) = (   0.0673668   0.0673668   0.0437041), wk =   0.0219479
        k(   64) = (   0.0673668   0.0673668   0.0655562), wk =   0.0219479
        k(   65) = (   0.0673668   0.0673668   0.0874082), wk =   0.0219479
        k(   66) = (   0.0673668   0.0898225   0.0000000), wk =   0.0219479
        k(   67) = (   0.0673668   0.0898225   0.0218521), wk =   0.0438957
        k(   68) = (   0.0673668   0.0898225   0.0437041), wk =   0.0438957
        k(   69) = (   0.0673668   0.0898225   0.0655562), wk =   0.0438957
        k(   70) = (   0.0673668   0.0898225   0.0874082), wk =   0.0438957
        k(   71) = (   0.0898225   0.0898225   0.0000000), wk =   0.0109739
        k(   72) = (   0.0898225   0.0898225   0.0218521), wk =   0.0219479
        k(   73) = (   0.0898225   0.0898225   0.0437041), wk =   0.0219479
        k(   74) = (   0.0898225   0.0898225   0.0655562), wk =   0.0219479
        k(   75) = (   0.0898225   0.0898225   0.0874082), wk =   0.0219479

     Largest allocated arrays     est. size (Mb)     dimensions
     Largest temporary arrays     est. size (Mb)     dimensions

     Initial potential from superposition of free atoms
     Check: negative starting charge=   -0.100434

     starting charge   48.99027, renormalised to   52.00000

     negative rho (up, down):  1.066E-01 0.000E+00

     *
     * You are using vdW-DF for exchange-correlation in this calculation.
     * Please cite the following three references that made this development
     * possible:
     *
     *   M. Dion, H. Rydberg, E. Schroder, D. C. Langreth, and
     *   B. I. Lundqvist, Phys. Rev. Lett. 92, 246401 (2004).
     *
     *   T. Thonhauser, V. R. Cooper, S. Li, A. Puzder, P. Hyldgaard, and
     *   D. C. Langreth, Phys. Rev. B 76, 125112 (2007).
     *
     *   G. Roman-Perez and J. M. Soler, Phys. Rev. Lett. 103, 096102 (2009).
     *
     *
     * If you are using vdW-DF2, please also cite:
     *
     *   K. Lee, E. D. Murray, L. Kong, B. I. Lundqvist, and
     *   D. C. Langreth, Phys. Rev. B 82, 081101(R) (2010).
     *
     *
     * If you are calculating the stress with vdW-DF, please also cite:
     *
     *   R. Sabatini, E. Kucukbenli, B. Kolb, T. Thonhauser, and
     *   S. de Gironcoli, J. Phys.: Condens. Matter 24, 424209 (2012).
     *

     Carrying out vdW-DF run using the following parameters:

     Nqs =      20    Nr_points =    1024   r_max =   100.000
     q_mesh =
               0.00001000     0.04494208     0.09755937     0.15916263
               0.23128650     0.31572767     0.41458969     0.53033537
               0.66584808     0.82450364     1.01025438     1.22772762
               1.48234092     1.78043706     2.12944203     2.53805004
               3.01644009     3.57652955     4.23227104     5.00000000

     Gradients computed in reciprocal space

     Starting wfc are   36 randomized atomic wfcs +   10 random wfc

     Self-consistent Calculation

     iteration #  1     ecut=    58.80 Ry     beta=0.10
     Davidson diagonalization with overlap
     ethr =  1.00E-02,  avg # of iterations =  5.4

[...]

     total energy              =    -563.78769246 Ry
     Harris-Foulkes estimate   =    -564.19036697 Ry
     estimated scf accuracy    <       2.68867141 Ry

[...]

     total energy              =    -563.20707712 Ry
     Harris-Foulkes estimate   =    -563.20659803 Ry
     estimated scf accuracy    <       0.00002467 Ry

     iteration # 10     ecut=    58.80 Ry     beta=0.10
     Davidson diagonalization with overlap
     ethr =  4.74E-08,  avg # of iterations =  2.0

     negative rho (up, down):  1.051E-01 0.000E+00

     End of self-consistent calculation

          k = 0.0000 0.0000 0.0000 (  6395 PWs)   bands (ev):

    -6.2651  -6.2002  -6.1945  -6.1723  -6.1723  -6.0982  -6.0982  -6.0858
    -6.0449  -5.9636  -3.2841  -3.1639  -3.1086  -3.0223  -3.0223  -2.8860
    -2.8860  -2.8597  -2.8209  -2.6587  -0.3165   4.8601   5.3556   6.4522
     6.9536   7.1820   7.1820  12.2615  12.2778  12.2778  12.6033  12.6735
    12.6735  15.1228  15.8039  15.8552  16.4039  16.4039  16.6072  17.8979
    17.8979  17.9398  19.7816  22.1811  22.1811  22.3060

[...]

          k = 0.0898 0.0898 0.0874 (  6381 PWs)   bands (ev):

    -6.2049  -6.1987  -6.1858  -6.1838  -6.1110  -6.1065  -6.0928  -6.0906
    -6.0519  -6.0458  -3.1593  -3.1449  -3.1092  -3.1049  -2.9581  -2.9474
    -2.8814  -2.8762  -2.8187  -2.8072   2.9731   3.1850   4.3017   4.5316
     6.2311   6.2765   6.2985   6.6976  15.2944  15.4777  15.6048  15.6776
    15.8996  15.9593  16.1296  16.4962  18.7340  18.7868  18.8006  19.1824
    19.7951  19.9676  20.5449  20.5928  20.8081  20.8949

     the Fermi energy is     8.6904 ev

!    total energy              =    -563.20911156 Ry
     Harris-Foulkes estimate   =    -563.20708445 Ry
     estimated scf accuracy    <       0.00000079 Ry

     The total energy is the sum of the following terms:

     one-electron contribution =    -141.26214959 Ry
     hartree contribution      =     112.74076501 Ry
     xc contribution           =    -206.21566550 Ry
     ewald contribution        =    -328.46683505 Ry
     smearing contrib. (-TS)   =      -0.00522643 Ry

     convergence has been achieved in  10 iterations

     Forces acting on atoms (Ry/au):

     negative rho (up, down):  1.051E-01 0.000E+00
     atom    1 type  1   force =     0.00000000    0.00000000    0.00000000
     atom    2 type  1   force =     0.00000000    0.00000000    0.00000000
     atom    3 type  2   force =     0.00000000    0.00000000    0.00000000
     atom    4 type  2   force =     0.00000000    0.00000000    0.00000000

     Total force =     0.000000     Total SCF correction =     0.000000

     General routines

     Parallel routines

   This run was terminated on:  14: 6: 4  14Nov2017

   JOB DONE.