     Program PWSCF v.5.1rc2 starts on 14Nov2017 at 13:43:12

     Current dimensions of program PWSCF are:
     Max number of different atomic species (ntypx) = 10
     Max number of k-points (npk) =  40000
     Max angular momentum in pseudopotentials (lmaxx) =  3

     IMPORTANT: XC functional enforced from input :
     Exchange-correlation      = BEEF-VDW ( 1  4 27 13 2)
     Any further DFT definition will be discarded
     Please, verify this is what you really want

     Found symmetry operation: I + (  0.5000  0.5000  0.0000)
     This is a supercell, fractional translations are disabled

     bravais-lattice index     =            0
     lattice parameter (alat)  =       1.8897  a.u.
     unit-cell volume          =     393.2206 (a.u.)^3
     number of atoms/cell      =            4
     number of atomic types    =            2
     number of electrons       =        68.00
     number of Kohn-Sham states=           54
     kinetic-energy cutoff     =      58.7989  Ry
     charge density cutoff     =     587.9892  Ry
     convergence threshold     =      1.0E-06
     mixing beta               =       0.1000
     number of iterations used =           10  plain     mixing
     Exchange-correlation      = BEEF-VDW ( 1  4 27 13 2)

     celldm(1)=   1.889726  celldm(2)=   0.000000  celldm(3)=   0.000000
     celldm(4)=   0.000000  celldm(5)=   0.000000  celldm(6)=   0.000000

     crystal axes: (cart. coord. in units of alat)
               a(1) = (   4.387806   0.000000   0.000000 )
               a(2) = (   0.000000   4.387806   0.000000 )
               a(3) = (   0.000000   0.000000   3.026528 )

     reciprocal axes: (cart. coord. in units 2 pi/alat)
               b(1) = (  0.227904  0.000000  0.000000 )
               b(2) = (  0.000000  0.227904  0.000000 )
               b(3) = (  0.000000  0.000000  0.330412 )

     PseudoPot. # 1 for Ga read from file:
     /home/users/vossj/suncat/psp/gbrv1.5pbe/Ga.UPF
     MD5 check sum: ccd671392a58a050fbb373893b4fcd66
     Pseudo is Ultrasoft + core correction, Zval = 19.0
     Generated by new atomic code, or converted to UPF format
     Using radial grid of  871 points,  6 beta functions with:
                l(1) =   0
                l(2) =   0
                l(3) =   1
                l(4) =   1
                l(5) =   2
                l(6) =   2
     Q(r) pseudized with  8 coefficients,  rinner =    1.250   1.250   1.250
                                                       1.250   1.250

     PseudoPot. # 2 for Ir read from file:
     /home/users/vossj/suncat/psp/gbrv1.5pbe/Ir.UPF
     MD5 check sum: 8836f839c3459d2b385c504ce6d91f2c
     Pseudo is Ultrasoft + core correction, Zval = 15.0
     Generated by new atomic code, or converted to UPF format
     Using radial grid of  983 points,  7 beta functions with:
                l(1) =   0
                l(2) =   0
                l(3) =   1
                l(4) =   1
                l(5) =   1
                l(6) =   2
                l(7) =   2
     Q(r) pseudized with  8 coefficients,  rinner =    1.400   1.400   1.400
                                                       1.400   1.400

     vdW kernel table read from file vdW_kernel_table
     MD5 check sum: 095c7af220d748ca6e76c0b4c6cfb241

     atomic species   valence    mass     pseudopotential
        Ga1           19.00    69.72300     Ga( 1.00)
        Ir1           15.00   192.22000     Ir( 1.00)

     16 Sym. Ops., with inversion, found

   Cartesian axes

     site n.     atom                  positions (alat units)
         1           Ga1 tau(   1) = (   0.0000000   0.0000000   0.0000000  )
         2           Ga1 tau(   2) = (   2.1939031   2.1939031   0.0000000  )
         3           Ir1 tau(   3) = (   2.1939031   0.0000000   1.5132642  )
         4           Ir1 tau(   4) = (   0.0000000   2.1939031   1.5132642  )

     number of k points=    75  Fermi-Dirac smearing, width (Ry)=  0.0073
                       cart. coord. in units 2pi/alat
        k(    1) = (   0.0000000   0.0000000   0.0000000), wk =   0.0027435
        k(    2) = (   0.0000000   0.0000000   0.0367124), wk =   0.0054870
        k(    3) = (   0.0000000   0.0000000   0.0734248), wk =   0.0054870
        k(    4) = (   0.0000000   0.0000000   0.1101372), wk =   0.0054870
        k(    5) = (   0.0000000   0.0000000   0.1468496), wk =   0.0054870
        k(    6) = (   0.0000000   0.0253227   0.0000000), wk =   0.0109739
        k(    7) = (   0.0000000   0.0253227   0.0367124), wk =   0.0219479
        k(    8) = (   0.0000000   0.0253227   0.0734248), wk =   0.0219479
        k(    9) = (   0.0000000   0.0253227   0.1101372), wk =   0.0219479
        k(   10) = (   0.0000000   0.0253227   0.1468496), wk =   0.0219479
        k(   11) = (   0.0000000   0.0506454   0.0000000), wk =   0.0109739
        k(   12) = (   0.0000000   0.0506454   0.0367124), wk =   0.0219479
        k(   13) = (   0.0000000   0.0506454   0.0734248), wk =   0.0219479
        k(   14) = (   0.0000000   0.0506454   0.1101372), wk =   0.0219479
        k(   15) = (   0.0000000   0.0506454   0.1468496), wk =   0.0219479
        k(   16) = (   0.0000000   0.0759681   0.0000000), wk =   0.0109739
        k(   17) = (   0.0000000   0.0759681   0.0367124), wk =   0.0219479
        k(   18) = (   0.0000000   0.0759681   0.0734248), wk =   0.0219479
        k(   19) = (   0.0000000   0.0759681   0.1101372), wk =   0.0219479
        k(   20) = (   0.0000000   0.0759681   0.1468496), wk =   0.0219479
        k(   21) = (   0.0000000   0.1012908   0.0000000), wk =   0.0109739
        k(   22) = (   0.0000000   0.1012908   0.0367124), wk =   0.0219479
        k(   23) = (   0.0000000   0.1012908   0.0734248), wk =   0.0219479
        k(   24) = (   0.0000000   0.1012908   0.1101372), wk =   0.0219479
        k(   25) = (   0.0000000   0.1012908   0.1468496), wk =   0.0219479
        k(   26) = (   0.0253227   0.0253227   0.0000000), wk =   0.0109739
        k(   27) = (   0.0253227   0.0253227   0.0367124), wk =   0.0219479
        k(   28) = (   0.0253227   0.0253227   0.0734248), wk =   0.0219479
        k(   29) = (   0.0253227   0.0253227   0.1101372), wk =   0.0219479
        k(   30) = (   0.0253227   0.0253227   0.1468496), wk =   0.0219479
        k(   31) = (   0.0253227   0.0506454   0.0000000), wk =   0.0219479
        k(   32) = (   0.0253227   0.0506454   0.0367124), wk =   0.0438957
        k(   33) = (   0.0253227   0.0506454   0.0734248), wk =   0.0438957
        k(   34) = (   0.0253227   0.0506454   0.1101372), wk =   0.0438957
        k(   35) = (   0.0253227   0.0506454   0.1468496), wk =   0.0438957
        k(   36) = (   0.0253227   0.0759681   0.0000000), wk =   0.0219479
        k(   37) = (   0.0253227   0.0759681   0.0367124), wk =   0.0438957
        k(   38) = (   0.0253227   0.0759681   0.0734248), wk =   0.0438957
        k(   39) = (   0.0253227   0.0759681   0.1101372), wk =   0.0438957
        k(   40) = (   0.0253227   0.0759681   0.1468496), wk =   0.0438957
        k(   41) = (   0.0253227   0.1012908   0.0000000), wk =   0.0219479
        k(   42) = (   0.0253227   0.1012908   0.0367124), wk =   0.0438957
        k(   43) = (   0.0253227   0.1012908   0.0734248), wk =   0.0438957
        k(   44) = (   0.0253227   0.1012908   0.1101372), wk =   0.0438957
        k(   45) = (   0.0253227   0.1012908   0.1468496), wk =   0.0438957
        k(   46) = (   0.0506454   0.0506454   0.0000000), wk =   0.0109739
        k(   47) = (   0.0506454   0.0506454   0.0367124), wk =   0.0219479
        k(   48) = (   0.0506454   0.0506454   0.0734248), wk =   0.0219479
        k(   49) = (   0.0506454   0.0506454   0.1101372), wk =   0.0219479
        k(   50) = (   0.0506454   0.0506454   0.1468496), wk =   0.0219479
        k(   51) = (   0.0506454   0.0759681   0.0000000), wk =   0.0219479
        k(   52) = (   0.0506454   0.0759681   0.0367124), wk =   0.0438957
        k(   53) = (   0.0506454   0.0759681   0.0734248), wk =   0.0438957
        k(   54) = (   0.0506454   0.0759681   0.1101372), wk =   0.0438957
        k(   55) = (   0.0506454   0.0759681   0.1468496), wk =   0.0438957
        k(   56) = (   0.0506454   0.1012908   0.0000000), wk =   0.0219479
        k(   57) = (   0.0506454   0.1012908   0.0367124), wk =   0.0438957
        k(   58) = (   0.0506454   0.1012908   0.0734248), wk =   0.0438957
        k(   59) = (   0.0506454   0.1012908   0.1101372), wk =   0.0438957
        k(   60) = (   0.0506454   0.1012908   0.1468496), wk =   0.0438957
        k(   61) = (   0.0759681   0.0759681   0.0000000), wk =   0.0109739
        k(   62) = (   0.0759681   0.0759681   0.0367124), wk =   0.0219479
        k(   63) = (   0.0759681   0.0759681   0.0734248), wk =   0.0219479
        k(   64) = (   0.0759681   0.0759681   0.1101372), wk =   0.0219479
        k(   65) = (   0.0759681   0.0759681   0.1468496), wk =   0.0219479
        k(   66) = (   0.0759681   0.1012908   0.0000000), wk =   0.0219479
        k(   67) = (   0.0759681   0.1012908   0.0367124), wk =   0.0438957
        k(   68) = (   0.0759681   0.1012908   0.0734248), wk =   0.0438957
        k(   69) = (   0.0759681   0.1012908   0.1101372), wk =   0.0438957
        k(   70) = (   0.0759681   0.1012908   0.1468496), wk =   0.0438957
        k(   71) = (   0.1012908   0.1012908   0.0000000), wk =   0.0109739
        k(   72) = (   0.1012908   0.1012908   0.0367124), wk =   0.0219479
        k(   73) = (   0.1012908   0.1012908   0.0734248), wk =   0.0219479
        k(   74) = (   0.1012908   0.1012908   0.1101372), wk =   0.0219479
        k(   75) = (   0.1012908   0.1012908   0.1468496), wk =   0.0219479

     Largest allocated arrays     est. size (Mb)     dimensions
     Largest temporary arrays     est. size (Mb)     dimensions

     Initial potential from superposition of free atoms
     Check: negative starting charge=   -0.722857

     starting charge   64.99994, renormalised to   68.00000

     negative rho (up, down):  7.562E-01 0.000E+00

     *
     * You are using vdW-DF for exchange-correlation in this calculation.
     * Please cite the following three references that made this development
     * possible:
     *
     *   M. Dion, H. Rydberg, E. Schroder, D. C. Langreth, and
     *   B. I. Lundqvist, Phys. Rev. Lett. 92, 246401 (2004).
     *
     *   T. Thonhauser, V. R. Cooper, S. Li, A. Puzder, P. Hyldgaard, and
     *   D. C. Langreth, Phys. Rev. B 76, 125112 (2007).
     *
     *   G. Roman-Perez and J. M. Soler, Phys. Rev. Lett. 103, 096102 (2009).
     *
     *
     * If you are using vdW-DF2, please also cite:
     *
     *   K. Lee, E. D. Murray, L. Kong, B. I. Lundqvist, and
     *   D. C. Langreth, Phys. Rev. B 82, 081101(R) (2010).
     *
     *
     * If you are calculating the stress with vdW-DF, please also cite:
     *
     *   R. Sabatini, E. Kucukbenli, B. Kolb, T. Thonhauser, and
     *   S. de Gironcoli, J. Phys.: Condens. Matter 24, 424209 (2012).
     *

     Carrying out vdW-DF run using the following parameters:

     Nqs =      20    Nr_points =    1024   r_max =   100.000
     q_mesh =
               0.00001000     0.04494208     0.09755937     0.15916263
               0.23128650     0.31572767     0.41458969     0.53033537
               0.66584808     0.82450364     1.01025438     1.22772762
               1.48234092     1.78043706     2.12944203     2.53805004
               3.01644009     3.57652955     4.23227104     5.00000000

     Gradients computed in reciprocal space

     Starting wfc are   48 randomized atomic wfcs +    6 random wfc

     Self-consistent Calculation

     iteration #  1     ecut=    58.80 Ry     beta=0.10
     Davidson diagonalization with overlap
     ethr =  1.00E-02,  avg # of iterations =  5.6

[...]

     total energy              =   -1200.96935277 Ry
     Harris-Foulkes estimate   =   -1202.74800544 Ry
     estimated scf accuracy    <      10.39059289 Ry

[...]

     total energy              =   -1200.02756655 Ry
     Harris-Foulkes estimate   =   -1200.02756405 Ry
     estimated scf accuracy    <       0.00000174 Ry

     iteration # 12     ecut=    58.80 Ry     beta=0.10
     Davidson diagonalization with overlap
     ethr =  2.57E-09,  avg # of iterations =  2.0

     negative rho (up, down):  6.579E-01 0.000E+00

     End of self-consistent calculation

          k = 0.0000 0.0000 0.0000 (  2985 PWs)   bands (ev):

   -75.6401 -75.6399 -75.6362 -75.6362 -75.6354 -75.6354 -29.9994 -29.9994
   -29.9094 -29.9094 -29.8794 -29.8634   3.8105   3.8247   3.8302   3.9034
     3.9553   3.9553   4.0233   4.0318   4.0318   4.1448   7.3511  11.4309
    14.7980  14.8391  14.9420  16.3871  16.3871  17.2017  17.2017  18.0303
    18.1731  18.1731  19.1896  22.0165  22.4605  23.1337  23.1337  23.8655
    27.9862  28.0988  30.4304  30.4348  31.5902  31.6968  32.1336  32.1336
    35.2252  37.0360  37.0360  37.5535  37.9304  39.5024

[...]

          k = 0.1013 0.1013 0.1468 (  3009 PWs)   bands (ev):

   -75.6415 -75.6415 -75.6362 -75.6362 -75.6352 -75.6352 -29.9974 -29.9968
   -29.9963 -29.9936 -29.8934 -29.8907   3.8211   3.8230   3.9295   3.9361
     3.9367   3.9383   3.9453   3.9496   4.1421   4.1471  11.5783  11.6184
    14.7740  14.9845  16.0231  16.1841  16.3879  16.5579  16.9641  17.0577
    17.4401  17.4642  19.3986  19.4719  22.4114  22.4815  22.5876  23.0029
    27.4199  27.5899  30.4299  30.4300  31.4166  31.5200  31.7514  31.9199
    35.4527  35.5562  36.2086  36.3405  39.0661  39.1080

     the Fermi energy is    19.4248 ev

!    total energy              =   -1200.02757948 Ry
     Harris-Foulkes estimate   =   -1200.02756669 Ry
     estimated scf accuracy    <       0.00000040 Ry

     The total energy is the sum of the following terms:

     one-electron contribution =    -635.50385493 Ry
     hartree contribution      =     368.55825874 Ry
     xc contribution           =    -204.00032213 Ry
     ewald contribution        =    -729.07780412 Ry
     smearing contrib. (-TS)   =      -0.00385704 Ry

     convergence has been achieved in  12 iterations

     Forces acting on atoms (Ry/au):

     negative rho (up, down):  6.579E-01 0.000E+00
     atom    1 type  1   force =     0.00000000    0.00000000    0.00000000
     atom    2 type  1   force =     0.00000000    0.00000000    0.00000000
     atom    3 type  2   force =     0.00000000    0.00000000    0.00000000
     atom    4 type  2   force =     0.00000000    0.00000000    0.00000000

     Total force =     0.000000     Total SCF correction =     0.000000

     General routines

     Parallel routines

   This run was terminated on:  13:44: 0  14Nov2017

   JOB DONE.