     Program PWSCF v.5.1rc2 starts on 14Nov2017 at 14:49:43

     Current dimensions of program PWSCF are:
     Max number of different atomic species (ntypx) = 10
     Max number of k-points (npk) =  40000
     Max angular momentum in pseudopotentials (lmaxx) =  3

     IMPORTANT: XC functional enforced from input :
     Exchange-correlation      = BEEF-VDW ( 1  4 27 13 2)
     Any further DFT definition will be discarded
     Please, verify this is what you really want

     Found symmetry operation: I + (  0.5000  0.5000  0.0000)
     This is a supercell, fractional translations are disabled

     bravais-lattice index     =            0
     lattice parameter (alat)  =       1.8897  a.u.
     unit-cell volume          =     468.2895 (a.u.)^3
     number of atoms/cell      =            4
     number of atomic types    =            2
     number of electrons       =        56.00
     number of Kohn-Sham states=           48
     kinetic-energy cutoff     =      58.7989  Ry
     charge density cutoff     =     587.9892  Ry
     convergence threshold     =      1.0E-06
     mixing beta               =       0.1000
     number of iterations used =           10  plain     mixing
     Exchange-correlation      = BEEF-VDW ( 1  4 27 13 2)

     celldm(1)=   1.889726  celldm(2)=   0.000000  celldm(3)=   0.000000
     celldm(4)=   0.000000  celldm(5)=   0.000000  celldm(6)=   0.000000

     crystal axes: (cart. coord. in units of alat)
               a(1) = (   4.592031   0.000000   0.000000 )
               a(2) = (   0.000000   4.592031   0.000000 )
               a(3) = (   0.000000   0.000000   3.290850 )

     reciprocal axes: (cart. coord. in units 2 pi/alat)
               b(1) = (  0.217769  0.000000  0.000000 )
               b(2) = (  0.000000  0.217769  0.000000 )
               b(3) = (  0.000000  0.000000  0.303873 )

     PseudoPot. # 1 for Hf read from file:
     /home/users/vossj/suncat/psp/gbrv1.5pbe/Hf.UPF
     MD5 check sum: 8ee9378dfe14276e333edf04c5e4aa26
     Pseudo is Ultrasoft + core correction, Zval = 12.0
     Generated by new atomic code, or converted to UPF format
     Using radial grid of  921 points,  8 beta functions with:
                l(1) =   0
                l(2) =   0
                l(3) =   0
                l(4) =   1
                l(5) =   1
                l(6) =   2
                l(7) =   2
                l(8) =   3
     Q(r) pseudized with  6 coefficients,  rinner =    1.200   1.200   1.200
                                                       1.200   1.200   1.200
                                                       1.200

     PseudoPot. # 2 for Os read from file:
     /home/users/vossj/suncat/psp/gbrv1.5pbe/Os.UPF
     MD5 check sum: a3fb40a04f0c37c25c34bbc47164c9a8
     Pseudo is Ultrasoft + core correction, Zval = 16.0
     Generated by new atomic code, or converted to UPF format
     Using radial grid of  983 points,  8 beta functions with:
                l(1) =   0
                l(2) =   0
                l(3) =   1
                l(4) =   1
                l(5) =   2
                l(6) =   2
                l(7) =   3
                l(8) =   3
     Q(r) pseudized with  8 coefficients,  rinner =    1.150   1.150   1.150
                                                       1.150   1.150   1.150
                                                       1.150

     vdW kernel table read from file vdW_kernel_table
     MD5 check sum: 095c7af220d748ca6e76c0b4c6cfb241

     atomic species   valence    mass     pseudopotential
        Hf1           12.00   178.49000     Hf( 1.00)
        Os1           16.00   190.20000     Os( 1.00)

     16 Sym. Ops., with inversion, found

   Cartesian axes

     site n.     atom                  positions (alat units)
         1           Hf1 tau(   1) = (   0.0000000   0.0000000   0.0000000  )
         2           Hf1 tau(   2) = (   2.2960157   2.2960157   0.0000000  )
         3           Os1 tau(   3) = (   2.2960157   0.0000000   1.6454252  )
         4           Os1 tau(   4) = (   0.0000000   2.2960157   1.6454252  )

     number of k points=    75  Fermi-Dirac smearing, width (Ry)=  0.0073
                       cart. coord. in units 2pi/alat
        k(    1) = (   0.0000000   0.0000000   0.0000000), wk =   0.0027435
        k(    2) = (   0.0000000   0.0000000   0.0337636), wk =   0.0054870
        k(    3) = (   0.0000000   0.0000000   0.0675273), wk =   0.0054870
        k(    4) = (   0.0000000   0.0000000   0.1012909), wk =   0.0054870
        k(    5) = (   0.0000000   0.0000000   0.1350546), wk =   0.0054870
        k(    6) = (   0.0000000   0.0241965   0.0000000), wk =   0.0109739
        k(    7) = (   0.0000000   0.0241965   0.0337636), wk =   0.0219479
        k(    8) = (   0.0000000   0.0241965   0.0675273), wk =   0.0219479
        k(    9) = (   0.0000000   0.0241965   0.1012909), wk =   0.0219479
        k(   10) = (   0.0000000   0.0241965   0.1350546), wk =   0.0219479
        k(   11) = (   0.0000000   0.0483930   0.0000000), wk =   0.0109739
        k(   12) = (   0.0000000   0.0483930   0.0337636), wk =   0.0219479
        k(   13) = (   0.0000000   0.0483930   0.0675273), wk =   0.0219479
        k(   14) = (   0.0000000   0.0483930   0.1012909), wk =   0.0219479
        k(   15) = (   0.0000000   0.0483930   0.1350546), wk =   0.0219479
        k(   16) = (   0.0000000   0.0725895   0.0000000), wk =   0.0109739
        k(   17) = (   0.0000000   0.0725895   0.0337636), wk =   0.0219479
        k(   18) = (   0.0000000   0.0725895   0.0675273), wk =   0.0219479
        k(   19) = (   0.0000000   0.0725895   0.1012909), wk =   0.0219479
        k(   20) = (   0.0000000   0.0725895   0.1350546), wk =   0.0219479
        k(   21) = (   0.0000000   0.0967860   0.0000000), wk =   0.0109739
        k(   22) = (   0.0000000   0.0967860   0.0337636), wk =   0.0219479
        k(   23) = (   0.0000000   0.0967860   0.0675273), wk =   0.0219479
        k(   24) = (   0.0000000   0.0967860   0.1012909), wk =   0.0219479
        k(   25) = (   0.0000000   0.0967860   0.1350546), wk =   0.0219479
        k(   26) = (   0.0241965   0.0241965   0.0000000), wk =   0.0109739
        k(   27) = (   0.0241965   0.0241965   0.0337636), wk =   0.0219479
        k(   28) = (   0.0241965   0.0241965   0.0675273), wk =   0.0219479
        k(   29) = (   0.0241965   0.0241965   0.1012909), wk =   0.0219479
        k(   30) = (   0.0241965   0.0241965   0.1350546), wk =   0.0219479
        k(   31) = (   0.0241965   0.0483930   0.0000000), wk =   0.0219479
        k(   32) = (   0.0241965   0.0483930   0.0337636), wk =   0.0438957
        k(   33) = (   0.0241965   0.0483930   0.0675273), wk =   0.0438957
        k(   34) = (   0.0241965   0.0483930   0.1012909), wk =   0.0438957
        k(   35) = (   0.0241965   0.0483930   0.1350546), wk =   0.0438957
        k(   36) = (   0.0241965   0.0725895   0.0000000), wk =   0.0219479
        k(   37) = (   0.0241965   0.0725895   0.0337636), wk =   0.0438957
        k(   38) = (   0.0241965   0.0725895   0.0675273), wk =   0.0438957
        k(   39) = (   0.0241965   0.0725895   0.1012909), wk =   0.0438957
        k(   40) = (   0.0241965   0.0725895   0.1350546), wk =   0.0438957
        k(   41) = (   0.0241965   0.0967860   0.0000000), wk =   0.0219479
        k(   42) = (   0.0241965   0.0967860   0.0337636), wk =   0.0438957
        k(   43) = (   0.0241965   0.0967860   0.0675273), wk =   0.0438957
        k(   44) = (   0.0241965   0.0967860   0.1012909), wk =   0.0438957
        k(   45) = (   0.0241965   0.0967860   0.1350546), wk =   0.0438957
        k(   46) = (   0.0483930   0.0483930   0.0000000), wk =   0.0109739
        k(   47) = (   0.0483930   0.0483930   0.0337636), wk =   0.0219479
        k(   48) = (   0.0483930   0.0483930   0.0675273), wk =   0.0219479
        k(   49) = (   0.0483930   0.0483930   0.1012909), wk =   0.0219479
        k(   50) = (   0.0483930   0.0483930   0.1350546), wk =   0.0219479
        k(   51) = (   0.0483930   0.0725895   0.0000000), wk =   0.0219479
        k(   52) = (   0.0483930   0.0725895   0.0337636), wk =   0.0438957
        k(   53) = (   0.0483930   0.0725895   0.0675273), wk =   0.0438957
        k(   54) = (   0.0483930   0.0725895   0.1012909), wk =   0.0438957
        k(   55) = (   0.0483930   0.0725895   0.1350546), wk =   0.0438957
        k(   56) = (   0.0483930   0.0967860   0.0000000), wk =   0.0219479
        k(   57) = (   0.0483930   0.0967860   0.0337636), wk =   0.0438957
        k(   58) = (   0.0483930   0.0967860   0.0675273), wk =   0.0438957
        k(   59) = (   0.0483930   0.0967860   0.1012909), wk =   0.0438957
        k(   60) = (   0.0483930   0.0967860   0.1350546), wk =   0.0438957
        k(   61) = (   0.0725895   0.0725895   0.0000000), wk =   0.0109739
        k(   62) = (   0.0725895   0.0725895   0.0337636), wk =   0.0219479
        k(   63) = (   0.0725895   0.0725895   0.0675273), wk =   0.0219479
        k(   64) = (   0.0725895   0.0725895   0.1012909), wk =   0.0219479
        k(   65) = (   0.0725895   0.0725895   0.1350546), wk =   0.0219479
        k(   66) = (   0.0725895   0.0967860   0.0000000), wk =   0.0219479
        k(   67) = (   0.0725895   0.0967860   0.0337636), wk =   0.0438957
        k(   68) = (   0.0725895   0.0967860   0.0675273), wk =   0.0438957
        k(   69) = (   0.0725895   0.0967860   0.1012909), wk =   0.0438957
        k(   70) = (   0.0725895   0.0967860   0.1350546), wk =   0.0438957
        k(   71) = (   0.0967860   0.0967860   0.0000000), wk =   0.0109739
        k(   72) = (   0.0967860   0.0967860   0.0337636), wk =   0.0219479
        k(   73) = (   0.0967860   0.0967860   0.0675273), wk =   0.0219479
        k(   74) = (   0.0967860   0.0967860   0.1012909), wk =   0.0219479
        k(   75) = (   0.0967860   0.0967860   0.1350546), wk =   0.0219479

     Largest allocated arrays     est. size (Mb)     dimensions
     Largest temporary arrays     est. size (Mb)     dimensions

     Initial potential from superposition of free atoms
     Check: negative starting charge=   -0.464080

     starting charge   50.99992, renormalised to   56.00000

     negative rho (up, down):  5.096E-01 0.000E+00

     *
     * You are using vdW-DF for exchange-correlation in this calculation.
     * Please cite the following three references that made this development
     * possible:
     *
     *   M. Dion, H. Rydberg, E. Schroder, D. C. Langreth, and
     *   B. I. Lundqvist, Phys. Rev. Lett. 92, 246401 (2004).
     *
     *   T. Thonhauser, V. R. Cooper, S. Li, A. Puzder, P. Hyldgaard, and
     *   D. C. Langreth, Phys. Rev. B 76, 125112 (2007).
     *
     *   G. Roman-Perez and J. M. Soler, Phys. Rev. Lett. 103, 096102 (2009).
     *
     *
     * If you are using vdW-DF2, please also cite:
     *
     *   K. Lee, E. D. Murray, L. Kong, B. I. Lundqvist, and
     *   D. C. Langreth, Phys. Rev. B 82, 081101(R) (2010).
     *
     *
     * If you are calculating the stress with vdW-DF, please also cite:
     *
     *   R. Sabatini, E. Kucukbenli, B. Kolb, T. Thonhauser, and
     *   S. de Gironcoli, J. Phys.: Condens. Matter 24, 424209 (2012).
     *

     Carrying out vdW-DF run using the following parameters:

     Nqs =      20    Nr_points =    1024   r_max =   100.000
     q_mesh =
               0.00001000     0.04494208     0.09755937     0.15916263
               0.23128650     0.31572767     0.41458969     0.53033537
               0.66584808     0.82450364     1.01025438     1.22772762
               1.48234092     1.78043706     2.12944203     2.53805004
               3.01644009     3.57652955     4.23227104     5.00000000

     Gradients computed in reciprocal space

     Starting wfc are   52 randomized atomic wfcs

     Self-consistent Calculation

     iteration #  1     ecut=    58.80 Ry     beta=0.10
     Davidson diagonalization with overlap
     ethr =  1.00E-02,  avg # of iterations =  4.1

[...]

     total energy              =    -722.05961496 Ry
     Harris-Foulkes estimate   =    -722.76255574 Ry
     estimated scf accuracy    <       4.84930685 Ry

[...]

     total energy              =    -721.07613086 Ry
     Harris-Foulkes estimate   =    -721.07614452 Ry
     estimated scf accuracy    <       0.00004445 Ry

     iteration # 12     ecut=    58.80 Ry     beta=0.10
     Davidson diagonalization with overlap
     ethr =  6.82E-08,  avg # of iterations =  1.1

     negative rho (up, down):  4.804E-01 0.000E+00

     End of self-consistent calculation

          k = 0.0000 0.0000 0.0000 (  3563 PWs)   bands (ev):

   -66.5703 -66.5655 -42.4633 -42.4345 -25.9056 -25.9056 -25.8445 -25.8281
   -25.8281 -25.8269 -11.1839 -11.1839 -10.9050 -10.8913 -10.8913 -10.8560
    10.9850  14.1379  14.3833  14.6918  14.7223  16.4725  16.4725  18.2326
    18.2326  18.3572  20.4174  20.6392  20.6392  20.6493  22.1842  22.3821
    23.1613  25.6645  25.6817  25.6817  25.8288  25.9584  25.9584  27.4636
    27.8184  27.8184  30.1338  30.8919  31.3261  31.3261  34.0591  34.6141

[...]

          k = 0.0968 0.0968 0.1351 (  3529 PWs)   bands (ev):

   -66.5660 -66.5659 -42.4377 -42.4368 -25.9082 -25.9078 -25.9064 -25.9042
   -25.8147 -25.8125 -11.1910 -11.1822 -11.1520 -11.1497 -10.8581 -10.8486
    14.1782  14.2333  14.4488  14.4692  16.6432  16.6526  16.6620  16.7324
    19.5151  19.5987  19.7358  20.2777  20.5302  20.9104  21.0582  21.2532
    22.7372  22.8661  25.5926  25.6682  25.7461  25.9145  25.9346  26.1329
    29.9735  30.0463  30.6281  30.9515  31.5995  31.6307  31.7738  32.0174

     the Fermi energy is    19.7291 ev

!    total energy              =    -721.07614059 Ry
     Harris-Foulkes estimate   =    -721.07613792 Ry
     estimated scf accuracy    <       0.00000031 Ry

     The total energy is the sum of the following terms:

     one-electron contribution =    -101.56104057 Ry
     hartree contribution      =      81.24178252 Ry
     xc contribution           =    -232.56250185 Ry
     ewald contribution        =    -468.19272755 Ry
     smearing contrib. (-TS)   =      -0.00165315 Ry

     convergence has been achieved in  12 iterations

     Forces acting on atoms (Ry/au):

     negative rho (up, down):  4.804E-01 0.000E+00
     atom    1 type  1   force =     0.00000000    0.00000000    0.00000000
     atom    2 type  1   force =     0.00000000    0.00000000    0.00000000
     atom    3 type  2   force =     0.00000000    0.00000000    0.00000000
     atom    4 type  2   force =     0.00000000    0.00000000    0.00000000

     Total force =     0.000000     Total SCF correction =     0.000000

     General routines

     Parallel routines

   This run was terminated on:  14:50:30  14Nov2017

   JOB DONE.