     Program PWSCF v.5.1rc2 starts on 15Nov2017 at  7:22: 8

     Current dimensions of program PWSCF are:
     Max number of different atomic species (ntypx) = 10
     Max number of k-points (npk) =  40000
     Max angular momentum in pseudopotentials (lmaxx) =  3

     IMPORTANT: XC functional enforced from input :
     Exchange-correlation      = BEEF-VDW ( 1  4 27 13 2)
     Any further DFT definition will be discarded
     Please, verify this is what you really want

     Found symmetry operation: I + ( -0.5000 -0.5000  0.0000)
     This is a supercell, fractional translations are disabled

     bravais-lattice index     =            0
     lattice parameter (alat)  =       1.8897  a.u.
     unit-cell volume          =     615.8793 (a.u.)^3
     number of atoms/cell      =            4
     number of atomic types    =            2
     number of electrons       =        48.00
     number of Kohn-Sham states=           44
     kinetic-energy cutoff     =      58.7989  Ry
     charge density cutoff     =     587.9892  Ry
     convergence threshold     =      1.0E-06
     mixing beta               =       0.1000
     number of iterations used =           10  plain     mixing
     Exchange-correlation      = BEEF-VDW ( 1  4 27 13 2)

     celldm(1)=   1.889726  celldm(2)=   0.000000  celldm(3)=   0.000000
     celldm(4)=   0.000000  celldm(5)=   0.000000  celldm(6)=   0.000000

     crystal axes: (cart. coord. in units of alat)
               a(1) = (   4.502307   0.000000   0.000000 )
               a(2) = (   0.000000   4.502307   0.000000 )
               a(3) = (   0.000000   0.000000   4.502242 )

     reciprocal axes: (cart. coord. in units 2 pi/alat)
               b(1) = (  0.222108  0.000000  0.000000 )
               b(2) = (  0.000000  0.222108  0.000000 )
               b(3) = (  0.000000  0.000000  0.222112 )

     PseudoPot. # 1 for Zr read from file:
     /home/users/vossj/suncat/psp/gbrv1.5pbe/Zr.UPF
     MD5 check sum: 5db81b1e868ab7776c4564c113de050b
     Pseudo is Ultrasoft + core correction, Zval = 12.0
     Generated by new atomic code, or converted to UPF format
     Using radial grid of  887 points,  6 beta functions with:
                l(1) =   0
                l(2) =   0
                l(3) =   1
                l(4) =   1
                l(5) =   2
                l(6) =   2
     Q(r) pseudized with  6 coefficients,  rinner =    1.200   1.200   1.200
                                                       1.200   1.200

     PseudoPot. # 2 for Hf read from file:
     /home/users/vossj/suncat/psp/gbrv1.5pbe/Hf.UPF
     MD5 check sum: 8ee9378dfe14276e333edf04c5e4aa26
     Pseudo is Ultrasoft + core correction, Zval = 12.0
     Generated by new atomic code, or converted to UPF format
     Using radial grid of  921 points,  8 beta functions with:
                l(1) =   0
                l(2) =   0
                l(3) =   0
                l(4) =   1
                l(5) =   1
                l(6) =   2
                l(7) =   2
                l(8) =   3
     Q(r) pseudized with  6 coefficients,  rinner =    1.200   1.200   1.200
                                                       1.200   1.200   1.200
                                                       1.200

     vdW kernel table read from file vdW_kernel_table
     MD5 check sum: 095c7af220d748ca6e76c0b4c6cfb241

     atomic species   valence    mass     pseudopotential
        Zr1           12.00    91.22400     Zr( 1.00)
        Hf1           12.00   178.49000     Hf( 1.00)

     16 Sym. Ops., with inversion, found

   Cartesian axes

     site n.     atom                  positions (alat units)
         1           Zr1 tau(   1) = (   0.0000000   0.0000000   0.0000000  )
         2           Zr1 tau(   2) = (   2.2511535   2.2511535   0.0000000  )
         3           Hf1 tau(   3) = (   2.2511535   0.0000000   2.2511209  )
         4           Hf1 tau(   4) = (   0.0000000   2.2511535   2.2511209  )

     number of k points=    75  Fermi-Dirac smearing, width (Ry)=  0.0073
                       cart. coord. in units 2pi/alat
        k(    1) = (   0.0000000   0.0000000   0.0000000), wk =   0.0027435
        k(    2) = (   0.0000000   0.0000000   0.0246791), wk =   0.0054870
        k(    3) = (   0.0000000   0.0000000   0.0493581), wk =   0.0054870
        k(    4) = (   0.0000000   0.0000000   0.0740372), wk =   0.0054870
        k(    5) = (   0.0000000   0.0000000   0.0987163), wk =   0.0054870
        k(    6) = (   0.0000000   0.0246787   0.0000000), wk =   0.0109739
        k(    7) = (   0.0000000   0.0246787   0.0246791), wk =   0.0219479
        k(    8) = (   0.0000000   0.0246787   0.0493581), wk =   0.0219479
        k(    9) = (   0.0000000   0.0246787   0.0740372), wk =   0.0219479
        k(   10) = (   0.0000000   0.0246787   0.0987163), wk =   0.0219479
        k(   11) = (   0.0000000   0.0493574   0.0000000), wk =   0.0109739
        k(   12) = (   0.0000000   0.0493574   0.0246791), wk =   0.0219479
        k(   13) = (   0.0000000   0.0493574   0.0493581), wk =   0.0219479
        k(   14) = (   0.0000000   0.0493574   0.0740372), wk =   0.0219479
        k(   15) = (   0.0000000   0.0493574   0.0987163), wk =   0.0219479
        k(   16) = (   0.0000000   0.0740361   0.0000000), wk =   0.0109739
        k(   17) = (   0.0000000   0.0740361   0.0246791), wk =   0.0219479
        k(   18) = (   0.0000000   0.0740361   0.0493581), wk =   0.0219479
        k(   19) = (   0.0000000   0.0740361   0.0740372), wk =   0.0219479
        k(   20) = (   0.0000000   0.0740361   0.0987163), wk =   0.0219479
        k(   21) = (   0.0000000   0.0987148   0.0000000), wk =   0.0109739
        k(   22) = (   0.0000000   0.0987148   0.0246791), wk =   0.0219479
        k(   23) = (   0.0000000   0.0987148   0.0493581), wk =   0.0219479
        k(   24) = (   0.0000000   0.0987148   0.0740372), wk =   0.0219479
        k(   25) = (   0.0000000   0.0987148   0.0987163), wk =   0.0219479
        k(   26) = (   0.0246787   0.0246787   0.0000000), wk =   0.0109739
        k(   27) = (   0.0246787   0.0246787   0.0246791), wk =   0.0219479
        k(   28) = (   0.0246787   0.0246787   0.0493581), wk =   0.0219479
        k(   29) = (   0.0246787   0.0246787   0.0740372), wk =   0.0219479
        k(   30) = (   0.0246787   0.0246787   0.0987163), wk =   0.0219479
        k(   31) = (   0.0246787   0.0493574   0.0000000), wk =   0.0219479
        k(   32) = (   0.0246787   0.0493574   0.0246791), wk =   0.0438957
        k(   33) = (   0.0246787   0.0493574   0.0493581), wk =   0.0438957
        k(   34) = (   0.0246787   0.0493574   0.0740372), wk =   0.0438957
        k(   35) = (   0.0246787   0.0493574   0.0987163), wk =   0.0438957
        k(   36) = (   0.0246787   0.0740361   0.0000000), wk =   0.0219479
        k(   37) = (   0.0246787   0.0740361   0.0246791), wk =   0.0438957
        k(   38) = (   0.0246787   0.0740361   0.0493581), wk =   0.0438957
        k(   39) = (   0.0246787   0.0740361   0.0740372), wk =   0.0438957
        k(   40) = (   0.0246787   0.0740361   0.0987163), wk =   0.0438957
        k(   41) = (   0.0246787   0.0987148   0.0000000), wk =   0.0219479
        k(   42) = (   0.0246787   0.0987148   0.0246791), wk =   0.0438957
        k(   43) = (   0.0246787   0.0987148   0.0493581), wk =   0.0438957
        k(   44) = (   0.0246787   0.0987148   0.0740372), wk =   0.0438957
        k(   45) = (   0.0246787   0.0987148   0.0987163), wk =   0.0438957
        k(   46) = (   0.0493574   0.0493574   0.0000000), wk =   0.0109739
        k(   47) = (   0.0493574   0.0493574   0.0246791), wk =   0.0219479
        k(   48) = (   0.0493574   0.0493574   0.0493581), wk =   0.0219479
        k(   49) = (   0.0493574   0.0493574   0.0740372), wk =   0.0219479
        k(   50) = (   0.0493574   0.0493574   0.0987163), wk =   0.0219479
        k(   51) = (   0.0493574   0.0740361   0.0000000), wk =   0.0219479
        k(   52) = (   0.0493574   0.0740361   0.0246791), wk =   0.0438957
        k(   53) = (   0.0493574   0.0740361   0.0493581), wk =   0.0438957
        k(   54) = (   0.0493574   0.0740361   0.0740372), wk =   0.0438957
        k(   55) = (   0.0493574   0.0740361   0.0987163), wk =   0.0438957
        k(   56) = (   0.0493574   0.0987148   0.0000000), wk =   0.0219479
        k(   57) = (   0.0493574   0.0987148   0.0246791), wk =   0.0438957
        k(   58) = (   0.0493574   0.0987148   0.0493581), wk =   0.0438957
        k(   59) = (   0.0493574   0.0987148   0.0740372), wk =   0.0438957
        k(   60) = (   0.0493574   0.0987148   0.0987163), wk =   0.0438957
        k(   61) = (   0.0740361   0.0740361   0.0000000), wk =   0.0109739
        k(   62) = (   0.0740361   0.0740361   0.0246791), wk =   0.0219479
        k(   63) = (   0.0740361   0.0740361   0.0493581), wk =   0.0219479
        k(   64) = (   0.0740361   0.0740361   0.0740372), wk =   0.0219479
        k(   65) = (   0.0740361   0.0740361   0.0987163), wk =   0.0219479
        k(   66) = (   0.0740361   0.0987148   0.0000000), wk =   0.0219479
        k(   67) = (   0.0740361   0.0987148   0.0246791), wk =   0.0438957
        k(   68) = (   0.0740361   0.0987148   0.0493581), wk =   0.0438957
        k(   69) = (   0.0740361   0.0987148   0.0740372), wk =   0.0438957
        k(   70) = (   0.0740361   0.0987148   0.0987163), wk =   0.0438957
        k(   71) = (   0.0987148   0.0987148   0.0000000), wk =   0.0109739
        k(   72) = (   0.0987148   0.0987148   0.0246791), wk =   0.0219479
        k(   73) = (   0.0987148   0.0987148   0.0493581), wk =   0.0219479
        k(   74) = (   0.0987148   0.0987148   0.0740372), wk =   0.0219479
        k(   75) = (   0.0987148   0.0987148   0.0987163), wk =   0.0219479

     Largest allocated arrays     est. size (Mb)     dimensions
     Largest temporary arrays     est. size (Mb)     dimensions

     Check: negative/imaginary core charge=   -0.000001    0.000000

     Initial potential from superposition of free atoms
     Check: negative starting charge=   -0.336270

     starting charge   43.99570, renormalised to   48.00000

     negative rho (up, down):  3.669E-01 0.000E+00

     *
     * You are using vdW-DF for exchange-correlation in this calculation.
     * Please cite the following three references that made this development
     * possible:
     *
     *   M. Dion, H. Rydberg, E. Schroder, D. C. Langreth, and
     *   B. I. Lundqvist, Phys. Rev. Lett. 92, 246401 (2004).
     *
     *   T. Thonhauser, V. R. Cooper, S. Li, A. Puzder, P. Hyldgaard, and
     *   D. C. Langreth, Phys. Rev. B 76, 125112 (2007).
     *
     *   G. Roman-Perez and J. M. Soler, Phys. Rev. Lett. 103, 096102 (2009).
     *
     *
     * If you are using vdW-DF2, please also cite:
     *
     *   K. Lee, E. D. Murray, L. Kong, B. I. Lundqvist, and
     *   D. C. Langreth, Phys. Rev. B 82, 081101(R) (2010).
     *
     *
     * If you are calculating the stress with vdW-DF, please also cite:
     *
     *   R. Sabatini, E. Kucukbenli, B. Kolb, T. Thonhauser, and
     *   S. de Gironcoli, J. Phys.: Condens. Matter 24, 424209 (2012).
     *

     Carrying out vdW-DF run using the following parameters:

     Nqs =      20    Nr_points =    1024   r_max =   100.000
     q_mesh =
               0.00001000     0.04494208     0.09755937     0.15916263
               0.23128650     0.31572767     0.41458969     0.53033537
               0.66584808     0.82450364     1.01025438     1.22772762
               1.48234092     1.78043706     2.12944203     2.53805004
               3.01644009     3.57652955     4.23227104     5.00000000

     Gradients computed in reciprocal space

     Starting wfc are   52 randomized atomic wfcs

     Self-consistent Calculation

     iteration #  1     ecut=    58.80 Ry     beta=0.10
     Davidson diagonalization with overlap
     ethr =  1.00E-02,  avg # of iterations =  4.1

[...]

     total energy              =    -521.54647253 Ry
     Harris-Foulkes estimate   =    -521.90923052 Ry
     estimated scf accuracy    <       2.65981176 Ry

[...]

     total energy              =    -520.74914106 Ry
     Harris-Foulkes estimate   =    -520.74914493 Ry
     estimated scf accuracy    <       0.00000473 Ry

     iteration # 12     ecut=    58.80 Ry     beta=0.10
     Davidson diagonalization with overlap
     ethr =  9.85E-09,  avg # of iterations =  2.0

     negative rho (up, down):  3.591E-01 0.000E+00

     End of self-consistent calculation

          k = 0.0000 0.0000 0.0000 (  4697 PWs)   bands (ev):

   -48.1534 -48.1168 -34.7517 -34.6536 -16.8549 -16.8549 -16.7598 -16.6433
   -16.5018 -16.5018 -12.9127 -12.9127 -12.7035 -12.6279 -12.4604 -12.4604
     7.6766  10.8527  11.0287  11.1294  11.9352  11.9352  11.9354  15.2531
    15.2531  15.2645  16.7878  16.7878  16.7994  17.7822  17.8258  19.5476
    19.8082  19.8378  19.9187  20.2672  20.2672  20.2857  20.2857  20.7281
    23.5455  23.9220  23.9220  23.9454

[...]

          k = 0.0987 0.0987 0.0987 (  4698 PWs)   bands (ev):

   -48.1354 -48.1343 -34.7033 -34.7004 -16.9102 -16.9003 -16.7188 -16.7164
   -16.4743 -16.4635 -12.9632 -12.9499 -12.6707 -12.6670 -12.4347 -12.4200
    10.4827  10.5599  11.2287  11.2821  14.5261  14.5335  14.6411  14.7836
    15.0377  15.0459  15.0873  15.1093  15.1619  15.1761  15.1819  15.2279
    19.4112  19.5039  19.5342  19.6918  19.7857  19.8673  19.9069  19.9673
    22.6759  22.7902  24.1667  24.2145

     the Fermi energy is    14.0709 ev

!    total energy              =    -520.74915948 Ry
     Harris-Foulkes estimate   =    -520.74914183 Ry
     estimated scf accuracy    <       0.00000018 Ry

     The total energy is the sum of the following terms:

     one-electron contribution =     -73.93034566 Ry
     hartree contribution      =      55.27700007 Ry
     xc contribution           =    -191.68427076 Ry
     ewald contribution        =    -310.39654817 Ry
     smearing contrib. (-TS)   =      -0.01499495 Ry

     convergence has been achieved in  12 iterations

     Forces acting on atoms (Ry/au):

     negative rho (up, down):  3.591E-01 0.000E+00
     atom    1 type  1   force =     0.00000000    0.00000000    0.00000000
     atom    2 type  1   force =     0.00000000    0.00000000    0.00000000
     atom    3 type  2   force =     0.00000000    0.00000000    0.00000000
     atom    4 type  2   force =     0.00000000    0.00000000    0.00000000

     Total force =     0.000000     Total SCF correction =     0.000000

     General routines

     Parallel routines

   This run was terminated on:   7:22:55  15Nov2017

   JOB DONE.