     Program PWSCF v.5.1rc2 starts on 15Nov2017 at  4:51:55

     Current dimensions of program PWSCF are:
     Max number of different atomic species (ntypx) = 10
     Max number of k-points (npk) =  40000
     Max angular momentum in pseudopotentials (lmaxx) =  3

     IMPORTANT: XC functional enforced from input :
     Exchange-correlation      = BEEF-VDW ( 1  4 27 13 2)
     Any further DFT definition will be discarded
     Please, verify this is what you really want

     Found symmetry operation: I + ( -0.5000 -0.5000  0.0000)
     This is a supercell, fractional translations are disabled

     bravais-lattice index     =            0
     lattice parameter (alat)  =       1.8897  a.u.
     unit-cell volume          =     406.1937 (a.u.)^3
     number of atoms/cell      =            4
     number of atomic types    =            2
     number of electrons       =        62.00
     number of Kohn-Sham states=           51
     kinetic-energy cutoff     =      58.7989  Ry
     charge density cutoff     =     587.9892  Ry
     convergence threshold     =      1.0E-06
     mixing beta               =       0.1000
     number of iterations used =           10  plain     mixing
     Exchange-correlation      = BEEF-VDW ( 1  4 27 13 2)

     celldm(1)=   1.889726  celldm(2)=   0.000000  celldm(3)=   0.000000
     celldm(4)=   0.000000  celldm(5)=   0.000000  celldm(6)=   0.000000

     crystal axes: (cart. coord. in units of alat)
               a(1) = (   3.928584   0.000000   0.000000 )
               a(2) = (   0.000000   3.928584   0.000000 )
               a(3) = (   0.000000   0.000000   3.899999 )

     reciprocal axes: (cart. coord. in units 2 pi/alat)
               b(1) = (  0.254545  0.000000  0.000000 )
               b(2) = (  0.000000  0.254545  0.000000 )
               b(3) = (  0.000000  0.000000  0.256410 )

     PseudoPot. # 1 for Rh read from file:
     /home/users/vossj/suncat/psp/gbrv1.5pbe/Rh.UPF
     MD5 check sum: 761627e959a2e3a1f56b0b5fe687810e
     Pseudo is Ultrasoft + core correction, Zval = 15.0
     Generated by new atomic code, or converted to UPF format
     Using radial grid of  969 points,  7 beta functions with:
                l(1) =   0
                l(2) =   0
                l(3) =   1
                l(4) =   1
                l(5) =   2
                l(6) =   2
                l(7) =   2
     Q(r) pseudized with  8 coefficients,  rinner =    1.200   1.200   1.200
                                                       1.200   1.200

     PseudoPot. # 2 for Pd read from file:
     /home/users/vossj/suncat/psp/gbrv1.5pbe/Pd.UPF
     MD5 check sum: 2d733d2bc2cbfd217af676df1668a4bc
     Pseudo is Ultrasoft + core correction, Zval = 16.0
     Generated by new atomic code, or converted to UPF format
     Using radial grid of  887 points,  6 beta functions with:
                l(1) =   0
                l(2) =   0
                l(3) =   1
                l(4) =   1
                l(5) =   2
                l(6) =   2
     Q(r) pseudized with  8 coefficients,  rinner =    1.130   1.130   1.130
                                                       1.130   1.130

     vdW kernel table read from file vdW_kernel_table
     MD5 check sum: 095c7af220d748ca6e76c0b4c6cfb241

     atomic species   valence    mass     pseudopotential
        Rh1           15.00   102.90550     Rh( 1.00)
        Pd1           16.00   106.42000     Pd( 1.00)

     16 Sym. Ops., with inversion, found

   Cartesian axes

     site n.     atom                  positions (alat units)
         1           Rh1 tau(   1) = (   0.0000000   0.0000000   0.0000000  )
         2           Rh1 tau(   2) = (   1.9642920   1.9642920   0.0000000  )
         3           Pd1 tau(   3) = (   1.9642920   0.0000000   1.9499996  )
         4           Pd1 tau(   4) = (   0.0000000   1.9642920   1.9499996  )

     number of k points=    75  Fermi-Dirac smearing, width (Ry)=  0.0073
                       cart. coord. in units 2pi/alat
        k(    1) = (   0.0000000   0.0000000   0.0000000), wk =   0.0027435
        k(    2) = (   0.0000000   0.0000000   0.0284900), wk =   0.0054870
        k(    3) = (   0.0000000   0.0000000   0.0569801), wk =   0.0054870
        k(    4) = (   0.0000000   0.0000000   0.0854701), wk =   0.0054870
        k(    5) = (   0.0000000   0.0000000   0.1139601), wk =   0.0054870
        k(    6) = (   0.0000000   0.0282827   0.0000000), wk =   0.0109739
        k(    7) = (   0.0000000   0.0282827   0.0284900), wk =   0.0219479
        k(    8) = (   0.0000000   0.0282827   0.0569801), wk =   0.0219479
        k(    9) = (   0.0000000   0.0282827   0.0854701), wk =   0.0219479
        k(   10) = (   0.0000000   0.0282827   0.1139601), wk =   0.0219479
        k(   11) = (   0.0000000   0.0565655   0.0000000), wk =   0.0109739
        k(   12) = (   0.0000000   0.0565655   0.0284900), wk =   0.0219479
        k(   13) = (   0.0000000   0.0565655   0.0569801), wk =   0.0219479
        k(   14) = (   0.0000000   0.0565655   0.0854701), wk =   0.0219479
        k(   15) = (   0.0000000   0.0565655   0.1139601), wk =   0.0219479
        k(   16) = (   0.0000000   0.0848482   0.0000000), wk =   0.0109739
        k(   17) = (   0.0000000   0.0848482   0.0284900), wk =   0.0219479
        k(   18) = (   0.0000000   0.0848482   0.0569801), wk =   0.0219479
        k(   19) = (   0.0000000   0.0848482   0.0854701), wk =   0.0219479
        k(   20) = (   0.0000000   0.0848482   0.1139601), wk =   0.0219479
        k(   21) = (   0.0000000   0.1131309   0.0000000), wk =   0.0109739
        k(   22) = (   0.0000000   0.1131309   0.0284900), wk =   0.0219479
        k(   23) = (   0.0000000   0.1131309   0.0569801), wk =   0.0219479
        k(   24) = (   0.0000000   0.1131309   0.0854701), wk =   0.0219479
        k(   25) = (   0.0000000   0.1131309   0.1139601), wk =   0.0219479
        k(   26) = (   0.0282827   0.0282827   0.0000000), wk =   0.0109739
        k(   27) = (   0.0282827   0.0282827   0.0284900), wk =   0.0219479
        k(   28) = (   0.0282827   0.0282827   0.0569801), wk =   0.0219479
        k(   29) = (   0.0282827   0.0282827   0.0854701), wk =   0.0219479
        k(   30) = (   0.0282827   0.0282827   0.1139601), wk =   0.0219479
        k(   31) = (   0.0282827   0.0565655   0.0000000), wk =   0.0219479
        k(   32) = (   0.0282827   0.0565655   0.0284900), wk =   0.0438957
        k(   33) = (   0.0282827   0.0565655   0.0569801), wk =   0.0438957
        k(   34) = (   0.0282827   0.0565655   0.0854701), wk =   0.0438957
        k(   35) = (   0.0282827   0.0565655   0.1139601), wk =   0.0438957
        k(   36) = (   0.0282827   0.0848482   0.0000000), wk =   0.0219479
        k(   37) = (   0.0282827   0.0848482   0.0284900), wk =   0.0438957
        k(   38) = (   0.0282827   0.0848482   0.0569801), wk =   0.0438957
        k(   39) = (   0.0282827   0.0848482   0.0854701), wk =   0.0438957
        k(   40) = (   0.0282827   0.0848482   0.1139601), wk =   0.0438957
        k(   41) = (   0.0282827   0.1131309   0.0000000), wk =   0.0219479
        k(   42) = (   0.0282827   0.1131309   0.0284900), wk =   0.0438957
        k(   43) = (   0.0282827   0.1131309   0.0569801), wk =   0.0438957
        k(   44) = (   0.0282827   0.1131309   0.0854701), wk =   0.0438957
        k(   45) = (   0.0282827   0.1131309   0.1139601), wk =   0.0438957
        k(   46) = (   0.0565655   0.0565655   0.0000000), wk =   0.0109739
        k(   47) = (   0.0565655   0.0565655   0.0284900), wk =   0.0219479
        k(   48) = (   0.0565655   0.0565655   0.0569801), wk =   0.0219479
        k(   49) = (   0.0565655   0.0565655   0.0854701), wk =   0.0219479
        k(   50) = (   0.0565655   0.0565655   0.1139601), wk =   0.0219479
        k(   51) = (   0.0565655   0.0848482   0.0000000), wk =   0.0219479
        k(   52) = (   0.0565655   0.0848482   0.0284900), wk =   0.0438957
        k(   53) = (   0.0565655   0.0848482   0.0569801), wk =   0.0438957
        k(   54) = (   0.0565655   0.0848482   0.0854701), wk =   0.0438957
        k(   55) = (   0.0565655   0.0848482   0.1139601), wk =   0.0438957
        k(   56) = (   0.0565655   0.1131309   0.0000000), wk =   0.0219479
        k(   57) = (   0.0565655   0.1131309   0.0284900), wk =   0.0438957
        k(   58) = (   0.0565655   0.1131309   0.0569801), wk =   0.0438957
        k(   59) = (   0.0565655   0.1131309   0.0854701), wk =   0.0438957
        k(   60) = (   0.0565655   0.1131309   0.1139601), wk =   0.0438957
        k(   61) = (   0.0848482   0.0848482   0.0000000), wk =   0.0109739
        k(   62) = (   0.0848482   0.0848482   0.0284900), wk =   0.0219479
        k(   63) = (   0.0848482   0.0848482   0.0569801), wk =   0.0219479
        k(   64) = (   0.0848482   0.0848482   0.0854701), wk =   0.0219479
        k(   65) = (   0.0848482   0.0848482   0.1139601), wk =   0.0219479
        k(   66) = (   0.0848482   0.1131309   0.0000000), wk =   0.0219479
        k(   67) = (   0.0848482   0.1131309   0.0284900), wk =   0.0438957
        k(   68) = (   0.0848482   0.1131309   0.0569801), wk =   0.0438957
        k(   69) = (   0.0848482   0.1131309   0.0854701), wk =   0.0438957
        k(   70) = (   0.0848482   0.1131309   0.1139601), wk =   0.0438957
        k(   71) = (   0.1131309   0.1131309   0.0000000), wk =   0.0109739
        k(   72) = (   0.1131309   0.1131309   0.0284900), wk =   0.0219479
        k(   73) = (   0.1131309   0.1131309   0.0569801), wk =   0.0219479
        k(   74) = (   0.1131309   0.1131309   0.0854701), wk =   0.0219479
        k(   75) = (   0.1131309   0.1131309   0.1139601), wk =   0.0219479

     Largest allocated arrays     est. size (Mb)     dimensions
     Largest temporary arrays     est. size (Mb)     dimensions

     Initial potential from superposition of free atoms
     Check: negative starting charge=   -0.268645

     starting charge   59.99979, renormalised to   62.00000

     negative rho (up, down):  2.776E-01 0.000E+00

     *
     * You are using vdW-DF for exchange-correlation in this calculation.
     * Please cite the following three references that made this development
     * possible:
     *
     *   M. Dion, H. Rydberg, E. Schroder, D. C. Langreth, and
     *   B. I. Lundqvist, Phys. Rev. Lett. 92, 246401 (2004).
     *
     *   T. Thonhauser, V. R. Cooper, S. Li, A. Puzder, P. Hyldgaard, and
     *   D. C. Langreth, Phys. Rev. B 76, 125112 (2007).
     *
     *   G. Roman-Perez and J. M. Soler, Phys. Rev. Lett. 103, 096102 (2009).
     *
     *
     * If you are using vdW-DF2, please also cite:
     *
     *   K. Lee, E. D. Murray, L. Kong, B. I. Lundqvist, and
     *   D. C. Langreth, Phys. Rev. B 82, 081101(R) (2010).
     *
     *
     * If you are calculating the stress with vdW-DF, please also cite:
     *
     *   R. Sabatini, E. Kucukbenli, B. Kolb, T. Thonhauser, and
     *   S. de Gironcoli, J. Phys.: Condens. Matter 24, 424209 (2012).
     *

     Carrying out vdW-DF run using the following parameters:

     Nqs =      20    Nr_points =    1024   r_max =   100.000
     q_mesh =
               0.00001000     0.04494208     0.09755937     0.15916263
               0.23128650     0.31572767     0.41458969     0.53033537
               0.66584808     0.82450364     1.01025438     1.22772762
               1.48234092     1.78043706     2.12944203     2.53805004
               3.01644009     3.57652955     4.23227104     5.00000000

     Gradients computed in reciprocal space

     Starting wfc are   48 randomized atomic wfcs +    3 random wfc

     Self-consistent Calculation

     iteration #  1     ecut=    58.80 Ry     beta=0.10
     Davidson diagonalization with overlap
     ethr =  1.00E-02,  avg # of iterations =  4.5

[...]

     total energy              =    -743.97501065 Ry
     Harris-Foulkes estimate   =    -745.33031179 Ry
     estimated scf accuracy    <       7.92270057 Ry

[...]

     total energy              =    -744.06168199 Ry
     Harris-Foulkes estimate   =    -744.06168177 Ry
     estimated scf accuracy    <       0.00000666 Ry

     iteration # 10     ecut=    58.80 Ry     beta=0.10
     Davidson diagonalization with overlap
     ethr =  9.34E-09,  avg # of iterations =  2.0

     negative rho (up, down):  2.819E-01 0.000E+00

     End of self-consistent calculation

          k = 0.0000 0.0000 0.0000 (  3085 PWs)   bands (ev):

   -32.0057 -32.0057 -32.0046 -31.9592 -31.8325 -31.8325 -28.0444 -28.0444
   -27.9161 -27.8748 -27.8047 -27.8047  11.3598  12.9612  12.9944  13.0388
    13.2906  13.2906  13.3029  15.5304  15.5304  15.6953  17.0435  17.2899
    18.1669  18.2538  18.6390  18.7450  18.8605  18.8605  18.8918  18.8918
    19.3771  21.7387  21.7387  21.8771  29.1252  29.2849  29.4109  31.3620
    31.5563  31.5563  31.6846  31.6846  32.0778  35.7067  39.6355  39.7602
    39.8087  39.9442  39.9442

[...]

          k = 0.1131 0.1131 0.1140 (  3105 PWs)   bands (ev):

   -32.0277 -32.0226 -31.9870 -31.9859 -31.8208 -31.8156 -28.0689 -28.0618
   -27.8978 -27.8962 -27.7919 -27.7845  13.1369  13.1695  13.2163  13.2380
    15.3268  15.3509  15.3876  15.4718  15.5130  15.5604  15.8114  15.8810
    17.7708  17.8070  18.0708  18.2458  18.4105  18.5173  18.6573  18.7852
    18.9651  20.0232  20.0461  20.0763  25.8750  25.9362  26.0303  26.5303
    35.0324  35.0638  35.1005  35.1190  38.9026  39.1342  39.1707  39.2180
    39.4838  39.7484  39.9393

     the Fermi energy is    18.3510 ev

!    total energy              =    -744.06169155 Ry
     Harris-Foulkes estimate   =    -744.06168344 Ry
     estimated scf accuracy    <       0.00000084 Ry

     The total energy is the sum of the following terms:

     one-electron contribution =    -149.89409088 Ry
     hartree contribution      =     128.25281219 Ry
     xc contribution           =    -127.15773095 Ry
     ewald contribution        =    -595.24411421 Ry
     smearing contrib. (-TS)   =      -0.01856771 Ry

     convergence has been achieved in  10 iterations

     Forces acting on atoms (Ry/au):

     negative rho (up, down):  2.819E-01 0.000E+00
     atom    1 type  1   force =     0.00000000    0.00000000    0.00000000
     atom    2 type  1   force =     0.00000000    0.00000000    0.00000000
     atom    3 type  2   force =     0.00000000    0.00000000    0.00000000
     atom    4 type  2   force =     0.00000000    0.00000000    0.00000000

     Total force =     0.000000     Total SCF correction =     0.000000

     General routines

     Parallel routines

   This run was terminated on:   4:52:30  15Nov2017

   JOB DONE.