     Program PWSCF v.5.1rc2 starts on 15Nov2017 at  4:55:56

     Current dimensions of program PWSCF are:
     Max number of different atomic species (ntypx) = 10
     Max number of k-points (npk) =  40000
     Max angular momentum in pseudopotentials (lmaxx) =  3

     IMPORTANT: XC functional enforced from input :
     Exchange-correlation      = BEEF-VDW ( 1  4 27 13 2)
     Any further DFT definition will be discarded
     Please, verify this is what you really want

     Found symmetry operation: I + ( -0.5000 -0.5000  0.0000)
     This is a supercell, fractional translations are disabled

     bravais-lattice index     =            0
     lattice parameter (alat)  =       1.8897  a.u.
     unit-cell volume          =     398.8889 (a.u.)^3
     number of atoms/cell      =            4
     number of atomic types    =            2
     number of electrons       =        64.00
     number of Kohn-Sham states=           52
     kinetic-energy cutoff     =      58.7989  Ry
     charge density cutoff     =     587.9892  Ry
     convergence threshold     =      1.0E-06
     mixing beta               =       0.1000
     number of iterations used =           10  plain     mixing
     Exchange-correlation      = BEEF-VDW ( 1  4 27 13 2)

     celldm(1)=   1.889726  celldm(2)=   0.000000  celldm(3)=   0.000000
     celldm(4)=   0.000000  celldm(5)=   0.000000  celldm(6)=   0.000000

     crystal axes: (cart. coord. in units of alat)
               a(1) = (   3.852854   0.000000   0.000000 )
               a(2) = (   0.000000   3.852854   0.000000 )
               a(3) = (   0.000000   0.000000   3.981899 )

     reciprocal axes: (cart. coord. in units 2 pi/alat)
               b(1) = (  0.259548  0.000000  0.000000 )
               b(2) = (  0.000000  0.259548  0.000000 )
               b(3) = (  0.000000  0.000000  0.251136 )

     PseudoPot. # 1 for Ru read from file:
     /home/users/vossj/suncat/psp/gbrv1.5pbe/Ru.UPF
     MD5 check sum: 7158a806dd851261a58e6920c40ebe78
     Pseudo is Ultrasoft + core correction, Zval = 16.0
     Generated by new atomic code, or converted to UPF format
     Using radial grid of  967 points,  6 beta functions with:
                l(1) =   0
                l(2) =   0
                l(3) =   1
                l(4) =   1
                l(5) =   2
                l(6) =   2
     Q(r) pseudized with  8 coefficients,  rinner =    1.300   1.300   1.300
                                                       1.300   1.300

     PseudoPot. # 2 for Pd read from file:
     /home/users/vossj/suncat/psp/gbrv1.5pbe/Pd.UPF
     MD5 check sum: 2d733d2bc2cbfd217af676df1668a4bc
     Pseudo is Ultrasoft + core correction, Zval = 16.0
     Generated by new atomic code, or converted to UPF format
     Using radial grid of  887 points,  6 beta functions with:
                l(1) =   0
                l(2) =   0
                l(3) =   1
                l(4) =   1
                l(5) =   2
                l(6) =   2
     Q(r) pseudized with  8 coefficients,  rinner =    1.130   1.130   1.130
                                                       1.130   1.130

     vdW kernel table read from file vdW_kernel_table
     MD5 check sum: 095c7af220d748ca6e76c0b4c6cfb241

     atomic species   valence    mass     pseudopotential
        Ru1           16.00   101.07000     Ru( 1.00)
        Pd1           16.00   106.42000     Pd( 1.00)

     16 Sym. Ops., with inversion, found

   Cartesian axes

     site n.     atom                  positions (alat units)
         1           Ru1 tau(   1) = (   0.0000000   0.0000000   0.0000000  )
         2           Ru1 tau(   2) = (   1.9264269   1.9264269   0.0000000  )
         3           Pd1 tau(   3) = (   1.9264269   0.0000000   1.9909495  )
         4           Pd1 tau(   4) = (   0.0000000   1.9264269   1.9909495  )

     number of k points=    75  Fermi-Dirac smearing, width (Ry)=  0.0073
                       cart. coord. in units 2pi/alat
        k(    1) = (   0.0000000   0.0000000   0.0000000), wk =   0.0027435
        k(    2) = (   0.0000000   0.0000000   0.0279041), wk =   0.0054870
        k(    3) = (   0.0000000   0.0000000   0.0558081), wk =   0.0054870
        k(    4) = (   0.0000000   0.0000000   0.0837122), wk =   0.0054870
        k(    5) = (   0.0000000   0.0000000   0.1116162), wk =   0.0054870
        k(    6) = (   0.0000000   0.0288387   0.0000000), wk =   0.0109739
        k(    7) = (   0.0000000   0.0288387   0.0279041), wk =   0.0219479
        k(    8) = (   0.0000000   0.0288387   0.0558081), wk =   0.0219479
        k(    9) = (   0.0000000   0.0288387   0.0837122), wk =   0.0219479
        k(   10) = (   0.0000000   0.0288387   0.1116162), wk =   0.0219479
        k(   11) = (   0.0000000   0.0576773   0.0000000), wk =   0.0109739
        k(   12) = (   0.0000000   0.0576773   0.0279041), wk =   0.0219479
        k(   13) = (   0.0000000   0.0576773   0.0558081), wk =   0.0219479
        k(   14) = (   0.0000000   0.0576773   0.0837122), wk =   0.0219479
        k(   15) = (   0.0000000   0.0576773   0.1116162), wk =   0.0219479
        k(   16) = (   0.0000000   0.0865160   0.0000000), wk =   0.0109739
        k(   17) = (   0.0000000   0.0865160   0.0279041), wk =   0.0219479
        k(   18) = (   0.0000000   0.0865160   0.0558081), wk =   0.0219479
        k(   19) = (   0.0000000   0.0865160   0.0837122), wk =   0.0219479
        k(   20) = (   0.0000000   0.0865160   0.1116162), wk =   0.0219479
        k(   21) = (   0.0000000   0.1153546   0.0000000), wk =   0.0109739
        k(   22) = (   0.0000000   0.1153546   0.0279041), wk =   0.0219479
        k(   23) = (   0.0000000   0.1153546   0.0558081), wk =   0.0219479
        k(   24) = (   0.0000000   0.1153546   0.0837122), wk =   0.0219479
        k(   25) = (   0.0000000   0.1153546   0.1116162), wk =   0.0219479
        k(   26) = (   0.0288387   0.0288387   0.0000000), wk =   0.0109739
        k(   27) = (   0.0288387   0.0288387   0.0279041), wk =   0.0219479
        k(   28) = (   0.0288387   0.0288387   0.0558081), wk =   0.0219479
        k(   29) = (   0.0288387   0.0288387   0.0837122), wk =   0.0219479
        k(   30) = (   0.0288387   0.0288387   0.1116162), wk =   0.0219479
        k(   31) = (   0.0288387   0.0576773   0.0000000), wk =   0.0219479
        k(   32) = (   0.0288387   0.0576773   0.0279041), wk =   0.0438957
        k(   33) = (   0.0288387   0.0576773   0.0558081), wk =   0.0438957
        k(   34) = (   0.0288387   0.0576773   0.0837122), wk =   0.0438957
        k(   35) = (   0.0288387   0.0576773   0.1116162), wk =   0.0438957
        k(   36) = (   0.0288387   0.0865160   0.0000000), wk =   0.0219479
        k(   37) = (   0.0288387   0.0865160   0.0279041), wk =   0.0438957
        k(   38) = (   0.0288387   0.0865160   0.0558081), wk =   0.0438957
        k(   39) = (   0.0288387   0.0865160   0.0837122), wk =   0.0438957
        k(   40) = (   0.0288387   0.0865160   0.1116162), wk =   0.0438957
        k(   41) = (   0.0288387   0.1153546   0.0000000), wk =   0.0219479
        k(   42) = (   0.0288387   0.1153546   0.0279041), wk =   0.0438957
        k(   43) = (   0.0288387   0.1153546   0.0558081), wk =   0.0438957
        k(   44) = (   0.0288387   0.1153546   0.0837122), wk =   0.0438957
        k(   45) = (   0.0288387   0.1153546   0.1116162), wk =   0.0438957
        k(   46) = (   0.0576773   0.0576773   0.0000000), wk =   0.0109739
        k(   47) = (   0.0576773   0.0576773   0.0279041), wk =   0.0219479
        k(   48) = (   0.0576773   0.0576773   0.0558081), wk =   0.0219479
        k(   49) = (   0.0576773   0.0576773   0.0837122), wk =   0.0219479
        k(   50) = (   0.0576773   0.0576773   0.1116162), wk =   0.0219479
        k(   51) = (   0.0576773   0.0865160   0.0000000), wk =   0.0219479
        k(   52) = (   0.0576773   0.0865160   0.0279041), wk =   0.0438957
        k(   53) = (   0.0576773   0.0865160   0.0558081), wk =   0.0438957
        k(   54) = (   0.0576773   0.0865160   0.0837122), wk =   0.0438957
        k(   55) = (   0.0576773   0.0865160   0.1116162), wk =   0.0438957
        k(   56) = (   0.0576773   0.1153546   0.0000000), wk =   0.0219479
        k(   57) = (   0.0576773   0.1153546   0.0279041), wk =   0.0438957
        k(   58) = (   0.0576773   0.1153546   0.0558081), wk =   0.0438957
        k(   59) = (   0.0576773   0.1153546   0.0837122), wk =   0.0438957
        k(   60) = (   0.0576773   0.1153546   0.1116162), wk =   0.0438957
        k(   61) = (   0.0865160   0.0865160   0.0000000), wk =   0.0109739
        k(   62) = (   0.0865160   0.0865160   0.0279041), wk =   0.0219479
        k(   63) = (   0.0865160   0.0865160   0.0558081), wk =   0.0219479
        k(   64) = (   0.0865160   0.0865160   0.0837122), wk =   0.0219479
        k(   65) = (   0.0865160   0.0865160   0.1116162), wk =   0.0219479
        k(   66) = (   0.0865160   0.1153546   0.0000000), wk =   0.0219479
        k(   67) = (   0.0865160   0.1153546   0.0279041), wk =   0.0438957
        k(   68) = (   0.0865160   0.1153546   0.0558081), wk =   0.0438957
        k(   69) = (   0.0865160   0.1153546   0.0837122), wk =   0.0438957
        k(   70) = (   0.0865160   0.1153546   0.1116162), wk =   0.0438957
        k(   71) = (   0.1153546   0.1153546   0.0000000), wk =   0.0109739
        k(   72) = (   0.1153546   0.1153546   0.0279041), wk =   0.0219479
        k(   73) = (   0.1153546   0.1153546   0.0558081), wk =   0.0219479
        k(   74) = (   0.1153546   0.1153546   0.0837122), wk =   0.0219479
        k(   75) = (   0.1153546   0.1153546   0.1116162), wk =   0.0219479

     Largest allocated arrays     est. size (Mb)     dimensions
     Largest temporary arrays     est. size (Mb)     dimensions

     Initial potential from superposition of free atoms
     Check: negative starting charge=   -0.304738

     starting charge   60.99995, renormalised to   64.00000

     negative rho (up, down):  3.197E-01 0.000E+00

     *
     * You are using vdW-DF for exchange-correlation in this calculation.
     * Please cite the following three references that made this development
     * possible:
     *
     *   M. Dion, H. Rydberg, E. Schroder, D. C. Langreth, and
     *   B. I. Lundqvist, Phys. Rev. Lett. 92, 246401 (2004).
     *
     *   T. Thonhauser, V. R. Cooper, S. Li, A. Puzder, P. Hyldgaard, and
     *   D. C. Langreth, Phys. Rev. B 76, 125112 (2007).
     *
     *   G. Roman-Perez and J. M. Soler, Phys. Rev. Lett. 103, 096102 (2009).
     *
     *
     * If you are using vdW-DF2, please also cite:
     *
     *   K. Lee, E. D. Murray, L. Kong, B. I. Lundqvist, and
     *   D. C. Langreth, Phys. Rev. B 82, 081101(R) (2010).
     *
     *
     * If you are calculating the stress with vdW-DF, please also cite:
     *
     *   R. Sabatini, E. Kucukbenli, B. Kolb, T. Thonhauser, and
     *   S. de Gironcoli, J. Phys.: Condens. Matter 24, 424209 (2012).
     *

     Carrying out vdW-DF run using the following parameters:

     Nqs =      20    Nr_points =    1024   r_max =   100.000
     q_mesh =
               0.00001000     0.04494208     0.09755937     0.15916263
               0.23128650     0.31572767     0.41458969     0.53033537
               0.66584808     0.82450364     1.01025438     1.22772762
               1.48234092     1.78043706     2.12944203     2.53805004
               3.01644009     3.57652955     4.23227104     5.00000000

     Gradients computed in reciprocal space

     Starting wfc are   50 randomized atomic wfcs +    2 random wfc

     Self-consistent Calculation

     iteration #  1     ecut=    58.80 Ry     beta=0.10
     Davidson diagonalization with overlap
     ethr =  1.00E-02,  avg # of iterations =  4.5

[...]

     total energy              =    -789.47706385 Ry
     Harris-Foulkes estimate   =    -792.31027619 Ry
     estimated scf accuracy    <      16.36769963 Ry

[...]

     total energy              =    -789.84072811 Ry
     Harris-Foulkes estimate   =    -789.84072748 Ry
     estimated scf accuracy    <       0.00000167 Ry

     iteration # 13     ecut=    58.80 Ry     beta=0.10
     Davidson diagonalization with overlap
     ethr =  1.99E-09,  avg # of iterations =  1.1

     negative rho (up, down):  3.172E-01 0.000E+00

     End of self-consistent calculation

          k = 0.0000 0.0000 0.0000 (  3019 PWs)   bands (ev):

   -52.9783 -52.8843 -30.7553 -30.7487 -30.7487 -30.7034 -30.5373 -30.5373
   -23.0889 -23.0889 -22.8967 -22.8103 -22.6795 -22.6795  12.6016  14.1674
    14.2042  14.2346  14.5226  14.5226  14.5605  16.9968  17.0379  17.0379
    18.6055  18.7464  19.6909  19.7680  20.6073  20.6073  20.8553  20.9041
    20.9093  20.9093  22.0613  22.7845  23.4639  23.4639  30.8396  31.4814
    31.8332  31.8799  33.0132  33.0132  33.4100  33.4100  33.5119  36.2019
    40.6352  41.1463  41.4870  41.8195

[...]

          k = 0.1154 0.1154 0.1116 (  3038 PWs)   bands (ev):

   -52.9321 -52.9293 -30.7750 -30.7687 -30.7327 -30.7313 -30.5240 -30.5176
   -23.1386 -23.1265 -22.8579 -22.8549 -22.6544 -22.6417  14.3838  14.4161
    14.4628  14.4879  16.4397  16.4844  16.8826  16.9951  17.0892  17.1582
    17.2876  17.3847  19.3390  19.3942  19.8363  19.9033  20.1864  20.3484
    20.5497  20.6930  20.9347  21.6100  21.7154  21.8076  27.8224  27.9763
    28.2775  28.6729  35.5787  35.5905  35.8004  35.8613  39.4967  39.6964
    40.1645  40.5210  41.1511  41.5049

     the Fermi energy is    19.9473 ev

!    total energy              =    -789.84073132 Ry
     Harris-Foulkes estimate   =    -789.84072822 Ry
     estimated scf accuracy    <       0.00000068 Ry

     The total energy is the sum of the following terms:

     one-electron contribution =    -166.55970721 Ry
     hartree contribution      =     133.31010289 Ry
     xc contribution           =    -118.80167626 Ry
     ewald contribution        =    -637.77403524 Ry
     smearing contrib. (-TS)   =      -0.01541550 Ry

     convergence has been achieved in  13 iterations

     Forces acting on atoms (Ry/au):

     negative rho (up, down):  3.172E-01 0.000E+00
     atom    1 type  1   force =     0.00000000    0.00000000    0.00000000
     atom    2 type  1   force =     0.00000000    0.00000000    0.00000000
     atom    3 type  2   force =     0.00000000    0.00000000    0.00000000
     atom    4 type  2   force =     0.00000000    0.00000000    0.00000000

     Total force =     0.000000     Total SCF correction =     0.000000

     General routines

     Parallel routines

   This run was terminated on:   4:56:39  15Nov2017

   JOB DONE.