     Program PWSCF v.5.1rc2 starts on 15Nov2017 at  5: 1:40

     Current dimensions of program PWSCF are:
     Max number of different atomic species (ntypx) = 10
     Max number of k-points (npk) =  40000
     Max angular momentum in pseudopotentials (lmaxx) =  3

     IMPORTANT: XC functional enforced from input :
     Exchange-correlation      = BEEF-VDW ( 1  4 27 13 2)
     Any further DFT definition will be discarded
     Please, verify this is what you really want

     Found symmetry operation: I + (  0.5000  0.5000  0.0000)
     This is a supercell, fractional translations are disabled

     bravais-lattice index     =            0
     lattice parameter (alat)  =       1.8897  a.u.
     unit-cell volume          =     475.0622 (a.u.)^3
     number of atoms/cell      =            4
     number of atomic types    =            2
     number of electrons       =        56.00
     number of Kohn-Sham states=           48
     kinetic-energy cutoff     =      58.7989  Ry
     charge density cutoff     =     587.9892  Ry
     convergence threshold     =      1.0E-06
     mixing beta               =       0.1000
     number of iterations used =           10  plain     mixing
     Exchange-correlation      = BEEF-VDW ( 1  4 27 13 2)

     celldm(1)=   1.889726  celldm(2)=   0.000000  celldm(3)=   0.000000
     celldm(4)=   0.000000  celldm(5)=   0.000000  celldm(6)=   0.000000

     crystal axes: (cart. coord. in units of alat)
               a(1) = (   4.229814   0.000000   0.000000 )
               a(2) = (   0.000000   4.229814   0.000000 )
               a(3) = (   0.000000   0.000000   3.934697 )

     reciprocal axes: (cart. coord. in units 2 pi/alat)
               b(1) = (  0.236417  0.000000  0.000000 )
               b(2) = (  0.000000  0.236417  0.000000 )
               b(3) = (  0.000000  0.000000  0.254149 )

     PseudoPot. # 1 for Ru read from file:
     /home/users/vossj/suncat/psp/gbrv1.5pbe/Ru.UPF
     MD5 check sum: 7158a806dd851261a58e6920c40ebe78
     Pseudo is Ultrasoft + core correction, Zval = 16.0
     Generated by new atomic code, or converted to UPF format
     Using radial grid of  967 points,  6 beta functions with:
                l(1) =   0
                l(2) =   0
                l(3) =   1
                l(4) =   1
                l(5) =   2
                l(6) =   2
     Q(r) pseudized with  8 coefficients,  rinner =    1.300   1.300   1.300
                                                       1.300   1.300

     PseudoPot. # 2 for Hg read from file:
     /home/users/vossj/suncat/psp/gbrv1.5pbe/Hg.UPF
     MD5 check sum: 8f42caffe07f7fd9c0a564347f8c5498
     Pseudo is Ultrasoft + core correction, Zval = 12.0
     Generated by new atomic code, or converted to UPF format
     Using radial grid of  985 points,  6 beta functions with:
                l(1) =   0
                l(2) =   0
                l(3) =   1
                l(4) =   1
                l(5) =   2
                l(6) =   2
     Q(r) pseudized with  8 coefficients,  rinner =    2.000   2.000   2.000
                                                       2.000   2.000

     vdW kernel table read from file vdW_kernel_table
     MD5 check sum: 095c7af220d748ca6e76c0b4c6cfb241

     atomic species   valence    mass     pseudopotential
        Ru1           16.00   101.07000     Ru( 1.00)
        Hg1           12.00   200.59000     Hg( 1.00)

     16 Sym. Ops., with inversion, found

   Cartesian axes

     site n.     atom                  positions (alat units)
         1           Ru1 tau(   1) = (   0.0000000   0.0000000   0.0000000  )
         2           Ru1 tau(   2) = (   2.1149070   2.1149070   0.0000000  )
         3           Hg1 tau(   3) = (   2.1149070   0.0000000   1.9673487  )
         4           Hg1 tau(   4) = (   0.0000000   2.1149070   1.9673487  )

     number of k points=    75  Fermi-Dirac smearing, width (Ry)=  0.0073
                       cart. coord. in units 2pi/alat
        k(    1) = (   0.0000000   0.0000000   0.0000000), wk =   0.0027435
        k(    2) = (   0.0000000   0.0000000   0.0282388), wk =   0.0054870
        k(    3) = (   0.0000000   0.0000000   0.0564776), wk =   0.0054870
        k(    4) = (   0.0000000   0.0000000   0.0847164), wk =   0.0054870
        k(    5) = (   0.0000000   0.0000000   0.1129552), wk =   0.0054870
        k(    6) = (   0.0000000   0.0262686   0.0000000), wk =   0.0109739
        k(    7) = (   0.0000000   0.0262686   0.0282388), wk =   0.0219479
        k(    8) = (   0.0000000   0.0262686   0.0564776), wk =   0.0219479
        k(    9) = (   0.0000000   0.0262686   0.0847164), wk =   0.0219479
        k(   10) = (   0.0000000   0.0262686   0.1129552), wk =   0.0219479
        k(   11) = (   0.0000000   0.0525371   0.0000000), wk =   0.0109739
        k(   12) = (   0.0000000   0.0525371   0.0282388), wk =   0.0219479
        k(   13) = (   0.0000000   0.0525371   0.0564776), wk =   0.0219479
        k(   14) = (   0.0000000   0.0525371   0.0847164), wk =   0.0219479
        k(   15) = (   0.0000000   0.0525371   0.1129552), wk =   0.0219479
        k(   16) = (   0.0000000   0.0788057   0.0000000), wk =   0.0109739
        k(   17) = (   0.0000000   0.0788057   0.0282388), wk =   0.0219479
        k(   18) = (   0.0000000   0.0788057   0.0564776), wk =   0.0219479
        k(   19) = (   0.0000000   0.0788057   0.0847164), wk =   0.0219479
        k(   20) = (   0.0000000   0.0788057   0.1129552), wk =   0.0219479
        k(   21) = (   0.0000000   0.1050742   0.0000000), wk =   0.0109739
        k(   22) = (   0.0000000   0.1050742   0.0282388), wk =   0.0219479
        k(   23) = (   0.0000000   0.1050742   0.0564776), wk =   0.0219479
        k(   24) = (   0.0000000   0.1050742   0.0847164), wk =   0.0219479
        k(   25) = (   0.0000000   0.1050742   0.1129552), wk =   0.0219479
        k(   26) = (   0.0262686   0.0262686   0.0000000), wk =   0.0109739
        k(   27) = (   0.0262686   0.0262686   0.0282388), wk =   0.0219479
        k(   28) = (   0.0262686   0.0262686   0.0564776), wk =   0.0219479
        k(   29) = (   0.0262686   0.0262686   0.0847164), wk =   0.0219479
        k(   30) = (   0.0262686   0.0262686   0.1129552), wk =   0.0219479
        k(   31) = (   0.0262686   0.0525371   0.0000000), wk =   0.0219479
        k(   32) = (   0.0262686   0.0525371   0.0282388), wk =   0.0438957
        k(   33) = (   0.0262686   0.0525371   0.0564776), wk =   0.0438957
        k(   34) = (   0.0262686   0.0525371   0.0847164), wk =   0.0438957
        k(   35) = (   0.0262686   0.0525371   0.1129552), wk =   0.0438957
        k(   36) = (   0.0262686   0.0788057   0.0000000), wk =   0.0219479
        k(   37) = (   0.0262686   0.0788057   0.0282388), wk =   0.0438957
        k(   38) = (   0.0262686   0.0788057   0.0564776), wk =   0.0438957
        k(   39) = (   0.0262686   0.0788057   0.0847164), wk =   0.0438957
        k(   40) = (   0.0262686   0.0788057   0.1129552), wk =   0.0438957
        k(   41) = (   0.0262686   0.1050742   0.0000000), wk =   0.0219479
        k(   42) = (   0.0262686   0.1050742   0.0282388), wk =   0.0438957
        k(   43) = (   0.0262686   0.1050742   0.0564776), wk =   0.0438957
        k(   44) = (   0.0262686   0.1050742   0.0847164), wk =   0.0438957
        k(   45) = (   0.0262686   0.1050742   0.1129552), wk =   0.0438957
        k(   46) = (   0.0525371   0.0525371   0.0000000), wk =   0.0109739
        k(   47) = (   0.0525371   0.0525371   0.0282388), wk =   0.0219479
        k(   48) = (   0.0525371   0.0525371   0.0564776), wk =   0.0219479
        k(   49) = (   0.0525371   0.0525371   0.0847164), wk =   0.0219479
        k(   50) = (   0.0525371   0.0525371   0.1129552), wk =   0.0219479
        k(   51) = (   0.0525371   0.0788057   0.0000000), wk =   0.0219479
        k(   52) = (   0.0525371   0.0788057   0.0282388), wk =   0.0438957
        k(   53) = (   0.0525371   0.0788057   0.0564776), wk =   0.0438957
        k(   54) = (   0.0525371   0.0788057   0.0847164), wk =   0.0438957
        k(   55) = (   0.0525371   0.0788057   0.1129552), wk =   0.0438957
        k(   56) = (   0.0525371   0.1050742   0.0000000), wk =   0.0219479
        k(   57) = (   0.0525371   0.1050742   0.0282388), wk =   0.0438957
        k(   58) = (   0.0525371   0.1050742   0.0564776), wk =   0.0438957
        k(   59) = (   0.0525371   0.1050742   0.0847164), wk =   0.0438957
        k(   60) = (   0.0525371   0.1050742   0.1129552), wk =   0.0438957
        k(   61) = (   0.0788057   0.0788057   0.0000000), wk =   0.0109739
        k(   62) = (   0.0788057   0.0788057   0.0282388), wk =   0.0219479
        k(   63) = (   0.0788057   0.0788057   0.0564776), wk =   0.0219479
        k(   64) = (   0.0788057   0.0788057   0.0847164), wk =   0.0219479
        k(   65) = (   0.0788057   0.0788057   0.1129552), wk =   0.0219479
        k(   66) = (   0.0788057   0.1050742   0.0000000), wk =   0.0219479
        k(   67) = (   0.0788057   0.1050742   0.0282388), wk =   0.0438957
        k(   68) = (   0.0788057   0.1050742   0.0564776), wk =   0.0438957
        k(   69) = (   0.0788057   0.1050742   0.0847164), wk =   0.0438957
        k(   70) = (   0.0788057   0.1050742   0.1129552), wk =   0.0438957
        k(   71) = (   0.1050742   0.1050742   0.0000000), wk =   0.0109739
        k(   72) = (   0.1050742   0.1050742   0.0282388), wk =   0.0219479
        k(   73) = (   0.1050742   0.1050742   0.0564776), wk =   0.0219479
        k(   74) = (   0.1050742   0.1050742   0.0847164), wk =   0.0219479
        k(   75) = (   0.1050742   0.1050742   0.1129552), wk =   0.0219479

     Largest allocated arrays     est. size (Mb)     dimensions
     Largest temporary arrays     est. size (Mb)     dimensions

     Initial potential from superposition of free atoms
     Check: negative starting charge=   -0.150313

     starting charge   53.99985, renormalised to   56.00000

     negative rho (up, down):  1.559E-01 0.000E+00

     *
     * You are using vdW-DF for exchange-correlation in this calculation.
     * Please cite the following three references that made this development
     * possible:
     *
     *   M. Dion, H. Rydberg, E. Schroder, D. C. Langreth, and
     *   B. I. Lundqvist, Phys. Rev. Lett. 92, 246401 (2004).
     *
     *   T. Thonhauser, V. R. Cooper, S. Li, A. Puzder, P. Hyldgaard, and
     *   D. C. Langreth, Phys. Rev. B 76, 125112 (2007).
     *
     *   G. Roman-Perez and J. M. Soler, Phys. Rev. Lett. 103, 096102 (2009).
     *
     *
     * If you are using vdW-DF2, please also cite:
     *
     *   K. Lee, E. D. Murray, L. Kong, B. I. Lundqvist, and
     *   D. C. Langreth, Phys. Rev. B 82, 081101(R) (2010).
     *
     *
     * If you are calculating the stress with vdW-DF, please also cite:
     *
     *   R. Sabatini, E. Kucukbenli, B. Kolb, T. Thonhauser, and
     *   S. de Gironcoli, J. Phys.: Condens. Matter 24, 424209 (2012).
     *

     Carrying out vdW-DF run using the following parameters:

     Nqs =      20    Nr_points =    1024   r_max =   100.000
     q_mesh =
               0.00001000     0.04494208     0.09755937     0.15916263
               0.23128650     0.31572767     0.41458969     0.53033537
               0.66584808     0.82450364     1.01025438     1.22772762
               1.48234092     1.78043706     2.12944203     2.53805004
               3.01644009     3.57652955     4.23227104     5.00000000

     Gradients computed in reciprocal space

     Starting wfc are   44 randomized atomic wfcs +    4 random wfc

     Self-consistent Calculation

     iteration #  1     ecut=    58.80 Ry     beta=0.10
     Davidson diagonalization with overlap
     ethr =  1.00E-02,  avg # of iterations =  4.8

[...]

     total energy              =    -608.49482278 Ry
     Harris-Foulkes estimate   =    -608.71624573 Ry
     estimated scf accuracy    <       1.39264354 Ry

[...]

     total energy              =    -608.29905488 Ry
     Harris-Foulkes estimate   =    -608.29906133 Ry
     estimated scf accuracy    <       0.00001635 Ry

     iteration # 12     ecut=    58.80 Ry     beta=0.10
     Davidson diagonalization with overlap
     ethr =  2.92E-08,  avg # of iterations =  2.0

     negative rho (up, down):  1.516E-01 0.000E+00

     End of self-consistent calculation

          k = 0.0000 0.0000 0.0000 (  3639 PWs)   bands (ev):

   -55.6865 -55.6579 -25.7686 -25.7686 -25.6145 -25.6040 -25.6040 -25.5786
     7.3051   7.9778   8.0309   8.4822   8.5604   8.5604   9.0089   9.6368
     9.6368  10.1549  10.8690  13.5657  14.1179  14.8274  16.2045  16.2045
    16.4504  16.7754  16.7754  17.0738  17.3333  17.3333  17.9391  18.7103
    20.7935  24.6950  24.7053  25.6879  25.6879  25.9551  27.1969  27.1969
    28.6034  30.9775  32.6628  33.2201  34.2517  34.5204  34.5204  35.6217

[...]

          k = 0.1051 0.1051 0.1130 (  3613 PWs)   bands (ev):

   -55.6723 -55.6714 -25.7872 -25.7823 -25.6040 -25.6028 -25.5938 -25.5888
     8.2036   8.2710   8.3306   8.3445   9.3092   9.3686   9.6349   9.6668
     9.7728   9.7906  12.3741  12.6349  14.4816  14.5939  15.1642  15.3545
    15.6238  16.0810  16.2989  16.7543  16.8310  16.9535  17.1364  17.2406
    19.8048  19.9945  22.3748  22.6564  30.0086  30.0899  30.3894  30.4980
    31.1190  31.4245  33.9670  33.9739  34.0268  34.2342  34.8558  35.0680

     the Fermi energy is    16.5275 ev

!    total energy              =    -608.29905799 Ry
     Harris-Foulkes estimate   =    -608.29905779 Ry
     estimated scf accuracy    <       0.00000013 Ry

     The total energy is the sum of the following terms:

     one-electron contribution =    -109.21517815 Ry
     hartree contribution      =     101.24061670 Ry
     xc contribution           =    -134.78616384 Ry
     ewald contribution        =    -465.51931634 Ry
     smearing contrib. (-TS)   =      -0.01901637 Ry

     convergence has been achieved in  12 iterations

     Forces acting on atoms (Ry/au):

     negative rho (up, down):  1.516E-01 0.000E+00
     atom    1 type  1   force =     0.00000000    0.00000000    0.00000000
     atom    2 type  1   force =     0.00000000    0.00000000    0.00000000
     atom    3 type  2   force =     0.00000000    0.00000000    0.00000000
     atom    4 type  2   force =     0.00000000    0.00000000    0.00000000

     Total force =     0.000000     Total SCF correction =     0.000000

     General routines

     Parallel routines

   This run was terminated on:   5: 2:20  15Nov2017

   JOB DONE.