     Program PWSCF v.5.1rc2 starts on 15Nov2017 at  1:53:24

     Current dimensions of program PWSCF are:
     Max number of different atomic species (ntypx) = 10
     Max number of k-points (npk) =  40000
     Max angular momentum in pseudopotentials (lmaxx) =  3

     IMPORTANT: XC functional enforced from input :
     Exchange-correlation      = BEEF-VDW ( 1  4 27 13 2)
     Any further DFT definition will be discarded
     Please, verify this is what you really want

     Found symmetry operation: I + ( -0.5000 -0.5000  0.0000)
     This is a supercell, fractional translations are disabled

     bravais-lattice index     =            0
     lattice parameter (alat)  =       1.8897  a.u.
     unit-cell volume          =     507.5331 (a.u.)^3
     number of atoms/cell      =            4
     number of atomic types    =            2
     number of electrons       =        56.00
     number of Kohn-Sham states=           48
     kinetic-energy cutoff     =      58.7989  Ry
     charge density cutoff     =     587.9892  Ry
     convergence threshold     =      1.0E-06
     mixing beta               =       0.1000
     number of iterations used =           10  plain     mixing
     Exchange-correlation      = BEEF-VDW ( 1  4 27 13 2)

     celldm(1)=   1.889726  celldm(2)=   0.000000  celldm(3)=   0.000000
     celldm(4)=   0.000000  celldm(5)=   0.000000  celldm(6)=   0.000000

     crystal axes: (cart. coord. in units of alat)
               a(1) = (   4.417814   0.000000   0.000000 )
               a(2) = (   0.000000   4.417814   0.000000 )
               a(3) = (   0.000000   0.000000   3.853478 )

     reciprocal axes: (cart. coord. in units 2 pi/alat)
               b(1) = (  0.226356  0.000000  0.000000 )
               b(2) = (  0.000000  0.226356  0.000000 )
               b(3) = (  0.000000  0.000000  0.259506 )

     PseudoPot. # 1 for Pd read from file:
     /home/users/vossj/suncat/psp/gbrv1.5pbe/Pd.UPF
     MD5 check sum: 2d733d2bc2cbfd217af676df1668a4bc
     Pseudo is Ultrasoft + core correction, Zval = 16.0
     Generated by new atomic code, or converted to UPF format
     Using radial grid of  887 points,  6 beta functions with:
                l(1) =   0
                l(2) =   0
                l(3) =   1
                l(4) =   1
                l(5) =   2
                l(6) =   2
     Q(r) pseudized with  8 coefficients,  rinner =    1.130   1.130   1.130
                                                       1.130   1.130

     PseudoPot. # 2 for Hg read from file:
     /home/users/vossj/suncat/psp/gbrv1.5pbe/Hg.UPF
     MD5 check sum: 8f42caffe07f7fd9c0a564347f8c5498
     Pseudo is Ultrasoft + core correction, Zval = 12.0
     Generated by new atomic code, or converted to UPF format
     Using radial grid of  985 points,  6 beta functions with:
                l(1) =   0
                l(2) =   0
                l(3) =   1
                l(4) =   1
                l(5) =   2
                l(6) =   2
     Q(r) pseudized with  8 coefficients,  rinner =    2.000   2.000   2.000
                                                       2.000   2.000

     vdW kernel table read from file vdW_kernel_table
     MD5 check sum: 095c7af220d748ca6e76c0b4c6cfb241

     atomic species   valence    mass     pseudopotential
        Pd1           16.00   106.42000     Pd( 1.00)
        Hg1           12.00   200.59000     Hg( 1.00)

     16 Sym. Ops., with inversion, found

   Cartesian axes

     site n.     atom                  positions (alat units)
         1           Pd1 tau(   1) = (   0.0000000   0.0000000   0.0000000  )
         2           Pd1 tau(   2) = (   2.2089069   2.2089069   0.0000000  )
         3           Hg1 tau(   3) = (   2.2089069   0.0000000   1.9267392  )
         4           Hg1 tau(   4) = (   0.0000000   2.2089069   1.9267392  )

     number of k points=    75  Fermi-Dirac smearing, width (Ry)=  0.0073
                       cart. coord. in units 2pi/alat
        k(    1) = (   0.0000000   0.0000000   0.0000000), wk =   0.0027435
        k(    2) = (   0.0000000   0.0000000   0.0288340), wk =   0.0054870
        k(    3) = (   0.0000000   0.0000000   0.0576680), wk =   0.0054870
        k(    4) = (   0.0000000   0.0000000   0.0865019), wk =   0.0054870
        k(    5) = (   0.0000000   0.0000000   0.1153359), wk =   0.0054870
        k(    6) = (   0.0000000   0.0251507   0.0000000), wk =   0.0109739
        k(    7) = (   0.0000000   0.0251507   0.0288340), wk =   0.0219479
        k(    8) = (   0.0000000   0.0251507   0.0576680), wk =   0.0219479
        k(    9) = (   0.0000000   0.0251507   0.0865019), wk =   0.0219479
        k(   10) = (   0.0000000   0.0251507   0.1153359), wk =   0.0219479
        k(   11) = (   0.0000000   0.0503014   0.0000000), wk =   0.0109739
        k(   12) = (   0.0000000   0.0503014   0.0288340), wk =   0.0219479
        k(   13) = (   0.0000000   0.0503014   0.0576680), wk =   0.0219479
        k(   14) = (   0.0000000   0.0503014   0.0865019), wk =   0.0219479
        k(   15) = (   0.0000000   0.0503014   0.1153359), wk =   0.0219479
        k(   16) = (   0.0000000   0.0754521   0.0000000), wk =   0.0109739
        k(   17) = (   0.0000000   0.0754521   0.0288340), wk =   0.0219479
        k(   18) = (   0.0000000   0.0754521   0.0576680), wk =   0.0219479
        k(   19) = (   0.0000000   0.0754521   0.0865019), wk =   0.0219479
        k(   20) = (   0.0000000   0.0754521   0.1153359), wk =   0.0219479
        k(   21) = (   0.0000000   0.1006028   0.0000000), wk =   0.0109739
        k(   22) = (   0.0000000   0.1006028   0.0288340), wk =   0.0219479
        k(   23) = (   0.0000000   0.1006028   0.0576680), wk =   0.0219479
        k(   24) = (   0.0000000   0.1006028   0.0865019), wk =   0.0219479
        k(   25) = (   0.0000000   0.1006028   0.1153359), wk =   0.0219479
        k(   26) = (   0.0251507   0.0251507   0.0000000), wk =   0.0109739
        k(   27) = (   0.0251507   0.0251507   0.0288340), wk =   0.0219479
        k(   28) = (   0.0251507   0.0251507   0.0576680), wk =   0.0219479
        k(   29) = (   0.0251507   0.0251507   0.0865019), wk =   0.0219479
        k(   30) = (   0.0251507   0.0251507   0.1153359), wk =   0.0219479
        k(   31) = (   0.0251507   0.0503014   0.0000000), wk =   0.0219479
        k(   32) = (   0.0251507   0.0503014   0.0288340), wk =   0.0438957
        k(   33) = (   0.0251507   0.0503014   0.0576680), wk =   0.0438957
        k(   34) = (   0.0251507   0.0503014   0.0865019), wk =   0.0438957
        k(   35) = (   0.0251507   0.0503014   0.1153359), wk =   0.0438957
        k(   36) = (   0.0251507   0.0754521   0.0000000), wk =   0.0219479
        k(   37) = (   0.0251507   0.0754521   0.0288340), wk =   0.0438957
        k(   38) = (   0.0251507   0.0754521   0.0576680), wk =   0.0438957
        k(   39) = (   0.0251507   0.0754521   0.0865019), wk =   0.0438957
        k(   40) = (   0.0251507   0.0754521   0.1153359), wk =   0.0438957
        k(   41) = (   0.0251507   0.1006028   0.0000000), wk =   0.0219479
        k(   42) = (   0.0251507   0.1006028   0.0288340), wk =   0.0438957
        k(   43) = (   0.0251507   0.1006028   0.0576680), wk =   0.0438957
        k(   44) = (   0.0251507   0.1006028   0.0865019), wk =   0.0438957
        k(   45) = (   0.0251507   0.1006028   0.1153359), wk =   0.0438957
        k(   46) = (   0.0503014   0.0503014   0.0000000), wk =   0.0109739
        k(   47) = (   0.0503014   0.0503014   0.0288340), wk =   0.0219479
        k(   48) = (   0.0503014   0.0503014   0.0576680), wk =   0.0219479
        k(   49) = (   0.0503014   0.0503014   0.0865019), wk =   0.0219479
        k(   50) = (   0.0503014   0.0503014   0.1153359), wk =   0.0219479
        k(   51) = (   0.0503014   0.0754521   0.0000000), wk =   0.0219479
        k(   52) = (   0.0503014   0.0754521   0.0288340), wk =   0.0438957
        k(   53) = (   0.0503014   0.0754521   0.0576680), wk =   0.0438957
        k(   54) = (   0.0503014   0.0754521   0.0865019), wk =   0.0438957
        k(   55) = (   0.0503014   0.0754521   0.1153359), wk =   0.0438957
        k(   56) = (   0.0503014   0.1006028   0.0000000), wk =   0.0219479
        k(   57) = (   0.0503014   0.1006028   0.0288340), wk =   0.0438957
        k(   58) = (   0.0503014   0.1006028   0.0576680), wk =   0.0438957
        k(   59) = (   0.0503014   0.1006028   0.0865019), wk =   0.0438957
        k(   60) = (   0.0503014   0.1006028   0.1153359), wk =   0.0438957
        k(   61) = (   0.0754521   0.0754521   0.0000000), wk =   0.0109739
        k(   62) = (   0.0754521   0.0754521   0.0288340), wk =   0.0219479
        k(   63) = (   0.0754521   0.0754521   0.0576680), wk =   0.0219479
        k(   64) = (   0.0754521   0.0754521   0.0865019), wk =   0.0219479
        k(   65) = (   0.0754521   0.0754521   0.1153359), wk =   0.0219479
        k(   66) = (   0.0754521   0.1006028   0.0000000), wk =   0.0219479
        k(   67) = (   0.0754521   0.1006028   0.0288340), wk =   0.0438957
        k(   68) = (   0.0754521   0.1006028   0.0576680), wk =   0.0438957
        k(   69) = (   0.0754521   0.1006028   0.0865019), wk =   0.0438957
        k(   70) = (   0.0754521   0.1006028   0.1153359), wk =   0.0438957
        k(   71) = (   0.1006028   0.1006028   0.0000000), wk =   0.0109739
        k(   72) = (   0.1006028   0.1006028   0.0288340), wk =   0.0219479
        k(   73) = (   0.1006028   0.1006028   0.0576680), wk =   0.0219479
        k(   74) = (   0.1006028   0.1006028   0.0865019), wk =   0.0219479
        k(   75) = (   0.1006028   0.1006028   0.1153359), wk =   0.0219479

     Largest allocated arrays     est. size (Mb)     dimensions
     Largest temporary arrays     est. size (Mb)     dimensions

     Initial potential from superposition of free atoms
     Check: negative starting charge=   -0.153740

     starting charge   54.99987, renormalised to   56.00000

     negative rho (up, down):  1.565E-01 0.000E+00

     *
     * You are using vdW-DF for exchange-correlation in this calculation.
     * Please cite the following three references that made this development
     * possible:
     *
     *   M. Dion, H. Rydberg, E. Schroder, D. C. Langreth, and
     *   B. I. Lundqvist, Phys. Rev. Lett. 92, 246401 (2004).
     *
     *   T. Thonhauser, V. R. Cooper, S. Li, A. Puzder, P. Hyldgaard, and
     *   D. C. Langreth, Phys. Rev. B 76, 125112 (2007).
     *
     *   G. Roman-Perez and J. M. Soler, Phys. Rev. Lett. 103, 096102 (2009).
     *
     *
     * If you are using vdW-DF2, please also cite:
     *
     *   K. Lee, E. D. Murray, L. Kong, B. I. Lundqvist, and
     *   D. C. Langreth, Phys. Rev. B 82, 081101(R) (2010).
     *
     *
     * If you are calculating the stress with vdW-DF, please also cite:
     *
     *   R. Sabatini, E. Kucukbenli, B. Kolb, T. Thonhauser, and
     *   S. de Gironcoli, J. Phys.: Condens. Matter 24, 424209 (2012).
     *

     Carrying out vdW-DF run using the following parameters:

     Nqs =      20    Nr_points =    1024   r_max =   100.000
     q_mesh =
               0.00001000     0.04494208     0.09755937     0.15916263
               0.23128650     0.31572767     0.41458969     0.53033537
               0.66584808     0.82450364     1.01025438     1.22772762
               1.48234092     1.78043706     2.12944203     2.53805004
               3.01644009     3.57652955     4.23227104     5.00000000

     Gradients computed in reciprocal space

     Starting wfc are   42 randomized atomic wfcs +    6 random wfc

     Self-consistent Calculation

     iteration #  1     ecut=    58.80 Ry     beta=0.10
     Davidson diagonalization with overlap
     ethr =  1.00E-02,  avg # of iterations =  5.1

[...]

     total energy              =    -617.94662408 Ry
     Harris-Foulkes estimate   =    -618.13278694 Ry
     estimated scf accuracy    <       1.20110191 Ry

[...]

     total energy              =    -617.87436363 Ry
     Harris-Foulkes estimate   =    -617.87436164 Ry
     estimated scf accuracy    <       0.00000130 Ry

     iteration # 11     ecut=    58.80 Ry     beta=0.10
     Davidson diagonalization with overlap
     ethr =  2.32E-09,  avg # of iterations =  1.0

     negative rho (up, down):  1.593E-01 0.000E+00

     End of self-consistent calculation

          k = 0.0000 0.0000 0.0000 (  3853 PWs)   bands (ev):

   -35.4217 -35.4130 -35.4062 -35.4062 -35.3595 -35.3595   5.6803   6.2345
     6.2747   6.6257   6.7772   6.7772   7.0690   7.5676   7.5676   7.9184
     8.4977  10.8979  11.4795  11.9246  12.7753  12.7975  12.7975  13.0086
    13.0086  13.1660  13.6462  14.8570  14.8570  16.9676  17.2035  20.3085
    21.8175  22.5154  22.5154  24.3085  25.0553  25.0553  25.8899  28.4855
    29.7926  29.9196  30.3579  32.1855  32.1855  32.2667  32.2721  32.2721

[...]

          k = 0.1006 0.1006 0.1153 (  3894 PWs)   bands (ev):

   -35.4207 -35.4204 -35.4105 -35.4091 -35.3569 -35.3555   6.4448   6.4950
     6.4987   6.5072   7.2558   7.2996   7.5046   7.5283   7.8431   7.8623
    10.0178  10.1665  11.7336  11.7977  12.6049  12.6135  12.8234  12.8345
    12.9914  13.0973  13.3274  13.9795  14.1827  14.1976  16.1568  16.3468
    18.5949  18.8974  27.7460  27.8260  27.9421  28.2734  28.3993  28.4574
    29.9774  30.2923  32.7861  32.9128  33.1205  33.4606  35.1843  35.2791

     the Fermi energy is    14.4345 ev

!    total energy              =    -617.87437266 Ry
     Harris-Foulkes estimate   =    -617.87436367 Ry
     estimated scf accuracy    <       0.00000056 Ry

     The total energy is the sum of the following terms:

     one-electron contribution =    -134.68888082 Ry
     hartree contribution      =     118.51381995 Ry
     xc contribution           =    -146.18337471 Ry
     ewald contribution        =    -455.51294658 Ry
     smearing contrib. (-TS)   =      -0.00299050 Ry

     convergence has been achieved in  11 iterations

     Forces acting on atoms (Ry/au):

     negative rho (up, down):  1.593E-01 0.000E+00
     atom    1 type  1   force =     0.00000000    0.00000000    0.00000000
     atom    2 type  1   force =     0.00000000    0.00000000    0.00000000
     atom    3 type  2   force =     0.00000000    0.00000000    0.00000000
     atom    4 type  2   force =     0.00000000    0.00000000    0.00000000

     Total force =     0.000000     Total SCF correction =     0.000000

     General routines

     Parallel routines

   This run was terminated on:   1:54: 7  15Nov2017

   JOB DONE.