     Program PWSCF v.5.1rc2 (svn rev. ) starts on 14Nov2017 at 23:44:52

     Current dimensions of program PWSCF are:
     Max number of different atomic species (ntypx) = 10
     Max number of k-points (npk) =  40000
     Max angular momentum in pseudopotentials (lmaxx) =  3

     IMPORTANT: XC functional enforced from input :
     Exchange-correlation      = BEEF-VDW ( 1  4 27 13 2)
     Any further DFT definition will be discarded
     Please, verify this is what you really want

     Subspace diagonalization in iterative solution of the eigenvalue problem:
     a serial algorithm will be used

     Found symmetry operation: I + (  0.5000  0.5000  0.0000)
     This is a supercell, fractional translations are disabled

     bravais-lattice index     =            0
     lattice parameter (alat)  =       1.8897  a.u.
     unit-cell volume          =     404.9192 (a.u.)^3
     number of atoms/cell      =            4
     number of atomic types    =            2
     number of electrons       =        54.00
     number of Kohn-Sham states=           47
     kinetic-energy cutoff     =      58.7989  Ry
     charge density cutoff     =     587.9892  Ry
     convergence threshold     =      1.0E-06
     mixing beta               =       0.1000
     number of iterations used =           10  plain     mixing
     Exchange-correlation      = BEEF-VDW ( 1  4 27 13 2)

     celldm(1)=   1.889726  celldm(2)=   0.000000  celldm(3)=   0.000000
     celldm(4)=   0.000000  celldm(5)=   0.000000  celldm(6)=   0.000000

     crystal axes: (cart. coord. in units of alat)
               a(1) = (   4.394302   0.000000   0.000000 )
               a(2) = (   0.000000   4.394302   0.000000 )
               a(3) = (   0.000000   0.000000   3.107362 )

     reciprocal axes: (cart. coord. in units 2 pi/alat)
               b(1) = (  0.227567  0.000000  0.000000 )
               b(2) = (  0.000000  0.227567  0.000000 )
               b(3) = (  0.000000  0.000000  0.321816 )

     PseudoPot. # 1 for Ti read from file:
     /home/vossj/suncat/psp/gbrv1.5pbe/Ti.UPF
     MD5 check sum: 88a00a6731bd790ddea75d31a80cb452
     Pseudo is Ultrasoft + core correction, Zval = 12.0
     Generated by new atomic code, or converted to UPF format
     Using radial grid of  851 points,  6 beta functions with:
                l(1) =   0
                l(2) =   0
                l(3) =   1
                l(4) =   1
                l(5) =   2
                l(6) =   2
     Q(r) pseudized with  6 coefficients,  rinner =    1.000   1.000   1.000
                                                       1.000   1.000

     PseudoPot. # 2 for Tc read from file:
     /home/vossj/suncat/psp/gbrv1.5pbe/Tc.UPF
     MD5 check sum: 9eb49e5b028550b2339a02317eb7b844
     Pseudo is Ultrasoft + core correction, Zval = 15.0
     Generated by new atomic code, or converted to UPF format
     Using radial grid of  965 points,  6 beta functions with:
                l(1) =   0
                l(2) =   0
                l(3) =   1
                l(4) =   1
                l(5) =   2
                l(6) =   2
     Q(r) pseudized with  8 coefficients,  rinner =    1.300   1.300   1.300
                                                       1.300   1.300

     vdW kernel table read from file vdW_kernel_table
     MD5 check sum: 095c7af220d748ca6e76c0b4c6cfb241

     atomic species   valence    mass     pseudopotential
        Ti1           12.00    47.86700     Ti( 1.00)
        Tc1           15.00    97.90721     Tc( 1.00)

     16 Sym. Ops., with inversion, found

   Cartesian axes

     site n.     atom                  positions (alat units)
         1           Ti1 tau(   1) = (   0.0000000   0.0000000   0.0000000  )
         2           Ti1 tau(   2) = (   2.1971512   2.1971512   0.0000000  )
         3           Tc1 tau(   3) = (   2.1971512   0.0000000   1.5536811  )
         4           Tc1 tau(   4) = (   0.0000000   2.1971512   1.5536811  )

     number of k points=    75  Fermi-Dirac smearing, width (Ry)=  0.0073
                       cart. coord. in units 2pi/alat
        k(    1) = (   0.0000000   0.0000000   0.0000000), wk =   0.0027435
        k(    2) = (   0.0000000   0.0000000   0.0357574), wk =   0.0054870
        k(    3) = (   0.0000000   0.0000000   0.0715147), wk =   0.0054870
        k(    4) = (   0.0000000   0.0000000   0.1072721), wk =   0.0054870
        k(    5) = (   0.0000000   0.0000000   0.1430295), wk =   0.0054870
        k(    6) = (   0.0000000   0.0252853   0.0000000), wk =   0.0109739
        k(    7) = (   0.0000000   0.0252853   0.0357574), wk =   0.0219479
        k(    8) = (   0.0000000   0.0252853   0.0715147), wk =   0.0219479
        k(    9) = (   0.0000000   0.0252853   0.1072721), wk =   0.0219479
        k(   10) = (   0.0000000   0.0252853   0.1430295), wk =   0.0219479
        k(   11) = (   0.0000000   0.0505705   0.0000000), wk =   0.0109739
        k(   12) = (   0.0000000   0.0505705   0.0357574), wk =   0.0219479
        k(   13) = (   0.0000000   0.0505705   0.0715147), wk =   0.0219479
        k(   14) = (   0.0000000   0.0505705   0.1072721), wk =   0.0219479
        k(   15) = (   0.0000000   0.0505705   0.1430295), wk =   0.0219479
        k(   16) = (   0.0000000   0.0758558   0.0000000), wk =   0.0109739
        k(   17) = (   0.0000000   0.0758558   0.0357574), wk =   0.0219479
        k(   18) = (   0.0000000   0.0758558   0.0715147), wk =   0.0219479
        k(   19) = (   0.0000000   0.0758558   0.1072721), wk =   0.0219479
        k(   20) = (   0.0000000   0.0758558   0.1430295), wk =   0.0219479
        k(   21) = (   0.0000000   0.1011411   0.0000000), wk =   0.0109739
        k(   22) = (   0.0000000   0.1011411   0.0357574), wk =   0.0219479
        k(   23) = (   0.0000000   0.1011411   0.0715147), wk =   0.0219479
        k(   24) = (   0.0000000   0.1011411   0.1072721), wk =   0.0219479
        k(   25) = (   0.0000000   0.1011411   0.1430295), wk =   0.0219479
        k(   26) = (   0.0252853   0.0252853   0.0000000), wk =   0.0109739
        k(   27) = (   0.0252853   0.0252853   0.0357574), wk =   0.0219479
        k(   28) = (   0.0252853   0.0252853   0.0715147), wk =   0.0219479
        k(   29) = (   0.0252853   0.0252853   0.1072721), wk =   0.0219479
        k(   30) = (   0.0252853   0.0252853   0.1430295), wk =   0.0219479
        k(   31) = (   0.0252853   0.0505705   0.0000000), wk =   0.0219479
        k(   32) = (   0.0252853   0.0505705   0.0357574), wk =   0.0438957
        k(   33) = (   0.0252853   0.0505705   0.0715147), wk =   0.0438957
        k(   34) = (   0.0252853   0.0505705   0.1072721), wk =   0.0438957
        k(   35) = (   0.0252853   0.0505705   0.1430295), wk =   0.0438957
        k(   36) = (   0.0252853   0.0758558   0.0000000), wk =   0.0219479
        k(   37) = (   0.0252853   0.0758558   0.0357574), wk =   0.0438957
        k(   38) = (   0.0252853   0.0758558   0.0715147), wk =   0.0438957
        k(   39) = (   0.0252853   0.0758558   0.1072721), wk =   0.0438957
        k(   40) = (   0.0252853   0.0758558   0.1430295), wk =   0.0438957
        k(   41) = (   0.0252853   0.1011411   0.0000000), wk =   0.0219479
        k(   42) = (   0.0252853   0.1011411   0.0357574), wk =   0.0438957
        k(   43) = (   0.0252853   0.1011411   0.0715147), wk =   0.0438957
        k(   44) = (   0.0252853   0.1011411   0.1072721), wk =   0.0438957
        k(   45) = (   0.0252853   0.1011411   0.1430295), wk =   0.0438957
        k(   46) = (   0.0505705   0.0505705   0.0000000), wk =   0.0109739
        k(   47) = (   0.0505705   0.0505705   0.0357574), wk =   0.0219479
        k(   48) = (   0.0505705   0.0505705   0.0715147), wk =   0.0219479
        k(   49) = (   0.0505705   0.0505705   0.1072721), wk =   0.0219479
        k(   50) = (   0.0505705   0.0505705   0.1430295), wk =   0.0219479
        k(   51) = (   0.0505705   0.0758558   0.0000000), wk =   0.0219479
        k(   52) = (   0.0505705   0.0758558   0.0357574), wk =   0.0438957
        k(   53) = (   0.0505705   0.0758558   0.0715147), wk =   0.0438957
        k(   54) = (   0.0505705   0.0758558   0.1072721), wk =   0.0438957
        k(   55) = (   0.0505705   0.0758558   0.1430295), wk =   0.0438957
        k(   56) = (   0.0505705   0.1011411   0.0000000), wk =   0.0219479
        k(   57) = (   0.0505705   0.1011411   0.0357574), wk =   0.0438957
        k(   58) = (   0.0505705   0.1011411   0.0715147), wk =   0.0438957
        k(   59) = (   0.0505705   0.1011411   0.1072721), wk =   0.0438957
        k(   60) = (   0.0505705   0.1011411   0.1430295), wk =   0.0438957
        k(   61) = (   0.0758558   0.0758558   0.0000000), wk =   0.0109739
        k(   62) = (   0.0758558   0.0758558   0.0357574), wk =   0.0219479
        k(   63) = (   0.0758558   0.0758558   0.0715147), wk =   0.0219479
        k(   64) = (   0.0758558   0.0758558   0.1072721), wk =   0.0219479
        k(   65) = (   0.0758558   0.0758558   0.1430295), wk =   0.0219479
        k(   66) = (   0.0758558   0.1011411   0.0000000), wk =   0.0219479
        k(   67) = (   0.0758558   0.1011411   0.0357574), wk =   0.0438957
        k(   68) = (   0.0758558   0.1011411   0.0715147), wk =   0.0438957
        k(   69) = (   0.0758558   0.1011411   0.1072721), wk =   0.0438957
        k(   70) = (   0.0758558   0.1011411   0.1430295), wk =   0.0438957
        k(   71) = (   0.1011411   0.1011411   0.0000000), wk =   0.0109739
        k(   72) = (   0.1011411   0.1011411   0.0357574), wk =   0.0219479
        k(   73) = (   0.1011411   0.1011411   0.0715147), wk =   0.0219479
        k(   74) = (   0.1011411   0.1011411   0.1072721), wk =   0.0219479
        k(   75) = (   0.1011411   0.1011411   0.1430295), wk =   0.0219479

     Largest allocated arrays     est. size (Mb)     dimensions
     Largest temporary arrays     est. size (Mb)     dimensions

     Check: negative/imaginary core charge=   -0.000008    0.000000

     Initial potential from superposition of free atoms
     Check: negative starting charge=   -0.253257

     starting charge   49.99986, renormalised to   54.00000

     negative rho (up, down):  2.735E-01 0.000E+00

     *
     * You are using vdW-DF for exchange-correlation in this calculation.
     * Please cite the following three references that made this development
     * possible:
     *
     *   M. Dion, H. Rydberg, E. Schroder, D. C. Langreth, and
     *   B. I. Lundqvist, Phys. Rev. Lett. 92, 246401 (2004).
     *
     *   T. Thonhauser, V. R. Cooper, S. Li, A. Puzder, P. Hyldgaard, and
     *   D. C. Langreth, Phys. Rev. B 76, 125112 (2007).
     *
     *   G. Roman-Perez and J. M. Soler, Phys. Rev. Lett. 103, 096102 (2009).
     *
     *
     * If you are using vdW-DF2, please also cite:
     *
     *   K. Lee, E. D. Murray, L. Kong, B. I. Lundqvist, and
     *   D. C. Langreth, Phys. Rev. B 82, 081101(R) (2010).
     *
     *
     * If you are calculating the stress with vdW-DF, please also cite:
     *
     *   R. Sabatini, E. Kucukbenli, B. Kolb, T. Thonhauser, and
     *   S. de Gironcoli, J. Phys.: Condens. Matter 24, 424209 (2012).
     *

     Carrying out vdW-DF run using the following parameters:

     Nqs =      20    Nr_points =    1024   r_max =   100.000
     q_mesh =
               0.00001000     0.04494208     0.09755937     0.15916263
               0.23128650     0.31572767     0.41458969     0.53033537
               0.66584808     0.82450364     1.01025438     1.22772762
               1.48234092     1.78043706     2.12944203     2.53805004
               3.01644009     3.57652955     4.23227104     5.00000000

     Gradients computed in reciprocal space

     Starting wfc are   46 randomized atomic wfcs +    1 random wfc

     Self-consistent Calculation

     iteration #  1     ecut=    58.80 Ry     beta=0.10
     Davidson diagonalization with overlap
     ethr =  1.00E-02,  avg # of iterations =  4.1

[...]

     total energy              =    -591.11270725 Ry
     Harris-Foulkes estimate   =    -592.39942136 Ry
     estimated scf accuracy    <       7.70944983 Ry

[...]

     total energy              =    -590.64486557 Ry
     Harris-Foulkes estimate   =    -590.64486618 Ry
     estimated scf accuracy    <       0.00000503 Ry

     iteration # 13     ecut=    58.80 Ry     beta=0.10
     Davidson diagonalization with overlap
     ethr =  9.31E-09,  avg # of iterations =  1.2

     negative rho (up, down):  2.609E-01 0.000E+00

     End of self-consistent calculation

          k = 0.0000 0.0000 0.0000 (  3067 PWs)   bands (ev):

   -48.3797 -48.3486 -38.5540 -38.5211 -20.5272 -20.5272 -20.3349 -20.3349
   -20.3316 -20.2799 -14.8083 -14.8083 -14.6650 -14.6639 -14.6639 -14.6589
    11.6638  13.9312  14.0656  14.0679  14.2457  16.0050  16.0050  17.7000
    17.7012  17.7012  19.9656  19.9656  20.0686  20.1249  20.4624  20.4631
    20.6963  21.4174  22.0665  22.0668  22.0668  22.5537  22.5537  27.8646
    27.8661  27.8661  28.2743  29.5685  32.0387  32.0387  35.9310

[...]

          k = 0.1011 0.1011 0.1430 (  3096 PWs)   bands (ev):

   -48.3495 -48.3486 -38.5223 -38.5211 -20.5250 -20.5205 -20.5159 -20.5156
   -20.2897 -20.2845 -14.8121 -14.8102 -14.8070 -14.8047 -14.6644 -14.6590
    14.0105  14.0191  14.2850  14.3335  16.0185  16.0340  16.0485  16.1142
    19.0037  19.2218  19.4930  19.6030  20.1053  20.1652  20.5375  20.6122
    20.6575  20.6669  21.5203  21.8110  22.3615  22.5377  22.7261  22.7315
    28.3753  28.4625  29.6281  29.7769  32.1184  32.1803  32.2896

     the Fermi energy is    17.9655 ev

!    total energy              =    -590.64486751 Ry
     Harris-Foulkes estimate   =    -590.64486608 Ry
     estimated scf accuracy    <       0.00000012 Ry

     The total energy is the sum of the following terms:

     one-electron contribution =    -124.40862343 Ry
     hartree contribution      =      92.74351756 Ry
     xc contribution           =    -104.03954576 Ry
     ewald contribution        =    -454.93186807 Ry
     smearing contrib. (-TS)   =      -0.00834781 Ry

     convergence has been achieved in  13 iterations

     Forces acting on atoms (Ry/au):

     negative rho (up, down):  2.609E-01 0.000E+00
     atom    1 type  1   force =     0.00000000    0.00000000    0.00000000
     atom    2 type  1   force =     0.00000000    0.00000000    0.00000000
     atom    3 type  2   force =     0.00000000    0.00000000    0.00000000
     atom    4 type  2   force =     0.00000000    0.00000000    0.00000000

     Total force =     0.000000     Total SCF correction =     0.000000

     General routines

     Parallel routines

   This run was terminated on:  23:45:37  14Nov2017

   JOB DONE.