     Program PWSCF v.5.1rc2 starts on 15Nov2017 at  5:11:52

     Current dimensions of program PWSCF are:
     Max number of different atomic species (ntypx) = 10
     Max number of k-points (npk) =  40000
     Max angular momentum in pseudopotentials (lmaxx) =  3

     IMPORTANT: XC functional enforced from input :
     Exchange-correlation      = BEEF-VDW ( 1  4 27 13 2)
     Any further DFT definition will be discarded
     Please, verify this is what you really want

     Found symmetry operation: I + ( -0.5000 -0.5000  0.0000)
     This is a supercell, fractional translations are disabled

     bravais-lattice index     =            0
     lattice parameter (alat)  =       1.8897  a.u.
     unit-cell volume          =     509.7896 (a.u.)^3
     number of atoms/cell      =            4
     number of atomic types    =            2
     number of electrons       =        62.00
     number of Kohn-Sham states=           51
     kinetic-energy cutoff     =      58.7989  Ry
     charge density cutoff     =     587.9892  Ry
     convergence threshold     =      1.0E-06
     mixing beta               =       0.1000
     number of iterations used =           10  plain     mixing
     Exchange-correlation      = BEEF-VDW ( 1  4 27 13 2)

     celldm(1)=   1.889726  celldm(2)=   0.000000  celldm(3)=   0.000000
     celldm(4)=   0.000000  celldm(5)=   0.000000  celldm(6)=   0.000000

     crystal axes: (cart. coord. in units of alat)
               a(1) = (   4.746666   0.000000   0.000000 )
               a(2) = (   0.000000   4.746666   0.000000 )
               a(3) = (   0.000000   0.000000   3.352872 )

     reciprocal axes: (cart. coord. in units 2 pi/alat)
               b(1) = (  0.210674  0.000000  0.000000 )
               b(2) = (  0.000000  0.210674  0.000000 )
               b(3) = (  0.000000  0.000000  0.298252 )

     PseudoPot. # 1 for Sc read from file:
     /home/users/vossj/suncat/psp/gbrv1.5pbe/Sc.UPF
     MD5 check sum: db30a2753ba66ef00f23801d899b7e7f
     Pseudo is Ultrasoft + core correction, Zval = 11.0
     Generated by new atomic code, or converted to UPF format
     Using radial grid of  849 points,  6 beta functions with:
                l(1) =   0
                l(2) =   0
                l(3) =   1
                l(4) =   1
                l(5) =   2
                l(6) =   2
     Q(r) pseudized with  6 coefficients,  rinner =    1.200   1.200   1.200
                                                       1.200   1.200

     PseudoPot. # 2 for Zn read from file:
     /home/users/vossj/suncat/psp/gbrv1.5pbe/Zn.UPF
     MD5 check sum: df62231357ef9e81f77b2b3087fa5675
     Pseudo is Ultrasoft, Zval = 20.0
     Generated by new atomic code, or converted to UPF format
     Using radial grid of  943 points,  6 beta functions with:
                l(1) =   0
                l(2) =   0
                l(3) =   1
                l(4) =   1
                l(5) =   2
                l(6) =   2
     Q(r) pseudized with  8 coefficients,  rinner =    1.100   1.100   1.100
                                                       1.100   1.100

     vdW kernel table read from file vdW_kernel_table
     MD5 check sum: 095c7af220d748ca6e76c0b4c6cfb241

     atomic species   valence    mass     pseudopotential
        Sc1           11.00    44.95590     Sc( 1.00)
        Zn1           20.00    65.39000     Zn( 1.00)

     16 Sym. Ops., with inversion, found

   Cartesian axes

     site n.     atom                  positions (alat units)
         1           Sc1 tau(   1) = (   0.0000000   0.0000000   0.0000000  )
         2           Sc1 tau(   2) = (   2.3733331   2.3733331   0.0000000  )
         3           Zn1 tau(   3) = (   2.3733331   0.0000000   1.6764361  )
         4           Zn1 tau(   4) = (   0.0000000   2.3733331   1.6764361  )

     number of k points=    75  Fermi-Dirac smearing, width (Ry)=  0.0073
                       cart. coord. in units 2pi/alat
        k(    1) = (   0.0000000   0.0000000   0.0000000), wk =   0.0027435
        k(    2) = (   0.0000000   0.0000000   0.0331391), wk =   0.0054870
        k(    3) = (   0.0000000   0.0000000   0.0662782), wk =   0.0054870
        k(    4) = (   0.0000000   0.0000000   0.0994172), wk =   0.0054870
        k(    5) = (   0.0000000   0.0000000   0.1325563), wk =   0.0054870
        k(    6) = (   0.0000000   0.0234082   0.0000000), wk =   0.0109739
        k(    7) = (   0.0000000   0.0234082   0.0331391), wk =   0.0219479
        k(    8) = (   0.0000000   0.0234082   0.0662782), wk =   0.0219479
        k(    9) = (   0.0000000   0.0234082   0.0994172), wk =   0.0219479
        k(   10) = (   0.0000000   0.0234082   0.1325563), wk =   0.0219479
        k(   11) = (   0.0000000   0.0468165   0.0000000), wk =   0.0109739
        k(   12) = (   0.0000000   0.0468165   0.0331391), wk =   0.0219479
        k(   13) = (   0.0000000   0.0468165   0.0662782), wk =   0.0219479
        k(   14) = (   0.0000000   0.0468165   0.0994172), wk =   0.0219479
        k(   15) = (   0.0000000   0.0468165   0.1325563), wk =   0.0219479
        k(   16) = (   0.0000000   0.0702247   0.0000000), wk =   0.0109739
        k(   17) = (   0.0000000   0.0702247   0.0331391), wk =   0.0219479
        k(   18) = (   0.0000000   0.0702247   0.0662782), wk =   0.0219479
        k(   19) = (   0.0000000   0.0702247   0.0994172), wk =   0.0219479
        k(   20) = (   0.0000000   0.0702247   0.1325563), wk =   0.0219479
        k(   21) = (   0.0000000   0.0936330   0.0000000), wk =   0.0109739
        k(   22) = (   0.0000000   0.0936330   0.0331391), wk =   0.0219479
        k(   23) = (   0.0000000   0.0936330   0.0662782), wk =   0.0219479
        k(   24) = (   0.0000000   0.0936330   0.0994172), wk =   0.0219479
        k(   25) = (   0.0000000   0.0936330   0.1325563), wk =   0.0219479
        k(   26) = (   0.0234082   0.0234082   0.0000000), wk =   0.0109739
        k(   27) = (   0.0234082   0.0234082   0.0331391), wk =   0.0219479
        k(   28) = (   0.0234082   0.0234082   0.0662782), wk =   0.0219479
        k(   29) = (   0.0234082   0.0234082   0.0994172), wk =   0.0219479
        k(   30) = (   0.0234082   0.0234082   0.1325563), wk =   0.0219479
        k(   31) = (   0.0234082   0.0468165   0.0000000), wk =   0.0219479
        k(   32) = (   0.0234082   0.0468165   0.0331391), wk =   0.0438957
        k(   33) = (   0.0234082   0.0468165   0.0662782), wk =   0.0438957
        k(   34) = (   0.0234082   0.0468165   0.0994172), wk =   0.0438957
        k(   35) = (   0.0234082   0.0468165   0.1325563), wk =   0.0438957
        k(   36) = (   0.0234082   0.0702247   0.0000000), wk =   0.0219479
        k(   37) = (   0.0234082   0.0702247   0.0331391), wk =   0.0438957
        k(   38) = (   0.0234082   0.0702247   0.0662782), wk =   0.0438957
        k(   39) = (   0.0234082   0.0702247   0.0994172), wk =   0.0438957
        k(   40) = (   0.0234082   0.0702247   0.1325563), wk =   0.0438957
        k(   41) = (   0.0234082   0.0936330   0.0000000), wk =   0.0219479
        k(   42) = (   0.0234082   0.0936330   0.0331391), wk =   0.0438957
        k(   43) = (   0.0234082   0.0936330   0.0662782), wk =   0.0438957
        k(   44) = (   0.0234082   0.0936330   0.0994172), wk =   0.0438957
        k(   45) = (   0.0234082   0.0936330   0.1325563), wk =   0.0438957
        k(   46) = (   0.0468165   0.0468165   0.0000000), wk =   0.0109739
        k(   47) = (   0.0468165   0.0468165   0.0331391), wk =   0.0219479
        k(   48) = (   0.0468165   0.0468165   0.0662782), wk =   0.0219479
        k(   49) = (   0.0468165   0.0468165   0.0994172), wk =   0.0219479
        k(   50) = (   0.0468165   0.0468165   0.1325563), wk =   0.0219479
        k(   51) = (   0.0468165   0.0702247   0.0000000), wk =   0.0219479
        k(   52) = (   0.0468165   0.0702247   0.0331391), wk =   0.0438957
        k(   53) = (   0.0468165   0.0702247   0.0662782), wk =   0.0438957
        k(   54) = (   0.0468165   0.0702247   0.0994172), wk =   0.0438957
        k(   55) = (   0.0468165   0.0702247   0.1325563), wk =   0.0438957
        k(   56) = (   0.0468165   0.0936330   0.0000000), wk =   0.0219479
        k(   57) = (   0.0468165   0.0936330   0.0331391), wk =   0.0438957
        k(   58) = (   0.0468165   0.0936330   0.0662782), wk =   0.0438957
        k(   59) = (   0.0468165   0.0936330   0.0994172), wk =   0.0438957
        k(   60) = (   0.0468165   0.0936330   0.1325563), wk =   0.0438957
        k(   61) = (   0.0702247   0.0702247   0.0000000), wk =   0.0109739
        k(   62) = (   0.0702247   0.0702247   0.0331391), wk =   0.0219479
        k(   63) = (   0.0702247   0.0702247   0.0662782), wk =   0.0219479
        k(   64) = (   0.0702247   0.0702247   0.0994172), wk =   0.0219479
        k(   65) = (   0.0702247   0.0702247   0.1325563), wk =   0.0219479
        k(   66) = (   0.0702247   0.0936330   0.0000000), wk =   0.0219479
        k(   67) = (   0.0702247   0.0936330   0.0331391), wk =   0.0438957
        k(   68) = (   0.0702247   0.0936330   0.0662782), wk =   0.0438957
        k(   69) = (   0.0702247   0.0936330   0.0994172), wk =   0.0438957
        k(   70) = (   0.0702247   0.0936330   0.1325563), wk =   0.0438957
        k(   71) = (   0.0936330   0.0936330   0.0000000), wk =   0.0109739
        k(   72) = (   0.0936330   0.0936330   0.0331391), wk =   0.0219479
        k(   73) = (   0.0936330   0.0936330   0.0662782), wk =   0.0219479
        k(   74) = (   0.0936330   0.0936330   0.0994172), wk =   0.0219479
        k(   75) = (   0.0936330   0.0936330   0.1325563), wk =   0.0219479

     Largest allocated arrays     est. size (Mb)     dimensions
     Largest temporary arrays     est. size (Mb)     dimensions

     Initial potential from superposition of free atoms

     starting charge   61.99491, renormalised to   62.00000

     *
     * You are using vdW-DF for exchange-correlation in this calculation.
     * Please cite the following three references that made this development
     * possible:
     *
     *   M. Dion, H. Rydberg, E. Schroder, D. C. Langreth, and
     *   B. I. Lundqvist, Phys. Rev. Lett. 92, 246401 (2004).
     *
     *   T. Thonhauser, V. R. Cooper, S. Li, A. Puzder, P. Hyldgaard, and
     *   D. C. Langreth, Phys. Rev. B 76, 125112 (2007).
     *
     *   G. Roman-Perez and J. M. Soler, Phys. Rev. Lett. 103, 096102 (2009).
     *
     *
     * If you are using vdW-DF2, please also cite:
     *
     *   K. Lee, E. D. Murray, L. Kong, B. I. Lundqvist, and
     *   D. C. Langreth, Phys. Rev. B 82, 081101(R) (2010).
     *
     *
     * If you are calculating the stress with vdW-DF, please also cite:
     *
     *   R. Sabatini, E. Kucukbenli, B. Kolb, T. Thonhauser, and
     *   S. de Gironcoli, J. Phys.: Condens. Matter 24, 424209 (2012).
     *

     Carrying out vdW-DF run using the following parameters:

     Nqs =      20    Nr_points =    1024   r_max =   100.000
     q_mesh =
               0.00001000     0.04494208     0.09755937     0.15916263
               0.23128650     0.31572767     0.41458969     0.53033537
               0.66584808     0.82450364     1.01025438     1.22772762
               1.48234092     1.78043706     2.12944203     2.53805004
               3.01644009     3.57652955     4.23227104     5.00000000

     Gradients computed in reciprocal space

     Starting wfc are   52 randomized atomic wfcs

     Self-consistent Calculation

     iteration #  1     ecut=    58.80 Ry     beta=0.10
     Davidson diagonalization with overlap
     ethr =  1.00E-02,  avg # of iterations =  3.8

     Threshold (ethr) on eigenvalues was too large:
     Diagonalizing with lowered threshold

     Davidson diagonalization with overlap
     ethr =  2.17E-04,  avg # of iterations =  2.4

     total energy              =   -1115.35611781 Ry
     Harris-Foulkes estimate   =   -1115.37671227 Ry
     estimated scf accuracy    <       0.12840759 Ry

[...]

     total energy              =   -1115.35028057 Ry
     Harris-Foulkes estimate   =   -1115.35027842 Ry
     estimated scf accuracy    <       0.00000262 Ry

     iteration # 10     ecut=    58.80 Ry     beta=0.10
     Davidson diagonalization with overlap
     ethr =  4.23E-09,  avg # of iterations =  2.0

     End of self-consistent calculation

          k = 0.0000 0.0000 0.0000 (  3891 PWs)   bands (ev):

  -115.0201-115.0200 -69.1873 -69.1873 -69.1868 -69.1867 -69.1867 -69.1867
   -38.7113 -38.6835 -17.3587 -17.3587 -17.2155 -17.2155 -17.2144 -17.1854
     3.6877   3.8786   3.8947   3.8949   3.9781   4.0716   4.0716   4.1817
     4.1820   4.1820   4.3351   7.7024  10.6667  10.6667  11.2980  11.2983
    11.4610  13.2611  13.2611  14.0222  14.0257  14.0257  14.7090  16.3034
    16.6528  16.6528  16.6792  17.2410  20.5194  21.9496  22.5023  22.5114
    23.6321  23.6321  26.0367

[...]

          k = 0.0936 0.0936 0.1326 (  3915 PWs)   bands (ev):

  -115.0200-115.0200 -69.1874 -69.1874 -69.1873 -69.1873 -69.1866 -69.1866
   -38.6841 -38.6833 -17.3586 -17.3553 -17.3544 -17.3538 -17.1915 -17.1873
     3.8876   3.8900   3.9804   3.9910   4.0700   4.0719   4.0743   4.0780
     4.3207   4.3283   7.5974   7.6865  10.3593  10.3981  10.6976  10.6989
    11.6779  11.7634  13.2190  13.2761  13.3049  13.3383  14.7300  14.7337
    16.2765  16.3959  17.3298  17.4327  20.3232  20.5648  23.3333  23.3841
    23.4490  23.7499  26.3757

     the Fermi energy is    11.2161 ev

!    total energy              =   -1115.35029420 Ry
     Harris-Foulkes estimate   =   -1115.35028105 Ry
     estimated scf accuracy    <          8.3E-09 Ry

     The total energy is the sum of the following terms:

     one-electron contribution =    -882.97904730 Ry
     hartree contribution      =     459.89550057 Ry
     xc contribution           =    -114.66980796 Ry
     ewald contribution        =    -577.58760081 Ry
     smearing contrib. (-TS)   =      -0.00933871 Ry

     convergence has been achieved in  10 iterations

     Forces acting on atoms (Ry/au):

     atom    1 type  1   force =     0.00000000    0.00000000    0.00000000
     atom    2 type  1   force =     0.00000000    0.00000000    0.00000000
     atom    3 type  2   force =     0.00000000    0.00000000    0.00000000
     atom    4 type  2   force =     0.00000000    0.00000000    0.00000000

     Total force =     0.000000     Total SCF correction =     0.000000

     General routines

     Parallel routines

   This run was terminated on:   5:12:31  15Nov2017

   JOB DONE.