     Program PWSCF v.5.1rc2 starts on 14Nov2017 at 15:48:25

     Current dimensions of program PWSCF are:
     Max number of different atomic species (ntypx) = 10
     Max number of k-points (npk) =  40000
     Max angular momentum in pseudopotentials (lmaxx) =  3

     IMPORTANT: XC functional enforced from input :
     Exchange-correlation      = BEEF-VDW ( 1  4 27 13 2)
     Any further DFT definition will be discarded
     Please, verify this is what you really want

     Found symmetry operation: I + ( -0.5000 -0.5000  0.0000)
     This is a supercell, fractional translations are disabled

     bravais-lattice index     =            0
     lattice parameter (alat)  =       1.8897  a.u.
     unit-cell volume          =     455.2491 (a.u.)^3
     number of atoms/cell      =            4
     number of atomic types    =            2
     number of electrons       =        54.00
     number of Kohn-Sham states=           47
     kinetic-energy cutoff     =      58.7989  Ry
     charge density cutoff     =     587.9892  Ry
     convergence threshold     =      1.0E-06
     mixing beta               =       0.1000
     number of iterations used =           10  plain     mixing
     Exchange-correlation      = BEEF-VDW ( 1  4 27 13 2)

     celldm(1)=   1.889726  celldm(2)=   0.000000  celldm(3)=   0.000000
     celldm(4)=   0.000000  celldm(5)=   0.000000  celldm(6)=   0.000000

     crystal axes: (cart. coord. in units of alat)
               a(1) = (   4.566927   0.000000   0.000000 )
               a(2) = (   0.000000   4.566927   0.000000 )
               a(3) = (   0.000000   0.000000   3.234480 )

     reciprocal axes: (cart. coord. in units 2 pi/alat)
               b(1) = (  0.218966  0.000000  0.000000 )
               b(2) = (  0.000000  0.218966  0.000000 )
               b(3) = (  0.000000  0.000000  0.309169 )

     PseudoPot. # 1 for Mo read from file:
     /home/users/vossj/suncat/psp/gbrv1.5pbe/Mo.UPF
     MD5 check sum: 30c4dcd161f5d35cd49bb5239c51a633
     Pseudo is Ultrasoft + core correction, Zval = 14.0
     Generated by new atomic code, or converted to UPF format
     Using radial grid of  889 points,  6 beta functions with:
                l(1) =   0
                l(2) =   0
                l(3) =   1
                l(4) =   1
                l(5) =   2
                l(6) =   2
     Q(r) pseudized with  6 coefficients,  rinner =    1.000   1.000   1.000
                                                       1.000   1.000

     PseudoPot. # 2 for Ta read from file:
     /home/users/vossj/suncat/psp/gbrv1.5pbe/Ta.UPF
     MD5 check sum: f8bbe9446314a3b8ea5d9f3e3836c939
     Pseudo is Ultrasoft + core correction, Zval = 13.0
     Generated by new atomic code, or converted to UPF format
     Using radial grid of  921 points,  7 beta functions with:
                l(1) =   0
                l(2) =   0
                l(3) =   1
                l(4) =   1
                l(5) =   2
                l(6) =   2
                l(7) =   3
     Q(r) pseudized with  6 coefficients,  rinner =    1.300   1.300   1.300
                                                       1.300   1.300   1.300
                                                       1.300

     vdW kernel table read from file vdW_kernel_table
     MD5 check sum: 095c7af220d748ca6e76c0b4c6cfb241

     atomic species   valence    mass     pseudopotential
        Mo1           14.00    95.94000     Mo( 1.00)
        Ta1           13.00   180.94790     Ta( 1.00)

     16 Sym. Ops., with inversion, found

   Cartesian axes

     site n.     atom                  positions (alat units)
         1           Mo1 tau(   1) = (   0.0000000   0.0000000   0.0000000  )
         2           Mo1 tau(   2) = (   2.2834633   2.2834633   0.0000000  )
         3           Ta1 tau(   3) = (   2.2834633   0.0000000   1.6172399  )
         4           Ta1 tau(   4) = (   0.0000000   2.2834633   1.6172399  )

     number of k points=    75  Fermi-Dirac smearing, width (Ry)=  0.0073
                       cart. coord. in units 2pi/alat
        k(    1) = (   0.0000000   0.0000000   0.0000000), wk =   0.0027435
        k(    2) = (   0.0000000   0.0000000   0.0343521), wk =   0.0054870
        k(    3) = (   0.0000000   0.0000000   0.0687042), wk =   0.0054870
        k(    4) = (   0.0000000   0.0000000   0.1030562), wk =   0.0054870
        k(    5) = (   0.0000000   0.0000000   0.1374083), wk =   0.0054870
        k(    6) = (   0.0000000   0.0243295   0.0000000), wk =   0.0109739
        k(    7) = (   0.0000000   0.0243295   0.0343521), wk =   0.0219479
        k(    8) = (   0.0000000   0.0243295   0.0687042), wk =   0.0219479
        k(    9) = (   0.0000000   0.0243295   0.1030562), wk =   0.0219479
        k(   10) = (   0.0000000   0.0243295   0.1374083), wk =   0.0219479
        k(   11) = (   0.0000000   0.0486590   0.0000000), wk =   0.0109739
        k(   12) = (   0.0000000   0.0486590   0.0343521), wk =   0.0219479
        k(   13) = (   0.0000000   0.0486590   0.0687042), wk =   0.0219479
        k(   14) = (   0.0000000   0.0486590   0.1030562), wk =   0.0219479
        k(   15) = (   0.0000000   0.0486590   0.1374083), wk =   0.0219479
        k(   16) = (   0.0000000   0.0729885   0.0000000), wk =   0.0109739
        k(   17) = (   0.0000000   0.0729885   0.0343521), wk =   0.0219479
        k(   18) = (   0.0000000   0.0729885   0.0687042), wk =   0.0219479
        k(   19) = (   0.0000000   0.0729885   0.1030562), wk =   0.0219479
        k(   20) = (   0.0000000   0.0729885   0.1374083), wk =   0.0219479
        k(   21) = (   0.0000000   0.0973181   0.0000000), wk =   0.0109739
        k(   22) = (   0.0000000   0.0973181   0.0343521), wk =   0.0219479
        k(   23) = (   0.0000000   0.0973181   0.0687042), wk =   0.0219479
        k(   24) = (   0.0000000   0.0973181   0.1030562), wk =   0.0219479
        k(   25) = (   0.0000000   0.0973181   0.1374083), wk =   0.0219479
        k(   26) = (   0.0243295   0.0243295   0.0000000), wk =   0.0109739
        k(   27) = (   0.0243295   0.0243295   0.0343521), wk =   0.0219479
        k(   28) = (   0.0243295   0.0243295   0.0687042), wk =   0.0219479
        k(   29) = (   0.0243295   0.0243295   0.1030562), wk =   0.0219479
        k(   30) = (   0.0243295   0.0243295   0.1374083), wk =   0.0219479
        k(   31) = (   0.0243295   0.0486590   0.0000000), wk =   0.0219479
        k(   32) = (   0.0243295   0.0486590   0.0343521), wk =   0.0438957
        k(   33) = (   0.0243295   0.0486590   0.0687042), wk =   0.0438957
        k(   34) = (   0.0243295   0.0486590   0.1030562), wk =   0.0438957
        k(   35) = (   0.0243295   0.0486590   0.1374083), wk =   0.0438957
        k(   36) = (   0.0243295   0.0729885   0.0000000), wk =   0.0219479
        k(   37) = (   0.0243295   0.0729885   0.0343521), wk =   0.0438957
        k(   38) = (   0.0243295   0.0729885   0.0687042), wk =   0.0438957
        k(   39) = (   0.0243295   0.0729885   0.1030562), wk =   0.0438957
        k(   40) = (   0.0243295   0.0729885   0.1374083), wk =   0.0438957
        k(   41) = (   0.0243295   0.0973181   0.0000000), wk =   0.0219479
        k(   42) = (   0.0243295   0.0973181   0.0343521), wk =   0.0438957
        k(   43) = (   0.0243295   0.0973181   0.0687042), wk =   0.0438957
        k(   44) = (   0.0243295   0.0973181   0.1030562), wk =   0.0438957
        k(   45) = (   0.0243295   0.0973181   0.1374083), wk =   0.0438957
        k(   46) = (   0.0486590   0.0486590   0.0000000), wk =   0.0109739
        k(   47) = (   0.0486590   0.0486590   0.0343521), wk =   0.0219479
        k(   48) = (   0.0486590   0.0486590   0.0687042), wk =   0.0219479
        k(   49) = (   0.0486590   0.0486590   0.1030562), wk =   0.0219479
        k(   50) = (   0.0486590   0.0486590   0.1374083), wk =   0.0219479
        k(   51) = (   0.0486590   0.0729885   0.0000000), wk =   0.0219479
        k(   52) = (   0.0486590   0.0729885   0.0343521), wk =   0.0438957
        k(   53) = (   0.0486590   0.0729885   0.0687042), wk =   0.0438957
        k(   54) = (   0.0486590   0.0729885   0.1030562), wk =   0.0438957
        k(   55) = (   0.0486590   0.0729885   0.1374083), wk =   0.0438957
        k(   56) = (   0.0486590   0.0973181   0.0000000), wk =   0.0219479
        k(   57) = (   0.0486590   0.0973181   0.0343521), wk =   0.0438957
        k(   58) = (   0.0486590   0.0973181   0.0687042), wk =   0.0438957
        k(   59) = (   0.0486590   0.0973181   0.1030562), wk =   0.0438957
        k(   60) = (   0.0486590   0.0973181   0.1374083), wk =   0.0438957
        k(   61) = (   0.0729885   0.0729885   0.0000000), wk =   0.0109739
        k(   62) = (   0.0729885   0.0729885   0.0343521), wk =   0.0219479
        k(   63) = (   0.0729885   0.0729885   0.0687042), wk =   0.0219479
        k(   64) = (   0.0729885   0.0729885   0.1030562), wk =   0.0219479
        k(   65) = (   0.0729885   0.0729885   0.1374083), wk =   0.0219479
        k(   66) = (   0.0729885   0.0973181   0.0000000), wk =   0.0219479
        k(   67) = (   0.0729885   0.0973181   0.0343521), wk =   0.0438957
        k(   68) = (   0.0729885   0.0973181   0.0687042), wk =   0.0438957
        k(   69) = (   0.0729885   0.0973181   0.1030562), wk =   0.0438957
        k(   70) = (   0.0729885   0.0973181   0.1374083), wk =   0.0438957
        k(   71) = (   0.0973181   0.0973181   0.0000000), wk =   0.0109739
        k(   72) = (   0.0973181   0.0973181   0.0343521), wk =   0.0219479
        k(   73) = (   0.0973181   0.0973181   0.0687042), wk =   0.0219479
        k(   74) = (   0.0973181   0.0973181   0.1030562), wk =   0.0219479
        k(   75) = (   0.0973181   0.0973181   0.1374083), wk =   0.0219479

     Largest allocated arrays     est. size (Mb)     dimensions
     Largest temporary arrays     est. size (Mb)     dimensions

     Initial potential from superposition of free atoms
     Check: negative starting charge=   -0.187619

     starting charge   53.99565, renormalised to   54.00000

     negative rho (up, down):  1.876E-01 0.000E+00

     *
     * You are using vdW-DF for exchange-correlation in this calculation.
     * Please cite the following three references that made this development
     * possible:
     *
     *   M. Dion, H. Rydberg, E. Schroder, D. C. Langreth, and
     *   B. I. Lundqvist, Phys. Rev. Lett. 92, 246401 (2004).
     *
     *   T. Thonhauser, V. R. Cooper, S. Li, A. Puzder, P. Hyldgaard, and
     *   D. C. Langreth, Phys. Rev. B 76, 125112 (2007).
     *
     *   G. Roman-Perez and J. M. Soler, Phys. Rev. Lett. 103, 096102 (2009).
     *
     *
     * If you are using vdW-DF2, please also cite:
     *
     *   K. Lee, E. D. Murray, L. Kong, B. I. Lundqvist, and
     *   D. C. Langreth, Phys. Rev. B 82, 081101(R) (2010).
     *
     *
     * If you are calculating the stress with vdW-DF, please also cite:
     *
     *   R. Sabatini, E. Kucukbenli, B. Kolb, T. Thonhauser, and
     *   S. de Gironcoli, J. Phys.: Condens. Matter 24, 424209 (2012).
     *

     Carrying out vdW-DF run using the following parameters:

     Nqs =      20    Nr_points =    1024   r_max =   100.000
     q_mesh =
               0.00001000     0.04494208     0.09755937     0.15916263
               0.23128650     0.31572767     0.41458969     0.53033537
               0.66584808     0.82450364     1.01025438     1.22772762
               1.48234092     1.78043706     2.12944203     2.53805004
               3.01644009     3.57652955     4.23227104     5.00000000

     Gradients computed in reciprocal space

     Starting wfc are   52 randomized atomic wfcs

     Self-consistent Calculation

     iteration #  1     ecut=    58.80 Ry     beta=0.10
     Davidson diagonalization with overlap
     ethr =  1.00E-02,  avg # of iterations =  4.7

     Threshold (ethr) on eigenvalues was too large:
     Diagonalizing with lowered threshold

     Davidson diagonalization with overlap
     ethr =  5.14E-04,  avg # of iterations =  1.3

[...]

     total energy              =    -566.62016580 Ry
     Harris-Foulkes estimate   =    -566.66163978 Ry
     estimated scf accuracy    <       0.27652195 Ry

[...]

     total energy              =    -566.61487424 Ry
     Harris-Foulkes estimate   =    -566.61487487 Ry
     estimated scf accuracy    <       0.00000284 Ry

     iteration #  9     ecut=    58.80 Ry     beta=0.10
     Davidson diagonalization with overlap
     ethr =  5.27E-09,  avg # of iterations =  2.0

     negative rho (up, down):  2.026E-01 0.000E+00

     End of self-consistent calculation

          k = 0.0000 0.0000 0.0000 (  3467 PWs)   bands (ev):

   -48.4299 -48.4078 -41.1532 -41.1276 -15.7347 -15.7347 -15.3802 -15.3781
   -15.3781 -15.0880 -14.6522 -14.4560 -14.4560 -14.4242 -14.4234 -14.4234
    12.0070  14.6014  15.0514  15.0554  15.0804  17.1350  17.1350  19.1914
    19.1914  19.2084  21.1417  21.1417  22.0418  22.1198  22.3897  22.4149
    22.7494  24.3613  25.0793  25.0836  25.0836  25.7741  25.7741  28.3744
    28.4156  28.4156  29.8777  31.4378  31.4378  32.6510  34.3398

[...]

          k = 0.0973 0.0973 0.1374 (  3431 PWs)   bands (ev):

   -48.4086 -48.4080 -41.1288 -41.1279 -15.7240 -15.7174 -15.7130 -15.7015
   -15.0964 -15.0910 -14.6578 -14.6499 -14.4798 -14.4700 -14.4679 -14.4538
    14.6665  14.7086  15.1546  15.1815  17.1882  17.1944  17.2046  17.2868
    20.4630  20.6532  20.7175  20.7831  21.9440  22.0068  22.3585  22.4998
    22.5815  22.6677  24.4191  24.5802  25.4304  25.7460  25.8245  25.8723
    29.8859  30.0452  31.6512  31.6636  31.7400  31.9379  32.5517

     the Fermi energy is    19.3021 ev

!    total energy              =    -566.61487829 Ry
     Harris-Foulkes estimate   =    -566.61487483 Ry
     estimated scf accuracy    <       0.00000008 Ry

     The total energy is the sum of the following terms:

     one-electron contribution =     -69.96749365 Ry
     hartree contribution      =      65.80950583 Ry
     xc contribution           =    -127.60792966 Ry
     ewald contribution        =    -434.84128891 Ry
     smearing contrib. (-TS)   =      -0.00767189 Ry

     convergence has been achieved in   9 iterations

     Forces acting on atoms (Ry/au):

     negative rho (up, down):  2.026E-01 0.000E+00
     atom    1 type  1   force =     0.00000000    0.00000000    0.00000000
     atom    2 type  1   force =     0.00000000    0.00000000    0.00000000
     atom    3 type  2   force =     0.00000000    0.00000000    0.00000000
     atom    4 type  2   force =     0.00000000    0.00000000    0.00000000

     Total force =     0.000000     Total SCF correction =     0.000000

     General routines

     Parallel routines

   This run was terminated on:  15:49: 0  14Nov2017

   JOB DONE.