     Program PWSCF v.5.1rc2 starts on 15Nov2017 at  1:10:24

     Current dimensions of program PWSCF are:
     Max number of different atomic species (ntypx) = 10
     Max number of k-points (npk) =  40000
     Max angular momentum in pseudopotentials (lmaxx) =  3

     IMPORTANT: XC functional enforced from input :
     Exchange-correlation      = BEEF-VDW ( 1  4 27 13 2)
     Any further DFT definition will be discarded
     Please, verify this is what you really want

     Found symmetry operation: I + (  0.5000  0.5000  0.0000)
     This is a supercell, fractional translations are disabled

     bravais-lattice index     =            0
     lattice parameter (alat)  =       1.8897  a.u.
     unit-cell volume          =     488.2680 (a.u.)^3
     number of atoms/cell      =            4
     number of atomic types    =            2
     number of electrons       =        56.00
     number of Kohn-Sham states=           48
     kinetic-energy cutoff     =      58.7989  Ry
     charge density cutoff     =     587.9892  Ry
     convergence threshold     =      1.0E-06
     mixing beta               =       0.1000
     number of iterations used =           10  plain     mixing
     Exchange-correlation      = BEEF-VDW ( 1  4 27 13 2)

     celldm(1)=   1.889726  celldm(2)=   0.000000  celldm(3)=   0.000000
     celldm(4)=   0.000000  celldm(5)=   0.000000  celldm(6)=   0.000000

     crystal axes: (cart. coord. in units of alat)
               a(1) = (   4.388107   0.000000   0.000000 )
               a(2) = (   0.000000   4.388107   0.000000 )
               a(3) = (   0.000000   0.000000   3.757571 )

     reciprocal axes: (cart. coord. in units 2 pi/alat)
               b(1) = (  0.227889  0.000000  0.000000 )
               b(2) = (  0.000000  0.227889  0.000000 )
               b(3) = (  0.000000  0.000000  0.266129 )

     PseudoPot. # 1 for Pd read from file:
     /home/users/vossj/suncat/psp/gbrv1.5pbe/Pd.UPF
     MD5 check sum: 2d733d2bc2cbfd217af676df1668a4bc
     Pseudo is Ultrasoft + core correction, Zval = 16.0
     Generated by new atomic code, or converted to UPF format
     Using radial grid of  887 points,  6 beta functions with:
                l(1) =   0
                l(2) =   0
                l(3) =   1
                l(4) =   1
                l(5) =   2
                l(6) =   2
     Q(r) pseudized with  8 coefficients,  rinner =    1.130   1.130   1.130
                                                       1.130   1.130

     PseudoPot. # 2 for Cd read from file:
     /home/users/vossj/suncat/psp/gbrv1.5pbe/Cd.UPF
     MD5 check sum: 17164a7926edb8e0dc231208abae86a6
     Pseudo is Ultrasoft + core correction, Zval = 12.0
     Generated by new atomic code, or converted to UPF format
     Using radial grid of  889 points,  6 beta functions with:
                l(1) =   0
                l(2) =   0
                l(3) =   1
                l(4) =   1
                l(5) =   2
                l(6) =   2
     Q(r) pseudized with  6 coefficients,  rinner =    1.000   1.000   1.000
                                                       1.000   1.000

     vdW kernel table read from file vdW_kernel_table
     MD5 check sum: 095c7af220d748ca6e76c0b4c6cfb241

     atomic species   valence    mass     pseudopotential
        Pd1           16.00   106.42000     Pd( 1.00)
        Cd1           12.00   112.41000     Cd( 1.00)

     16 Sym. Ops., with inversion, found

   Cartesian axes

     site n.     atom                  positions (alat units)
         1           Pd1 tau(   1) = (   0.0000000   0.0000000   0.0000000  )
         2           Pd1 tau(   2) = (   2.1940536   2.1940536   0.0000000  )
         3           Cd1 tau(   3) = (   2.1940536   0.0000000   1.8787857  )
         4           Cd1 tau(   4) = (   0.0000000   2.1940536   1.8787857  )

     number of k points=    75  Fermi-Dirac smearing, width (Ry)=  0.0073
                       cart. coord. in units 2pi/alat
        k(    1) = (   0.0000000   0.0000000   0.0000000), wk =   0.0027435
        k(    2) = (   0.0000000   0.0000000   0.0295699), wk =   0.0054870
        k(    3) = (   0.0000000   0.0000000   0.0591399), wk =   0.0054870
        k(    4) = (   0.0000000   0.0000000   0.0887098), wk =   0.0054870
        k(    5) = (   0.0000000   0.0000000   0.1182797), wk =   0.0054870
        k(    6) = (   0.0000000   0.0253210   0.0000000), wk =   0.0109739
        k(    7) = (   0.0000000   0.0253210   0.0295699), wk =   0.0219479
        k(    8) = (   0.0000000   0.0253210   0.0591399), wk =   0.0219479
        k(    9) = (   0.0000000   0.0253210   0.0887098), wk =   0.0219479
        k(   10) = (   0.0000000   0.0253210   0.1182797), wk =   0.0219479
        k(   11) = (   0.0000000   0.0506419   0.0000000), wk =   0.0109739
        k(   12) = (   0.0000000   0.0506419   0.0295699), wk =   0.0219479
        k(   13) = (   0.0000000   0.0506419   0.0591399), wk =   0.0219479
        k(   14) = (   0.0000000   0.0506419   0.0887098), wk =   0.0219479
        k(   15) = (   0.0000000   0.0506419   0.1182797), wk =   0.0219479
        k(   16) = (   0.0000000   0.0759629   0.0000000), wk =   0.0109739
        k(   17) = (   0.0000000   0.0759629   0.0295699), wk =   0.0219479
        k(   18) = (   0.0000000   0.0759629   0.0591399), wk =   0.0219479
        k(   19) = (   0.0000000   0.0759629   0.0887098), wk =   0.0219479
        k(   20) = (   0.0000000   0.0759629   0.1182797), wk =   0.0219479
        k(   21) = (   0.0000000   0.1012839   0.0000000), wk =   0.0109739
        k(   22) = (   0.0000000   0.1012839   0.0295699), wk =   0.0219479
        k(   23) = (   0.0000000   0.1012839   0.0591399), wk =   0.0219479
        k(   24) = (   0.0000000   0.1012839   0.0887098), wk =   0.0219479
        k(   25) = (   0.0000000   0.1012839   0.1182797), wk =   0.0219479
        k(   26) = (   0.0253210   0.0253210   0.0000000), wk =   0.0109739
        k(   27) = (   0.0253210   0.0253210   0.0295699), wk =   0.0219479
        k(   28) = (   0.0253210   0.0253210   0.0591399), wk =   0.0219479
        k(   29) = (   0.0253210   0.0253210   0.0887098), wk =   0.0219479
        k(   30) = (   0.0253210   0.0253210   0.1182797), wk =   0.0219479
        k(   31) = (   0.0253210   0.0506419   0.0000000), wk =   0.0219479
        k(   32) = (   0.0253210   0.0506419   0.0295699), wk =   0.0438957
        k(   33) = (   0.0253210   0.0506419   0.0591399), wk =   0.0438957
        k(   34) = (   0.0253210   0.0506419   0.0887098), wk =   0.0438957
        k(   35) = (   0.0253210   0.0506419   0.1182797), wk =   0.0438957
        k(   36) = (   0.0253210   0.0759629   0.0000000), wk =   0.0219479
        k(   37) = (   0.0253210   0.0759629   0.0295699), wk =   0.0438957
        k(   38) = (   0.0253210   0.0759629   0.0591399), wk =   0.0438957
        k(   39) = (   0.0253210   0.0759629   0.0887098), wk =   0.0438957
        k(   40) = (   0.0253210   0.0759629   0.1182797), wk =   0.0438957
        k(   41) = (   0.0253210   0.1012839   0.0000000), wk =   0.0219479
        k(   42) = (   0.0253210   0.1012839   0.0295699), wk =   0.0438957
        k(   43) = (   0.0253210   0.1012839   0.0591399), wk =   0.0438957
        k(   44) = (   0.0253210   0.1012839   0.0887098), wk =   0.0438957
        k(   45) = (   0.0253210   0.1012839   0.1182797), wk =   0.0438957
        k(   46) = (   0.0506419   0.0506419   0.0000000), wk =   0.0109739
        k(   47) = (   0.0506419   0.0506419   0.0295699), wk =   0.0219479
        k(   48) = (   0.0506419   0.0506419   0.0591399), wk =   0.0219479
        k(   49) = (   0.0506419   0.0506419   0.0887098), wk =   0.0219479
        k(   50) = (   0.0506419   0.0506419   0.1182797), wk =   0.0219479
        k(   51) = (   0.0506419   0.0759629   0.0000000), wk =   0.0219479
        k(   52) = (   0.0506419   0.0759629   0.0295699), wk =   0.0438957
        k(   53) = (   0.0506419   0.0759629   0.0591399), wk =   0.0438957
        k(   54) = (   0.0506419   0.0759629   0.0887098), wk =   0.0438957
        k(   55) = (   0.0506419   0.0759629   0.1182797), wk =   0.0438957
        k(   56) = (   0.0506419   0.1012839   0.0000000), wk =   0.0219479
        k(   57) = (   0.0506419   0.1012839   0.0295699), wk =   0.0438957
        k(   58) = (   0.0506419   0.1012839   0.0591399), wk =   0.0438957
        k(   59) = (   0.0506419   0.1012839   0.0887098), wk =   0.0438957
        k(   60) = (   0.0506419   0.1012839   0.1182797), wk =   0.0438957
        k(   61) = (   0.0759629   0.0759629   0.0000000), wk =   0.0109739
        k(   62) = (   0.0759629   0.0759629   0.0295699), wk =   0.0219479
        k(   63) = (   0.0759629   0.0759629   0.0591399), wk =   0.0219479
        k(   64) = (   0.0759629   0.0759629   0.0887098), wk =   0.0219479
        k(   65) = (   0.0759629   0.0759629   0.1182797), wk =   0.0219479
        k(   66) = (   0.0759629   0.1012839   0.0000000), wk =   0.0219479
        k(   67) = (   0.0759629   0.1012839   0.0295699), wk =   0.0438957
        k(   68) = (   0.0759629   0.1012839   0.0591399), wk =   0.0438957
        k(   69) = (   0.0759629   0.1012839   0.0887098), wk =   0.0438957
        k(   70) = (   0.0759629   0.1012839   0.1182797), wk =   0.0438957
        k(   71) = (   0.1012839   0.1012839   0.0000000), wk =   0.0109739
        k(   72) = (   0.1012839   0.1012839   0.0295699), wk =   0.0219479
        k(   73) = (   0.1012839   0.1012839   0.0591399), wk =   0.0219479
        k(   74) = (   0.1012839   0.1012839   0.0887098), wk =   0.0219479
        k(   75) = (   0.1012839   0.1012839   0.1182797), wk =   0.0219479

     Largest allocated arrays     est. size (Mb)     dimensions
     Largest temporary arrays     est. size (Mb)     dimensions

     Initial potential from superposition of free atoms
     Check: negative starting charge=   -0.195249

     starting charge   53.99990, renormalised to   56.00000

     negative rho (up, down):  2.025E-01 0.000E+00

     *
     * You are using vdW-DF for exchange-correlation in this calculation.
     * Please cite the following three references that made this development
     * possible:
     *
     *   M. Dion, H. Rydberg, E. Schroder, D. C. Langreth, and
     *   B. I. Lundqvist, Phys. Rev. Lett. 92, 246401 (2004).
     *
     *   T. Thonhauser, V. R. Cooper, S. Li, A. Puzder, P. Hyldgaard, and
     *   D. C. Langreth, Phys. Rev. B 76, 125112 (2007).
     *
     *   G. Roman-Perez and J. M. Soler, Phys. Rev. Lett. 103, 096102 (2009).
     *
     *
     * If you are using vdW-DF2, please also cite:
     *
     *   K. Lee, E. D. Murray, L. Kong, B. I. Lundqvist, and
     *   D. C. Langreth, Phys. Rev. B 82, 081101(R) (2010).
     *
     *
     * If you are calculating the stress with vdW-DF, please also cite:
     *
     *   R. Sabatini, E. Kucukbenli, B. Kolb, T. Thonhauser, and
     *   S. de Gironcoli, J. Phys.: Condens. Matter 24, 424209 (2012).
     *

     Carrying out vdW-DF run using the following parameters:

     Nqs =      20    Nr_points =    1024   r_max =   100.000
     q_mesh =
               0.00001000     0.04494208     0.09755937     0.15916263
               0.23128650     0.31572767     0.41458969     0.53033537
               0.66584808     0.82450364     1.01025438     1.22772762
               1.48234092     1.78043706     2.12944203     2.53805004
               3.01644009     3.57652955     4.23227104     5.00000000

     Gradients computed in reciprocal space

     Starting wfc are   42 randomized atomic wfcs +    6 random wfc

     Self-consistent Calculation

     iteration #  1     ecut=    58.80 Ry     beta=0.10
     Davidson diagonalization with overlap
     ethr =  1.00E-02,  avg # of iterations =  4.6

[...]

     total energy              =    -632.05290289 Ry
     Harris-Foulkes estimate   =    -632.92248030 Ry
     estimated scf accuracy    <       5.23434773 Ry

[...]

     total energy              =    -631.93472940 Ry
     Harris-Foulkes estimate   =    -631.93471580 Ry
     estimated scf accuracy    <       0.00001404 Ry

     iteration # 10     ecut=    58.80 Ry     beta=0.10
     Davidson diagonalization with overlap
     ethr =  2.51E-08,  avg # of iterations =  2.1

     negative rho (up, down):  2.027E-01 0.000E+00

     End of self-consistent calculation

          k = 0.0000 0.0000 0.0000 (  3749 PWs)   bands (ev):

   -35.8317 -35.8222 -35.8154 -35.8154 -35.7649 -35.7649   4.8285   4.8412
     5.0313   5.2214   5.2214   5.5082   5.6935   5.6935   5.8713   6.2247
     6.2350  10.3032  10.9467  11.2304  12.0586  12.0586  12.0605  12.4951
    12.4951  12.7591  13.3033  14.4555  14.4555  17.2185  18.3770  19.2868
    22.2250  22.2250  22.5602  24.2201  25.2416  25.2416  26.3931  28.2291
    28.2623  30.2897  30.6076  31.1821  31.1821  32.4244  32.6213  32.6213

[...]

          k = 0.1013 0.1013 0.1183 (  3747 PWs)   bands (ev):

   -35.8317 -35.8314 -35.8201 -35.8186 -35.7619 -35.7604   5.0324   5.0413
     5.0975   5.1303   5.4757   5.5024   5.6459   5.6599   5.9326   5.9538
     9.7515   9.8166  11.1993  11.2737  12.1032  12.1546  12.2823  12.4140
    12.4530  12.6186  13.0509  13.5999  13.8066  13.8947  17.0554  17.1238
    17.7827  18.1770  27.4603  27.7606  27.8948  28.0177  28.3592  28.5212
    30.2066  30.4638  33.2028  33.2095  33.6243  33.9350  34.1044  34.4537

     the Fermi energy is    14.1665 ev

!    total energy              =    -631.93480670 Ry
     Harris-Foulkes estimate   =    -631.93473254 Ry
     estimated scf accuracy    <       0.00000052 Ry

     The total energy is the sum of the following terms:

     one-electron contribution =    -149.24588746 Ry
     hartree contribution      =     125.70478492 Ry
     xc contribution           =    -146.92771724 Ry
     ewald contribution        =    -461.46337082 Ry
     smearing contrib. (-TS)   =      -0.00261610 Ry

     convergence has been achieved in  10 iterations

     Forces acting on atoms (Ry/au):

     negative rho (up, down):  2.027E-01 0.000E+00
     atom    1 type  1   force =     0.00000000    0.00000000    0.00000000
     atom    2 type  1   force =     0.00000000    0.00000000    0.00000000
     atom    3 type  2   force =     0.00000000    0.00000000    0.00000000
     atom    4 type  2   force =     0.00000000    0.00000000    0.00000000

     Total force =     0.000000     Total SCF correction =     0.000000

     General routines

     Parallel routines

   This run was terminated on:   1:11: 5  15Nov2017

   JOB DONE.