     Program PWSCF v.5.1rc2 starts on 14Nov2017 at 14:39:17

     Current dimensions of program PWSCF are:
     Max number of different atomic species (ntypx) = 10
     Max number of k-points (npk) =  40000
     Max angular momentum in pseudopotentials (lmaxx) =  3

     IMPORTANT: XC functional enforced from input :
     Exchange-correlation      = BEEF-VDW ( 1  4 27 13 2)
     Any further DFT definition will be discarded
     Please, verify this is what you really want

     Found symmetry operation: I + ( -0.5000 -0.5000  0.0000)
     This is a supercell, fractional translations are disabled

     bravais-lattice index     =            0
     lattice parameter (alat)  =       1.8897  a.u.
     unit-cell volume          =     833.0790 (a.u.)^3
     number of atoms/cell      =            4
     number of atomic types    =            2
     number of electrons       =        46.00
     number of Kohn-Sham states=           43
     kinetic-energy cutoff     =      58.7989  Ry
     charge density cutoff     =     587.9892  Ry
     convergence threshold     =      1.0E-06
     mixing beta               =       0.1000
     number of iterations used =           10  plain     mixing
     Exchange-correlation      = BEEF-VDW ( 1  4 27 13 2)

     celldm(1)=   1.889726  celldm(2)=   0.000000  celldm(3)=   0.000000
     celldm(4)=   0.000000  celldm(5)=   0.000000  celldm(6)=   0.000000

     crystal axes: (cart. coord. in units of alat)
               a(1) = (   5.580595   0.000000   0.000000 )
               a(2) = (   0.000000   5.580595   0.000000 )
               a(3) = (   0.000000   0.000000   3.963954 )

     reciprocal axes: (cart. coord. in units 2 pi/alat)
               b(1) = (  0.179192  0.000000  0.000000 )
               b(2) = (  0.000000  0.179192  0.000000 )
               b(3) = (  0.000000  0.000000  0.252273 )

     PseudoPot. # 1 for La read from file:
     /home/users/vossj/suncat/psp/gbrv1.5pbe/La.UPF
     MD5 check sum: 5937b0c7494ba0601a847275249473aa
     Pseudo is Ultrasoft + core correction, Zval = 11.0
     Generated by new atomic code, or converted to UPF format
     Using radial grid of  995 points,  8 beta functions with:
                l(1) =   0
                l(2) =   0
                l(3) =   1
                l(4) =   1
                l(5) =   2
                l(6) =   2
                l(7) =   3
                l(8) =   3
     Q(r) pseudized with  8 coefficients,  rinner =    1.700   1.700   1.700
                                                       1.700   1.700   1.700
                                                       1.700

     PseudoPot. # 2 for Hg read from file:
     /home/users/vossj/suncat/psp/gbrv1.5pbe/Hg.UPF
     MD5 check sum: 8f42caffe07f7fd9c0a564347f8c5498
     Pseudo is Ultrasoft + core correction, Zval = 12.0
     Generated by new atomic code, or converted to UPF format
     Using radial grid of  985 points,  6 beta functions with:
                l(1) =   0
                l(2) =   0
                l(3) =   1
                l(4) =   1
                l(5) =   2
                l(6) =   2
     Q(r) pseudized with  8 coefficients,  rinner =    2.000   2.000   2.000
                                                       2.000   2.000

     vdW kernel table read from file vdW_kernel_table
     MD5 check sum: 095c7af220d748ca6e76c0b4c6cfb241

     atomic species   valence    mass     pseudopotential
        La1           11.00   138.90550     La( 1.00)
        Hg1           12.00   200.59000     Hg( 1.00)

     16 Sym. Ops., with inversion, found

   Cartesian axes

     site n.     atom                  positions (alat units)
         1           La1 tau(   1) = (   0.0000000   0.0000000   0.0000000  )
         2           La1 tau(   2) = (   2.7902975   2.7902975   0.0000000  )
         3           Hg1 tau(   3) = (   2.7902975   0.0000000   1.9819768  )
         4           Hg1 tau(   4) = (   0.0000000   2.7902975   1.9819768  )

     number of k points=    75  Fermi-Dirac smearing, width (Ry)=  0.0073
                       cart. coord. in units 2pi/alat
        k(    1) = (   0.0000000   0.0000000   0.0000000), wk =   0.0027435
        k(    2) = (   0.0000000   0.0000000   0.0280304), wk =   0.0054870
        k(    3) = (   0.0000000   0.0000000   0.0560608), wk =   0.0054870
        k(    4) = (   0.0000000   0.0000000   0.0840911), wk =   0.0054870
        k(    5) = (   0.0000000   0.0000000   0.1121215), wk =   0.0054870
        k(    6) = (   0.0000000   0.0199103   0.0000000), wk =   0.0109739
        k(    7) = (   0.0000000   0.0199103   0.0280304), wk =   0.0219479
        k(    8) = (   0.0000000   0.0199103   0.0560608), wk =   0.0219479
        k(    9) = (   0.0000000   0.0199103   0.0840911), wk =   0.0219479
        k(   10) = (   0.0000000   0.0199103   0.1121215), wk =   0.0219479
        k(   11) = (   0.0000000   0.0398205   0.0000000), wk =   0.0109739
        k(   12) = (   0.0000000   0.0398205   0.0280304), wk =   0.0219479
        k(   13) = (   0.0000000   0.0398205   0.0560608), wk =   0.0219479
        k(   14) = (   0.0000000   0.0398205   0.0840911), wk =   0.0219479
        k(   15) = (   0.0000000   0.0398205   0.1121215), wk =   0.0219479
        k(   16) = (   0.0000000   0.0597308   0.0000000), wk =   0.0109739
        k(   17) = (   0.0000000   0.0597308   0.0280304), wk =   0.0219479
        k(   18) = (   0.0000000   0.0597308   0.0560608), wk =   0.0219479
        k(   19) = (   0.0000000   0.0597308   0.0840911), wk =   0.0219479
        k(   20) = (   0.0000000   0.0597308   0.1121215), wk =   0.0219479
        k(   21) = (   0.0000000   0.0796411   0.0000000), wk =   0.0109739
        k(   22) = (   0.0000000   0.0796411   0.0280304), wk =   0.0219479
        k(   23) = (   0.0000000   0.0796411   0.0560608), wk =   0.0219479
        k(   24) = (   0.0000000   0.0796411   0.0840911), wk =   0.0219479
        k(   25) = (   0.0000000   0.0796411   0.1121215), wk =   0.0219479
        k(   26) = (   0.0199103   0.0199103   0.0000000), wk =   0.0109739
        k(   27) = (   0.0199103   0.0199103   0.0280304), wk =   0.0219479
        k(   28) = (   0.0199103   0.0199103   0.0560608), wk =   0.0219479
        k(   29) = (   0.0199103   0.0199103   0.0840911), wk =   0.0219479
        k(   30) = (   0.0199103   0.0199103   0.1121215), wk =   0.0219479
        k(   31) = (   0.0199103   0.0398205   0.0000000), wk =   0.0219479
        k(   32) = (   0.0199103   0.0398205   0.0280304), wk =   0.0438957
        k(   33) = (   0.0199103   0.0398205   0.0560608), wk =   0.0438957
        k(   34) = (   0.0199103   0.0398205   0.0840911), wk =   0.0438957
        k(   35) = (   0.0199103   0.0398205   0.1121215), wk =   0.0438957
        k(   36) = (   0.0199103   0.0597308   0.0000000), wk =   0.0219479
        k(   37) = (   0.0199103   0.0597308   0.0280304), wk =   0.0438957
        k(   38) = (   0.0199103   0.0597308   0.0560608), wk =   0.0438957
        k(   39) = (   0.0199103   0.0597308   0.0840911), wk =   0.0438957
        k(   40) = (   0.0199103   0.0597308   0.1121215), wk =   0.0438957
        k(   41) = (   0.0199103   0.0796411   0.0000000), wk =   0.0219479
        k(   42) = (   0.0199103   0.0796411   0.0280304), wk =   0.0438957
        k(   43) = (   0.0199103   0.0796411   0.0560608), wk =   0.0438957
        k(   44) = (   0.0199103   0.0796411   0.0840911), wk =   0.0438957
        k(   45) = (   0.0199103   0.0796411   0.1121215), wk =   0.0438957
        k(   46) = (   0.0398205   0.0398205   0.0000000), wk =   0.0109739
        k(   47) = (   0.0398205   0.0398205   0.0280304), wk =   0.0219479
        k(   48) = (   0.0398205   0.0398205   0.0560608), wk =   0.0219479
        k(   49) = (   0.0398205   0.0398205   0.0840911), wk =   0.0219479
        k(   50) = (   0.0398205   0.0398205   0.1121215), wk =   0.0219479
        k(   51) = (   0.0398205   0.0597308   0.0000000), wk =   0.0219479
        k(   52) = (   0.0398205   0.0597308   0.0280304), wk =   0.0438957
        k(   53) = (   0.0398205   0.0597308   0.0560608), wk =   0.0438957
        k(   54) = (   0.0398205   0.0597308   0.0840911), wk =   0.0438957
        k(   55) = (   0.0398205   0.0597308   0.1121215), wk =   0.0438957
        k(   56) = (   0.0398205   0.0796411   0.0000000), wk =   0.0219479
        k(   57) = (   0.0398205   0.0796411   0.0280304), wk =   0.0438957
        k(   58) = (   0.0398205   0.0796411   0.0560608), wk =   0.0438957
        k(   59) = (   0.0398205   0.0796411   0.0840911), wk =   0.0438957
        k(   60) = (   0.0398205   0.0796411   0.1121215), wk =   0.0438957
        k(   61) = (   0.0597308   0.0597308   0.0000000), wk =   0.0109739
        k(   62) = (   0.0597308   0.0597308   0.0280304), wk =   0.0219479
        k(   63) = (   0.0597308   0.0597308   0.0560608), wk =   0.0219479
        k(   64) = (   0.0597308   0.0597308   0.0840911), wk =   0.0219479
        k(   65) = (   0.0597308   0.0597308   0.1121215), wk =   0.0219479
        k(   66) = (   0.0597308   0.0796411   0.0000000), wk =   0.0219479
        k(   67) = (   0.0597308   0.0796411   0.0280304), wk =   0.0438957
        k(   68) = (   0.0597308   0.0796411   0.0560608), wk =   0.0438957
        k(   69) = (   0.0597308   0.0796411   0.0840911), wk =   0.0438957
        k(   70) = (   0.0597308   0.0796411   0.1121215), wk =   0.0438957
        k(   71) = (   0.0796411   0.0796411   0.0000000), wk =   0.0109739
        k(   72) = (   0.0796411   0.0796411   0.0280304), wk =   0.0219479
        k(   73) = (   0.0796411   0.0796411   0.0560608), wk =   0.0219479
        k(   74) = (   0.0796411   0.0796411   0.0840911), wk =   0.0219479
        k(   75) = (   0.0796411   0.0796411   0.1121215), wk =   0.0219479

     Largest allocated arrays     est. size (Mb)     dimensions
     Largest temporary arrays     est. size (Mb)     dimensions

     Initial potential from superposition of free atoms
     Check: negative starting charge=   -0.141167

     starting charge   45.93575, renormalised to   46.00000

     negative rho (up, down):  1.414E-01 0.000E+00

     *
     * You are using vdW-DF for exchange-correlation in this calculation.
     * Please cite the following three references that made this development
     * possible:
     *
     *   M. Dion, H. Rydberg, E. Schroder, D. C. Langreth, and
     *   B. I. Lundqvist, Phys. Rev. Lett. 92, 246401 (2004).
     *
     *   T. Thonhauser, V. R. Cooper, S. Li, A. Puzder, P. Hyldgaard, and
     *   D. C. Langreth, Phys. Rev. B 76, 125112 (2007).
     *
     *   G. Roman-Perez and J. M. Soler, Phys. Rev. Lett. 103, 096102 (2009).
     *
     *
     * If you are using vdW-DF2, please also cite:
     *
     *   K. Lee, E. D. Murray, L. Kong, B. I. Lundqvist, and
     *   D. C. Langreth, Phys. Rev. B 82, 081101(R) (2010).
     *
     *
     * If you are calculating the stress with vdW-DF, please also cite:
     *
     *   R. Sabatini, E. Kucukbenli, B. Kolb, T. Thonhauser, and
     *   S. de Gironcoli, J. Phys.: Condens. Matter 24, 424209 (2012).
     *

     Carrying out vdW-DF run using the following parameters:

     Nqs =      20    Nr_points =    1024   r_max =   100.000
     q_mesh =
               0.00001000     0.04494208     0.09755937     0.15916263
               0.23128650     0.31572767     0.41458969     0.53033537
               0.66584808     0.82450364     1.01025438     1.22772762
               1.48234092     1.78043706     2.12944203     2.53805004
               3.01644009     3.57652955     4.23227104     5.00000000

     Gradients computed in reciprocal space

     Starting wfc are   58 randomized atomic wfcs

     Self-consistent Calculation

     iteration #  1     ecut=    58.80 Ry     beta=0.10
     Davidson diagonalization with overlap
     ethr =  1.00E-02,  avg # of iterations =  2.0

     Threshold (ethr) on eigenvalues was too large:
     Diagonalizing with lowered threshold

     Davidson diagonalization with overlap
     ethr =  4.37E-04,  avg # of iterations =  3.7

[...]

     total energy              =    -426.44917820 Ry
     Harris-Foulkes estimate   =    -426.48846177 Ry
     estimated scf accuracy    <       0.22357407 Ry

[...]

     total energy              =    -426.43652014 Ry
     Harris-Foulkes estimate   =    -426.43647912 Ry
     estimated scf accuracy    <       0.00000561 Ry

     iteration # 12     ecut=    58.80 Ry     beta=0.10
     Davidson diagonalization with overlap
     ethr =  1.22E-08,  avg # of iterations =  2.9

     negative rho (up, down):  1.004E-01 0.000E+00

     End of self-consistent calculation

          k = 0.0000 0.0000 0.0000 (  6343 PWs)   bands (ev):

   -22.3002 -22.2315  -6.0691  -6.0691  -5.6644  -5.6549  -5.6549  -5.5726
     3.6829   3.6843   3.7138   3.7976   3.8563   3.8563   4.0160   4.0160
     4.0208   4.2862   4.5334   6.6192  11.1768  11.1862  11.4529  11.4529
    11.7442  12.4728  12.4741  12.4825  12.4825  12.5231  12.5231  12.5533
    12.5578  12.5578  12.7336  12.8045  12.8363  12.9990  12.9990  13.8976
    13.8976  15.1114  15.1116

[...]

          k = 0.0796 0.0796 0.1121 (  6356 PWs)   bands (ev):

   -22.2353 -22.2331  -6.0735  -6.0624  -6.0516  -6.0474  -5.5821  -5.5690
     3.7299   3.7304   3.7990   3.8116   3.8672   3.8685   3.8702   3.8763
     4.2638   4.2730   6.5957   6.6188  11.0482  11.1322  11.3647  11.4658
    11.9090  11.9901  12.4632  12.4778  12.5093  12.5102  12.5121  12.5222
    12.7928  12.7959  12.8330  12.8450  12.9237  12.9376  12.9615  12.9777
    13.8364  13.9611  14.0479

     the Fermi energy is    11.2455 ev

!    total energy              =    -426.43670944 Ry
     Harris-Foulkes estimate   =    -426.43652108 Ry
     estimated scf accuracy    <       0.00000030 Ry

     The total energy is the sum of the following terms:

     one-electron contribution =     -39.01145439 Ry
     hartree contribution      =      52.98740710 Ry
     xc contribution           =    -182.34840839 Ry
     ewald contribution        =    -258.05103701 Ry
     smearing contrib. (-TS)   =      -0.01321673 Ry

     convergence has been achieved in  12 iterations

     Forces acting on atoms (Ry/au):

     negative rho (up, down):  1.004E-01 0.000E+00
     atom    1 type  1   force =     0.00000000    0.00000000    0.00000000
     atom    2 type  1   force =     0.00000000    0.00000000    0.00000000
     atom    3 type  2   force =     0.00000000    0.00000000    0.00000000
     atom    4 type  2   force =     0.00000000    0.00000000    0.00000000

     Total force =     0.000000     Total SCF correction =     0.000000

     General routines

     Parallel routines

   This run was terminated on:  14:40:24  14Nov2017

   JOB DONE.