     Program PWSCF v.5.1rc2 starts on 14Nov2017 at 13:58:33

     Current dimensions of program PWSCF are:
     Max number of different atomic species (ntypx) = 10
     Max number of k-points (npk) =  40000
     Max angular momentum in pseudopotentials (lmaxx) =  3

     IMPORTANT: XC functional enforced from input :
     Exchange-correlation      = BEEF-VDW ( 1  4 27 13 2)
     Any further DFT definition will be discarded
     Please, verify this is what you really want

     Found symmetry operation: I + ( -0.5000 -0.5000  0.0000)
     This is a supercell, fractional translations are disabled

     Generating pointlists ...
     new r_m :   0.4125 (alat units)  0.7795 (a.u.) for type    1
     new r_m :   0.4125 (alat units)  0.7795 (a.u.) for type    2

     bravais-lattice index     =            0
     lattice parameter (alat)  =       1.8897  a.u.
     unit-cell volume          =     383.8624 (a.u.)^3
     number of atoms/cell      =            4
     number of atomic types    =            2
     number of electrons       =        64.00
     number of Kohn-Sham states=           52
     kinetic-energy cutoff     =      58.7989  Ry
     charge density cutoff     =     587.9892  Ry
     convergence threshold     =      1.0E-06
     mixing beta               =       0.1000
     number of iterations used =           10  plain     mixing
     Exchange-correlation      = BEEF-VDW ( 1  4 27 13 2)

     celldm(1)=   1.889726  celldm(2)=   0.000000  celldm(3)=   0.000000
     celldm(4)=   0.000000  celldm(5)=   0.000000  celldm(6)=   0.000000

     crystal axes: (cart. coord. in units of alat)
               a(1) = (   3.881922   0.000000   0.000000 )
               a(2) = (   0.000000   3.881922   0.000000 )
               a(3) = (   0.000000   0.000000   3.774725 )

     reciprocal axes: (cart. coord. in units 2 pi/alat)
               b(1) = (  0.257604  0.000000  0.000000 )
               b(2) = (  0.000000  0.257604  0.000000 )
               b(3) = (  0.000000  0.000000  0.264920 )

     PseudoPot. # 1 for Fe read from file:
     /home/users/vossj/suncat/psp/gbrv1.5pbe/Fe.UPF
     MD5 check sum: a130daea23fe5165f5d574ae7f82ed95
     Pseudo is Ultrasoft + core correction, Zval = 16.0
     Generated by new atomic code, or converted to UPF format
     Using radial grid of  861 points,  6 beta functions with:
                l(1) =   0
                l(2) =   0
                l(3) =   1
                l(4) =   1
                l(5) =   2
                l(6) =   2
     Q(r) pseudized with  8 coefficients,  rinner =    1.000   1.000   1.000
                                                       1.000   1.000

     PseudoPot. # 2 for Pt read from file:
     /home/users/vossj/suncat/psp/gbrv1.5pbe/Pt.UPF
     MD5 check sum: f09d6de1a584b5a045c4fc126da2d0c4
     Pseudo is Ultrasoft + core correction, Zval = 16.0
     Generated by new atomic code, or converted to UPF format
     Using radial grid of  985 points,  6 beta functions with:
                l(1) =   0
                l(2) =   0
                l(3) =   1
                l(4) =   1
                l(5) =   2
                l(6) =   2
     Q(r) pseudized with  8 coefficients,  rinner =    1.300   1.300   1.300
                                                       1.300   1.300

     vdW kernel table read from file vdW_kernel_table
     MD5 check sum: 095c7af220d748ca6e76c0b4c6cfb241

     atomic species   valence    mass     pseudopotential
        Fe1           16.00    55.84700     Fe( 1.00)
        Pt1           16.00   195.08000     Pt( 1.00)

     Starting magnetic structure
     atomic species   magnetization
        Fe1          0.125
        Pt1          0.125

     16 Sym. Ops., with inversion, found

   Cartesian axes

     site n.     atom                  positions (alat units)
         1           Fe1 tau(   1) = (   0.0000000   0.0000000   0.0000000  )
         2           Fe1 tau(   2) = (   1.9409611   1.9409611   0.0000000  )
         3           Pt1 tau(   3) = (   1.9409611   0.0000000   1.8873625  )
         4           Pt1 tau(   4) = (   0.0000000   1.9409611   1.8873625  )

     number of k points=   150  Fermi-Dirac smearing, width (Ry)=  0.0073

     Number of k-points >= 100: set verbosity='high' to print them.

     Largest allocated arrays     est. size (Mb)     dimensions
     Largest temporary arrays     est. size (Mb)     dimensions

     Check: negative/imaginary core charge=   -0.000022    0.000000

     Initial potential from superposition of free atoms
     Check: negative starting charge=(component1):   -0.207753
     Check: negative starting charge=(component2):   -0.161586

     starting charge   60.99997, renormalised to   64.00000

     negative rho (up, down):  2.180E-01 1.695E-01

     *
     * You are using vdW-DF for exchange-correlation in this calculation.
     * Please cite the following three references that made this development
     * possible:
     *
     *   M. Dion, H. Rydberg, E. Schroder, D. C. Langreth, and
     *   B. I. Lundqvist, Phys. Rev. Lett. 92, 246401 (2004).
     *
     *   T. Thonhauser, V. R. Cooper, S. Li, A. Puzder, P. Hyldgaard, and
     *   D. C. Langreth, Phys. Rev. B 76, 125112 (2007).
     *
     *   G. Roman-Perez and J. M. Soler, Phys. Rev. Lett. 103, 096102 (2009).
     *
     *
     * If you are using vdW-DF2, please also cite:
     *
     *   K. Lee, E. D. Murray, L. Kong, B. I. Lundqvist, and
     *   D. C. Langreth, Phys. Rev. B 82, 081101(R) (2010).
     *
     *
     * If you are calculating the stress with vdW-DF, please also cite:
     *
     *   R. Sabatini, E. Kucukbenli, B. Kolb, T. Thonhauser, and
     *   S. de Gironcoli, J. Phys.: Condens. Matter 24, 424209 (2012).
     *

     Carrying out vdW-DF run using the following parameters:

     Nqs =      20    Nr_points =    1024   r_max =   100.000
     q_mesh =
               0.00001000     0.04494208     0.09755937     0.15916263
               0.23128650     0.31572767     0.41458969     0.53033537
               0.66584808     0.82450364     1.01025438     1.22772762
               1.48234092     1.78043706     2.12944203     2.53805004
               3.01644009     3.57652955     4.23227104     5.00000000

     Gradients computed in reciprocal space

     Starting wfc are   50 randomized atomic wfcs +    2 random wfc

     Self-consistent Calculation

     iteration #  1     ecut=    58.80 Ry     beta=0.10
     Davidson diagonalization with overlap
     ethr =  1.00E-02,  avg # of iterations =  4.2

[...]

     Magnetic moment per site:
     atom:    1    charge:    7.3638    magn:    0.8515    constr:    0.0000
     atom:    2    charge:    7.3638    magn:    0.8515    constr:    0.0000
     atom:    3    charge:    2.1252    magn:    0.2495    constr:    0.0000
     atom:    4    charge:    2.1252    magn:    0.2495    constr:    0.0000

     total energy              =    -926.62604407 Ry
     Harris-Foulkes estimate   =    -929.87949748 Ry
     estimated scf accuracy    <      18.79514329 Ry

     total magnetization       =     2.32 Bohr mag/cell
     absolute magnetization    =     2.49 Bohr mag/cell

[...]

     total energy              =    -927.56394181 Ry
     Harris-Foulkes estimate   =    -927.56394022 Ry
     estimated scf accuracy    <       0.00000459 Ry

[...]

     iteration # 16     ecut=    58.80 Ry     beta=0.10
     Davidson diagonalization with overlap
     ethr =  7.17E-09,  avg # of iterations =  1.6

     negative rho (up, down):  1.815E-01 1.734E-01

     Magnetic moment per site:
     atom:    1    charge:    7.1010    magn:    1.4587    constr:    0.0000
     atom:    2    charge:    7.1010    magn:    1.4587    constr:    0.0000
     atom:    3    charge:    2.1061    magn:    0.0381    constr:    0.0000
     atom:    4    charge:    2.1061    magn:    0.0381    constr:    0.0000

     End of self-consistent calculation

     Number of k-points >= 100: set verbosity='high' to print the bands.

     the Fermi energy is    18.9585 ev

!    total energy              =    -927.56394787 Ry
     Harris-Foulkes estimate   =    -927.56394262 Ry
     estimated scf accuracy    <       0.00000020 Ry

     The total energy is the sum of the following terms:

     one-electron contribution =    -299.78050448 Ry
     hartree contribution      =     196.29281485 Ry
     xc contribution           =    -178.07317252 Ry
     ewald contribution        =    -645.99623812 Ry
     smearing contrib. (-TS)   =      -0.00684760 Ry

     total magnetization       =     6.70 Bohr mag/cell
     absolute magnetization    =     7.19 Bohr mag/cell

     convergence has been achieved in  16 iterations

     Forces acting on atoms (Ry/au):

     negative rho (up, down):  1.815E-01 1.734E-01
     atom    1 type  1   force =     0.00000000    0.00000000    0.00000000
     atom    2 type  1   force =     0.00000000    0.00000000    0.00000000
     atom    3 type  2   force =     0.00000000    0.00000000    0.00000000
     atom    4 type  2   force =     0.00000000    0.00000000    0.00000000

     Total force =     0.000000     Total SCF correction =     0.000000

     General routines

     Parallel routines

   This run was terminated on:  14: 0: 0  14Nov2017

   JOB DONE.