     Program PWSCF v.5.1rc2 (svn rev. ) starts on 14Nov2017 at 21:49:33

     Current dimensions of program PWSCF are:
     Max number of different atomic species (ntypx) = 10
     Max number of k-points (npk) =  40000
     Max angular momentum in pseudopotentials (lmaxx) =  3

     IMPORTANT: XC functional enforced from input :
     Exchange-correlation      = BEEF-VDW ( 1  4 27 13 2)
     Any further DFT definition will be discarded
     Please, verify this is what you really want

     Subspace diagonalization in iterative solution of the eigenvalue problem:
     a serial algorithm will be used

     Found symmetry operation: I + ( -0.5000 -0.5000  0.0000)
     This is a supercell, fractional translations are disabled

     bravais-lattice index     =            0
     lattice parameter (alat)  =       1.8897  a.u.
     unit-cell volume          =     437.0978 (a.u.)^3
     number of atoms/cell      =            4
     number of atomic types    =            2
     number of electrons       =        52.00
     number of Kohn-Sham states=           46
     kinetic-energy cutoff     =      58.7989  Ry
     charge density cutoff     =     587.9892  Ry
     convergence threshold     =      1.0E-06
     mixing beta               =       0.1000
     number of iterations used =           10  plain     mixing
     Exchange-correlation      = BEEF-VDW ( 1  4 27 13 2)

     celldm(1)=   1.889726  celldm(2)=   0.000000  celldm(3)=   0.000000
     celldm(4)=   0.000000  celldm(5)=   0.000000  celldm(6)=   0.000000

     crystal axes: (cart. coord. in units of alat)
               a(1) = (   3.842066   0.000000   0.000000 )
               a(2) = (   0.000000   3.842066   0.000000 )
               a(3) = (   0.000000   0.000000   4.387857 )

     reciprocal axes: (cart. coord. in units 2 pi/alat)
               b(1) = (  0.260277  0.000000  0.000000 )
               b(2) = (  0.000000  0.260277  0.000000 )
               b(3) = (  0.000000  0.000000  0.227902 )

     PseudoPot. # 1 for Tc read from file:
     /home/vossj/suncat/psp/gbrv1.5pbe/Tc.UPF
     MD5 check sum: 9eb49e5b028550b2339a02317eb7b844
     Pseudo is Ultrasoft + core correction, Zval = 15.0
     Generated by new atomic code, or converted to UPF format
     Using radial grid of  965 points,  6 beta functions with:
                l(1) =   0
                l(2) =   0
                l(3) =   1
                l(4) =   1
                l(5) =   2
                l(6) =   2
     Q(r) pseudized with  8 coefficients,  rinner =    1.300   1.300   1.300
                                                       1.300   1.300

     PseudoPot. # 2 for Au read from file:
     /home/vossj/suncat/psp/gbrv1.5pbe/Au.UPF
     MD5 check sum: 9d7f43293ad2c663164586bc4b293ffc
     Pseudo is Ultrasoft + core correction, Zval = 11.0
     Generated by new atomic code, or converted to UPF format
     Using radial grid of  985 points,  7 beta functions with:
                l(1) =   0
                l(2) =   0
                l(3) =   1
                l(4) =   1
                l(5) =   2
                l(6) =   2
                l(7) =   3
     Q(r) pseudized with  6 coefficients,  rinner =    1.900   1.900   1.900
                                                       1.900   1.900   1.900
                                                       1.900

     vdW kernel table read from file vdW_kernel_table
     MD5 check sum: 095c7af220d748ca6e76c0b4c6cfb241

     atomic species   valence    mass     pseudopotential
        Tc1           15.00    97.90721     Tc( 1.00)
        Au1           11.00   196.96657     Au( 1.00)

     16 Sym. Ops., with inversion, found

   Cartesian axes

     site n.     atom                  positions (alat units)
         1           Tc1 tau(   1) = (   0.0000000   0.0000000   0.0000000  )
         2           Tc1 tau(   2) = (   1.9210329   1.9210329   0.0000000  )
         3           Au1 tau(   3) = (   1.9210329   0.0000000   2.1939284  )
         4           Au1 tau(   4) = (   0.0000000   1.9210329   2.1939284  )

     number of k points=    75  Fermi-Dirac smearing, width (Ry)=  0.0073
                       cart. coord. in units 2pi/alat
        k(    1) = (   0.0000000   0.0000000   0.0000000), wk =   0.0027435
        k(    2) = (   0.0000000   0.0000000   0.0253224), wk =   0.0054870
        k(    3) = (   0.0000000   0.0000000   0.0506448), wk =   0.0054870
        k(    4) = (   0.0000000   0.0000000   0.0759672), wk =   0.0054870
        k(    5) = (   0.0000000   0.0000000   0.1012896), wk =   0.0054870
        k(    6) = (   0.0000000   0.0289196   0.0000000), wk =   0.0109739
        k(    7) = (   0.0000000   0.0289196   0.0253224), wk =   0.0219479
        k(    8) = (   0.0000000   0.0289196   0.0506448), wk =   0.0219479
        k(    9) = (   0.0000000   0.0289196   0.0759672), wk =   0.0219479
        k(   10) = (   0.0000000   0.0289196   0.1012896), wk =   0.0219479
        k(   11) = (   0.0000000   0.0578393   0.0000000), wk =   0.0109739
        k(   12) = (   0.0000000   0.0578393   0.0253224), wk =   0.0219479
        k(   13) = (   0.0000000   0.0578393   0.0506448), wk =   0.0219479
        k(   14) = (   0.0000000   0.0578393   0.0759672), wk =   0.0219479
        k(   15) = (   0.0000000   0.0578393   0.1012896), wk =   0.0219479
        k(   16) = (   0.0000000   0.0867589   0.0000000), wk =   0.0109739
        k(   17) = (   0.0000000   0.0867589   0.0253224), wk =   0.0219479
        k(   18) = (   0.0000000   0.0867589   0.0506448), wk =   0.0219479
        k(   19) = (   0.0000000   0.0867589   0.0759672), wk =   0.0219479
        k(   20) = (   0.0000000   0.0867589   0.1012896), wk =   0.0219479
        k(   21) = (   0.0000000   0.1156785   0.0000000), wk =   0.0109739
        k(   22) = (   0.0000000   0.1156785   0.0253224), wk =   0.0219479
        k(   23) = (   0.0000000   0.1156785   0.0506448), wk =   0.0219479
        k(   24) = (   0.0000000   0.1156785   0.0759672), wk =   0.0219479
        k(   25) = (   0.0000000   0.1156785   0.1012896), wk =   0.0219479
        k(   26) = (   0.0289196   0.0289196   0.0000000), wk =   0.0109739
        k(   27) = (   0.0289196   0.0289196   0.0253224), wk =   0.0219479
        k(   28) = (   0.0289196   0.0289196   0.0506448), wk =   0.0219479
        k(   29) = (   0.0289196   0.0289196   0.0759672), wk =   0.0219479
        k(   30) = (   0.0289196   0.0289196   0.1012896), wk =   0.0219479
        k(   31) = (   0.0289196   0.0578393   0.0000000), wk =   0.0219479
        k(   32) = (   0.0289196   0.0578393   0.0253224), wk =   0.0438957
        k(   33) = (   0.0289196   0.0578393   0.0506448), wk =   0.0438957
        k(   34) = (   0.0289196   0.0578393   0.0759672), wk =   0.0438957
        k(   35) = (   0.0289196   0.0578393   0.1012896), wk =   0.0438957
        k(   36) = (   0.0289196   0.0867589   0.0000000), wk =   0.0219479
        k(   37) = (   0.0289196   0.0867589   0.0253224), wk =   0.0438957
        k(   38) = (   0.0289196   0.0867589   0.0506448), wk =   0.0438957
        k(   39) = (   0.0289196   0.0867589   0.0759672), wk =   0.0438957
        k(   40) = (   0.0289196   0.0867589   0.1012896), wk =   0.0438957
        k(   41) = (   0.0289196   0.1156785   0.0000000), wk =   0.0219479
        k(   42) = (   0.0289196   0.1156785   0.0253224), wk =   0.0438957
        k(   43) = (   0.0289196   0.1156785   0.0506448), wk =   0.0438957
        k(   44) = (   0.0289196   0.1156785   0.0759672), wk =   0.0438957
        k(   45) = (   0.0289196   0.1156785   0.1012896), wk =   0.0438957
        k(   46) = (   0.0578393   0.0578393   0.0000000), wk =   0.0109739
        k(   47) = (   0.0578393   0.0578393   0.0253224), wk =   0.0219479
        k(   48) = (   0.0578393   0.0578393   0.0506448), wk =   0.0219479
        k(   49) = (   0.0578393   0.0578393   0.0759672), wk =   0.0219479
        k(   50) = (   0.0578393   0.0578393   0.1012896), wk =   0.0219479
        k(   51) = (   0.0578393   0.0867589   0.0000000), wk =   0.0219479
        k(   52) = (   0.0578393   0.0867589   0.0253224), wk =   0.0438957
        k(   53) = (   0.0578393   0.0867589   0.0506448), wk =   0.0438957
        k(   54) = (   0.0578393   0.0867589   0.0759672), wk =   0.0438957
        k(   55) = (   0.0578393   0.0867589   0.1012896), wk =   0.0438957
        k(   56) = (   0.0578393   0.1156785   0.0000000), wk =   0.0219479
        k(   57) = (   0.0578393   0.1156785   0.0253224), wk =   0.0438957
        k(   58) = (   0.0578393   0.1156785   0.0506448), wk =   0.0438957
        k(   59) = (   0.0578393   0.1156785   0.0759672), wk =   0.0438957
        k(   60) = (   0.0578393   0.1156785   0.1012896), wk =   0.0438957
        k(   61) = (   0.0867589   0.0867589   0.0000000), wk =   0.0109739
        k(   62) = (   0.0867589   0.0867589   0.0253224), wk =   0.0219479
        k(   63) = (   0.0867589   0.0867589   0.0506448), wk =   0.0219479
        k(   64) = (   0.0867589   0.0867589   0.0759672), wk =   0.0219479
        k(   65) = (   0.0867589   0.0867589   0.1012896), wk =   0.0219479
        k(   66) = (   0.0867589   0.1156785   0.0000000), wk =   0.0219479
        k(   67) = (   0.0867589   0.1156785   0.0253224), wk =   0.0438957
        k(   68) = (   0.0867589   0.1156785   0.0506448), wk =   0.0438957
        k(   69) = (   0.0867589   0.1156785   0.0759672), wk =   0.0438957
        k(   70) = (   0.0867589   0.1156785   0.1012896), wk =   0.0438957
        k(   71) = (   0.1156785   0.1156785   0.0000000), wk =   0.0109739
        k(   72) = (   0.1156785   0.1156785   0.0253224), wk =   0.0219479
        k(   73) = (   0.1156785   0.1156785   0.0506448), wk =   0.0219479
        k(   74) = (   0.1156785   0.1156785   0.0759672), wk =   0.0219479
        k(   75) = (   0.1156785   0.1156785   0.1012896), wk =   0.0219479

     Largest allocated arrays     est. size (Mb)     dimensions
     Largest temporary arrays     est. size (Mb)     dimensions

     Check: negative/imaginary core charge=   -0.000003    0.000000

     Initial potential from superposition of free atoms
     Check: negative starting charge=   -0.249984

     starting charge   49.99970, renormalised to   52.00000

     negative rho (up, down):  2.600E-01 0.000E+00

     *
     * You are using vdW-DF for exchange-correlation in this calculation.
     * Please cite the following three references that made this development
     * possible:
     *
     *   M. Dion, H. Rydberg, E. Schroder, D. C. Langreth, and
     *   B. I. Lundqvist, Phys. Rev. Lett. 92, 246401 (2004).
     *
     *   T. Thonhauser, V. R. Cooper, S. Li, A. Puzder, P. Hyldgaard, and
     *   D. C. Langreth, Phys. Rev. B 76, 125112 (2007).
     *
     *   G. Roman-Perez and J. M. Soler, Phys. Rev. Lett. 103, 096102 (2009).
     *
     *
     * If you are using vdW-DF2, please also cite:
     *
     *   K. Lee, E. D. Murray, L. Kong, B. I. Lundqvist, and
     *   D. C. Langreth, Phys. Rev. B 82, 081101(R) (2010).
     *
     *
     * If you are calculating the stress with vdW-DF, please also cite:
     *
     *   R. Sabatini, E. Kucukbenli, B. Kolb, T. Thonhauser, and
     *   S. de Gironcoli, J. Phys.: Condens. Matter 24, 424209 (2012).
     *

     Carrying out vdW-DF run using the following parameters:

     Nqs =      20    Nr_points =    1024   r_max =   100.000
     q_mesh =
               0.00001000     0.04494208     0.09755937     0.15916263
               0.23128650     0.31572767     0.41458969     0.53033537
               0.66584808     0.82450364     1.01025438     1.22772762
               1.48234092     1.78043706     2.12944203     2.53805004
               3.01644009     3.57652955     4.23227104     5.00000000

     Gradients computed in reciprocal space

     Starting wfc are   44 randomized atomic wfcs +    2 random wfc

     Self-consistent Calculation

     iteration #  1     ecut=    58.80 Ry     beta=0.10
     Davidson diagonalization with overlap
     ethr =  1.00E-02,  avg # of iterations =  5.0

[...]

     total energy              =    -583.97192995 Ry
     Harris-Foulkes estimate   =    -584.69704087 Ry
     estimated scf accuracy    <       4.29603002 Ry

[...]

     iteration #  5     ecut=    58.80 Ry     beta=0.10
     Davidson diagonalization with overlap
     c_bands:  1 eigenvalues not converged
     ethr =  2.20E-05,  avg # of iterations =  7.8

[...]

     total energy              =    -583.97141343 Ry
     Harris-Foulkes estimate   =    -583.97141444 Ry
     estimated scf accuracy    <       0.00000398 Ry

     iteration # 12     ecut=    58.80 Ry     beta=0.10
     Davidson diagonalization with overlap
     ethr =  7.66E-09,  avg # of iterations =  1.3

     negative rho (up, down):  2.585E-01 0.000E+00

     End of self-consistent calculation

          k = 0.0000 0.0000 0.0000 (  3325 PWs)   bands (ev):

   -49.1117 -48.9635 -21.3308 -21.3308 -21.0997 -20.9524 -20.7414 -20.7414
     9.0469  10.8745  11.1835  11.4049  11.7193  11.7193  11.9510  14.2111
    14.2111  14.7092  15.4713  15.9325  16.7203  16.7528  18.1496  18.1496
    18.6868  19.1893  19.3124  19.3124  19.9781  20.9563  20.9563  21.4695
    25.5128  26.1772  27.2951  29.2789  29.4183  29.4183  30.3923  30.7874
    30.7874  32.5674  35.0183  36.5464  37.6227  37.6837

[...]

          k = 0.1157 0.1157 0.1013 (  3367 PWs)   bands (ev):

   -49.0388 -49.0344 -21.4133 -21.3961 -21.0290 -21.0244 -20.7025 -20.6841
    11.0496  11.1539  11.3900  11.3996  12.8193  12.8492  13.7310  13.8969
    14.4359  14.5107  15.3474  15.4911  16.4258  17.0216  17.3825  17.6122
    17.6498  18.3571  18.4487  19.2705  19.3343  19.3517  19.6075  19.7639
    22.9146  23.2557  26.4294  26.6727  31.1278  31.2307  31.7354  31.8689
    35.6542  35.8740  36.1505  36.5017  36.5462  36.8791

     the Fermi energy is    18.2392 ev

!    total energy              =    -583.97141470 Ry
     Harris-Foulkes estimate   =    -583.97141401 Ry
     estimated scf accuracy    <       0.00000021 Ry

     The total energy is the sum of the following terms:

     one-electron contribution =     -48.11327754 Ry
     hartree contribution      =      70.77367932 Ry
     xc contribution           =    -194.33880522 Ry
     ewald contribution        =    -412.28451600 Ry
     smearing contrib. (-TS)   =      -0.00849527 Ry

     convergence has been achieved in  12 iterations

     Forces acting on atoms (Ry/au):

     negative rho (up, down):  2.585E-01 0.000E+00
     atom    1 type  1   force =     0.00000000    0.00000000    0.00000000
     atom    2 type  1   force =     0.00000000    0.00000000    0.00000000
     atom    3 type  2   force =     0.00000000    0.00000000    0.00000000
     atom    4 type  2   force =     0.00000000    0.00000000    0.00000000

     Total force =     0.000000     Total SCF correction =     0.000000

     General routines

     Parallel routines

   This run was terminated on:  21:50:21  14Nov2017

   JOB DONE.