     Program PWSCF v.5.1rc2 starts on 14Nov2017 at 14:29:54

     Current dimensions of program PWSCF are:
     Max number of different atomic species (ntypx) = 10
     Max number of k-points (npk) =  40000
     Max angular momentum in pseudopotentials (lmaxx) =  3

     IMPORTANT: XC functional enforced from input :
     Exchange-correlation      = BEEF-VDW ( 1  4 27 13 2)
     Any further DFT definition will be discarded
     Please, verify this is what you really want

     Found symmetry operation: I + ( -0.5000 -0.5000  0.0000)
     This is a supercell, fractional translations are disabled

     bravais-lattice index     =            0
     lattice parameter (alat)  =       1.8897  a.u.
     unit-cell volume          =     473.3347 (a.u.)^3
     number of atoms/cell      =            4
     number of atomic types    =            2
     number of electrons       =        54.00
     number of Kohn-Sham states=           47
     kinetic-energy cutoff     =      58.7989  Ry
     charge density cutoff     =     587.9892  Ry
     convergence threshold     =      1.0E-06
     mixing beta               =       0.1000
     number of iterations used =           10  plain     mixing
     Exchange-correlation      = BEEF-VDW ( 1  4 27 13 2)

     celldm(1)=   1.889726  celldm(2)=   0.000000  celldm(3)=   0.000000
     celldm(4)=   0.000000  celldm(5)=   0.000000  celldm(6)=   0.000000

     crystal axes: (cart. coord. in units of alat)
               a(1) = (   4.390428   0.000000   0.000000 )
               a(2) = (   0.000000   4.390428   0.000000 )
               a(3) = (   0.000000   0.000000   3.638798 )

     reciprocal axes: (cart. coord. in units 2 pi/alat)
               b(1) = (  0.227768  0.000000  0.000000 )
               b(2) = (  0.000000  0.227768  0.000000 )
               b(3) = (  0.000000  0.000000  0.274816 )

     PseudoPot. # 1 for Hf read from file:
     /home/users/vossj/suncat/psp/gbrv1.5pbe/Hf.UPF
     MD5 check sum: 8ee9378dfe14276e333edf04c5e4aa26
     Pseudo is Ultrasoft + core correction, Zval = 12.0
     Generated by new atomic code, or converted to UPF format
     Using radial grid of  921 points,  8 beta functions with:
                l(1) =   0
                l(2) =   0
                l(3) =   0
                l(4) =   1
                l(5) =   1
                l(6) =   2
                l(7) =   2
                l(8) =   3
     Q(r) pseudized with  6 coefficients,  rinner =    1.200   1.200   1.200
                                                       1.200   1.200   1.200
                                                       1.200

     PseudoPot. # 2 for Ir read from file:
     /home/users/vossj/suncat/psp/gbrv1.5pbe/Ir.UPF
     MD5 check sum: 8836f839c3459d2b385c504ce6d91f2c
     Pseudo is Ultrasoft + core correction, Zval = 15.0
     Generated by new atomic code, or converted to UPF format
     Using radial grid of  983 points,  7 beta functions with:
                l(1) =   0
                l(2) =   0
                l(3) =   1
                l(4) =   1
                l(5) =   1
                l(6) =   2
                l(7) =   2
     Q(r) pseudized with  8 coefficients,  rinner =    1.400   1.400   1.400
                                                       1.400   1.400

     vdW kernel table read from file vdW_kernel_table
     MD5 check sum: 095c7af220d748ca6e76c0b4c6cfb241

     atomic species   valence    mass     pseudopotential
        Hf1           12.00   178.49000     Hf( 1.00)
        Ir1           15.00   192.22000     Ir( 1.00)

     16 Sym. Ops., with inversion, found

   Cartesian axes

     site n.     atom                  positions (alat units)
         1           Hf1 tau(   1) = (   0.0000000   0.0000000   0.0000000  )
         2           Hf1 tau(   2) = (   2.1952141   2.1952141   0.0000000  )
         3           Ir1 tau(   3) = (   2.1952141   0.0000000   1.8193990  )
         4           Ir1 tau(   4) = (   0.0000000   2.1952141   1.8193990  )

     number of k points=    75  Fermi-Dirac smearing, width (Ry)=  0.0073
                       cart. coord. in units 2pi/alat
        k(    1) = (   0.0000000   0.0000000   0.0000000), wk =   0.0027435
        k(    2) = (   0.0000000   0.0000000   0.0305351), wk =   0.0054870
        k(    3) = (   0.0000000   0.0000000   0.0610702), wk =   0.0054870
        k(    4) = (   0.0000000   0.0000000   0.0916053), wk =   0.0054870
        k(    5) = (   0.0000000   0.0000000   0.1221405), wk =   0.0054870
        k(    6) = (   0.0000000   0.0253076   0.0000000), wk =   0.0109739
        k(    7) = (   0.0000000   0.0253076   0.0305351), wk =   0.0219479
        k(    8) = (   0.0000000   0.0253076   0.0610702), wk =   0.0219479
        k(    9) = (   0.0000000   0.0253076   0.0916053), wk =   0.0219479
        k(   10) = (   0.0000000   0.0253076   0.1221405), wk =   0.0219479
        k(   11) = (   0.0000000   0.0506152   0.0000000), wk =   0.0109739
        k(   12) = (   0.0000000   0.0506152   0.0305351), wk =   0.0219479
        k(   13) = (   0.0000000   0.0506152   0.0610702), wk =   0.0219479
        k(   14) = (   0.0000000   0.0506152   0.0916053), wk =   0.0219479
        k(   15) = (   0.0000000   0.0506152   0.1221405), wk =   0.0219479
        k(   16) = (   0.0000000   0.0759227   0.0000000), wk =   0.0109739
        k(   17) = (   0.0000000   0.0759227   0.0305351), wk =   0.0219479
        k(   18) = (   0.0000000   0.0759227   0.0610702), wk =   0.0219479
        k(   19) = (   0.0000000   0.0759227   0.0916053), wk =   0.0219479
        k(   20) = (   0.0000000   0.0759227   0.1221405), wk =   0.0219479
        k(   21) = (   0.0000000   0.1012303   0.0000000), wk =   0.0109739
        k(   22) = (   0.0000000   0.1012303   0.0305351), wk =   0.0219479
        k(   23) = (   0.0000000   0.1012303   0.0610702), wk =   0.0219479
        k(   24) = (   0.0000000   0.1012303   0.0916053), wk =   0.0219479
        k(   25) = (   0.0000000   0.1012303   0.1221405), wk =   0.0219479
        k(   26) = (   0.0253076   0.0253076   0.0000000), wk =   0.0109739
        k(   27) = (   0.0253076   0.0253076   0.0305351), wk =   0.0219479
        k(   28) = (   0.0253076   0.0253076   0.0610702), wk =   0.0219479
        k(   29) = (   0.0253076   0.0253076   0.0916053), wk =   0.0219479
        k(   30) = (   0.0253076   0.0253076   0.1221405), wk =   0.0219479
        k(   31) = (   0.0253076   0.0506152   0.0000000), wk =   0.0219479
        k(   32) = (   0.0253076   0.0506152   0.0305351), wk =   0.0438957
        k(   33) = (   0.0253076   0.0506152   0.0610702), wk =   0.0438957
        k(   34) = (   0.0253076   0.0506152   0.0916053), wk =   0.0438957
        k(   35) = (   0.0253076   0.0506152   0.1221405), wk =   0.0438957
        k(   36) = (   0.0253076   0.0759227   0.0000000), wk =   0.0219479
        k(   37) = (   0.0253076   0.0759227   0.0305351), wk =   0.0438957
        k(   38) = (   0.0253076   0.0759227   0.0610702), wk =   0.0438957
        k(   39) = (   0.0253076   0.0759227   0.0916053), wk =   0.0438957
        k(   40) = (   0.0253076   0.0759227   0.1221405), wk =   0.0438957
        k(   41) = (   0.0253076   0.1012303   0.0000000), wk =   0.0219479
        k(   42) = (   0.0253076   0.1012303   0.0305351), wk =   0.0438957
        k(   43) = (   0.0253076   0.1012303   0.0610702), wk =   0.0438957
        k(   44) = (   0.0253076   0.1012303   0.0916053), wk =   0.0438957
        k(   45) = (   0.0253076   0.1012303   0.1221405), wk =   0.0438957
        k(   46) = (   0.0506152   0.0506152   0.0000000), wk =   0.0109739
        k(   47) = (   0.0506152   0.0506152   0.0305351), wk =   0.0219479
        k(   48) = (   0.0506152   0.0506152   0.0610702), wk =   0.0219479
        k(   49) = (   0.0506152   0.0506152   0.0916053), wk =   0.0219479
        k(   50) = (   0.0506152   0.0506152   0.1221405), wk =   0.0219479
        k(   51) = (   0.0506152   0.0759227   0.0000000), wk =   0.0219479
        k(   52) = (   0.0506152   0.0759227   0.0305351), wk =   0.0438957
        k(   53) = (   0.0506152   0.0759227   0.0610702), wk =   0.0438957
        k(   54) = (   0.0506152   0.0759227   0.0916053), wk =   0.0438957
        k(   55) = (   0.0506152   0.0759227   0.1221405), wk =   0.0438957
        k(   56) = (   0.0506152   0.1012303   0.0000000), wk =   0.0219479
        k(   57) = (   0.0506152   0.1012303   0.0305351), wk =   0.0438957
        k(   58) = (   0.0506152   0.1012303   0.0610702), wk =   0.0438957
        k(   59) = (   0.0506152   0.1012303   0.0916053), wk =   0.0438957
        k(   60) = (   0.0506152   0.1012303   0.1221405), wk =   0.0438957
        k(   61) = (   0.0759227   0.0759227   0.0000000), wk =   0.0109739
        k(   62) = (   0.0759227   0.0759227   0.0305351), wk =   0.0219479
        k(   63) = (   0.0759227   0.0759227   0.0610702), wk =   0.0219479
        k(   64) = (   0.0759227   0.0759227   0.0916053), wk =   0.0219479
        k(   65) = (   0.0759227   0.0759227   0.1221405), wk =   0.0219479
        k(   66) = (   0.0759227   0.1012303   0.0000000), wk =   0.0219479
        k(   67) = (   0.0759227   0.1012303   0.0305351), wk =   0.0438957
        k(   68) = (   0.0759227   0.1012303   0.0610702), wk =   0.0438957
        k(   69) = (   0.0759227   0.1012303   0.0916053), wk =   0.0438957
        k(   70) = (   0.0759227   0.1012303   0.1221405), wk =   0.0438957
        k(   71) = (   0.1012303   0.1012303   0.0000000), wk =   0.0109739
        k(   72) = (   0.1012303   0.1012303   0.0305351), wk =   0.0219479
        k(   73) = (   0.1012303   0.1012303   0.0610702), wk =   0.0219479
        k(   74) = (   0.1012303   0.1012303   0.0916053), wk =   0.0219479
        k(   75) = (   0.1012303   0.1012303   0.1221405), wk =   0.0219479

     Largest allocated arrays     est. size (Mb)     dimensions
     Largest temporary arrays     est. size (Mb)     dimensions

     Initial potential from superposition of free atoms
     Check: negative starting charge=   -0.942804

     starting charge   48.99993, renormalised to   54.00000

     negative rho (up, down):  1.039E+00 0.000E+00

     *
     * You are using vdW-DF for exchange-correlation in this calculation.
     * Please cite the following three references that made this development
     * possible:
     *
     *   M. Dion, H. Rydberg, E. Schroder, D. C. Langreth, and
     *   B. I. Lundqvist, Phys. Rev. Lett. 92, 246401 (2004).
     *
     *   T. Thonhauser, V. R. Cooper, S. Li, A. Puzder, P. Hyldgaard, and
     *   D. C. Langreth, Phys. Rev. B 76, 125112 (2007).
     *
     *   G. Roman-Perez and J. M. Soler, Phys. Rev. Lett. 103, 096102 (2009).
     *
     *
     * If you are using vdW-DF2, please also cite:
     *
     *   K. Lee, E. D. Murray, L. Kong, B. I. Lundqvist, and
     *   D. C. Langreth, Phys. Rev. B 82, 081101(R) (2010).
     *
     *
     * If you are calculating the stress with vdW-DF, please also cite:
     *
     *   R. Sabatini, E. Kucukbenli, B. Kolb, T. Thonhauser, and
     *   S. de Gironcoli, J. Phys.: Condens. Matter 24, 424209 (2012).
     *

     Carrying out vdW-DF run using the following parameters:

     Nqs =      20    Nr_points =    1024   r_max =   100.000
     q_mesh =
               0.00001000     0.04494208     0.09755937     0.15916263
               0.23128650     0.31572767     0.41458969     0.53033537
               0.66584808     0.82450364     1.01025438     1.22772762
               1.48234092     1.78043706     2.12944203     2.53805004
               3.01644009     3.57652955     4.23227104     5.00000000

     Gradients computed in reciprocal space

     Starting wfc are   50 randomized atomic wfcs

     Self-consistent Calculation

     iteration #  1     ecut=    58.80 Ry     beta=0.10
     Davidson diagonalization with overlap
     ethr =  1.00E-02,  avg # of iterations =  4.4

[...]

     total energy              =    -689.32244665 Ry
     Harris-Foulkes estimate   =    -691.52536846 Ry
     estimated scf accuracy    <      14.24740584 Ry

[...]

     total energy              =    -688.18110562 Ry
     Harris-Foulkes estimate   =    -688.18110468 Ry
     estimated scf accuracy    <       0.00000378 Ry

     iteration # 12     ecut=    58.80 Ry     beta=0.10
     Davidson diagonalization with overlap
     ethr =  7.00E-09,  avg # of iterations =  2.1

     negative rho (up, down):  8.826E-01 0.000E+00

     End of self-consistent calculation

          k = 0.0000 0.0000 0.0000 (  3613 PWs)   bands (ev):

   -43.4140 -43.3622 -30.1811 -30.1811 -30.0929 -30.0929 -30.0637 -30.0438
   -12.1808 -12.1808 -11.9238 -11.8302 -11.7396 -11.7396  10.2934  13.4487
    13.4872  13.6913  13.9280  14.6320  14.6320  16.6942  16.6942  17.6384
    19.0974  19.8787  20.1553  20.4949  20.4949  21.5535  23.2837  24.1708
    24.4077  24.4077  24.5985  24.5985  24.6560  25.8687  28.2303  28.2303
    29.4668  29.9418  30.3469  30.3469  30.4146  30.4409  30.7259

[...]

          k = 0.1012 0.1012 0.1221 (  3600 PWs)   bands (ev):

   -43.3861 -43.3845 -30.1895 -30.1869 -30.0860 -30.0834 -30.0691 -30.0687
   -12.2295 -12.2165 -11.9720 -11.9683 -11.7076 -11.6934  13.2773  13.3438
    13.5708  13.5950  15.9133  15.9862  16.1006  16.1593  17.3368  17.3605
    18.4705  19.1172  19.3758  19.4666  19.6822  20.1610  20.5717  20.6102
    23.8807  24.0827  24.5903  24.5988  24.6090  24.8794  28.5467  28.5794
    28.8943  29.1952  30.4297  30.4310  31.2983  31.3422  31.4464

     the Fermi energy is    19.2817 ev

!    total energy              =    -688.18111701 Ry
     Harris-Foulkes estimate   =    -688.18110626 Ry
     estimated scf accuracy    <       0.00000024 Ry

     The total energy is the sum of the following terms:

     one-electron contribution =     -66.91473197 Ry
     hartree contribution      =      69.54155235 Ry
     xc contribution           =    -259.07293210 Ry
     ewald contribution        =    -431.72678468 Ry
     smearing contrib. (-TS)   =      -0.00822061 Ry

     convergence has been achieved in  12 iterations

     Forces acting on atoms (Ry/au):

     negative rho (up, down):  8.826E-01 0.000E+00
     atom    1 type  1   force =     0.00000000    0.00000000    0.00000000
     atom    2 type  1   force =     0.00000000    0.00000000    0.00000000
     atom    3 type  2   force =     0.00000000    0.00000000    0.00000000
     atom    4 type  2   force =     0.00000000    0.00000000    0.00000000

     Total force =     0.000000     Total SCF correction =     0.000000

     General routines

     Parallel routines

   This run was terminated on:  14:30:46  14Nov2017

   JOB DONE.