     Program PWSCF v.5.1rc2 starts on 14Nov2017 at  1:37:40

     Current dimensions of program PWSCF are:
     Max number of different atomic species (ntypx) = 10
     Max number of k-points (npk) =  40000
     Max angular momentum in pseudopotentials (lmaxx) =  3

     IMPORTANT: XC functional enforced from input :
     Exchange-correlation      = BEEF-VDW ( 1  4 27 13 2)
     Any further DFT definition will be discarded
     Please, verify this is what you really want

     Found symmetry operation: I + ( -0.5000 -0.5000  0.0000)
     This is a supercell, fractional translations are disabled

     bravais-lattice index     =            0
     lattice parameter (alat)  =       1.8897  a.u.
     unit-cell volume          =     466.4522 (a.u.)^3
     number of atoms/cell      =            4
     number of atomic types    =            2
     number of electrons       =        56.00
     number of Kohn-Sham states=           48
     kinetic-energy cutoff     =      58.7989  Ry
     charge density cutoff     =     587.9892  Ry
     convergence threshold     =      1.0E-06
     mixing beta               =       0.1000
     number of iterations used =           10  plain     mixing
     Exchange-correlation      = BEEF-VDW ( 1  4 27 13 2)

     celldm(1)=   1.889726  celldm(2)=   0.000000  celldm(3)=   0.000000
     celldm(4)=   0.000000  celldm(5)=   0.000000  celldm(6)=   0.000000

     crystal axes: (cart. coord. in units of alat)
               a(1) = (   3.923728   0.000000   0.000000 )
               a(2) = (   0.000000   3.923728   0.000000 )
               a(3) = (   0.000000   0.000000   4.489653 )

     reciprocal axes: (cart. coord. in units 2 pi/alat)
               b(1) = (  0.254860  0.000000  0.000000 )
               b(2) = (  0.000000  0.254860  0.000000 )
               b(3) = (  0.000000  0.000000  0.222734 )

     PseudoPot. # 1 for Cd read from file:
     /home/users/vossj/suncat/psp/gbrv1.5pbe/Cd.UPF
     MD5 check sum: 17164a7926edb8e0dc231208abae86a6
     Pseudo is Ultrasoft + core correction, Zval = 12.0
     Generated by new atomic code, or converted to UPF format
     Using radial grid of  889 points,  6 beta functions with:
                l(1) =   0
                l(2) =   0
                l(3) =   1
                l(4) =   1
                l(5) =   2
                l(6) =   2
     Q(r) pseudized with  6 coefficients,  rinner =    1.000   1.000   1.000
                                                       1.000   1.000

     PseudoPot. # 2 for Os read from file:
     /home/users/vossj/suncat/psp/gbrv1.5pbe/Os.UPF
     MD5 check sum: a3fb40a04f0c37c25c34bbc47164c9a8
     Pseudo is Ultrasoft + core correction, Zval = 16.0
     Generated by new atomic code, or converted to UPF format
     Using radial grid of  983 points,  8 beta functions with:
                l(1) =   0
                l(2) =   0
                l(3) =   1
                l(4) =   1
                l(5) =   2
                l(6) =   2
                l(7) =   3
                l(8) =   3
     Q(r) pseudized with  8 coefficients,  rinner =    1.150   1.150   1.150
                                                       1.150   1.150   1.150
                                                       1.150

     vdW kernel table read from file vdW_kernel_table
     MD5 check sum: 095c7af220d748ca6e76c0b4c6cfb241

     atomic species   valence    mass     pseudopotential
        Cd1           12.00   112.41000     Cd( 1.00)
        Os1           16.00   190.20000     Os( 1.00)

     16 Sym. Ops., with inversion, found

   Cartesian axes

     site n.     atom                  positions (alat units)
         1           Cd1 tau(   1) = (   0.0000000   0.0000000   0.0000000  )
         2           Cd1 tau(   2) = (   1.9618639   1.9618639   0.0000000  )
         3           Os1 tau(   3) = (   1.9618639   0.0000000   2.2448266  )
         4           Os1 tau(   4) = (   0.0000000   1.9618639   2.2448266  )

     number of k points=    75  Fermi-Dirac smearing, width (Ry)=  0.0073
                       cart. coord. in units 2pi/alat
        k(    1) = (   0.0000000   0.0000000   0.0000000), wk =   0.0027435
        k(    2) = (   0.0000000   0.0000000   0.0247483), wk =   0.0054870
        k(    3) = (   0.0000000   0.0000000   0.0494965), wk =   0.0054870
        k(    4) = (   0.0000000   0.0000000   0.0742448), wk =   0.0054870
        k(    5) = (   0.0000000   0.0000000   0.0989930), wk =   0.0054870
        k(    6) = (   0.0000000   0.0283177   0.0000000), wk =   0.0109739
        k(    7) = (   0.0000000   0.0283177   0.0247483), wk =   0.0219479
        k(    8) = (   0.0000000   0.0283177   0.0494965), wk =   0.0219479
        k(    9) = (   0.0000000   0.0283177   0.0742448), wk =   0.0219479
        k(   10) = (   0.0000000   0.0283177   0.0989930), wk =   0.0219479
        k(   11) = (   0.0000000   0.0566355   0.0000000), wk =   0.0109739
        k(   12) = (   0.0000000   0.0566355   0.0247483), wk =   0.0219479
        k(   13) = (   0.0000000   0.0566355   0.0494965), wk =   0.0219479
        k(   14) = (   0.0000000   0.0566355   0.0742448), wk =   0.0219479
        k(   15) = (   0.0000000   0.0566355   0.0989930), wk =   0.0219479
        k(   16) = (   0.0000000   0.0849532   0.0000000), wk =   0.0109739
        k(   17) = (   0.0000000   0.0849532   0.0247483), wk =   0.0219479
        k(   18) = (   0.0000000   0.0849532   0.0494965), wk =   0.0219479
        k(   19) = (   0.0000000   0.0849532   0.0742448), wk =   0.0219479
        k(   20) = (   0.0000000   0.0849532   0.0989930), wk =   0.0219479
        k(   21) = (   0.0000000   0.1132710   0.0000000), wk =   0.0109739
        k(   22) = (   0.0000000   0.1132710   0.0247483), wk =   0.0219479
        k(   23) = (   0.0000000   0.1132710   0.0494965), wk =   0.0219479
        k(   24) = (   0.0000000   0.1132710   0.0742448), wk =   0.0219479
        k(   25) = (   0.0000000   0.1132710   0.0989930), wk =   0.0219479
        k(   26) = (   0.0283177   0.0283177   0.0000000), wk =   0.0109739
        k(   27) = (   0.0283177   0.0283177   0.0247483), wk =   0.0219479
        k(   28) = (   0.0283177   0.0283177   0.0494965), wk =   0.0219479
        k(   29) = (   0.0283177   0.0283177   0.0742448), wk =   0.0219479
        k(   30) = (   0.0283177   0.0283177   0.0989930), wk =   0.0219479
        k(   31) = (   0.0283177   0.0566355   0.0000000), wk =   0.0219479
        k(   32) = (   0.0283177   0.0566355   0.0247483), wk =   0.0438957
        k(   33) = (   0.0283177   0.0566355   0.0494965), wk =   0.0438957
        k(   34) = (   0.0283177   0.0566355   0.0742448), wk =   0.0438957
        k(   35) = (   0.0283177   0.0566355   0.0989930), wk =   0.0438957
        k(   36) = (   0.0283177   0.0849532   0.0000000), wk =   0.0219479
        k(   37) = (   0.0283177   0.0849532   0.0247483), wk =   0.0438957
        k(   38) = (   0.0283177   0.0849532   0.0494965), wk =   0.0438957
        k(   39) = (   0.0283177   0.0849532   0.0742448), wk =   0.0438957
        k(   40) = (   0.0283177   0.0849532   0.0989930), wk =   0.0438957
        k(   41) = (   0.0283177   0.1132710   0.0000000), wk =   0.0219479
        k(   42) = (   0.0283177   0.1132710   0.0247483), wk =   0.0438957
        k(   43) = (   0.0283177   0.1132710   0.0494965), wk =   0.0438957
        k(   44) = (   0.0283177   0.1132710   0.0742448), wk =   0.0438957
        k(   45) = (   0.0283177   0.1132710   0.0989930), wk =   0.0438957
        k(   46) = (   0.0566355   0.0566355   0.0000000), wk =   0.0109739
        k(   47) = (   0.0566355   0.0566355   0.0247483), wk =   0.0219479
        k(   48) = (   0.0566355   0.0566355   0.0494965), wk =   0.0219479
        k(   49) = (   0.0566355   0.0566355   0.0742448), wk =   0.0219479
        k(   50) = (   0.0566355   0.0566355   0.0989930), wk =   0.0219479
        k(   51) = (   0.0566355   0.0849532   0.0000000), wk =   0.0219479
        k(   52) = (   0.0566355   0.0849532   0.0247483), wk =   0.0438957
        k(   53) = (   0.0566355   0.0849532   0.0494965), wk =   0.0438957
        k(   54) = (   0.0566355   0.0849532   0.0742448), wk =   0.0438957
        k(   55) = (   0.0566355   0.0849532   0.0989930), wk =   0.0438957
        k(   56) = (   0.0566355   0.1132710   0.0000000), wk =   0.0219479
        k(   57) = (   0.0566355   0.1132710   0.0247483), wk =   0.0438957
        k(   58) = (   0.0566355   0.1132710   0.0494965), wk =   0.0438957
        k(   59) = (   0.0566355   0.1132710   0.0742448), wk =   0.0438957
        k(   60) = (   0.0566355   0.1132710   0.0989930), wk =   0.0438957
        k(   61) = (   0.0849532   0.0849532   0.0000000), wk =   0.0109739
        k(   62) = (   0.0849532   0.0849532   0.0247483), wk =   0.0219479
        k(   63) = (   0.0849532   0.0849532   0.0494965), wk =   0.0219479
        k(   64) = (   0.0849532   0.0849532   0.0742448), wk =   0.0219479
        k(   65) = (   0.0849532   0.0849532   0.0989930), wk =   0.0219479
        k(   66) = (   0.0849532   0.1132710   0.0000000), wk =   0.0219479
        k(   67) = (   0.0849532   0.1132710   0.0247483), wk =   0.0438957
        k(   68) = (   0.0849532   0.1132710   0.0494965), wk =   0.0438957
        k(   69) = (   0.0849532   0.1132710   0.0742448), wk =   0.0438957
        k(   70) = (   0.0849532   0.1132710   0.0989930), wk =   0.0438957
        k(   71) = (   0.1132710   0.1132710   0.0000000), wk =   0.0109739
        k(   72) = (   0.1132710   0.1132710   0.0247483), wk =   0.0219479
        k(   73) = (   0.1132710   0.1132710   0.0494965), wk =   0.0219479
        k(   74) = (   0.1132710   0.1132710   0.0742448), wk =   0.0219479
        k(   75) = (   0.1132710   0.1132710   0.0989930), wk =   0.0219479

     Largest allocated arrays     est. size (Mb)     dimensions
     Largest temporary arrays     est. size (Mb)     dimensions

     Initial potential from superposition of free atoms
     Check: negative starting charge=   -0.290801

     starting charge   53.99984, renormalised to   56.00000

     negative rho (up, down):  3.016E-01 0.000E+00

     *
     * You are using vdW-DF for exchange-correlation in this calculation.
     * Please cite the following three references that made this development
     * possible:
     *
     *   M. Dion, H. Rydberg, E. Schroder, D. C. Langreth, and
     *   B. I. Lundqvist, Phys. Rev. Lett. 92, 246401 (2004).
     *
     *   T. Thonhauser, V. R. Cooper, S. Li, A. Puzder, P. Hyldgaard, and
     *   D. C. Langreth, Phys. Rev. B 76, 125112 (2007).
     *
     *   G. Roman-Perez and J. M. Soler, Phys. Rev. Lett. 103, 096102 (2009).
     *
     *
     * If you are using vdW-DF2, please also cite:
     *
     *   K. Lee, E. D. Murray, L. Kong, B. I. Lundqvist, and
     *   D. C. Langreth, Phys. Rev. B 82, 081101(R) (2010).
     *
     *
     * If you are calculating the stress with vdW-DF, please also cite:
     *
     *   R. Sabatini, E. Kucukbenli, B. Kolb, T. Thonhauser, and
     *   S. de Gironcoli, J. Phys.: Condens. Matter 24, 424209 (2012).
     *

     Carrying out vdW-DF run using the following parameters:

     Nqs =      20    Nr_points =    1024   r_max =   100.000
     q_mesh =
               0.00001000     0.04494208     0.09755937     0.15916263
               0.23128650     0.31572767     0.41458969     0.53033537
               0.66584808     0.82450364     1.01025438     1.22772762
               1.48234092     1.78043706     2.12944203     2.53805004
               3.01644009     3.57652955     4.23227104     5.00000000

     Gradients computed in reciprocal space

     Starting wfc are   44 randomized atomic wfcs +    4 random wfc

     Self-consistent Calculation

     iteration #  1     ecut=    58.80 Ry     beta=0.10
     Davidson diagonalization with overlap
     ethr =  1.00E-02,  avg # of iterations =  4.5

     Threshold (ethr) on eigenvalues was too large:
     Diagonalizing with lowered threshold

     Davidson diagonalization with overlap
     ethr =  7.73E-04,  avg # of iterations =  1.1

[...]

     total energy              =    -631.70987693 Ry
     Harris-Foulkes estimate   =    -631.77175981 Ry
     estimated scf accuracy    <       0.43248328 Ry

[...]

     total energy              =    -631.61763560 Ry
     Harris-Foulkes estimate   =    -631.61762723 Ry
     estimated scf accuracy    <       0.00000284 Ry

     iteration # 11     ecut=    58.80 Ry     beta=0.10
     Davidson diagonalization with overlap
     ethr =  5.07E-09,  avg # of iterations =  1.1

     negative rho (up, down):  2.830E-01 0.000E+00

     End of self-consistent calculation

          k = 0.0000 0.0000 0.0000 (  3561 PWs)   bands (ev):

   -68.8199 -68.7743 -28.2905 -28.2905 -28.0677 -27.9817 -27.9111 -27.9111
     7.1382   7.2061   7.5411   7.8672   7.8672   8.0096   8.6097   8.8228
     8.8228   9.1443   9.7052  13.1778  13.4105  13.5373  15.6555  15.6555
    16.6284  16.9119  17.7943  17.7943  18.6062  18.6062  18.9548  20.6107
    22.1124  24.4094  25.0859  25.6045  26.8132  26.8132  27.4218  28.3866
    28.3866  31.7376  32.9840  33.9957  35.0011  35.0011  35.0895  35.1883

[...]

          k = 0.1133 0.1133 0.0990 (  3554 PWs)   bands (ev):

   -68.7976 -68.7963 -28.3367 -28.3256 -28.0261 -28.0235 -27.8881 -27.8763
     7.5660   7.5921   7.6038   7.6281   8.4508   8.5115   8.7169   8.7436
     8.9018   8.9294  12.8203  13.0623  13.5536  13.7498  15.2737  15.3375
    16.0066  16.3935  16.9665  17.1023  17.1306  17.5159  18.0051  18.0751
    21.0734  21.2738  22.8365  23.0734  29.5008  29.5760  30.3636  30.5581
    33.5742  33.5963  33.6137  33.7474  34.1637  34.2330  36.5139  36.8413

     the Fermi energy is    17.4046 ev

!    total energy              =    -631.61767181 Ry
     Harris-Foulkes estimate   =    -631.61763584 Ry
     estimated scf accuracy    <       0.00000046 Ry

     The total energy is the sum of the following terms:

     one-electron contribution =    -100.23026566 Ry
     hartree contribution      =      95.07667294 Ry
     xc contribution           =    -159.20943061 Ry
     ewald contribution        =    -467.24237912 Ry
     smearing contrib. (-TS)   =      -0.01226936 Ry

     convergence has been achieved in  11 iterations

     Forces acting on atoms (Ry/au):

     negative rho (up, down):  2.830E-01 0.000E+00
     atom    1 type  1   force =     0.00000000    0.00000000    0.00000000
     atom    2 type  1   force =     0.00000000    0.00000000    0.00000000
     atom    3 type  2   force =     0.00000000    0.00000000    0.00000000
     atom    4 type  2   force =     0.00000000    0.00000000    0.00000000

     Total force =     0.000000     Total SCF correction =     0.000000

     General routines

     Parallel routines

   This run was terminated on:   1:38:24  14Nov2017

   JOB DONE.