     Program PWSCF v.5.1rc2 starts on 15Nov2017 at  5: 6:47

     Current dimensions of program PWSCF are:
     Max number of different atomic species (ntypx) = 10
     Max number of k-points (npk) =  40000
     Max angular momentum in pseudopotentials (lmaxx) =  3

     IMPORTANT: XC functional enforced from input :
     Exchange-correlation      = BEEF-VDW ( 1  4 27 13 2)
     Any further DFT definition will be discarded
     Please, verify this is what you really want

     Found symmetry operation: I + ( -0.5000 -0.5000  0.0000)
     This is a supercell, fractional translations are disabled

     bravais-lattice index     =            0
     lattice parameter (alat)  =       1.8897  a.u.
     unit-cell volume          =     479.4586 (a.u.)^3
     number of atoms/cell      =            4
     number of atomic types    =            2
     number of electrons       =        58.00
     number of Kohn-Sham states=           49
     kinetic-energy cutoff     =      58.7989  Ry
     charge density cutoff     =     587.9892  Ry
     convergence threshold     =      1.0E-06
     mixing beta               =       0.1000
     number of iterations used =           10  plain     mixing
     Exchange-correlation      = BEEF-VDW ( 1  4 27 13 2)

     celldm(1)=   1.889726  celldm(2)=   0.000000  celldm(3)=   0.000000
     celldm(4)=   0.000000  celldm(5)=   0.000000  celldm(6)=   0.000000

     crystal axes: (cart. coord. in units of alat)
               a(1) = (   4.643837   0.000000   0.000000 )
               a(2) = (   0.000000   4.643837   0.000000 )
               a(3) = (   0.000000   0.000000   3.294584 )

     reciprocal axes: (cart. coord. in units 2 pi/alat)
               b(1) = (  0.215339  0.000000  0.000000 )
               b(2) = (  0.000000  0.215339  0.000000 )
               b(3) = (  0.000000  0.000000  0.303528 )

     PseudoPot. # 1 for Rh read from file:
     /home/users/vossj/suncat/psp/gbrv1.5pbe/Rh.UPF
     MD5 check sum: 761627e959a2e3a1f56b0b5fe687810e
     Pseudo is Ultrasoft + core correction, Zval = 15.0
     Generated by new atomic code, or converted to UPF format
     Using radial grid of  969 points,  7 beta functions with:
                l(1) =   0
                l(2) =   0
                l(3) =   1
                l(4) =   1
                l(5) =   2
                l(6) =   2
                l(7) =   2
     Q(r) pseudized with  8 coefficients,  rinner =    1.200   1.200   1.200
                                                       1.200   1.200

     PseudoPot. # 2 for Sn read from file:
     /home/users/vossj/suncat/psp/gbrv1.5pbe/Sn.UPF
     MD5 check sum: 469debedee59599fedebd795477fea03
     Pseudo is Ultrasoft + core correction, Zval = 14.0
     Generated by new atomic code, or converted to UPF format
     Using radial grid of  891 points,  6 beta functions with:
                l(1) =   0
                l(2) =   0
                l(3) =   1
                l(4) =   1
                l(5) =   2
                l(6) =   2
     Q(r) pseudized with  8 coefficients,  rinner =    1.350   1.350   1.350
                                                       1.350   1.350

     vdW kernel table read from file vdW_kernel_table
     MD5 check sum: 095c7af220d748ca6e76c0b4c6cfb241

     atomic species   valence    mass     pseudopotential
        Rh1           15.00   102.90550     Rh( 1.00)
        Sn1           14.00   118.71000     Sn( 1.00)

     16 Sym. Ops., with inversion, found

   Cartesian axes

     site n.     atom                  positions (alat units)
         1           Rh1 tau(   1) = (   0.0000000   0.0000000   0.0000000  )
         2           Rh1 tau(   2) = (   2.3219185   2.3219185   0.0000000  )
         3           Sn1 tau(   3) = (   2.3219185   0.0000000   1.6472921  )
         4           Sn1 tau(   4) = (   0.0000000   2.3219185   1.6472921  )

     number of k points=    75  Fermi-Dirac smearing, width (Ry)=  0.0073
                       cart. coord. in units 2pi/alat
        k(    1) = (   0.0000000   0.0000000   0.0000000), wk =   0.0027435
        k(    2) = (   0.0000000   0.0000000   0.0337254), wk =   0.0054870
        k(    3) = (   0.0000000   0.0000000   0.0674508), wk =   0.0054870
        k(    4) = (   0.0000000   0.0000000   0.1011761), wk =   0.0054870
        k(    5) = (   0.0000000   0.0000000   0.1349015), wk =   0.0054870
        k(    6) = (   0.0000000   0.0239266   0.0000000), wk =   0.0109739
        k(    7) = (   0.0000000   0.0239266   0.0337254), wk =   0.0219479
        k(    8) = (   0.0000000   0.0239266   0.0674508), wk =   0.0219479
        k(    9) = (   0.0000000   0.0239266   0.1011761), wk =   0.0219479
        k(   10) = (   0.0000000   0.0239266   0.1349015), wk =   0.0219479
        k(   11) = (   0.0000000   0.0478531   0.0000000), wk =   0.0109739
        k(   12) = (   0.0000000   0.0478531   0.0337254), wk =   0.0219479
        k(   13) = (   0.0000000   0.0478531   0.0674508), wk =   0.0219479
        k(   14) = (   0.0000000   0.0478531   0.1011761), wk =   0.0219479
        k(   15) = (   0.0000000   0.0478531   0.1349015), wk =   0.0219479
        k(   16) = (   0.0000000   0.0717797   0.0000000), wk =   0.0109739
        k(   17) = (   0.0000000   0.0717797   0.0337254), wk =   0.0219479
        k(   18) = (   0.0000000   0.0717797   0.0674508), wk =   0.0219479
        k(   19) = (   0.0000000   0.0717797   0.1011761), wk =   0.0219479
        k(   20) = (   0.0000000   0.0717797   0.1349015), wk =   0.0219479
        k(   21) = (   0.0000000   0.0957063   0.0000000), wk =   0.0109739
        k(   22) = (   0.0000000   0.0957063   0.0337254), wk =   0.0219479
        k(   23) = (   0.0000000   0.0957063   0.0674508), wk =   0.0219479
        k(   24) = (   0.0000000   0.0957063   0.1011761), wk =   0.0219479
        k(   25) = (   0.0000000   0.0957063   0.1349015), wk =   0.0219479
        k(   26) = (   0.0239266   0.0239266   0.0000000), wk =   0.0109739
        k(   27) = (   0.0239266   0.0239266   0.0337254), wk =   0.0219479
        k(   28) = (   0.0239266   0.0239266   0.0674508), wk =   0.0219479
        k(   29) = (   0.0239266   0.0239266   0.1011761), wk =   0.0219479
        k(   30) = (   0.0239266   0.0239266   0.1349015), wk =   0.0219479
        k(   31) = (   0.0239266   0.0478531   0.0000000), wk =   0.0219479
        k(   32) = (   0.0239266   0.0478531   0.0337254), wk =   0.0438957
        k(   33) = (   0.0239266   0.0478531   0.0674508), wk =   0.0438957
        k(   34) = (   0.0239266   0.0478531   0.1011761), wk =   0.0438957
        k(   35) = (   0.0239266   0.0478531   0.1349015), wk =   0.0438957
        k(   36) = (   0.0239266   0.0717797   0.0000000), wk =   0.0219479
        k(   37) = (   0.0239266   0.0717797   0.0337254), wk =   0.0438957
        k(   38) = (   0.0239266   0.0717797   0.0674508), wk =   0.0438957
        k(   39) = (   0.0239266   0.0717797   0.1011761), wk =   0.0438957
        k(   40) = (   0.0239266   0.0717797   0.1349015), wk =   0.0438957
        k(   41) = (   0.0239266   0.0957063   0.0000000), wk =   0.0219479
        k(   42) = (   0.0239266   0.0957063   0.0337254), wk =   0.0438957
        k(   43) = (   0.0239266   0.0957063   0.0674508), wk =   0.0438957
        k(   44) = (   0.0239266   0.0957063   0.1011761), wk =   0.0438957
        k(   45) = (   0.0239266   0.0957063   0.1349015), wk =   0.0438957
        k(   46) = (   0.0478531   0.0478531   0.0000000), wk =   0.0109739
        k(   47) = (   0.0478531   0.0478531   0.0337254), wk =   0.0219479
        k(   48) = (   0.0478531   0.0478531   0.0674508), wk =   0.0219479
        k(   49) = (   0.0478531   0.0478531   0.1011761), wk =   0.0219479
        k(   50) = (   0.0478531   0.0478531   0.1349015), wk =   0.0219479
        k(   51) = (   0.0478531   0.0717797   0.0000000), wk =   0.0219479
        k(   52) = (   0.0478531   0.0717797   0.0337254), wk =   0.0438957
        k(   53) = (   0.0478531   0.0717797   0.0674508), wk =   0.0438957
        k(   54) = (   0.0478531   0.0717797   0.1011761), wk =   0.0438957
        k(   55) = (   0.0478531   0.0717797   0.1349015), wk =   0.0438957
        k(   56) = (   0.0478531   0.0957063   0.0000000), wk =   0.0219479
        k(   57) = (   0.0478531   0.0957063   0.0337254), wk =   0.0438957
        k(   58) = (   0.0478531   0.0957063   0.0674508), wk =   0.0438957
        k(   59) = (   0.0478531   0.0957063   0.1011761), wk =   0.0438957
        k(   60) = (   0.0478531   0.0957063   0.1349015), wk =   0.0438957
        k(   61) = (   0.0717797   0.0717797   0.0000000), wk =   0.0109739
        k(   62) = (   0.0717797   0.0717797   0.0337254), wk =   0.0219479
        k(   63) = (   0.0717797   0.0717797   0.0674508), wk =   0.0219479
        k(   64) = (   0.0717797   0.0717797   0.1011761), wk =   0.0219479
        k(   65) = (   0.0717797   0.0717797   0.1349015), wk =   0.0219479
        k(   66) = (   0.0717797   0.0957063   0.0000000), wk =   0.0219479
        k(   67) = (   0.0717797   0.0957063   0.0337254), wk =   0.0438957
        k(   68) = (   0.0717797   0.0957063   0.0674508), wk =   0.0438957
        k(   69) = (   0.0717797   0.0957063   0.1011761), wk =   0.0438957
        k(   70) = (   0.0717797   0.0957063   0.1349015), wk =   0.0438957
        k(   71) = (   0.0957063   0.0957063   0.0000000), wk =   0.0109739
        k(   72) = (   0.0957063   0.0957063   0.0337254), wk =   0.0219479
        k(   73) = (   0.0957063   0.0957063   0.0674508), wk =   0.0219479
        k(   74) = (   0.0957063   0.0957063   0.1011761), wk =   0.0219479
        k(   75) = (   0.0957063   0.0957063   0.1349015), wk =   0.0219479

     Largest allocated arrays     est. size (Mb)     dimensions
     Largest temporary arrays     est. size (Mb)     dimensions

     Initial potential from superposition of free atoms
     Check: negative starting charge=   -0.113167

     starting charge   54.99971, renormalised to   58.00000

     negative rho (up, down):  1.193E-01 0.000E+00

     *
     * You are using vdW-DF for exchange-correlation in this calculation.
     * Please cite the following three references that made this development
     * possible:
     *
     *   M. Dion, H. Rydberg, E. Schroder, D. C. Langreth, and
     *   B. I. Lundqvist, Phys. Rev. Lett. 92, 246401 (2004).
     *
     *   T. Thonhauser, V. R. Cooper, S. Li, A. Puzder, P. Hyldgaard, and
     *   D. C. Langreth, Phys. Rev. B 76, 125112 (2007).
     *
     *   G. Roman-Perez and J. M. Soler, Phys. Rev. Lett. 103, 096102 (2009).
     *
     *
     * If you are using vdW-DF2, please also cite:
     *
     *   K. Lee, E. D. Murray, L. Kong, B. I. Lundqvist, and
     *   D. C. Langreth, Phys. Rev. B 82, 081101(R) (2010).
     *
     *
     * If you are calculating the stress with vdW-DF, please also cite:
     *
     *   R. Sabatini, E. Kucukbenli, B. Kolb, T. Thonhauser, and
     *   S. de Gironcoli, J. Phys.: Condens. Matter 24, 424209 (2012).
     *

     Carrying out vdW-DF run using the following parameters:

     Nqs =      20    Nr_points =    1024   r_max =   100.000
     q_mesh =
               0.00001000     0.04494208     0.09755937     0.15916263
               0.23128650     0.31572767     0.41458969     0.53033537
               0.66584808     0.82450364     1.01025438     1.22772762
               1.48234092     1.78043706     2.12944203     2.53805004
               3.01644009     3.57652955     4.23227104     5.00000000

     Gradients computed in reciprocal space

     Starting wfc are   42 randomized atomic wfcs +    7 random wfc

     Self-consistent Calculation

     iteration #  1     ecut=    58.80 Ry     beta=0.10
     Davidson diagonalization with overlap
     ethr =  1.00E-02,  avg # of iterations =  5.2

[...]

     total energy              =    -666.45316751 Ry
     Harris-Foulkes estimate   =    -666.89226295 Ry
     estimated scf accuracy    <       2.77852725 Ry

[...]

     total energy              =    -666.00455863 Ry
     Harris-Foulkes estimate   =    -666.00456275 Ry
     estimated scf accuracy    <       0.00000164 Ry

     iteration # 12     ecut=    58.80 Ry     beta=0.10
     Davidson diagonalization with overlap
     ethr =  2.83E-09,  avg # of iterations =  2.1

     negative rho (up, down):  1.140E-01 0.000E+00

     End of self-consistent calculation

          k = 0.0000 0.0000 0.0000 (  3659 PWs)   bands (ev):

   -29.3674 -29.3674 -29.3254 -29.3254 -29.3226 -29.3148  -5.4471  -5.4435
    -5.3916  -5.3473  -5.3141  -5.3141  -5.2578  -5.2578  -5.2572  -5.1629
     5.4155   9.2489  13.4105  13.4105  13.4802  13.4848  13.7428  14.8358
    14.8358  15.4673  15.4673  15.4758  16.2287  17.8222  19.4506  19.4807
    19.5680  19.5680  23.5327  24.5905  26.3003  26.3197  27.5004  27.5004
    30.2107  30.9150  32.3236  32.3830  32.3830  32.7628  32.7628  36.1242
    36.1893

[...]

          k = 0.0957 0.0957 0.1349 (  3628 PWs)   bands (ev):

   -29.3677 -29.3664 -29.3618 -29.3615 -29.3193 -29.3180  -5.3869  -5.3851
    -5.3540  -5.3471  -5.3147  -5.3116  -5.3113  -5.3096  -5.1729  -5.1683
     9.1326   9.2206  12.9201  13.0014  13.3217  13.4054  13.9458  14.0588
    14.8195  14.8674  14.9893  15.0112  16.2569  16.2771  17.8498  17.9836
    19.5497  19.6915  23.3870  23.6503  27.2792  27.3248  27.3523  27.6869
    30.3837  30.4356  30.5841  30.6913  32.8028  33.1502  33.2909  33.6147
    37.2199

     the Fermi energy is    16.8375 ev

!    total energy              =    -666.00460161 Ry
     Harris-Foulkes estimate   =    -666.00455884 Ry
     estimated scf accuracy    <       0.00000009 Ry

     The total energy is the sum of the following terms:

     one-electron contribution =    -144.05814980 Ry
     hartree contribution      =     122.70624294 Ry
     xc contribution           =    -151.63632072 Ry
     ewald contribution        =    -493.00821524 Ry
     smearing contrib. (-TS)   =      -0.00815878 Ry

     convergence has been achieved in  12 iterations

     Forces acting on atoms (Ry/au):

     negative rho (up, down):  1.140E-01 0.000E+00
     atom    1 type  1   force =     0.00000000    0.00000000    0.00000000
     atom    2 type  1   force =     0.00000000    0.00000000    0.00000000
     atom    3 type  2   force =     0.00000000    0.00000000    0.00000000
     atom    4 type  2   force =     0.00000000    0.00000000    0.00000000

     Total force =     0.000000     Total SCF correction =     0.000000

     General routines

     Parallel routines

   This run was terminated on:   5: 7:34  15Nov2017

   JOB DONE.