     Program PWSCF v.5.1rc2 (svn rev. ) starts on 18Feb2018 at 17:29:16

     Current dimensions of program PWSCF are:
     Max number of different atomic species (ntypx) = 10
     Max number of k-points (npk) =  40000
     Max angular momentum in pseudopotentials (lmaxx) =  3

     IMPORTANT: XC functional enforced from input :
     Exchange-correlation      = BEEF-VDW ( 1  4 27 13 2)
     Any further DFT definition will be discarded
     Please, verify this is what you really want

     Subspace diagonalization in iterative solution of the eigenvalue problem:
     a serial algorithm will be used

     Found symmetry operation: I + (  0.5000  0.5000  0.0000)
     This is a supercell, fractional translations are disabled

     bravais-lattice index     =            0
     lattice parameter (alat)  =       1.8897  a.u.
     unit-cell volume          =     697.1903 (a.u.)^3
     number of atoms/cell      =            4
     number of atomic types    =            2
     number of electrons       =        36.00
     number of Kohn-Sham states=           38
     kinetic-energy cutoff     =      58.7989  Ry
     charge density cutoff     =     587.9892  Ry
     convergence threshold     =      1.0E-06
     mixing beta               =       0.1000
     number of iterations used =           10  plain     mixing
     Exchange-correlation      = BEEF-VDW ( 1  4 27 13 2)

     celldm(1)=   1.889726  celldm(2)=   0.000000  celldm(3)=   0.000000
     celldm(4)=   0.000000  celldm(5)=   0.000000  celldm(6)=   0.000000

     crystal axes: (cart. coord. in units of alat)
               a(1) = (   5.065709   0.000000   0.000000 )
               a(2) = (   0.000000   5.065709   0.000000 )
               a(3) = (   0.000000   0.000000   4.026004 )

     reciprocal axes: (cart. coord. in units 2 pi/alat)
               b(1) = (  0.197406  0.000000  0.000000 )
               b(2) = (  0.000000  0.197406  0.000000 )
               b(3) = (  0.000000  0.000000  0.248385 )

     PseudoPot. # 1 for Al read from file:
     /home/mamunm/src/pseudo/gbrv1.5pbe/Al.UPF
     MD5 check sum: 0a6289f5291fc8f409219462bc851e1f
     Pseudo is Ultrasoft + core correction, Zval =  3.0
     Generated by new atomic code, or converted to UPF format
     Using radial grid of  893 points,  3 beta functions with:
                l(1) =   0
                l(2) =   1
                l(3) =   2
     Q(r) pseudized with  8 coefficients,  rinner =    0.900   0.900   0.900
                                                       0.900   0.900

     PseudoPot. # 2 for Bi read from file:
     /home/mamunm/src/pseudo/gbrv1.5pbe/Bi.UPF
     MD5 check sum: 81103212dc04adf40945787f699eab19
     Pseudo is Ultrasoft + core correction, Zval = 15.0
     Generated by new atomic code, or converted to UPF format
     Using radial grid of  899 points,  6 beta functions with:
                l(1) =   0
                l(2) =   0
                l(3) =   1
                l(4) =   1
                l(5) =   2
                l(6) =   2
     Q(r) pseudized with  6 coefficients,  rinner =    1.000   1.000   1.000
                                                       1.000   1.000

     vdW kernel table read from file vdW_kernel_table
     MD5 check sum: 095c7af220d748ca6e76c0b4c6cfb241

     atomic species   valence    mass     pseudopotential
        Al1            3.00    26.98154     Al( 1.00)
        Bi1           15.00   208.98040     Bi( 1.00)

     16 Sym. Ops., with inversion, found

   Cartesian axes

     site n.     atom                  positions (alat units)
         1           Al1 tau(   1) = (   0.0000000   0.0000000   0.0000000  )
         2           Al1 tau(   2) = (   2.5328545   2.5328545   0.0000000  )
         3           Bi1 tau(   3) = (   2.5328545   0.0000000   2.0130022  )
         4           Bi1 tau(   4) = (   0.0000000   2.5328545   2.0130022  )

     number of k points=    75  Fermi-Dirac smearing, width (Ry)=  0.0073
                       cart. coord. in units 2pi/alat
        k(    1) = (   0.0000000   0.0000000   0.0000000), wk =   0.0027435
        k(    2) = (   0.0000000   0.0000000   0.0275984), wk =   0.0054870
        k(    3) = (   0.0000000   0.0000000   0.0551967), wk =   0.0054870
        k(    4) = (   0.0000000   0.0000000   0.0827951), wk =   0.0054870
        k(    5) = (   0.0000000   0.0000000   0.1103934), wk =   0.0054870
        k(    6) = (   0.0000000   0.0219340   0.0000000), wk =   0.0109739
        k(    7) = (   0.0000000   0.0219340   0.0275984), wk =   0.0219479
        k(    8) = (   0.0000000   0.0219340   0.0551967), wk =   0.0219479
        k(    9) = (   0.0000000   0.0219340   0.0827951), wk =   0.0219479
        k(   10) = (   0.0000000   0.0219340   0.1103934), wk =   0.0219479
        k(   11) = (   0.0000000   0.0438679   0.0000000), wk =   0.0109739
        k(   12) = (   0.0000000   0.0438679   0.0275984), wk =   0.0219479
        k(   13) = (   0.0000000   0.0438679   0.0551967), wk =   0.0219479
        k(   14) = (   0.0000000   0.0438679   0.0827951), wk =   0.0219479
        k(   15) = (   0.0000000   0.0438679   0.1103934), wk =   0.0219479
        k(   16) = (   0.0000000   0.0658019   0.0000000), wk =   0.0109739
        k(   17) = (   0.0000000   0.0658019   0.0275984), wk =   0.0219479
        k(   18) = (   0.0000000   0.0658019   0.0551967), wk =   0.0219479
        k(   19) = (   0.0000000   0.0658019   0.0827951), wk =   0.0219479
        k(   20) = (   0.0000000   0.0658019   0.1103934), wk =   0.0219479
        k(   21) = (   0.0000000   0.0877359   0.0000000), wk =   0.0109739
        k(   22) = (   0.0000000   0.0877359   0.0275984), wk =   0.0219479
        k(   23) = (   0.0000000   0.0877359   0.0551967), wk =   0.0219479
        k(   24) = (   0.0000000   0.0877359   0.0827951), wk =   0.0219479
        k(   25) = (   0.0000000   0.0877359   0.1103934), wk =   0.0219479
        k(   26) = (   0.0219340   0.0219340   0.0000000), wk =   0.0109739
        k(   27) = (   0.0219340   0.0219340   0.0275984), wk =   0.0219479
        k(   28) = (   0.0219340   0.0219340   0.0551967), wk =   0.0219479
        k(   29) = (   0.0219340   0.0219340   0.0827951), wk =   0.0219479
        k(   30) = (   0.0219340   0.0219340   0.1103934), wk =   0.0219479
        k(   31) = (   0.0219340   0.0438679   0.0000000), wk =   0.0219479
        k(   32) = (   0.0219340   0.0438679   0.0275984), wk =   0.0438957
        k(   33) = (   0.0219340   0.0438679   0.0551967), wk =   0.0438957
        k(   34) = (   0.0219340   0.0438679   0.0827951), wk =   0.0438957
        k(   35) = (   0.0219340   0.0438679   0.1103934), wk =   0.0438957
        k(   36) = (   0.0219340   0.0658019   0.0000000), wk =   0.0219479
        k(   37) = (   0.0219340   0.0658019   0.0275984), wk =   0.0438957
        k(   38) = (   0.0219340   0.0658019   0.0551967), wk =   0.0438957
        k(   39) = (   0.0219340   0.0658019   0.0827951), wk =   0.0438957
        k(   40) = (   0.0219340   0.0658019   0.1103934), wk =   0.0438957
        k(   41) = (   0.0219340   0.0877359   0.0000000), wk =   0.0219479
        k(   42) = (   0.0219340   0.0877359   0.0275984), wk =   0.0438957
        k(   43) = (   0.0219340   0.0877359   0.0551967), wk =   0.0438957
        k(   44) = (   0.0219340   0.0877359   0.0827951), wk =   0.0438957
        k(   45) = (   0.0219340   0.0877359   0.1103934), wk =   0.0438957
        k(   46) = (   0.0438679   0.0438679   0.0000000), wk =   0.0109739
        k(   47) = (   0.0438679   0.0438679   0.0275984), wk =   0.0219479
        k(   48) = (   0.0438679   0.0438679   0.0551967), wk =   0.0219479
        k(   49) = (   0.0438679   0.0438679   0.0827951), wk =   0.0219479
        k(   50) = (   0.0438679   0.0438679   0.1103934), wk =   0.0219479
        k(   51) = (   0.0438679   0.0658019   0.0000000), wk =   0.0219479
        k(   52) = (   0.0438679   0.0658019   0.0275984), wk =   0.0438957
        k(   53) = (   0.0438679   0.0658019   0.0551967), wk =   0.0438957
        k(   54) = (   0.0438679   0.0658019   0.0827951), wk =   0.0438957
        k(   55) = (   0.0438679   0.0658019   0.1103934), wk =   0.0438957
        k(   56) = (   0.0438679   0.0877359   0.0000000), wk =   0.0219479
        k(   57) = (   0.0438679   0.0877359   0.0275984), wk =   0.0438957
        k(   58) = (   0.0438679   0.0877359   0.0551967), wk =   0.0438957
        k(   59) = (   0.0438679   0.0877359   0.0827951), wk =   0.0438957
        k(   60) = (   0.0438679   0.0877359   0.1103934), wk =   0.0438957
        k(   61) = (   0.0658019   0.0658019   0.0000000), wk =   0.0109739
        k(   62) = (   0.0658019   0.0658019   0.0275984), wk =   0.0219479
        k(   63) = (   0.0658019   0.0658019   0.0551967), wk =   0.0219479
        k(   64) = (   0.0658019   0.0658019   0.0827951), wk =   0.0219479
        k(   65) = (   0.0658019   0.0658019   0.1103934), wk =   0.0219479
        k(   66) = (   0.0658019   0.0877359   0.0000000), wk =   0.0219479
        k(   67) = (   0.0658019   0.0877359   0.0275984), wk =   0.0438957
        k(   68) = (   0.0658019   0.0877359   0.0551967), wk =   0.0438957
        k(   69) = (   0.0658019   0.0877359   0.0827951), wk =   0.0438957
        k(   70) = (   0.0658019   0.0877359   0.1103934), wk =   0.0438957
        k(   71) = (   0.0877359   0.0877359   0.0000000), wk =   0.0109739
        k(   72) = (   0.0877359   0.0877359   0.0275984), wk =   0.0219479
        k(   73) = (   0.0877359   0.0877359   0.0551967), wk =   0.0219479
        k(   74) = (   0.0877359   0.0877359   0.0827951), wk =   0.0219479
        k(   75) = (   0.0877359   0.0877359   0.1103934), wk =   0.0219479

     Largest allocated arrays     est. size (Mb)     dimensions
     Largest temporary arrays     est. size (Mb)     dimensions

     Initial potential from superposition of free atoms
     Check: negative starting charge=   -0.083153

     starting charge   33.99499, renormalised to   36.00000

     negative rho (up, down):  8.806E-02 0.000E+00

     *
     * You are using vdW-DF for exchange-correlation in this calculation.
     * Please cite the following three references that made this development
     * possible:
     *
     *   M. Dion, H. Rydberg, E. Schroder, D. C. Langreth, and
     *   B. I. Lundqvist, Phys. Rev. Lett. 92, 246401 (2004).
     *
     *   T. Thonhauser, V. R. Cooper, S. Li, A. Puzder, P. Hyldgaard, and
     *   D. C. Langreth, Phys. Rev. B 76, 125112 (2007).
     *
     *   G. Roman-Perez and J. M. Soler, Phys. Rev. Lett. 103, 096102 (2009).
     *
     *
     * If you are using vdW-DF2, please also cite:
     *
     *   K. Lee, E. D. Murray, L. Kong, B. I. Lundqvist, and
     *   D. C. Langreth, Phys. Rev. B 82, 081101(R) (2010).
     *
     *
     * If you are calculating the stress with vdW-DF, please also cite:
     *
     *   R. Sabatini, E. Kucukbenli, B. Kolb, T. Thonhauser, and
     *   S. de Gironcoli, J. Phys.: Condens. Matter 24, 424209 (2012).
     *

     Carrying out vdW-DF run using the following parameters:

     Nqs =      20    Nr_points =    1024   r_max =   100.000
     q_mesh =
               0.00001000     0.04494208     0.09755937     0.15916263
               0.23128650     0.31572767     0.41458969     0.53033537
               0.66584808     0.82450364     1.01025438     1.22772762
               1.48234092     1.78043706     2.12944203     2.53805004
               3.01644009     3.57652955     4.23227104     5.00000000

     Gradients computed in reciprocal space

     Starting wfc are   26 randomized atomic wfcs +   12 random wfc

     Self-consistent Calculation

     iteration #  1     ecut=    58.80 Ry     beta=0.10
     Davidson diagonalization with overlap
     ethr =  1.00E-02,  avg # of iterations =  6.1

[...]

     total energy              =    -388.34832716 Ry
     Harris-Foulkes estimate   =    -388.57033010 Ry
     estimated scf accuracy    <       1.29521298 Ry

[...]

     total energy              =    -388.02818608 Ry
     Harris-Foulkes estimate   =    -388.02814604 Ry
     estimated scf accuracy    <       0.00000154 Ry

     iteration # 10     ecut=    58.80 Ry     beta=0.10
     Davidson diagonalization with overlap
     ethr =  4.27E-09,  avg # of iterations =  1.5

     negative rho (up, down):  8.797E-02 0.000E+00

     End of self-consistent calculation

          k = 0.0000 0.0000 0.0000 (  5287 PWs)   bands (ev):

   -14.0425 -14.0026 -13.9715 -13.9483 -13.9483 -13.9295 -13.9173 -13.9173
   -13.9116 -13.8748  -3.3727  -0.5804   5.0445   5.0445   6.0355   6.6675
     7.5197   9.6217   9.6217  11.4426  12.7983  13.0826  13.3876  13.7839
    13.7839  15.2330  15.9404  15.9404  16.6057  17.1271  17.4909  17.4909
    20.3809  20.3809  21.2904  22.0761  22.2949  23.0316

[...]

          k = 0.0877 0.0877 0.1104 (  5314 PWs)   bands (ev):

   -13.9889 -13.9847 -13.9664 -13.9654 -13.9617 -13.9595 -13.9236 -13.9225
   -13.8827 -13.8801  -1.2639  -1.1801   4.2923   4.3539   4.7920   5.0306
     5.6335   6.0285  12.2845  12.6241  14.1023  14.4486  15.1290  15.1430
    15.1643  15.6830  17.1920  17.2998  17.7489  17.9724  17.9871  18.0638
    18.4089  18.4546  21.3869  21.7965  21.9372  22.2254

     the Fermi energy is     9.4037 ev

!    total energy              =    -388.02836121 Ry
     Harris-Foulkes estimate   =    -388.02818636 Ry
     estimated scf accuracy    <       0.00000009 Ry

     The total energy is the sum of the following terms:

     one-electron contribution =    -117.60867779 Ry
     hartree contribution      =      80.14283853 Ry
     xc contribution           =    -141.92736868 Ry
     ewald contribution        =    -208.62919969 Ry
     smearing contrib. (-TS)   =      -0.00595358 Ry

     convergence has been achieved in  10 iterations

     Forces acting on atoms (Ry/au):

     negative rho (up, down):  8.797E-02 0.000E+00
     atom    1 type  1   force =     0.00000000    0.00000000    0.00000000
     atom    2 type  1   force =     0.00000000    0.00000000    0.00000000
     atom    3 type  2   force =     0.00000000    0.00000000    0.00000000
     atom    4 type  2   force =     0.00000000    0.00000000    0.00000000

     Total force =     0.000000     Total SCF correction =     0.000000

     General routines

     Parallel routines

   This run was terminated on:  17:29:57  18Feb2018

   JOB DONE.