     Program PWSCF v.5.1rc2 starts on 14Nov2017 at 19:38:47

     Current dimensions of program PWSCF are:
     Max number of different atomic species (ntypx) = 10
     Max number of k-points (npk) =  40000
     Max angular momentum in pseudopotentials (lmaxx) =  3

     IMPORTANT: XC functional enforced from input :
     Exchange-correlation      = BEEF-VDW ( 1  4 27 13 2)
     Any further DFT definition will be discarded
     Please, verify this is what you really want

     Found symmetry operation: I + ( -0.5000 -0.5000  0.0000)
     This is a supercell, fractional translations are disabled

     bravais-lattice index     =            0
     lattice parameter (alat)  =       1.8897  a.u.
     unit-cell volume          =     433.4924 (a.u.)^3
     number of atoms/cell      =            4
     number of atomic types    =            2
     number of electrons       =        58.00
     number of Kohn-Sham states=           49
     kinetic-energy cutoff     =      58.7989  Ry
     charge density cutoff     =     587.9892  Ry
     convergence threshold     =      1.0E-06
     mixing beta               =       0.1000
     number of iterations used =           10  plain     mixing
     Exchange-correlation      = BEEF-VDW ( 1  4 27 13 2)

     celldm(1)=   1.889726  celldm(2)=   0.000000  celldm(3)=   0.000000
     celldm(4)=   0.000000  celldm(5)=   0.000000  celldm(6)=   0.000000

     crystal axes: (cart. coord. in units of alat)
               a(1) = (   4.339012   0.000000   0.000000 )
               a(2) = (   0.000000   4.339012   0.000000 )
               a(3) = (   0.000000   0.000000   3.411954 )

     reciprocal axes: (cart. coord. in units 2 pi/alat)
               b(1) = (  0.230467  0.000000  0.000000 )
               b(2) = (  0.000000  0.230467  0.000000 )
               b(3) = (  0.000000  0.000000  0.293087 )

     PseudoPot. # 1 for Nb read from file:
     /home/users/vossj/suncat/psp/gbrv1.5pbe/Nb.UPF
     MD5 check sum: 573aab8a2fa660278ed4a62cd769473f
     Pseudo is Ultrasoft + core correction, Zval = 13.0
     Generated by new atomic code, or converted to UPF format
     Using radial grid of  887 points,  6 beta functions with:
                l(1) =   0
                l(2) =   0
                l(3) =   1
                l(4) =   1
                l(5) =   2
                l(6) =   2
     Q(r) pseudized with  6 coefficients,  rinner =    1.000   1.000   1.000
                                                       1.000   1.000

     PseudoPot. # 2 for Ru read from file:
     /home/users/vossj/suncat/psp/gbrv1.5pbe/Ru.UPF
     MD5 check sum: 7158a806dd851261a58e6920c40ebe78
     Pseudo is Ultrasoft + core correction, Zval = 16.0
     Generated by new atomic code, or converted to UPF format
     Using radial grid of  967 points,  6 beta functions with:
                l(1) =   0
                l(2) =   0
                l(3) =   1
                l(4) =   1
                l(5) =   2
                l(6) =   2
     Q(r) pseudized with  8 coefficients,  rinner =    1.300   1.300   1.300
                                                       1.300   1.300

     vdW kernel table read from file vdW_kernel_table
     MD5 check sum: 095c7af220d748ca6e76c0b4c6cfb241

     atomic species   valence    mass     pseudopotential
        Nb1           13.00    92.90640     Nb( 1.00)
        Ru1           16.00   101.07000     Ru( 1.00)

     16 Sym. Ops., with inversion, found

   Cartesian axes

     site n.     atom                  positions (alat units)
         1           Nb1 tau(   1) = (   0.0000000   0.0000000   0.0000000  )
         2           Nb1 tau(   2) = (   2.1695061   2.1695061   0.0000000  )
         3           Ru1 tau(   3) = (   2.1695061   0.0000000   1.7059769  )
         4           Ru1 tau(   4) = (   0.0000000   2.1695061   1.7059769  )

     number of k points=    75  Fermi-Dirac smearing, width (Ry)=  0.0073
                       cart. coord. in units 2pi/alat
        k(    1) = (   0.0000000   0.0000000   0.0000000), wk =   0.0027435
        k(    2) = (   0.0000000   0.0000000   0.0325652), wk =   0.0054870
        k(    3) = (   0.0000000   0.0000000   0.0651305), wk =   0.0054870
        k(    4) = (   0.0000000   0.0000000   0.0976957), wk =   0.0054870
        k(    5) = (   0.0000000   0.0000000   0.1302610), wk =   0.0054870
        k(    6) = (   0.0000000   0.0256075   0.0000000), wk =   0.0109739
        k(    7) = (   0.0000000   0.0256075   0.0325652), wk =   0.0219479
        k(    8) = (   0.0000000   0.0256075   0.0651305), wk =   0.0219479
        k(    9) = (   0.0000000   0.0256075   0.0976957), wk =   0.0219479
        k(   10) = (   0.0000000   0.0256075   0.1302610), wk =   0.0219479
        k(   11) = (   0.0000000   0.0512149   0.0000000), wk =   0.0109739
        k(   12) = (   0.0000000   0.0512149   0.0325652), wk =   0.0219479
        k(   13) = (   0.0000000   0.0512149   0.0651305), wk =   0.0219479
        k(   14) = (   0.0000000   0.0512149   0.0976957), wk =   0.0219479
        k(   15) = (   0.0000000   0.0512149   0.1302610), wk =   0.0219479
        k(   16) = (   0.0000000   0.0768224   0.0000000), wk =   0.0109739
        k(   17) = (   0.0000000   0.0768224   0.0325652), wk =   0.0219479
        k(   18) = (   0.0000000   0.0768224   0.0651305), wk =   0.0219479
        k(   19) = (   0.0000000   0.0768224   0.0976957), wk =   0.0219479
        k(   20) = (   0.0000000   0.0768224   0.1302610), wk =   0.0219479
        k(   21) = (   0.0000000   0.1024299   0.0000000), wk =   0.0109739
        k(   22) = (   0.0000000   0.1024299   0.0325652), wk =   0.0219479
        k(   23) = (   0.0000000   0.1024299   0.0651305), wk =   0.0219479
        k(   24) = (   0.0000000   0.1024299   0.0976957), wk =   0.0219479
        k(   25) = (   0.0000000   0.1024299   0.1302610), wk =   0.0219479
        k(   26) = (   0.0256075   0.0256075   0.0000000), wk =   0.0109739
        k(   27) = (   0.0256075   0.0256075   0.0325652), wk =   0.0219479
        k(   28) = (   0.0256075   0.0256075   0.0651305), wk =   0.0219479
        k(   29) = (   0.0256075   0.0256075   0.0976957), wk =   0.0219479
        k(   30) = (   0.0256075   0.0256075   0.1302610), wk =   0.0219479
        k(   31) = (   0.0256075   0.0512149   0.0000000), wk =   0.0219479
        k(   32) = (   0.0256075   0.0512149   0.0325652), wk =   0.0438957
        k(   33) = (   0.0256075   0.0512149   0.0651305), wk =   0.0438957
        k(   34) = (   0.0256075   0.0512149   0.0976957), wk =   0.0438957
        k(   35) = (   0.0256075   0.0512149   0.1302610), wk =   0.0438957
        k(   36) = (   0.0256075   0.0768224   0.0000000), wk =   0.0219479
        k(   37) = (   0.0256075   0.0768224   0.0325652), wk =   0.0438957
        k(   38) = (   0.0256075   0.0768224   0.0651305), wk =   0.0438957
        k(   39) = (   0.0256075   0.0768224   0.0976957), wk =   0.0438957
        k(   40) = (   0.0256075   0.0768224   0.1302610), wk =   0.0438957
        k(   41) = (   0.0256075   0.1024299   0.0000000), wk =   0.0219479
        k(   42) = (   0.0256075   0.1024299   0.0325652), wk =   0.0438957
        k(   43) = (   0.0256075   0.1024299   0.0651305), wk =   0.0438957
        k(   44) = (   0.0256075   0.1024299   0.0976957), wk =   0.0438957
        k(   45) = (   0.0256075   0.1024299   0.1302610), wk =   0.0438957
        k(   46) = (   0.0512149   0.0512149   0.0000000), wk =   0.0109739
        k(   47) = (   0.0512149   0.0512149   0.0325652), wk =   0.0219479
        k(   48) = (   0.0512149   0.0512149   0.0651305), wk =   0.0219479
        k(   49) = (   0.0512149   0.0512149   0.0976957), wk =   0.0219479
        k(   50) = (   0.0512149   0.0512149   0.1302610), wk =   0.0219479
        k(   51) = (   0.0512149   0.0768224   0.0000000), wk =   0.0219479
        k(   52) = (   0.0512149   0.0768224   0.0325652), wk =   0.0438957
        k(   53) = (   0.0512149   0.0768224   0.0651305), wk =   0.0438957
        k(   54) = (   0.0512149   0.0768224   0.0976957), wk =   0.0438957
        k(   55) = (   0.0512149   0.0768224   0.1302610), wk =   0.0438957
        k(   56) = (   0.0512149   0.1024299   0.0000000), wk =   0.0219479
        k(   57) = (   0.0512149   0.1024299   0.0325652), wk =   0.0438957
        k(   58) = (   0.0512149   0.1024299   0.0651305), wk =   0.0438957
        k(   59) = (   0.0512149   0.1024299   0.0976957), wk =   0.0438957
        k(   60) = (   0.0512149   0.1024299   0.1302610), wk =   0.0438957
        k(   61) = (   0.0768224   0.0768224   0.0000000), wk =   0.0109739
        k(   62) = (   0.0768224   0.0768224   0.0325652), wk =   0.0219479
        k(   63) = (   0.0768224   0.0768224   0.0651305), wk =   0.0219479
        k(   64) = (   0.0768224   0.0768224   0.0976957), wk =   0.0219479
        k(   65) = (   0.0768224   0.0768224   0.1302610), wk =   0.0219479
        k(   66) = (   0.0768224   0.1024299   0.0000000), wk =   0.0219479
        k(   67) = (   0.0768224   0.1024299   0.0325652), wk =   0.0438957
        k(   68) = (   0.0768224   0.1024299   0.0651305), wk =   0.0438957
        k(   69) = (   0.0768224   0.1024299   0.0976957), wk =   0.0438957
        k(   70) = (   0.0768224   0.1024299   0.1302610), wk =   0.0438957
        k(   71) = (   0.1024299   0.1024299   0.0000000), wk =   0.0109739
        k(   72) = (   0.1024299   0.1024299   0.0325652), wk =   0.0219479
        k(   73) = (   0.1024299   0.1024299   0.0651305), wk =   0.0219479
        k(   74) = (   0.1024299   0.1024299   0.0976957), wk =   0.0219479
        k(   75) = (   0.1024299   0.1024299   0.1302610), wk =   0.0219479

     Largest allocated arrays     est. size (Mb)     dimensions
     Largest temporary arrays     est. size (Mb)     dimensions

     Initial potential from superposition of free atoms
     Check: negative starting charge=   -0.149857

     starting charge   55.99450, renormalised to   58.00000

     negative rho (up, down):  1.552E-01 0.000E+00

     *
     * You are using vdW-DF for exchange-correlation in this calculation.
     * Please cite the following three references that made this development
     * possible:
     *
     *   M. Dion, H. Rydberg, E. Schroder, D. C. Langreth, and
     *   B. I. Lundqvist, Phys. Rev. Lett. 92, 246401 (2004).
     *
     *   T. Thonhauser, V. R. Cooper, S. Li, A. Puzder, P. Hyldgaard, and
     *   D. C. Langreth, Phys. Rev. B 76, 125112 (2007).
     *
     *   G. Roman-Perez and J. M. Soler, Phys. Rev. Lett. 103, 096102 (2009).
     *
     *
     * If you are using vdW-DF2, please also cite:
     *
     *   K. Lee, E. D. Murray, L. Kong, B. I. Lundqvist, and
     *   D. C. Langreth, Phys. Rev. B 82, 081101(R) (2010).
     *
     *
     * If you are calculating the stress with vdW-DF, please also cite:
     *
     *   R. Sabatini, E. Kucukbenli, B. Kolb, T. Thonhauser, and
     *   S. de Gironcoli, J. Phys.: Condens. Matter 24, 424209 (2012).
     *

     Carrying out vdW-DF run using the following parameters:

     Nqs =      20    Nr_points =    1024   r_max =   100.000
     q_mesh =
               0.00001000     0.04494208     0.09755937     0.15916263
               0.23128650     0.31572767     0.41458969     0.53033537
               0.66584808     0.82450364     1.01025438     1.22772762
               1.48234092     1.78043706     2.12944203     2.53805004
               3.01644009     3.57652955     4.23227104     5.00000000

     Gradients computed in reciprocal space

     Starting wfc are   52 randomized atomic wfcs

     Self-consistent Calculation

     iteration #  1     ecut=    58.80 Ry     beta=0.10
     Davidson diagonalization with overlap
     ethr =  1.00E-02,  avg # of iterations =  4.4

[...]

     total energy              =    -627.86339638 Ry
     Harris-Foulkes estimate   =    -628.06254462 Ry
     estimated scf accuracy    <       1.42519616 Ry

[...]

     total energy              =    -627.53105144 Ry
     Harris-Foulkes estimate   =    -627.53105329 Ry
     estimated scf accuracy    <       0.00000883 Ry

     iteration # 11     ecut=    58.80 Ry     beta=0.10
     Davidson diagonalization with overlap
     ethr =  1.52E-08,  avg # of iterations =  1.7

     negative rho (up, down):  1.546E-01 0.000E+00

     End of self-consistent calculation

          k = 0.0000 0.0000 0.0000 (  3331 PWs)   bands (ev):

   -52.7377 -52.7164 -35.4133 -35.3252 -22.7807 -22.7807 -22.7007 -22.6638
   -22.6440 -22.6440 -11.5741 -11.5741 -11.3137 -11.2423 -11.1652 -11.1652
    13.1131  14.8364  14.8472  15.0150  15.0585  16.0353  16.0353  18.0893
    18.0893  18.9155  20.6001  20.6800  21.3799  21.8167  22.2000  22.2000
    22.7632  23.7441  23.8950  23.8950  24.1782  24.2099  24.2099  27.1750
    29.9478  29.9478  31.6623  31.8074  32.1572  32.1572  34.1137  34.2316
    36.1123

[...]

          k = 0.1024 0.1024 0.1303 (  3304 PWs)   bands (ev):

   -52.7248 -52.7241 -35.3602 -35.3574 -22.7930 -22.7891 -22.7349 -22.7345
   -22.6274 -22.6234 -11.6093 -11.5968 -11.4226 -11.4195 -11.1377 -11.1243
    15.0346  15.0705  15.2009  15.2272  17.0818  17.1082  17.1159  17.1891
    19.3684  19.4180  20.3336  20.7937  20.9065  20.9400  21.1057  21.2386
    21.4124  21.7208  23.7131  23.7597  23.8842  24.1015  24.1364  24.4356
    30.6547  30.6550  30.8145  31.0850  32.7485  32.7635  32.7729  32.9859
    36.4342

     the Fermi energy is    20.2928 ev

!    total energy              =    -627.53105503 Ry
     Harris-Foulkes estimate   =    -627.53105265 Ry
     estimated scf accuracy    <       0.00000018 Ry

     The total energy is the sum of the following terms:

     one-electron contribution =    -118.72019655 Ry
     hartree contribution      =      95.71330376 Ry
     xc contribution           =     -92.03667033 Ry
     ewald contribution        =    -512.47661294 Ry
     smearing contrib. (-TS)   =      -0.01087897 Ry

     convergence has been achieved in  11 iterations

     Forces acting on atoms (Ry/au):

     negative rho (up, down):  1.546E-01 0.000E+00
     atom    1 type  1   force =     0.00000000    0.00000000    0.00000000
     atom    2 type  1   force =     0.00000000    0.00000000    0.00000000
     atom    3 type  2   force =     0.00000000    0.00000000    0.00000000
     atom    4 type  2   force =     0.00000000    0.00000000    0.00000000

     Total force =     0.000000     Total SCF correction =     0.000000

     General routines

     Parallel routines

   This run was terminated on:  19:39:22  14Nov2017

   JOB DONE.