     Program PWSCF v.5.1rc2 (svn rev. ) starts on 18Feb2018 at 17:17:37

     Current dimensions of program PWSCF are:
     Max number of different atomic species (ntypx) = 10
     Max number of k-points (npk) =  40000
     Max angular momentum in pseudopotentials (lmaxx) =  3

     IMPORTANT: XC functional enforced from input :
     Exchange-correlation      = BEEF-VDW ( 1  4 27 13 2)
     Any further DFT definition will be discarded
     Please, verify this is what you really want

     Subspace diagonalization in iterative solution of the eigenvalue problem:
     a serial algorithm will be used

     Found symmetry operation: I + (  0.5000  0.5000  0.0000)
     This is a supercell, fractional translations are disabled

     bravais-lattice index     =            0
     lattice parameter (alat)  =       1.8897  a.u.
     unit-cell volume          =     700.1732 (a.u.)^3
     number of atoms/cell      =            4
     number of atomic types    =            2
     number of electrons       =        52.00
     number of Kohn-Sham states=           46
     kinetic-energy cutoff     =      58.7989  Ry
     charge density cutoff     =     587.9892  Ry
     convergence threshold     =      1.0E-06
     mixing beta               =       0.1000
     number of iterations used =           10  plain     mixing
     Exchange-correlation      = BEEF-VDW ( 1  4 27 13 2)

     celldm(1)=   1.889726  celldm(2)=   0.000000  celldm(3)=   0.000000
     celldm(4)=   0.000000  celldm(5)=   0.000000  celldm(6)=   0.000000

     crystal axes: (cart. coord. in units of alat)
               a(1) = (   5.102667   0.000000   0.000000 )
               a(2) = (   0.000000   5.102667   0.000000 )
               a(3) = (   0.000000   0.000000   3.984872 )

     reciprocal axes: (cart. coord. in units 2 pi/alat)
               b(1) = (  0.195976  0.000000  0.000000 )
               b(2) = (  0.000000  0.195976  0.000000 )
               b(3) = (  0.000000  0.000000  0.250949 )

     PseudoPot. # 1 for Sc read from file:
     /home/mamunm/src/pseudo/gbrv1.5pbe/Sc.UPF
     MD5 check sum: db30a2753ba66ef00f23801d899b7e7f
     Pseudo is Ultrasoft + core correction, Zval = 11.0
     Generated by new atomic code, or converted to UPF format
     Using radial grid of  849 points,  6 beta functions with:
                l(1) =   0
                l(2) =   0
                l(3) =   1
                l(4) =   1
                l(5) =   2
                l(6) =   2
     Q(r) pseudized with  6 coefficients,  rinner =    1.200   1.200   1.200
                                                       1.200   1.200

     PseudoPot. # 2 for Bi read from file:
     /home/mamunm/src/pseudo/gbrv1.5pbe/Bi.UPF
     MD5 check sum: 81103212dc04adf40945787f699eab19
     Pseudo is Ultrasoft + core correction, Zval = 15.0
     Generated by new atomic code, or converted to UPF format
     Using radial grid of  899 points,  6 beta functions with:
                l(1) =   0
                l(2) =   0
                l(3) =   1
                l(4) =   1
                l(5) =   2
                l(6) =   2
     Q(r) pseudized with  6 coefficients,  rinner =    1.000   1.000   1.000
                                                       1.000   1.000

     vdW kernel table read from file vdW_kernel_table
     MD5 check sum: 095c7af220d748ca6e76c0b4c6cfb241

     atomic species   valence    mass     pseudopotential
        Sc1           11.00    44.95591     Sc( 1.00)
        Bi1           15.00   208.98040     Bi( 1.00)

     16 Sym. Ops., with inversion, found

   Cartesian axes

     site n.     atom                  positions (alat units)
         1           Sc1 tau(   1) = (   0.0000000   0.0000000   0.0000000  )
         2           Sc1 tau(   2) = (   2.5513337   2.5513337   0.0000000  )
         3           Bi1 tau(   3) = (   2.5513337   0.0000000   1.9924358  )
         4           Bi1 tau(   4) = (   0.0000000   2.5513337   1.9924358  )

     number of k points=    75  Fermi-Dirac smearing, width (Ry)=  0.0073
                       cart. coord. in units 2pi/alat
        k(    1) = (   0.0000000   0.0000000   0.0000000), wk =   0.0027435
        k(    2) = (   0.0000000   0.0000000   0.0278832), wk =   0.0054870
        k(    3) = (   0.0000000   0.0000000   0.0557665), wk =   0.0054870
        k(    4) = (   0.0000000   0.0000000   0.0836497), wk =   0.0054870
        k(    5) = (   0.0000000   0.0000000   0.1115329), wk =   0.0054870
        k(    6) = (   0.0000000   0.0217751   0.0000000), wk =   0.0109739
        k(    7) = (   0.0000000   0.0217751   0.0278832), wk =   0.0219479
        k(    8) = (   0.0000000   0.0217751   0.0557665), wk =   0.0219479
        k(    9) = (   0.0000000   0.0217751   0.0836497), wk =   0.0219479
        k(   10) = (   0.0000000   0.0217751   0.1115329), wk =   0.0219479
        k(   11) = (   0.0000000   0.0435502   0.0000000), wk =   0.0109739
        k(   12) = (   0.0000000   0.0435502   0.0278832), wk =   0.0219479
        k(   13) = (   0.0000000   0.0435502   0.0557665), wk =   0.0219479
        k(   14) = (   0.0000000   0.0435502   0.0836497), wk =   0.0219479
        k(   15) = (   0.0000000   0.0435502   0.1115329), wk =   0.0219479
        k(   16) = (   0.0000000   0.0653253   0.0000000), wk =   0.0109739
        k(   17) = (   0.0000000   0.0653253   0.0278832), wk =   0.0219479
        k(   18) = (   0.0000000   0.0653253   0.0557665), wk =   0.0219479
        k(   19) = (   0.0000000   0.0653253   0.0836497), wk =   0.0219479
        k(   20) = (   0.0000000   0.0653253   0.1115329), wk =   0.0219479
        k(   21) = (   0.0000000   0.0871004   0.0000000), wk =   0.0109739
        k(   22) = (   0.0000000   0.0871004   0.0278832), wk =   0.0219479
        k(   23) = (   0.0000000   0.0871004   0.0557665), wk =   0.0219479
        k(   24) = (   0.0000000   0.0871004   0.0836497), wk =   0.0219479
        k(   25) = (   0.0000000   0.0871004   0.1115329), wk =   0.0219479
        k(   26) = (   0.0217751   0.0217751   0.0000000), wk =   0.0109739
        k(   27) = (   0.0217751   0.0217751   0.0278832), wk =   0.0219479
        k(   28) = (   0.0217751   0.0217751   0.0557665), wk =   0.0219479
        k(   29) = (   0.0217751   0.0217751   0.0836497), wk =   0.0219479
        k(   30) = (   0.0217751   0.0217751   0.1115329), wk =   0.0219479
        k(   31) = (   0.0217751   0.0435502   0.0000000), wk =   0.0219479
        k(   32) = (   0.0217751   0.0435502   0.0278832), wk =   0.0438957
        k(   33) = (   0.0217751   0.0435502   0.0557665), wk =   0.0438957
        k(   34) = (   0.0217751   0.0435502   0.0836497), wk =   0.0438957
        k(   35) = (   0.0217751   0.0435502   0.1115329), wk =   0.0438957
        k(   36) = (   0.0217751   0.0653253   0.0000000), wk =   0.0219479
        k(   37) = (   0.0217751   0.0653253   0.0278832), wk =   0.0438957
        k(   38) = (   0.0217751   0.0653253   0.0557665), wk =   0.0438957
        k(   39) = (   0.0217751   0.0653253   0.0836497), wk =   0.0438957
        k(   40) = (   0.0217751   0.0653253   0.1115329), wk =   0.0438957
        k(   41) = (   0.0217751   0.0871004   0.0000000), wk =   0.0219479
        k(   42) = (   0.0217751   0.0871004   0.0278832), wk =   0.0438957
        k(   43) = (   0.0217751   0.0871004   0.0557665), wk =   0.0438957
        k(   44) = (   0.0217751   0.0871004   0.0836497), wk =   0.0438957
        k(   45) = (   0.0217751   0.0871004   0.1115329), wk =   0.0438957
        k(   46) = (   0.0435502   0.0435502   0.0000000), wk =   0.0109739
        k(   47) = (   0.0435502   0.0435502   0.0278832), wk =   0.0219479
        k(   48) = (   0.0435502   0.0435502   0.0557665), wk =   0.0219479
        k(   49) = (   0.0435502   0.0435502   0.0836497), wk =   0.0219479
        k(   50) = (   0.0435502   0.0435502   0.1115329), wk =   0.0219479
        k(   51) = (   0.0435502   0.0653253   0.0000000), wk =   0.0219479
        k(   52) = (   0.0435502   0.0653253   0.0278832), wk =   0.0438957
        k(   53) = (   0.0435502   0.0653253   0.0557665), wk =   0.0438957
        k(   54) = (   0.0435502   0.0653253   0.0836497), wk =   0.0438957
        k(   55) = (   0.0435502   0.0653253   0.1115329), wk =   0.0438957
        k(   56) = (   0.0435502   0.0871004   0.0000000), wk =   0.0219479
        k(   57) = (   0.0435502   0.0871004   0.0278832), wk =   0.0438957
        k(   58) = (   0.0435502   0.0871004   0.0557665), wk =   0.0438957
        k(   59) = (   0.0435502   0.0871004   0.0836497), wk =   0.0438957
        k(   60) = (   0.0435502   0.0871004   0.1115329), wk =   0.0438957
        k(   61) = (   0.0653253   0.0653253   0.0000000), wk =   0.0109739
        k(   62) = (   0.0653253   0.0653253   0.0278832), wk =   0.0219479
        k(   63) = (   0.0653253   0.0653253   0.0557665), wk =   0.0219479
        k(   64) = (   0.0653253   0.0653253   0.0836497), wk =   0.0219479
        k(   65) = (   0.0653253   0.0653253   0.1115329), wk =   0.0219479
        k(   66) = (   0.0653253   0.0871004   0.0000000), wk =   0.0219479
        k(   67) = (   0.0653253   0.0871004   0.0278832), wk =   0.0438957
        k(   68) = (   0.0653253   0.0871004   0.0557665), wk =   0.0438957
        k(   69) = (   0.0653253   0.0871004   0.0836497), wk =   0.0438957
        k(   70) = (   0.0653253   0.0871004   0.1115329), wk =   0.0438957
        k(   71) = (   0.0871004   0.0871004   0.0000000), wk =   0.0109739
        k(   72) = (   0.0871004   0.0871004   0.0278832), wk =   0.0219479
        k(   73) = (   0.0871004   0.0871004   0.0557665), wk =   0.0219479
        k(   74) = (   0.0871004   0.0871004   0.0836497), wk =   0.0219479
        k(   75) = (   0.0871004   0.0871004   0.1115329), wk =   0.0219479

     Largest allocated arrays     est. size (Mb)     dimensions
     Largest temporary arrays     est. size (Mb)     dimensions

     Check: negative/imaginary core charge=   -0.000001    0.000000

     Initial potential from superposition of free atoms
     Check: negative starting charge=   -0.082934

     starting charge   49.99511, renormalised to   52.00000

     negative rho (up, down):  8.626E-02 0.000E+00

     *
     * You are using vdW-DF for exchange-correlation in this calculation.
     * Please cite the following three references that made this development
     * possible:
     *
     *   M. Dion, H. Rydberg, E. Schroder, D. C. Langreth, and
     *   B. I. Lundqvist, Phys. Rev. Lett. 92, 246401 (2004).
     *
     *   T. Thonhauser, V. R. Cooper, S. Li, A. Puzder, P. Hyldgaard, and
     *   D. C. Langreth, Phys. Rev. B 76, 125112 (2007).
     *
     *   G. Roman-Perez and J. M. Soler, Phys. Rev. Lett. 103, 096102 (2009).
     *
     *
     * If you are using vdW-DF2, please also cite:
     *
     *   K. Lee, E. D. Murray, L. Kong, B. I. Lundqvist, and
     *   D. C. Langreth, Phys. Rev. B 82, 081101(R) (2010).
     *
     *
     * If you are calculating the stress with vdW-DF, please also cite:
     *
     *   R. Sabatini, E. Kucukbenli, B. Kolb, T. Thonhauser, and
     *   S. de Gironcoli, J. Phys.: Condens. Matter 24, 424209 (2012).
     *

     Carrying out vdW-DF run using the following parameters:

     Nqs =      20    Nr_points =    1024   r_max =   100.000
     q_mesh =
               0.00001000     0.04494208     0.09755937     0.15916263
               0.23128650     0.31572767     0.41458969     0.53033537
               0.66584808     0.82450364     1.01025438     1.22772762
               1.48234092     1.78043706     2.12944203     2.53805004
               3.01644009     3.57652955     4.23227104     5.00000000

     Gradients computed in reciprocal space

     Starting wfc are   44 randomized atomic wfcs +    2 random wfc

     Self-consistent Calculation

     iteration #  1     ecut=    58.80 Ry     beta=0.10
     Davidson diagonalization with overlap
     ethr =  1.00E-02,  avg # of iterations =  4.3

[...]

     total energy              =    -564.34531850 Ry
     Harris-Foulkes estimate   =    -564.47365512 Ry
     estimated scf accuracy    <       0.81161374 Ry

[...]

     total energy              =    -564.13866394 Ry
     Harris-Foulkes estimate   =    -564.13864671 Ry
     estimated scf accuracy    <       0.00001054 Ry

     iteration # 13     ecut=    58.80 Ry     beta=0.10
     Davidson diagonalization with overlap
     ethr =  2.03E-08,  avg # of iterations =  2.2

     negative rho (up, down):  9.043E-02 0.000E+00

     End of self-consistent calculation

          k = 0.0000 0.0000 0.0000 (  5303 PWs)   bands (ev):

   -38.5650 -38.5543 -17.1796 -17.1697 -17.1697 -17.1642 -17.1004 -17.1004
   -11.2603 -11.2389 -11.1834 -11.1792 -11.1792 -11.1696 -11.1479 -11.1479
   -11.1254 -11.0974  -0.5142   1.7711   8.3242   8.3242  11.1965  11.2132
    11.2192  11.4212  12.6011  12.6011  12.9176  12.9176  13.0497  13.5123
    13.5123  13.7983  13.8337  14.0080  14.3812  15.6195  18.8732  18.8732
    19.3665  19.6416  20.8288  21.4842  23.1108  23.1108

[...]

          k = 0.0871 0.0871 0.1115 (  5334 PWs)   bands (ev):

   -38.5585 -38.5581 -17.1989 -17.1983 -17.1758 -17.1737 -17.0937 -17.0916
   -11.2047 -11.2014 -11.2004 -11.1996 -11.1938 -11.1930 -11.1560 -11.1551
   -11.0929 -11.0905   1.1965   1.2618   7.7842   7.8705   8.3456   8.4564
    11.0133  11.0663  12.9451  12.9578  13.1111  13.1465  13.2703  13.5405
    13.9524  13.9735  15.1108  15.1256  15.1377  15.1421  19.7704  19.8338
    19.9349  20.2431  21.5852  21.5994  22.7051  22.7566

     the Fermi energy is    11.8092 ev

!    total energy              =    -564.13876232 Ry
     Harris-Foulkes estimate   =    -564.13866568 Ry
     estimated scf accuracy    <       0.00000067 Ry

     The total energy is the sum of the following terms:

     one-electron contribution =    -152.07523443 Ry
     hartree contribution      =     102.73199323 Ry
     xc contribution           =    -161.18010198 Ry
     ewald contribution        =    -353.60249398 Ry
     smearing contrib. (-TS)   =      -0.01292515 Ry

     convergence has been achieved in  13 iterations

     Forces acting on atoms (Ry/au):

     negative rho (up, down):  9.043E-02 0.000E+00
     atom    1 type  1   force =     0.00000000    0.00000000    0.00000000
     atom    2 type  1   force =     0.00000000    0.00000000    0.00000000
     atom    3 type  2   force =     0.00000000    0.00000000    0.00000000
     atom    4 type  2   force =     0.00000000    0.00000000    0.00000000

     Total force =     0.000000     Total SCF correction =     0.000000

     General routines

     Parallel routines

   This run was terminated on:  17:18:38  18Feb2018

   JOB DONE.