     Program PWSCF v.5.1rc2 starts on 14Nov2017 at  7:44:27

     Current dimensions of program PWSCF are:
     Max number of different atomic species (ntypx) = 10
     Max number of k-points (npk) =  40000
     Max angular momentum in pseudopotentials (lmaxx) =  3

     IMPORTANT: XC functional enforced from input :
     Exchange-correlation      = BEEF-VDW ( 1  4 27 13 2)
     Any further DFT definition will be discarded
     Please, verify this is what you really want

     Found symmetry operation: I + ( -0.5000 -0.5000  0.0000)
     This is a supercell, fractional translations are disabled

     Generating pointlists ...
     new r_m :   0.4125 (alat units)  0.7795 (a.u.) for type    1
     new r_m :   0.4125 (alat units)  0.7795 (a.u.) for type    2

     bravais-lattice index     =            0
     lattice parameter (alat)  =       1.8897  a.u.
     unit-cell volume          =     352.9286 (a.u.)^3
     number of atoms/cell      =            4
     number of atomic types    =            2
     number of electrons       =        64.00
     number of Kohn-Sham states=           52
     kinetic-energy cutoff     =      58.7989  Ry
     charge density cutoff     =     587.9892  Ry
     convergence threshold     =      1.0E-06
     mixing beta               =       0.1000
     number of iterations used =           10  plain     mixing
     Exchange-correlation      = BEEF-VDW ( 1  4 27 13 2)

     celldm(1)=   1.889726  celldm(2)=   0.000000  celldm(3)=   0.000000
     celldm(4)=   0.000000  celldm(5)=   0.000000  celldm(6)=   0.000000

     crystal axes: (cart. coord. in units of alat)
               a(1) = (   3.781544   0.000000   0.000000 )
               a(2) = (   0.000000   3.781544   0.000000 )
               a(3) = (   0.000000   0.000000   3.657228 )

     reciprocal axes: (cart. coord. in units 2 pi/alat)
               b(1) = (  0.264442  0.000000  0.000000 )
               b(2) = (  0.000000  0.264442  0.000000 )
               b(3) = (  0.000000  0.000000  0.273431 )

     PseudoPot. # 1 for Co read from file:
     /home/users/vossj/suncat/psp/gbrv1.5pbe/Co.UPF
     MD5 check sum: 5f91765df6ddd3222702df6e7b74a16d
     Pseudo is Ultrasoft + core correction, Zval = 17.0
     Generated by new atomic code, or converted to UPF format
     Using radial grid of  863 points,  6 beta functions with:
                l(1) =   0
                l(2) =   0
                l(3) =   1
                l(4) =   1
                l(5) =   2
                l(6) =   2
     Q(r) pseudized with  8 coefficients,  rinner =    1.200   1.200   1.200
                                                       1.200   1.200

     PseudoPot. # 2 for Rh read from file:
     /home/users/vossj/suncat/psp/gbrv1.5pbe/Rh.UPF
     MD5 check sum: 761627e959a2e3a1f56b0b5fe687810e
     Pseudo is Ultrasoft + core correction, Zval = 15.0
     Generated by new atomic code, or converted to UPF format
     Using radial grid of  969 points,  7 beta functions with:
                l(1) =   0
                l(2) =   0
                l(3) =   1
                l(4) =   1
                l(5) =   2
                l(6) =   2
                l(7) =   2
     Q(r) pseudized with  8 coefficients,  rinner =    1.200   1.200   1.200
                                                       1.200   1.200

     vdW kernel table read from file vdW_kernel_table
     MD5 check sum: 095c7af220d748ca6e76c0b4c6cfb241

     atomic species   valence    mass     pseudopotential
        Co1           17.00    58.93320     Co( 1.00)
        Rh1           15.00   102.90550     Rh( 1.00)

     Starting magnetic structure
     atomic species   magnetization
        Co1          0.118
        Rh1          0.133

     16 Sym. Ops., with inversion, found

   Cartesian axes

     site n.     atom                  positions (alat units)
         1           Co1 tau(   1) = (   0.0000000   0.0000000   0.0000000  )
         2           Co1 tau(   2) = (   1.8907719   1.8907719   0.0000000  )
         3           Rh1 tau(   3) = (   1.8907719   0.0000000   1.8286140  )
         4           Rh1 tau(   4) = (   0.0000000   1.8907719   1.8286140  )

     number of k points=   150  Fermi-Dirac smearing, width (Ry)=  0.0073

     Number of k-points >= 100: set verbosity='high' to print them.

     Largest allocated arrays     est. size (Mb)     dimensions
     Largest temporary arrays     est. size (Mb)     dimensions

     Check: negative/imaginary core charge=   -0.000018    0.000000

     Initial potential from superposition of free atoms
     Check: negative starting charge=(component1):   -0.063772
     Check: negative starting charge=(component2):   -0.048763

     starting charge   60.99979, renormalised to   64.00000

     negative rho (up, down):  6.691E-02 5.116E-02

     *
     * You are using vdW-DF for exchange-correlation in this calculation.
     * Please cite the following three references that made this development
     * possible:
     *
     *   M. Dion, H. Rydberg, E. Schroder, D. C. Langreth, and
     *   B. I. Lundqvist, Phys. Rev. Lett. 92, 246401 (2004).
     *
     *   T. Thonhauser, V. R. Cooper, S. Li, A. Puzder, P. Hyldgaard, and
     *   D. C. Langreth, Phys. Rev. B 76, 125112 (2007).
     *
     *   G. Roman-Perez and J. M. Soler, Phys. Rev. Lett. 103, 096102 (2009).
     *
     *
     * If you are using vdW-DF2, please also cite:
     *
     *   K. Lee, E. D. Murray, L. Kong, B. I. Lundqvist, and
     *   D. C. Langreth, Phys. Rev. B 82, 081101(R) (2010).
     *
     *
     * If you are calculating the stress with vdW-DF, please also cite:
     *
     *   R. Sabatini, E. Kucukbenli, B. Kolb, T. Thonhauser, and
     *   S. de Gironcoli, J. Phys.: Condens. Matter 24, 424209 (2012).
     *

     Carrying out vdW-DF run using the following parameters:

     Nqs =      20    Nr_points =    1024   r_max =   100.000
     q_mesh =
               0.00001000     0.04494208     0.09755937     0.15916263
               0.23128650     0.31572767     0.41458969     0.53033537
               0.66584808     0.82450364     1.01025438     1.22772762
               1.48234092     1.78043706     2.12944203     2.53805004
               3.01644009     3.57652955     4.23227104     5.00000000

     Gradients computed in reciprocal space

     Starting wfc are   50 randomized atomic wfcs +    2 random wfc

     Self-consistent Calculation

     iteration #  1     ecut=    58.80 Ry     beta=0.10
     Davidson diagonalization with overlap
     ethr =  1.00E-02,  avg # of iterations =  4.3

[...]

     Magnetic moment per site:
     atom:    1    charge:    8.4474    magn:    0.9874    constr:    0.0000
     atom:    2    charge:    8.4474    magn:    0.9874    constr:    0.0000
     atom:    3    charge:    2.8179    magn:    0.3484    constr:    0.0000
     atom:    4    charge:    2.8179    magn:    0.3484    constr:    0.0000

     total energy              =    -942.93847013 Ry
     Harris-Foulkes estimate   =    -946.46675426 Ry
     estimated scf accuracy    <      20.41535250 Ry

     total magnetization       =     4.25 Bohr mag/cell
     absolute magnetization    =     4.28 Bohr mag/cell

[...]

     total energy              =    -943.57907407 Ry
     Harris-Foulkes estimate   =    -943.57907323 Ry
     estimated scf accuracy    <       0.00000125 Ry

[...]

     iteration # 15     ecut=    58.80 Ry     beta=0.10
     Davidson diagonalization with overlap
     ethr =  1.95E-09,  avg # of iterations =  1.7

     negative rho (up, down):  5.557E-02 6.296E-02

     Magnetic moment per site:
     atom:    1    charge:    8.2857    magn:    1.0778    constr:    0.0000
     atom:    2    charge:    8.2857    magn:    1.0779    constr:    0.0000
     atom:    3    charge:    2.7096    magn:    0.1218    constr:    0.0000
     atom:    4    charge:    2.7096    magn:    0.1218    constr:    0.0000

     End of self-consistent calculation

     Number of k-points >= 100: set verbosity='high' to print the bands.

     the Fermi energy is    18.3123 ev

!    total energy              =    -943.57907845 Ry
     Harris-Foulkes estimate   =    -943.57907425 Ry
     estimated scf accuracy    <       0.00000097 Ry

     The total energy is the sum of the following terms:

     one-electron contribution =    -392.10075791 Ry
     hartree contribution      =     243.94278317 Ry
     xc contribution           =    -129.75565427 Ry
     ewald contribution        =    -665.65115267 Ry
     smearing contrib. (-TS)   =      -0.01429678 Ry

     total magnetization       =     5.15 Bohr mag/cell
     absolute magnetization    =     5.63 Bohr mag/cell

     convergence has been achieved in  15 iterations

     Forces acting on atoms (Ry/au):

     negative rho (up, down):  5.557E-02 6.296E-02
     atom    1 type  1   force =     0.00000000    0.00000000    0.00000000
     atom    2 type  1   force =     0.00000000    0.00000000    0.00000000
     atom    3 type  2   force =     0.00000000    0.00000000    0.00000000
     atom    4 type  2   force =     0.00000000    0.00000000    0.00000000

     Total force =     0.000000     Total SCF correction =     0.000000

     General routines

     Parallel routines

   This run was terminated on:   7:45:50  14Nov2017

   JOB DONE.