     Program PWSCF v.5.1rc2 starts on 15Nov2017 at  5:41:30

     Current dimensions of program PWSCF are:
     Max number of different atomic species (ntypx) = 10
     Max number of k-points (npk) =  40000
     Max angular momentum in pseudopotentials (lmaxx) =  3

     IMPORTANT: XC functional enforced from input :
     Exchange-correlation      = BEEF-VDW ( 1  4 27 13 2)
     Any further DFT definition will be discarded
     Please, verify this is what you really want

     Found symmetry operation: I + ( -0.5000 -0.5000  0.0000)
     This is a supercell, fractional translations are disabled

     bravais-lattice index     =            0
     lattice parameter (alat)  =       1.8897  a.u.
     unit-cell volume          =     408.9120 (a.u.)^3
     number of atoms/cell      =            4
     number of atomic types    =            2
     number of electrons       =        54.00
     number of Kohn-Sham states=           47
     kinetic-energy cutoff     =      58.7989  Ry
     charge density cutoff     =     587.9892  Ry
     convergence threshold     =      1.0E-06
     mixing beta               =       0.1000
     number of iterations used =           10  plain     mixing
     Exchange-correlation      = BEEF-VDW ( 1  4 27 13 2)

     celldm(1)=   1.889726  celldm(2)=   0.000000  celldm(3)=   0.000000
     celldm(4)=   0.000000  celldm(5)=   0.000000  celldm(6)=   0.000000

     crystal axes: (cart. coord. in units of alat)
               a(1) = (   4.169256   0.000000   0.000000 )
               a(2) = (   0.000000   4.169256   0.000000 )
               a(3) = (   0.000000   0.000000   3.485910 )

     reciprocal axes: (cart. coord. in units 2 pi/alat)
               b(1) = (  0.239851  0.000000  0.000000 )
               b(2) = (  0.000000  0.239851  0.000000 )
               b(3) = (  0.000000  0.000000  0.286869 )

     PseudoPot. # 1 for Ti read from file:
     /home/users/vossj/suncat/psp/gbrv1.5pbe/Ti.UPF
     MD5 check sum: 88a00a6731bd790ddea75d31a80cb452
     Pseudo is Ultrasoft + core correction, Zval = 12.0
     Generated by new atomic code, or converted to UPF format
     Using radial grid of  851 points,  6 beta functions with:
                l(1) =   0
                l(2) =   0
                l(3) =   1
                l(4) =   1
                l(5) =   2
                l(6) =   2
     Q(r) pseudized with  6 coefficients,  rinner =    1.000   1.000   1.000
                                                       1.000   1.000

     PseudoPot. # 2 for Ir read from file:
     /home/users/vossj/suncat/psp/gbrv1.5pbe/Ir.UPF
     MD5 check sum: 8836f839c3459d2b385c504ce6d91f2c
     Pseudo is Ultrasoft + core correction, Zval = 15.0
     Generated by new atomic code, or converted to UPF format
     Using radial grid of  983 points,  7 beta functions with:
                l(1) =   0
                l(2) =   0
                l(3) =   1
                l(4) =   1
                l(5) =   1
                l(6) =   2
                l(7) =   2
     Q(r) pseudized with  8 coefficients,  rinner =    1.400   1.400   1.400
                                                       1.400   1.400

     vdW kernel table read from file vdW_kernel_table
     MD5 check sum: 095c7af220d748ca6e76c0b4c6cfb241

     atomic species   valence    mass     pseudopotential
        Ti1           12.00    47.88000     Ti( 1.00)
        Ir1           15.00   192.22000     Ir( 1.00)

     16 Sym. Ops., with inversion, found

   Cartesian axes

     site n.     atom                  positions (alat units)
         1           Ti1 tau(   1) = (   0.0000000   0.0000000   0.0000000  )
         2           Ti1 tau(   2) = (   2.0846278   2.0846278   0.0000000  )
         3           Ir1 tau(   3) = (   2.0846278   0.0000000   1.7429550  )
         4           Ir1 tau(   4) = (   0.0000000   2.0846278   1.7429550  )

     number of k points=    75  Fermi-Dirac smearing, width (Ry)=  0.0073
                       cart. coord. in units 2pi/alat
        k(    1) = (   0.0000000   0.0000000   0.0000000), wk =   0.0027435
        k(    2) = (   0.0000000   0.0000000   0.0318743), wk =   0.0054870
        k(    3) = (   0.0000000   0.0000000   0.0637487), wk =   0.0054870
        k(    4) = (   0.0000000   0.0000000   0.0956230), wk =   0.0054870
        k(    5) = (   0.0000000   0.0000000   0.1274974), wk =   0.0054870
        k(    6) = (   0.0000000   0.0266501   0.0000000), wk =   0.0109739
        k(    7) = (   0.0000000   0.0266501   0.0318743), wk =   0.0219479
        k(    8) = (   0.0000000   0.0266501   0.0637487), wk =   0.0219479
        k(    9) = (   0.0000000   0.0266501   0.0956230), wk =   0.0219479
        k(   10) = (   0.0000000   0.0266501   0.1274974), wk =   0.0219479
        k(   11) = (   0.0000000   0.0533002   0.0000000), wk =   0.0109739
        k(   12) = (   0.0000000   0.0533002   0.0318743), wk =   0.0219479
        k(   13) = (   0.0000000   0.0533002   0.0637487), wk =   0.0219479
        k(   14) = (   0.0000000   0.0533002   0.0956230), wk =   0.0219479
        k(   15) = (   0.0000000   0.0533002   0.1274974), wk =   0.0219479
        k(   16) = (   0.0000000   0.0799503   0.0000000), wk =   0.0109739
        k(   17) = (   0.0000000   0.0799503   0.0318743), wk =   0.0219479
        k(   18) = (   0.0000000   0.0799503   0.0637487), wk =   0.0219479
        k(   19) = (   0.0000000   0.0799503   0.0956230), wk =   0.0219479
        k(   20) = (   0.0000000   0.0799503   0.1274974), wk =   0.0219479
        k(   21) = (   0.0000000   0.1066004   0.0000000), wk =   0.0109739
        k(   22) = (   0.0000000   0.1066004   0.0318743), wk =   0.0219479
        k(   23) = (   0.0000000   0.1066004   0.0637487), wk =   0.0219479
        k(   24) = (   0.0000000   0.1066004   0.0956230), wk =   0.0219479
        k(   25) = (   0.0000000   0.1066004   0.1274974), wk =   0.0219479
        k(   26) = (   0.0266501   0.0266501   0.0000000), wk =   0.0109739
        k(   27) = (   0.0266501   0.0266501   0.0318743), wk =   0.0219479
        k(   28) = (   0.0266501   0.0266501   0.0637487), wk =   0.0219479
        k(   29) = (   0.0266501   0.0266501   0.0956230), wk =   0.0219479
        k(   30) = (   0.0266501   0.0266501   0.1274974), wk =   0.0219479
        k(   31) = (   0.0266501   0.0533002   0.0000000), wk =   0.0219479
        k(   32) = (   0.0266501   0.0533002   0.0318743), wk =   0.0438957
        k(   33) = (   0.0266501   0.0533002   0.0637487), wk =   0.0438957
        k(   34) = (   0.0266501   0.0533002   0.0956230), wk =   0.0438957
        k(   35) = (   0.0266501   0.0533002   0.1274974), wk =   0.0438957
        k(   36) = (   0.0266501   0.0799503   0.0000000), wk =   0.0219479
        k(   37) = (   0.0266501   0.0799503   0.0318743), wk =   0.0438957
        k(   38) = (   0.0266501   0.0799503   0.0637487), wk =   0.0438957
        k(   39) = (   0.0266501   0.0799503   0.0956230), wk =   0.0438957
        k(   40) = (   0.0266501   0.0799503   0.1274974), wk =   0.0438957
        k(   41) = (   0.0266501   0.1066004   0.0000000), wk =   0.0219479
        k(   42) = (   0.0266501   0.1066004   0.0318743), wk =   0.0438957
        k(   43) = (   0.0266501   0.1066004   0.0637487), wk =   0.0438957
        k(   44) = (   0.0266501   0.1066004   0.0956230), wk =   0.0438957
        k(   45) = (   0.0266501   0.1066004   0.1274974), wk =   0.0438957
        k(   46) = (   0.0533002   0.0533002   0.0000000), wk =   0.0109739
        k(   47) = (   0.0533002   0.0533002   0.0318743), wk =   0.0219479
        k(   48) = (   0.0533002   0.0533002   0.0637487), wk =   0.0219479
        k(   49) = (   0.0533002   0.0533002   0.0956230), wk =   0.0219479
        k(   50) = (   0.0533002   0.0533002   0.1274974), wk =   0.0219479
        k(   51) = (   0.0533002   0.0799503   0.0000000), wk =   0.0219479
        k(   52) = (   0.0533002   0.0799503   0.0318743), wk =   0.0438957
        k(   53) = (   0.0533002   0.0799503   0.0637487), wk =   0.0438957
        k(   54) = (   0.0533002   0.0799503   0.0956230), wk =   0.0438957
        k(   55) = (   0.0533002   0.0799503   0.1274974), wk =   0.0438957
        k(   56) = (   0.0533002   0.1066004   0.0000000), wk =   0.0219479
        k(   57) = (   0.0533002   0.1066004   0.0318743), wk =   0.0438957
        k(   58) = (   0.0533002   0.1066004   0.0637487), wk =   0.0438957
        k(   59) = (   0.0533002   0.1066004   0.0956230), wk =   0.0438957
        k(   60) = (   0.0533002   0.1066004   0.1274974), wk =   0.0438957
        k(   61) = (   0.0799503   0.0799503   0.0000000), wk =   0.0109739
        k(   62) = (   0.0799503   0.0799503   0.0318743), wk =   0.0219479
        k(   63) = (   0.0799503   0.0799503   0.0637487), wk =   0.0219479
        k(   64) = (   0.0799503   0.0799503   0.0956230), wk =   0.0219479
        k(   65) = (   0.0799503   0.0799503   0.1274974), wk =   0.0219479
        k(   66) = (   0.0799503   0.1066004   0.0000000), wk =   0.0219479
        k(   67) = (   0.0799503   0.1066004   0.0318743), wk =   0.0438957
        k(   68) = (   0.0799503   0.1066004   0.0637487), wk =   0.0438957
        k(   69) = (   0.0799503   0.1066004   0.0956230), wk =   0.0438957
        k(   70) = (   0.0799503   0.1066004   0.1274974), wk =   0.0438957
        k(   71) = (   0.1066004   0.1066004   0.0000000), wk =   0.0109739
        k(   72) = (   0.1066004   0.1066004   0.0318743), wk =   0.0219479
        k(   73) = (   0.1066004   0.1066004   0.0637487), wk =   0.0219479
        k(   74) = (   0.1066004   0.1066004   0.0956230), wk =   0.0219479
        k(   75) = (   0.1066004   0.1066004   0.1274974), wk =   0.0219479

     Largest allocated arrays     est. size (Mb)     dimensions
     Largest temporary arrays     est. size (Mb)     dimensions

     Check: negative/imaginary core charge=   -0.000001    0.000000

     Initial potential from superposition of free atoms
     Check: negative starting charge=   -0.732410

     starting charge   50.99985, renormalised to   54.00000

     negative rho (up, down):  7.755E-01 0.000E+00

     *
     * You are using vdW-DF for exchange-correlation in this calculation.
     * Please cite the following three references that made this development
     * possible:
     *
     *   M. Dion, H. Rydberg, E. Schroder, D. C. Langreth, and
     *   B. I. Lundqvist, Phys. Rev. Lett. 92, 246401 (2004).
     *
     *   T. Thonhauser, V. R. Cooper, S. Li, A. Puzder, P. Hyldgaard, and
     *   D. C. Langreth, Phys. Rev. B 76, 125112 (2007).
     *
     *   G. Roman-Perez and J. M. Soler, Phys. Rev. Lett. 103, 096102 (2009).
     *
     *
     * If you are using vdW-DF2, please also cite:
     *
     *   K. Lee, E. D. Murray, L. Kong, B. I. Lundqvist, and
     *   D. C. Langreth, Phys. Rev. B 82, 081101(R) (2010).
     *
     *
     * If you are calculating the stress with vdW-DF, please also cite:
     *
     *   R. Sabatini, E. Kucukbenli, B. Kolb, T. Thonhauser, and
     *   S. de Gironcoli, J. Phys.: Condens. Matter 24, 424209 (2012).
     *

     Carrying out vdW-DF run using the following parameters:

     Nqs =      20    Nr_points =    1024   r_max =   100.000
     q_mesh =
               0.00001000     0.04494208     0.09755937     0.15916263
               0.23128650     0.31572767     0.41458969     0.53033537
               0.66584808     0.82450364     1.01025438     1.22772762
               1.48234092     1.78043706     2.12944203     2.53805004
               3.01644009     3.57652955     4.23227104     5.00000000

     Gradients computed in reciprocal space

     Starting wfc are   44 randomized atomic wfcs +    3 random wfc

     Self-consistent Calculation

     iteration #  1     ecut=    58.80 Ry     beta=0.10
     Davidson diagonalization with overlap
     ethr =  1.00E-02,  avg # of iterations =  4.0

[...]

     total energy              =    -605.55868863 Ry
     Harris-Foulkes estimate   =    -609.55031836 Ry
     estimated scf accuracy    <      22.91855047 Ry

[...]

     total energy              =    -606.80241438 Ry
     Harris-Foulkes estimate   =    -606.80243643 Ry
     estimated scf accuracy    <       0.00010202 Ry

     iteration # 11     ecut=    58.80 Ry     beta=0.10
     Davidson diagonalization with overlap
     ethr =  1.51E-08,  avg # of iterations =  2.6

     negative rho (up, down):  6.447E-01 0.000E+00

     End of self-consistent calculation

          k = 0.0000 0.0000 0.0000 (  3109 PWs)   bands (ev):

   -38.5092 -38.4410 -30.4618 -30.4618 -30.3386 -30.3061 -30.3061 -30.3033
   -14.8199 -14.8199 -14.6765 -14.6236 -14.5534 -14.5534  10.5198  13.2415
    13.5123  13.6398  13.6689  14.5007  14.5007  16.6751  16.6751  17.7823
    19.2789  19.5220  20.3182  20.4887  20.4887  20.6353  21.5097  21.7076
    21.9515  21.9515  21.9609  22.2860  22.2860  24.3575  27.0709  29.2003
    29.2003  30.2050  30.2137  30.6885  31.5286  31.5286  33.3968

[...]

          k = 0.1066 0.1066 0.1275 (  3124 PWs)   bands (ev):

   -38.4721 -38.4699 -30.4774 -30.4728 -30.3465 -30.3458 -30.2941 -30.2894
   -14.8495 -14.8413 -14.7004 -14.6981 -14.5361 -14.5277  13.2427  13.3322
    13.6366  13.6395  15.8154  15.9186  16.1146  16.1813  17.2977  17.3244
    18.4971  19.0016  19.2023  19.2041  19.6532  19.6894  19.8621  20.2638
    21.7002  21.7888  21.8247  22.0172  22.1146  22.2352  25.9341  26.1278
    29.0332  29.2058  30.2116  30.2118  32.9739  33.0648  33.1032

     the Fermi energy is    19.0260 ev

!    total energy              =    -606.80243849 Ry
     Harris-Foulkes estimate   =    -606.80242519 Ry
     estimated scf accuracy    <       0.00000014 Ry

     The total energy is the sum of the following terms:

     one-electron contribution =     -96.01184522 Ry
     hartree contribution      =      84.22674360 Ry
     xc contribution           =    -141.71479036 Ry
     ewald contribution        =    -453.29247393 Ry
     smearing contrib. (-TS)   =      -0.01007258 Ry

     convergence has been achieved in  11 iterations

     Forces acting on atoms (Ry/au):

     negative rho (up, down):  6.447E-01 0.000E+00
     atom    1 type  1   force =     0.00000000    0.00000000    0.00000000
     atom    2 type  1   force =     0.00000000    0.00000000    0.00000000
     atom    3 type  2   force =     0.00000000    0.00000000    0.00000000
     atom    4 type  2   force =     0.00000000    0.00000000    0.00000000

     Total force =     0.000000     Total SCF correction =     0.000000

     General routines

     Parallel routines

   This run was terminated on:   5:42: 8  15Nov2017

   JOB DONE.