     Program PWSCF v.5.1rc2 (svn rev. ) starts on 14Nov2017 at 20:15: 3

     Current dimensions of program PWSCF are:
     Max number of different atomic species (ntypx) = 10
     Max number of k-points (npk) =  40000
     Max angular momentum in pseudopotentials (lmaxx) =  3

     IMPORTANT: XC functional enforced from input :
     Exchange-correlation      = BEEF-VDW ( 1  4 27 13 2)
     Any further DFT definition will be discarded
     Please, verify this is what you really want

     Subspace diagonalization in iterative solution of the eigenvalue problem:
     a serial algorithm will be used

     Found symmetry operation: I + ( -0.5000 -0.5000  0.0000)
     This is a supercell, fractional translations are disabled

     bravais-lattice index     =            0
     lattice parameter (alat)  =       1.8897  a.u.
     unit-cell volume          =     412.3815 (a.u.)^3
     number of atoms/cell      =            4
     number of atomic types    =            2
     number of electrons       =        58.00
     number of Kohn-Sham states=           49
     kinetic-energy cutoff     =      58.7989  Ry
     charge density cutoff     =     587.9892  Ry
     convergence threshold     =      1.0E-06
     mixing beta               =       0.1000
     number of iterations used =           10  plain     mixing
     Exchange-correlation      = BEEF-VDW ( 1  4 27 13 2)

     celldm(1)=   1.889726  celldm(2)=   0.000000  celldm(3)=   0.000000
     celldm(4)=   0.000000  celldm(5)=   0.000000  celldm(6)=   0.000000

     crystal axes: (cart. coord. in units of alat)
               a(1) = (   3.956427   0.000000   0.000000 )
               a(2) = (   0.000000   3.956427   0.000000 )
               a(3) = (   0.000000   0.000000   3.903878 )

     reciprocal axes: (cart. coord. in units 2 pi/alat)
               b(1) = (  0.252753  0.000000  0.000000 )
               b(2) = (  0.000000  0.252753  0.000000 )
               b(3) = (  0.000000  0.000000  0.256156 )

     PseudoPot. # 1 for Mo read from file:
     /home/vossj/suncat/psp/gbrv1.5pbe/Mo.UPF
     MD5 check sum: 30c4dcd161f5d35cd49bb5239c51a633
     Pseudo is Ultrasoft + core correction, Zval = 14.0
     Generated by new atomic code, or converted to UPF format
     Using radial grid of  889 points,  6 beta functions with:
                l(1) =   0
                l(2) =   0
                l(3) =   1
                l(4) =   1
                l(5) =   2
                l(6) =   2
     Q(r) pseudized with  6 coefficients,  rinner =    1.000   1.000   1.000
                                                       1.000   1.000

     PseudoPot. # 2 for Tc read from file:
     /home/vossj/suncat/psp/gbrv1.5pbe/Tc.UPF
     MD5 check sum: 9eb49e5b028550b2339a02317eb7b844
     Pseudo is Ultrasoft + core correction, Zval = 15.0
     Generated by new atomic code, or converted to UPF format
     Using radial grid of  965 points,  6 beta functions with:
                l(1) =   0
                l(2) =   0
                l(3) =   1
                l(4) =   1
                l(5) =   2
                l(6) =   2
     Q(r) pseudized with  8 coefficients,  rinner =    1.300   1.300   1.300
                                                       1.300   1.300

     vdW kernel table read from file vdW_kernel_table
     MD5 check sum: 095c7af220d748ca6e76c0b4c6cfb241

     atomic species   valence    mass     pseudopotential
        Mo1           14.00    95.95000     Mo( 1.00)
        Tc1           15.00    97.90721     Tc( 1.00)

     16 Sym. Ops., with inversion, found

   Cartesian axes

     site n.     atom                  positions (alat units)
         1           Mo1 tau(   1) = (   0.0000000   0.0000000   0.0000000  )
         2           Mo1 tau(   2) = (   1.9782135   1.9782135   0.0000000  )
         3           Tc1 tau(   3) = (   1.9782135   0.0000000   1.9519388  )
         4           Tc1 tau(   4) = (   0.0000000   1.9782135   1.9519388  )

     number of k points=    75  Fermi-Dirac smearing, width (Ry)=  0.0073
                       cart. coord. in units 2pi/alat
        k(    1) = (   0.0000000   0.0000000   0.0000000), wk =   0.0027435
        k(    2) = (   0.0000000   0.0000000   0.0284617), wk =   0.0054870
        k(    3) = (   0.0000000   0.0000000   0.0569235), wk =   0.0054870
        k(    4) = (   0.0000000   0.0000000   0.0853852), wk =   0.0054870
        k(    5) = (   0.0000000   0.0000000   0.1138469), wk =   0.0054870
        k(    6) = (   0.0000000   0.0280837   0.0000000), wk =   0.0109739
        k(    7) = (   0.0000000   0.0280837   0.0284617), wk =   0.0219479
        k(    8) = (   0.0000000   0.0280837   0.0569235), wk =   0.0219479
        k(    9) = (   0.0000000   0.0280837   0.0853852), wk =   0.0219479
        k(   10) = (   0.0000000   0.0280837   0.1138469), wk =   0.0219479
        k(   11) = (   0.0000000   0.0561674   0.0000000), wk =   0.0109739
        k(   12) = (   0.0000000   0.0561674   0.0284617), wk =   0.0219479
        k(   13) = (   0.0000000   0.0561674   0.0569235), wk =   0.0219479
        k(   14) = (   0.0000000   0.0561674   0.0853852), wk =   0.0219479
        k(   15) = (   0.0000000   0.0561674   0.1138469), wk =   0.0219479
        k(   16) = (   0.0000000   0.0842511   0.0000000), wk =   0.0109739
        k(   17) = (   0.0000000   0.0842511   0.0284617), wk =   0.0219479
        k(   18) = (   0.0000000   0.0842511   0.0569235), wk =   0.0219479
        k(   19) = (   0.0000000   0.0842511   0.0853852), wk =   0.0219479
        k(   20) = (   0.0000000   0.0842511   0.1138469), wk =   0.0219479
        k(   21) = (   0.0000000   0.1123348   0.0000000), wk =   0.0109739
        k(   22) = (   0.0000000   0.1123348   0.0284617), wk =   0.0219479
        k(   23) = (   0.0000000   0.1123348   0.0569235), wk =   0.0219479
        k(   24) = (   0.0000000   0.1123348   0.0853852), wk =   0.0219479
        k(   25) = (   0.0000000   0.1123348   0.1138469), wk =   0.0219479
        k(   26) = (   0.0280837   0.0280837   0.0000000), wk =   0.0109739
        k(   27) = (   0.0280837   0.0280837   0.0284617), wk =   0.0219479
        k(   28) = (   0.0280837   0.0280837   0.0569235), wk =   0.0219479
        k(   29) = (   0.0280837   0.0280837   0.0853852), wk =   0.0219479
        k(   30) = (   0.0280837   0.0280837   0.1138469), wk =   0.0219479
        k(   31) = (   0.0280837   0.0561674   0.0000000), wk =   0.0219479
        k(   32) = (   0.0280837   0.0561674   0.0284617), wk =   0.0438957
        k(   33) = (   0.0280837   0.0561674   0.0569235), wk =   0.0438957
        k(   34) = (   0.0280837   0.0561674   0.0853852), wk =   0.0438957
        k(   35) = (   0.0280837   0.0561674   0.1138469), wk =   0.0438957
        k(   36) = (   0.0280837   0.0842511   0.0000000), wk =   0.0219479
        k(   37) = (   0.0280837   0.0842511   0.0284617), wk =   0.0438957
        k(   38) = (   0.0280837   0.0842511   0.0569235), wk =   0.0438957
        k(   39) = (   0.0280837   0.0842511   0.0853852), wk =   0.0438957
        k(   40) = (   0.0280837   0.0842511   0.1138469), wk =   0.0438957
        k(   41) = (   0.0280837   0.1123348   0.0000000), wk =   0.0219479
        k(   42) = (   0.0280837   0.1123348   0.0284617), wk =   0.0438957
        k(   43) = (   0.0280837   0.1123348   0.0569235), wk =   0.0438957
        k(   44) = (   0.0280837   0.1123348   0.0853852), wk =   0.0438957
        k(   45) = (   0.0280837   0.1123348   0.1138469), wk =   0.0438957
        k(   46) = (   0.0561674   0.0561674   0.0000000), wk =   0.0109739
        k(   47) = (   0.0561674   0.0561674   0.0284617), wk =   0.0219479
        k(   48) = (   0.0561674   0.0561674   0.0569235), wk =   0.0219479
        k(   49) = (   0.0561674   0.0561674   0.0853852), wk =   0.0219479
        k(   50) = (   0.0561674   0.0561674   0.1138469), wk =   0.0219479
        k(   51) = (   0.0561674   0.0842511   0.0000000), wk =   0.0219479
        k(   52) = (   0.0561674   0.0842511   0.0284617), wk =   0.0438957
        k(   53) = (   0.0561674   0.0842511   0.0569235), wk =   0.0438957
        k(   54) = (   0.0561674   0.0842511   0.0853852), wk =   0.0438957
        k(   55) = (   0.0561674   0.0842511   0.1138469), wk =   0.0438957
        k(   56) = (   0.0561674   0.1123348   0.0000000), wk =   0.0219479
        k(   57) = (   0.0561674   0.1123348   0.0284617), wk =   0.0438957
        k(   58) = (   0.0561674   0.1123348   0.0569235), wk =   0.0438957
        k(   59) = (   0.0561674   0.1123348   0.0853852), wk =   0.0438957
        k(   60) = (   0.0561674   0.1123348   0.1138469), wk =   0.0438957
        k(   61) = (   0.0842511   0.0842511   0.0000000), wk =   0.0109739
        k(   62) = (   0.0842511   0.0842511   0.0284617), wk =   0.0219479
        k(   63) = (   0.0842511   0.0842511   0.0569235), wk =   0.0219479
        k(   64) = (   0.0842511   0.0842511   0.0853852), wk =   0.0219479
        k(   65) = (   0.0842511   0.0842511   0.1138469), wk =   0.0219479
        k(   66) = (   0.0842511   0.1123348   0.0000000), wk =   0.0219479
        k(   67) = (   0.0842511   0.1123348   0.0284617), wk =   0.0438957
        k(   68) = (   0.0842511   0.1123348   0.0569235), wk =   0.0438957
        k(   69) = (   0.0842511   0.1123348   0.0853852), wk =   0.0438957
        k(   70) = (   0.0842511   0.1123348   0.1138469), wk =   0.0438957
        k(   71) = (   0.1123348   0.1123348   0.0000000), wk =   0.0109739
        k(   72) = (   0.1123348   0.1123348   0.0284617), wk =   0.0219479
        k(   73) = (   0.1123348   0.1123348   0.0569235), wk =   0.0219479
        k(   74) = (   0.1123348   0.1123348   0.0853852), wk =   0.0219479
        k(   75) = (   0.1123348   0.1123348   0.1138469), wk =   0.0219479

     Largest allocated arrays     est. size (Mb)     dimensions
     Largest temporary arrays     est. size (Mb)     dimensions

     Check: negative/imaginary core charge=   -0.000007    0.000000

     Initial potential from superposition of free atoms
     Check: negative starting charge=   -0.246738

     starting charge   55.99782, renormalised to   58.00000

     negative rho (up, down):  2.556E-01 0.000E+00

     *
     * You are using vdW-DF for exchange-correlation in this calculation.
     * Please cite the following three references that made this development
     * possible:
     *
     *   M. Dion, H. Rydberg, E. Schroder, D. C. Langreth, and
     *   B. I. Lundqvist, Phys. Rev. Lett. 92, 246401 (2004).
     *
     *   T. Thonhauser, V. R. Cooper, S. Li, A. Puzder, P. Hyldgaard, and
     *   D. C. Langreth, Phys. Rev. B 76, 125112 (2007).
     *
     *   G. Roman-Perez and J. M. Soler, Phys. Rev. Lett. 103, 096102 (2009).
     *
     *
     * If you are using vdW-DF2, please also cite:
     *
     *   K. Lee, E. D. Murray, L. Kong, B. I. Lundqvist, and
     *   D. C. Langreth, Phys. Rev. B 82, 081101(R) (2010).
     *
     *
     * If you are calculating the stress with vdW-DF, please also cite:
     *
     *   R. Sabatini, E. Kucukbenli, B. Kolb, T. Thonhauser, and
     *   S. de Gironcoli, J. Phys.: Condens. Matter 24, 424209 (2012).
     *

     Carrying out vdW-DF run using the following parameters:

     Nqs =      20    Nr_points =    1024   r_max =   100.000
     q_mesh =
               0.00001000     0.04494208     0.09755937     0.15916263
               0.23128650     0.31572767     0.41458969     0.53033537
               0.66584808     0.82450364     1.01025438     1.22772762
               1.48234092     1.78043706     2.12944203     2.53805004
               3.01644009     3.57652955     4.23227104     5.00000000

     Gradients computed in reciprocal space

     Starting wfc are   52 randomized atomic wfcs

     Self-consistent Calculation

     iteration #  1     ecut=    58.80 Ry     beta=0.10
     Davidson diagonalization with overlap
     ethr =  1.00E-02,  avg # of iterations =  4.1

[...]

     total energy              =    -630.87313369 Ry
     Harris-Foulkes estimate   =    -631.04149576 Ry
     estimated scf accuracy    <       1.17592159 Ry

[...]

     total energy              =    -630.63522716 Ry
     Harris-Foulkes estimate   =    -630.63523219 Ry
     estimated scf accuracy    <       0.00001263 Ry

     iteration # 11     ecut=    58.80 Ry     beta=0.10
     Davidson diagonalization with overlap
     ethr =  9.56E-09,  avg # of iterations =  2.0

     negative rho (up, down):  2.594E-01 0.000E+00

     End of self-consistent calculation

          k = 0.0000 0.0000 0.0000 (  3135 PWs)   bands (ev):

   -45.8522 -45.7431 -40.0172 -39.8556 -18.0719 -18.0719 -17.9301 -17.7445
   -17.5927 -17.5927 -14.2606 -14.2606 -13.9754 -13.9027 -13.6302 -13.6302
    14.0973  15.7063  15.7214  15.7564  16.3230  16.3495  16.3495  19.7325
    19.7325  19.9403  22.1563  22.5136  24.0228  24.1726  24.5230  24.6767
    24.9409  24.9409  25.0047  25.0047  25.0199  25.0199  25.2200  25.5811
    33.5429  33.7172  33.7172  33.8342  33.8342  34.5428  34.6116  35.0704
    35.1602

[...]

          k = 0.1123 0.1123 0.1138 (  3134 PWs)   bands (ev):

   -45.7968 -45.7936 -39.9392 -39.9342 -18.1535 -18.1402 -17.8751 -17.8722
   -17.5504 -17.5360 -14.3162 -14.2977 -13.9417 -13.9371 -13.5988 -13.5780
    16.1063  16.1617  16.2156  16.2376  19.4063  19.4399  19.4591  19.5551
    19.6415  19.6668  19.9427  20.0429  21.9303  22.0032  22.0329  22.1934
    24.0085  24.0609  24.2500  24.5711  24.7036  24.7868  24.9634  25.0612
    31.7767  31.8752  32.0462  32.2668  34.5153  34.5456  34.5577  34.5713
    40.2043

     the Fermi energy is    21.0203 ev

!    total energy              =    -630.63523143 Ry
     Harris-Foulkes estimate   =    -630.63522955 Ry
     estimated scf accuracy    <       0.00000017 Ry

     The total energy is the sum of the following terms:

     one-electron contribution =     -88.77062751 Ry
     hartree contribution      =      82.96828090 Ry
     xc contribution           =    -106.48668590 Ry
     ewald contribution        =    -518.33609121 Ry
     smearing contrib. (-TS)   =      -0.01010772 Ry

     convergence has been achieved in  11 iterations

     Forces acting on atoms (Ry/au):

     negative rho (up, down):  2.594E-01 0.000E+00
     atom    1 type  1   force =     0.00000000    0.00000000    0.00000000
     atom    2 type  1   force =     0.00000000    0.00000000    0.00000000
     atom    3 type  2   force =     0.00000000    0.00000000    0.00000000
     atom    4 type  2   force =     0.00000000    0.00000000    0.00000000

     Total force =     0.000000     Total SCF correction =     0.000000

     General routines

     Parallel routines

   This run was terminated on:  20:15:45  14Nov2017

   JOB DONE.