     Program PWSCF v.5.1rc2 starts on 14Nov2017 at 16:29:21

     Current dimensions of program PWSCF are:
     Max number of different atomic species (ntypx) = 10
     Max number of k-points (npk) =  40000
     Max angular momentum in pseudopotentials (lmaxx) =  3

     IMPORTANT: XC functional enforced from input :
     Exchange-correlation      = BEEF-VDW ( 1  4 27 13 2)
     Any further DFT definition will be discarded
     Please, verify this is what you really want

     Found symmetry operation: I + ( -0.5000 -0.5000  0.0000)
     This is a supercell, fractional translations are disabled

     bravais-lattice index     =            0
     lattice parameter (alat)  =       1.8897  a.u.
     unit-cell volume          =     466.8401 (a.u.)^3
     number of atoms/cell      =            4
     number of atomic types    =            2
     number of electrons       =        54.00
     number of Kohn-Sham states=           47
     kinetic-energy cutoff     =      58.7989  Ry
     charge density cutoff     =     587.9892  Ry
     convergence threshold     =      1.0E-06
     mixing beta               =       0.1000
     number of iterations used =           10  plain     mixing
     Exchange-correlation      = BEEF-VDW ( 1  4 27 13 2)

     celldm(1)=   1.889726  celldm(2)=   0.000000  celldm(3)=   0.000000
     celldm(4)=   0.000000  celldm(5)=   0.000000  celldm(6)=   0.000000

     crystal axes: (cart. coord. in units of alat)
               a(1) = (   3.793578   0.000000   0.000000 )
               a(2) = (   0.000000   3.793578   0.000000 )
               a(3) = (   0.000000   0.000000   4.806992 )

     reciprocal axes: (cart. coord. in units 2 pi/alat)
               b(1) = (  0.263603  0.000000  0.000000 )
               b(2) = (  0.000000  0.263603  0.000000 )
               b(3) = (  0.000000  0.000000  0.208030 )

     PseudoPot. # 1 for Nb read from file:
     /home/users/vossj/suncat/psp/gbrv1.5pbe/Nb.UPF
     MD5 check sum: 573aab8a2fa660278ed4a62cd769473f
     Pseudo is Ultrasoft + core correction, Zval = 13.0
     Generated by new atomic code, or converted to UPF format
     Using radial grid of  887 points,  6 beta functions with:
                l(1) =   0
                l(2) =   0
                l(3) =   1
                l(4) =   1
                l(5) =   2
                l(6) =   2
     Q(r) pseudized with  6 coefficients,  rinner =    1.000   1.000   1.000
                                                       1.000   1.000

     PseudoPot. # 2 for Mo read from file:
     /home/users/vossj/suncat/psp/gbrv1.5pbe/Mo.UPF
     MD5 check sum: 30c4dcd161f5d35cd49bb5239c51a633
     Pseudo is Ultrasoft + core correction, Zval = 14.0
     Generated by new atomic code, or converted to UPF format
     Using radial grid of  889 points,  6 beta functions with:
                l(1) =   0
                l(2) =   0
                l(3) =   1
                l(4) =   1
                l(5) =   2
                l(6) =   2
     Q(r) pseudized with  6 coefficients,  rinner =    1.000   1.000   1.000
                                                       1.000   1.000

     vdW kernel table read from file vdW_kernel_table
     MD5 check sum: 095c7af220d748ca6e76c0b4c6cfb241

     atomic species   valence    mass     pseudopotential
        Nb1           13.00    92.90640     Nb( 1.00)
        Mo1           14.00    95.94000     Mo( 1.00)

     16 Sym. Ops., with inversion, found

   Cartesian axes

     site n.     atom                  positions (alat units)
         1           Nb1 tau(   1) = (   0.0000000   0.0000000   0.0000000  )
         2           Nb1 tau(   2) = (   1.8967892   1.8967892   0.0000000  )
         3           Mo1 tau(   3) = (   1.8967892   0.0000000   2.4034961  )
         4           Mo1 tau(   4) = (   0.0000000   1.8967892   2.4034961  )

     number of k points=    75  Fermi-Dirac smearing, width (Ry)=  0.0073
                       cart. coord. in units 2pi/alat
        k(    1) = (   0.0000000   0.0000000   0.0000000), wk =   0.0027435
        k(    2) = (   0.0000000   0.0000000   0.0231145), wk =   0.0054870
        k(    3) = (   0.0000000   0.0000000   0.0462290), wk =   0.0054870
        k(    4) = (   0.0000000   0.0000000   0.0693434), wk =   0.0054870
        k(    5) = (   0.0000000   0.0000000   0.0924579), wk =   0.0054870
        k(    6) = (   0.0000000   0.0292893   0.0000000), wk =   0.0109739
        k(    7) = (   0.0000000   0.0292893   0.0231145), wk =   0.0219479
        k(    8) = (   0.0000000   0.0292893   0.0462290), wk =   0.0219479
        k(    9) = (   0.0000000   0.0292893   0.0693434), wk =   0.0219479
        k(   10) = (   0.0000000   0.0292893   0.0924579), wk =   0.0219479
        k(   11) = (   0.0000000   0.0585785   0.0000000), wk =   0.0109739
        k(   12) = (   0.0000000   0.0585785   0.0231145), wk =   0.0219479
        k(   13) = (   0.0000000   0.0585785   0.0462290), wk =   0.0219479
        k(   14) = (   0.0000000   0.0585785   0.0693434), wk =   0.0219479
        k(   15) = (   0.0000000   0.0585785   0.0924579), wk =   0.0219479
        k(   16) = (   0.0000000   0.0878678   0.0000000), wk =   0.0109739
        k(   17) = (   0.0000000   0.0878678   0.0231145), wk =   0.0219479
        k(   18) = (   0.0000000   0.0878678   0.0462290), wk =   0.0219479
        k(   19) = (   0.0000000   0.0878678   0.0693434), wk =   0.0219479
        k(   20) = (   0.0000000   0.0878678   0.0924579), wk =   0.0219479
        k(   21) = (   0.0000000   0.1171570   0.0000000), wk =   0.0109739
        k(   22) = (   0.0000000   0.1171570   0.0231145), wk =   0.0219479
        k(   23) = (   0.0000000   0.1171570   0.0462290), wk =   0.0219479
        k(   24) = (   0.0000000   0.1171570   0.0693434), wk =   0.0219479
        k(   25) = (   0.0000000   0.1171570   0.0924579), wk =   0.0219479
        k(   26) = (   0.0292893   0.0292893   0.0000000), wk =   0.0109739
        k(   27) = (   0.0292893   0.0292893   0.0231145), wk =   0.0219479
        k(   28) = (   0.0292893   0.0292893   0.0462290), wk =   0.0219479
        k(   29) = (   0.0292893   0.0292893   0.0693434), wk =   0.0219479
        k(   30) = (   0.0292893   0.0292893   0.0924579), wk =   0.0219479
        k(   31) = (   0.0292893   0.0585785   0.0000000), wk =   0.0219479
        k(   32) = (   0.0292893   0.0585785   0.0231145), wk =   0.0438957
        k(   33) = (   0.0292893   0.0585785   0.0462290), wk =   0.0438957
        k(   34) = (   0.0292893   0.0585785   0.0693434), wk =   0.0438957
        k(   35) = (   0.0292893   0.0585785   0.0924579), wk =   0.0438957
        k(   36) = (   0.0292893   0.0878678   0.0000000), wk =   0.0219479
        k(   37) = (   0.0292893   0.0878678   0.0231145), wk =   0.0438957
        k(   38) = (   0.0292893   0.0878678   0.0462290), wk =   0.0438957
        k(   39) = (   0.0292893   0.0878678   0.0693434), wk =   0.0438957
        k(   40) = (   0.0292893   0.0878678   0.0924579), wk =   0.0438957
        k(   41) = (   0.0292893   0.1171570   0.0000000), wk =   0.0219479
        k(   42) = (   0.0292893   0.1171570   0.0231145), wk =   0.0438957
        k(   43) = (   0.0292893   0.1171570   0.0462290), wk =   0.0438957
        k(   44) = (   0.0292893   0.1171570   0.0693434), wk =   0.0438957
        k(   45) = (   0.0292893   0.1171570   0.0924579), wk =   0.0438957
        k(   46) = (   0.0585785   0.0585785   0.0000000), wk =   0.0109739
        k(   47) = (   0.0585785   0.0585785   0.0231145), wk =   0.0219479
        k(   48) = (   0.0585785   0.0585785   0.0462290), wk =   0.0219479
        k(   49) = (   0.0585785   0.0585785   0.0693434), wk =   0.0219479
        k(   50) = (   0.0585785   0.0585785   0.0924579), wk =   0.0219479
        k(   51) = (   0.0585785   0.0878678   0.0000000), wk =   0.0219479
        k(   52) = (   0.0585785   0.0878678   0.0231145), wk =   0.0438957
        k(   53) = (   0.0585785   0.0878678   0.0462290), wk =   0.0438957
        k(   54) = (   0.0585785   0.0878678   0.0693434), wk =   0.0438957
        k(   55) = (   0.0585785   0.0878678   0.0924579), wk =   0.0438957
        k(   56) = (   0.0585785   0.1171570   0.0000000), wk =   0.0219479
        k(   57) = (   0.0585785   0.1171570   0.0231145), wk =   0.0438957
        k(   58) = (   0.0585785   0.1171570   0.0462290), wk =   0.0438957
        k(   59) = (   0.0585785   0.1171570   0.0693434), wk =   0.0438957
        k(   60) = (   0.0585785   0.1171570   0.0924579), wk =   0.0438957
        k(   61) = (   0.0878678   0.0878678   0.0000000), wk =   0.0109739
        k(   62) = (   0.0878678   0.0878678   0.0231145), wk =   0.0219479
        k(   63) = (   0.0878678   0.0878678   0.0462290), wk =   0.0219479
        k(   64) = (   0.0878678   0.0878678   0.0693434), wk =   0.0219479
        k(   65) = (   0.0878678   0.0878678   0.0924579), wk =   0.0219479
        k(   66) = (   0.0878678   0.1171570   0.0000000), wk =   0.0219479
        k(   67) = (   0.0878678   0.1171570   0.0231145), wk =   0.0438957
        k(   68) = (   0.0878678   0.1171570   0.0462290), wk =   0.0438957
        k(   69) = (   0.0878678   0.1171570   0.0693434), wk =   0.0438957
        k(   70) = (   0.0878678   0.1171570   0.0924579), wk =   0.0438957
        k(   71) = (   0.1171570   0.1171570   0.0000000), wk =   0.0109739
        k(   72) = (   0.1171570   0.1171570   0.0231145), wk =   0.0219479
        k(   73) = (   0.1171570   0.1171570   0.0462290), wk =   0.0219479
        k(   74) = (   0.1171570   0.1171570   0.0693434), wk =   0.0219479
        k(   75) = (   0.1171570   0.1171570   0.0924579), wk =   0.0219479

     Largest allocated arrays     est. size (Mb)     dimensions
     Largest temporary arrays     est. size (Mb)     dimensions

     Initial potential from superposition of free atoms

     starting charge   53.99241, renormalised to   54.00000

     *
     * You are using vdW-DF for exchange-correlation in this calculation.
     * Please cite the following three references that made this development
     * possible:
     *
     *   M. Dion, H. Rydberg, E. Schroder, D. C. Langreth, and
     *   B. I. Lundqvist, Phys. Rev. Lett. 92, 246401 (2004).
     *
     *   T. Thonhauser, V. R. Cooper, S. Li, A. Puzder, P. Hyldgaard, and
     *   D. C. Langreth, Phys. Rev. B 76, 125112 (2007).
     *
     *   G. Roman-Perez and J. M. Soler, Phys. Rev. Lett. 103, 096102 (2009).
     *
     *
     * If you are using vdW-DF2, please also cite:
     *
     *   K. Lee, E. D. Murray, L. Kong, B. I. Lundqvist, and
     *   D. C. Langreth, Phys. Rev. B 82, 081101(R) (2010).
     *
     *
     * If you are calculating the stress with vdW-DF, please also cite:
     *
     *   R. Sabatini, E. Kucukbenli, B. Kolb, T. Thonhauser, and
     *   S. de Gironcoli, J. Phys.: Condens. Matter 24, 424209 (2012).
     *

     Carrying out vdW-DF run using the following parameters:

     Nqs =      20    Nr_points =    1024   r_max =   100.000
     q_mesh =
               0.00001000     0.04494208     0.09755937     0.15916263
               0.23128650     0.31572767     0.41458969     0.53033537
               0.66584808     0.82450364     1.01025438     1.22772762
               1.48234092     1.78043706     2.12944203     2.53805004
               3.01644009     3.57652955     4.23227104     5.00000000

     Gradients computed in reciprocal space

     Starting wfc are   52 randomized atomic wfcs

     Self-consistent Calculation

     iteration #  1     ecut=    58.80 Ry     beta=0.10
     Davidson diagonalization with overlap
     ethr =  1.00E-02,  avg # of iterations =  4.6

     total energy              =    -517.04641897 Ry
     Harris-Foulkes estimate   =    -517.29043095 Ry
     estimated scf accuracy    <       1.41380981 Ry

[...]

     total energy              =    -517.13122787 Ry
     Harris-Foulkes estimate   =    -517.13122786 Ry
     estimated scf accuracy    <       0.00000194 Ry

     iteration # 11     ecut=    58.80 Ry     beta=0.10
     Davidson diagonalization with overlap
     ethr =  3.60E-09,  avg # of iterations =  2.0

     End of self-consistent calculation

          k = 0.0000 0.0000 0.0000 (  3591 PWs)   bands (ev):

   -42.5028 -42.2390 -36.2761 -35.8685 -16.8666 -16.8666 -16.5433 -16.2533
   -15.9379 -15.9379 -12.7778 -12.7778 -12.2426 -11.9177 -11.4758 -11.4758
    12.2919  13.9859  14.1228  14.3228  14.9331  15.0881  15.0881  16.6363
    18.5158  19.5235  19.5235  19.8763  21.5669  21.5669  21.5669  22.1336
    22.6788  23.3379  23.3379  24.0384  24.0559  24.0559  24.0603  26.1651
    27.9359  28.7120  28.9543  31.7181  31.7181  31.9039  32.4075

[...]

          k = 0.1172 0.1172 0.0925 (  3559 PWs)   bands (ev):

   -42.3726 -42.3646 -36.0754 -36.0631 -17.0170 -16.9909 -16.3990 -16.3917
   -15.8718 -15.8422 -12.9786 -12.9427 -12.0885 -12.0771 -11.3811 -11.3381
    14.4706  14.5313  14.5430  14.5497  16.6044  16.7409  17.2986  17.4781
    18.7574  19.2969  19.4256  19.8065  19.8461  20.1121  20.2028  20.2091
    22.0765  22.4168  22.7112  22.9236  22.9761  23.0722  23.4455  23.5652
    29.3350  29.4371  30.3664  30.4075  30.4203  30.5174  30.7059

     the Fermi energy is    18.6692 ev

!    total energy              =    -517.13123215 Ry
     Harris-Foulkes estimate   =    -517.13122821 Ry
     estimated scf accuracy    <       0.00000007 Ry

     The total energy is the sum of the following terms:

     one-electron contribution =     -78.45817561 Ry
     hartree contribution      =      69.73392192 Ry
     xc contribution           =     -78.39673204 Ry
     ewald contribution        =    -430.00285079 Ry
     smearing contrib. (-TS)   =      -0.00739564 Ry

     convergence has been achieved in  11 iterations

     Forces acting on atoms (Ry/au):

     atom    1 type  1   force =     0.00000000    0.00000000    0.00000000
     atom    2 type  1   force =     0.00000000    0.00000000    0.00000000
     atom    3 type  2   force =     0.00000000    0.00000000    0.00000000
     atom    4 type  2   force =     0.00000000    0.00000000    0.00000000

     Total force =     0.000000     Total SCF correction =     0.000000

     General routines

     Parallel routines

   This run was terminated on:  16:29:56  14Nov2017

   JOB DONE.