     Program PWSCF v.5.1rc2 starts on 14Nov2017 at 15:43:38

     Current dimensions of program PWSCF are:
     Max number of different atomic species (ntypx) = 10
     Max number of k-points (npk) =  40000
     Max angular momentum in pseudopotentials (lmaxx) =  3

     IMPORTANT: XC functional enforced from input :
     Exchange-correlation      = BEEF-VDW ( 1  4 27 13 2)
     Any further DFT definition will be discarded
     Please, verify this is what you really want

     Found symmetry operation: I + ( -0.5000 -0.5000  0.0000)
     This is a supercell, fractional translations are disabled

     bravais-lattice index     =            0
     lattice parameter (alat)  =       1.8897  a.u.
     unit-cell volume          =     406.0835 (a.u.)^3
     number of atoms/cell      =            4
     number of atomic types    =            2
     number of electrons       =        58.00
     number of Kohn-Sham states=           49
     kinetic-energy cutoff     =      58.7989  Ry
     charge density cutoff     =     587.9892  Ry
     convergence threshold     =      1.0E-06
     mixing beta               =       0.1000
     number of iterations used =           10  plain     mixing
     Exchange-correlation      = BEEF-VDW ( 1  4 27 13 2)

     celldm(1)=   1.889726  celldm(2)=   0.000000  celldm(3)=   0.000000
     celldm(4)=   0.000000  celldm(5)=   0.000000  celldm(6)=   0.000000

     crystal axes: (cart. coord. in units of alat)
               a(1) = (   3.916026   0.000000   0.000000 )
               a(2) = (   0.000000   3.916026   0.000000 )
               a(3) = (   0.000000   0.000000   3.923987 )

     reciprocal axes: (cart. coord. in units 2 pi/alat)
               b(1) = (  0.255361  0.000000  0.000000 )
               b(2) = (  0.000000  0.255361  0.000000 )
               b(3) = (  0.000000  0.000000  0.254843 )

     PseudoPot. # 1 for Mo read from file:
     /home/users/vossj/suncat/psp/gbrv1.5pbe/Mo.UPF
     MD5 check sum: 30c4dcd161f5d35cd49bb5239c51a633
     Pseudo is Ultrasoft + core correction, Zval = 14.0
     Generated by new atomic code, or converted to UPF format
     Using radial grid of  889 points,  6 beta functions with:
                l(1) =   0
                l(2) =   0
                l(3) =   1
                l(4) =   1
                l(5) =   2
                l(6) =   2
     Q(r) pseudized with  6 coefficients,  rinner =    1.000   1.000   1.000
                                                       1.000   1.000

     PseudoPot. # 2 for Ir read from file:
     /home/users/vossj/suncat/psp/gbrv1.5pbe/Ir.UPF
     MD5 check sum: 8836f839c3459d2b385c504ce6d91f2c
     Pseudo is Ultrasoft + core correction, Zval = 15.0
     Generated by new atomic code, or converted to UPF format
     Using radial grid of  983 points,  7 beta functions with:
                l(1) =   0
                l(2) =   0
                l(3) =   1
                l(4) =   1
                l(5) =   1
                l(6) =   2
                l(7) =   2
     Q(r) pseudized with  8 coefficients,  rinner =    1.400   1.400   1.400
                                                       1.400   1.400

     vdW kernel table read from file vdW_kernel_table
     MD5 check sum: 095c7af220d748ca6e76c0b4c6cfb241

     atomic species   valence    mass     pseudopotential
        Mo1           14.00    95.94000     Mo( 1.00)
        Ir1           15.00   192.22000     Ir( 1.00)

     16 Sym. Ops., with inversion, found

   Cartesian axes

     site n.     atom                  positions (alat units)
         1           Mo1 tau(   1) = (   0.0000000   0.0000000   0.0000000  )
         2           Mo1 tau(   2) = (   1.9580132   1.9580132   0.0000000  )
         3           Ir1 tau(   3) = (   1.9580132   0.0000000   1.9619935  )
         4           Ir1 tau(   4) = (   0.0000000   1.9580132   1.9619935  )

     number of k points=    75  Fermi-Dirac smearing, width (Ry)=  0.0073
                       cart. coord. in units 2pi/alat
        k(    1) = (   0.0000000   0.0000000   0.0000000), wk =   0.0027435
        k(    2) = (   0.0000000   0.0000000   0.0283159), wk =   0.0054870
        k(    3) = (   0.0000000   0.0000000   0.0566317), wk =   0.0054870
        k(    4) = (   0.0000000   0.0000000   0.0849476), wk =   0.0054870
        k(    5) = (   0.0000000   0.0000000   0.1132635), wk =   0.0054870
        k(    6) = (   0.0000000   0.0283734   0.0000000), wk =   0.0109739
        k(    7) = (   0.0000000   0.0283734   0.0283159), wk =   0.0219479
        k(    8) = (   0.0000000   0.0283734   0.0566317), wk =   0.0219479
        k(    9) = (   0.0000000   0.0283734   0.0849476), wk =   0.0219479
        k(   10) = (   0.0000000   0.0283734   0.1132635), wk =   0.0219479
        k(   11) = (   0.0000000   0.0567469   0.0000000), wk =   0.0109739
        k(   12) = (   0.0000000   0.0567469   0.0283159), wk =   0.0219479
        k(   13) = (   0.0000000   0.0567469   0.0566317), wk =   0.0219479
        k(   14) = (   0.0000000   0.0567469   0.0849476), wk =   0.0219479
        k(   15) = (   0.0000000   0.0567469   0.1132635), wk =   0.0219479
        k(   16) = (   0.0000000   0.0851203   0.0000000), wk =   0.0109739
        k(   17) = (   0.0000000   0.0851203   0.0283159), wk =   0.0219479
        k(   18) = (   0.0000000   0.0851203   0.0566317), wk =   0.0219479
        k(   19) = (   0.0000000   0.0851203   0.0849476), wk =   0.0219479
        k(   20) = (   0.0000000   0.0851203   0.1132635), wk =   0.0219479
        k(   21) = (   0.0000000   0.1134937   0.0000000), wk =   0.0109739
        k(   22) = (   0.0000000   0.1134937   0.0283159), wk =   0.0219479
        k(   23) = (   0.0000000   0.1134937   0.0566317), wk =   0.0219479
        k(   24) = (   0.0000000   0.1134937   0.0849476), wk =   0.0219479
        k(   25) = (   0.0000000   0.1134937   0.1132635), wk =   0.0219479
        k(   26) = (   0.0283734   0.0283734   0.0000000), wk =   0.0109739
        k(   27) = (   0.0283734   0.0283734   0.0283159), wk =   0.0219479
        k(   28) = (   0.0283734   0.0283734   0.0566317), wk =   0.0219479
        k(   29) = (   0.0283734   0.0283734   0.0849476), wk =   0.0219479
        k(   30) = (   0.0283734   0.0283734   0.1132635), wk =   0.0219479
        k(   31) = (   0.0283734   0.0567469   0.0000000), wk =   0.0219479
        k(   32) = (   0.0283734   0.0567469   0.0283159), wk =   0.0438957
        k(   33) = (   0.0283734   0.0567469   0.0566317), wk =   0.0438957
        k(   34) = (   0.0283734   0.0567469   0.0849476), wk =   0.0438957
        k(   35) = (   0.0283734   0.0567469   0.1132635), wk =   0.0438957
        k(   36) = (   0.0283734   0.0851203   0.0000000), wk =   0.0219479
        k(   37) = (   0.0283734   0.0851203   0.0283159), wk =   0.0438957
        k(   38) = (   0.0283734   0.0851203   0.0566317), wk =   0.0438957
        k(   39) = (   0.0283734   0.0851203   0.0849476), wk =   0.0438957
        k(   40) = (   0.0283734   0.0851203   0.1132635), wk =   0.0438957
        k(   41) = (   0.0283734   0.1134937   0.0000000), wk =   0.0219479
        k(   42) = (   0.0283734   0.1134937   0.0283159), wk =   0.0438957
        k(   43) = (   0.0283734   0.1134937   0.0566317), wk =   0.0438957
        k(   44) = (   0.0283734   0.1134937   0.0849476), wk =   0.0438957
        k(   45) = (   0.0283734   0.1134937   0.1132635), wk =   0.0438957
        k(   46) = (   0.0567469   0.0567469   0.0000000), wk =   0.0109739
        k(   47) = (   0.0567469   0.0567469   0.0283159), wk =   0.0219479
        k(   48) = (   0.0567469   0.0567469   0.0566317), wk =   0.0219479
        k(   49) = (   0.0567469   0.0567469   0.0849476), wk =   0.0219479
        k(   50) = (   0.0567469   0.0567469   0.1132635), wk =   0.0219479
        k(   51) = (   0.0567469   0.0851203   0.0000000), wk =   0.0219479
        k(   52) = (   0.0567469   0.0851203   0.0283159), wk =   0.0438957
        k(   53) = (   0.0567469   0.0851203   0.0566317), wk =   0.0438957
        k(   54) = (   0.0567469   0.0851203   0.0849476), wk =   0.0438957
        k(   55) = (   0.0567469   0.0851203   0.1132635), wk =   0.0438957
        k(   56) = (   0.0567469   0.1134937   0.0000000), wk =   0.0219479
        k(   57) = (   0.0567469   0.1134937   0.0283159), wk =   0.0438957
        k(   58) = (   0.0567469   0.1134937   0.0566317), wk =   0.0438957
        k(   59) = (   0.0567469   0.1134937   0.0849476), wk =   0.0438957
        k(   60) = (   0.0567469   0.1134937   0.1132635), wk =   0.0438957
        k(   61) = (   0.0851203   0.0851203   0.0000000), wk =   0.0109739
        k(   62) = (   0.0851203   0.0851203   0.0283159), wk =   0.0219479
        k(   63) = (   0.0851203   0.0851203   0.0566317), wk =   0.0219479
        k(   64) = (   0.0851203   0.0851203   0.0849476), wk =   0.0219479
        k(   65) = (   0.0851203   0.0851203   0.1132635), wk =   0.0219479
        k(   66) = (   0.0851203   0.1134937   0.0000000), wk =   0.0219479
        k(   67) = (   0.0851203   0.1134937   0.0283159), wk =   0.0438957
        k(   68) = (   0.0851203   0.1134937   0.0566317), wk =   0.0438957
        k(   69) = (   0.0851203   0.1134937   0.0849476), wk =   0.0438957
        k(   70) = (   0.0851203   0.1134937   0.1132635), wk =   0.0438957
        k(   71) = (   0.1134937   0.1134937   0.0000000), wk =   0.0109739
        k(   72) = (   0.1134937   0.1134937   0.0283159), wk =   0.0219479
        k(   73) = (   0.1134937   0.1134937   0.0566317), wk =   0.0219479
        k(   74) = (   0.1134937   0.1134937   0.0849476), wk =   0.0219479
        k(   75) = (   0.1134937   0.1134937   0.1132635), wk =   0.0219479

     Largest allocated arrays     est. size (Mb)     dimensions
     Largest temporary arrays     est. size (Mb)     dimensions

     Initial potential from superposition of free atoms
     Check: negative starting charge=   -0.727247

     starting charge   56.99781, renormalised to   58.00000

     negative rho (up, down):  7.400E-01 0.000E+00

     *
     * You are using vdW-DF for exchange-correlation in this calculation.
     * Please cite the following three references that made this development
     * possible:
     *
     *   M. Dion, H. Rydberg, E. Schroder, D. C. Langreth, and
     *   B. I. Lundqvist, Phys. Rev. Lett. 92, 246401 (2004).
     *
     *   T. Thonhauser, V. R. Cooper, S. Li, A. Puzder, P. Hyldgaard, and
     *   D. C. Langreth, Phys. Rev. B 76, 125112 (2007).
     *
     *   G. Roman-Perez and J. M. Soler, Phys. Rev. Lett. 103, 096102 (2009).
     *
     *
     * If you are using vdW-DF2, please also cite:
     *
     *   K. Lee, E. D. Murray, L. Kong, B. I. Lundqvist, and
     *   D. C. Langreth, Phys. Rev. B 82, 081101(R) (2010).
     *
     *
     * If you are calculating the stress with vdW-DF, please also cite:
     *
     *   R. Sabatini, E. Kucukbenli, B. Kolb, T. Thonhauser, and
     *   S. de Gironcoli, J. Phys.: Condens. Matter 24, 424209 (2012).
     *

     Carrying out vdW-DF run using the following parameters:

     Nqs =      20    Nr_points =    1024   r_max =   100.000
     q_mesh =
               0.00001000     0.04494208     0.09755937     0.15916263
               0.23128650     0.31572767     0.41458969     0.53033537
               0.66584808     0.82450364     1.01025438     1.22772762
               1.48234092     1.78043706     2.12944203     2.53805004
               3.01644009     3.57652955     4.23227104     5.00000000

     Gradients computed in reciprocal space

     Starting wfc are   50 randomized atomic wfcs

     Self-consistent Calculation

     iteration #  1     ecut=    58.80 Ry     beta=0.10
     Davidson diagonalization with overlap
     ethr =  1.00E-02,  avg # of iterations =  4.4

[...]

     total energy              =    -646.58234183 Ry
     Harris-Foulkes estimate   =    -647.57550495 Ry
     estimated scf accuracy    <       5.83111940 Ry

[...]

     total energy              =    -646.83117235 Ry
     Harris-Foulkes estimate   =    -646.83116977 Ry
     estimated scf accuracy    <       0.00000150 Ry

     iteration # 11     ecut=    58.80 Ry     beta=0.10
     Davidson diagonalization with overlap
     ethr =  2.59E-09,  avg # of iterations =  1.0

     negative rho (up, down):  6.382E-01 0.000E+00

     End of self-consistent calculation

          k = 0.0000 0.0000 0.0000 (  3071 PWs)   bands (ev):

   -39.3223 -39.1376 -27.2822 -27.2822 -27.1897 -27.1156 -26.9828 -26.9828
   -13.5685 -13.5685 -13.3776 -13.2152 -12.8634 -12.8634  13.3986  15.7691
    15.8721  15.8956  16.3271  16.3869  16.3869  19.6868  19.6868  20.1212
    21.9439  22.5572  23.7949  23.8708  25.2037  25.2145  25.2145  25.2162
    25.2209  25.2209  25.2221  25.4005  25.4005  26.5640  32.9528  33.2561
    33.4877  33.5492  34.4008  34.4008  34.5559  34.5559  34.9589  35.5372
    35.7180

[...]

          k = 0.1135 0.1135 0.1133 (  3103 PWs)   bands (ev):

   -39.2309 -39.2252 -27.3195 -27.3107 -27.1594 -27.1577 -26.9635 -26.9544
   -13.6651 -13.6447 -13.3132 -13.3073 -12.8166 -12.7940  15.6035  15.6743
    16.3144  16.3308  19.0088  19.0606  19.3170  19.4784  19.6944  19.7862
    20.4455  20.5711  21.8796  22.1693  22.4062  22.6790  23.8698  24.0981
    24.5011  25.0365  25.1048  25.2311  25.5126  25.5967  30.2403  30.5116
    33.0205  33.1781  33.5011  33.5016  35.5925  35.6165  35.6514  35.6927
    40.6830

     the Fermi energy is    22.1703 ev

!    total energy              =    -646.83118483 Ry
     Harris-Foulkes estimate   =    -646.83117249 Ry
     estimated scf accuracy    <       0.00000004 Ry

     The total energy is the sum of the following terms:

     one-electron contribution =     -54.38895034 Ry
     hartree contribution      =      72.85747208 Ry
     xc contribution           =    -144.29468949 Ry
     ewald contribution        =    -520.99941455 Ry
     smearing contrib. (-TS)   =      -0.00560252 Ry

     convergence has been achieved in  11 iterations

     Forces acting on atoms (Ry/au):

     negative rho (up, down):  6.382E-01 0.000E+00
     atom    1 type  1   force =     0.00000000    0.00000000    0.00000000
     atom    2 type  1   force =     0.00000000    0.00000000    0.00000000
     atom    3 type  2   force =     0.00000000    0.00000000    0.00000000
     atom    4 type  2   force =     0.00000000    0.00000000    0.00000000

     Total force =     0.000000     Total SCF correction =     0.000000

     General routines

     Parallel routines

   This run was terminated on:  15:44:15  14Nov2017

   JOB DONE.