     Program PWSCF v.5.1rc2 starts on 14Nov2017 at 14:32: 5

     Current dimensions of program PWSCF are:
     Max number of different atomic species (ntypx) = 10
     Max number of k-points (npk) =  40000
     Max angular momentum in pseudopotentials (lmaxx) =  3

     IMPORTANT: XC functional enforced from input :
     Exchange-correlation      = BEEF-VDW ( 1  4 27 13 2)
     Any further DFT definition will be discarded
     Please, verify this is what you really want

     Found symmetry operation: I + ( -0.5000 -0.5000  0.0000)
     This is a supercell, fractional translations are disabled

     bravais-lattice index     =            0
     lattice parameter (alat)  =       1.8897  a.u.
     unit-cell volume          =     639.9557 (a.u.)^3
     number of atoms/cell      =            4
     number of atomic types    =            2
     number of electrons       =        52.00
     number of Kohn-Sham states=           46
     kinetic-energy cutoff     =      58.7989  Ry
     charge density cutoff     =     587.9892  Ry
     convergence threshold     =      1.0E-06
     mixing beta               =       0.1000
     number of iterations used =           10  plain     mixing
     Exchange-correlation      = BEEF-VDW ( 1  4 27 13 2)

     celldm(1)=   1.889726  celldm(2)=   0.000000  celldm(3)=   0.000000
     celldm(4)=   0.000000  celldm(5)=   0.000000  celldm(6)=   0.000000

     crystal axes: (cart. coord. in units of alat)
               a(1) = (   5.127037   0.000000   0.000000 )
               a(2) = (   0.000000   5.127037   0.000000 )
               a(3) = (   0.000000   0.000000   3.607617 )

     reciprocal axes: (cart. coord. in units 2 pi/alat)
               b(1) = (  0.195044  0.000000  0.000000 )
               b(2) = (  0.000000  0.195044  0.000000 )
               b(3) = (  0.000000  0.000000  0.277191 )

     PseudoPot. # 1 for La read from file:
     /home/users/vossj/suncat/psp/gbrv1.5pbe/La.UPF
     MD5 check sum: 5937b0c7494ba0601a847275249473aa
     Pseudo is Ultrasoft + core correction, Zval = 11.0
     Generated by new atomic code, or converted to UPF format
     Using radial grid of  995 points,  8 beta functions with:
                l(1) =   0
                l(2) =   0
                l(3) =   1
                l(4) =   1
                l(5) =   2
                l(6) =   2
                l(7) =   3
                l(8) =   3
     Q(r) pseudized with  8 coefficients,  rinner =    1.700   1.700   1.700
                                                       1.700   1.700   1.700
                                                       1.700

     PseudoPot. # 2 for Ir read from file:
     /home/users/vossj/suncat/psp/gbrv1.5pbe/Ir.UPF
     MD5 check sum: 8836f839c3459d2b385c504ce6d91f2c
     Pseudo is Ultrasoft + core correction, Zval = 15.0
     Generated by new atomic code, or converted to UPF format
     Using radial grid of  983 points,  7 beta functions with:
                l(1) =   0
                l(2) =   0
                l(3) =   1
                l(4) =   1
                l(5) =   1
                l(6) =   2
                l(7) =   2
     Q(r) pseudized with  8 coefficients,  rinner =    1.400   1.400   1.400
                                                       1.400   1.400

     vdW kernel table read from file vdW_kernel_table
     MD5 check sum: 095c7af220d748ca6e76c0b4c6cfb241

     atomic species   valence    mass     pseudopotential
        La1           11.00   138.90550     La( 1.00)
        Ir1           15.00   192.22000     Ir( 1.00)

     16 Sym. Ops., with inversion, found

   Cartesian axes

     site n.     atom                  positions (alat units)
         1           La1 tau(   1) = (   0.0000000   0.0000000   0.0000000  )
         2           La1 tau(   2) = (   2.5635184   2.5635184   0.0000000  )
         3           Ir1 tau(   3) = (   2.5635184   0.0000000   1.8038085  )
         4           Ir1 tau(   4) = (   0.0000000   2.5635184   1.8038085  )

     number of k points=    75  Fermi-Dirac smearing, width (Ry)=  0.0073
                       cart. coord. in units 2pi/alat
        k(    1) = (   0.0000000   0.0000000   0.0000000), wk =   0.0027435
        k(    2) = (   0.0000000   0.0000000   0.0307990), wk =   0.0054870
        k(    3) = (   0.0000000   0.0000000   0.0615981), wk =   0.0054870
        k(    4) = (   0.0000000   0.0000000   0.0923971), wk =   0.0054870
        k(    5) = (   0.0000000   0.0000000   0.1231961), wk =   0.0054870
        k(    6) = (   0.0000000   0.0216716   0.0000000), wk =   0.0109739
        k(    7) = (   0.0000000   0.0216716   0.0307990), wk =   0.0219479
        k(    8) = (   0.0000000   0.0216716   0.0615981), wk =   0.0219479
        k(    9) = (   0.0000000   0.0216716   0.0923971), wk =   0.0219479
        k(   10) = (   0.0000000   0.0216716   0.1231961), wk =   0.0219479
        k(   11) = (   0.0000000   0.0433432   0.0000000), wk =   0.0109739
        k(   12) = (   0.0000000   0.0433432   0.0307990), wk =   0.0219479
        k(   13) = (   0.0000000   0.0433432   0.0615981), wk =   0.0219479
        k(   14) = (   0.0000000   0.0433432   0.0923971), wk =   0.0219479
        k(   15) = (   0.0000000   0.0433432   0.1231961), wk =   0.0219479
        k(   16) = (   0.0000000   0.0650148   0.0000000), wk =   0.0109739
        k(   17) = (   0.0000000   0.0650148   0.0307990), wk =   0.0219479
        k(   18) = (   0.0000000   0.0650148   0.0615981), wk =   0.0219479
        k(   19) = (   0.0000000   0.0650148   0.0923971), wk =   0.0219479
        k(   20) = (   0.0000000   0.0650148   0.1231961), wk =   0.0219479
        k(   21) = (   0.0000000   0.0866864   0.0000000), wk =   0.0109739
        k(   22) = (   0.0000000   0.0866864   0.0307990), wk =   0.0219479
        k(   23) = (   0.0000000   0.0866864   0.0615981), wk =   0.0219479
        k(   24) = (   0.0000000   0.0866864   0.0923971), wk =   0.0219479
        k(   25) = (   0.0000000   0.0866864   0.1231961), wk =   0.0219479
        k(   26) = (   0.0216716   0.0216716   0.0000000), wk =   0.0109739
        k(   27) = (   0.0216716   0.0216716   0.0307990), wk =   0.0219479
        k(   28) = (   0.0216716   0.0216716   0.0615981), wk =   0.0219479
        k(   29) = (   0.0216716   0.0216716   0.0923971), wk =   0.0219479
        k(   30) = (   0.0216716   0.0216716   0.1231961), wk =   0.0219479
        k(   31) = (   0.0216716   0.0433432   0.0000000), wk =   0.0219479
        k(   32) = (   0.0216716   0.0433432   0.0307990), wk =   0.0438957
        k(   33) = (   0.0216716   0.0433432   0.0615981), wk =   0.0438957
        k(   34) = (   0.0216716   0.0433432   0.0923971), wk =   0.0438957
        k(   35) = (   0.0216716   0.0433432   0.1231961), wk =   0.0438957
        k(   36) = (   0.0216716   0.0650148   0.0000000), wk =   0.0219479
        k(   37) = (   0.0216716   0.0650148   0.0307990), wk =   0.0438957
        k(   38) = (   0.0216716   0.0650148   0.0615981), wk =   0.0438957
        k(   39) = (   0.0216716   0.0650148   0.0923971), wk =   0.0438957
        k(   40) = (   0.0216716   0.0650148   0.1231961), wk =   0.0438957
        k(   41) = (   0.0216716   0.0866864   0.0000000), wk =   0.0219479
        k(   42) = (   0.0216716   0.0866864   0.0307990), wk =   0.0438957
        k(   43) = (   0.0216716   0.0866864   0.0615981), wk =   0.0438957
        k(   44) = (   0.0216716   0.0866864   0.0923971), wk =   0.0438957
        k(   45) = (   0.0216716   0.0866864   0.1231961), wk =   0.0438957
        k(   46) = (   0.0433432   0.0433432   0.0000000), wk =   0.0109739
        k(   47) = (   0.0433432   0.0433432   0.0307990), wk =   0.0219479
        k(   48) = (   0.0433432   0.0433432   0.0615981), wk =   0.0219479
        k(   49) = (   0.0433432   0.0433432   0.0923971), wk =   0.0219479
        k(   50) = (   0.0433432   0.0433432   0.1231961), wk =   0.0219479
        k(   51) = (   0.0433432   0.0650148   0.0000000), wk =   0.0219479
        k(   52) = (   0.0433432   0.0650148   0.0307990), wk =   0.0438957
        k(   53) = (   0.0433432   0.0650148   0.0615981), wk =   0.0438957
        k(   54) = (   0.0433432   0.0650148   0.0923971), wk =   0.0438957
        k(   55) = (   0.0433432   0.0650148   0.1231961), wk =   0.0438957
        k(   56) = (   0.0433432   0.0866864   0.0000000), wk =   0.0219479
        k(   57) = (   0.0433432   0.0866864   0.0307990), wk =   0.0438957
        k(   58) = (   0.0433432   0.0866864   0.0615981), wk =   0.0438957
        k(   59) = (   0.0433432   0.0866864   0.0923971), wk =   0.0438957
        k(   60) = (   0.0433432   0.0866864   0.1231961), wk =   0.0438957
        k(   61) = (   0.0650148   0.0650148   0.0000000), wk =   0.0109739
        k(   62) = (   0.0650148   0.0650148   0.0307990), wk =   0.0219479
        k(   63) = (   0.0650148   0.0650148   0.0615981), wk =   0.0219479
        k(   64) = (   0.0650148   0.0650148   0.0923971), wk =   0.0219479
        k(   65) = (   0.0650148   0.0650148   0.1231961), wk =   0.0219479
        k(   66) = (   0.0650148   0.0866864   0.0000000), wk =   0.0219479
        k(   67) = (   0.0650148   0.0866864   0.0307990), wk =   0.0438957
        k(   68) = (   0.0650148   0.0866864   0.0615981), wk =   0.0438957
        k(   69) = (   0.0650148   0.0866864   0.0923971), wk =   0.0438957
        k(   70) = (   0.0650148   0.0866864   0.1231961), wk =   0.0438957
        k(   71) = (   0.0866864   0.0866864   0.0000000), wk =   0.0109739
        k(   72) = (   0.0866864   0.0866864   0.0307990), wk =   0.0219479
        k(   73) = (   0.0866864   0.0866864   0.0615981), wk =   0.0219479
        k(   74) = (   0.0866864   0.0866864   0.0923971), wk =   0.0219479
        k(   75) = (   0.0866864   0.0866864   0.1231961), wk =   0.0219479

     Largest allocated arrays     est. size (Mb)     dimensions
     Largest temporary arrays     est. size (Mb)     dimensions

     Initial potential from superposition of free atoms
     Check: negative starting charge=   -0.864015

     starting charge   50.93580, renormalised to   52.00000

     negative rho (up, down):  8.821E-01 0.000E+00

     *
     * You are using vdW-DF for exchange-correlation in this calculation.
     * Please cite the following three references that made this development
     * possible:
     *
     *   M. Dion, H. Rydberg, E. Schroder, D. C. Langreth, and
     *   B. I. Lundqvist, Phys. Rev. Lett. 92, 246401 (2004).
     *
     *   T. Thonhauser, V. R. Cooper, S. Li, A. Puzder, P. Hyldgaard, and
     *   D. C. Langreth, Phys. Rev. B 76, 125112 (2007).
     *
     *   G. Roman-Perez and J. M. Soler, Phys. Rev. Lett. 103, 096102 (2009).
     *
     *
     * If you are using vdW-DF2, please also cite:
     *
     *   K. Lee, E. D. Murray, L. Kong, B. I. Lundqvist, and
     *   D. C. Langreth, Phys. Rev. B 82, 081101(R) (2010).
     *
     *
     * If you are calculating the stress with vdW-DF, please also cite:
     *
     *   R. Sabatini, E. Kucukbenli, B. Kolb, T. Thonhauser, and
     *   S. de Gironcoli, J. Phys.: Condens. Matter 24, 424209 (2012).
     *

     Carrying out vdW-DF run using the following parameters:

     Nqs =      20    Nr_points =    1024   r_max =   100.000
     q_mesh =
               0.00001000     0.04494208     0.09755937     0.15916263
               0.23128650     0.31572767     0.41458969     0.53033537
               0.66584808     0.82450364     1.01025438     1.22772762
               1.48234092     1.78043706     2.12944203     2.53805004
               3.01644009     3.57652955     4.23227104     5.00000000

     Gradients computed in reciprocal space

     Starting wfc are   64 randomized atomic wfcs

     Self-consistent Calculation

     iteration #  1     ecut=    58.80 Ry     beta=0.10
     Davidson diagonalization with overlap
     ethr =  1.00E-02,  avg # of iterations =  2.0

[...]

     total energy              =    -574.68682745 Ry
     Harris-Foulkes estimate   =    -575.66475305 Ry
     estimated scf accuracy    <       5.73221435 Ry

[...]

     total energy              =    -574.98040605 Ry
     Harris-Foulkes estimate   =    -574.98038081 Ry
     estimated scf accuracy    <       0.00000224 Ry

     iteration # 13     ecut=    58.80 Ry     beta=0.10
     Davidson diagonalization with overlap
     ethr =  4.31E-09,  avg # of iterations =  1.3

     negative rho (up, down):  7.483E-01 0.000E+00

     End of self-consistent calculation

          k = 0.0000 0.0000 0.0000 (  4917 PWs)   bands (ev):

   -32.6102 -32.6102 -32.5976 -32.5969 -32.5969 -32.5952 -16.9717 -16.7776
    -1.0128  -1.0128  -0.1466  -0.1466  -0.1342   0.0629  10.2213  11.1248
    11.9211  11.9285  12.4678  13.1531  13.1531  14.1023  14.1281  14.1281
    15.2102  15.3818  17.3631  17.3631  17.8693  17.9245  18.0786  18.0786
    18.0882  18.1002  18.1249  18.1249  18.1305  18.1305  18.1343  18.4009
    18.5384  18.5802  18.6057  19.4048  19.4048  21.4640

[...]

          k = 0.0867 0.0867 0.1232 (  4885 PWs)   bands (ev):

   -32.6113 -32.6112 -32.6101 -32.6097 -32.5949 -32.5945 -16.7777 -16.7722
    -1.0214  -1.0129  -1.0099  -0.9883   0.0186   0.0480  11.2167  11.2222
    12.5067  12.5397  13.1449  13.1503  13.1526  13.1977  15.0784  15.1426
    15.2706  15.3604  17.2411  17.3385  17.4179  17.4616  18.0773  18.0880
    18.0958  18.0999  18.1288  18.1398  18.4476  18.5325  18.5335  18.5842
    18.6375  18.8370  19.2034  19.2311  19.3324  19.3460

     the Fermi energy is    15.4475 ev

!    total energy              =    -574.98051895 Ry
     Harris-Foulkes estimate   =    -574.98040627 Ry
     estimated scf accuracy    <       0.00000018 Ry

     The total energy is the sum of the following terms:

     one-electron contribution =     -77.60583475 Ry
     hartree contribution      =      72.96949509 Ry
     xc contribution           =    -205.89869334 Ry
     ewald contribution        =    -364.44128818 Ry
     smearing contrib. (-TS)   =      -0.00419777 Ry

     convergence has been achieved in  13 iterations

     Forces acting on atoms (Ry/au):

     negative rho (up, down):  7.483E-01 0.000E+00
     atom    1 type  1   force =     0.00000000    0.00000000    0.00000000
     atom    2 type  1   force =     0.00000000    0.00000000    0.00000000
     atom    3 type  2   force =     0.00000000    0.00000000    0.00000000
     atom    4 type  2   force =     0.00000000    0.00000000    0.00000000

     Total force =     0.000000     Total SCF correction =     0.000000

     General routines

     Parallel routines

   This run was terminated on:  14:33: 5  14Nov2017

   JOB DONE.