     Program PWSCF v.5.1rc2 starts on 15Nov2017 at  6:42:56

     Current dimensions of program PWSCF are:
     Max number of different atomic species (ntypx) = 10
     Max number of k-points (npk) =  40000
     Max angular momentum in pseudopotentials (lmaxx) =  3

     IMPORTANT: XC functional enforced from input :
     Exchange-correlation      = BEEF-VDW ( 1  4 27 13 2)
     Any further DFT definition will be discarded
     Please, verify this is what you really want

     Found symmetry operation: I + ( -0.5000 -0.5000  0.0000)
     This is a supercell, fractional translations are disabled

     bravais-lattice index     =            0
     lattice parameter (alat)  =       1.8897  a.u.
     unit-cell volume          =     535.1295 (a.u.)^3
     number of atoms/cell      =            4
     number of atomic types    =            2
     number of electrons       =        52.00
     number of Kohn-Sham states=           46
     kinetic-energy cutoff     =      58.7989  Ry
     charge density cutoff     =     587.9892  Ry
     convergence threshold     =      1.0E-06
     mixing beta               =       0.1000
     number of iterations used =           10  plain     mixing
     Exchange-correlation      = BEEF-VDW ( 1  4 27 13 2)

     celldm(1)=   1.889726  celldm(2)=   0.000000  celldm(3)=   0.000000
     celldm(4)=   0.000000  celldm(5)=   0.000000  celldm(6)=   0.000000

     crystal axes: (cart. coord. in units of alat)
               a(1) = (   4.387926   0.000000   0.000000 )
               a(2) = (   0.000000   4.387926   0.000000 )
               a(3) = (   0.000000   0.000000   4.118543 )

     reciprocal axes: (cart. coord. in units 2 pi/alat)
               b(1) = (  0.227898  0.000000  0.000000 )
               b(2) = (  0.000000  0.227898  0.000000 )
               b(3) = (  0.000000  0.000000  0.242804 )

     PseudoPot. # 1 for Ti read from file:
     /home/users/vossj/suncat/psp/gbrv1.5pbe/Ti.UPF
     MD5 check sum: 88a00a6731bd790ddea75d31a80cb452
     Pseudo is Ultrasoft + core correction, Zval = 12.0
     Generated by new atomic code, or converted to UPF format
     Using radial grid of  851 points,  6 beta functions with:
                l(1) =   0
                l(2) =   0
                l(3) =   1
                l(4) =   1
                l(5) =   2
                l(6) =   2
     Q(r) pseudized with  6 coefficients,  rinner =    1.000   1.000   1.000
                                                       1.000   1.000

     PseudoPot. # 2 for Sn read from file:
     /home/users/vossj/suncat/psp/gbrv1.5pbe/Sn.UPF
     MD5 check sum: 469debedee59599fedebd795477fea03
     Pseudo is Ultrasoft + core correction, Zval = 14.0
     Generated by new atomic code, or converted to UPF format
     Using radial grid of  891 points,  6 beta functions with:
                l(1) =   0
                l(2) =   0
                l(3) =   1
                l(4) =   1
                l(5) =   2
                l(6) =   2
     Q(r) pseudized with  8 coefficients,  rinner =    1.350   1.350   1.350
                                                       1.350   1.350

     vdW kernel table read from file vdW_kernel_table
     MD5 check sum: 095c7af220d748ca6e76c0b4c6cfb241

     atomic species   valence    mass     pseudopotential
        Ti1           12.00    47.88000     Ti( 1.00)
        Sn1           14.00   118.71000     Sn( 1.00)

     16 Sym. Ops., with inversion, found

   Cartesian axes

     site n.     atom                  positions (alat units)
         1           Ti1 tau(   1) = (   0.0000000   0.0000000   0.0000000  )
         2           Ti1 tau(   2) = (   2.1939630   2.1939630   0.0000000  )
         3           Sn1 tau(   3) = (   2.1939630   0.0000000   2.0592717  )
         4           Sn1 tau(   4) = (   0.0000000   2.1939630   2.0592717  )

     number of k points=    75  Fermi-Dirac smearing, width (Ry)=  0.0073
                       cart. coord. in units 2pi/alat
        k(    1) = (   0.0000000   0.0000000   0.0000000), wk =   0.0027435
        k(    2) = (   0.0000000   0.0000000   0.0269783), wk =   0.0054870
        k(    3) = (   0.0000000   0.0000000   0.0539565), wk =   0.0054870
        k(    4) = (   0.0000000   0.0000000   0.0809348), wk =   0.0054870
        k(    5) = (   0.0000000   0.0000000   0.1079130), wk =   0.0054870
        k(    6) = (   0.0000000   0.0253220   0.0000000), wk =   0.0109739
        k(    7) = (   0.0000000   0.0253220   0.0269783), wk =   0.0219479
        k(    8) = (   0.0000000   0.0253220   0.0539565), wk =   0.0219479
        k(    9) = (   0.0000000   0.0253220   0.0809348), wk =   0.0219479
        k(   10) = (   0.0000000   0.0253220   0.1079130), wk =   0.0219479
        k(   11) = (   0.0000000   0.0506440   0.0000000), wk =   0.0109739
        k(   12) = (   0.0000000   0.0506440   0.0269783), wk =   0.0219479
        k(   13) = (   0.0000000   0.0506440   0.0539565), wk =   0.0219479
        k(   14) = (   0.0000000   0.0506440   0.0809348), wk =   0.0219479
        k(   15) = (   0.0000000   0.0506440   0.1079130), wk =   0.0219479
        k(   16) = (   0.0000000   0.0759660   0.0000000), wk =   0.0109739
        k(   17) = (   0.0000000   0.0759660   0.0269783), wk =   0.0219479
        k(   18) = (   0.0000000   0.0759660   0.0539565), wk =   0.0219479
        k(   19) = (   0.0000000   0.0759660   0.0809348), wk =   0.0219479
        k(   20) = (   0.0000000   0.0759660   0.1079130), wk =   0.0219479
        k(   21) = (   0.0000000   0.1012880   0.0000000), wk =   0.0109739
        k(   22) = (   0.0000000   0.1012880   0.0269783), wk =   0.0219479
        k(   23) = (   0.0000000   0.1012880   0.0539565), wk =   0.0219479
        k(   24) = (   0.0000000   0.1012880   0.0809348), wk =   0.0219479
        k(   25) = (   0.0000000   0.1012880   0.1079130), wk =   0.0219479
        k(   26) = (   0.0253220   0.0253220   0.0000000), wk =   0.0109739
        k(   27) = (   0.0253220   0.0253220   0.0269783), wk =   0.0219479
        k(   28) = (   0.0253220   0.0253220   0.0539565), wk =   0.0219479
        k(   29) = (   0.0253220   0.0253220   0.0809348), wk =   0.0219479
        k(   30) = (   0.0253220   0.0253220   0.1079130), wk =   0.0219479
        k(   31) = (   0.0253220   0.0506440   0.0000000), wk =   0.0219479
        k(   32) = (   0.0253220   0.0506440   0.0269783), wk =   0.0438957
        k(   33) = (   0.0253220   0.0506440   0.0539565), wk =   0.0438957
        k(   34) = (   0.0253220   0.0506440   0.0809348), wk =   0.0438957
        k(   35) = (   0.0253220   0.0506440   0.1079130), wk =   0.0438957
        k(   36) = (   0.0253220   0.0759660   0.0000000), wk =   0.0219479
        k(   37) = (   0.0253220   0.0759660   0.0269783), wk =   0.0438957
        k(   38) = (   0.0253220   0.0759660   0.0539565), wk =   0.0438957
        k(   39) = (   0.0253220   0.0759660   0.0809348), wk =   0.0438957
        k(   40) = (   0.0253220   0.0759660   0.1079130), wk =   0.0438957
        k(   41) = (   0.0253220   0.1012880   0.0000000), wk =   0.0219479
        k(   42) = (   0.0253220   0.1012880   0.0269783), wk =   0.0438957
        k(   43) = (   0.0253220   0.1012880   0.0539565), wk =   0.0438957
        k(   44) = (   0.0253220   0.1012880   0.0809348), wk =   0.0438957
        k(   45) = (   0.0253220   0.1012880   0.1079130), wk =   0.0438957
        k(   46) = (   0.0506440   0.0506440   0.0000000), wk =   0.0109739
        k(   47) = (   0.0506440   0.0506440   0.0269783), wk =   0.0219479
        k(   48) = (   0.0506440   0.0506440   0.0539565), wk =   0.0219479
        k(   49) = (   0.0506440   0.0506440   0.0809348), wk =   0.0219479
        k(   50) = (   0.0506440   0.0506440   0.1079130), wk =   0.0219479
        k(   51) = (   0.0506440   0.0759660   0.0000000), wk =   0.0219479
        k(   52) = (   0.0506440   0.0759660   0.0269783), wk =   0.0438957
        k(   53) = (   0.0506440   0.0759660   0.0539565), wk =   0.0438957
        k(   54) = (   0.0506440   0.0759660   0.0809348), wk =   0.0438957
        k(   55) = (   0.0506440   0.0759660   0.1079130), wk =   0.0438957
        k(   56) = (   0.0506440   0.1012880   0.0000000), wk =   0.0219479
        k(   57) = (   0.0506440   0.1012880   0.0269783), wk =   0.0438957
        k(   58) = (   0.0506440   0.1012880   0.0539565), wk =   0.0438957
        k(   59) = (   0.0506440   0.1012880   0.0809348), wk =   0.0438957
        k(   60) = (   0.0506440   0.1012880   0.1079130), wk =   0.0438957
        k(   61) = (   0.0759660   0.0759660   0.0000000), wk =   0.0109739
        k(   62) = (   0.0759660   0.0759660   0.0269783), wk =   0.0219479
        k(   63) = (   0.0759660   0.0759660   0.0539565), wk =   0.0219479
        k(   64) = (   0.0759660   0.0759660   0.0809348), wk =   0.0219479
        k(   65) = (   0.0759660   0.0759660   0.1079130), wk =   0.0219479
        k(   66) = (   0.0759660   0.1012880   0.0000000), wk =   0.0219479
        k(   67) = (   0.0759660   0.1012880   0.0269783), wk =   0.0438957
        k(   68) = (   0.0759660   0.1012880   0.0539565), wk =   0.0438957
        k(   69) = (   0.0759660   0.1012880   0.0809348), wk =   0.0438957
        k(   70) = (   0.0759660   0.1012880   0.1079130), wk =   0.0438957
        k(   71) = (   0.1012880   0.1012880   0.0000000), wk =   0.0109739
        k(   72) = (   0.1012880   0.1012880   0.0269783), wk =   0.0219479
        k(   73) = (   0.1012880   0.1012880   0.0539565), wk =   0.0219479
        k(   74) = (   0.1012880   0.1012880   0.0809348), wk =   0.0219479
        k(   75) = (   0.1012880   0.1012880   0.1079130), wk =   0.0219479

     Largest allocated arrays     est. size (Mb)     dimensions
     Largest temporary arrays     est. size (Mb)     dimensions

     Check: negative/imaginary core charge=   -0.000001    0.000000

     Initial potential from superposition of free atoms
     Check: negative starting charge=   -0.002553

     starting charge   47.99982, renormalised to   52.00000

     negative rho (up, down):  2.766E-03 0.000E+00

     *
     * You are using vdW-DF for exchange-correlation in this calculation.
     * Please cite the following three references that made this development
     * possible:
     *
     *   M. Dion, H. Rydberg, E. Schroder, D. C. Langreth, and
     *   B. I. Lundqvist, Phys. Rev. Lett. 92, 246401 (2004).
     *
     *   T. Thonhauser, V. R. Cooper, S. Li, A. Puzder, P. Hyldgaard, and
     *   D. C. Langreth, Phys. Rev. B 76, 125112 (2007).
     *
     *   G. Roman-Perez and J. M. Soler, Phys. Rev. Lett. 103, 096102 (2009).
     *
     *
     * If you are using vdW-DF2, please also cite:
     *
     *   K. Lee, E. D. Murray, L. Kong, B. I. Lundqvist, and
     *   D. C. Langreth, Phys. Rev. B 82, 081101(R) (2010).
     *
     *
     * If you are calculating the stress with vdW-DF, please also cite:
     *
     *   R. Sabatini, E. Kucukbenli, B. Kolb, T. Thonhauser, and
     *   S. de Gironcoli, J. Phys.: Condens. Matter 24, 424209 (2012).
     *

     Carrying out vdW-DF run using the following parameters:

     Nqs =      20    Nr_points =    1024   r_max =   100.000
     q_mesh =
               0.00001000     0.04494208     0.09755937     0.15916263
               0.23128650     0.31572767     0.41458969     0.53033537
               0.66584808     0.82450364     1.01025438     1.22772762
               1.48234092     1.78043706     2.12944203     2.53805004
               3.01644009     3.57652955     4.23227104     5.00000000

     Gradients computed in reciprocal space

     Starting wfc are   38 randomized atomic wfcs +    8 random wfc

     Self-consistent Calculation

     iteration #  1     ecut=    58.80 Ry     beta=0.10
     Davidson diagonalization with overlap
     ethr =  1.00E-02,  avg # of iterations =  5.0

[...]

     total energy              =    -562.17403429 Ry
     Harris-Foulkes estimate   =    -562.79161462 Ry
     estimated scf accuracy    <       3.63168556 Ry

[...]

     total energy              =    -561.31996195 Ry
     Harris-Foulkes estimate   =    -561.31997620 Ry
     estimated scf accuracy    <       0.00004248 Ry

     iteration # 11     ecut=    58.80 Ry     beta=0.10
     Davidson diagonalization with overlap
     ethr =  8.17E-08,  avg # of iterations =  2.0

     negative rho (up, down):  1.198E-03 0.000E+00

     End of self-consistent calculation

          k = 0.0000 0.0000 0.0000 (  4111 PWs)   bands (ev):

   -43.5829 -43.5464 -19.9329 -19.8904 -19.8305 -19.8305 -19.6611 -19.6611
    -8.4165  -8.3194  -8.1878  -8.1827  -8.1827  -8.0962  -8.0805  -8.0805
    -8.0180  -7.9617   2.7317   8.4533  10.9931  10.9931  12.0578  12.2828
    12.7708  13.0184  13.5671  13.5671  15.0346  15.0346  15.4801  15.8359
    16.4054  17.4206  18.3253  18.3253  18.4388  18.6719  21.5366  21.5366
    23.1994  23.4289  24.2141  25.0343  25.5723  25.5723

[...]

          k = 0.1013 0.1013 0.1079 (  4066 PWs)   bands (ev):

   -43.5646 -43.5635 -19.9219 -19.9205 -19.8531 -19.8480 -19.6495 -19.6443
    -8.2811  -8.2697  -8.2011  -8.1982  -8.1936  -8.1872  -8.0771  -8.0741
    -8.0026  -7.9952   6.1070   6.3334   9.2443   9.4696  10.7365  10.9673
    12.4704  12.5666  14.7531  14.7549  14.8175  14.8203  15.0036  15.0367
    15.9141  15.9906  17.6716  17.7658  21.2742  21.7184  24.3767  24.6207
    25.5779  25.7534  26.0603  26.1536  27.4382  27.6881

     the Fermi energy is    13.7724 ev

!    total energy              =    -561.32002465 Ry
     Harris-Foulkes estimate   =    -561.31997116 Ry
     estimated scf accuracy    <       0.00000043 Ry

     The total energy is the sum of the following terms:

     one-electron contribution =    -168.12520437 Ry
     hartree contribution      =     116.59111577 Ry
     xc contribution           =    -126.87329224 Ry
     ewald contribution        =    -382.90490520 Ry
     smearing contrib. (-TS)   =      -0.00773861 Ry

     convergence has been achieved in  11 iterations

     Forces acting on atoms (Ry/au):

     negative rho (up, down):  1.198E-03 0.000E+00
     atom    1 type  1   force =     0.00000000    0.00000000    0.00000000
     atom    2 type  1   force =     0.00000000    0.00000000    0.00000000
     atom    3 type  2   force =     0.00000000    0.00000000    0.00000000
     atom    4 type  2   force =     0.00000000    0.00000000    0.00000000

     Total force =     0.000000     Total SCF correction =     0.000000

     General routines

     Parallel routines

   This run was terminated on:   6:43:38  15Nov2017

   JOB DONE.