     Program PWSCF v.5.1rc2 starts on 14Nov2017 at  1:45:46

     Current dimensions of program PWSCF are:
     Max number of different atomic species (ntypx) = 10
     Max number of k-points (npk) =  40000
     Max angular momentum in pseudopotentials (lmaxx) =  3

     IMPORTANT: XC functional enforced from input :
     Exchange-correlation      = BEEF-VDW ( 1  4 27 13 2)
     Any further DFT definition will be discarded
     Please, verify this is what you really want

     Found symmetry operation: I + (  0.5000  0.5000  0.0000)
     This is a supercell, fractional translations are disabled

     bravais-lattice index     =            0
     lattice parameter (alat)  =       1.8897  a.u.
     unit-cell volume          =     546.7218 (a.u.)^3
     number of atoms/cell      =            4
     number of atomic types    =            2
     number of electrons       =        46.00
     number of Kohn-Sham states=           43
     kinetic-energy cutoff     =      58.7989  Ry
     charge density cutoff     =     587.9892  Ry
     convergence threshold     =      1.0E-06
     mixing beta               =       0.1000
     number of iterations used =           10  plain     mixing
     Exchange-correlation      = BEEF-VDW ( 1  4 27 13 2)

     celldm(1)=   1.889726  celldm(2)=   0.000000  celldm(3)=   0.000000
     celldm(4)=   0.000000  celldm(5)=   0.000000  celldm(6)=   0.000000

     crystal axes: (cart. coord. in units of alat)
               a(1) = (   4.677886   0.000000   0.000000 )
               a(2) = (   0.000000   4.677886   0.000000 )
               a(3) = (   0.000000   0.000000   3.702291 )

     reciprocal axes: (cart. coord. in units 2 pi/alat)
               b(1) = (  0.213772  0.000000  0.000000 )
               b(2) = (  0.000000  0.213772  0.000000 )
               b(3) = (  0.000000  0.000000  0.270103 )

     PseudoPot. # 1 for Cd read from file:
     /home/users/vossj/suncat/psp/gbrv1.5pbe/Cd.UPF
     MD5 check sum: 17164a7926edb8e0dc231208abae86a6
     Pseudo is Ultrasoft + core correction, Zval = 12.0
     Generated by new atomic code, or converted to UPF format
     Using radial grid of  889 points,  6 beta functions with:
                l(1) =   0
                l(2) =   0
                l(3) =   1
                l(4) =   1
                l(5) =   2
                l(6) =   2
     Q(r) pseudized with  6 coefficients,  rinner =    1.000   1.000   1.000
                                                       1.000   1.000

     PseudoPot. # 2 for Au read from file:
     /home/users/vossj/suncat/psp/gbrv1.5pbe/Au.UPF
     MD5 check sum: 9d7f43293ad2c663164586bc4b293ffc
     Pseudo is Ultrasoft + core correction, Zval = 11.0
     Generated by new atomic code, or converted to UPF format
     Using radial grid of  985 points,  7 beta functions with:
                l(1) =   0
                l(2) =   0
                l(3) =   1
                l(4) =   1
                l(5) =   2
                l(6) =   2
                l(7) =   3
     Q(r) pseudized with  6 coefficients,  rinner =    1.900   1.900   1.900
                                                       1.900   1.900   1.900
                                                       1.900

     vdW kernel table read from file vdW_kernel_table
     MD5 check sum: 095c7af220d748ca6e76c0b4c6cfb241

     atomic species   valence    mass     pseudopotential
        Cd1           12.00   112.41000     Cd( 1.00)
        Au1           11.00   196.96650     Au( 1.00)

     16 Sym. Ops., with inversion, found

   Cartesian axes

     site n.     atom                  positions (alat units)
         1           Cd1 tau(   1) = (   0.0000000   0.0000000   0.0000000  )
         2           Cd1 tau(   2) = (   2.3389429   2.3389429   0.0000000  )
         3           Au1 tau(   3) = (   2.3389429   0.0000000   1.8511456  )
         4           Au1 tau(   4) = (   0.0000000   2.3389429   1.8511456  )

     number of k points=    75  Fermi-Dirac smearing, width (Ry)=  0.0073
                       cart. coord. in units 2pi/alat
        k(    1) = (   0.0000000   0.0000000   0.0000000), wk =   0.0027435
        k(    2) = (   0.0000000   0.0000000   0.0300114), wk =   0.0054870
        k(    3) = (   0.0000000   0.0000000   0.0600229), wk =   0.0054870
        k(    4) = (   0.0000000   0.0000000   0.0900343), wk =   0.0054870
        k(    5) = (   0.0000000   0.0000000   0.1200458), wk =   0.0054870
        k(    6) = (   0.0000000   0.0237524   0.0000000), wk =   0.0109739
        k(    7) = (   0.0000000   0.0237524   0.0300114), wk =   0.0219479
        k(    8) = (   0.0000000   0.0237524   0.0600229), wk =   0.0219479
        k(    9) = (   0.0000000   0.0237524   0.0900343), wk =   0.0219479
        k(   10) = (   0.0000000   0.0237524   0.1200458), wk =   0.0219479
        k(   11) = (   0.0000000   0.0475048   0.0000000), wk =   0.0109739
        k(   12) = (   0.0000000   0.0475048   0.0300114), wk =   0.0219479
        k(   13) = (   0.0000000   0.0475048   0.0600229), wk =   0.0219479
        k(   14) = (   0.0000000   0.0475048   0.0900343), wk =   0.0219479
        k(   15) = (   0.0000000   0.0475048   0.1200458), wk =   0.0219479
        k(   16) = (   0.0000000   0.0712573   0.0000000), wk =   0.0109739
        k(   17) = (   0.0000000   0.0712573   0.0300114), wk =   0.0219479
        k(   18) = (   0.0000000   0.0712573   0.0600229), wk =   0.0219479
        k(   19) = (   0.0000000   0.0712573   0.0900343), wk =   0.0219479
        k(   20) = (   0.0000000   0.0712573   0.1200458), wk =   0.0219479
        k(   21) = (   0.0000000   0.0950097   0.0000000), wk =   0.0109739
        k(   22) = (   0.0000000   0.0950097   0.0300114), wk =   0.0219479
        k(   23) = (   0.0000000   0.0950097   0.0600229), wk =   0.0219479
        k(   24) = (   0.0000000   0.0950097   0.0900343), wk =   0.0219479
        k(   25) = (   0.0000000   0.0950097   0.1200458), wk =   0.0219479
        k(   26) = (   0.0237524   0.0237524   0.0000000), wk =   0.0109739
        k(   27) = (   0.0237524   0.0237524   0.0300114), wk =   0.0219479
        k(   28) = (   0.0237524   0.0237524   0.0600229), wk =   0.0219479
        k(   29) = (   0.0237524   0.0237524   0.0900343), wk =   0.0219479
        k(   30) = (   0.0237524   0.0237524   0.1200458), wk =   0.0219479
        k(   31) = (   0.0237524   0.0475048   0.0000000), wk =   0.0219479
        k(   32) = (   0.0237524   0.0475048   0.0300114), wk =   0.0438957
        k(   33) = (   0.0237524   0.0475048   0.0600229), wk =   0.0438957
        k(   34) = (   0.0237524   0.0475048   0.0900343), wk =   0.0438957
        k(   35) = (   0.0237524   0.0475048   0.1200458), wk =   0.0438957
        k(   36) = (   0.0237524   0.0712573   0.0000000), wk =   0.0219479
        k(   37) = (   0.0237524   0.0712573   0.0300114), wk =   0.0438957
        k(   38) = (   0.0237524   0.0712573   0.0600229), wk =   0.0438957
        k(   39) = (   0.0237524   0.0712573   0.0900343), wk =   0.0438957
        k(   40) = (   0.0237524   0.0712573   0.1200458), wk =   0.0438957
        k(   41) = (   0.0237524   0.0950097   0.0000000), wk =   0.0219479
        k(   42) = (   0.0237524   0.0950097   0.0300114), wk =   0.0438957
        k(   43) = (   0.0237524   0.0950097   0.0600229), wk =   0.0438957
        k(   44) = (   0.0237524   0.0950097   0.0900343), wk =   0.0438957
        k(   45) = (   0.0237524   0.0950097   0.1200458), wk =   0.0438957
        k(   46) = (   0.0475048   0.0475048   0.0000000), wk =   0.0109739
        k(   47) = (   0.0475048   0.0475048   0.0300114), wk =   0.0219479
        k(   48) = (   0.0475048   0.0475048   0.0600229), wk =   0.0219479
        k(   49) = (   0.0475048   0.0475048   0.0900343), wk =   0.0219479
        k(   50) = (   0.0475048   0.0475048   0.1200458), wk =   0.0219479
        k(   51) = (   0.0475048   0.0712573   0.0000000), wk =   0.0219479
        k(   52) = (   0.0475048   0.0712573   0.0300114), wk =   0.0438957
        k(   53) = (   0.0475048   0.0712573   0.0600229), wk =   0.0438957
        k(   54) = (   0.0475048   0.0712573   0.0900343), wk =   0.0438957
        k(   55) = (   0.0475048   0.0712573   0.1200458), wk =   0.0438957
        k(   56) = (   0.0475048   0.0950097   0.0000000), wk =   0.0219479
        k(   57) = (   0.0475048   0.0950097   0.0300114), wk =   0.0438957
        k(   58) = (   0.0475048   0.0950097   0.0600229), wk =   0.0438957
        k(   59) = (   0.0475048   0.0950097   0.0900343), wk =   0.0438957
        k(   60) = (   0.0475048   0.0950097   0.1200458), wk =   0.0438957
        k(   61) = (   0.0712573   0.0712573   0.0000000), wk =   0.0109739
        k(   62) = (   0.0712573   0.0712573   0.0300114), wk =   0.0219479
        k(   63) = (   0.0712573   0.0712573   0.0600229), wk =   0.0219479
        k(   64) = (   0.0712573   0.0712573   0.0900343), wk =   0.0219479
        k(   65) = (   0.0712573   0.0712573   0.1200458), wk =   0.0219479
        k(   66) = (   0.0712573   0.0950097   0.0000000), wk =   0.0219479
        k(   67) = (   0.0712573   0.0950097   0.0300114), wk =   0.0438957
        k(   68) = (   0.0712573   0.0950097   0.0600229), wk =   0.0438957
        k(   69) = (   0.0712573   0.0950097   0.0900343), wk =   0.0438957
        k(   70) = (   0.0712573   0.0950097   0.1200458), wk =   0.0438957
        k(   71) = (   0.0950097   0.0950097   0.0000000), wk =   0.0109739
        k(   72) = (   0.0950097   0.0950097   0.0300114), wk =   0.0219479
        k(   73) = (   0.0950097   0.0950097   0.0600229), wk =   0.0219479
        k(   74) = (   0.0950097   0.0950097   0.0900343), wk =   0.0219479
        k(   75) = (   0.0950097   0.0950097   0.1200458), wk =   0.0219479

     Largest allocated arrays     est. size (Mb)     dimensions
     Largest temporary arrays     est. size (Mb)     dimensions

     Initial potential from superposition of free atoms
     Check: negative starting charge=   -0.041765

     starting charge   44.99967, renormalised to   46.00000

     negative rho (up, down):  4.269E-02 0.000E+00

     *
     * You are using vdW-DF for exchange-correlation in this calculation.
     * Please cite the following three references that made this development
     * possible:
     *
     *   M. Dion, H. Rydberg, E. Schroder, D. C. Langreth, and
     *   B. I. Lundqvist, Phys. Rev. Lett. 92, 246401 (2004).
     *
     *   T. Thonhauser, V. R. Cooper, S. Li, A. Puzder, P. Hyldgaard, and
     *   D. C. Langreth, Phys. Rev. B 76, 125112 (2007).
     *
     *   G. Roman-Perez and J. M. Soler, Phys. Rev. Lett. 103, 096102 (2009).
     *
     *
     * If you are using vdW-DF2, please also cite:
     *
     *   K. Lee, E. D. Murray, L. Kong, B. I. Lundqvist, and
     *   D. C. Langreth, Phys. Rev. B 82, 081101(R) (2010).
     *
     *
     * If you are calculating the stress with vdW-DF, please also cite:
     *
     *   R. Sabatini, E. Kucukbenli, B. Kolb, T. Thonhauser, and
     *   S. de Gironcoli, J. Phys.: Condens. Matter 24, 424209 (2012).
     *

     Carrying out vdW-DF run using the following parameters:

     Nqs =      20    Nr_points =    1024   r_max =   100.000
     q_mesh =
               0.00001000     0.04494208     0.09755937     0.15916263
               0.23128650     0.31572767     0.41458969     0.53033537
               0.66584808     0.82450364     1.01025438     1.22772762
               1.48234092     1.78043706     2.12944203     2.53805004
               3.01644009     3.57652955     4.23227104     5.00000000

     Gradients computed in reciprocal space

     Starting wfc are   36 randomized atomic wfcs +    7 random wfc

     Self-consistent Calculation

     iteration #  1     ecut=    58.80 Ry     beta=0.10
     Davidson diagonalization with overlap
     ethr =  1.00E-02,  avg # of iterations =  5.1

[...]

     total energy              =    -465.72094856 Ry
     Harris-Foulkes estimate   =    -465.79421251 Ry
     estimated scf accuracy    <       0.46158015 Ry

[...]

     iteration #  7     ecut=    58.80 Ry     beta=0.10
     Davidson diagonalization with overlap
     c_bands:  1 eigenvalues not converged
     ethr =  7.54E-07,  avg # of iterations =  4.8

[...]

     total energy              =    -465.68854506 Ry
     Harris-Foulkes estimate   =    -465.68853177 Ry
     estimated scf accuracy    <       0.00000134 Ry

     iteration # 11     ecut=    58.80 Ry     beta=0.10
     Davidson diagonalization with overlap
     ethr =  2.92E-09,  avg # of iterations =  2.0

     negative rho (up, down):  4.358E-02 0.000E+00

     End of self-consistent calculation

          k = 0.0000 0.0000 0.0000 (  4197 PWs)   bands (ev):

     2.8243   2.9088   3.0006   3.1570   3.1570   3.2897   3.4955   3.4955
     3.5449   3.6126   3.8994   6.8878   7.4609   7.6720   8.1944   8.4276
     8.4276   8.7063   8.7063   8.8461   9.3128  11.5391  11.5391  13.2617
    14.7593  15.3302  18.1230  18.1230  18.7256  21.4970  22.3931  22.3931
    23.0513  23.5635  24.4496  27.2740  27.5975  28.3046  28.5282  28.5282
    28.6213  28.6213  30.2957

[...]

          k = 0.0950 0.0950 0.1200 (  4155 PWs)   bands (ev):

     2.8934   2.8979   3.1212   3.1429   3.3154   3.3321   3.3900   3.4001
     3.7476   3.7625   6.6474   6.6612   7.6564   7.7180   8.4307   8.5258
     8.5341   8.6308   8.8456   8.9041  10.1647  10.8650  11.1200  11.1968
    12.6876  12.8912  14.0966  14.4291  23.1612  23.5178  23.9161  24.1614
    24.1837  24.3663  24.9510  25.2005  29.5081  29.7226  30.0509  30.0964
    30.7406  30.7626  31.0593

     the Fermi energy is    12.3570 ev

!    total energy              =    -465.68860409 Ry
     Harris-Foulkes estimate   =    -465.68854531 Ry
     estimated scf accuracy    <       0.00000001 Ry

     The total energy is the sum of the following terms:

     one-electron contribution =     -20.57110255 Ry
     hartree contribution      =      61.54452850 Ry
     xc contribution           =    -209.74922491 Ry
     ewald contribution        =    -296.90971821 Ry
     smearing contrib. (-TS)   =      -0.00308691 Ry

     convergence has been achieved in  11 iterations

     Forces acting on atoms (Ry/au):

     negative rho (up, down):  4.358E-02 0.000E+00
     atom    1 type  1   force =     0.00000000    0.00000000    0.00000000
     atom    2 type  1   force =     0.00000000    0.00000000    0.00000000
     atom    3 type  2   force =     0.00000000    0.00000000    0.00000000
     atom    4 type  2   force =     0.00000000    0.00000000    0.00000000

     Total force =     0.000000     Total SCF correction =     0.000000

     General routines

     Parallel routines

   This run was terminated on:   1:46:33  14Nov2017

   JOB DONE.