     Program PWSCF v.5.1rc2 (svn rev. ) starts on 18Feb2018 at 17:26:49

     Current dimensions of program PWSCF are:
     Max number of different atomic species (ntypx) = 10
     Max number of k-points (npk) =  40000
     Max angular momentum in pseudopotentials (lmaxx) =  3

     IMPORTANT: XC functional enforced from input :
     Exchange-correlation      = BEEF-VDW ( 1  4 27 13 2)
     Any further DFT definition will be discarded
     Please, verify this is what you really want

     Subspace diagonalization in iterative solution of the eigenvalue problem:
     a serial algorithm will be used

     Found symmetry operation: I + ( -0.5000 -0.5000  0.0000)
     This is a supercell, fractional translations are disabled

     bravais-lattice index     =            0
     lattice parameter (alat)  =       1.8897  a.u.
     unit-cell volume          =     598.2516 (a.u.)^3
     number of atoms/cell      =            4
     number of atomic types    =            2
     number of electrons       =        54.00
     number of Kohn-Sham states=           47
     kinetic-energy cutoff     =      58.7989  Ry
     charge density cutoff     =     587.9892  Ry
     convergence threshold     =      1.0E-06
     mixing beta               =       0.1000
     number of iterations used =           10  plain     mixing
     Exchange-correlation      = BEEF-VDW ( 1  4 27 13 2)

     celldm(1)=   1.889726  celldm(2)=   0.000000  celldm(3)=   0.000000
     celldm(4)=   0.000000  celldm(5)=   0.000000  celldm(6)=   0.000000

     crystal axes: (cart. coord. in units of alat)
               a(1) = (   5.083585   0.000000   0.000000 )
               a(2) = (   0.000000   5.083585   0.000000 )
               a(3) = (   0.000000   0.000000   3.430419 )

     reciprocal axes: (cart. coord. in units 2 pi/alat)
               b(1) = (  0.196712  0.000000  0.000000 )
               b(2) = (  0.000000  0.196712  0.000000 )
               b(3) = (  0.000000  0.000000  0.291510 )

     PseudoPot. # 1 for Ti read from file:
     /home/mamunm/src/pseudo/gbrv1.5pbe/Ti.UPF
     MD5 check sum: 88a00a6731bd790ddea75d31a80cb452
     Pseudo is Ultrasoft + core correction, Zval = 12.0
     Generated by new atomic code, or converted to UPF format
     Using radial grid of  851 points,  6 beta functions with:
                l(1) =   0
                l(2) =   0
                l(3) =   1
                l(4) =   1
                l(5) =   2
                l(6) =   2
     Q(r) pseudized with  6 coefficients,  rinner =    1.000   1.000   1.000
                                                       1.000   1.000

     PseudoPot. # 2 for Bi read from file:
     /home/mamunm/src/pseudo/gbrv1.5pbe/Bi.UPF
     MD5 check sum: 81103212dc04adf40945787f699eab19
     Pseudo is Ultrasoft + core correction, Zval = 15.0
     Generated by new atomic code, or converted to UPF format
     Using radial grid of  899 points,  6 beta functions with:
                l(1) =   0
                l(2) =   0
                l(3) =   1
                l(4) =   1
                l(5) =   2
                l(6) =   2
     Q(r) pseudized with  6 coefficients,  rinner =    1.000   1.000   1.000
                                                       1.000   1.000

     vdW kernel table read from file vdW_kernel_table
     MD5 check sum: 095c7af220d748ca6e76c0b4c6cfb241

     atomic species   valence    mass     pseudopotential
        Ti1           12.00    47.86700     Ti( 1.00)
        Bi1           15.00   208.98040     Bi( 1.00)

     16 Sym. Ops., with inversion, found

   Cartesian axes

     site n.     atom                  positions (alat units)
         1           Ti1 tau(   1) = (   0.0000000   0.0000000   0.0000000  )
         2           Ti1 tau(   2) = (   2.5417923   2.5417923   0.0000000  )
         3           Bi1 tau(   3) = (   2.5417923   0.0000000   1.7152095  )
         4           Bi1 tau(   4) = (   0.0000000   2.5417923   1.7152095  )

     number of k points=    75  Fermi-Dirac smearing, width (Ry)=  0.0073
                       cart. coord. in units 2pi/alat
        k(    1) = (   0.0000000   0.0000000   0.0000000), wk =   0.0027435
        k(    2) = (   0.0000000   0.0000000   0.0323900), wk =   0.0054870
        k(    3) = (   0.0000000   0.0000000   0.0647799), wk =   0.0054870
        k(    4) = (   0.0000000   0.0000000   0.0971699), wk =   0.0054870
        k(    5) = (   0.0000000   0.0000000   0.1295598), wk =   0.0054870
        k(    6) = (   0.0000000   0.0218568   0.0000000), wk =   0.0109739
        k(    7) = (   0.0000000   0.0218568   0.0323900), wk =   0.0219479
        k(    8) = (   0.0000000   0.0218568   0.0647799), wk =   0.0219479
        k(    9) = (   0.0000000   0.0218568   0.0971699), wk =   0.0219479
        k(   10) = (   0.0000000   0.0218568   0.1295598), wk =   0.0219479
        k(   11) = (   0.0000000   0.0437137   0.0000000), wk =   0.0109739
        k(   12) = (   0.0000000   0.0437137   0.0323900), wk =   0.0219479
        k(   13) = (   0.0000000   0.0437137   0.0647799), wk =   0.0219479
        k(   14) = (   0.0000000   0.0437137   0.0971699), wk =   0.0219479
        k(   15) = (   0.0000000   0.0437137   0.1295598), wk =   0.0219479
        k(   16) = (   0.0000000   0.0655705   0.0000000), wk =   0.0109739
        k(   17) = (   0.0000000   0.0655705   0.0323900), wk =   0.0219479
        k(   18) = (   0.0000000   0.0655705   0.0647799), wk =   0.0219479
        k(   19) = (   0.0000000   0.0655705   0.0971699), wk =   0.0219479
        k(   20) = (   0.0000000   0.0655705   0.1295598), wk =   0.0219479
        k(   21) = (   0.0000000   0.0874274   0.0000000), wk =   0.0109739
        k(   22) = (   0.0000000   0.0874274   0.0323900), wk =   0.0219479
        k(   23) = (   0.0000000   0.0874274   0.0647799), wk =   0.0219479
        k(   24) = (   0.0000000   0.0874274   0.0971699), wk =   0.0219479
        k(   25) = (   0.0000000   0.0874274   0.1295598), wk =   0.0219479
        k(   26) = (   0.0218568   0.0218568   0.0000000), wk =   0.0109739
        k(   27) = (   0.0218568   0.0218568   0.0323900), wk =   0.0219479
        k(   28) = (   0.0218568   0.0218568   0.0647799), wk =   0.0219479
        k(   29) = (   0.0218568   0.0218568   0.0971699), wk =   0.0219479
        k(   30) = (   0.0218568   0.0218568   0.1295598), wk =   0.0219479
        k(   31) = (   0.0218568   0.0437137   0.0000000), wk =   0.0219479
        k(   32) = (   0.0218568   0.0437137   0.0323900), wk =   0.0438957
        k(   33) = (   0.0218568   0.0437137   0.0647799), wk =   0.0438957
        k(   34) = (   0.0218568   0.0437137   0.0971699), wk =   0.0438957
        k(   35) = (   0.0218568   0.0437137   0.1295598), wk =   0.0438957
        k(   36) = (   0.0218568   0.0655705   0.0000000), wk =   0.0219479
        k(   37) = (   0.0218568   0.0655705   0.0323900), wk =   0.0438957
        k(   38) = (   0.0218568   0.0655705   0.0647799), wk =   0.0438957
        k(   39) = (   0.0218568   0.0655705   0.0971699), wk =   0.0438957
        k(   40) = (   0.0218568   0.0655705   0.1295598), wk =   0.0438957
        k(   41) = (   0.0218568   0.0874274   0.0000000), wk =   0.0219479
        k(   42) = (   0.0218568   0.0874274   0.0323900), wk =   0.0438957
        k(   43) = (   0.0218568   0.0874274   0.0647799), wk =   0.0438957
        k(   44) = (   0.0218568   0.0874274   0.0971699), wk =   0.0438957
        k(   45) = (   0.0218568   0.0874274   0.1295598), wk =   0.0438957
        k(   46) = (   0.0437137   0.0437137   0.0000000), wk =   0.0109739
        k(   47) = (   0.0437137   0.0437137   0.0323900), wk =   0.0219479
        k(   48) = (   0.0437137   0.0437137   0.0647799), wk =   0.0219479
        k(   49) = (   0.0437137   0.0437137   0.0971699), wk =   0.0219479
        k(   50) = (   0.0437137   0.0437137   0.1295598), wk =   0.0219479
        k(   51) = (   0.0437137   0.0655705   0.0000000), wk =   0.0219479
        k(   52) = (   0.0437137   0.0655705   0.0323900), wk =   0.0438957
        k(   53) = (   0.0437137   0.0655705   0.0647799), wk =   0.0438957
        k(   54) = (   0.0437137   0.0655705   0.0971699), wk =   0.0438957
        k(   55) = (   0.0437137   0.0655705   0.1295598), wk =   0.0438957
        k(   56) = (   0.0437137   0.0874274   0.0000000), wk =   0.0219479
        k(   57) = (   0.0437137   0.0874274   0.0323900), wk =   0.0438957
        k(   58) = (   0.0437137   0.0874274   0.0647799), wk =   0.0438957
        k(   59) = (   0.0437137   0.0874274   0.0971699), wk =   0.0438957
        k(   60) = (   0.0437137   0.0874274   0.1295598), wk =   0.0438957
        k(   61) = (   0.0655705   0.0655705   0.0000000), wk =   0.0109739
        k(   62) = (   0.0655705   0.0655705   0.0323900), wk =   0.0219479
        k(   63) = (   0.0655705   0.0655705   0.0647799), wk =   0.0219479
        k(   64) = (   0.0655705   0.0655705   0.0971699), wk =   0.0219479
        k(   65) = (   0.0655705   0.0655705   0.1295598), wk =   0.0219479
        k(   66) = (   0.0655705   0.0874274   0.0000000), wk =   0.0219479
        k(   67) = (   0.0655705   0.0874274   0.0323900), wk =   0.0438957
        k(   68) = (   0.0655705   0.0874274   0.0647799), wk =   0.0438957
        k(   69) = (   0.0655705   0.0874274   0.0971699), wk =   0.0438957
        k(   70) = (   0.0655705   0.0874274   0.1295598), wk =   0.0438957
        k(   71) = (   0.0874274   0.0874274   0.0000000), wk =   0.0109739
        k(   72) = (   0.0874274   0.0874274   0.0323900), wk =   0.0219479
        k(   73) = (   0.0874274   0.0874274   0.0647799), wk =   0.0219479
        k(   74) = (   0.0874274   0.0874274   0.0971699), wk =   0.0219479
        k(   75) = (   0.0874274   0.0874274   0.1295598), wk =   0.0219479

     Largest allocated arrays     est. size (Mb)     dimensions
     Largest temporary arrays     est. size (Mb)     dimensions

     Check: negative/imaginary core charge=   -0.000002    0.000000

     Initial potential from superposition of free atoms
     Check: negative starting charge=   -0.085594

     starting charge   49.99983, renormalised to   54.00000

     negative rho (up, down):  9.244E-02 0.000E+00

     *
     * You are using vdW-DF for exchange-correlation in this calculation.
     * Please cite the following three references that made this development
     * possible:
     *
     *   M. Dion, H. Rydberg, E. Schroder, D. C. Langreth, and
     *   B. I. Lundqvist, Phys. Rev. Lett. 92, 246401 (2004).
     *
     *   T. Thonhauser, V. R. Cooper, S. Li, A. Puzder, P. Hyldgaard, and
     *   D. C. Langreth, Phys. Rev. B 76, 125112 (2007).
     *
     *   G. Roman-Perez and J. M. Soler, Phys. Rev. Lett. 103, 096102 (2009).
     *
     *
     * If you are using vdW-DF2, please also cite:
     *
     *   K. Lee, E. D. Murray, L. Kong, B. I. Lundqvist, and
     *   D. C. Langreth, Phys. Rev. B 82, 081101(R) (2010).
     *
     *
     * If you are calculating the stress with vdW-DF, please also cite:
     *
     *   R. Sabatini, E. Kucukbenli, B. Kolb, T. Thonhauser, and
     *   S. de Gironcoli, J. Phys.: Condens. Matter 24, 424209 (2012).
     *

     Carrying out vdW-DF run using the following parameters:

     Nqs =      20    Nr_points =    1024   r_max =   100.000
     q_mesh =
               0.00001000     0.04494208     0.09755937     0.15916263
               0.23128650     0.31572767     0.41458969     0.53033537
               0.66584808     0.82450364     1.01025438     1.22772762
               1.48234092     1.78043706     2.12944203     2.53805004
               3.01644009     3.57652955     4.23227104     5.00000000

     Gradients computed in reciprocal space

     Starting wfc are   38 randomized atomic wfcs +    9 random wfc

     Self-consistent Calculation

     iteration #  1     ecut=    58.80 Ry     beta=0.10
     Davidson diagonalization with overlap
     ethr =  1.00E-02,  avg # of iterations =  4.8

[...]

     total energy              =    -614.81082451 Ry
     Harris-Foulkes estimate   =    -615.18244971 Ry
     estimated scf accuracy    <       2.25507521 Ry

[...]

     total energy              =    -614.17080432 Ry
     Harris-Foulkes estimate   =    -614.17077998 Ry
     estimated scf accuracy    <       0.00000277 Ry

     iteration # 11     ecut=    58.80 Ry     beta=0.10
     Davidson diagonalization with overlap
     ethr =  5.12E-09,  avg # of iterations =  2.8

     negative rho (up, down):  9.125E-02 0.000E+00

     End of self-consistent calculation

          k = 0.0000 0.0000 0.0000 (  4571 PWs)   bands (ev):

   -43.5603 -43.5549 -19.8281 -19.8281 -19.7887 -19.7887 -19.7367 -19.7294
    -9.3244  -9.2675  -9.2639  -9.2429  -9.2068  -9.2068  -9.1764  -9.1764
    -9.1679  -9.0895   0.8829   3.1729   9.7752   9.7752  12.5700  12.8786
    12.9271  14.3860  14.3860  14.5546  14.5546  14.9026  15.0756  15.0756
    15.2622  15.4024  15.4597  16.6602  17.0674  18.0312  21.7217  22.0800
    22.8554  22.8554  24.4167  25.9320  26.6089  26.6091  27.2873

[...]

          k = 0.0874 0.0874 0.1296 (  4554 PWs)   bands (ev):

   -43.5530 -43.5525 -19.8253 -19.8241 -19.8012 -19.8007 -19.7798 -19.7786
    -9.2714  -9.2704  -9.2291  -9.2280  -9.2048  -9.2006  -9.1983  -9.1964
    -9.0947  -9.0919   3.4403   3.5056   9.7357   9.8504   9.9482  10.0582
    12.8466  12.8857  14.2158  14.2835  14.3456  14.3483  14.9185  15.1558
    15.5587  15.5667  17.1115  17.1542  17.4491  17.4719  21.8111  21.8879
    22.1405  22.3383  24.3876  24.3975  24.5634  24.6030  26.5759

     the Fermi energy is    13.7520 ev

!    total energy              =    -614.17089454 Ry
     Harris-Foulkes estimate   =    -614.17080454 Ry
     estimated scf accuracy    <       0.00000010 Ry

     The total energy is the sum of the following terms:

     one-electron contribution =    -151.23304144 Ry
     hartree contribution      =     107.45778785 Ry
     xc contribution           =    -170.97770182 Ry
     ewald contribution        =    -399.40515116 Ry
     smearing contrib. (-TS)   =      -0.01278797 Ry

     convergence has been achieved in  11 iterations

     Forces acting on atoms (Ry/au):

     negative rho (up, down):  9.125E-02 0.000E+00
     atom    1 type  1   force =     0.00000000    0.00000000    0.00000000
     atom    2 type  1   force =     0.00000000    0.00000000    0.00000000
     atom    3 type  2   force =     0.00000000    0.00000000    0.00000000
     atom    4 type  2   force =     0.00000000    0.00000000    0.00000000

     Total force =     0.000000     Total SCF correction =     0.000000

     General routines

     Parallel routines

   This run was terminated on:  17:27:40  18Feb2018

   JOB DONE.