     Program PWSCF v.5.1rc2 starts on 14Nov2017 at  9:17: 0

     Current dimensions of program PWSCF are:
     Max number of different atomic species (ntypx) = 10
     Max number of k-points (npk) =  40000
     Max angular momentum in pseudopotentials (lmaxx) =  3

     IMPORTANT: XC functional enforced from input :
     Exchange-correlation      = BEEF-VDW ( 1  4 27 13 2)
     Any further DFT definition will be discarded
     Please, verify this is what you really want

     Found symmetry operation: I + ( -0.5000 -0.5000  0.0000)
     This is a supercell, fractional translations are disabled

     bravais-lattice index     =            0
     lattice parameter (alat)  =       1.8897  a.u.
     unit-cell volume          =     366.3070 (a.u.)^3
     number of atoms/cell      =            4
     number of atomic types    =            2
     number of electrons       =        70.00
     number of Kohn-Sham states=           55
     kinetic-energy cutoff     =      58.7989  Ry
     charge density cutoff     =     587.9892  Ry
     convergence threshold     =      1.0E-06
     mixing beta               =       0.1000
     number of iterations used =           10  plain     mixing
     Exchange-correlation      = BEEF-VDW ( 1  4 27 13 2)

     celldm(1)=   1.889726  celldm(2)=   0.000000  celldm(3)=   0.000000
     celldm(4)=   0.000000  celldm(5)=   0.000000  celldm(6)=   0.000000

     crystal axes: (cart. coord. in units of alat)
               a(1) = (   3.702203   0.000000   0.000000 )
               a(2) = (   0.000000   3.702203   0.000000 )
               a(3) = (   0.000000   0.000000   3.960301 )

     reciprocal axes: (cart. coord. in units 2 pi/alat)
               b(1) = (  0.270109  0.000000  0.000000 )
               b(2) = (  0.000000  0.270109  0.000000 )
               b(3) = (  0.000000  0.000000  0.252506 )

     PseudoPot. # 1 for Cu read from file:
     /home/users/vossj/suncat/psp/gbrv1.5pbe/Cu.UPF
     MD5 check sum: 6e991ff952a84172a2a52a1c1e996048
     Pseudo is Ultrasoft + core correction, Zval = 19.0
     Generated by new atomic code, or converted to UPF format
     Using radial grid of  867 points,  6 beta functions with:
                l(1) =   0
                l(2) =   0
                l(3) =   1
                l(4) =   1
                l(5) =   2
                l(6) =   2
     Q(r) pseudized with  8 coefficients,  rinner =    1.150   1.150   1.150
                                                       1.150   1.150

     PseudoPot. # 2 for Os read from file:
     /home/users/vossj/suncat/psp/gbrv1.5pbe/Os.UPF
     MD5 check sum: a3fb40a04f0c37c25c34bbc47164c9a8
     Pseudo is Ultrasoft + core correction, Zval = 16.0
     Generated by new atomic code, or converted to UPF format
     Using radial grid of  983 points,  8 beta functions with:
                l(1) =   0
                l(2) =   0
                l(3) =   1
                l(4) =   1
                l(5) =   2
                l(6) =   2
                l(7) =   3
                l(8) =   3
     Q(r) pseudized with  8 coefficients,  rinner =    1.150   1.150   1.150
                                                       1.150   1.150   1.150
                                                       1.150

     vdW kernel table read from file vdW_kernel_table
     MD5 check sum: 095c7af220d748ca6e76c0b4c6cfb241

     atomic species   valence    mass     pseudopotential
        Cu1           19.00    63.54600     Cu( 1.00)
        Os1           16.00   190.20000     Os( 1.00)

     16 Sym. Ops., with inversion, found

   Cartesian axes

     site n.     atom                  positions (alat units)
         1           Cu1 tau(   1) = (   0.0000000   0.0000000   0.0000000  )
         2           Cu1 tau(   2) = (   1.8511014   1.8511014   0.0000000  )
         3           Os1 tau(   3) = (   1.8511014   0.0000000   1.9801506  )
         4           Os1 tau(   4) = (   0.0000000   1.8511014   1.9801506  )

     number of k points=    75  Fermi-Dirac smearing, width (Ry)=  0.0073
                       cart. coord. in units 2pi/alat
        k(    1) = (   0.0000000   0.0000000   0.0000000), wk =   0.0027435
        k(    2) = (   0.0000000   0.0000000   0.0280562), wk =   0.0054870
        k(    3) = (   0.0000000   0.0000000   0.0561125), wk =   0.0054870
        k(    4) = (   0.0000000   0.0000000   0.0841687), wk =   0.0054870
        k(    5) = (   0.0000000   0.0000000   0.1122249), wk =   0.0054870
        k(    6) = (   0.0000000   0.0300122   0.0000000), wk =   0.0109739
        k(    7) = (   0.0000000   0.0300122   0.0280562), wk =   0.0219479
        k(    8) = (   0.0000000   0.0300122   0.0561125), wk =   0.0219479
        k(    9) = (   0.0000000   0.0300122   0.0841687), wk =   0.0219479
        k(   10) = (   0.0000000   0.0300122   0.1122249), wk =   0.0219479
        k(   11) = (   0.0000000   0.0600243   0.0000000), wk =   0.0109739
        k(   12) = (   0.0000000   0.0600243   0.0280562), wk =   0.0219479
        k(   13) = (   0.0000000   0.0600243   0.0561125), wk =   0.0219479
        k(   14) = (   0.0000000   0.0600243   0.0841687), wk =   0.0219479
        k(   15) = (   0.0000000   0.0600243   0.1122249), wk =   0.0219479
        k(   16) = (   0.0000000   0.0900365   0.0000000), wk =   0.0109739
        k(   17) = (   0.0000000   0.0900365   0.0280562), wk =   0.0219479
        k(   18) = (   0.0000000   0.0900365   0.0561125), wk =   0.0219479
        k(   19) = (   0.0000000   0.0900365   0.0841687), wk =   0.0219479
        k(   20) = (   0.0000000   0.0900365   0.1122249), wk =   0.0219479
        k(   21) = (   0.0000000   0.1200487   0.0000000), wk =   0.0109739
        k(   22) = (   0.0000000   0.1200487   0.0280562), wk =   0.0219479
        k(   23) = (   0.0000000   0.1200487   0.0561125), wk =   0.0219479
        k(   24) = (   0.0000000   0.1200487   0.0841687), wk =   0.0219479
        k(   25) = (   0.0000000   0.1200487   0.1122249), wk =   0.0219479
        k(   26) = (   0.0300122   0.0300122   0.0000000), wk =   0.0109739
        k(   27) = (   0.0300122   0.0300122   0.0280562), wk =   0.0219479
        k(   28) = (   0.0300122   0.0300122   0.0561125), wk =   0.0219479
        k(   29) = (   0.0300122   0.0300122   0.0841687), wk =   0.0219479
        k(   30) = (   0.0300122   0.0300122   0.1122249), wk =   0.0219479
        k(   31) = (   0.0300122   0.0600243   0.0000000), wk =   0.0219479
        k(   32) = (   0.0300122   0.0600243   0.0280562), wk =   0.0438957
        k(   33) = (   0.0300122   0.0600243   0.0561125), wk =   0.0438957
        k(   34) = (   0.0300122   0.0600243   0.0841687), wk =   0.0438957
        k(   35) = (   0.0300122   0.0600243   0.1122249), wk =   0.0438957
        k(   36) = (   0.0300122   0.0900365   0.0000000), wk =   0.0219479
        k(   37) = (   0.0300122   0.0900365   0.0280562), wk =   0.0438957
        k(   38) = (   0.0300122   0.0900365   0.0561125), wk =   0.0438957
        k(   39) = (   0.0300122   0.0900365   0.0841687), wk =   0.0438957
        k(   40) = (   0.0300122   0.0900365   0.1122249), wk =   0.0438957
        k(   41) = (   0.0300122   0.1200487   0.0000000), wk =   0.0219479
        k(   42) = (   0.0300122   0.1200487   0.0280562), wk =   0.0438957
        k(   43) = (   0.0300122   0.1200487   0.0561125), wk =   0.0438957
        k(   44) = (   0.0300122   0.1200487   0.0841687), wk =   0.0438957
        k(   45) = (   0.0300122   0.1200487   0.1122249), wk =   0.0438957
        k(   46) = (   0.0600243   0.0600243   0.0000000), wk =   0.0109739
        k(   47) = (   0.0600243   0.0600243   0.0280562), wk =   0.0219479
        k(   48) = (   0.0600243   0.0600243   0.0561125), wk =   0.0219479
        k(   49) = (   0.0600243   0.0600243   0.0841687), wk =   0.0219479
        k(   50) = (   0.0600243   0.0600243   0.1122249), wk =   0.0219479
        k(   51) = (   0.0600243   0.0900365   0.0000000), wk =   0.0219479
        k(   52) = (   0.0600243   0.0900365   0.0280562), wk =   0.0438957
        k(   53) = (   0.0600243   0.0900365   0.0561125), wk =   0.0438957
        k(   54) = (   0.0600243   0.0900365   0.0841687), wk =   0.0438957
        k(   55) = (   0.0600243   0.0900365   0.1122249), wk =   0.0438957
        k(   56) = (   0.0600243   0.1200487   0.0000000), wk =   0.0219479
        k(   57) = (   0.0600243   0.1200487   0.0280562), wk =   0.0438957
        k(   58) = (   0.0600243   0.1200487   0.0561125), wk =   0.0438957
        k(   59) = (   0.0600243   0.1200487   0.0841687), wk =   0.0438957
        k(   60) = (   0.0600243   0.1200487   0.1122249), wk =   0.0438957
        k(   61) = (   0.0900365   0.0900365   0.0000000), wk =   0.0109739
        k(   62) = (   0.0900365   0.0900365   0.0280562), wk =   0.0219479
        k(   63) = (   0.0900365   0.0900365   0.0561125), wk =   0.0219479
        k(   64) = (   0.0900365   0.0900365   0.0841687), wk =   0.0219479
        k(   65) = (   0.0900365   0.0900365   0.1122249), wk =   0.0219479
        k(   66) = (   0.0900365   0.1200487   0.0000000), wk =   0.0219479
        k(   67) = (   0.0900365   0.1200487   0.0280562), wk =   0.0438957
        k(   68) = (   0.0900365   0.1200487   0.0561125), wk =   0.0438957
        k(   69) = (   0.0900365   0.1200487   0.0841687), wk =   0.0438957
        k(   70) = (   0.0900365   0.1200487   0.1122249), wk =   0.0438957
        k(   71) = (   0.1200487   0.1200487   0.0000000), wk =   0.0109739
        k(   72) = (   0.1200487   0.1200487   0.0280562), wk =   0.0219479
        k(   73) = (   0.1200487   0.1200487   0.0561125), wk =   0.0219479
        k(   74) = (   0.1200487   0.1200487   0.0841687), wk =   0.0219479
        k(   75) = (   0.1200487   0.1200487   0.1122249), wk =   0.0219479

     Largest allocated arrays     est. size (Mb)     dimensions
     Largest temporary arrays     est. size (Mb)     dimensions

     Initial potential from superposition of free atoms
     Check: negative starting charge=   -0.250060

     starting charge   66.99992, renormalised to   70.00000

     negative rho (up, down):  2.613E-01 0.000E+00

     *
     * You are using vdW-DF for exchange-correlation in this calculation.
     * Please cite the following three references that made this development
     * possible:
     *
     *   M. Dion, H. Rydberg, E. Schroder, D. C. Langreth, and
     *   B. I. Lundqvist, Phys. Rev. Lett. 92, 246401 (2004).
     *
     *   T. Thonhauser, V. R. Cooper, S. Li, A. Puzder, P. Hyldgaard, and
     *   D. C. Langreth, Phys. Rev. B 76, 125112 (2007).
     *
     *   G. Roman-Perez and J. M. Soler, Phys. Rev. Lett. 103, 096102 (2009).
     *
     *
     * If you are using vdW-DF2, please also cite:
     *
     *   K. Lee, E. D. Murray, L. Kong, B. I. Lundqvist, and
     *   D. C. Langreth, Phys. Rev. B 82, 081101(R) (2010).
     *
     *
     * If you are calculating the stress with vdW-DF, please also cite:
     *
     *   R. Sabatini, E. Kucukbenli, B. Kolb, T. Thonhauser, and
     *   S. de Gironcoli, J. Phys.: Condens. Matter 24, 424209 (2012).
     *

     Carrying out vdW-DF run using the following parameters:

     Nqs =      20    Nr_points =    1024   r_max =   100.000
     q_mesh =
               0.00001000     0.04494208     0.09755937     0.15916263
               0.23128650     0.31572767     0.41458969     0.53033537
               0.66584808     0.82450364     1.01025438     1.22772762
               1.48234092     1.78043706     2.12944203     2.53805004
               3.01644009     3.57652955     4.23227104     5.00000000

     Gradients computed in reciprocal space

     Starting wfc are   52 randomized atomic wfcs +    3 random wfc

     Self-consistent Calculation

     iteration #  1     ecut=    58.80 Ry     beta=0.10
     Davidson diagonalization with overlap
     ethr =  1.00E-02,  avg # of iterations =  4.2

[...]

     total energy              =   -1209.07339438 Ry
     Harris-Foulkes estimate   =   -1210.63946361 Ry
     estimated scf accuracy    <       8.89300223 Ry

[...]

     total energy              =   -1209.43026696 Ry
     Harris-Foulkes estimate   =   -1209.43027457 Ry
     estimated scf accuracy    <       0.00006106 Ry

     iteration # 13     ecut=    58.80 Ry     beta=0.10
     Davidson diagonalization with overlap
     ethr =  8.72E-08,  avg # of iterations =  1.1

     negative rho (up, down):  2.461E-01 0.000E+00

     End of self-consistent calculation

          k = 0.0000 0.0000 0.0000 (  2819 PWs)   bands (ev):

   -92.9414 -92.9349 -66.5652 -66.4661 -50.3554 -50.3479 -50.3242 -50.3242
   -50.2860 -50.2860 -26.1614 -26.1614 -25.8087 -25.6491 -25.4914 -25.4914
    10.3337  13.3944  14.0925  14.5062  14.8910  14.8910  14.9574  16.6352
    16.9730  16.9730  17.7028  17.8437  18.1443  18.2416  19.5059  19.5059
    20.5389  20.9382  21.0094  21.0094  22.1192  22.2560  22.2560  24.2187
    28.6276  29.1039  29.6927  30.4493  32.4181  32.4181  32.8954  32.8954
    34.6659  37.0354  39.2857  40.5221  40.9443  41.0907  41.1836

[...]

          k = 0.1200 0.1200 0.1122 (  2777 PWs)   bands (ev):

   -92.9382 -92.9380 -66.5166 -66.5136 -50.3518 -50.3516 -50.3280 -50.3269
   -50.2840 -50.2829 -26.2498 -26.2305 -25.7353 -25.7304 -25.4482 -25.4271
    13.7243  13.7501  14.1623  14.2899  16.5648  16.6032  16.7073  16.7795
    16.9441  16.9883  16.9978  17.0411  18.0581  18.2836  18.8388  18.8548
    18.9984  19.6510  19.8339  20.7828  20.8855  20.9930  21.1391  21.4975
    26.4393  26.5934  27.3824  27.6597  35.2927  35.3172  36.5057  36.7599
    37.9802  38.2304  38.6143  38.7993  41.3448  42.1357  42.4622

     the Fermi energy is    20.1747 ev

!    total energy              =   -1209.43028469 Ry
     Harris-Foulkes estimate   =   -1209.43027152 Ry
     estimated scf accuracy    <       0.00000086 Ry

     The total energy is the sum of the following terms:

     one-electron contribution =    -621.25197334 Ry
     hartree contribution      =     356.89686405 Ry
     xc contribution           =    -157.52408279 Ry
     ewald contribution        =    -787.53873314 Ry
     smearing contrib. (-TS)   =      -0.01235946 Ry

     convergence has been achieved in  13 iterations

     Forces acting on atoms (Ry/au):

     negative rho (up, down):  2.461E-01 0.000E+00
     atom    1 type  1   force =     0.00000000    0.00000000    0.00000000
     atom    2 type  1   force =     0.00000000    0.00000000    0.00000000
     atom    3 type  2   force =     0.00000000    0.00000000    0.00000000
     atom    4 type  2   force =     0.00000000    0.00000000    0.00000000

     Total force =     0.000000     Total SCF correction =     0.000000

     General routines

     Parallel routines

   This run was terminated on:   9:17:48  14Nov2017

   JOB DONE.