     Program PWSCF v.5.1rc2 starts on 15Nov2017 at  1:28:48

     Current dimensions of program PWSCF are:
     Max number of different atomic species (ntypx) = 10
     Max number of k-points (npk) =  40000
     Max angular momentum in pseudopotentials (lmaxx) =  3

     IMPORTANT: XC functional enforced from input :
     Exchange-correlation      = BEEF-VDW ( 1  4 27 13 2)
     Any further DFT definition will be discarded
     Please, verify this is what you really want

     Found symmetry operation: I + ( -0.5000 -0.5000  0.0000)
     This is a supercell, fractional translations are disabled

     bravais-lattice index     =            0
     lattice parameter (alat)  =       1.8897  a.u.
     unit-cell volume          =     462.8947 (a.u.)^3
     number of atoms/cell      =            4
     number of atomic types    =            2
     number of electrons       =        54.00
     number of Kohn-Sham states=           47
     kinetic-energy cutoff     =      58.7989  Ry
     charge density cutoff     =     587.9892  Ry
     convergence threshold     =      1.0E-06
     mixing beta               =       0.1000
     number of iterations used =           10  plain     mixing
     Exchange-correlation      = BEEF-VDW ( 1  4 27 13 2)

     celldm(1)=   1.889726  celldm(2)=   0.000000  celldm(3)=   0.000000
     celldm(4)=   0.000000  celldm(5)=   0.000000  celldm(6)=   0.000000

     crystal axes: (cart. coord. in units of alat)
               a(1) = (   4.113567   0.000000   0.000000 )
               a(2) = (   0.000000   4.113567   0.000000 )
               a(3) = (   0.000000   0.000000   4.053671 )

     reciprocal axes: (cart. coord. in units 2 pi/alat)
               b(1) = (  0.243098  0.000000  0.000000 )
               b(2) = (  0.000000  0.243098  0.000000 )
               b(3) = (  0.000000  0.000000  0.246690 )

     PseudoPot. # 1 for Pd read from file:
     /home/users/vossj/suncat/psp/gbrv1.5pbe/Pd.UPF
     MD5 check sum: 2d733d2bc2cbfd217af676df1668a4bc
     Pseudo is Ultrasoft + core correction, Zval = 16.0
     Generated by new atomic code, or converted to UPF format
     Using radial grid of  887 points,  6 beta functions with:
                l(1) =   0
                l(2) =   0
                l(3) =   1
                l(4) =   1
                l(5) =   2
                l(6) =   2
     Q(r) pseudized with  8 coefficients,  rinner =    1.130   1.130   1.130
                                                       1.130   1.130

     PseudoPot. # 2 for Au read from file:
     /home/users/vossj/suncat/psp/gbrv1.5pbe/Au.UPF
     MD5 check sum: 9d7f43293ad2c663164586bc4b293ffc
     Pseudo is Ultrasoft + core correction, Zval = 11.0
     Generated by new atomic code, or converted to UPF format
     Using radial grid of  985 points,  7 beta functions with:
                l(1) =   0
                l(2) =   0
                l(3) =   1
                l(4) =   1
                l(5) =   2
                l(6) =   2
                l(7) =   3
     Q(r) pseudized with  6 coefficients,  rinner =    1.900   1.900   1.900
                                                       1.900   1.900   1.900
                                                       1.900

     vdW kernel table read from file vdW_kernel_table
     MD5 check sum: 095c7af220d748ca6e76c0b4c6cfb241

     atomic species   valence    mass     pseudopotential
        Pd1           16.00   106.42000     Pd( 1.00)
        Au1           11.00   196.96650     Au( 1.00)

     16 Sym. Ops., with inversion, found

   Cartesian axes

     site n.     atom                  positions (alat units)
         1           Pd1 tau(   1) = (   0.0000000   0.0000000   0.0000000  )
         2           Pd1 tau(   2) = (   2.0567834   2.0567834   0.0000000  )
         3           Au1 tau(   3) = (   2.0567834   0.0000000   2.0268355  )
         4           Au1 tau(   4) = (   0.0000000   2.0567834   2.0268355  )

     number of k points=    75  Fermi-Dirac smearing, width (Ry)=  0.0073
                       cart. coord. in units 2pi/alat
        k(    1) = (   0.0000000   0.0000000   0.0000000), wk =   0.0027435
        k(    2) = (   0.0000000   0.0000000   0.0274100), wk =   0.0054870
        k(    3) = (   0.0000000   0.0000000   0.0548200), wk =   0.0054870
        k(    4) = (   0.0000000   0.0000000   0.0822300), wk =   0.0054870
        k(    5) = (   0.0000000   0.0000000   0.1096400), wk =   0.0054870
        k(    6) = (   0.0000000   0.0270109   0.0000000), wk =   0.0109739
        k(    7) = (   0.0000000   0.0270109   0.0274100), wk =   0.0219479
        k(    8) = (   0.0000000   0.0270109   0.0548200), wk =   0.0219479
        k(    9) = (   0.0000000   0.0270109   0.0822300), wk =   0.0219479
        k(   10) = (   0.0000000   0.0270109   0.1096400), wk =   0.0219479
        k(   11) = (   0.0000000   0.0540218   0.0000000), wk =   0.0109739
        k(   12) = (   0.0000000   0.0540218   0.0274100), wk =   0.0219479
        k(   13) = (   0.0000000   0.0540218   0.0548200), wk =   0.0219479
        k(   14) = (   0.0000000   0.0540218   0.0822300), wk =   0.0219479
        k(   15) = (   0.0000000   0.0540218   0.1096400), wk =   0.0219479
        k(   16) = (   0.0000000   0.0810327   0.0000000), wk =   0.0109739
        k(   17) = (   0.0000000   0.0810327   0.0274100), wk =   0.0219479
        k(   18) = (   0.0000000   0.0810327   0.0548200), wk =   0.0219479
        k(   19) = (   0.0000000   0.0810327   0.0822300), wk =   0.0219479
        k(   20) = (   0.0000000   0.0810327   0.1096400), wk =   0.0219479
        k(   21) = (   0.0000000   0.1080436   0.0000000), wk =   0.0109739
        k(   22) = (   0.0000000   0.1080436   0.0274100), wk =   0.0219479
        k(   23) = (   0.0000000   0.1080436   0.0548200), wk =   0.0219479
        k(   24) = (   0.0000000   0.1080436   0.0822300), wk =   0.0219479
        k(   25) = (   0.0000000   0.1080436   0.1096400), wk =   0.0219479
        k(   26) = (   0.0270109   0.0270109   0.0000000), wk =   0.0109739
        k(   27) = (   0.0270109   0.0270109   0.0274100), wk =   0.0219479
        k(   28) = (   0.0270109   0.0270109   0.0548200), wk =   0.0219479
        k(   29) = (   0.0270109   0.0270109   0.0822300), wk =   0.0219479
        k(   30) = (   0.0270109   0.0270109   0.1096400), wk =   0.0219479
        k(   31) = (   0.0270109   0.0540218   0.0000000), wk =   0.0219479
        k(   32) = (   0.0270109   0.0540218   0.0274100), wk =   0.0438957
        k(   33) = (   0.0270109   0.0540218   0.0548200), wk =   0.0438957
        k(   34) = (   0.0270109   0.0540218   0.0822300), wk =   0.0438957
        k(   35) = (   0.0270109   0.0540218   0.1096400), wk =   0.0438957
        k(   36) = (   0.0270109   0.0810327   0.0000000), wk =   0.0219479
        k(   37) = (   0.0270109   0.0810327   0.0274100), wk =   0.0438957
        k(   38) = (   0.0270109   0.0810327   0.0548200), wk =   0.0438957
        k(   39) = (   0.0270109   0.0810327   0.0822300), wk =   0.0438957
        k(   40) = (   0.0270109   0.0810327   0.1096400), wk =   0.0438957
        k(   41) = (   0.0270109   0.1080436   0.0000000), wk =   0.0219479
        k(   42) = (   0.0270109   0.1080436   0.0274100), wk =   0.0438957
        k(   43) = (   0.0270109   0.1080436   0.0548200), wk =   0.0438957
        k(   44) = (   0.0270109   0.1080436   0.0822300), wk =   0.0438957
        k(   45) = (   0.0270109   0.1080436   0.1096400), wk =   0.0438957
        k(   46) = (   0.0540218   0.0540218   0.0000000), wk =   0.0109739
        k(   47) = (   0.0540218   0.0540218   0.0274100), wk =   0.0219479
        k(   48) = (   0.0540218   0.0540218   0.0548200), wk =   0.0219479
        k(   49) = (   0.0540218   0.0540218   0.0822300), wk =   0.0219479
        k(   50) = (   0.0540218   0.0540218   0.1096400), wk =   0.0219479
        k(   51) = (   0.0540218   0.0810327   0.0000000), wk =   0.0219479
        k(   52) = (   0.0540218   0.0810327   0.0274100), wk =   0.0438957
        k(   53) = (   0.0540218   0.0810327   0.0548200), wk =   0.0438957
        k(   54) = (   0.0540218   0.0810327   0.0822300), wk =   0.0438957
        k(   55) = (   0.0540218   0.0810327   0.1096400), wk =   0.0438957
        k(   56) = (   0.0540218   0.1080436   0.0000000), wk =   0.0219479
        k(   57) = (   0.0540218   0.1080436   0.0274100), wk =   0.0438957
        k(   58) = (   0.0540218   0.1080436   0.0548200), wk =   0.0438957
        k(   59) = (   0.0540218   0.1080436   0.0822300), wk =   0.0438957
        k(   60) = (   0.0540218   0.1080436   0.1096400), wk =   0.0438957
        k(   61) = (   0.0810327   0.0810327   0.0000000), wk =   0.0109739
        k(   62) = (   0.0810327   0.0810327   0.0274100), wk =   0.0219479
        k(   63) = (   0.0810327   0.0810327   0.0548200), wk =   0.0219479
        k(   64) = (   0.0810327   0.0810327   0.0822300), wk =   0.0219479
        k(   65) = (   0.0810327   0.0810327   0.1096400), wk =   0.0219479
        k(   66) = (   0.0810327   0.1080436   0.0000000), wk =   0.0219479
        k(   67) = (   0.0810327   0.1080436   0.0274100), wk =   0.0438957
        k(   68) = (   0.0810327   0.1080436   0.0548200), wk =   0.0438957
        k(   69) = (   0.0810327   0.1080436   0.0822300), wk =   0.0438957
        k(   70) = (   0.0810327   0.1080436   0.1096400), wk =   0.0438957
        k(   71) = (   0.1080436   0.1080436   0.0000000), wk =   0.0109739
        k(   72) = (   0.1080436   0.1080436   0.0274100), wk =   0.0219479
        k(   73) = (   0.1080436   0.1080436   0.0548200), wk =   0.0219479
        k(   74) = (   0.1080436   0.1080436   0.0822300), wk =   0.0219479
        k(   75) = (   0.1080436   0.1080436   0.1096400), wk =   0.0219479

     Largest allocated arrays     est. size (Mb)     dimensions
     Largest temporary arrays     est. size (Mb)     dimensions

     Initial potential from superposition of free atoms
     Check: negative starting charge=   -0.155387

     starting charge   52.99974, renormalised to   54.00000

     negative rho (up, down):  1.583E-01 0.000E+00

     *
     * You are using vdW-DF for exchange-correlation in this calculation.
     * Please cite the following three references that made this development
     * possible:
     *
     *   M. Dion, H. Rydberg, E. Schroder, D. C. Langreth, and
     *   B. I. Lundqvist, Phys. Rev. Lett. 92, 246401 (2004).
     *
     *   T. Thonhauser, V. R. Cooper, S. Li, A. Puzder, P. Hyldgaard, and
     *   D. C. Langreth, Phys. Rev. B 76, 125112 (2007).
     *
     *   G. Roman-Perez and J. M. Soler, Phys. Rev. Lett. 103, 096102 (2009).
     *
     *
     * If you are using vdW-DF2, please also cite:
     *
     *   K. Lee, E. D. Murray, L. Kong, B. I. Lundqvist, and
     *   D. C. Langreth, Phys. Rev. B 82, 081101(R) (2010).
     *
     *
     * If you are calculating the stress with vdW-DF, please also cite:
     *
     *   R. Sabatini, E. Kucukbenli, B. Kolb, T. Thonhauser, and
     *   S. de Gironcoli, J. Phys.: Condens. Matter 24, 424209 (2012).
     *

     Carrying out vdW-DF run using the following parameters:

     Nqs =      20    Nr_points =    1024   r_max =   100.000
     q_mesh =
               0.00001000     0.04494208     0.09755937     0.15916263
               0.23128650     0.31572767     0.41458969     0.53033537
               0.66584808     0.82450364     1.01025438     1.22772762
               1.48234092     1.78043706     2.12944203     2.53805004
               3.01644009     3.57652955     4.23227104     5.00000000

     Gradients computed in reciprocal space

     Starting wfc are   42 randomized atomic wfcs +    5 random wfc

     Self-consistent Calculation

     iteration #  1     ecut=    58.80 Ry     beta=0.10
     Davidson diagonalization with overlap
     ethr =  1.00E-02,  avg # of iterations =  5.1

[...]

     total energy              =    -633.17447760 Ry
     Harris-Foulkes estimate   =    -633.43747693 Ry
     estimated scf accuracy    <       1.67165449 Ry

[...]

     total energy              =    -633.07985652 Ry
     Harris-Foulkes estimate   =    -633.07986122 Ry
     estimated scf accuracy    <       0.00002086 Ry

     iteration # 10     ecut=    58.80 Ry     beta=0.10
     Davidson diagonalization with overlap
     ethr =  2.16E-08,  avg # of iterations =  2.2

     negative rho (up, down):  1.619E-01 0.000E+00

     End of self-consistent calculation

          k = 0.0000 0.0000 0.0000 (  3519 PWs)   bands (ev):

   -34.6770 -34.6770 -34.6115 -34.5903 -34.5723 -34.5723   7.1403   9.0435
     9.3644   9.4041   9.6383   9.6383   9.7216  11.4167  11.4167  12.1438
    12.5066  13.2833  13.5680  13.7843  14.4210  14.4769  14.5456  14.5456
    14.5757  14.5757  14.9909  17.3806  17.3806  17.6665  21.1439  23.1349
    24.1208  26.3311  26.3311  26.4376  26.6126  26.6126  26.8356  31.3354
    32.7528  33.1413  34.3166  34.6238  34.9005  34.9007  35.1023

[...]

          k = 0.1080 0.1080 0.1096 (  3515 PWs)   bands (ev):

   -34.6880 -34.6849 -34.6026 -34.6020 -34.5664 -34.5632   9.1085   9.1817
     9.3889   9.3927  11.0919  11.1093  11.1181  11.2046  11.4712  11.5128
    12.4147  12.4749  13.3656  13.5714  13.9726  13.9974  14.1998  14.3291
    14.4031  14.5291  14.8744  15.7373  15.9134  15.9880  18.8062  19.1389
    21.1471  21.4747  30.5273  30.6076  30.7993  30.8155  32.8676  33.1314
    33.4307  33.4308  33.5472  33.8644  33.9752  34.2103  35.4655

     the Fermi energy is    14.7742 ev

!    total energy              =    -633.07987036 Ry
     Harris-Foulkes estimate   =    -633.07986050 Ry
     estimated scf accuracy    <       0.00000019 Ry

     The total energy is the sum of the following terms:

     one-electron contribution =    -106.04611844 Ry
     hartree contribution      =     105.65115124 Ry
     xc contribution           =    -193.22974352 Ry
     ewald contribution        =    -439.44825057 Ry
     smearing contrib. (-TS)   =      -0.00690908 Ry

     convergence has been achieved in  10 iterations

     Forces acting on atoms (Ry/au):

     negative rho (up, down):  1.619E-01 0.000E+00
     atom    1 type  1   force =     0.00000000    0.00000000    0.00000000
     atom    2 type  1   force =     0.00000000    0.00000000    0.00000000
     atom    3 type  2   force =     0.00000000    0.00000000    0.00000000
     atom    4 type  2   force =     0.00000000    0.00000000    0.00000000

     Total force =     0.000000     Total SCF correction =     0.000000

     General routines

     Parallel routines

   This run was terminated on:   1:29:29  15Nov2017

   JOB DONE.