     Program PWSCF v.5.1rc2 starts on 14Nov2017 at  2:21:14

     Current dimensions of program PWSCF are:
     Max number of different atomic species (ntypx) = 10
     Max number of k-points (npk) =  40000
     Max angular momentum in pseudopotentials (lmaxx) =  3

     IMPORTANT: XC functional enforced from input :
     Exchange-correlation      = BEEF-VDW ( 1  4 27 13 2)
     Any further DFT definition will be discarded
     Please, verify this is what you really want

     Found symmetry operation: I + ( -0.5000 -0.5000  0.0000)
     This is a supercell, fractional translations are disabled

     bravais-lattice index     =            0
     lattice parameter (alat)  =       1.8897  a.u.
     unit-cell volume          =     788.3998 (a.u.)^3
     number of atoms/cell      =            4
     number of atomic types    =            2
     number of electrons       =        52.00
     number of Kohn-Sham states=           46
     kinetic-energy cutoff     =      58.7989  Ry
     charge density cutoff     =     587.9892  Ry
     convergence threshold     =      1.0E-06
     mixing beta               =       0.1000
     number of iterations used =           10  plain     mixing
     Exchange-correlation      = BEEF-VDW ( 1  4 27 13 2)

     celldm(1)=   1.889726  celldm(2)=   0.000000  celldm(3)=   0.000000
     celldm(4)=   0.000000  celldm(5)=   0.000000  celldm(6)=   0.000000

     crystal axes: (cart. coord. in units of alat)
               a(1) = (   4.936444   0.000000   0.000000 )
               a(2) = (   0.000000   4.936444   0.000000 )
               a(3) = (   0.000000   0.000000   4.794259 )

     reciprocal axes: (cart. coord. in units 2 pi/alat)
               b(1) = (  0.202575  0.000000  0.000000 )
               b(2) = (  0.000000  0.202575  0.000000 )
               b(3) = (  0.000000  0.000000  0.208583 )

     PseudoPot. # 1 for Cd read from file:
     /home/users/vossj/suncat/psp/gbrv1.5pbe/Cd.UPF
     MD5 check sum: 17164a7926edb8e0dc231208abae86a6
     Pseudo is Ultrasoft + core correction, Zval = 12.0
     Generated by new atomic code, or converted to UPF format
     Using radial grid of  889 points,  6 beta functions with:
                l(1) =   0
                l(2) =   0
                l(3) =   1
                l(4) =   1
                l(5) =   2
                l(6) =   2
     Q(r) pseudized with  6 coefficients,  rinner =    1.000   1.000   1.000
                                                       1.000   1.000

     PseudoPot. # 2 for Pb read from file:
     /home/users/vossj/suncat/psp/gbrv1.5pbe/Pb.UPF
     MD5 check sum: 3d1c1779aa92214d1e8f3a7db79003e2
     Pseudo is Ultrasoft + core correction, Zval = 14.0
     Generated by new atomic code, or converted to UPF format
     Using radial grid of  899 points,  6 beta functions with:
                l(1) =   0
                l(2) =   0
                l(3) =   1
                l(4) =   1
                l(5) =   2
                l(6) =   2
     Q(r) pseudized with  6 coefficients,  rinner =    1.000   1.000   1.000
                                                       1.000   1.000

     vdW kernel table read from file vdW_kernel_table
     MD5 check sum: 095c7af220d748ca6e76c0b4c6cfb241

     atomic species   valence    mass     pseudopotential
        Cd1           12.00   112.41000     Cd( 1.00)
        Pb1           14.00   207.20000     Pb( 1.00)

     16 Sym. Ops., with inversion, found

   Cartesian axes

     site n.     atom                  positions (alat units)
         1           Cd1 tau(   1) = (   0.0000000   0.0000000   0.0000000  )
         2           Cd1 tau(   2) = (   2.4682220   2.4682220   0.0000000  )
         3           Pb1 tau(   3) = (   2.4682220   0.0000000   2.3971294  )
         4           Pb1 tau(   4) = (   0.0000000   2.4682220   2.3971294  )

     number of k points=    75  Fermi-Dirac smearing, width (Ry)=  0.0073
                       cart. coord. in units 2pi/alat
        k(    1) = (   0.0000000   0.0000000   0.0000000), wk =   0.0027435
        k(    2) = (   0.0000000   0.0000000   0.0231759), wk =   0.0054870
        k(    3) = (   0.0000000   0.0000000   0.0463517), wk =   0.0054870
        k(    4) = (   0.0000000   0.0000000   0.0695276), wk =   0.0054870
        k(    5) = (   0.0000000   0.0000000   0.0927035), wk =   0.0054870
        k(    6) = (   0.0000000   0.0225083   0.0000000), wk =   0.0109739
        k(    7) = (   0.0000000   0.0225083   0.0231759), wk =   0.0219479
        k(    8) = (   0.0000000   0.0225083   0.0463517), wk =   0.0219479
        k(    9) = (   0.0000000   0.0225083   0.0695276), wk =   0.0219479
        k(   10) = (   0.0000000   0.0225083   0.0927035), wk =   0.0219479
        k(   11) = (   0.0000000   0.0450167   0.0000000), wk =   0.0109739
        k(   12) = (   0.0000000   0.0450167   0.0231759), wk =   0.0219479
        k(   13) = (   0.0000000   0.0450167   0.0463517), wk =   0.0219479
        k(   14) = (   0.0000000   0.0450167   0.0695276), wk =   0.0219479
        k(   15) = (   0.0000000   0.0450167   0.0927035), wk =   0.0219479
        k(   16) = (   0.0000000   0.0675250   0.0000000), wk =   0.0109739
        k(   17) = (   0.0000000   0.0675250   0.0231759), wk =   0.0219479
        k(   18) = (   0.0000000   0.0675250   0.0463517), wk =   0.0219479
        k(   19) = (   0.0000000   0.0675250   0.0695276), wk =   0.0219479
        k(   20) = (   0.0000000   0.0675250   0.0927035), wk =   0.0219479
        k(   21) = (   0.0000000   0.0900333   0.0000000), wk =   0.0109739
        k(   22) = (   0.0000000   0.0900333   0.0231759), wk =   0.0219479
        k(   23) = (   0.0000000   0.0900333   0.0463517), wk =   0.0219479
        k(   24) = (   0.0000000   0.0900333   0.0695276), wk =   0.0219479
        k(   25) = (   0.0000000   0.0900333   0.0927035), wk =   0.0219479
        k(   26) = (   0.0225083   0.0225083   0.0000000), wk =   0.0109739
        k(   27) = (   0.0225083   0.0225083   0.0231759), wk =   0.0219479
        k(   28) = (   0.0225083   0.0225083   0.0463517), wk =   0.0219479
        k(   29) = (   0.0225083   0.0225083   0.0695276), wk =   0.0219479
        k(   30) = (   0.0225083   0.0225083   0.0927035), wk =   0.0219479
        k(   31) = (   0.0225083   0.0450167   0.0000000), wk =   0.0219479
        k(   32) = (   0.0225083   0.0450167   0.0231759), wk =   0.0438957
        k(   33) = (   0.0225083   0.0450167   0.0463517), wk =   0.0438957
        k(   34) = (   0.0225083   0.0450167   0.0695276), wk =   0.0438957
        k(   35) = (   0.0225083   0.0450167   0.0927035), wk =   0.0438957
        k(   36) = (   0.0225083   0.0675250   0.0000000), wk =   0.0219479
        k(   37) = (   0.0225083   0.0675250   0.0231759), wk =   0.0438957
        k(   38) = (   0.0225083   0.0675250   0.0463517), wk =   0.0438957
        k(   39) = (   0.0225083   0.0675250   0.0695276), wk =   0.0438957
        k(   40) = (   0.0225083   0.0675250   0.0927035), wk =   0.0438957
        k(   41) = (   0.0225083   0.0900333   0.0000000), wk =   0.0219479
        k(   42) = (   0.0225083   0.0900333   0.0231759), wk =   0.0438957
        k(   43) = (   0.0225083   0.0900333   0.0463517), wk =   0.0438957
        k(   44) = (   0.0225083   0.0900333   0.0695276), wk =   0.0438957
        k(   45) = (   0.0225083   0.0900333   0.0927035), wk =   0.0438957
        k(   46) = (   0.0450167   0.0450167   0.0000000), wk =   0.0109739
        k(   47) = (   0.0450167   0.0450167   0.0231759), wk =   0.0219479
        k(   48) = (   0.0450167   0.0450167   0.0463517), wk =   0.0219479
        k(   49) = (   0.0450167   0.0450167   0.0695276), wk =   0.0219479
        k(   50) = (   0.0450167   0.0450167   0.0927035), wk =   0.0219479
        k(   51) = (   0.0450167   0.0675250   0.0000000), wk =   0.0219479
        k(   52) = (   0.0450167   0.0675250   0.0231759), wk =   0.0438957
        k(   53) = (   0.0450167   0.0675250   0.0463517), wk =   0.0438957
        k(   54) = (   0.0450167   0.0675250   0.0695276), wk =   0.0438957
        k(   55) = (   0.0450167   0.0675250   0.0927035), wk =   0.0438957
        k(   56) = (   0.0450167   0.0900333   0.0000000), wk =   0.0219479
        k(   57) = (   0.0450167   0.0900333   0.0231759), wk =   0.0438957
        k(   58) = (   0.0450167   0.0900333   0.0463517), wk =   0.0438957
        k(   59) = (   0.0450167   0.0900333   0.0695276), wk =   0.0438957
        k(   60) = (   0.0450167   0.0900333   0.0927035), wk =   0.0438957
        k(   61) = (   0.0675250   0.0675250   0.0000000), wk =   0.0109739
        k(   62) = (   0.0675250   0.0675250   0.0231759), wk =   0.0219479
        k(   63) = (   0.0675250   0.0675250   0.0463517), wk =   0.0219479
        k(   64) = (   0.0675250   0.0675250   0.0695276), wk =   0.0219479
        k(   65) = (   0.0675250   0.0675250   0.0927035), wk =   0.0219479
        k(   66) = (   0.0675250   0.0900333   0.0000000), wk =   0.0219479
        k(   67) = (   0.0675250   0.0900333   0.0231759), wk =   0.0438957
        k(   68) = (   0.0675250   0.0900333   0.0463517), wk =   0.0438957
        k(   69) = (   0.0675250   0.0900333   0.0695276), wk =   0.0438957
        k(   70) = (   0.0675250   0.0900333   0.0927035), wk =   0.0438957
        k(   71) = (   0.0900333   0.0900333   0.0000000), wk =   0.0109739
        k(   72) = (   0.0900333   0.0900333   0.0231759), wk =   0.0219479
        k(   73) = (   0.0900333   0.0900333   0.0463517), wk =   0.0219479
        k(   74) = (   0.0900333   0.0900333   0.0695276), wk =   0.0219479
        k(   75) = (   0.0900333   0.0900333   0.0927035), wk =   0.0219479

     Largest allocated arrays     est. size (Mb)     dimensions
     Largest temporary arrays     est. size (Mb)     dimensions

     Initial potential from superposition of free atoms
     Check: negative starting charge=   -0.074331

     starting charge   50.99521, renormalised to   52.00000

     negative rho (up, down):  7.580E-02 0.000E+00

     *
     * You are using vdW-DF for exchange-correlation in this calculation.
     * Please cite the following three references that made this development
     * possible:
     *
     *   M. Dion, H. Rydberg, E. Schroder, D. C. Langreth, and
     *   B. I. Lundqvist, Phys. Rev. Lett. 92, 246401 (2004).
     *
     *   T. Thonhauser, V. R. Cooper, S. Li, A. Puzder, P. Hyldgaard, and
     *   D. C. Langreth, Phys. Rev. B 76, 125112 (2007).
     *
     *   G. Roman-Perez and J. M. Soler, Phys. Rev. Lett. 103, 096102 (2009).
     *
     *
     * If you are using vdW-DF2, please also cite:
     *
     *   K. Lee, E. D. Murray, L. Kong, B. I. Lundqvist, and
     *   D. C. Langreth, Phys. Rev. B 82, 081101(R) (2010).
     *
     *
     * If you are calculating the stress with vdW-DF, please also cite:
     *
     *   R. Sabatini, E. Kucukbenli, B. Kolb, T. Thonhauser, and
     *   S. de Gironcoli, J. Phys.: Condens. Matter 24, 424209 (2012).
     *

     Carrying out vdW-DF run using the following parameters:

     Nqs =      20    Nr_points =    1024   r_max =   100.000
     q_mesh =
               0.00001000     0.04494208     0.09755937     0.15916263
               0.23128650     0.31572767     0.41458969     0.53033537
               0.66584808     0.82450364     1.01025438     1.22772762
               1.48234092     1.78043706     2.12944203     2.53805004
               3.01644009     3.57652955     4.23227104     5.00000000

     Gradients computed in reciprocal space

     Starting wfc are   36 randomized atomic wfcs +   10 random wfc

     Self-consistent Calculation

     iteration #  1     ecut=    58.80 Ry     beta=0.10
     Davidson diagonalization with overlap
     ethr =  1.00E-02,  avg # of iterations =  4.8

     Threshold (ethr) on eigenvalues was too large:
     Diagonalizing with lowered threshold

     Davidson diagonalization with overlap
     ethr =  2.83E-04,  avg # of iterations =  1.3

[...]

     total energy              =    -564.26283181 Ry
     Harris-Foulkes estimate   =    -564.28303306 Ry
     estimated scf accuracy    <       0.14742958 Ry

[...]

     total energy              =    -564.24718129 Ry
     Harris-Foulkes estimate   =    -564.24656876 Ry
     estimated scf accuracy    <       0.00000436 Ry

     iteration #  9     ecut=    58.80 Ry     beta=0.10
     Davidson diagonalization with overlap
     ethr =  8.38E-09,  avg # of iterations =  2.3

     negative rho (up, down):  7.866E-02 0.000E+00

     End of self-consistent calculation

          k = 0.0000 0.0000 0.0000 (  5987 PWs)   bands (ev):

    -7.9383  -7.8421  -7.8235  -7.7869  -7.7869  -7.7054  -7.7054  -7.6856
    -7.6628  -7.5616  -0.8524   0.4333   0.5168   0.6664   0.7245   0.7245
     0.8706   0.8706   0.8751   0.9536   1.1083   3.2008   7.4298   7.4298
     7.4395   7.8279   9.1760  12.2507  12.8487  12.8487  13.9660  13.9660
    14.7379  16.3010  16.6477  17.3536  17.5871  17.8003  17.8003  19.3653
    19.7277  19.7277  19.9652  19.9865  20.7687  23.6669

[...]

          k = 0.0900 0.0900 0.0927 (  5970 PWs)   bands (ev):

    -7.8540  -7.8458  -7.8044  -7.8020  -7.7417  -7.7363  -7.7016  -7.6991
    -7.6525  -7.6453   0.1513   0.1719   0.6311   0.6446   0.8142   0.8270
     0.8717   0.8787   0.9395   0.9508   2.0709   2.1830   6.1624   6.2206
     6.6222   7.1450   7.4958   8.1007  15.0338  15.3955  17.0237  17.0551
    17.5013  17.7866  18.3579  18.6463  19.6958  19.8509  19.9072  19.9563
    19.9572  20.3077  20.6710  20.8166  21.8728  22.2248

     the Fermi energy is     9.5927 ev

!    total energy              =    -564.24973450 Ry
     Harris-Foulkes estimate   =    -564.24718200 Ry
     estimated scf accuracy    <       0.00000089 Ry

     The total energy is the sum of the following terms:

     one-electron contribution =    -118.73460998 Ry
     hartree contribution      =     103.18496893 Ry
     xc contribution           =    -212.20161750 Ry
     ewald contribution        =    -336.49395283 Ry
     smearing contrib. (-TS)   =      -0.00452312 Ry

     convergence has been achieved in   9 iterations

     Forces acting on atoms (Ry/au):

     negative rho (up, down):  7.866E-02 0.000E+00
     atom    1 type  1   force =     0.00000000    0.00000000    0.00000000
     atom    2 type  1   force =     0.00000000    0.00000000    0.00000000
     atom    3 type  2   force =     0.00000000    0.00000000    0.00000000
     atom    4 type  2   force =     0.00000000    0.00000000    0.00000000

     Total force =     0.000000     Total SCF correction =     0.000000

     General routines

     Parallel routines

   This run was terminated on:   2:22: 5  14Nov2017

   JOB DONE.