     Program PWSCF v.5.1rc2 starts on 14Nov2017 at 15:23:28

     Current dimensions of program PWSCF are:
     Max number of different atomic species (ntypx) = 10
     Max number of k-points (npk) =  40000
     Max angular momentum in pseudopotentials (lmaxx) =  3

     IMPORTANT: XC functional enforced from input :
     Exchange-correlation      = BEEF-VDW ( 1  4 27 13 2)
     Any further DFT definition will be discarded
     Please, verify this is what you really want

     Found symmetry operation: I + ( -0.5000 -0.5000  0.0000)
     This is a supercell, fractional translations are disabled

     bravais-lattice index     =            0
     lattice parameter (alat)  =       1.8897  a.u.
     unit-cell volume          =     840.2584 (a.u.)^3
     number of atoms/cell      =            4
     number of atomic types    =            2
     number of electrons       =        48.00
     number of Kohn-Sham states=           44
     kinetic-energy cutoff     =      58.7989  Ry
     charge density cutoff     =     587.9892  Ry
     convergence threshold     =      1.0E-06
     mixing beta               =       0.1000
     number of iterations used =           10  plain     mixing
     Exchange-correlation      = BEEF-VDW ( 1  4 27 13 2)

     celldm(1)=   1.889726  celldm(2)=   0.000000  celldm(3)=   0.000000
     celldm(4)=   0.000000  celldm(5)=   0.000000  celldm(6)=   0.000000

     crystal axes: (cart. coord. in units of alat)
               a(1) = (   5.210444   0.000000   0.000000 )
               a(2) = (   0.000000   5.210444   0.000000 )
               a(3) = (   0.000000   0.000000   4.586346 )

     reciprocal axes: (cart. coord. in units 2 pi/alat)
               b(1) = (  0.191922  0.000000  0.000000 )
               b(2) = (  0.000000  0.191922  0.000000 )
               b(3) = (  0.000000  0.000000  0.218039 )

     PseudoPot. # 1 for La read from file:
     /home/users/vossj/suncat/psp/gbrv1.5pbe/La.UPF
     MD5 check sum: 5937b0c7494ba0601a847275249473aa
     Pseudo is Ultrasoft + core correction, Zval = 11.0
     Generated by new atomic code, or converted to UPF format
     Using radial grid of  995 points,  8 beta functions with:
                l(1) =   0
                l(2) =   0
                l(3) =   1
                l(4) =   1
                l(5) =   2
                l(6) =   2
                l(7) =   3
                l(8) =   3
     Q(r) pseudized with  8 coefficients,  rinner =    1.700   1.700   1.700
                                                       1.700   1.700   1.700
                                                       1.700

     PseudoPot. # 2 for In read from file:
     /home/users/vossj/suncat/psp/gbrv1.5pbe/In.UPF
     MD5 check sum: 90777abd96fbb83f2e67db2a40c566b9
     Pseudo is Ultrasoft + core correction, Zval = 13.0
     Generated by new atomic code, or converted to UPF format
     Using radial grid of  889 points,  6 beta functions with:
                l(1) =   0
                l(2) =   0
                l(3) =   1
                l(4) =   1
                l(5) =   2
                l(6) =   2
     Q(r) pseudized with  6 coefficients,  rinner =    1.400   1.400   1.400
                                                       1.400   1.400

     vdW kernel table read from file vdW_kernel_table
     MD5 check sum: 095c7af220d748ca6e76c0b4c6cfb241

     atomic species   valence    mass     pseudopotential
        La1           11.00   138.90550     La( 1.00)
        In1           13.00   114.82000     In( 1.00)

     16 Sym. Ops., with inversion, found

   Cartesian axes

     site n.     atom                  positions (alat units)
         1           La1 tau(   1) = (   0.0000000   0.0000000   0.0000000  )
         2           La1 tau(   2) = (   2.6052221   2.6052221   0.0000000  )
         3           In1 tau(   3) = (   2.6052221   0.0000000   2.2931728  )
         4           In1 tau(   4) = (   0.0000000   2.6052221   2.2931728  )

     number of k points=    75  Fermi-Dirac smearing, width (Ry)=  0.0073
                       cart. coord. in units 2pi/alat
        k(    1) = (   0.0000000   0.0000000   0.0000000), wk =   0.0027435
        k(    2) = (   0.0000000   0.0000000   0.0242265), wk =   0.0054870
        k(    3) = (   0.0000000   0.0000000   0.0484530), wk =   0.0054870
        k(    4) = (   0.0000000   0.0000000   0.0726795), wk =   0.0054870
        k(    5) = (   0.0000000   0.0000000   0.0969060), wk =   0.0054870
        k(    6) = (   0.0000000   0.0213247   0.0000000), wk =   0.0109739
        k(    7) = (   0.0000000   0.0213247   0.0242265), wk =   0.0219479
        k(    8) = (   0.0000000   0.0213247   0.0484530), wk =   0.0219479
        k(    9) = (   0.0000000   0.0213247   0.0726795), wk =   0.0219479
        k(   10) = (   0.0000000   0.0213247   0.0969060), wk =   0.0219479
        k(   11) = (   0.0000000   0.0426494   0.0000000), wk =   0.0109739
        k(   12) = (   0.0000000   0.0426494   0.0242265), wk =   0.0219479
        k(   13) = (   0.0000000   0.0426494   0.0484530), wk =   0.0219479
        k(   14) = (   0.0000000   0.0426494   0.0726795), wk =   0.0219479
        k(   15) = (   0.0000000   0.0426494   0.0969060), wk =   0.0219479
        k(   16) = (   0.0000000   0.0639741   0.0000000), wk =   0.0109739
        k(   17) = (   0.0000000   0.0639741   0.0242265), wk =   0.0219479
        k(   18) = (   0.0000000   0.0639741   0.0484530), wk =   0.0219479
        k(   19) = (   0.0000000   0.0639741   0.0726795), wk =   0.0219479
        k(   20) = (   0.0000000   0.0639741   0.0969060), wk =   0.0219479
        k(   21) = (   0.0000000   0.0852988   0.0000000), wk =   0.0109739
        k(   22) = (   0.0000000   0.0852988   0.0242265), wk =   0.0219479
        k(   23) = (   0.0000000   0.0852988   0.0484530), wk =   0.0219479
        k(   24) = (   0.0000000   0.0852988   0.0726795), wk =   0.0219479
        k(   25) = (   0.0000000   0.0852988   0.0969060), wk =   0.0219479
        k(   26) = (   0.0213247   0.0213247   0.0000000), wk =   0.0109739
        k(   27) = (   0.0213247   0.0213247   0.0242265), wk =   0.0219479
        k(   28) = (   0.0213247   0.0213247   0.0484530), wk =   0.0219479
        k(   29) = (   0.0213247   0.0213247   0.0726795), wk =   0.0219479
        k(   30) = (   0.0213247   0.0213247   0.0969060), wk =   0.0219479
        k(   31) = (   0.0213247   0.0426494   0.0000000), wk =   0.0219479
        k(   32) = (   0.0213247   0.0426494   0.0242265), wk =   0.0438957
        k(   33) = (   0.0213247   0.0426494   0.0484530), wk =   0.0438957
        k(   34) = (   0.0213247   0.0426494   0.0726795), wk =   0.0438957
        k(   35) = (   0.0213247   0.0426494   0.0969060), wk =   0.0438957
        k(   36) = (   0.0213247   0.0639741   0.0000000), wk =   0.0219479
        k(   37) = (   0.0213247   0.0639741   0.0242265), wk =   0.0438957
        k(   38) = (   0.0213247   0.0639741   0.0484530), wk =   0.0438957
        k(   39) = (   0.0213247   0.0639741   0.0726795), wk =   0.0438957
        k(   40) = (   0.0213247   0.0639741   0.0969060), wk =   0.0438957
        k(   41) = (   0.0213247   0.0852988   0.0000000), wk =   0.0219479
        k(   42) = (   0.0213247   0.0852988   0.0242265), wk =   0.0438957
        k(   43) = (   0.0213247   0.0852988   0.0484530), wk =   0.0438957
        k(   44) = (   0.0213247   0.0852988   0.0726795), wk =   0.0438957
        k(   45) = (   0.0213247   0.0852988   0.0969060), wk =   0.0438957
        k(   46) = (   0.0426494   0.0426494   0.0000000), wk =   0.0109739
        k(   47) = (   0.0426494   0.0426494   0.0242265), wk =   0.0219479
        k(   48) = (   0.0426494   0.0426494   0.0484530), wk =   0.0219479
        k(   49) = (   0.0426494   0.0426494   0.0726795), wk =   0.0219479
        k(   50) = (   0.0426494   0.0426494   0.0969060), wk =   0.0219479
        k(   51) = (   0.0426494   0.0639741   0.0000000), wk =   0.0219479
        k(   52) = (   0.0426494   0.0639741   0.0242265), wk =   0.0438957
        k(   53) = (   0.0426494   0.0639741   0.0484530), wk =   0.0438957
        k(   54) = (   0.0426494   0.0639741   0.0726795), wk =   0.0438957
        k(   55) = (   0.0426494   0.0639741   0.0969060), wk =   0.0438957
        k(   56) = (   0.0426494   0.0852988   0.0000000), wk =   0.0219479
        k(   57) = (   0.0426494   0.0852988   0.0242265), wk =   0.0438957
        k(   58) = (   0.0426494   0.0852988   0.0484530), wk =   0.0438957
        k(   59) = (   0.0426494   0.0852988   0.0726795), wk =   0.0438957
        k(   60) = (   0.0426494   0.0852988   0.0969060), wk =   0.0438957
        k(   61) = (   0.0639741   0.0639741   0.0000000), wk =   0.0109739
        k(   62) = (   0.0639741   0.0639741   0.0242265), wk =   0.0219479
        k(   63) = (   0.0639741   0.0639741   0.0484530), wk =   0.0219479
        k(   64) = (   0.0639741   0.0639741   0.0726795), wk =   0.0219479
        k(   65) = (   0.0639741   0.0639741   0.0969060), wk =   0.0219479
        k(   66) = (   0.0639741   0.0852988   0.0000000), wk =   0.0219479
        k(   67) = (   0.0639741   0.0852988   0.0242265), wk =   0.0438957
        k(   68) = (   0.0639741   0.0852988   0.0484530), wk =   0.0438957
        k(   69) = (   0.0639741   0.0852988   0.0726795), wk =   0.0438957
        k(   70) = (   0.0639741   0.0852988   0.0969060), wk =   0.0438957
        k(   71) = (   0.0852988   0.0852988   0.0000000), wk =   0.0109739
        k(   72) = (   0.0852988   0.0852988   0.0242265), wk =   0.0219479
        k(   73) = (   0.0852988   0.0852988   0.0484530), wk =   0.0219479
        k(   74) = (   0.0852988   0.0852988   0.0726795), wk =   0.0219479
        k(   75) = (   0.0852988   0.0852988   0.0969060), wk =   0.0219479

     Largest allocated arrays     est. size (Mb)     dimensions
     Largest temporary arrays     est. size (Mb)     dimensions

     Initial potential from superposition of free atoms
     Check: negative starting charge=   -0.140986

     starting charge   44.93586, renormalised to   48.00000

     negative rho (up, down):  1.506E-01 0.000E+00

     *
     * You are using vdW-DF for exchange-correlation in this calculation.
     * Please cite the following three references that made this development
     * possible:
     *
     *   M. Dion, H. Rydberg, E. Schroder, D. C. Langreth, and
     *   B. I. Lundqvist, Phys. Rev. Lett. 92, 246401 (2004).
     *
     *   T. Thonhauser, V. R. Cooper, S. Li, A. Puzder, P. Hyldgaard, and
     *   D. C. Langreth, Phys. Rev. B 76, 125112 (2007).
     *
     *   G. Roman-Perez and J. M. Soler, Phys. Rev. Lett. 103, 096102 (2009).
     *
     *
     * If you are using vdW-DF2, please also cite:
     *
     *   K. Lee, E. D. Murray, L. Kong, B. I. Lundqvist, and
     *   D. C. Langreth, Phys. Rev. B 82, 081101(R) (2010).
     *
     *
     * If you are calculating the stress with vdW-DF, please also cite:
     *
     *   R. Sabatini, E. Kucukbenli, B. Kolb, T. Thonhauser, and
     *   S. de Gironcoli, J. Phys.: Condens. Matter 24, 424209 (2012).
     *

     Carrying out vdW-DF run using the following parameters:

     Nqs =      20    Nr_points =    1024   r_max =   100.000
     q_mesh =
               0.00001000     0.04494208     0.09755937     0.15916263
               0.23128650     0.31572767     0.41458969     0.53033537
               0.66584808     0.82450364     1.01025438     1.22772762
               1.48234092     1.78043706     2.12944203     2.53805004
               3.01644009     3.57652955     4.23227104     5.00000000

     Gradients computed in reciprocal space

     Starting wfc are   58 randomized atomic wfcs

     Self-consistent Calculation

     iteration #  1     ecut=    58.80 Ry     beta=0.10
     Davidson diagonalization with overlap
     ethr =  1.00E-02,  avg # of iterations =  2.2

[...]

     total energy              =    -478.29994780 Ry
     Harris-Foulkes estimate   =    -478.70859809 Ry
     estimated scf accuracy    <       2.44742536 Ry

[...]

     total energy              =    -477.80472172 Ry
     Harris-Foulkes estimate   =    -477.80467994 Ry
     estimated scf accuracy    <       0.00001710 Ry

     iteration # 12     ecut=    58.80 Ry     beta=0.10
     Davidson diagonalization with overlap
     ethr =  3.56E-08,  avg # of iterations =  2.0

     negative rho (up, down):  9.825E-02 0.000E+00

     End of self-consistent calculation

          k = 0.0000 0.0000 0.0000 (  6325 PWs)   bands (ev):

   -22.4460 -22.2943  -6.3520  -6.3520  -6.0145  -5.8024  -5.6306  -5.6306
    -3.7391  -3.7197  -3.6759  -3.6759  -3.6485  -3.6221  -3.6221  -3.6166
    -3.5733  -3.5264   3.8716   6.5117  10.1564  10.3459  10.4437  10.4437
    11.5327  11.5333  11.8527  11.9684  11.9684  12.2926  12.4112  12.4112
    12.4393  12.4393  12.4980  12.4980  12.6525  12.7235  12.7435  12.9213
    12.9213  13.4082  13.5188  14.3996

[...]

          k = 0.0853 0.0853 0.0969 (  6379 PWs)   bands (ev):

   -22.3663 -22.3616  -6.4630  -6.4429  -6.0349  -6.0279  -5.5676  -5.5427
    -3.6751  -3.6713  -3.6706  -3.6698  -3.6614  -3.6600  -3.6215  -3.6207
    -3.5494  -3.5459   5.5692   5.6138   9.6200   9.6710  10.4145  10.6652
    10.8313  11.1087  12.3394  12.3423  12.3756  12.3873  12.3994  12.4038
    12.4845  12.4920  12.6770  12.6778  12.7723  12.7746  12.7759  12.8091
    13.3347  13.4081  14.0552  14.1018

     the Fermi energy is    10.7784 ev

!    total energy              =    -477.80493427 Ry
     Harris-Foulkes estimate   =    -477.80472343 Ry
     estimated scf accuracy    <       0.00000091 Ry

     The total energy is the sum of the following terms:

     one-electron contribution =     -98.98686207 Ry
     hartree contribution      =      81.90842479 Ry
     xc contribution           =    -179.84422489 Ry
     ewald contribution        =    -280.87330619 Ry
     smearing contrib. (-TS)   =      -0.00896590 Ry

     convergence has been achieved in  12 iterations

     Forces acting on atoms (Ry/au):

     negative rho (up, down):  9.825E-02 0.000E+00
     atom    1 type  1   force =     0.00000000    0.00000000    0.00000000
     atom    2 type  1   force =     0.00000000    0.00000000    0.00000000
     atom    3 type  2   force =     0.00000000    0.00000000    0.00000000
     atom    4 type  2   force =     0.00000000    0.00000000    0.00000000

     Total force =     0.000000     Total SCF correction =     0.000000

     General routines

     Parallel routines

   This run was terminated on:  15:24:33  14Nov2017

   JOB DONE.