     Program PWSCF v.5.1rc2 starts on 15Nov2017 at  5:49:29

     Current dimensions of program PWSCF are:
     Max number of different atomic species (ntypx) = 10
     Max number of k-points (npk) =  40000
     Max angular momentum in pseudopotentials (lmaxx) =  3

     IMPORTANT: XC functional enforced from input :
     Exchange-correlation      = BEEF-VDW ( 1  4 27 13 2)
     Any further DFT definition will be discarded
     Please, verify this is what you really want

     Found symmetry operation: I + (  0.5000  0.5000  0.0000)
     This is a supercell, fractional translations are disabled

     bravais-lattice index     =            0
     lattice parameter (alat)  =       1.8897  a.u.
     unit-cell volume          =     523.9893 (a.u.)^3
     number of atoms/cell      =            4
     number of atomic types    =            2
     number of electrons       =        50.00
     number of Kohn-Sham states=           45
     kinetic-energy cutoff     =      58.7989  Ry
     charge density cutoff     =     587.9892  Ry
     convergence threshold     =      1.0E-06
     mixing beta               =       0.1000
     number of iterations used =           10  plain     mixing
     Exchange-correlation      = BEEF-VDW ( 1  4 27 13 2)

     celldm(1)=   1.889726  celldm(2)=   0.000000  celldm(3)=   0.000000
     celldm(4)=   0.000000  celldm(5)=   0.000000  celldm(6)=   0.000000

     crystal axes: (cart. coord. in units of alat)
               a(1) = (   4.257910   0.000000   0.000000 )
               a(2) = (   0.000000   4.257910   0.000000 )
               a(3) = (   0.000000   0.000000   4.282850 )

     reciprocal axes: (cart. coord. in units 2 pi/alat)
               b(1) = (  0.234857  0.000000  0.000000 )
               b(2) = (  0.000000  0.234857  0.000000 )
               b(3) = (  0.000000  0.000000  0.233489 )

     PseudoPot. # 1 for Ti read from file:
     /home/users/vossj/suncat/psp/gbrv1.5pbe/Ti.UPF
     MD5 check sum: 88a00a6731bd790ddea75d31a80cb452
     Pseudo is Ultrasoft + core correction, Zval = 12.0
     Generated by new atomic code, or converted to UPF format
     Using radial grid of  851 points,  6 beta functions with:
                l(1) =   0
                l(2) =   0
                l(3) =   1
                l(4) =   1
                l(5) =   2
                l(6) =   2
     Q(r) pseudized with  6 coefficients,  rinner =    1.000   1.000   1.000
                                                       1.000   1.000

     PseudoPot. # 2 for In read from file:
     /home/users/vossj/suncat/psp/gbrv1.5pbe/In.UPF
     MD5 check sum: 90777abd96fbb83f2e67db2a40c566b9
     Pseudo is Ultrasoft + core correction, Zval = 13.0
     Generated by new atomic code, or converted to UPF format
     Using radial grid of  889 points,  6 beta functions with:
                l(1) =   0
                l(2) =   0
                l(3) =   1
                l(4) =   1
                l(5) =   2
                l(6) =   2
     Q(r) pseudized with  6 coefficients,  rinner =    1.400   1.400   1.400
                                                       1.400   1.400

     vdW kernel table read from file vdW_kernel_table
     MD5 check sum: 095c7af220d748ca6e76c0b4c6cfb241

     atomic species   valence    mass     pseudopotential
        Ti1           12.00    47.88000     Ti( 1.00)
        In1           13.00   114.82000     In( 1.00)

     16 Sym. Ops., with inversion, found

   Cartesian axes

     site n.     atom                  positions (alat units)
         1           Ti1 tau(   1) = (   0.0000000   0.0000000   0.0000000  )
         2           Ti1 tau(   2) = (   2.1289549   2.1289549   0.0000000  )
         3           In1 tau(   3) = (   2.1289549   0.0000000   2.1414252  )
         4           In1 tau(   4) = (   0.0000000   2.1289549   2.1414252  )

     number of k points=    75  Fermi-Dirac smearing, width (Ry)=  0.0073
                       cart. coord. in units 2pi/alat
        k(    1) = (   0.0000000   0.0000000   0.0000000), wk =   0.0027435
        k(    2) = (   0.0000000   0.0000000   0.0259433), wk =   0.0054870
        k(    3) = (   0.0000000   0.0000000   0.0518865), wk =   0.0054870
        k(    4) = (   0.0000000   0.0000000   0.0778298), wk =   0.0054870
        k(    5) = (   0.0000000   0.0000000   0.1037730), wk =   0.0054870
        k(    6) = (   0.0000000   0.0260952   0.0000000), wk =   0.0109739
        k(    7) = (   0.0000000   0.0260952   0.0259433), wk =   0.0219479
        k(    8) = (   0.0000000   0.0260952   0.0518865), wk =   0.0219479
        k(    9) = (   0.0000000   0.0260952   0.0778298), wk =   0.0219479
        k(   10) = (   0.0000000   0.0260952   0.1037730), wk =   0.0219479
        k(   11) = (   0.0000000   0.0521904   0.0000000), wk =   0.0109739
        k(   12) = (   0.0000000   0.0521904   0.0259433), wk =   0.0219479
        k(   13) = (   0.0000000   0.0521904   0.0518865), wk =   0.0219479
        k(   14) = (   0.0000000   0.0521904   0.0778298), wk =   0.0219479
        k(   15) = (   0.0000000   0.0521904   0.1037730), wk =   0.0219479
        k(   16) = (   0.0000000   0.0782857   0.0000000), wk =   0.0109739
        k(   17) = (   0.0000000   0.0782857   0.0259433), wk =   0.0219479
        k(   18) = (   0.0000000   0.0782857   0.0518865), wk =   0.0219479
        k(   19) = (   0.0000000   0.0782857   0.0778298), wk =   0.0219479
        k(   20) = (   0.0000000   0.0782857   0.1037730), wk =   0.0219479
        k(   21) = (   0.0000000   0.1043809   0.0000000), wk =   0.0109739
        k(   22) = (   0.0000000   0.1043809   0.0259433), wk =   0.0219479
        k(   23) = (   0.0000000   0.1043809   0.0518865), wk =   0.0219479
        k(   24) = (   0.0000000   0.1043809   0.0778298), wk =   0.0219479
        k(   25) = (   0.0000000   0.1043809   0.1037730), wk =   0.0219479
        k(   26) = (   0.0260952   0.0260952   0.0000000), wk =   0.0109739
        k(   27) = (   0.0260952   0.0260952   0.0259433), wk =   0.0219479
        k(   28) = (   0.0260952   0.0260952   0.0518865), wk =   0.0219479
        k(   29) = (   0.0260952   0.0260952   0.0778298), wk =   0.0219479
        k(   30) = (   0.0260952   0.0260952   0.1037730), wk =   0.0219479
        k(   31) = (   0.0260952   0.0521904   0.0000000), wk =   0.0219479
        k(   32) = (   0.0260952   0.0521904   0.0259433), wk =   0.0438957
        k(   33) = (   0.0260952   0.0521904   0.0518865), wk =   0.0438957
        k(   34) = (   0.0260952   0.0521904   0.0778298), wk =   0.0438957
        k(   35) = (   0.0260952   0.0521904   0.1037730), wk =   0.0438957
        k(   36) = (   0.0260952   0.0782857   0.0000000), wk =   0.0219479
        k(   37) = (   0.0260952   0.0782857   0.0259433), wk =   0.0438957
        k(   38) = (   0.0260952   0.0782857   0.0518865), wk =   0.0438957
        k(   39) = (   0.0260952   0.0782857   0.0778298), wk =   0.0438957
        k(   40) = (   0.0260952   0.0782857   0.1037730), wk =   0.0438957
        k(   41) = (   0.0260952   0.1043809   0.0000000), wk =   0.0219479
        k(   42) = (   0.0260952   0.1043809   0.0259433), wk =   0.0438957
        k(   43) = (   0.0260952   0.1043809   0.0518865), wk =   0.0438957
        k(   44) = (   0.0260952   0.1043809   0.0778298), wk =   0.0438957
        k(   45) = (   0.0260952   0.1043809   0.1037730), wk =   0.0438957
        k(   46) = (   0.0521904   0.0521904   0.0000000), wk =   0.0109739
        k(   47) = (   0.0521904   0.0521904   0.0259433), wk =   0.0219479
        k(   48) = (   0.0521904   0.0521904   0.0518865), wk =   0.0219479
        k(   49) = (   0.0521904   0.0521904   0.0778298), wk =   0.0219479
        k(   50) = (   0.0521904   0.0521904   0.1037730), wk =   0.0219479
        k(   51) = (   0.0521904   0.0782857   0.0000000), wk =   0.0219479
        k(   52) = (   0.0521904   0.0782857   0.0259433), wk =   0.0438957
        k(   53) = (   0.0521904   0.0782857   0.0518865), wk =   0.0438957
        k(   54) = (   0.0521904   0.0782857   0.0778298), wk =   0.0438957
        k(   55) = (   0.0521904   0.0782857   0.1037730), wk =   0.0438957
        k(   56) = (   0.0521904   0.1043809   0.0000000), wk =   0.0219479
        k(   57) = (   0.0521904   0.1043809   0.0259433), wk =   0.0438957
        k(   58) = (   0.0521904   0.1043809   0.0518865), wk =   0.0438957
        k(   59) = (   0.0521904   0.1043809   0.0778298), wk =   0.0438957
        k(   60) = (   0.0521904   0.1043809   0.1037730), wk =   0.0438957
        k(   61) = (   0.0782857   0.0782857   0.0000000), wk =   0.0109739
        k(   62) = (   0.0782857   0.0782857   0.0259433), wk =   0.0219479
        k(   63) = (   0.0782857   0.0782857   0.0518865), wk =   0.0219479
        k(   64) = (   0.0782857   0.0782857   0.0778298), wk =   0.0219479
        k(   65) = (   0.0782857   0.0782857   0.1037730), wk =   0.0219479
        k(   66) = (   0.0782857   0.1043809   0.0000000), wk =   0.0219479
        k(   67) = (   0.0782857   0.1043809   0.0259433), wk =   0.0438957
        k(   68) = (   0.0782857   0.1043809   0.0518865), wk =   0.0438957
        k(   69) = (   0.0782857   0.1043809   0.0778298), wk =   0.0438957
        k(   70) = (   0.0782857   0.1043809   0.1037730), wk =   0.0438957
        k(   71) = (   0.1043809   0.1043809   0.0000000), wk =   0.0109739
        k(   72) = (   0.1043809   0.1043809   0.0259433), wk =   0.0219479
        k(   73) = (   0.1043809   0.1043809   0.0518865), wk =   0.0219479
        k(   74) = (   0.1043809   0.1043809   0.0778298), wk =   0.0219479
        k(   75) = (   0.1043809   0.1043809   0.1037730), wk =   0.0219479

     Largest allocated arrays     est. size (Mb)     dimensions
     Largest temporary arrays     est. size (Mb)     dimensions

     Check: negative/imaginary core charge=   -0.000001    0.000000

     Initial potential from superposition of free atoms
     Check: negative starting charge=   -0.002710

     starting charge   44.99991, renormalised to   50.00000

     negative rho (up, down):  3.011E-03 0.000E+00

     *
     * You are using vdW-DF for exchange-correlation in this calculation.
     * Please cite the following three references that made this development
     * possible:
     *
     *   M. Dion, H. Rydberg, E. Schroder, D. C. Langreth, and
     *   B. I. Lundqvist, Phys. Rev. Lett. 92, 246401 (2004).
     *
     *   T. Thonhauser, V. R. Cooper, S. Li, A. Puzder, P. Hyldgaard, and
     *   D. C. Langreth, Phys. Rev. B 76, 125112 (2007).
     *
     *   G. Roman-Perez and J. M. Soler, Phys. Rev. Lett. 103, 096102 (2009).
     *
     *
     * If you are using vdW-DF2, please also cite:
     *
     *   K. Lee, E. D. Murray, L. Kong, B. I. Lundqvist, and
     *   D. C. Langreth, Phys. Rev. B 82, 081101(R) (2010).
     *
     *
     * If you are calculating the stress with vdW-DF, please also cite:
     *
     *   R. Sabatini, E. Kucukbenli, B. Kolb, T. Thonhauser, and
     *   S. de Gironcoli, J. Phys.: Condens. Matter 24, 424209 (2012).
     *

     Carrying out vdW-DF run using the following parameters:

     Nqs =      20    Nr_points =    1024   r_max =   100.000
     q_mesh =
               0.00001000     0.04494208     0.09755937     0.15916263
               0.23128650     0.31572767     0.41458969     0.53033537
               0.66584808     0.82450364     1.01025438     1.22772762
               1.48234092     1.78043706     2.12944203     2.53805004
               3.01644009     3.57652955     4.23227104     5.00000000

     Gradients computed in reciprocal space

     Starting wfc are   38 randomized atomic wfcs +    7 random wfc

     Self-consistent Calculation

     iteration #  1     ecut=    58.80 Ry     beta=0.10
     Davidson diagonalization with overlap
     ethr =  1.00E-02,  avg # of iterations =  4.7

[...]

     total energy              =    -510.76569205 Ry
     Harris-Foulkes estimate   =    -512.01957204 Ry
     estimated scf accuracy    <       7.53561407 Ry

[...]

     total energy              =    -509.45203071 Ry
     Harris-Foulkes estimate   =    -509.45202922 Ry
     estimated scf accuracy    <       0.00000135 Ry

     iteration # 13     ecut=    58.80 Ry     beta=0.10
     Davidson diagonalization with overlap
     ethr =  2.70E-09,  avg # of iterations =  2.0

     negative rho (up, down):  1.086E-03 0.000E+00

     End of self-consistent calculation

          k = 0.0000 0.0000 0.0000 (  3919 PWs)   bands (ev):

   -44.1443 -44.0924 -20.5201 -20.4645 -20.3841 -20.3841 -20.1633 -20.1633
    -2.1841  -2.0371  -1.8522  -1.7896  -1.7896  -1.5189  -1.5189  -1.4589
    -1.4412  -1.1813   3.6827  10.0247  11.6874  12.1564  12.1564  12.3292
    12.3940  13.2342  13.2342  13.2584  14.6828  14.6828  15.5398  16.1377
    16.3955  18.3230  18.8557  19.0566  20.3107  20.3107  21.5209  21.5209
    22.7530  25.1035  25.7654  26.0101  26.1202

[...]

          k = 0.1044 0.1044 0.1038 (  3980 PWs)   bands (ev):

   -44.1186 -44.1170 -20.4982 -20.4964 -20.4146 -20.4081 -20.1487 -20.1420
    -1.9505  -1.9267  -1.8483  -1.8412  -1.6798  -1.6622  -1.5041  -1.4959
    -1.3977  -1.3802   7.6287   7.9646   9.8992  10.2074  11.2005  11.4966
    12.2540  12.3832  14.2224  14.2351  14.5024  14.5183  14.7446  14.7613
    15.8780  15.9542  17.7890  17.9336  24.1485  24.6589  25.1278  25.2342
    25.4940  25.5157  26.8461  27.1129  27.5486

     the Fermi energy is    13.0110 ev

!    total energy              =    -509.45203789 Ry
     Harris-Foulkes estimate   =    -509.45203104 Ry
     estimated scf accuracy    <       0.00000062 Ry

     The total energy is the sum of the following terms:

     one-electron contribution =    -142.22519755 Ry
     hartree contribution      =     104.55285358 Ry
     xc contribution           =    -116.05371800 Ry
     ewald contribution        =    -355.71744229 Ry
     smearing contrib. (-TS)   =      -0.00853363 Ry

     convergence has been achieved in  13 iterations

     Forces acting on atoms (Ry/au):

     negative rho (up, down):  1.086E-03 0.000E+00
     atom    1 type  1   force =     0.00000000    0.00000000    0.00000000
     atom    2 type  1   force =     0.00000000    0.00000000    0.00000000
     atom    3 type  2   force =     0.00000000    0.00000000    0.00000000
     atom    4 type  2   force =     0.00000000    0.00000000    0.00000000

     Total force =     0.000000     Total SCF correction =     0.000000

     General routines

     Parallel routines

   This run was terminated on:   5:50:15  15Nov2017

   JOB DONE.