     Program PWSCF v.5.1rc2 starts on 14Nov2017 at 17: 8:34

     Current dimensions of program PWSCF are:
     Max number of different atomic species (ntypx) = 10
     Max number of k-points (npk) =  40000
     Max angular momentum in pseudopotentials (lmaxx) =  3

     IMPORTANT: XC functional enforced from input :
     Exchange-correlation      = BEEF-VDW ( 1  4 27 13 2)
     Any further DFT definition will be discarded
     Please, verify this is what you really want

     Found symmetry operation: I + ( -0.5000 -0.5000  0.0000)
     This is a supercell, fractional translations are disabled

     bravais-lattice index     =            0
     lattice parameter (alat)  =       1.8897  a.u.
     unit-cell volume          =     582.6195 (a.u.)^3
     number of atoms/cell      =            4
     number of atomic types    =            2
     number of electrons       =        54.00
     number of Kohn-Sham states=           47
     kinetic-energy cutoff     =      58.7989  Ry
     charge density cutoff     =     587.9892  Ry
     convergence threshold     =      1.0E-06
     mixing beta               =       0.1000
     number of iterations used =           10  plain     mixing
     Exchange-correlation      = BEEF-VDW ( 1  4 27 13 2)

     celldm(1)=   1.889726  celldm(2)=   0.000000  celldm(3)=   0.000000
     celldm(4)=   0.000000  celldm(5)=   0.000000  celldm(6)=   0.000000

     crystal axes: (cart. coord. in units of alat)
               a(1) = (   5.119670   0.000000   0.000000 )
               a(2) = (   0.000000   5.119670   0.000000 )
               a(3) = (   0.000000   0.000000   3.293854 )

     reciprocal axes: (cart. coord. in units 2 pi/alat)
               b(1) = (  0.195325  0.000000  0.000000 )
               b(2) = (  0.000000  0.195325  0.000000 )
               b(3) = (  0.000000  0.000000  0.303596 )

     PseudoPot. # 1 for Nb read from file:
     /home/users/vossj/suncat/psp/gbrv1.5pbe/Nb.UPF
     MD5 check sum: 573aab8a2fa660278ed4a62cd769473f
     Pseudo is Ultrasoft + core correction, Zval = 13.0
     Generated by new atomic code, or converted to UPF format
     Using radial grid of  887 points,  6 beta functions with:
                l(1) =   0
                l(2) =   0
                l(3) =   1
                l(4) =   1
                l(5) =   2
                l(6) =   2
     Q(r) pseudized with  6 coefficients,  rinner =    1.000   1.000   1.000
                                                       1.000   1.000

     PseudoPot. # 2 for Pb read from file:
     /home/users/vossj/suncat/psp/gbrv1.5pbe/Pb.UPF
     MD5 check sum: 3d1c1779aa92214d1e8f3a7db79003e2
     Pseudo is Ultrasoft + core correction, Zval = 14.0
     Generated by new atomic code, or converted to UPF format
     Using radial grid of  899 points,  6 beta functions with:
                l(1) =   0
                l(2) =   0
                l(3) =   1
                l(4) =   1
                l(5) =   2
                l(6) =   2
     Q(r) pseudized with  6 coefficients,  rinner =    1.000   1.000   1.000
                                                       1.000   1.000

     vdW kernel table read from file vdW_kernel_table
     MD5 check sum: 095c7af220d748ca6e76c0b4c6cfb241

     atomic species   valence    mass     pseudopotential
        Nb1           13.00    92.90640     Nb( 1.00)
        Pb1           14.00   207.20000     Pb( 1.00)

     16 Sym. Ops., with inversion, found

   Cartesian axes

     site n.     atom                  positions (alat units)
         1           Nb1 tau(   1) = (   0.0000000   0.0000000   0.0000000  )
         2           Nb1 tau(   2) = (   2.5598352   2.5598352   0.0000000  )
         3           Pb1 tau(   3) = (   2.5598352   0.0000000   1.6469272  )
         4           Pb1 tau(   4) = (   0.0000000   2.5598352   1.6469272  )

     number of k points=    75  Fermi-Dirac smearing, width (Ry)=  0.0073
                       cart. coord. in units 2pi/alat
        k(    1) = (   0.0000000   0.0000000   0.0000000), wk =   0.0027435
        k(    2) = (   0.0000000   0.0000000   0.0337329), wk =   0.0054870
        k(    3) = (   0.0000000   0.0000000   0.0674657), wk =   0.0054870
        k(    4) = (   0.0000000   0.0000000   0.1011986), wk =   0.0054870
        k(    5) = (   0.0000000   0.0000000   0.1349314), wk =   0.0054870
        k(    6) = (   0.0000000   0.0217028   0.0000000), wk =   0.0109739
        k(    7) = (   0.0000000   0.0217028   0.0337329), wk =   0.0219479
        k(    8) = (   0.0000000   0.0217028   0.0674657), wk =   0.0219479
        k(    9) = (   0.0000000   0.0217028   0.1011986), wk =   0.0219479
        k(   10) = (   0.0000000   0.0217028   0.1349314), wk =   0.0219479
        k(   11) = (   0.0000000   0.0434056   0.0000000), wk =   0.0109739
        k(   12) = (   0.0000000   0.0434056   0.0337329), wk =   0.0219479
        k(   13) = (   0.0000000   0.0434056   0.0674657), wk =   0.0219479
        k(   14) = (   0.0000000   0.0434056   0.1011986), wk =   0.0219479
        k(   15) = (   0.0000000   0.0434056   0.1349314), wk =   0.0219479
        k(   16) = (   0.0000000   0.0651084   0.0000000), wk =   0.0109739
        k(   17) = (   0.0000000   0.0651084   0.0337329), wk =   0.0219479
        k(   18) = (   0.0000000   0.0651084   0.0674657), wk =   0.0219479
        k(   19) = (   0.0000000   0.0651084   0.1011986), wk =   0.0219479
        k(   20) = (   0.0000000   0.0651084   0.1349314), wk =   0.0219479
        k(   21) = (   0.0000000   0.0868111   0.0000000), wk =   0.0109739
        k(   22) = (   0.0000000   0.0868111   0.0337329), wk =   0.0219479
        k(   23) = (   0.0000000   0.0868111   0.0674657), wk =   0.0219479
        k(   24) = (   0.0000000   0.0868111   0.1011986), wk =   0.0219479
        k(   25) = (   0.0000000   0.0868111   0.1349314), wk =   0.0219479
        k(   26) = (   0.0217028   0.0217028   0.0000000), wk =   0.0109739
        k(   27) = (   0.0217028   0.0217028   0.0337329), wk =   0.0219479
        k(   28) = (   0.0217028   0.0217028   0.0674657), wk =   0.0219479
        k(   29) = (   0.0217028   0.0217028   0.1011986), wk =   0.0219479
        k(   30) = (   0.0217028   0.0217028   0.1349314), wk =   0.0219479
        k(   31) = (   0.0217028   0.0434056   0.0000000), wk =   0.0219479
        k(   32) = (   0.0217028   0.0434056   0.0337329), wk =   0.0438957
        k(   33) = (   0.0217028   0.0434056   0.0674657), wk =   0.0438957
        k(   34) = (   0.0217028   0.0434056   0.1011986), wk =   0.0438957
        k(   35) = (   0.0217028   0.0434056   0.1349314), wk =   0.0438957
        k(   36) = (   0.0217028   0.0651084   0.0000000), wk =   0.0219479
        k(   37) = (   0.0217028   0.0651084   0.0337329), wk =   0.0438957
        k(   38) = (   0.0217028   0.0651084   0.0674657), wk =   0.0438957
        k(   39) = (   0.0217028   0.0651084   0.1011986), wk =   0.0438957
        k(   40) = (   0.0217028   0.0651084   0.1349314), wk =   0.0438957
        k(   41) = (   0.0217028   0.0868111   0.0000000), wk =   0.0219479
        k(   42) = (   0.0217028   0.0868111   0.0337329), wk =   0.0438957
        k(   43) = (   0.0217028   0.0868111   0.0674657), wk =   0.0438957
        k(   44) = (   0.0217028   0.0868111   0.1011986), wk =   0.0438957
        k(   45) = (   0.0217028   0.0868111   0.1349314), wk =   0.0438957
        k(   46) = (   0.0434056   0.0434056   0.0000000), wk =   0.0109739
        k(   47) = (   0.0434056   0.0434056   0.0337329), wk =   0.0219479
        k(   48) = (   0.0434056   0.0434056   0.0674657), wk =   0.0219479
        k(   49) = (   0.0434056   0.0434056   0.1011986), wk =   0.0219479
        k(   50) = (   0.0434056   0.0434056   0.1349314), wk =   0.0219479
        k(   51) = (   0.0434056   0.0651084   0.0000000), wk =   0.0219479
        k(   52) = (   0.0434056   0.0651084   0.0337329), wk =   0.0438957
        k(   53) = (   0.0434056   0.0651084   0.0674657), wk =   0.0438957
        k(   54) = (   0.0434056   0.0651084   0.1011986), wk =   0.0438957
        k(   55) = (   0.0434056   0.0651084   0.1349314), wk =   0.0438957
        k(   56) = (   0.0434056   0.0868111   0.0000000), wk =   0.0219479
        k(   57) = (   0.0434056   0.0868111   0.0337329), wk =   0.0438957
        k(   58) = (   0.0434056   0.0868111   0.0674657), wk =   0.0438957
        k(   59) = (   0.0434056   0.0868111   0.1011986), wk =   0.0438957
        k(   60) = (   0.0434056   0.0868111   0.1349314), wk =   0.0438957
        k(   61) = (   0.0651084   0.0651084   0.0000000), wk =   0.0109739
        k(   62) = (   0.0651084   0.0651084   0.0337329), wk =   0.0219479
        k(   63) = (   0.0651084   0.0651084   0.0674657), wk =   0.0219479
        k(   64) = (   0.0651084   0.0651084   0.1011986), wk =   0.0219479
        k(   65) = (   0.0651084   0.0651084   0.1349314), wk =   0.0219479
        k(   66) = (   0.0651084   0.0868111   0.0000000), wk =   0.0219479
        k(   67) = (   0.0651084   0.0868111   0.0337329), wk =   0.0438957
        k(   68) = (   0.0651084   0.0868111   0.0674657), wk =   0.0438957
        k(   69) = (   0.0651084   0.0868111   0.1011986), wk =   0.0438957
        k(   70) = (   0.0651084   0.0868111   0.1349314), wk =   0.0438957
        k(   71) = (   0.0868111   0.0868111   0.0000000), wk =   0.0109739
        k(   72) = (   0.0868111   0.0868111   0.0337329), wk =   0.0219479
        k(   73) = (   0.0868111   0.0868111   0.0674657), wk =   0.0219479
        k(   74) = (   0.0868111   0.0868111   0.1011986), wk =   0.0219479
        k(   75) = (   0.0868111   0.0868111   0.1349314), wk =   0.0219479

     Largest allocated arrays     est. size (Mb)     dimensions
     Largest temporary arrays     est. size (Mb)     dimensions

     Initial potential from superposition of free atoms
     Check: negative starting charge=   -0.031142

     starting charge   53.98983, renormalised to   54.00000

     negative rho (up, down):  3.115E-02 0.000E+00

     *
     * You are using vdW-DF for exchange-correlation in this calculation.
     * Please cite the following three references that made this development
     * possible:
     *
     *   M. Dion, H. Rydberg, E. Schroder, D. C. Langreth, and
     *   B. I. Lundqvist, Phys. Rev. Lett. 92, 246401 (2004).
     *
     *   T. Thonhauser, V. R. Cooper, S. Li, A. Puzder, P. Hyldgaard, and
     *   D. C. Langreth, Phys. Rev. B 76, 125112 (2007).
     *
     *   G. Roman-Perez and J. M. Soler, Phys. Rev. Lett. 103, 096102 (2009).
     *
     *
     * If you are using vdW-DF2, please also cite:
     *
     *   K. Lee, E. D. Murray, L. Kong, B. I. Lundqvist, and
     *   D. C. Langreth, Phys. Rev. B 82, 081101(R) (2010).
     *
     *
     * If you are calculating the stress with vdW-DF, please also cite:
     *
     *   R. Sabatini, E. Kucukbenli, B. Kolb, T. Thonhauser, and
     *   S. de Gironcoli, J. Phys.: Condens. Matter 24, 424209 (2012).
     *

     Carrying out vdW-DF run using the following parameters:

     Nqs =      20    Nr_points =    1024   r_max =   100.000
     q_mesh =
               0.00001000     0.04494208     0.09755937     0.15916263
               0.23128650     0.31572767     0.41458969     0.53033537
               0.66584808     0.82450364     1.01025438     1.22772762
               1.48234092     1.78043706     2.12944203     2.53805004
               3.01644009     3.57652955     4.23227104     5.00000000

     Gradients computed in reciprocal space

     Starting wfc are   44 randomized atomic wfcs +    3 random wfc

     Self-consistent Calculation

     iteration #  1     ecut=    58.80 Ry     beta=0.10
     Davidson diagonalization with overlap
     ethr =  1.00E-02,  avg # of iterations =  4.5

     Threshold (ethr) on eigenvalues was too large:
     Diagonalizing with lowered threshold

     Davidson diagonalization with overlap
     ethr =  4.33E-04,  avg # of iterations =  1.2

[...]

     total energy              =    -569.07021413 Ry
     Harris-Foulkes estimate   =    -569.10019542 Ry
     estimated scf accuracy    <       0.23483440 Ry

[...]

     iteration #  4     ecut=    58.80 Ry     beta=0.10
     Davidson diagonalization with overlap
     c_bands:  1 eigenvalues not converged
     ethr =  2.82E-05,  avg # of iterations =  4.6

[...]

     total energy              =    -569.05402828 Ry
     Harris-Foulkes estimate   =    -569.05386194 Ry
     estimated scf accuracy    <       0.00000266 Ry

     iteration #  9     ecut=    58.80 Ry     beta=0.10
     Davidson diagonalization with overlap
     ethr =  4.92E-09,  avg # of iterations =  2.4

     negative rho (up, down):  3.802E-02 0.000E+00

     End of self-consistent calculation

          k = 0.0000 0.0000 0.0000 (  4443 PWs)   bands (ev):

   -39.6554 -39.6446 -15.7519 -15.7519 -15.6639 -15.6639 -15.5152 -15.4998
    -1.5691  -1.4781  -1.4120  -1.3983  -1.2762  -1.2762  -1.2492  -1.2155
    -1.2155  -1.0839   4.4000   6.8716  12.8313  12.8313  14.0361  14.0669
    14.1142  16.7068  16.7068  16.8747  17.3930  17.3930  17.5703  17.5703
    17.7919  18.4063  19.6736  19.7720  21.1426  22.5874  25.5799  25.5799
    26.4700  26.4871  26.5142  27.0833  27.8874  27.8874  29.2713

[...]

          k = 0.0868 0.0868 0.1349 (  4414 PWs)   bands (ev):

   -39.6322 -39.6318 -15.7435 -15.7427 -15.7348 -15.7322 -15.6347 -15.6321
    -1.4621  -1.4604  -1.3779  -1.3761  -1.3068  -1.3037  -1.2878  -1.2799
    -1.0486  -1.0436   7.5753   7.6310  12.7252  12.8747  13.1541  13.3244
    14.7072  14.7565  15.8784  16.0708  16.1430  16.1841  17.7491  18.0591
    18.1564  18.1688  21.0063  21.0344  21.1410  21.1968  24.2856  24.4501
    24.9935  24.9951  26.4920  26.4940  28.2963  28.3207  28.6337

     the Fermi energy is    15.8035 ev

!    total energy              =    -569.05472915 Ry
     Harris-Foulkes estimate   =    -569.05402863 Ry
     estimated scf accuracy    <       0.00000019 Ry

     The total energy is the sum of the following terms:

     one-electron contribution =     -76.21868766 Ry
     hartree contribution      =      76.63809625 Ry
     xc contribution           =    -169.05388169 Ry
     ewald contribution        =    -400.41154622 Ry
     smearing contrib. (-TS)   =      -0.00870983 Ry

     convergence has been achieved in   9 iterations

     Forces acting on atoms (Ry/au):

     negative rho (up, down):  3.802E-02 0.000E+00
     atom    1 type  1   force =     0.00000000    0.00000000    0.00000000
     atom    2 type  1   force =     0.00000000    0.00000000    0.00000000
     atom    3 type  2   force =     0.00000000    0.00000000    0.00000000
     atom    4 type  2   force =     0.00000000    0.00000000    0.00000000

     Total force =     0.000000     Total SCF correction =     0.000000

     General routines

     Parallel routines

   This run was terminated on:  17: 9:14  14Nov2017

   JOB DONE.