     Program PWSCF v.5.1rc2 starts on 15Nov2017 at  5:37: 6

     Current dimensions of program PWSCF are:
     Max number of different atomic species (ntypx) = 10
     Max number of k-points (npk) =  40000
     Max angular momentum in pseudopotentials (lmaxx) =  3

     IMPORTANT: XC functional enforced from input :
     Exchange-correlation      = BEEF-VDW ( 1  4 27 13 2)
     Any further DFT definition will be discarded
     Please, verify this is what you really want

     Found symmetry operation: I + (  0.5000  0.5000  0.0000)
     This is a supercell, fractional translations are disabled

     bravais-lattice index     =            0
     lattice parameter (alat)  =       1.8897  a.u.
     unit-cell volume          =     542.7789 (a.u.)^3
     number of atoms/cell      =            4
     number of atomic types    =            2
     number of electrons       =        54.00
     number of Kohn-Sham states=           47
     kinetic-energy cutoff     =      58.7989  Ry
     charge density cutoff     =     587.9892  Ry
     convergence threshold     =      1.0E-06
     mixing beta               =       0.1000
     number of iterations used =           10  plain     mixing
     Exchange-correlation      = BEEF-VDW ( 1  4 27 13 2)

     celldm(1)=   1.889726  celldm(2)=   0.000000  celldm(3)=   0.000000
     celldm(4)=   0.000000  celldm(5)=   0.000000  celldm(6)=   0.000000

     crystal axes: (cart. coord. in units of alat)
               a(1) = (   4.658518   0.000000   0.000000 )
               a(2) = (   0.000000   4.658518   0.000000 )
               a(3) = (   0.000000   0.000000   3.706216 )

     reciprocal axes: (cart. coord. in units 2 pi/alat)
               b(1) = (  0.214661  0.000000  0.000000 )
               b(2) = (  0.000000  0.214661  0.000000 )
               b(3) = (  0.000000  0.000000  0.269817 )

     PseudoPot. # 1 for Sn read from file:
     /home/users/vossj/suncat/psp/gbrv1.5pbe/Sn.UPF
     MD5 check sum: 469debedee59599fedebd795477fea03
     Pseudo is Ultrasoft + core correction, Zval = 14.0
     Generated by new atomic code, or converted to UPF format
     Using radial grid of  891 points,  6 beta functions with:
                l(1) =   0
                l(2) =   0
                l(3) =   1
                l(4) =   1
                l(5) =   2
                l(6) =   2
     Q(r) pseudized with  8 coefficients,  rinner =    1.350   1.350   1.350
                                                       1.350   1.350

     PseudoPot. # 2 for Ta read from file:
     /home/users/vossj/suncat/psp/gbrv1.5pbe/Ta.UPF
     MD5 check sum: f8bbe9446314a3b8ea5d9f3e3836c939
     Pseudo is Ultrasoft + core correction, Zval = 13.0
     Generated by new atomic code, or converted to UPF format
     Using radial grid of  921 points,  7 beta functions with:
                l(1) =   0
                l(2) =   0
                l(3) =   1
                l(4) =   1
                l(5) =   2
                l(6) =   2
                l(7) =   3
     Q(r) pseudized with  6 coefficients,  rinner =    1.300   1.300   1.300
                                                       1.300   1.300   1.300
                                                       1.300

     vdW kernel table read from file vdW_kernel_table
     MD5 check sum: 095c7af220d748ca6e76c0b4c6cfb241

     atomic species   valence    mass     pseudopotential
        Sn1           14.00   118.71000     Sn( 1.00)
        Ta1           13.00   180.94790     Ta( 1.00)

     16 Sym. Ops., with inversion, found

   Cartesian axes

     site n.     atom                  positions (alat units)
         1           Sn1 tau(   1) = (   0.0000000   0.0000000   0.0000000  )
         2           Sn1 tau(   2) = (   2.3292592   2.3292592   0.0000000  )
         3           Ta1 tau(   3) = (   2.3292592   0.0000000   1.8531078  )
         4           Ta1 tau(   4) = (   0.0000000   2.3292592   1.8531078  )

     number of k points=    75  Fermi-Dirac smearing, width (Ry)=  0.0073
                       cart. coord. in units 2pi/alat
        k(    1) = (   0.0000000   0.0000000   0.0000000), wk =   0.0027435
        k(    2) = (   0.0000000   0.0000000   0.0299797), wk =   0.0054870
        k(    3) = (   0.0000000   0.0000000   0.0599593), wk =   0.0054870
        k(    4) = (   0.0000000   0.0000000   0.0899390), wk =   0.0054870
        k(    5) = (   0.0000000   0.0000000   0.1199187), wk =   0.0054870
        k(    6) = (   0.0000000   0.0238512   0.0000000), wk =   0.0109739
        k(    7) = (   0.0000000   0.0238512   0.0299797), wk =   0.0219479
        k(    8) = (   0.0000000   0.0238512   0.0599593), wk =   0.0219479
        k(    9) = (   0.0000000   0.0238512   0.0899390), wk =   0.0219479
        k(   10) = (   0.0000000   0.0238512   0.1199187), wk =   0.0219479
        k(   11) = (   0.0000000   0.0477023   0.0000000), wk =   0.0109739
        k(   12) = (   0.0000000   0.0477023   0.0299797), wk =   0.0219479
        k(   13) = (   0.0000000   0.0477023   0.0599593), wk =   0.0219479
        k(   14) = (   0.0000000   0.0477023   0.0899390), wk =   0.0219479
        k(   15) = (   0.0000000   0.0477023   0.1199187), wk =   0.0219479
        k(   16) = (   0.0000000   0.0715535   0.0000000), wk =   0.0109739
        k(   17) = (   0.0000000   0.0715535   0.0299797), wk =   0.0219479
        k(   18) = (   0.0000000   0.0715535   0.0599593), wk =   0.0219479
        k(   19) = (   0.0000000   0.0715535   0.0899390), wk =   0.0219479
        k(   20) = (   0.0000000   0.0715535   0.1199187), wk =   0.0219479
        k(   21) = (   0.0000000   0.0954047   0.0000000), wk =   0.0109739
        k(   22) = (   0.0000000   0.0954047   0.0299797), wk =   0.0219479
        k(   23) = (   0.0000000   0.0954047   0.0599593), wk =   0.0219479
        k(   24) = (   0.0000000   0.0954047   0.0899390), wk =   0.0219479
        k(   25) = (   0.0000000   0.0954047   0.1199187), wk =   0.0219479
        k(   26) = (   0.0238512   0.0238512   0.0000000), wk =   0.0109739
        k(   27) = (   0.0238512   0.0238512   0.0299797), wk =   0.0219479
        k(   28) = (   0.0238512   0.0238512   0.0599593), wk =   0.0219479
        k(   29) = (   0.0238512   0.0238512   0.0899390), wk =   0.0219479
        k(   30) = (   0.0238512   0.0238512   0.1199187), wk =   0.0219479
        k(   31) = (   0.0238512   0.0477023   0.0000000), wk =   0.0219479
        k(   32) = (   0.0238512   0.0477023   0.0299797), wk =   0.0438957
        k(   33) = (   0.0238512   0.0477023   0.0599593), wk =   0.0438957
        k(   34) = (   0.0238512   0.0477023   0.0899390), wk =   0.0438957
        k(   35) = (   0.0238512   0.0477023   0.1199187), wk =   0.0438957
        k(   36) = (   0.0238512   0.0715535   0.0000000), wk =   0.0219479
        k(   37) = (   0.0238512   0.0715535   0.0299797), wk =   0.0438957
        k(   38) = (   0.0238512   0.0715535   0.0599593), wk =   0.0438957
        k(   39) = (   0.0238512   0.0715535   0.0899390), wk =   0.0438957
        k(   40) = (   0.0238512   0.0715535   0.1199187), wk =   0.0438957
        k(   41) = (   0.0238512   0.0954047   0.0000000), wk =   0.0219479
        k(   42) = (   0.0238512   0.0954047   0.0299797), wk =   0.0438957
        k(   43) = (   0.0238512   0.0954047   0.0599593), wk =   0.0438957
        k(   44) = (   0.0238512   0.0954047   0.0899390), wk =   0.0438957
        k(   45) = (   0.0238512   0.0954047   0.1199187), wk =   0.0438957
        k(   46) = (   0.0477023   0.0477023   0.0000000), wk =   0.0109739
        k(   47) = (   0.0477023   0.0477023   0.0299797), wk =   0.0219479
        k(   48) = (   0.0477023   0.0477023   0.0599593), wk =   0.0219479
        k(   49) = (   0.0477023   0.0477023   0.0899390), wk =   0.0219479
        k(   50) = (   0.0477023   0.0477023   0.1199187), wk =   0.0219479
        k(   51) = (   0.0477023   0.0715535   0.0000000), wk =   0.0219479
        k(   52) = (   0.0477023   0.0715535   0.0299797), wk =   0.0438957
        k(   53) = (   0.0477023   0.0715535   0.0599593), wk =   0.0438957
        k(   54) = (   0.0477023   0.0715535   0.0899390), wk =   0.0438957
        k(   55) = (   0.0477023   0.0715535   0.1199187), wk =   0.0438957
        k(   56) = (   0.0477023   0.0954047   0.0000000), wk =   0.0219479
        k(   57) = (   0.0477023   0.0954047   0.0299797), wk =   0.0438957
        k(   58) = (   0.0477023   0.0954047   0.0599593), wk =   0.0438957
        k(   59) = (   0.0477023   0.0954047   0.0899390), wk =   0.0438957
        k(   60) = (   0.0477023   0.0954047   0.1199187), wk =   0.0438957
        k(   61) = (   0.0715535   0.0715535   0.0000000), wk =   0.0109739
        k(   62) = (   0.0715535   0.0715535   0.0299797), wk =   0.0219479
        k(   63) = (   0.0715535   0.0715535   0.0599593), wk =   0.0219479
        k(   64) = (   0.0715535   0.0715535   0.0899390), wk =   0.0219479
        k(   65) = (   0.0715535   0.0715535   0.1199187), wk =   0.0219479
        k(   66) = (   0.0715535   0.0954047   0.0000000), wk =   0.0219479
        k(   67) = (   0.0715535   0.0954047   0.0299797), wk =   0.0438957
        k(   68) = (   0.0715535   0.0954047   0.0599593), wk =   0.0438957
        k(   69) = (   0.0715535   0.0954047   0.0899390), wk =   0.0438957
        k(   70) = (   0.0715535   0.0954047   0.1199187), wk =   0.0438957
        k(   71) = (   0.0954047   0.0954047   0.0000000), wk =   0.0109739
        k(   72) = (   0.0954047   0.0954047   0.0299797), wk =   0.0219479
        k(   73) = (   0.0954047   0.0954047   0.0599593), wk =   0.0219479
        k(   74) = (   0.0954047   0.0954047   0.0899390), wk =   0.0219479
        k(   75) = (   0.0954047   0.0954047   0.1199187), wk =   0.0219479

     Largest allocated arrays     est. size (Mb)     dimensions
     Largest temporary arrays     est. size (Mb)     dimensions

     Initial potential from superposition of free atoms
     Check: negative starting charge=   -0.190450

     starting charge   51.99769, renormalised to   54.00000

     negative rho (up, down):  1.978E-01 0.000E+00

     *
     * You are using vdW-DF for exchange-correlation in this calculation.
     * Please cite the following three references that made this development
     * possible:
     *
     *   M. Dion, H. Rydberg, E. Schroder, D. C. Langreth, and
     *   B. I. Lundqvist, Phys. Rev. Lett. 92, 246401 (2004).
     *
     *   T. Thonhauser, V. R. Cooper, S. Li, A. Puzder, P. Hyldgaard, and
     *   D. C. Langreth, Phys. Rev. B 76, 125112 (2007).
     *
     *   G. Roman-Perez and J. M. Soler, Phys. Rev. Lett. 103, 096102 (2009).
     *
     *
     * If you are using vdW-DF2, please also cite:
     *
     *   K. Lee, E. D. Murray, L. Kong, B. I. Lundqvist, and
     *   D. C. Langreth, Phys. Rev. B 82, 081101(R) (2010).
     *
     *
     * If you are calculating the stress with vdW-DF, please also cite:
     *
     *   R. Sabatini, E. Kucukbenli, B. Kolb, T. Thonhauser, and
     *   S. de Gironcoli, J. Phys.: Condens. Matter 24, 424209 (2012).
     *

     Carrying out vdW-DF run using the following parameters:

     Nqs =      20    Nr_points =    1024   r_max =   100.000
     q_mesh =
               0.00001000     0.04494208     0.09755937     0.15916263
               0.23128650     0.31572767     0.41458969     0.53033537
               0.66584808     0.82450364     1.01025438     1.22772762
               1.48234092     1.78043706     2.12944203     2.53805004
               3.01644009     3.57652955     4.23227104     5.00000000

     Gradients computed in reciprocal space

     Starting wfc are   44 randomized atomic wfcs +    3 random wfc

     Self-consistent Calculation

     iteration #  1     ecut=    58.80 Ry     beta=0.10
     Davidson diagonalization with overlap
     ethr =  1.00E-02,  avg # of iterations =  4.7

[...]

     total energy              =    -608.08935196 Ry
     Harris-Foulkes estimate   =    -608.21720107 Ry
     estimated scf accuracy    <       0.84210052 Ry

[...]

     total energy              =    -607.84693441 Ry
     Harris-Foulkes estimate   =    -607.84692805 Ry
     estimated scf accuracy    <       0.00000253 Ry

     iteration # 11     ecut=    58.80 Ry     beta=0.10
     Davidson diagonalization with overlap
     ethr =  4.69E-09,  avg # of iterations =  2.0

     negative rho (up, down):  2.020E-01 0.000E+00

     End of self-consistent calculation

          k = 0.0000 0.0000 0.0000 (  4189 PWs)   bands (ev):

   -52.4931 -52.4785 -18.8882 -18.8882 -18.8759 -18.8363 -18.7099 -18.7099
    -5.6093  -5.5769  -5.5071  -5.4970  -5.4970  -5.4356  -5.4326  -5.4326
    -5.4057  -5.3265   4.8888   9.2497  13.1624  13.1624  13.9594  14.1315
    14.1990  16.0955  16.0955  16.6697  17.9659  17.9659  18.7096  19.2733
    19.2733  19.4891  20.1900  20.3790  21.4500  22.0219  24.8243  24.8243
    26.6759  27.4367  28.5339  28.8080  29.4051  30.2335  30.2335

[...]

          k = 0.0954 0.0954 0.1199 (  4128 PWs)   bands (ev):

   -52.4847 -52.4843 -18.9130 -18.9116 -18.9047 -18.8995 -18.6940 -18.6886
    -5.5243  -5.5228  -5.5199  -5.5129  -5.4980  -5.4946  -5.4466  -5.4449
    -5.3431  -5.3386   8.3077   8.4115  12.1540  12.1891  12.8777  13.1318
    13.8680  14.1325  16.9506  16.9834  17.2353  17.2968  18.5874  18.6328
    19.9236  20.2885  20.6904  20.6983  22.4998  22.5080  25.9065  25.9909
    26.2770  26.4920  29.0030  29.0945  30.4952  30.5616  31.8472

     the Fermi energy is    16.2172 ev

!    total energy              =    -607.84696691 Ry
     Harris-Foulkes estimate   =    -607.84693477 Ry
     estimated scf accuracy    <       0.00000017 Ry

     The total energy is the sum of the following terms:

     one-electron contribution =    -116.29955343 Ry
     hartree contribution      =      95.06594829 Ry
     xc contribution           =    -176.57295556 Ry
     ewald contribution        =    -410.03111674 Ry
     smearing contrib. (-TS)   =      -0.00928949 Ry

     convergence has been achieved in  11 iterations

     Forces acting on atoms (Ry/au):

     negative rho (up, down):  2.020E-01 0.000E+00
     atom    1 type  1   force =     0.00000000    0.00000000    0.00000000
     atom    2 type  1   force =     0.00000000    0.00000000    0.00000000
     atom    3 type  2   force =     0.00000000    0.00000000    0.00000000
     atom    4 type  2   force =     0.00000000    0.00000000    0.00000000

     Total force =     0.000000     Total SCF correction =     0.000000

     General routines

     Parallel routines

   This run was terminated on:   5:37:53  15Nov2017

   JOB DONE.