     Program PWSCF v.5.1rc2 starts on 14Nov2017 at 13:11:16

     Current dimensions of program PWSCF are:
     Max number of different atomic species (ntypx) = 10
     Max number of k-points (npk) =  40000
     Max angular momentum in pseudopotentials (lmaxx) =  3

     IMPORTANT: XC functional enforced from input :
     Exchange-correlation      = BEEF-VDW ( 1  4 27 13 2)
     Any further DFT definition will be discarded
     Please, verify this is what you really want

     Found symmetry operation: I + ( -0.5000 -0.5000  0.0000)
     This is a supercell, fractional translations are disabled

     bravais-lattice index     =            0
     lattice parameter (alat)  =       1.8897  a.u.
     unit-cell volume          =     377.7026 (a.u.)^3
     number of atoms/cell      =            4
     number of atomic types    =            2
     number of electrons       =        70.00
     number of Kohn-Sham states=           55
     kinetic-energy cutoff     =      58.7989  Ry
     charge density cutoff     =     587.9892  Ry
     convergence threshold     =      1.0E-06
     mixing beta               =       0.1000
     number of iterations used =           10  plain     mixing
     Exchange-correlation      = BEEF-VDW ( 1  4 27 13 2)

     celldm(1)=   1.889726  celldm(2)=   0.000000  celldm(3)=   0.000000
     celldm(4)=   0.000000  celldm(5)=   0.000000  celldm(6)=   0.000000

     crystal axes: (cart. coord. in units of alat)
               a(1) = (   4.289454   0.000000   0.000000 )
               a(2) = (   0.000000   4.289454   0.000000 )
               a(3) = (   0.000000   0.000000   3.041931 )

     reciprocal axes: (cart. coord. in units 2 pi/alat)
               b(1) = (  0.233130  0.000000  0.000000 )
               b(2) = (  0.000000  0.233130  0.000000 )
               b(3) = (  0.000000  0.000000  0.328739 )

     PseudoPot. # 1 for Ga read from file:
     /home/users/vossj/suncat/psp/gbrv1.5pbe/Ga.UPF
     MD5 check sum: ccd671392a58a050fbb373893b4fcd66
     Pseudo is Ultrasoft + core correction, Zval = 19.0
     Generated by new atomic code, or converted to UPF format
     Using radial grid of  871 points,  6 beta functions with:
                l(1) =   0
                l(2) =   0
                l(3) =   1
                l(4) =   1
                l(5) =   2
                l(6) =   2
     Q(r) pseudized with  8 coefficients,  rinner =    1.250   1.250   1.250
                                                       1.250   1.250

     PseudoPot. # 2 for Ru read from file:
     /home/users/vossj/suncat/psp/gbrv1.5pbe/Ru.UPF
     MD5 check sum: 7158a806dd851261a58e6920c40ebe78
     Pseudo is Ultrasoft + core correction, Zval = 16.0
     Generated by new atomic code, or converted to UPF format
     Using radial grid of  967 points,  6 beta functions with:
                l(1) =   0
                l(2) =   0
                l(3) =   1
                l(4) =   1
                l(5) =   2
                l(6) =   2
     Q(r) pseudized with  8 coefficients,  rinner =    1.300   1.300   1.300
                                                       1.300   1.300

     vdW kernel table read from file vdW_kernel_table
     MD5 check sum: 095c7af220d748ca6e76c0b4c6cfb241

     atomic species   valence    mass     pseudopotential
        Ga1           19.00    69.72300     Ga( 1.00)
        Ru1           16.00   101.07000     Ru( 1.00)

     16 Sym. Ops., with inversion, found

   Cartesian axes

     site n.     atom                  positions (alat units)
         1           Ga1 tau(   1) = (   0.0000000   0.0000000   0.0000000  )
         2           Ga1 tau(   2) = (   2.1447268   2.1447268   0.0000000  )
         3           Ru1 tau(   3) = (   2.1447268   0.0000000   1.5209656  )
         4           Ru1 tau(   4) = (   0.0000000   2.1447268   1.5209656  )

     number of k points=    75  Fermi-Dirac smearing, width (Ry)=  0.0073
                       cart. coord. in units 2pi/alat
        k(    1) = (   0.0000000   0.0000000   0.0000000), wk =   0.0027435
        k(    2) = (   0.0000000   0.0000000   0.0365265), wk =   0.0054870
        k(    3) = (   0.0000000   0.0000000   0.0730530), wk =   0.0054870
        k(    4) = (   0.0000000   0.0000000   0.1095795), wk =   0.0054870
        k(    5) = (   0.0000000   0.0000000   0.1461060), wk =   0.0054870
        k(    6) = (   0.0000000   0.0259033   0.0000000), wk =   0.0109739
        k(    7) = (   0.0000000   0.0259033   0.0365265), wk =   0.0219479
        k(    8) = (   0.0000000   0.0259033   0.0730530), wk =   0.0219479
        k(    9) = (   0.0000000   0.0259033   0.1095795), wk =   0.0219479
        k(   10) = (   0.0000000   0.0259033   0.1461060), wk =   0.0219479
        k(   11) = (   0.0000000   0.0518067   0.0000000), wk =   0.0109739
        k(   12) = (   0.0000000   0.0518067   0.0365265), wk =   0.0219479
        k(   13) = (   0.0000000   0.0518067   0.0730530), wk =   0.0219479
        k(   14) = (   0.0000000   0.0518067   0.1095795), wk =   0.0219479
        k(   15) = (   0.0000000   0.0518067   0.1461060), wk =   0.0219479
        k(   16) = (   0.0000000   0.0777100   0.0000000), wk =   0.0109739
        k(   17) = (   0.0000000   0.0777100   0.0365265), wk =   0.0219479
        k(   18) = (   0.0000000   0.0777100   0.0730530), wk =   0.0219479
        k(   19) = (   0.0000000   0.0777100   0.1095795), wk =   0.0219479
        k(   20) = (   0.0000000   0.0777100   0.1461060), wk =   0.0219479
        k(   21) = (   0.0000000   0.1036133   0.0000000), wk =   0.0109739
        k(   22) = (   0.0000000   0.1036133   0.0365265), wk =   0.0219479
        k(   23) = (   0.0000000   0.1036133   0.0730530), wk =   0.0219479
        k(   24) = (   0.0000000   0.1036133   0.1095795), wk =   0.0219479
        k(   25) = (   0.0000000   0.1036133   0.1461060), wk =   0.0219479
        k(   26) = (   0.0259033   0.0259033   0.0000000), wk =   0.0109739
        k(   27) = (   0.0259033   0.0259033   0.0365265), wk =   0.0219479
        k(   28) = (   0.0259033   0.0259033   0.0730530), wk =   0.0219479
        k(   29) = (   0.0259033   0.0259033   0.1095795), wk =   0.0219479
        k(   30) = (   0.0259033   0.0259033   0.1461060), wk =   0.0219479
        k(   31) = (   0.0259033   0.0518067   0.0000000), wk =   0.0219479
        k(   32) = (   0.0259033   0.0518067   0.0365265), wk =   0.0438957
        k(   33) = (   0.0259033   0.0518067   0.0730530), wk =   0.0438957
        k(   34) = (   0.0259033   0.0518067   0.1095795), wk =   0.0438957
        k(   35) = (   0.0259033   0.0518067   0.1461060), wk =   0.0438957
        k(   36) = (   0.0259033   0.0777100   0.0000000), wk =   0.0219479
        k(   37) = (   0.0259033   0.0777100   0.0365265), wk =   0.0438957
        k(   38) = (   0.0259033   0.0777100   0.0730530), wk =   0.0438957
        k(   39) = (   0.0259033   0.0777100   0.1095795), wk =   0.0438957
        k(   40) = (   0.0259033   0.0777100   0.1461060), wk =   0.0438957
        k(   41) = (   0.0259033   0.1036133   0.0000000), wk =   0.0219479
        k(   42) = (   0.0259033   0.1036133   0.0365265), wk =   0.0438957
        k(   43) = (   0.0259033   0.1036133   0.0730530), wk =   0.0438957
        k(   44) = (   0.0259033   0.1036133   0.1095795), wk =   0.0438957
        k(   45) = (   0.0259033   0.1036133   0.1461060), wk =   0.0438957
        k(   46) = (   0.0518067   0.0518067   0.0000000), wk =   0.0109739
        k(   47) = (   0.0518067   0.0518067   0.0365265), wk =   0.0219479
        k(   48) = (   0.0518067   0.0518067   0.0730530), wk =   0.0219479
        k(   49) = (   0.0518067   0.0518067   0.1095795), wk =   0.0219479
        k(   50) = (   0.0518067   0.0518067   0.1461060), wk =   0.0219479
        k(   51) = (   0.0518067   0.0777100   0.0000000), wk =   0.0219479
        k(   52) = (   0.0518067   0.0777100   0.0365265), wk =   0.0438957
        k(   53) = (   0.0518067   0.0777100   0.0730530), wk =   0.0438957
        k(   54) = (   0.0518067   0.0777100   0.1095795), wk =   0.0438957
        k(   55) = (   0.0518067   0.0777100   0.1461060), wk =   0.0438957
        k(   56) = (   0.0518067   0.1036133   0.0000000), wk =   0.0219479
        k(   57) = (   0.0518067   0.1036133   0.0365265), wk =   0.0438957
        k(   58) = (   0.0518067   0.1036133   0.0730530), wk =   0.0438957
        k(   59) = (   0.0518067   0.1036133   0.1095795), wk =   0.0438957
        k(   60) = (   0.0518067   0.1036133   0.1461060), wk =   0.0438957
        k(   61) = (   0.0777100   0.0777100   0.0000000), wk =   0.0109739
        k(   62) = (   0.0777100   0.0777100   0.0365265), wk =   0.0219479
        k(   63) = (   0.0777100   0.0777100   0.0730530), wk =   0.0219479
        k(   64) = (   0.0777100   0.0777100   0.1095795), wk =   0.0219479
        k(   65) = (   0.0777100   0.0777100   0.1461060), wk =   0.0219479
        k(   66) = (   0.0777100   0.1036133   0.0000000), wk =   0.0219479
        k(   67) = (   0.0777100   0.1036133   0.0365265), wk =   0.0438957
        k(   68) = (   0.0777100   0.1036133   0.0730530), wk =   0.0438957
        k(   69) = (   0.0777100   0.1036133   0.1095795), wk =   0.0438957
        k(   70) = (   0.0777100   0.1036133   0.1461060), wk =   0.0438957
        k(   71) = (   0.1036133   0.1036133   0.0000000), wk =   0.0109739
        k(   72) = (   0.1036133   0.1036133   0.0365265), wk =   0.0219479
        k(   73) = (   0.1036133   0.1036133   0.0730530), wk =   0.0219479
        k(   74) = (   0.1036133   0.1036133   0.1095795), wk =   0.0219479
        k(   75) = (   0.1036133   0.1036133   0.1461060), wk =   0.0219479

     Largest allocated arrays     est. size (Mb)     dimensions
     Largest temporary arrays     est. size (Mb)     dimensions

     Initial potential from superposition of free atoms
     Check: negative starting charge=   -0.145286

     starting charge   65.99997, renormalised to   70.00000

     negative rho (up, down):  1.541E-01 0.000E+00

     *
     * You are using vdW-DF for exchange-correlation in this calculation.
     * Please cite the following three references that made this development
     * possible:
     *
     *   M. Dion, H. Rydberg, E. Schroder, D. C. Langreth, and
     *   B. I. Lundqvist, Phys. Rev. Lett. 92, 246401 (2004).
     *
     *   T. Thonhauser, V. R. Cooper, S. Li, A. Puzder, P. Hyldgaard, and
     *   D. C. Langreth, Phys. Rev. B 76, 125112 (2007).
     *
     *   G. Roman-Perez and J. M. Soler, Phys. Rev. Lett. 103, 096102 (2009).
     *
     *
     * If you are using vdW-DF2, please also cite:
     *
     *   K. Lee, E. D. Murray, L. Kong, B. I. Lundqvist, and
     *   D. C. Langreth, Phys. Rev. B 82, 081101(R) (2010).
     *
     *
     * If you are calculating the stress with vdW-DF, please also cite:
     *
     *   R. Sabatini, E. Kucukbenli, B. Kolb, T. Thonhauser, and
     *   S. de Gironcoli, J. Phys.: Condens. Matter 24, 424209 (2012).
     *

     Carrying out vdW-DF run using the following parameters:

     Nqs =      20    Nr_points =    1024   r_max =   100.000
     q_mesh =
               0.00001000     0.04494208     0.09755937     0.15916263
               0.23128650     0.31572767     0.41458969     0.53033537
               0.66584808     0.82450364     1.01025438     1.22772762
               1.48234092     1.78043706     2.12944203     2.53805004
               3.01644009     3.57652955     4.23227104     5.00000000

     Gradients computed in reciprocal space

     Starting wfc are   50 randomized atomic wfcs +    5 random wfc

     Self-consistent Calculation

     iteration #  1     ecut=    58.80 Ry     beta=0.10
     Davidson diagonalization with overlap
     ethr =  1.00E-02,  avg # of iterations =  4.7

[...]

     total energy              =   -1221.69037790 Ry
     Harris-Foulkes estimate   =   -1229.10928482 Ry
     estimated scf accuracy    <      41.31441510 Ry

[...]

     total energy              =   -1223.58604157 Ry
     Harris-Foulkes estimate   =   -1223.58604298 Ry
     estimated scf accuracy    <       0.00000629 Ry

     iteration # 11     ecut=    58.80 Ry     beta=0.10
     Davidson diagonalization with overlap
     ethr =  4.18E-09,  avg # of iterations =  2.0

     negative rho (up, down):  1.469E-01 0.000E+00

     End of self-consistent calculation

          k = 0.0000 0.0000 0.0000 (  2835 PWs)   bands (ev):

   -75.6245 -75.6245 -75.6231 -75.6231 -75.6231 -75.6229 -53.5406 -53.5156
   -23.6207 -23.6207 -23.4682 -23.4682 -23.4631 -23.4331   3.8194   3.8210
     3.8456   3.9307   3.9599   3.9599   4.0494   4.0494   4.0510   4.1807
     8.0667  11.9279  15.5261  15.5369  16.0962  16.8557  16.8557  17.7359
    17.7359  18.7512  18.7512  18.7600  19.8485  22.7951  23.8647  23.9517
    23.9517  24.4518  28.0467  30.8290  31.5656  31.5764  32.5170  32.5170
    35.4896  37.6726  37.7326  37.7326  38.9736  39.0686  39.0686

[...]

          k = 0.1036 0.1036 0.1461 (  2884 PWs)   bands (ev):

   -75.6245 -75.6244 -75.6243 -75.6243 -75.6230 -75.6229 -53.5168 -53.5161
   -23.6214 -23.6170 -23.6064 -23.6052 -23.4444 -23.4398   3.8530   3.8552
     3.9271   3.9354   3.9617   3.9643   3.9648   3.9683   4.1680   4.1738
    11.8931  11.9434  15.6869  15.8637  16.5085  16.6689  16.7760  16.9604
    17.7227  17.7819  18.0960  18.0972  19.9088  19.9467  22.7926  22.9698
    24.5424  24.6919  27.9872  28.2290  32.2666  32.3089  32.4922  32.7480
    35.9347  36.0235  37.3509  37.7630  39.0669  39.3597  40.1680

     the Fermi energy is    18.6037 ev

!    total energy              =   -1223.58604802 Ry
     Harris-Foulkes estimate   =   -1223.58604257 Ry
     estimated scf accuracy    <       0.00000007 Ry

     The total energy is the sum of the following terms:

     one-electron contribution =    -673.12020593 Ry
     hartree contribution      =     383.54456287 Ry
     xc contribution           =    -153.77559300 Ry
     ewald contribution        =    -780.22550535 Ry
     smearing contrib. (-TS)   =      -0.00930662 Ry

     convergence has been achieved in  11 iterations

     Forces acting on atoms (Ry/au):

     negative rho (up, down):  1.469E-01 0.000E+00
     atom    1 type  1   force =     0.00000000    0.00000000    0.00000000
     atom    2 type  1   force =     0.00000000    0.00000000    0.00000000
     atom    3 type  2   force =     0.00000000    0.00000000    0.00000000
     atom    4 type  2   force =     0.00000000    0.00000000    0.00000000

     Total force =     0.000000     Total SCF correction =     0.000000

     General routines

     Parallel routines

   This run was terminated on:  13:11:53  14Nov2017

   JOB DONE.