     Program PWSCF v.5.1rc2 starts on 14Nov2017 at  1:16:18

     Current dimensions of program PWSCF are:
     Max number of different atomic species (ntypx) = 10
     Max number of k-points (npk) =  40000
     Max angular momentum in pseudopotentials (lmaxx) =  3

     IMPORTANT: XC functional enforced from input :
     Exchange-correlation      = BEEF-VDW ( 1  4 27 13 2)
     Any further DFT definition will be discarded
     Please, verify this is what you really want

     Found symmetry operation: I + ( -0.5000 -0.5000  0.0000)
     This is a supercell, fractional translations are disabled

     bravais-lattice index     =            0
     lattice parameter (alat)  =       1.8897  a.u.
     unit-cell volume          =     699.0414 (a.u.)^3
     number of atoms/cell      =            4
     number of atomic types    =            2
     number of electrons       =        34.00
     number of Kohn-Sham states=           37
     kinetic-energy cutoff     =      58.7989  Ry
     charge density cutoff     =     587.9892  Ry
     convergence threshold     =      1.0E-06
     mixing beta               =       0.1000
     number of iterations used =           10  plain     mixing
     Exchange-correlation      = BEEF-VDW ( 1  4 27 13 2)

     celldm(1)=   1.889726  celldm(2)=   0.000000  celldm(3)=   0.000000
     celldm(4)=   0.000000  celldm(5)=   0.000000  celldm(6)=   0.000000

     crystal axes: (cart. coord. in units of alat)
               a(1) = (   4.962503   0.000000   0.000000 )
               a(2) = (   0.000000   4.962503   0.000000 )
               a(3) = (   0.000000   0.000000   4.206343 )

     reciprocal axes: (cart. coord. in units 2 pi/alat)
               b(1) = (  0.201511  0.000000  0.000000 )
               b(2) = (  0.000000  0.201511  0.000000 )
               b(3) = (  0.000000  0.000000  0.237736 )

     PseudoPot. # 1 for Al read from file:
     /home/users/vossj/suncat/psp/gbrv1.5pbe/Al.UPF
     MD5 check sum: 0a6289f5291fc8f409219462bc851e1f
     Pseudo is Ultrasoft + core correction, Zval =  3.0
     Generated by new atomic code, or converted to UPF format
     Using radial grid of  893 points,  3 beta functions with:
                l(1) =   0
                l(2) =   1
                l(3) =   2
     Q(r) pseudized with  8 coefficients,  rinner =    0.900   0.900   0.900
                                                       0.900   0.900

     PseudoPot. # 2 for Pb read from file:
     /home/users/vossj/suncat/psp/gbrv1.5pbe/Pb.UPF
     MD5 check sum: 3d1c1779aa92214d1e8f3a7db79003e2
     Pseudo is Ultrasoft + core correction, Zval = 14.0
     Generated by new atomic code, or converted to UPF format
     Using radial grid of  899 points,  6 beta functions with:
                l(1) =   0
                l(2) =   0
                l(3) =   1
                l(4) =   1
                l(5) =   2
                l(6) =   2
     Q(r) pseudized with  6 coefficients,  rinner =    1.000   1.000   1.000
                                                       1.000   1.000

     vdW kernel table read from file vdW_kernel_table
     MD5 check sum: 095c7af220d748ca6e76c0b4c6cfb241

     atomic species   valence    mass     pseudopotential
        Al1            3.00    26.98154     Al( 1.00)
        Pb1           14.00   207.20000     Pb( 1.00)

     16 Sym. Ops., with inversion, found

   Cartesian axes

     site n.     atom                  positions (alat units)
         1           Al1 tau(   1) = (   0.0000000   0.0000000   0.0000000  )
         2           Al1 tau(   2) = (   2.4812516   2.4812516   0.0000000  )
         3           Pb1 tau(   3) = (   2.4812516   0.0000000   2.1031714  )
         4           Pb1 tau(   4) = (   0.0000000   2.4812516   2.1031714  )

     number of k points=    75  Fermi-Dirac smearing, width (Ry)=  0.0073
                       cart. coord. in units 2pi/alat
        k(    1) = (   0.0000000   0.0000000   0.0000000), wk =   0.0027435
        k(    2) = (   0.0000000   0.0000000   0.0264151), wk =   0.0054870
        k(    3) = (   0.0000000   0.0000000   0.0528303), wk =   0.0054870
        k(    4) = (   0.0000000   0.0000000   0.0792454), wk =   0.0054870
        k(    5) = (   0.0000000   0.0000000   0.1056605), wk =   0.0054870
        k(    6) = (   0.0000000   0.0223901   0.0000000), wk =   0.0109739
        k(    7) = (   0.0000000   0.0223901   0.0264151), wk =   0.0219479
        k(    8) = (   0.0000000   0.0223901   0.0528303), wk =   0.0219479
        k(    9) = (   0.0000000   0.0223901   0.0792454), wk =   0.0219479
        k(   10) = (   0.0000000   0.0223901   0.1056605), wk =   0.0219479
        k(   11) = (   0.0000000   0.0447803   0.0000000), wk =   0.0109739
        k(   12) = (   0.0000000   0.0447803   0.0264151), wk =   0.0219479
        k(   13) = (   0.0000000   0.0447803   0.0528303), wk =   0.0219479
        k(   14) = (   0.0000000   0.0447803   0.0792454), wk =   0.0219479
        k(   15) = (   0.0000000   0.0447803   0.1056605), wk =   0.0219479
        k(   16) = (   0.0000000   0.0671704   0.0000000), wk =   0.0109739
        k(   17) = (   0.0000000   0.0671704   0.0264151), wk =   0.0219479
        k(   18) = (   0.0000000   0.0671704   0.0528303), wk =   0.0219479
        k(   19) = (   0.0000000   0.0671704   0.0792454), wk =   0.0219479
        k(   20) = (   0.0000000   0.0671704   0.1056605), wk =   0.0219479
        k(   21) = (   0.0000000   0.0895605   0.0000000), wk =   0.0109739
        k(   22) = (   0.0000000   0.0895605   0.0264151), wk =   0.0219479
        k(   23) = (   0.0000000   0.0895605   0.0528303), wk =   0.0219479
        k(   24) = (   0.0000000   0.0895605   0.0792454), wk =   0.0219479
        k(   25) = (   0.0000000   0.0895605   0.1056605), wk =   0.0219479
        k(   26) = (   0.0223901   0.0223901   0.0000000), wk =   0.0109739
        k(   27) = (   0.0223901   0.0223901   0.0264151), wk =   0.0219479
        k(   28) = (   0.0223901   0.0223901   0.0528303), wk =   0.0219479
        k(   29) = (   0.0223901   0.0223901   0.0792454), wk =   0.0219479
        k(   30) = (   0.0223901   0.0223901   0.1056605), wk =   0.0219479
        k(   31) = (   0.0223901   0.0447803   0.0000000), wk =   0.0219479
        k(   32) = (   0.0223901   0.0447803   0.0264151), wk =   0.0438957
        k(   33) = (   0.0223901   0.0447803   0.0528303), wk =   0.0438957
        k(   34) = (   0.0223901   0.0447803   0.0792454), wk =   0.0438957
        k(   35) = (   0.0223901   0.0447803   0.1056605), wk =   0.0438957
        k(   36) = (   0.0223901   0.0671704   0.0000000), wk =   0.0219479
        k(   37) = (   0.0223901   0.0671704   0.0264151), wk =   0.0438957
        k(   38) = (   0.0223901   0.0671704   0.0528303), wk =   0.0438957
        k(   39) = (   0.0223901   0.0671704   0.0792454), wk =   0.0438957
        k(   40) = (   0.0223901   0.0671704   0.1056605), wk =   0.0438957
        k(   41) = (   0.0223901   0.0895605   0.0000000), wk =   0.0219479
        k(   42) = (   0.0223901   0.0895605   0.0264151), wk =   0.0438957
        k(   43) = (   0.0223901   0.0895605   0.0528303), wk =   0.0438957
        k(   44) = (   0.0223901   0.0895605   0.0792454), wk =   0.0438957
        k(   45) = (   0.0223901   0.0895605   0.1056605), wk =   0.0438957
        k(   46) = (   0.0447803   0.0447803   0.0000000), wk =   0.0109739
        k(   47) = (   0.0447803   0.0447803   0.0264151), wk =   0.0219479
        k(   48) = (   0.0447803   0.0447803   0.0528303), wk =   0.0219479
        k(   49) = (   0.0447803   0.0447803   0.0792454), wk =   0.0219479
        k(   50) = (   0.0447803   0.0447803   0.1056605), wk =   0.0219479
        k(   51) = (   0.0447803   0.0671704   0.0000000), wk =   0.0219479
        k(   52) = (   0.0447803   0.0671704   0.0264151), wk =   0.0438957
        k(   53) = (   0.0447803   0.0671704   0.0528303), wk =   0.0438957
        k(   54) = (   0.0447803   0.0671704   0.0792454), wk =   0.0438957
        k(   55) = (   0.0447803   0.0671704   0.1056605), wk =   0.0438957
        k(   56) = (   0.0447803   0.0895605   0.0000000), wk =   0.0219479
        k(   57) = (   0.0447803   0.0895605   0.0264151), wk =   0.0438957
        k(   58) = (   0.0447803   0.0895605   0.0528303), wk =   0.0438957
        k(   59) = (   0.0447803   0.0895605   0.0792454), wk =   0.0438957
        k(   60) = (   0.0447803   0.0895605   0.1056605), wk =   0.0438957
        k(   61) = (   0.0671704   0.0671704   0.0000000), wk =   0.0109739
        k(   62) = (   0.0671704   0.0671704   0.0264151), wk =   0.0219479
        k(   63) = (   0.0671704   0.0671704   0.0528303), wk =   0.0219479
        k(   64) = (   0.0671704   0.0671704   0.0792454), wk =   0.0219479
        k(   65) = (   0.0671704   0.0671704   0.1056605), wk =   0.0219479
        k(   66) = (   0.0671704   0.0895605   0.0000000), wk =   0.0219479
        k(   67) = (   0.0671704   0.0895605   0.0264151), wk =   0.0438957
        k(   68) = (   0.0671704   0.0895605   0.0528303), wk =   0.0438957
        k(   69) = (   0.0671704   0.0895605   0.0792454), wk =   0.0438957
        k(   70) = (   0.0671704   0.0895605   0.1056605), wk =   0.0438957
        k(   71) = (   0.0895605   0.0895605   0.0000000), wk =   0.0109739
        k(   72) = (   0.0895605   0.0895605   0.0264151), wk =   0.0219479
        k(   73) = (   0.0895605   0.0895605   0.0528303), wk =   0.0219479
        k(   74) = (   0.0895605   0.0895605   0.0792454), wk =   0.0219479
        k(   75) = (   0.0895605   0.0895605   0.1056605), wk =   0.0219479

     Largest allocated arrays     est. size (Mb)     dimensions
     Largest temporary arrays     est. size (Mb)     dimensions

     Initial potential from superposition of free atoms
     Check: negative starting charge=   -0.031761

     starting charge   33.99037, renormalised to   34.00000

     negative rho (up, down):  3.177E-02 0.000E+00

     *
     * You are using vdW-DF for exchange-correlation in this calculation.
     * Please cite the following three references that made this development
     * possible:
     *
     *   M. Dion, H. Rydberg, E. Schroder, D. C. Langreth, and
     *   B. I. Lundqvist, Phys. Rev. Lett. 92, 246401 (2004).
     *
     *   T. Thonhauser, V. R. Cooper, S. Li, A. Puzder, P. Hyldgaard, and
     *   D. C. Langreth, Phys. Rev. B 76, 125112 (2007).
     *
     *   G. Roman-Perez and J. M. Soler, Phys. Rev. Lett. 103, 096102 (2009).
     *
     *
     * If you are using vdW-DF2, please also cite:
     *
     *   K. Lee, E. D. Murray, L. Kong, B. I. Lundqvist, and
     *   D. C. Langreth, Phys. Rev. B 82, 081101(R) (2010).
     *
     *
     * If you are calculating the stress with vdW-DF, please also cite:
     *
     *   R. Sabatini, E. Kucukbenli, B. Kolb, T. Thonhauser, and
     *   S. de Gironcoli, J. Phys.: Condens. Matter 24, 424209 (2012).
     *

     Carrying out vdW-DF run using the following parameters:

     Nqs =      20    Nr_points =    1024   r_max =   100.000
     q_mesh =
               0.00001000     0.04494208     0.09755937     0.15916263
               0.23128650     0.31572767     0.41458969     0.53033537
               0.66584808     0.82450364     1.01025438     1.22772762
               1.48234092     1.78043706     2.12944203     2.53805004
               3.01644009     3.57652955     4.23227104     5.00000000

     Gradients computed in reciprocal space

     Starting wfc are   26 randomized atomic wfcs +   11 random wfc

     Self-consistent Calculation

     iteration #  1     ecut=    58.80 Ry     beta=0.10
     Davidson diagonalization with overlap
     ethr =  1.00E-02,  avg # of iterations =  6.3

     Threshold (ethr) on eigenvalues was too large:
     Diagonalizing with lowered threshold

     Davidson diagonalization with overlap
     ethr =  1.97E-05,  avg # of iterations = 10.1

[...]

     total energy              =    -345.72350920 Ry
     Harris-Foulkes estimate   =    -345.72088123 Ry
     estimated scf accuracy    <       0.00643665 Ry

[...]

     total energy              =    -345.73061658 Ry
     Harris-Foulkes estimate   =    -345.72999892 Ry
     estimated scf accuracy    <       0.00000230 Ry

     iteration #  7     ecut=    58.80 Ry     beta=0.10
     Davidson diagonalization with overlap
     ethr =  6.78E-09,  avg # of iterations =  2.0

     negative rho (up, down):  3.541E-02 0.000E+00

     End of self-consistent calculation

          k = 0.0000 0.0000 0.0000 (  5327 PWs)   bands (ev):

    -8.7066  -8.6331  -8.5880  -8.5433  -8.5433  -8.4651  -8.4651  -8.4540
    -8.4450  -8.3392  -2.3448   1.7009   5.3950   5.3950   5.9771   6.6904
     7.1639  10.4715  10.4715  12.2495  12.3398  13.1249  13.2731  13.2731
    13.6458  15.1089  15.5557  15.5557  16.0239  17.5327  17.8687  17.8687
    19.2179  19.2579  20.2088  20.2088  20.7561

[...]

          k = 0.0896 0.0896 0.1057 (  5289 PWs)   bands (ev):

    -8.6105  -8.6018  -8.5871  -8.5845  -8.5232  -8.5176  -8.4711  -8.4684
    -8.3998  -8.3934   0.5106   0.6501   4.1767   4.3383   4.8951   5.1121
     5.3355   5.8566  13.9356  13.9919  14.1814  14.5223  15.4756  15.6141
    15.7300  16.1693  17.5539  17.8714  18.0867  18.1455  18.3025  18.5956
    18.7193  18.9369  19.3437  19.4207  20.3918

     the Fermi energy is     8.6854 ev

!    total energy              =    -345.73307605 Ry
     Harris-Foulkes estimate   =    -345.73061721 Ry
     estimated scf accuracy    <       0.00000033 Ry

     The total energy is the sum of the following terms:

     one-electron contribution =     -91.78885897 Ry
     hartree contribution      =      68.57773603 Ry
     xc contribution           =    -139.37017235 Ry
     ewald contribution        =    -183.14708864 Ry
     smearing contrib. (-TS)   =      -0.00469213 Ry

     convergence has been achieved in   7 iterations

     Forces acting on atoms (Ry/au):

     negative rho (up, down):  3.541E-02 0.000E+00
     atom    1 type  1   force =     0.00000000    0.00000000    0.00000000
     atom    2 type  1   force =     0.00000000    0.00000000    0.00000000
     atom    3 type  2   force =     0.00000000    0.00000000    0.00000000
     atom    4 type  2   force =     0.00000000    0.00000000    0.00000000

     Total force =     0.000000     Total SCF correction =     0.000000

     General routines

     Parallel routines

   This run was terminated on:   1:16:51  14Nov2017

   JOB DONE.