     Program PWSCF v.5.1rc2 starts on 15Nov2017 at  4:22:35

     Current dimensions of program PWSCF are:
     Max number of different atomic species (ntypx) = 10
     Max number of k-points (npk) =  40000
     Max angular momentum in pseudopotentials (lmaxx) =  3

     IMPORTANT: XC functional enforced from input :
     Exchange-correlation      = BEEF-VDW ( 1  4 27 13 2)
     Any further DFT definition will be discarded
     Please, verify this is what you really want

     Found symmetry operation: I + ( -0.5000 -0.5000  0.0000)
     This is a supercell, fractional translations are disabled

     bravais-lattice index     =            0
     lattice parameter (alat)  =       1.8897  a.u.
     unit-cell volume          =     600.0605 (a.u.)^3
     number of atoms/cell      =            4
     number of atomic types    =            2
     number of electrons       =        60.00
     number of Kohn-Sham states=           50
     kinetic-energy cutoff     =      58.7989  Ry
     charge density cutoff     =     587.9892  Ry
     convergence threshold     =      1.0E-06
     mixing beta               =       0.1000
     number of iterations used =           10  plain     mixing
     Exchange-correlation      = BEEF-VDW ( 1  4 27 13 2)

     celldm(1)=   1.889726  celldm(2)=   0.000000  celldm(3)=   0.000000
     celldm(4)=   0.000000  celldm(5)=   0.000000  celldm(6)=   0.000000

     crystal axes: (cart. coord. in units of alat)
               a(1) = (   5.004059   0.000000   0.000000 )
               a(2) = (   0.000000   5.004059   0.000000 )
               a(3) = (   0.000000   0.000000   3.551024 )

     reciprocal axes: (cart. coord. in units 2 pi/alat)
               b(1) = (  0.199838  0.000000  0.000000 )
               b(2) = (  0.000000  0.199838  0.000000 )
               b(3) = (  0.000000  0.000000  0.281609 )

     PseudoPot. # 1 for Pt read from file:
     /home/users/vossj/suncat/psp/gbrv1.5pbe/Pt.UPF
     MD5 check sum: f09d6de1a584b5a045c4fc126da2d0c4
     Pseudo is Ultrasoft + core correction, Zval = 16.0
     Generated by new atomic code, or converted to UPF format
     Using radial grid of  985 points,  6 beta functions with:
                l(1) =   0
                l(2) =   0
                l(3) =   1
                l(4) =   1
                l(5) =   2
                l(6) =   2
     Q(r) pseudized with  8 coefficients,  rinner =    1.300   1.300   1.300
                                                       1.300   1.300

     PseudoPot. # 2 for Pb read from file:
     /home/users/vossj/suncat/psp/gbrv1.5pbe/Pb.UPF
     MD5 check sum: 3d1c1779aa92214d1e8f3a7db79003e2
     Pseudo is Ultrasoft + core correction, Zval = 14.0
     Generated by new atomic code, or converted to UPF format
     Using radial grid of  899 points,  6 beta functions with:
                l(1) =   0
                l(2) =   0
                l(3) =   1
                l(4) =   1
                l(5) =   2
                l(6) =   2
     Q(r) pseudized with  6 coefficients,  rinner =    1.000   1.000   1.000
                                                       1.000   1.000

     vdW kernel table read from file vdW_kernel_table
     MD5 check sum: 095c7af220d748ca6e76c0b4c6cfb241

     atomic species   valence    mass     pseudopotential
        Pt1           16.00   195.08000     Pt( 1.00)
        Pb1           14.00   207.20000     Pb( 1.00)

     16 Sym. Ops., with inversion, found

   Cartesian axes

     site n.     atom                  positions (alat units)
         1           Pt1 tau(   1) = (   0.0000000   0.0000000   0.0000000  )
         2           Pt1 tau(   2) = (   2.5020293   2.5020293   0.0000000  )
         3           Pb1 tau(   3) = (   2.5020293   0.0000000   1.7755122  )
         4           Pb1 tau(   4) = (   0.0000000   2.5020293   1.7755122  )

     number of k points=    75  Fermi-Dirac smearing, width (Ry)=  0.0073
                       cart. coord. in units 2pi/alat
        k(    1) = (   0.0000000   0.0000000   0.0000000), wk =   0.0027435
        k(    2) = (   0.0000000   0.0000000   0.0312899), wk =   0.0054870
        k(    3) = (   0.0000000   0.0000000   0.0625798), wk =   0.0054870
        k(    4) = (   0.0000000   0.0000000   0.0938696), wk =   0.0054870
        k(    5) = (   0.0000000   0.0000000   0.1251595), wk =   0.0054870
        k(    6) = (   0.0000000   0.0222042   0.0000000), wk =   0.0109739
        k(    7) = (   0.0000000   0.0222042   0.0312899), wk =   0.0219479
        k(    8) = (   0.0000000   0.0222042   0.0625798), wk =   0.0219479
        k(    9) = (   0.0000000   0.0222042   0.0938696), wk =   0.0219479
        k(   10) = (   0.0000000   0.0222042   0.1251595), wk =   0.0219479
        k(   11) = (   0.0000000   0.0444084   0.0000000), wk =   0.0109739
        k(   12) = (   0.0000000   0.0444084   0.0312899), wk =   0.0219479
        k(   13) = (   0.0000000   0.0444084   0.0625798), wk =   0.0219479
        k(   14) = (   0.0000000   0.0444084   0.0938696), wk =   0.0219479
        k(   15) = (   0.0000000   0.0444084   0.1251595), wk =   0.0219479
        k(   16) = (   0.0000000   0.0666126   0.0000000), wk =   0.0109739
        k(   17) = (   0.0000000   0.0666126   0.0312899), wk =   0.0219479
        k(   18) = (   0.0000000   0.0666126   0.0625798), wk =   0.0219479
        k(   19) = (   0.0000000   0.0666126   0.0938696), wk =   0.0219479
        k(   20) = (   0.0000000   0.0666126   0.1251595), wk =   0.0219479
        k(   21) = (   0.0000000   0.0888168   0.0000000), wk =   0.0109739
        k(   22) = (   0.0000000   0.0888168   0.0312899), wk =   0.0219479
        k(   23) = (   0.0000000   0.0888168   0.0625798), wk =   0.0219479
        k(   24) = (   0.0000000   0.0888168   0.0938696), wk =   0.0219479
        k(   25) = (   0.0000000   0.0888168   0.1251595), wk =   0.0219479
        k(   26) = (   0.0222042   0.0222042   0.0000000), wk =   0.0109739
        k(   27) = (   0.0222042   0.0222042   0.0312899), wk =   0.0219479
        k(   28) = (   0.0222042   0.0222042   0.0625798), wk =   0.0219479
        k(   29) = (   0.0222042   0.0222042   0.0938696), wk =   0.0219479
        k(   30) = (   0.0222042   0.0222042   0.1251595), wk =   0.0219479
        k(   31) = (   0.0222042   0.0444084   0.0000000), wk =   0.0219479
        k(   32) = (   0.0222042   0.0444084   0.0312899), wk =   0.0438957
        k(   33) = (   0.0222042   0.0444084   0.0625798), wk =   0.0438957
        k(   34) = (   0.0222042   0.0444084   0.0938696), wk =   0.0438957
        k(   35) = (   0.0222042   0.0444084   0.1251595), wk =   0.0438957
        k(   36) = (   0.0222042   0.0666126   0.0000000), wk =   0.0219479
        k(   37) = (   0.0222042   0.0666126   0.0312899), wk =   0.0438957
        k(   38) = (   0.0222042   0.0666126   0.0625798), wk =   0.0438957
        k(   39) = (   0.0222042   0.0666126   0.0938696), wk =   0.0438957
        k(   40) = (   0.0222042   0.0666126   0.1251595), wk =   0.0438957
        k(   41) = (   0.0222042   0.0888168   0.0000000), wk =   0.0219479
        k(   42) = (   0.0222042   0.0888168   0.0312899), wk =   0.0438957
        k(   43) = (   0.0222042   0.0888168   0.0625798), wk =   0.0438957
        k(   44) = (   0.0222042   0.0888168   0.0938696), wk =   0.0438957
        k(   45) = (   0.0222042   0.0888168   0.1251595), wk =   0.0438957
        k(   46) = (   0.0444084   0.0444084   0.0000000), wk =   0.0109739
        k(   47) = (   0.0444084   0.0444084   0.0312899), wk =   0.0219479
        k(   48) = (   0.0444084   0.0444084   0.0625798), wk =   0.0219479
        k(   49) = (   0.0444084   0.0444084   0.0938696), wk =   0.0219479
        k(   50) = (   0.0444084   0.0444084   0.1251595), wk =   0.0219479
        k(   51) = (   0.0444084   0.0666126   0.0000000), wk =   0.0219479
        k(   52) = (   0.0444084   0.0666126   0.0312899), wk =   0.0438957
        k(   53) = (   0.0444084   0.0666126   0.0625798), wk =   0.0438957
        k(   54) = (   0.0444084   0.0666126   0.0938696), wk =   0.0438957
        k(   55) = (   0.0444084   0.0666126   0.1251595), wk =   0.0438957
        k(   56) = (   0.0444084   0.0888168   0.0000000), wk =   0.0219479
        k(   57) = (   0.0444084   0.0888168   0.0312899), wk =   0.0438957
        k(   58) = (   0.0444084   0.0888168   0.0625798), wk =   0.0438957
        k(   59) = (   0.0444084   0.0888168   0.0938696), wk =   0.0438957
        k(   60) = (   0.0444084   0.0888168   0.1251595), wk =   0.0438957
        k(   61) = (   0.0666126   0.0666126   0.0000000), wk =   0.0109739
        k(   62) = (   0.0666126   0.0666126   0.0312899), wk =   0.0219479
        k(   63) = (   0.0666126   0.0666126   0.0625798), wk =   0.0219479
        k(   64) = (   0.0666126   0.0666126   0.0938696), wk =   0.0219479
        k(   65) = (   0.0666126   0.0666126   0.1251595), wk =   0.0219479
        k(   66) = (   0.0666126   0.0888168   0.0000000), wk =   0.0219479
        k(   67) = (   0.0666126   0.0888168   0.0312899), wk =   0.0438957
        k(   68) = (   0.0666126   0.0888168   0.0625798), wk =   0.0438957
        k(   69) = (   0.0666126   0.0888168   0.0938696), wk =   0.0438957
        k(   70) = (   0.0666126   0.0888168   0.1251595), wk =   0.0438957
        k(   71) = (   0.0888168   0.0888168   0.0000000), wk =   0.0109739
        k(   72) = (   0.0888168   0.0888168   0.0312899), wk =   0.0219479
        k(   73) = (   0.0888168   0.0888168   0.0625798), wk =   0.0219479
        k(   74) = (   0.0888168   0.0888168   0.0938696), wk =   0.0219479
        k(   75) = (   0.0888168   0.0888168   0.1251595), wk =   0.0219479

     Largest allocated arrays     est. size (Mb)     dimensions
     Largest temporary arrays     est. size (Mb)     dimensions

     Initial potential from superposition of free atoms
     Check: negative starting charge=   -0.400104

     starting charge   58.99527, renormalised to   60.00000

     negative rho (up, down):  4.069E-01 0.000E+00

     *
     * You are using vdW-DF for exchange-correlation in this calculation.
     * Please cite the following three references that made this development
     * possible:
     *
     *   M. Dion, H. Rydberg, E. Schroder, D. C. Langreth, and
     *   B. I. Lundqvist, Phys. Rev. Lett. 92, 246401 (2004).
     *
     *   T. Thonhauser, V. R. Cooper, S. Li, A. Puzder, P. Hyldgaard, and
     *   D. C. Langreth, Phys. Rev. B 76, 125112 (2007).
     *
     *   G. Roman-Perez and J. M. Soler, Phys. Rev. Lett. 103, 096102 (2009).
     *
     *
     * If you are using vdW-DF2, please also cite:
     *
     *   K. Lee, E. D. Murray, L. Kong, B. I. Lundqvist, and
     *   D. C. Langreth, Phys. Rev. B 82, 081101(R) (2010).
     *
     *
     * If you are calculating the stress with vdW-DF, please also cite:
     *
     *   R. Sabatini, E. Kucukbenli, B. Kolb, T. Thonhauser, and
     *   S. de Gironcoli, J. Phys.: Condens. Matter 24, 424209 (2012).
     *

     Carrying out vdW-DF run using the following parameters:

     Nqs =      20    Nr_points =    1024   r_max =   100.000
     q_mesh =
               0.00001000     0.04494208     0.09755937     0.15916263
               0.23128650     0.31572767     0.41458969     0.53033537
               0.66584808     0.82450364     1.01025438     1.22772762
               1.48234092     1.78043706     2.12944203     2.53805004
               3.01644009     3.57652955     4.23227104     5.00000000

     Gradients computed in reciprocal space

     Starting wfc are   42 randomized atomic wfcs +    8 random wfc

     Self-consistent Calculation

     iteration #  1     ecut=    58.80 Ry     beta=0.10
     Davidson diagonalization with overlap
     ethr =  1.00E-02,  avg # of iterations =  4.9

[...]

     total energy              =    -756.88187186 Ry
     Harris-Foulkes estimate   =    -757.05195297 Ry
     estimated scf accuracy    <       1.10435493 Ry

[...]

     total energy              =    -756.81475021 Ry
     Harris-Foulkes estimate   =    -756.81452802 Ry
     estimated scf accuracy    <       0.00002921 Ry

     iteration #  9     ecut=    58.80 Ry     beta=0.10
     Davidson diagonalization with overlap
     ethr =  4.87E-08,  avg # of iterations =  1.9

     negative rho (up, down):  3.900E-01 0.000E+00

     End of self-consistent calculation

          k = 0.0000 0.0000 0.0000 (  4597 PWs)   bands (ev):

   -37.1971 -37.1971 -37.1863 -37.1856 -37.1856 -37.1843  -2.4564  -2.4534
    -2.3964  -2.3382  -2.2833  -2.2833  -2.2103  -2.2103  -2.2083  -2.1020
     3.6109   6.7269  11.7232  11.7272  11.7441  12.1993  12.1993  12.7098
    12.7098  13.1208  13.1208  13.1286  13.6935  14.1743  15.3969  17.2455
    17.3262  17.3262  17.3734  20.8410  24.2612  24.2612  24.5844  24.6168
    25.5188  25.5605  26.0440  27.3730  28.7783  28.8310  28.8310  30.2987
    30.2987  30.6792

[...]

          k = 0.0888 0.0888 0.1252 (  4554 PWs)   bands (ev):

   -37.1972 -37.1971 -37.1968 -37.1966 -37.1841 -37.1837  -2.3909  -2.3885
    -2.3453  -2.3367  -2.2833  -2.2801  -2.2788  -2.2773  -2.1159  -2.1100
     6.6257   6.7003  11.3063  11.4646  11.9763  12.1419  12.1549  12.3118
    12.6915  12.7318  12.9285  12.9436  13.7416  13.7824  14.2594  14.3637
    15.5539  15.7585  20.7266  20.9361  24.1309  24.1562  24.1636  24.4292
    25.5297  25.5315  25.7483  25.9287  27.6362  27.7759  30.3128  30.5215
    30.5400  30.7005

     the Fermi energy is    14.6805 ev

!    total energy              =    -756.81572849 Ry
     Harris-Foulkes estimate   =    -756.81475381 Ry
     estimated scf accuracy    <       0.00000084 Ry

     The total energy is the sum of the following terms:

     one-electron contribution =    -132.27132252 Ry
     hartree contribution      =     114.08206965 Ry
     xc contribution           =    -248.15616588 Ry
     ewald contribution        =    -490.46590971 Ry
     smearing contrib. (-TS)   =      -0.00440004 Ry

     convergence has been achieved in   9 iterations

     Forces acting on atoms (Ry/au):

     negative rho (up, down):  3.900E-01 0.000E+00
     atom    1 type  1   force =     0.00000000    0.00000000    0.00000000
     atom    2 type  1   force =     0.00000000    0.00000000    0.00000000
     atom    3 type  2   force =     0.00000000    0.00000000    0.00000000
     atom    4 type  2   force =     0.00000000    0.00000000    0.00000000

     Total force =     0.000000     Total SCF correction =     0.000000

     General routines

     Parallel routines

   This run was terminated on:   4:23:20  15Nov2017

   JOB DONE.