     Program PWSCF v.5.1rc2 starts on 15Nov2017 at  4:58: 7

     Current dimensions of program PWSCF are:
     Max number of different atomic species (ntypx) = 10
     Max number of k-points (npk) =  40000
     Max angular momentum in pseudopotentials (lmaxx) =  3

     IMPORTANT: XC functional enforced from input :
     Exchange-correlation      = BEEF-VDW ( 1  4 27 13 2)
     Any further DFT definition will be discarded
     Please, verify this is what you really want

     Found symmetry operation: I + (  0.5000  0.5000  0.0000)
     This is a supercell, fractional translations are disabled

     bravais-lattice index     =            0
     lattice parameter (alat)  =       1.8897  a.u.
     unit-cell volume          =     464.2014 (a.u.)^3
     number of atoms/cell      =            4
     number of atomic types    =            2
     number of electrons       =        56.00
     number of Kohn-Sham states=           48
     kinetic-energy cutoff     =      58.7989  Ry
     charge density cutoff     =     587.9892  Ry
     convergence threshold     =      1.0E-06
     mixing beta               =       0.1000
     number of iterations used =           10  plain     mixing
     Exchange-correlation      = BEEF-VDW ( 1  4 27 13 2)

     celldm(1)=   1.889726  celldm(2)=   0.000000  celldm(3)=   0.000000
     celldm(4)=   0.000000  celldm(5)=   0.000000  celldm(6)=   0.000000

     crystal axes: (cart. coord. in units of alat)
               a(1) = (   4.015352   0.000000   0.000000 )
               a(2) = (   0.000000   4.015352   0.000000 )
               a(3) = (   0.000000   0.000000   4.266411 )

     reciprocal axes: (cart. coord. in units 2 pi/alat)
               b(1) = (  0.249044  0.000000  0.000000 )
               b(2) = (  0.000000  0.249044  0.000000 )
               b(3) = (  0.000000  0.000000  0.234389 )

     PseudoPot. # 1 for Ru read from file:
     /home/users/vossj/suncat/psp/gbrv1.5pbe/Ru.UPF
     MD5 check sum: 7158a806dd851261a58e6920c40ebe78
     Pseudo is Ultrasoft + core correction, Zval = 16.0
     Generated by new atomic code, or converted to UPF format
     Using radial grid of  967 points,  6 beta functions with:
                l(1) =   0
                l(2) =   0
                l(3) =   1
                l(4) =   1
                l(5) =   2
                l(6) =   2
     Q(r) pseudized with  8 coefficients,  rinner =    1.300   1.300   1.300
                                                       1.300   1.300

     PseudoPot. # 2 for Cd read from file:
     /home/users/vossj/suncat/psp/gbrv1.5pbe/Cd.UPF
     MD5 check sum: 17164a7926edb8e0dc231208abae86a6
     Pseudo is Ultrasoft + core correction, Zval = 12.0
     Generated by new atomic code, or converted to UPF format
     Using radial grid of  889 points,  6 beta functions with:
                l(1) =   0
                l(2) =   0
                l(3) =   1
                l(4) =   1
                l(5) =   2
                l(6) =   2
     Q(r) pseudized with  6 coefficients,  rinner =    1.000   1.000   1.000
                                                       1.000   1.000

     vdW kernel table read from file vdW_kernel_table
     MD5 check sum: 095c7af220d748ca6e76c0b4c6cfb241

     atomic species   valence    mass     pseudopotential
        Ru1           16.00   101.07000     Ru( 1.00)
        Cd1           12.00   112.41000     Cd( 1.00)

     16 Sym. Ops., with inversion, found

   Cartesian axes

     site n.     atom                  positions (alat units)
         1           Ru1 tau(   1) = (   0.0000000   0.0000000   0.0000000  )
         2           Ru1 tau(   2) = (   2.0076758   2.0076758   0.0000000  )
         3           Cd1 tau(   3) = (   2.0076758   0.0000000   2.1332056  )
         4           Cd1 tau(   4) = (   0.0000000   2.0076758   2.1332056  )

     number of k points=    75  Fermi-Dirac smearing, width (Ry)=  0.0073
                       cart. coord. in units 2pi/alat
        k(    1) = (   0.0000000   0.0000000   0.0000000), wk =   0.0027435
        k(    2) = (   0.0000000   0.0000000   0.0260432), wk =   0.0054870
        k(    3) = (   0.0000000   0.0000000   0.0520865), wk =   0.0054870
        k(    4) = (   0.0000000   0.0000000   0.0781297), wk =   0.0054870
        k(    5) = (   0.0000000   0.0000000   0.1041729), wk =   0.0054870
        k(    6) = (   0.0000000   0.0276716   0.0000000), wk =   0.0109739
        k(    7) = (   0.0000000   0.0276716   0.0260432), wk =   0.0219479
        k(    8) = (   0.0000000   0.0276716   0.0520865), wk =   0.0219479
        k(    9) = (   0.0000000   0.0276716   0.0781297), wk =   0.0219479
        k(   10) = (   0.0000000   0.0276716   0.1041729), wk =   0.0219479
        k(   11) = (   0.0000000   0.0553432   0.0000000), wk =   0.0109739
        k(   12) = (   0.0000000   0.0553432   0.0260432), wk =   0.0219479
        k(   13) = (   0.0000000   0.0553432   0.0520865), wk =   0.0219479
        k(   14) = (   0.0000000   0.0553432   0.0781297), wk =   0.0219479
        k(   15) = (   0.0000000   0.0553432   0.1041729), wk =   0.0219479
        k(   16) = (   0.0000000   0.0830147   0.0000000), wk =   0.0109739
        k(   17) = (   0.0000000   0.0830147   0.0260432), wk =   0.0219479
        k(   18) = (   0.0000000   0.0830147   0.0520865), wk =   0.0219479
        k(   19) = (   0.0000000   0.0830147   0.0781297), wk =   0.0219479
        k(   20) = (   0.0000000   0.0830147   0.1041729), wk =   0.0219479
        k(   21) = (   0.0000000   0.1106863   0.0000000), wk =   0.0109739
        k(   22) = (   0.0000000   0.1106863   0.0260432), wk =   0.0219479
        k(   23) = (   0.0000000   0.1106863   0.0520865), wk =   0.0219479
        k(   24) = (   0.0000000   0.1106863   0.0781297), wk =   0.0219479
        k(   25) = (   0.0000000   0.1106863   0.1041729), wk =   0.0219479
        k(   26) = (   0.0276716   0.0276716   0.0000000), wk =   0.0109739
        k(   27) = (   0.0276716   0.0276716   0.0260432), wk =   0.0219479
        k(   28) = (   0.0276716   0.0276716   0.0520865), wk =   0.0219479
        k(   29) = (   0.0276716   0.0276716   0.0781297), wk =   0.0219479
        k(   30) = (   0.0276716   0.0276716   0.1041729), wk =   0.0219479
        k(   31) = (   0.0276716   0.0553432   0.0000000), wk =   0.0219479
        k(   32) = (   0.0276716   0.0553432   0.0260432), wk =   0.0438957
        k(   33) = (   0.0276716   0.0553432   0.0520865), wk =   0.0438957
        k(   34) = (   0.0276716   0.0553432   0.0781297), wk =   0.0438957
        k(   35) = (   0.0276716   0.0553432   0.1041729), wk =   0.0438957
        k(   36) = (   0.0276716   0.0830147   0.0000000), wk =   0.0219479
        k(   37) = (   0.0276716   0.0830147   0.0260432), wk =   0.0438957
        k(   38) = (   0.0276716   0.0830147   0.0520865), wk =   0.0438957
        k(   39) = (   0.0276716   0.0830147   0.0781297), wk =   0.0438957
        k(   40) = (   0.0276716   0.0830147   0.1041729), wk =   0.0438957
        k(   41) = (   0.0276716   0.1106863   0.0000000), wk =   0.0219479
        k(   42) = (   0.0276716   0.1106863   0.0260432), wk =   0.0438957
        k(   43) = (   0.0276716   0.1106863   0.0520865), wk =   0.0438957
        k(   44) = (   0.0276716   0.1106863   0.0781297), wk =   0.0438957
        k(   45) = (   0.0276716   0.1106863   0.1041729), wk =   0.0438957
        k(   46) = (   0.0553432   0.0553432   0.0000000), wk =   0.0109739
        k(   47) = (   0.0553432   0.0553432   0.0260432), wk =   0.0219479
        k(   48) = (   0.0553432   0.0553432   0.0520865), wk =   0.0219479
        k(   49) = (   0.0553432   0.0553432   0.0781297), wk =   0.0219479
        k(   50) = (   0.0553432   0.0553432   0.1041729), wk =   0.0219479
        k(   51) = (   0.0553432   0.0830147   0.0000000), wk =   0.0219479
        k(   52) = (   0.0553432   0.0830147   0.0260432), wk =   0.0438957
        k(   53) = (   0.0553432   0.0830147   0.0520865), wk =   0.0438957
        k(   54) = (   0.0553432   0.0830147   0.0781297), wk =   0.0438957
        k(   55) = (   0.0553432   0.0830147   0.1041729), wk =   0.0438957
        k(   56) = (   0.0553432   0.1106863   0.0000000), wk =   0.0219479
        k(   57) = (   0.0553432   0.1106863   0.0260432), wk =   0.0438957
        k(   58) = (   0.0553432   0.1106863   0.0520865), wk =   0.0438957
        k(   59) = (   0.0553432   0.1106863   0.0781297), wk =   0.0438957
        k(   60) = (   0.0553432   0.1106863   0.1041729), wk =   0.0438957
        k(   61) = (   0.0830147   0.0830147   0.0000000), wk =   0.0109739
        k(   62) = (   0.0830147   0.0830147   0.0260432), wk =   0.0219479
        k(   63) = (   0.0830147   0.0830147   0.0520865), wk =   0.0219479
        k(   64) = (   0.0830147   0.0830147   0.0781297), wk =   0.0219479
        k(   65) = (   0.0830147   0.0830147   0.1041729), wk =   0.0219479
        k(   66) = (   0.0830147   0.1106863   0.0000000), wk =   0.0219479
        k(   67) = (   0.0830147   0.1106863   0.0260432), wk =   0.0438957
        k(   68) = (   0.0830147   0.1106863   0.0520865), wk =   0.0438957
        k(   69) = (   0.0830147   0.1106863   0.0781297), wk =   0.0438957
        k(   70) = (   0.0830147   0.1106863   0.1041729), wk =   0.0438957
        k(   71) = (   0.1106863   0.1106863   0.0000000), wk =   0.0109739
        k(   72) = (   0.1106863   0.1106863   0.0260432), wk =   0.0219479
        k(   73) = (   0.1106863   0.1106863   0.0520865), wk =   0.0219479
        k(   74) = (   0.1106863   0.1106863   0.0781297), wk =   0.0219479
        k(   75) = (   0.1106863   0.1106863   0.1041729), wk =   0.0219479

     Largest allocated arrays     est. size (Mb)     dimensions
     Largest temporary arrays     est. size (Mb)     dimensions

     Initial potential from superposition of free atoms
     Check: negative starting charge=   -0.191899

     starting charge   52.99989, renormalised to   56.00000

     negative rho (up, down):  2.028E-01 0.000E+00

     *
     * You are using vdW-DF for exchange-correlation in this calculation.
     * Please cite the following three references that made this development
     * possible:
     *
     *   M. Dion, H. Rydberg, E. Schroder, D. C. Langreth, and
     *   B. I. Lundqvist, Phys. Rev. Lett. 92, 246401 (2004).
     *
     *   T. Thonhauser, V. R. Cooper, S. Li, A. Puzder, P. Hyldgaard, and
     *   D. C. Langreth, Phys. Rev. B 76, 125112 (2007).
     *
     *   G. Roman-Perez and J. M. Soler, Phys. Rev. Lett. 103, 096102 (2009).
     *
     *
     * If you are using vdW-DF2, please also cite:
     *
     *   K. Lee, E. D. Murray, L. Kong, B. I. Lundqvist, and
     *   D. C. Langreth, Phys. Rev. B 82, 081101(R) (2010).
     *
     *
     * If you are calculating the stress with vdW-DF, please also cite:
     *
     *   R. Sabatini, E. Kucukbenli, B. Kolb, T. Thonhauser, and
     *   S. de Gironcoli, J. Phys.: Condens. Matter 24, 424209 (2012).
     *

     Carrying out vdW-DF run using the following parameters:

     Nqs =      20    Nr_points =    1024   r_max =   100.000
     q_mesh =
               0.00001000     0.04494208     0.09755937     0.15916263
               0.23128650     0.31572767     0.41458969     0.53033537
               0.66584808     0.82450364     1.01025438     1.22772762
               1.48234092     1.78043706     2.12944203     2.53805004
               3.01644009     3.57652955     4.23227104     5.00000000

     Gradients computed in reciprocal space

     Starting wfc are   44 randomized atomic wfcs +    4 random wfc

     Self-consistent Calculation

     iteration #  1     ecut=    58.80 Ry     beta=0.10
     Davidson diagonalization with overlap
     ethr =  1.00E-02,  avg # of iterations =  4.7

[...]

     total energy              =    -622.68909220 Ry
     Harris-Foulkes estimate   =    -623.04092977 Ry
     estimated scf accuracy    <       2.28589936 Ry

[...]

     total energy              =    -622.35536548 Ry
     Harris-Foulkes estimate   =    -622.35536013 Ry
     estimated scf accuracy    <       0.00000334 Ry

     iteration # 13     ecut=    58.80 Ry     beta=0.10
     Davidson diagonalization with overlap
     ethr =  5.96E-09,  avg # of iterations =  2.8

     negative rho (up, down):  1.951E-01 0.000E+00

     End of self-consistent calculation

          k = 0.0000 0.0000 0.0000 (  3543 PWs)   bands (ev):

   -56.3475 -56.2910 -26.4768 -26.4768 -26.2386 -26.1995 -26.1995 -26.1742
     6.1641   6.2378   6.5317   6.7869   6.7869   7.4443   7.6081   7.6081
     7.7900   7.9161   8.4240  12.5724  12.9492  13.3360  14.7566  14.7566
    15.6592  16.1362  16.1362  16.6007  16.8245  17.3788  17.3788  17.9399
    22.5112  22.5719  24.3192  24.5456  26.3791  26.3791  26.7169  26.7169
    27.2770  30.9629  32.8129  33.1282  33.1797  33.1797  33.6300  34.2101

[...]

          k = 0.1107 0.1107 0.1042 (  3537 PWs)   bands (ev):

   -56.3198 -56.3181 -26.5111 -26.5029 -26.2091 -26.2071 -26.1823 -26.1738
     6.5466   6.6009   6.6205   6.6344   7.3044   7.3552   7.6362   7.6581
     7.6728   7.6913  11.9122  12.1213  13.3629  13.4984  14.3855  14.4821
    14.9897  15.5385  15.6536  16.0721  16.1349  16.2324  16.3763  16.4447
    19.7403  19.9216  21.6721  21.9785  29.7430  29.8204  30.2029  30.2406
    31.8920  32.3773  32.5595  32.7594  32.9692  33.4218  35.1339  35.3723

     the Fermi energy is    15.9491 ev

!    total energy              =    -622.35539269 Ry
     Harris-Foulkes estimate   =    -622.35536614 Ry
     estimated scf accuracy    <       0.00000010 Ry

     The total energy is the sum of the following terms:

     one-electron contribution =    -128.48068290 Ry
     hartree contribution      =     110.25862536 Ry
     xc contribution           =    -135.51525648 Ry
     ewald contribution        =    -468.60006053 Ry
     smearing contrib. (-TS)   =      -0.01801813 Ry

     convergence has been achieved in  13 iterations

     Forces acting on atoms (Ry/au):

     negative rho (up, down):  1.951E-01 0.000E+00
     atom    1 type  1   force =     0.00000000    0.00000000    0.00000000
     atom    2 type  1   force =     0.00000000    0.00000000    0.00000000
     atom    3 type  2   force =     0.00000000    0.00000000    0.00000000
     atom    4 type  2   force =     0.00000000    0.00000000    0.00000000

     Total force =     0.000000     Total SCF correction =     0.000000

     General routines

     Parallel routines

   This run was terminated on:   4:58:49  15Nov2017

   JOB DONE.