     Program PWSCF v.5.1rc2 starts on 14Nov2017 at 13:33:28

     Current dimensions of program PWSCF are:
     Max number of different atomic species (ntypx) = 10
     Max number of k-points (npk) =  40000
     Max angular momentum in pseudopotentials (lmaxx) =  3

     IMPORTANT: XC functional enforced from input :
     Exchange-correlation      = BEEF-VDW ( 1  4 27 13 2)
     Any further DFT definition will be discarded
     Please, verify this is what you really want

     Found symmetry operation: I + ( -0.5000 -0.5000  0.0000)
     This is a supercell, fractional translations are disabled

     bravais-lattice index     =            0
     lattice parameter (alat)  =       1.8897  a.u.
     unit-cell volume          =     417.5963 (a.u.)^3
     number of atoms/cell      =            4
     number of atomic types    =            2
     number of electrons       =        66.00
     number of Kohn-Sham states=           53
     kinetic-energy cutoff     =      58.7989  Ry
     charge density cutoff     =     587.9892  Ry
     convergence threshold     =      1.0E-06
     mixing beta               =       0.1000
     number of iterations used =           10  plain     mixing
     Exchange-correlation      = BEEF-VDW ( 1  4 27 13 2)

     celldm(1)=   1.889726  celldm(2)=   0.000000  celldm(3)=   0.000000
     celldm(4)=   0.000000  celldm(5)=   0.000000  celldm(6)=   0.000000

     crystal axes: (cart. coord. in units of alat)
               a(1) = (   3.877112   0.000000   0.000000 )
               a(2) = (   0.000000   3.877112   0.000000 )
               a(3) = (   0.000000   0.000000   4.116644 )

     reciprocal axes: (cart. coord. in units 2 pi/alat)
               b(1) = (  0.257924  0.000000  0.000000 )
               b(2) = (  0.000000  0.257924  0.000000 )
               b(3) = (  0.000000  0.000000  0.242916 )

     PseudoPot. # 1 for Ga read from file:
     /home/users/vossj/suncat/psp/gbrv1.5pbe/Ga.UPF
     MD5 check sum: ccd671392a58a050fbb373893b4fcd66
     Pseudo is Ultrasoft + core correction, Zval = 19.0
     Generated by new atomic code, or converted to UPF format
     Using radial grid of  871 points,  6 beta functions with:
                l(1) =   0
                l(2) =   0
                l(3) =   1
                l(4) =   1
                l(5) =   2
                l(6) =   2
     Q(r) pseudized with  8 coefficients,  rinner =    1.250   1.250   1.250
                                                       1.250   1.250

     PseudoPot. # 2 for Mo read from file:
     /home/users/vossj/suncat/psp/gbrv1.5pbe/Mo.UPF
     MD5 check sum: 30c4dcd161f5d35cd49bb5239c51a633
     Pseudo is Ultrasoft + core correction, Zval = 14.0
     Generated by new atomic code, or converted to UPF format
     Using radial grid of  889 points,  6 beta functions with:
                l(1) =   0
                l(2) =   0
                l(3) =   1
                l(4) =   1
                l(5) =   2
                l(6) =   2
     Q(r) pseudized with  6 coefficients,  rinner =    1.000   1.000   1.000
                                                       1.000   1.000

     vdW kernel table read from file vdW_kernel_table
     MD5 check sum: 095c7af220d748ca6e76c0b4c6cfb241

     atomic species   valence    mass     pseudopotential
        Ga1           19.00    69.72300     Ga( 1.00)
        Mo1           14.00    95.94000     Mo( 1.00)

     16 Sym. Ops., with inversion, found

   Cartesian axes

     site n.     atom                  positions (alat units)
         1           Ga1 tau(   1) = (   0.0000000   0.0000000   0.0000000  )
         2           Ga1 tau(   2) = (   1.9385561   1.9385561   0.0000000  )
         3           Mo1 tau(   3) = (   1.9385561   0.0000000   2.0583222  )
         4           Mo1 tau(   4) = (   0.0000000   1.9385561   2.0583222  )

     number of k points=    75  Fermi-Dirac smearing, width (Ry)=  0.0073
                       cart. coord. in units 2pi/alat
        k(    1) = (   0.0000000   0.0000000   0.0000000), wk =   0.0027435
        k(    2) = (   0.0000000   0.0000000   0.0269907), wk =   0.0054870
        k(    3) = (   0.0000000   0.0000000   0.0539814), wk =   0.0054870
        k(    4) = (   0.0000000   0.0000000   0.0809721), wk =   0.0054870
        k(    5) = (   0.0000000   0.0000000   0.1079628), wk =   0.0054870
        k(    6) = (   0.0000000   0.0286582   0.0000000), wk =   0.0109739
        k(    7) = (   0.0000000   0.0286582   0.0269907), wk =   0.0219479
        k(    8) = (   0.0000000   0.0286582   0.0539814), wk =   0.0219479
        k(    9) = (   0.0000000   0.0286582   0.0809721), wk =   0.0219479
        k(   10) = (   0.0000000   0.0286582   0.1079628), wk =   0.0219479
        k(   11) = (   0.0000000   0.0573164   0.0000000), wk =   0.0109739
        k(   12) = (   0.0000000   0.0573164   0.0269907), wk =   0.0219479
        k(   13) = (   0.0000000   0.0573164   0.0539814), wk =   0.0219479
        k(   14) = (   0.0000000   0.0573164   0.0809721), wk =   0.0219479
        k(   15) = (   0.0000000   0.0573164   0.1079628), wk =   0.0219479
        k(   16) = (   0.0000000   0.0859746   0.0000000), wk =   0.0109739
        k(   17) = (   0.0000000   0.0859746   0.0269907), wk =   0.0219479
        k(   18) = (   0.0000000   0.0859746   0.0539814), wk =   0.0219479
        k(   19) = (   0.0000000   0.0859746   0.0809721), wk =   0.0219479
        k(   20) = (   0.0000000   0.0859746   0.1079628), wk =   0.0219479
        k(   21) = (   0.0000000   0.1146329   0.0000000), wk =   0.0109739
        k(   22) = (   0.0000000   0.1146329   0.0269907), wk =   0.0219479
        k(   23) = (   0.0000000   0.1146329   0.0539814), wk =   0.0219479
        k(   24) = (   0.0000000   0.1146329   0.0809721), wk =   0.0219479
        k(   25) = (   0.0000000   0.1146329   0.1079628), wk =   0.0219479
        k(   26) = (   0.0286582   0.0286582   0.0000000), wk =   0.0109739
        k(   27) = (   0.0286582   0.0286582   0.0269907), wk =   0.0219479
        k(   28) = (   0.0286582   0.0286582   0.0539814), wk =   0.0219479
        k(   29) = (   0.0286582   0.0286582   0.0809721), wk =   0.0219479
        k(   30) = (   0.0286582   0.0286582   0.1079628), wk =   0.0219479
        k(   31) = (   0.0286582   0.0573164   0.0000000), wk =   0.0219479
        k(   32) = (   0.0286582   0.0573164   0.0269907), wk =   0.0438957
        k(   33) = (   0.0286582   0.0573164   0.0539814), wk =   0.0438957
        k(   34) = (   0.0286582   0.0573164   0.0809721), wk =   0.0438957
        k(   35) = (   0.0286582   0.0573164   0.1079628), wk =   0.0438957
        k(   36) = (   0.0286582   0.0859746   0.0000000), wk =   0.0219479
        k(   37) = (   0.0286582   0.0859746   0.0269907), wk =   0.0438957
        k(   38) = (   0.0286582   0.0859746   0.0539814), wk =   0.0438957
        k(   39) = (   0.0286582   0.0859746   0.0809721), wk =   0.0438957
        k(   40) = (   0.0286582   0.0859746   0.1079628), wk =   0.0438957
        k(   41) = (   0.0286582   0.1146329   0.0000000), wk =   0.0219479
        k(   42) = (   0.0286582   0.1146329   0.0269907), wk =   0.0438957
        k(   43) = (   0.0286582   0.1146329   0.0539814), wk =   0.0438957
        k(   44) = (   0.0286582   0.1146329   0.0809721), wk =   0.0438957
        k(   45) = (   0.0286582   0.1146329   0.1079628), wk =   0.0438957
        k(   46) = (   0.0573164   0.0573164   0.0000000), wk =   0.0109739
        k(   47) = (   0.0573164   0.0573164   0.0269907), wk =   0.0219479
        k(   48) = (   0.0573164   0.0573164   0.0539814), wk =   0.0219479
        k(   49) = (   0.0573164   0.0573164   0.0809721), wk =   0.0219479
        k(   50) = (   0.0573164   0.0573164   0.1079628), wk =   0.0219479
        k(   51) = (   0.0573164   0.0859746   0.0000000), wk =   0.0219479
        k(   52) = (   0.0573164   0.0859746   0.0269907), wk =   0.0438957
        k(   53) = (   0.0573164   0.0859746   0.0539814), wk =   0.0438957
        k(   54) = (   0.0573164   0.0859746   0.0809721), wk =   0.0438957
        k(   55) = (   0.0573164   0.0859746   0.1079628), wk =   0.0438957
        k(   56) = (   0.0573164   0.1146329   0.0000000), wk =   0.0219479
        k(   57) = (   0.0573164   0.1146329   0.0269907), wk =   0.0438957
        k(   58) = (   0.0573164   0.1146329   0.0539814), wk =   0.0438957
        k(   59) = (   0.0573164   0.1146329   0.0809721), wk =   0.0438957
        k(   60) = (   0.0573164   0.1146329   0.1079628), wk =   0.0438957
        k(   61) = (   0.0859746   0.0859746   0.0000000), wk =   0.0109739
        k(   62) = (   0.0859746   0.0859746   0.0269907), wk =   0.0219479
        k(   63) = (   0.0859746   0.0859746   0.0539814), wk =   0.0219479
        k(   64) = (   0.0859746   0.0859746   0.0809721), wk =   0.0219479
        k(   65) = (   0.0859746   0.0859746   0.1079628), wk =   0.0219479
        k(   66) = (   0.0859746   0.1146329   0.0000000), wk =   0.0219479
        k(   67) = (   0.0859746   0.1146329   0.0269907), wk =   0.0438957
        k(   68) = (   0.0859746   0.1146329   0.0539814), wk =   0.0438957
        k(   69) = (   0.0859746   0.1146329   0.0809721), wk =   0.0438957
        k(   70) = (   0.0859746   0.1146329   0.1079628), wk =   0.0438957
        k(   71) = (   0.1146329   0.1146329   0.0000000), wk =   0.0109739
        k(   72) = (   0.1146329   0.1146329   0.0269907), wk =   0.0219479
        k(   73) = (   0.1146329   0.1146329   0.0539814), wk =   0.0219479
        k(   74) = (   0.1146329   0.1146329   0.0809721), wk =   0.0219479
        k(   75) = (   0.1146329   0.1146329   0.1079628), wk =   0.0219479

     Largest allocated arrays     est. size (Mb)     dimensions
     Largest temporary arrays     est. size (Mb)     dimensions

     Initial potential from superposition of free atoms

     starting charge   63.99787, renormalised to   66.00000

     *
     * You are using vdW-DF for exchange-correlation in this calculation.
     * Please cite the following three references that made this development
     * possible:
     *
     *   M. Dion, H. Rydberg, E. Schroder, D. C. Langreth, and
     *   B. I. Lundqvist, Phys. Rev. Lett. 92, 246401 (2004).
     *
     *   T. Thonhauser, V. R. Cooper, S. Li, A. Puzder, P. Hyldgaard, and
     *   D. C. Langreth, Phys. Rev. B 76, 125112 (2007).
     *
     *   G. Roman-Perez and J. M. Soler, Phys. Rev. Lett. 103, 096102 (2009).
     *
     *
     * If you are using vdW-DF2, please also cite:
     *
     *   K. Lee, E. D. Murray, L. Kong, B. I. Lundqvist, and
     *   D. C. Langreth, Phys. Rev. B 82, 081101(R) (2010).
     *
     *
     * If you are calculating the stress with vdW-DF, please also cite:
     *
     *   R. Sabatini, E. Kucukbenli, B. Kolb, T. Thonhauser, and
     *   S. de Gironcoli, J. Phys.: Condens. Matter 24, 424209 (2012).
     *

     Carrying out vdW-DF run using the following parameters:

     Nqs =      20    Nr_points =    1024   r_max =   100.000
     q_mesh =
               0.00001000     0.04494208     0.09755937     0.15916263
               0.23128650     0.31572767     0.41458969     0.53033537
               0.66584808     0.82450364     1.01025438     1.22772762
               1.48234092     1.78043706     2.12944203     2.53805004
               3.01644009     3.57652955     4.23227104     5.00000000

     Gradients computed in reciprocal space

     Starting wfc are   50 randomized atomic wfcs +    3 random wfc

     Self-consistent Calculation

     iteration #  1     ecut=    58.80 Ry     beta=0.10
     Davidson diagonalization with overlap
     ethr =  1.00E-02,  avg # of iterations =  4.5

     total energy              =   -1113.59069299 Ry
     Harris-Foulkes estimate   =   -1114.55791645 Ry
     estimated scf accuracy    <       5.42623730 Ry

[...]

     total energy              =   -1113.18024362 Ry
     Harris-Foulkes estimate   =   -1113.18025502 Ry
     estimated scf accuracy    <       0.00002931 Ry

     iteration # 20     ecut=    58.80 Ry     beta=0.10
     Davidson diagonalization with overlap
     ethr =  4.44E-08,  avg # of iterations =  2.0

     End of self-consistent calculation

          k = 0.0000 0.0000 0.0000 (  3131 PWs)   bands (ev):

   -77.0500 -77.0500 -77.0439 -77.0439 -77.0029 -77.0019 -43.6187 -43.4091
   -17.9661 -17.9661 -17.6818 -17.4678 -17.1840 -17.1840   2.2788   2.3553
     2.4665   2.4959   2.4959   2.6915   2.6915   2.7038   2.7553   2.9024
     6.8777  12.1794  14.0030  14.2681  15.9367  15.9367  16.5509  16.8342
    16.8342  16.9403  19.0216  19.0216  20.4939  20.5908  22.3502  22.4298
    24.0352  26.0439  26.0439  26.3076  28.4958  28.4958  30.6845  31.0236
    32.3929  32.9763  34.3322  34.3322  34.6772

[...]

          k = 0.1146 0.1146 0.1080 (  3181 PWs)   bands (ev):

   -77.0505 -77.0503 -77.0437 -77.0435 -77.0024 -77.0024 -43.5151 -43.5087
   -18.0857 -18.0634 -17.5882 -17.5815 -17.1288 -17.1040   2.4206   2.4360
     2.4716   2.4760   2.6044   2.6157   2.7051   2.7103   2.7419   2.7519
    10.4516  10.6392  14.0297  14.1355  14.8118  15.0362  16.0364  16.2484
    18.0958  18.1134  18.1664  18.3486  19.2895  19.3019  20.4132  20.5315
    25.0770  25.0938  29.0191  29.8240  29.9269  30.0639  31.6188  31.8881
    33.2606  33.6000  34.4724  34.7638  34.9219

     the Fermi energy is    17.8655 ev

!    total energy              =   -1113.18025700 Ry
     Harris-Foulkes estimate   =   -1113.18024803 Ry
     estimated scf accuracy    <       0.00000003 Ry

     The total energy is the sum of the following terms:

     one-electron contribution =    -675.65826733 Ry
     hartree contribution      =     377.49552476 Ry
     xc contribution           =    -139.94574354 Ry
     ewald contribution        =    -675.06245377 Ry
     smearing contrib. (-TS)   =      -0.00931713 Ry

     convergence has been achieved in  20 iterations

     Forces acting on atoms (Ry/au):

     atom    1 type  1   force =     0.00000000    0.00000000    0.00000000
     atom    2 type  1   force =     0.00000000    0.00000000    0.00000000
     atom    3 type  2   force =     0.00000000    0.00000000    0.00000000
     atom    4 type  2   force =     0.00000000    0.00000000    0.00000000

     Total force =     0.000000     Total SCF correction =     0.000000

     General routines

     Parallel routines

   This run was terminated on:  13:34:36  14Nov2017

   JOB DONE.