     Program PWSCF v.5.1rc2 starts on 14Nov2017 at  1: 3:45

     Current dimensions of program PWSCF are:
     Max number of different atomic species (ntypx) = 10
     Max number of k-points (npk) =  40000
     Max angular momentum in pseudopotentials (lmaxx) =  3

     IMPORTANT: XC functional enforced from input :
     Exchange-correlation      = BEEF-VDW ( 1  4 27 13 2)
     Any further DFT definition will be discarded
     Please, verify this is what you really want

     Found symmetry operation: I + ( -0.5000 -0.5000  0.0000)
     This is a supercell, fractional translations are disabled

     bravais-lattice index     =            0
     lattice parameter (alat)  =       1.8897  a.u.
     unit-cell volume          =     415.0856 (a.u.)^3
     number of atoms/cell      =            4
     number of atomic types    =            2
     number of electrons       =        34.00
     number of Kohn-Sham states=           37
     kinetic-energy cutoff     =      58.7989  Ry
     charge density cutoff     =     587.9892  Ry
     convergence threshold     =      1.0E-06
     mixing beta               =       0.1000
     number of iterations used =           10  plain     mixing
     Exchange-correlation      = BEEF-VDW ( 1  4 27 13 2)

     celldm(1)=   1.889726  celldm(2)=   0.000000  celldm(3)=   0.000000
     celldm(4)=   0.000000  celldm(5)=   0.000000  celldm(6)=   0.000000

     crystal axes: (cart. coord. in units of alat)
               a(1) = (   3.841089   0.000000   0.000000 )
               a(2) = (   0.000000   3.841089   0.000000 )
               a(3) = (   0.000000   0.000000   4.169005 )

     reciprocal axes: (cart. coord. in units 2 pi/alat)
               b(1) = (  0.260343  0.000000  0.000000 )
               b(2) = (  0.000000  0.260343  0.000000 )
               b(3) = (  0.000000  0.000000  0.239865 )

     PseudoPot. # 1 for Al read from file:
     /home/users/vossj/suncat/psp/gbrv1.5pbe/Al.UPF
     MD5 check sum: 0a6289f5291fc8f409219462bc851e1f
     Pseudo is Ultrasoft + core correction, Zval =  3.0
     Generated by new atomic code, or converted to UPF format
     Using radial grid of  893 points,  3 beta functions with:
                l(1) =   0
                l(2) =   1
                l(3) =   2
     Q(r) pseudized with  8 coefficients,  rinner =    0.900   0.900   0.900
                                                       0.900   0.900

     PseudoPot. # 2 for Mo read from file:
     /home/users/vossj/suncat/psp/gbrv1.5pbe/Mo.UPF
     MD5 check sum: 30c4dcd161f5d35cd49bb5239c51a633
     Pseudo is Ultrasoft + core correction, Zval = 14.0
     Generated by new atomic code, or converted to UPF format
     Using radial grid of  889 points,  6 beta functions with:
                l(1) =   0
                l(2) =   0
                l(3) =   1
                l(4) =   1
                l(5) =   2
                l(6) =   2
     Q(r) pseudized with  6 coefficients,  rinner =    1.000   1.000   1.000
                                                       1.000   1.000

     vdW kernel table read from file vdW_kernel_table
     MD5 check sum: 095c7af220d748ca6e76c0b4c6cfb241

     atomic species   valence    mass     pseudopotential
        Al1            3.00    26.98154     Al( 1.00)
        Mo1           14.00    95.94000     Mo( 1.00)

     16 Sym. Ops., with inversion, found

   Cartesian axes

     site n.     atom                  positions (alat units)
         1           Al1 tau(   1) = (   0.0000000   0.0000000   0.0000000  )
         2           Al1 tau(   2) = (   1.9205443   1.9205443   0.0000000  )
         3           Mo1 tau(   3) = (   1.9205443   0.0000000   2.0845023  )
         4           Mo1 tau(   4) = (   0.0000000   1.9205443   2.0845023  )

     number of k points=    75  Fermi-Dirac smearing, width (Ry)=  0.0073
                       cart. coord. in units 2pi/alat
        k(    1) = (   0.0000000   0.0000000   0.0000000), wk =   0.0027435
        k(    2) = (   0.0000000   0.0000000   0.0266517), wk =   0.0054870
        k(    3) = (   0.0000000   0.0000000   0.0533034), wk =   0.0054870
        k(    4) = (   0.0000000   0.0000000   0.0799551), wk =   0.0054870
        k(    5) = (   0.0000000   0.0000000   0.1066068), wk =   0.0054870
        k(    6) = (   0.0000000   0.0289270   0.0000000), wk =   0.0109739
        k(    7) = (   0.0000000   0.0289270   0.0266517), wk =   0.0219479
        k(    8) = (   0.0000000   0.0289270   0.0533034), wk =   0.0219479
        k(    9) = (   0.0000000   0.0289270   0.0799551), wk =   0.0219479
        k(   10) = (   0.0000000   0.0289270   0.1066068), wk =   0.0219479
        k(   11) = (   0.0000000   0.0578540   0.0000000), wk =   0.0109739
        k(   12) = (   0.0000000   0.0578540   0.0266517), wk =   0.0219479
        k(   13) = (   0.0000000   0.0578540   0.0533034), wk =   0.0219479
        k(   14) = (   0.0000000   0.0578540   0.0799551), wk =   0.0219479
        k(   15) = (   0.0000000   0.0578540   0.1066068), wk =   0.0219479
        k(   16) = (   0.0000000   0.0867810   0.0000000), wk =   0.0109739
        k(   17) = (   0.0000000   0.0867810   0.0266517), wk =   0.0219479
        k(   18) = (   0.0000000   0.0867810   0.0533034), wk =   0.0219479
        k(   19) = (   0.0000000   0.0867810   0.0799551), wk =   0.0219479
        k(   20) = (   0.0000000   0.0867810   0.1066068), wk =   0.0219479
        k(   21) = (   0.0000000   0.1157079   0.0000000), wk =   0.0109739
        k(   22) = (   0.0000000   0.1157079   0.0266517), wk =   0.0219479
        k(   23) = (   0.0000000   0.1157079   0.0533034), wk =   0.0219479
        k(   24) = (   0.0000000   0.1157079   0.0799551), wk =   0.0219479
        k(   25) = (   0.0000000   0.1157079   0.1066068), wk =   0.0219479
        k(   26) = (   0.0289270   0.0289270   0.0000000), wk =   0.0109739
        k(   27) = (   0.0289270   0.0289270   0.0266517), wk =   0.0219479
        k(   28) = (   0.0289270   0.0289270   0.0533034), wk =   0.0219479
        k(   29) = (   0.0289270   0.0289270   0.0799551), wk =   0.0219479
        k(   30) = (   0.0289270   0.0289270   0.1066068), wk =   0.0219479
        k(   31) = (   0.0289270   0.0578540   0.0000000), wk =   0.0219479
        k(   32) = (   0.0289270   0.0578540   0.0266517), wk =   0.0438957
        k(   33) = (   0.0289270   0.0578540   0.0533034), wk =   0.0438957
        k(   34) = (   0.0289270   0.0578540   0.0799551), wk =   0.0438957
        k(   35) = (   0.0289270   0.0578540   0.1066068), wk =   0.0438957
        k(   36) = (   0.0289270   0.0867810   0.0000000), wk =   0.0219479
        k(   37) = (   0.0289270   0.0867810   0.0266517), wk =   0.0438957
        k(   38) = (   0.0289270   0.0867810   0.0533034), wk =   0.0438957
        k(   39) = (   0.0289270   0.0867810   0.0799551), wk =   0.0438957
        k(   40) = (   0.0289270   0.0867810   0.1066068), wk =   0.0438957
        k(   41) = (   0.0289270   0.1157079   0.0000000), wk =   0.0219479
        k(   42) = (   0.0289270   0.1157079   0.0266517), wk =   0.0438957
        k(   43) = (   0.0289270   0.1157079   0.0533034), wk =   0.0438957
        k(   44) = (   0.0289270   0.1157079   0.0799551), wk =   0.0438957
        k(   45) = (   0.0289270   0.1157079   0.1066068), wk =   0.0438957
        k(   46) = (   0.0578540   0.0578540   0.0000000), wk =   0.0109739
        k(   47) = (   0.0578540   0.0578540   0.0266517), wk =   0.0219479
        k(   48) = (   0.0578540   0.0578540   0.0533034), wk =   0.0219479
        k(   49) = (   0.0578540   0.0578540   0.0799551), wk =   0.0219479
        k(   50) = (   0.0578540   0.0578540   0.1066068), wk =   0.0219479
        k(   51) = (   0.0578540   0.0867810   0.0000000), wk =   0.0219479
        k(   52) = (   0.0578540   0.0867810   0.0266517), wk =   0.0438957
        k(   53) = (   0.0578540   0.0867810   0.0533034), wk =   0.0438957
        k(   54) = (   0.0578540   0.0867810   0.0799551), wk =   0.0438957
        k(   55) = (   0.0578540   0.0867810   0.1066068), wk =   0.0438957
        k(   56) = (   0.0578540   0.1157079   0.0000000), wk =   0.0219479
        k(   57) = (   0.0578540   0.1157079   0.0266517), wk =   0.0438957
        k(   58) = (   0.0578540   0.1157079   0.0533034), wk =   0.0438957
        k(   59) = (   0.0578540   0.1157079   0.0799551), wk =   0.0438957
        k(   60) = (   0.0578540   0.1157079   0.1066068), wk =   0.0438957
        k(   61) = (   0.0867810   0.0867810   0.0000000), wk =   0.0109739
        k(   62) = (   0.0867810   0.0867810   0.0266517), wk =   0.0219479
        k(   63) = (   0.0867810   0.0867810   0.0533034), wk =   0.0219479
        k(   64) = (   0.0867810   0.0867810   0.0799551), wk =   0.0219479
        k(   65) = (   0.0867810   0.0867810   0.1066068), wk =   0.0219479
        k(   66) = (   0.0867810   0.1157079   0.0000000), wk =   0.0219479
        k(   67) = (   0.0867810   0.1157079   0.0266517), wk =   0.0438957
        k(   68) = (   0.0867810   0.1157079   0.0533034), wk =   0.0438957
        k(   69) = (   0.0867810   0.1157079   0.0799551), wk =   0.0438957
        k(   70) = (   0.0867810   0.1157079   0.1066068), wk =   0.0438957
        k(   71) = (   0.1157079   0.1157079   0.0000000), wk =   0.0109739
        k(   72) = (   0.1157079   0.1157079   0.0266517), wk =   0.0219479
        k(   73) = (   0.1157079   0.1157079   0.0533034), wk =   0.0219479
        k(   74) = (   0.1157079   0.1157079   0.0799551), wk =   0.0219479
        k(   75) = (   0.1157079   0.1157079   0.1066068), wk =   0.0219479

     Largest allocated arrays     est. size (Mb)     dimensions
     Largest temporary arrays     est. size (Mb)     dimensions

     Initial potential from superposition of free atoms

     starting charge   33.99294, renormalised to   34.00000

     *
     * You are using vdW-DF for exchange-correlation in this calculation.
     * Please cite the following three references that made this development
     * possible:
     *
     *   M. Dion, H. Rydberg, E. Schroder, D. C. Langreth, and
     *   B. I. Lundqvist, Phys. Rev. Lett. 92, 246401 (2004).
     *
     *   T. Thonhauser, V. R. Cooper, S. Li, A. Puzder, P. Hyldgaard, and
     *   D. C. Langreth, Phys. Rev. B 76, 125112 (2007).
     *
     *   G. Roman-Perez and J. M. Soler, Phys. Rev. Lett. 103, 096102 (2009).
     *
     *
     * If you are using vdW-DF2, please also cite:
     *
     *   K. Lee, E. D. Murray, L. Kong, B. I. Lundqvist, and
     *   D. C. Langreth, Phys. Rev. B 82, 081101(R) (2010).
     *
     *
     * If you are calculating the stress with vdW-DF, please also cite:
     *
     *   R. Sabatini, E. Kucukbenli, B. Kolb, T. Thonhauser, and
     *   S. de Gironcoli, J. Phys.: Condens. Matter 24, 424209 (2012).
     *

     Carrying out vdW-DF run using the following parameters:

     Nqs =      20    Nr_points =    1024   r_max =   100.000
     q_mesh =
               0.00001000     0.04494208     0.09755937     0.15916263
               0.23128650     0.31572767     0.41458969     0.53033537
               0.66584808     0.82450364     1.01025438     1.22772762
               1.48234092     1.78043706     2.12944203     2.53805004
               3.01644009     3.57652955     4.23227104     5.00000000

     Gradients computed in reciprocal space

     Starting wfc are   34 randomized atomic wfcs +    3 random wfc

     Self-consistent Calculation

     iteration #  1     ecut=    58.80 Ry     beta=0.10
     Davidson diagonalization with overlap
     ethr =  1.00E-02,  avg # of iterations =  4.4

     Threshold (ethr) on eigenvalues was too large:
     Diagonalizing with lowered threshold

     Davidson diagonalization with overlap
     ethr =  3.00E-04,  avg # of iterations =  1.2

     total energy              =    -293.82731527 Ry
     Harris-Foulkes estimate   =    -293.83995520 Ry
     estimated scf accuracy    <       0.10161521 Ry

[...]

     total energy              =    -293.81710897 Ry
     Harris-Foulkes estimate   =    -293.81711152 Ry
     estimated scf accuracy    <       0.00002332 Ry

     iteration #  8     ecut=    58.80 Ry     beta=0.10
     Davidson diagonalization with overlap
     ethr =  6.86E-08,  avg # of iterations =  1.2

     End of self-consistent calculation

          k = 0.0000 0.0000 0.0000 (  3107 PWs)   bands (ev):

   -46.5121 -46.2794 -20.8898 -20.8898 -20.5357 -20.3007 -20.0439 -20.0439
     4.9027   9.4432  10.7809  11.2178  12.5088  12.5088  13.3302  13.6704
    14.2949  14.2949  16.0672  16.0672  17.8320  19.6628  19.8771  19.8941
    20.8969  22.3233  23.7695  23.7695  24.0149  25.7364  25.7364  27.9800
    28.7708  28.7708  29.5848  29.6119  31.4166

[...]

          k = 0.1157 0.1157 0.1066 (  3160 PWs)   bands (ev):

   -46.3971 -46.3901 -21.0210 -20.9970 -20.4294 -20.4221 -19.9839 -19.9570
     8.3648   8.5154  11.2306  11.2455  11.8116  11.9771  13.3287  13.5363
    14.6929  14.7152  15.2346  15.4385  16.3988  16.4188  18.1064  18.1884
    21.8086  21.8226  25.8189  26.3945  27.0796  27.5932  27.6667  28.6977
    29.3398  29.7324  30.4468  30.5378  30.9649

     the Fermi energy is    14.8263 ev

!    total energy              =    -293.81711691 Ry
     Harris-Foulkes estimate   =    -293.81711174 Ry
     estimated scf accuracy    <       0.00000060 Ry

     The total energy is the sum of the following terms:

     one-electron contribution =     -98.65577892 Ry
     hartree contribution      =      65.43756636 Ry
     xc contribution           =     -49.26701156 Ry
     ewald contribution        =    -211.32439614 Ry
     smearing contrib. (-TS)   =      -0.00749664 Ry

     convergence has been achieved in   8 iterations

     Forces acting on atoms (Ry/au):

     atom    1 type  1   force =     0.00000000    0.00000000    0.00000000
     atom    2 type  1   force =     0.00000000    0.00000000    0.00000000
     atom    3 type  2   force =     0.00000000    0.00000000    0.00000000
     atom    4 type  2   force =     0.00000000    0.00000000    0.00000000

     Total force =     0.000000     Total SCF correction =     0.000000

     General routines

     Parallel routines

   This run was terminated on:   1: 4: 4  14Nov2017

   JOB DONE.