     Program PWSCF v.5.1rc2 starts on 15Nov2017 at  1: 2:42

     Current dimensions of program PWSCF are:
     Max number of different atomic species (ntypx) = 10
     Max number of k-points (npk) =  40000
     Max angular momentum in pseudopotentials (lmaxx) =  3

     IMPORTANT: XC functional enforced from input :
     Exchange-correlation      = BEEF-VDW ( 1  4 27 13 2)
     Any further DFT definition will be discarded
     Please, verify this is what you really want

     Found symmetry operation: I + ( -0.5000 -0.5000  0.0000)
     This is a supercell, fractional translations are disabled

     bravais-lattice index     =            0
     lattice parameter (alat)  =       1.8897  a.u.
     unit-cell volume          =     404.8930 (a.u.)^3
     number of atoms/cell      =            4
     number of atomic types    =            2
     number of electrons       =        64.00
     number of Kohn-Sham states=           52
     kinetic-energy cutoff     =      58.7989  Ry
     charge density cutoff     =     587.9892  Ry
     convergence threshold     =      1.0E-06
     mixing beta               =       0.1000
     number of iterations used =           10  plain     mixing
     Exchange-correlation      = BEEF-VDW ( 1  4 27 13 2)

     celldm(1)=   1.889726  celldm(2)=   0.000000  celldm(3)=   0.000000
     celldm(4)=   0.000000  celldm(5)=   0.000000  celldm(6)=   0.000000

     crystal axes: (cart. coord. in units of alat)
               a(1) = (   3.890411   0.000000   0.000000 )
               a(2) = (   0.000000   3.890411   0.000000 )
               a(3) = (   0.000000   0.000000   3.964175 )

     reciprocal axes: (cart. coord. in units 2 pi/alat)
               b(1) = (  0.257042  0.000000  0.000000 )
               b(2) = (  0.000000  0.257042  0.000000 )
               b(3) = (  0.000000  0.000000  0.252259 )

     PseudoPot. # 1 for Os read from file:
     /home/users/vossj/suncat/psp/gbrv1.5pbe/Os.UPF
     MD5 check sum: a3fb40a04f0c37c25c34bbc47164c9a8
     Pseudo is Ultrasoft + core correction, Zval = 16.0
     Generated by new atomic code, or converted to UPF format
     Using radial grid of  983 points,  8 beta functions with:
                l(1) =   0
                l(2) =   0
                l(3) =   1
                l(4) =   1
                l(5) =   2
                l(6) =   2
                l(7) =   3
                l(8) =   3
     Q(r) pseudized with  8 coefficients,  rinner =    1.150   1.150   1.150
                                                       1.150   1.150   1.150
                                                       1.150

     PseudoPot. # 2 for Pt read from file:
     /home/users/vossj/suncat/psp/gbrv1.5pbe/Pt.UPF
     MD5 check sum: f09d6de1a584b5a045c4fc126da2d0c4
     Pseudo is Ultrasoft + core correction, Zval = 16.0
     Generated by new atomic code, or converted to UPF format
     Using radial grid of  985 points,  6 beta functions with:
                l(1) =   0
                l(2) =   0
                l(3) =   1
                l(4) =   1
                l(5) =   2
                l(6) =   2
     Q(r) pseudized with  8 coefficients,  rinner =    1.300   1.300   1.300
                                                       1.300   1.300

     vdW kernel table read from file vdW_kernel_table
     MD5 check sum: 095c7af220d748ca6e76c0b4c6cfb241

     atomic species   valence    mass     pseudopotential
        Os1           16.00   190.20000     Os( 1.00)
        Pt1           16.00   195.08000     Pt( 1.00)

     16 Sym. Ops., with inversion, found

   Cartesian axes

     site n.     atom                  positions (alat units)
         1           Os1 tau(   1) = (   0.0000000   0.0000000   0.0000000  )
         2           Os1 tau(   2) = (   1.9452054   1.9452054   0.0000000  )
         3           Pt1 tau(   3) = (   1.9452054   0.0000000   1.9820873  )
         4           Pt1 tau(   4) = (   0.0000000   1.9452054   1.9820873  )

     number of k points=    75  Fermi-Dirac smearing, width (Ry)=  0.0073
                       cart. coord. in units 2pi/alat
        k(    1) = (   0.0000000   0.0000000   0.0000000), wk =   0.0027435
        k(    2) = (   0.0000000   0.0000000   0.0280288), wk =   0.0054870
        k(    3) = (   0.0000000   0.0000000   0.0560576), wk =   0.0054870
        k(    4) = (   0.0000000   0.0000000   0.0840864), wk =   0.0054870
        k(    5) = (   0.0000000   0.0000000   0.1121153), wk =   0.0054870
        k(    6) = (   0.0000000   0.0285603   0.0000000), wk =   0.0109739
        k(    7) = (   0.0000000   0.0285603   0.0280288), wk =   0.0219479
        k(    8) = (   0.0000000   0.0285603   0.0560576), wk =   0.0219479
        k(    9) = (   0.0000000   0.0285603   0.0840864), wk =   0.0219479
        k(   10) = (   0.0000000   0.0285603   0.1121153), wk =   0.0219479
        k(   11) = (   0.0000000   0.0571205   0.0000000), wk =   0.0109739
        k(   12) = (   0.0000000   0.0571205   0.0280288), wk =   0.0219479
        k(   13) = (   0.0000000   0.0571205   0.0560576), wk =   0.0219479
        k(   14) = (   0.0000000   0.0571205   0.0840864), wk =   0.0219479
        k(   15) = (   0.0000000   0.0571205   0.1121153), wk =   0.0219479
        k(   16) = (   0.0000000   0.0856808   0.0000000), wk =   0.0109739
        k(   17) = (   0.0000000   0.0856808   0.0280288), wk =   0.0219479
        k(   18) = (   0.0000000   0.0856808   0.0560576), wk =   0.0219479
        k(   19) = (   0.0000000   0.0856808   0.0840864), wk =   0.0219479
        k(   20) = (   0.0000000   0.0856808   0.1121153), wk =   0.0219479
        k(   21) = (   0.0000000   0.1142410   0.0000000), wk =   0.0109739
        k(   22) = (   0.0000000   0.1142410   0.0280288), wk =   0.0219479
        k(   23) = (   0.0000000   0.1142410   0.0560576), wk =   0.0219479
        k(   24) = (   0.0000000   0.1142410   0.0840864), wk =   0.0219479
        k(   25) = (   0.0000000   0.1142410   0.1121153), wk =   0.0219479
        k(   26) = (   0.0285603   0.0285603   0.0000000), wk =   0.0109739
        k(   27) = (   0.0285603   0.0285603   0.0280288), wk =   0.0219479
        k(   28) = (   0.0285603   0.0285603   0.0560576), wk =   0.0219479
        k(   29) = (   0.0285603   0.0285603   0.0840864), wk =   0.0219479
        k(   30) = (   0.0285603   0.0285603   0.1121153), wk =   0.0219479
        k(   31) = (   0.0285603   0.0571205   0.0000000), wk =   0.0219479
        k(   32) = (   0.0285603   0.0571205   0.0280288), wk =   0.0438957
        k(   33) = (   0.0285603   0.0571205   0.0560576), wk =   0.0438957
        k(   34) = (   0.0285603   0.0571205   0.0840864), wk =   0.0438957
        k(   35) = (   0.0285603   0.0571205   0.1121153), wk =   0.0438957
        k(   36) = (   0.0285603   0.0856808   0.0000000), wk =   0.0219479
        k(   37) = (   0.0285603   0.0856808   0.0280288), wk =   0.0438957
        k(   38) = (   0.0285603   0.0856808   0.0560576), wk =   0.0438957
        k(   39) = (   0.0285603   0.0856808   0.0840864), wk =   0.0438957
        k(   40) = (   0.0285603   0.0856808   0.1121153), wk =   0.0438957
        k(   41) = (   0.0285603   0.1142410   0.0000000), wk =   0.0219479
        k(   42) = (   0.0285603   0.1142410   0.0280288), wk =   0.0438957
        k(   43) = (   0.0285603   0.1142410   0.0560576), wk =   0.0438957
        k(   44) = (   0.0285603   0.1142410   0.0840864), wk =   0.0438957
        k(   45) = (   0.0285603   0.1142410   0.1121153), wk =   0.0438957
        k(   46) = (   0.0571205   0.0571205   0.0000000), wk =   0.0109739
        k(   47) = (   0.0571205   0.0571205   0.0280288), wk =   0.0219479
        k(   48) = (   0.0571205   0.0571205   0.0560576), wk =   0.0219479
        k(   49) = (   0.0571205   0.0571205   0.0840864), wk =   0.0219479
        k(   50) = (   0.0571205   0.0571205   0.1121153), wk =   0.0219479
        k(   51) = (   0.0571205   0.0856808   0.0000000), wk =   0.0219479
        k(   52) = (   0.0571205   0.0856808   0.0280288), wk =   0.0438957
        k(   53) = (   0.0571205   0.0856808   0.0560576), wk =   0.0438957
        k(   54) = (   0.0571205   0.0856808   0.0840864), wk =   0.0438957
        k(   55) = (   0.0571205   0.0856808   0.1121153), wk =   0.0438957
        k(   56) = (   0.0571205   0.1142410   0.0000000), wk =   0.0219479
        k(   57) = (   0.0571205   0.1142410   0.0280288), wk =   0.0438957
        k(   58) = (   0.0571205   0.1142410   0.0560576), wk =   0.0438957
        k(   59) = (   0.0571205   0.1142410   0.0840864), wk =   0.0438957
        k(   60) = (   0.0571205   0.1142410   0.1121153), wk =   0.0438957
        k(   61) = (   0.0856808   0.0856808   0.0000000), wk =   0.0109739
        k(   62) = (   0.0856808   0.0856808   0.0280288), wk =   0.0219479
        k(   63) = (   0.0856808   0.0856808   0.0560576), wk =   0.0219479
        k(   64) = (   0.0856808   0.0856808   0.0840864), wk =   0.0219479
        k(   65) = (   0.0856808   0.0856808   0.1121153), wk =   0.0219479
        k(   66) = (   0.0856808   0.1142410   0.0000000), wk =   0.0219479
        k(   67) = (   0.0856808   0.1142410   0.0280288), wk =   0.0438957
        k(   68) = (   0.0856808   0.1142410   0.0560576), wk =   0.0438957
        k(   69) = (   0.0856808   0.1142410   0.0840864), wk =   0.0438957
        k(   70) = (   0.0856808   0.1142410   0.1121153), wk =   0.0438957
        k(   71) = (   0.1142410   0.1142410   0.0000000), wk =   0.0109739
        k(   72) = (   0.1142410   0.1142410   0.0280288), wk =   0.0219479
        k(   73) = (   0.1142410   0.1142410   0.0560576), wk =   0.0219479
        k(   74) = (   0.1142410   0.1142410   0.0840864), wk =   0.0219479
        k(   75) = (   0.1142410   0.1142410   0.1121153), wk =   0.0219479

     Largest allocated arrays     est. size (Mb)     dimensions
     Largest temporary arrays     est. size (Mb)     dimensions

     Initial potential from superposition of free atoms
     Check: negative starting charge=   -0.617441

     starting charge   61.99990, renormalised to   64.00000

     negative rho (up, down):  6.374E-01 0.000E+00

     *
     * You are using vdW-DF for exchange-correlation in this calculation.
     * Please cite the following three references that made this development
     * possible:
     *
     *   M. Dion, H. Rydberg, E. Schroder, D. C. Langreth, and
     *   B. I. Lundqvist, Phys. Rev. Lett. 92, 246401 (2004).
     *
     *   T. Thonhauser, V. R. Cooper, S. Li, A. Puzder, P. Hyldgaard, and
     *   D. C. Langreth, Phys. Rev. B 76, 125112 (2007).
     *
     *   G. Roman-Perez and J. M. Soler, Phys. Rev. Lett. 103, 096102 (2009).
     *
     *
     * If you are using vdW-DF2, please also cite:
     *
     *   K. Lee, E. D. Murray, L. Kong, B. I. Lundqvist, and
     *   D. C. Langreth, Phys. Rev. B 82, 081101(R) (2010).
     *
     *
     * If you are calculating the stress with vdW-DF, please also cite:
     *
     *   R. Sabatini, E. Kucukbenli, B. Kolb, T. Thonhauser, and
     *   S. de Gironcoli, J. Phys.: Condens. Matter 24, 424209 (2012).
     *

     Carrying out vdW-DF run using the following parameters:

     Nqs =      20    Nr_points =    1024   r_max =   100.000
     q_mesh =
               0.00001000     0.04494208     0.09755937     0.15916263
               0.23128650     0.31572767     0.41458969     0.53033537
               0.66584808     0.82450364     1.01025438     1.22772762
               1.48234092     1.78043706     2.12944203     2.53805004
               3.01644009     3.57652955     4.23227104     5.00000000

     Gradients computed in reciprocal space

     Starting wfc are   50 randomized atomic wfcs +    2 random wfc

     Self-consistent Calculation

     iteration #  1     ecut=    58.80 Ry     beta=0.10
     Davidson diagonalization with overlap
     ethr =  1.00E-02,  avg # of iterations =  4.4

[...]

     total energy              =    -824.29330986 Ry
     Harris-Foulkes estimate   =    -825.52783642 Ry
     estimated scf accuracy    <       7.19426127 Ry

[...]

     total energy              =    -824.34362779 Ry
     Harris-Foulkes estimate   =    -824.34362497 Ry
     estimated scf accuracy    <       0.00000517 Ry

     iteration # 10     ecut=    58.80 Ry     beta=0.10
     Davidson diagonalization with overlap
     ethr =  8.08E-09,  avg # of iterations =  1.0

     negative rho (up, down):  6.003E-01 0.000E+00

     End of self-consistent calculation

          k = 0.0000 0.0000 0.0000 (  3067 PWs)   bands (ev):

   -63.4023 -63.3512 -30.3305 -30.3305 -30.2986 -30.2402 -30.0925 -30.0925
   -22.8433 -22.8433 -22.6792 -22.5983 -22.4314 -22.4314  13.0196  16.0034
    16.0906  16.2367  16.6179  16.6179  16.6216  19.6916  19.6916  19.8372
    21.7678  22.0941  23.3841  23.4106  24.6182  24.6182  24.7442  24.7945
    24.9072  24.9072  24.9246  25.3120  25.3120  26.2727  32.8857  32.9703
    33.9562  33.9647  34.7962  34.7962  34.9637  34.9637  35.1406  37.2871
    42.1235  42.6726  42.6726  43.7696

[...]

          k = 0.1142 0.1142 0.1121 (  3097 PWs)   bands (ev):

   -63.3773 -63.3758 -30.3593 -30.3523 -30.2737 -30.2722 -30.0776 -30.0703
   -22.8899 -22.8777 -22.6431 -22.6402 -22.4075 -22.3946  15.9228  16.0136
    16.0237  16.0371  19.0164  19.0696  19.4293  19.5768  19.7387  19.8251
    20.1468  20.2641  22.0167  22.2203  22.3114  22.4894  23.4868  23.7772
    23.9809  24.5700  24.6478  24.7790  25.1325  25.2564  30.0336  30.2087
    30.5931  31.0310  37.0378  37.0797  37.1193  37.1790  41.6823  41.8069
    41.8743  42.0201  42.3171  42.6247

     the Fermi energy is    23.4317 ev

!    total energy              =    -824.34364110 Ry
     Harris-Foulkes estimate   =    -824.34362833 Ry
     estimated scf accuracy    <       0.00000080 Ry

     The total energy is the sum of the following terms:

     one-electron contribution =     -92.15324531 Ry
     hartree contribution      =      97.28566184 Ry
     xc contribution           =    -194.84938991 Ry
     ewald contribution        =    -634.61475790 Ry
     smearing contrib. (-TS)   =      -0.01190982 Ry

     convergence has been achieved in  10 iterations

     Forces acting on atoms (Ry/au):

     negative rho (up, down):  6.003E-01 0.000E+00
     atom    1 type  1   force =     0.00000000    0.00000000    0.00000000
     atom    2 type  1   force =     0.00000000    0.00000000    0.00000000
     atom    3 type  2   force =     0.00000000    0.00000000    0.00000000
     atom    4 type  2   force =     0.00000000    0.00000000    0.00000000

     Total force =     0.000000     Total SCF correction =     0.000000

     General routines

     Parallel routines

   This run was terminated on:   1: 3:16  15Nov2017

   JOB DONE.