     Program PWSCF v.5.1rc2 starts on 15Nov2017 at  8: 6:21

     Current dimensions of program PWSCF are:
     Max number of different atomic species (ntypx) = 10
     Max number of k-points (npk) =  40000
     Max angular momentum in pseudopotentials (lmaxx) =  3

     IMPORTANT: XC functional enforced from input :
     Exchange-correlation      = BEEF-VDW ( 1  4 27 13 2)
     Any further DFT definition will be discarded
     Please, verify this is what you really want

     Found symmetry operation: I + ( -0.5000 -0.5000  0.0000)
     This is a supercell, fractional translations are disabled

     bravais-lattice index     =            0
     lattice parameter (alat)  =       1.8897  a.u.
     unit-cell volume          =     438.9879 (a.u.)^3
     number of atoms/cell      =            4
     number of atomic types    =            2
     number of electrons       =        58.00
     number of Kohn-Sham states=           49
     kinetic-energy cutoff     =      58.7989  Ry
     charge density cutoff     =     587.9892  Ry
     convergence threshold     =      1.0E-06
     mixing beta               =       0.1000
     number of iterations used =           10  plain     mixing
     Exchange-correlation      = BEEF-VDW ( 1  4 27 13 2)

     celldm(1)=   1.889726  celldm(2)=   0.000000  celldm(3)=   0.000000
     celldm(4)=   0.000000  celldm(5)=   0.000000  celldm(6)=   0.000000

     crystal axes: (cart. coord. in units of alat)
               a(1) = (   4.325784   0.000000   0.000000 )
               a(2) = (   0.000000   4.325784   0.000000 )
               a(3) = (   0.000000   0.000000   3.476373 )

     reciprocal axes: (cart. coord. in units 2 pi/alat)
               b(1) = (  0.231172  0.000000  0.000000 )
               b(2) = (  0.000000  0.231172  0.000000 )
               b(3) = (  0.000000  0.000000  0.287656 )

     PseudoPot. # 1 for Ta read from file:
     /home/users/vossj/suncat/psp/gbrv1.5pbe/Ta.UPF
     MD5 check sum: f8bbe9446314a3b8ea5d9f3e3836c939
     Pseudo is Ultrasoft + core correction, Zval = 13.0
     Generated by new atomic code, or converted to UPF format
     Using radial grid of  921 points,  7 beta functions with:
                l(1) =   0
                l(2) =   0
                l(3) =   1
                l(4) =   1
                l(5) =   2
                l(6) =   2
                l(7) =   3
     Q(r) pseudized with  6 coefficients,  rinner =    1.300   1.300   1.300
                                                       1.300   1.300   1.300
                                                       1.300

     PseudoPot. # 2 for Os read from file:
     /home/users/vossj/suncat/psp/gbrv1.5pbe/Os.UPF
     MD5 check sum: a3fb40a04f0c37c25c34bbc47164c9a8
     Pseudo is Ultrasoft + core correction, Zval = 16.0
     Generated by new atomic code, or converted to UPF format
     Using radial grid of  983 points,  8 beta functions with:
                l(1) =   0
                l(2) =   0
                l(3) =   1
                l(4) =   1
                l(5) =   2
                l(6) =   2
                l(7) =   3
                l(8) =   3
     Q(r) pseudized with  8 coefficients,  rinner =    1.150   1.150   1.150
                                                       1.150   1.150   1.150
                                                       1.150

     vdW kernel table read from file vdW_kernel_table
     MD5 check sum: 095c7af220d748ca6e76c0b4c6cfb241

     atomic species   valence    mass     pseudopotential
        Ta1           13.00   180.94790     Ta( 1.00)
        Os1           16.00   190.20000     Os( 1.00)

     16 Sym. Ops., with inversion, found

   Cartesian axes

     site n.     atom                  positions (alat units)
         1           Ta1 tau(   1) = (   0.0000000   0.0000000   0.0000000  )
         2           Ta1 tau(   2) = (   2.1628920   2.1628920   0.0000000  )
         3           Os1 tau(   3) = (   2.1628920   0.0000000   1.7381863  )
         4           Os1 tau(   4) = (   0.0000000   2.1628920   1.7381863  )

     number of k points=    75  Fermi-Dirac smearing, width (Ry)=  0.0073
                       cart. coord. in units 2pi/alat
        k(    1) = (   0.0000000   0.0000000   0.0000000), wk =   0.0027435
        k(    2) = (   0.0000000   0.0000000   0.0319618), wk =   0.0054870
        k(    3) = (   0.0000000   0.0000000   0.0639236), wk =   0.0054870
        k(    4) = (   0.0000000   0.0000000   0.0958854), wk =   0.0054870
        k(    5) = (   0.0000000   0.0000000   0.1278472), wk =   0.0054870
        k(    6) = (   0.0000000   0.0256858   0.0000000), wk =   0.0109739
        k(    7) = (   0.0000000   0.0256858   0.0319618), wk =   0.0219479
        k(    8) = (   0.0000000   0.0256858   0.0639236), wk =   0.0219479
        k(    9) = (   0.0000000   0.0256858   0.0958854), wk =   0.0219479
        k(   10) = (   0.0000000   0.0256858   0.1278472), wk =   0.0219479
        k(   11) = (   0.0000000   0.0513715   0.0000000), wk =   0.0109739
        k(   12) = (   0.0000000   0.0513715   0.0319618), wk =   0.0219479
        k(   13) = (   0.0000000   0.0513715   0.0639236), wk =   0.0219479
        k(   14) = (   0.0000000   0.0513715   0.0958854), wk =   0.0219479
        k(   15) = (   0.0000000   0.0513715   0.1278472), wk =   0.0219479
        k(   16) = (   0.0000000   0.0770573   0.0000000), wk =   0.0109739
        k(   17) = (   0.0000000   0.0770573   0.0319618), wk =   0.0219479
        k(   18) = (   0.0000000   0.0770573   0.0639236), wk =   0.0219479
        k(   19) = (   0.0000000   0.0770573   0.0958854), wk =   0.0219479
        k(   20) = (   0.0000000   0.0770573   0.1278472), wk =   0.0219479
        k(   21) = (   0.0000000   0.1027431   0.0000000), wk =   0.0109739
        k(   22) = (   0.0000000   0.1027431   0.0319618), wk =   0.0219479
        k(   23) = (   0.0000000   0.1027431   0.0639236), wk =   0.0219479
        k(   24) = (   0.0000000   0.1027431   0.0958854), wk =   0.0219479
        k(   25) = (   0.0000000   0.1027431   0.1278472), wk =   0.0219479
        k(   26) = (   0.0256858   0.0256858   0.0000000), wk =   0.0109739
        k(   27) = (   0.0256858   0.0256858   0.0319618), wk =   0.0219479
        k(   28) = (   0.0256858   0.0256858   0.0639236), wk =   0.0219479
        k(   29) = (   0.0256858   0.0256858   0.0958854), wk =   0.0219479
        k(   30) = (   0.0256858   0.0256858   0.1278472), wk =   0.0219479
        k(   31) = (   0.0256858   0.0513715   0.0000000), wk =   0.0219479
        k(   32) = (   0.0256858   0.0513715   0.0319618), wk =   0.0438957
        k(   33) = (   0.0256858   0.0513715   0.0639236), wk =   0.0438957
        k(   34) = (   0.0256858   0.0513715   0.0958854), wk =   0.0438957
        k(   35) = (   0.0256858   0.0513715   0.1278472), wk =   0.0438957
        k(   36) = (   0.0256858   0.0770573   0.0000000), wk =   0.0219479
        k(   37) = (   0.0256858   0.0770573   0.0319618), wk =   0.0438957
        k(   38) = (   0.0256858   0.0770573   0.0639236), wk =   0.0438957
        k(   39) = (   0.0256858   0.0770573   0.0958854), wk =   0.0438957
        k(   40) = (   0.0256858   0.0770573   0.1278472), wk =   0.0438957
        k(   41) = (   0.0256858   0.1027431   0.0000000), wk =   0.0219479
        k(   42) = (   0.0256858   0.1027431   0.0319618), wk =   0.0438957
        k(   43) = (   0.0256858   0.1027431   0.0639236), wk =   0.0438957
        k(   44) = (   0.0256858   0.1027431   0.0958854), wk =   0.0438957
        k(   45) = (   0.0256858   0.1027431   0.1278472), wk =   0.0438957
        k(   46) = (   0.0513715   0.0513715   0.0000000), wk =   0.0109739
        k(   47) = (   0.0513715   0.0513715   0.0319618), wk =   0.0219479
        k(   48) = (   0.0513715   0.0513715   0.0639236), wk =   0.0219479
        k(   49) = (   0.0513715   0.0513715   0.0958854), wk =   0.0219479
        k(   50) = (   0.0513715   0.0513715   0.1278472), wk =   0.0219479
        k(   51) = (   0.0513715   0.0770573   0.0000000), wk =   0.0219479
        k(   52) = (   0.0513715   0.0770573   0.0319618), wk =   0.0438957
        k(   53) = (   0.0513715   0.0770573   0.0639236), wk =   0.0438957
        k(   54) = (   0.0513715   0.0770573   0.0958854), wk =   0.0438957
        k(   55) = (   0.0513715   0.0770573   0.1278472), wk =   0.0438957
        k(   56) = (   0.0513715   0.1027431   0.0000000), wk =   0.0219479
        k(   57) = (   0.0513715   0.1027431   0.0319618), wk =   0.0438957
        k(   58) = (   0.0513715   0.1027431   0.0639236), wk =   0.0438957
        k(   59) = (   0.0513715   0.1027431   0.0958854), wk =   0.0438957
        k(   60) = (   0.0513715   0.1027431   0.1278472), wk =   0.0438957
        k(   61) = (   0.0770573   0.0770573   0.0000000), wk =   0.0109739
        k(   62) = (   0.0770573   0.0770573   0.0319618), wk =   0.0219479
        k(   63) = (   0.0770573   0.0770573   0.0639236), wk =   0.0219479
        k(   64) = (   0.0770573   0.0770573   0.0958854), wk =   0.0219479
        k(   65) = (   0.0770573   0.0770573   0.1278472), wk =   0.0219479
        k(   66) = (   0.0770573   0.1027431   0.0000000), wk =   0.0219479
        k(   67) = (   0.0770573   0.1027431   0.0319618), wk =   0.0438957
        k(   68) = (   0.0770573   0.1027431   0.0639236), wk =   0.0438957
        k(   69) = (   0.0770573   0.1027431   0.0958854), wk =   0.0438957
        k(   70) = (   0.0770573   0.1027431   0.1278472), wk =   0.0438957
        k(   71) = (   0.1027431   0.1027431   0.0000000), wk =   0.0109739
        k(   72) = (   0.1027431   0.1027431   0.0319618), wk =   0.0219479
        k(   73) = (   0.1027431   0.1027431   0.0639236), wk =   0.0219479
        k(   74) = (   0.1027431   0.1027431   0.0958854), wk =   0.0219479
        k(   75) = (   0.1027431   0.1027431   0.1278472), wk =   0.0219479

     Largest allocated arrays     est. size (Mb)     dimensions
     Largest temporary arrays     est. size (Mb)     dimensions

     Initial potential from superposition of free atoms
     Check: negative starting charge=   -0.434665

     starting charge   56.99770, renormalised to   58.00000

     negative rho (up, down):  4.423E-01 0.000E+00

     *
     * You are using vdW-DF for exchange-correlation in this calculation.
     * Please cite the following three references that made this development
     * possible:
     *
     *   M. Dion, H. Rydberg, E. Schroder, D. C. Langreth, and
     *   B. I. Lundqvist, Phys. Rev. Lett. 92, 246401 (2004).
     *
     *   T. Thonhauser, V. R. Cooper, S. Li, A. Puzder, P. Hyldgaard, and
     *   D. C. Langreth, Phys. Rev. B 76, 125112 (2007).
     *
     *   G. Roman-Perez and J. M. Soler, Phys. Rev. Lett. 103, 096102 (2009).
     *
     *
     * If you are using vdW-DF2, please also cite:
     *
     *   K. Lee, E. D. Murray, L. Kong, B. I. Lundqvist, and
     *   D. C. Langreth, Phys. Rev. B 82, 081101(R) (2010).
     *
     *
     * If you are calculating the stress with vdW-DF, please also cite:
     *
     *   R. Sabatini, E. Kucukbenli, B. Kolb, T. Thonhauser, and
     *   S. de Gironcoli, J. Phys.: Condens. Matter 24, 424209 (2012).
     *

     Carrying out vdW-DF run using the following parameters:

     Nqs =      20    Nr_points =    1024   r_max =   100.000
     q_mesh =
               0.00001000     0.04494208     0.09755937     0.15916263
               0.23128650     0.31572767     0.41458969     0.53033537
               0.66584808     0.82450364     1.01025438     1.22772762
               1.48234092     1.78043706     2.12944203     2.53805004
               3.01644009     3.57652955     4.23227104     5.00000000

     Gradients computed in reciprocal space

     Starting wfc are   52 randomized atomic wfcs

     Self-consistent Calculation

     iteration #  1     ecut=    58.80 Ry     beta=0.10
     Davidson diagonalization with overlap
     ethr =  1.00E-02,  avg # of iterations =  4.2

     Threshold (ethr) on eigenvalues was too large:
     Diagonalizing with lowered threshold

     Davidson diagonalization with overlap
     ethr =  6.58E-04,  avg # of iterations =  1.2

[...]

     total energy              =    -686.34540623 Ry
     Harris-Foulkes estimate   =    -686.39948455 Ry
     estimated scf accuracy    <       0.38415333 Ry

[...]

     total energy              =    -686.28117227 Ry
     Harris-Foulkes estimate   =    -686.28115988 Ry
     estimated scf accuracy    <       0.00000359 Ry

     iteration # 11     ecut=    58.80 Ry     beta=0.10
     Davidson diagonalization with overlap
     ethr =  6.19E-09,  avg # of iterations =  1.2

     negative rho (up, down):  4.500E-01 0.000E+00

     End of self-consistent calculation

          k = 0.0000 0.0000 0.0000 (  3313 PWs)   bands (ev):

   -64.8076 -64.7958 -46.9947 -46.9541 -24.1904 -24.1904 -24.0751 -24.0416
   -24.0416 -24.0349 -13.4975 -13.4975 -13.2866 -13.2272 -13.1385 -13.1385
    12.2178  15.5014  15.5680  15.8085  16.0863  17.0517  17.0517  19.5474
    19.5474  20.7038  22.3575  22.8323  22.8323  22.9273  23.4561  24.1136
    25.3622  26.3094  26.5828  26.5828  26.8732  27.0798  27.0798  27.3936
    30.8145  30.8145  32.5547  32.5791  33.0143  33.0143  34.9024  35.1568
    36.5418

[...]

          k = 0.1027 0.1027 0.1278 (  3354 PWs)   bands (ev):

   -64.8011 -64.8007 -46.9719 -46.9707 -24.2052 -24.2010 -24.0996 -24.0988
   -24.0254 -24.0210 -13.5294 -13.5185 -13.3500 -13.3472 -13.1181 -13.1063
    15.4218  15.4912  15.6513  15.6785  18.4250  18.4920  18.5218  18.6050
    20.6839  20.7284  21.2703  21.5719  21.9465  21.9945  22.7802  22.8841
    23.0568  23.3706  26.1904  26.2017  26.3737  26.6610  26.8304  27.0493
    31.3762  31.4547  31.7074  32.0287  33.8280  33.8449  33.8982  34.1340
    37.8586

     the Fermi energy is    21.8383 ev

!    total energy              =    -686.28117658 Ry
     Harris-Foulkes estimate   =    -686.28117275 Ry
     estimated scf accuracy    <       0.00000002 Ry

     The total energy is the sum of the following terms:

     one-electron contribution =     -91.02072238 Ry
     hartree contribution      =      80.00721002 Ry
     xc contribution           =    -164.95723932 Ry
     ewald contribution        =    -510.30223040 Ry
     smearing contrib. (-TS)   =      -0.00819450 Ry

     convergence has been achieved in  11 iterations

     Forces acting on atoms (Ry/au):

     negative rho (up, down):  4.500E-01 0.000E+00
     atom    1 type  1   force =     0.00000000    0.00000000    0.00000000
     atom    2 type  1   force =     0.00000000    0.00000000    0.00000000
     atom    3 type  2   force =     0.00000000    0.00000000    0.00000000
     atom    4 type  2   force =     0.00000000    0.00000000    0.00000000

     Total force =     0.000000     Total SCF correction =     0.000000

     General routines

     Parallel routines

   This run was terminated on:   8: 7: 4  15Nov2017

   JOB DONE.