     Program PWSCF v.5.1rc2 starts on 15Nov2017 at  3:13:11

     Current dimensions of program PWSCF are:
     Max number of different atomic species (ntypx) = 10
     Max number of k-points (npk) =  40000
     Max angular momentum in pseudopotentials (lmaxx) =  3

     IMPORTANT: XC functional enforced from input :
     Exchange-correlation      = BEEF-VDW ( 1  4 27 13 2)
     Any further DFT definition will be discarded
     Please, verify this is what you really want

     Found symmetry operation: I + ( -0.5000 -0.5000  0.0000)
     This is a supercell, fractional translations are disabled

     bravais-lattice index     =            0
     lattice parameter (alat)  =       1.8897  a.u.
     unit-cell volume          =     496.4002 (a.u.)^3
     number of atoms/cell      =            4
     number of atomic types    =            2
     number of electrons       =        50.00
     number of Kohn-Sham states=           45
     kinetic-energy cutoff     =      58.7989  Ry
     charge density cutoff     =     587.9892  Ry
     convergence threshold     =      1.0E-06
     mixing beta               =       0.1000
     number of iterations used =           10  plain     mixing
     Exchange-correlation      = BEEF-VDW ( 1  4 27 13 2)

     celldm(1)=   1.889726  celldm(2)=   0.000000  celldm(3)=   0.000000
     celldm(4)=   0.000000  celldm(5)=   0.000000  celldm(6)=   0.000000

     crystal axes: (cart. coord. in units of alat)
               a(1) = (   3.957727   0.000000   0.000000 )
               a(2) = (   0.000000   3.957727   0.000000 )
               a(3) = (   0.000000   0.000000   4.696169 )

     reciprocal axes: (cart. coord. in units 2 pi/alat)
               b(1) = (  0.252670  0.000000  0.000000 )
               b(2) = (  0.000000  0.252670  0.000000 )
               b(3) = (  0.000000  0.000000  0.212940 )

     PseudoPot. # 1 for Sc read from file:
     /home/users/vossj/suncat/psp/gbrv1.5pbe/Sc.UPF
     MD5 check sum: db30a2753ba66ef00f23801d899b7e7f
     Pseudo is Ultrasoft + core correction, Zval = 11.0
     Generated by new atomic code, or converted to UPF format
     Using radial grid of  849 points,  6 beta functions with:
                l(1) =   0
                l(2) =   0
                l(3) =   1
                l(4) =   1
                l(5) =   2
                l(6) =   2
     Q(r) pseudized with  6 coefficients,  rinner =    1.200   1.200   1.200
                                                       1.200   1.200

     PseudoPot. # 2 for Mo read from file:
     /home/users/vossj/suncat/psp/gbrv1.5pbe/Mo.UPF
     MD5 check sum: 30c4dcd161f5d35cd49bb5239c51a633
     Pseudo is Ultrasoft + core correction, Zval = 14.0
     Generated by new atomic code, or converted to UPF format
     Using radial grid of  889 points,  6 beta functions with:
                l(1) =   0
                l(2) =   0
                l(3) =   1
                l(4) =   1
                l(5) =   2
                l(6) =   2
     Q(r) pseudized with  6 coefficients,  rinner =    1.000   1.000   1.000
                                                       1.000   1.000

     vdW kernel table read from file vdW_kernel_table
     MD5 check sum: 095c7af220d748ca6e76c0b4c6cfb241

     atomic species   valence    mass     pseudopotential
        Sc1           11.00    44.95590     Sc( 1.00)
        Mo1           14.00    95.94000     Mo( 1.00)

     16 Sym. Ops., with inversion, found

   Cartesian axes

     site n.     atom                  positions (alat units)
         1           Sc1 tau(   1) = (   0.0000000   0.0000000   0.0000000  )
         2           Sc1 tau(   2) = (   1.9788635   1.9788635   0.0000000  )
         3           Mo1 tau(   3) = (   1.9788635   0.0000000   2.3480843  )
         4           Mo1 tau(   4) = (   0.0000000   1.9788635   2.3480843  )

     number of k points=    75  Fermi-Dirac smearing, width (Ry)=  0.0073
                       cart. coord. in units 2pi/alat
        k(    1) = (   0.0000000   0.0000000   0.0000000), wk =   0.0027435
        k(    2) = (   0.0000000   0.0000000   0.0236599), wk =   0.0054870
        k(    3) = (   0.0000000   0.0000000   0.0473199), wk =   0.0054870
        k(    4) = (   0.0000000   0.0000000   0.0709798), wk =   0.0054870
        k(    5) = (   0.0000000   0.0000000   0.0946398), wk =   0.0054870
        k(    6) = (   0.0000000   0.0280745   0.0000000), wk =   0.0109739
        k(    7) = (   0.0000000   0.0280745   0.0236599), wk =   0.0219479
        k(    8) = (   0.0000000   0.0280745   0.0473199), wk =   0.0219479
        k(    9) = (   0.0000000   0.0280745   0.0709798), wk =   0.0219479
        k(   10) = (   0.0000000   0.0280745   0.0946398), wk =   0.0219479
        k(   11) = (   0.0000000   0.0561490   0.0000000), wk =   0.0109739
        k(   12) = (   0.0000000   0.0561490   0.0236599), wk =   0.0219479
        k(   13) = (   0.0000000   0.0561490   0.0473199), wk =   0.0219479
        k(   14) = (   0.0000000   0.0561490   0.0709798), wk =   0.0219479
        k(   15) = (   0.0000000   0.0561490   0.0946398), wk =   0.0219479
        k(   16) = (   0.0000000   0.0842234   0.0000000), wk =   0.0109739
        k(   17) = (   0.0000000   0.0842234   0.0236599), wk =   0.0219479
        k(   18) = (   0.0000000   0.0842234   0.0473199), wk =   0.0219479
        k(   19) = (   0.0000000   0.0842234   0.0709798), wk =   0.0219479
        k(   20) = (   0.0000000   0.0842234   0.0946398), wk =   0.0219479
        k(   21) = (   0.0000000   0.1122979   0.0000000), wk =   0.0109739
        k(   22) = (   0.0000000   0.1122979   0.0236599), wk =   0.0219479
        k(   23) = (   0.0000000   0.1122979   0.0473199), wk =   0.0219479
        k(   24) = (   0.0000000   0.1122979   0.0709798), wk =   0.0219479
        k(   25) = (   0.0000000   0.1122979   0.0946398), wk =   0.0219479
        k(   26) = (   0.0280745   0.0280745   0.0000000), wk =   0.0109739
        k(   27) = (   0.0280745   0.0280745   0.0236599), wk =   0.0219479
        k(   28) = (   0.0280745   0.0280745   0.0473199), wk =   0.0219479
        k(   29) = (   0.0280745   0.0280745   0.0709798), wk =   0.0219479
        k(   30) = (   0.0280745   0.0280745   0.0946398), wk =   0.0219479
        k(   31) = (   0.0280745   0.0561490   0.0000000), wk =   0.0219479
        k(   32) = (   0.0280745   0.0561490   0.0236599), wk =   0.0438957
        k(   33) = (   0.0280745   0.0561490   0.0473199), wk =   0.0438957
        k(   34) = (   0.0280745   0.0561490   0.0709798), wk =   0.0438957
        k(   35) = (   0.0280745   0.0561490   0.0946398), wk =   0.0438957
        k(   36) = (   0.0280745   0.0842234   0.0000000), wk =   0.0219479
        k(   37) = (   0.0280745   0.0842234   0.0236599), wk =   0.0438957
        k(   38) = (   0.0280745   0.0842234   0.0473199), wk =   0.0438957
        k(   39) = (   0.0280745   0.0842234   0.0709798), wk =   0.0438957
        k(   40) = (   0.0280745   0.0842234   0.0946398), wk =   0.0438957
        k(   41) = (   0.0280745   0.1122979   0.0000000), wk =   0.0219479
        k(   42) = (   0.0280745   0.1122979   0.0236599), wk =   0.0438957
        k(   43) = (   0.0280745   0.1122979   0.0473199), wk =   0.0438957
        k(   44) = (   0.0280745   0.1122979   0.0709798), wk =   0.0438957
        k(   45) = (   0.0280745   0.1122979   0.0946398), wk =   0.0438957
        k(   46) = (   0.0561490   0.0561490   0.0000000), wk =   0.0109739
        k(   47) = (   0.0561490   0.0561490   0.0236599), wk =   0.0219479
        k(   48) = (   0.0561490   0.0561490   0.0473199), wk =   0.0219479
        k(   49) = (   0.0561490   0.0561490   0.0709798), wk =   0.0219479
        k(   50) = (   0.0561490   0.0561490   0.0946398), wk =   0.0219479
        k(   51) = (   0.0561490   0.0842234   0.0000000), wk =   0.0219479
        k(   52) = (   0.0561490   0.0842234   0.0236599), wk =   0.0438957
        k(   53) = (   0.0561490   0.0842234   0.0473199), wk =   0.0438957
        k(   54) = (   0.0561490   0.0842234   0.0709798), wk =   0.0438957
        k(   55) = (   0.0561490   0.0842234   0.0946398), wk =   0.0438957
        k(   56) = (   0.0561490   0.1122979   0.0000000), wk =   0.0219479
        k(   57) = (   0.0561490   0.1122979   0.0236599), wk =   0.0438957
        k(   58) = (   0.0561490   0.1122979   0.0473199), wk =   0.0438957
        k(   59) = (   0.0561490   0.1122979   0.0709798), wk =   0.0438957
        k(   60) = (   0.0561490   0.1122979   0.0946398), wk =   0.0438957
        k(   61) = (   0.0842234   0.0842234   0.0000000), wk =   0.0109739
        k(   62) = (   0.0842234   0.0842234   0.0236599), wk =   0.0219479
        k(   63) = (   0.0842234   0.0842234   0.0473199), wk =   0.0219479
        k(   64) = (   0.0842234   0.0842234   0.0709798), wk =   0.0219479
        k(   65) = (   0.0842234   0.0842234   0.0946398), wk =   0.0219479
        k(   66) = (   0.0842234   0.1122979   0.0000000), wk =   0.0219479
        k(   67) = (   0.0842234   0.1122979   0.0236599), wk =   0.0438957
        k(   68) = (   0.0842234   0.1122979   0.0473199), wk =   0.0438957
        k(   69) = (   0.0842234   0.1122979   0.0709798), wk =   0.0438957
        k(   70) = (   0.0842234   0.1122979   0.0946398), wk =   0.0438957
        k(   71) = (   0.1122979   0.1122979   0.0000000), wk =   0.0109739
        k(   72) = (   0.1122979   0.1122979   0.0236599), wk =   0.0219479
        k(   73) = (   0.1122979   0.1122979   0.0473199), wk =   0.0219479
        k(   74) = (   0.1122979   0.1122979   0.0709798), wk =   0.0219479
        k(   75) = (   0.1122979   0.1122979   0.0946398), wk =   0.0219479

     Largest allocated arrays     est. size (Mb)     dimensions
     Largest temporary arrays     est. size (Mb)     dimensions

     Initial potential from superposition of free atoms

     starting charge   49.99307, renormalised to   50.00000

     *
     * You are using vdW-DF for exchange-correlation in this calculation.
     * Please cite the following three references that made this development
     * possible:
     *
     *   M. Dion, H. Rydberg, E. Schroder, D. C. Langreth, and
     *   B. I. Lundqvist, Phys. Rev. Lett. 92, 246401 (2004).
     *
     *   T. Thonhauser, V. R. Cooper, S. Li, A. Puzder, P. Hyldgaard, and
     *   D. C. Langreth, Phys. Rev. B 76, 125112 (2007).
     *
     *   G. Roman-Perez and J. M. Soler, Phys. Rev. Lett. 103, 096102 (2009).
     *
     *
     * If you are using vdW-DF2, please also cite:
     *
     *   K. Lee, E. D. Murray, L. Kong, B. I. Lundqvist, and
     *   D. C. Langreth, Phys. Rev. B 82, 081101(R) (2010).
     *
     *
     * If you are calculating the stress with vdW-DF, please also cite:
     *
     *   R. Sabatini, E. Kucukbenli, B. Kolb, T. Thonhauser, and
     *   S. de Gironcoli, J. Phys.: Condens. Matter 24, 424209 (2012).
     *

     Carrying out vdW-DF run using the following parameters:

     Nqs =      20    Nr_points =    1024   r_max =   100.000
     q_mesh =
               0.00001000     0.04494208     0.09755937     0.15916263
               0.23128650     0.31572767     0.41458969     0.53033537
               0.66584808     0.82450364     1.01025438     1.22772762
               1.48234092     1.78043706     2.12944203     2.53805004
               3.01644009     3.57652955     4.23227104     5.00000000

     Gradients computed in reciprocal space

     Starting wfc are   52 randomized atomic wfcs

     Self-consistent Calculation

     iteration #  1     ecut=    58.80 Ry     beta=0.10
     Davidson diagonalization with overlap
     ethr =  1.00E-02,  avg # of iterations =  3.9

     Threshold (ethr) on eigenvalues was too large:
     Diagonalizing with lowered threshold

     Davidson diagonalization with overlap
     ethr =  2.79E-04,  avg # of iterations =  2.5

     total energy              =    -469.62262977 Ry
     Harris-Foulkes estimate   =    -469.64265246 Ry
     estimated scf accuracy    <       0.13876281 Ry

[...]

     total energy              =    -469.62666265 Ry
     Harris-Foulkes estimate   =    -469.62666061 Ry
     estimated scf accuracy    <       0.00000121 Ry

     iteration # 10     ecut=    58.80 Ry     beta=0.10
     Davidson diagonalization with overlap
     ethr =  2.43E-09,  avg # of iterations =  1.8

     End of self-consistent calculation

          k = 0.0000 0.0000 0.0000 (  3753 PWs)   bands (ev):

   -45.9789 -45.8160 -34.4035 -34.1760 -20.2625 -20.2625 -19.9698 -19.7896
   -19.6199 -19.6199 -13.3261 -13.3261 -12.8811 -12.6981 -12.6322 -12.6322
     9.0494  11.1005  11.5583  12.0523  12.1108  12.4331  12.4331  15.1146
    15.9616  15.9616  16.4337  16.5140  17.9768  18.2171  18.6950  18.6950
    19.3693  19.3701  19.3701  19.5636  19.5636  19.5970  19.6585  20.7055
    24.7091  25.0493  25.1173  26.8210  26.8210

[...]

          k = 0.1123 0.1123 0.0946 (  3774 PWs)   bands (ev):

   -45.8987 -45.8938 -34.2909 -34.2840 -20.3588 -20.3404 -19.8819 -19.8769
   -19.5760 -19.5557 -13.4415 -13.4215 -12.7930 -12.7867 -12.5823 -12.5602
    11.6180  11.6384  11.8613  11.9637  13.7144  13.7865  15.1125  15.5041
    15.6243  15.7216  15.8413  15.9329  16.0320  16.1865  16.3151  16.4230
    18.6229  18.7951  18.9940  19.0778  19.2867  19.3652  19.7241  19.7794
    24.1575  24.2806  24.7000  24.8964  27.4265

     the Fermi energy is    14.9299 ev

!    total energy              =    -469.62667243 Ry
     Harris-Foulkes estimate   =    -469.62666281 Ry
     estimated scf accuracy    <       0.00000003 Ry

     The total energy is the sum of the following terms:

     one-electron contribution =    -118.22741195 Ry
     hartree contribution      =      80.26642793 Ry
     xc contribution           =     -68.03064076 Ry
     ewald contribution        =    -363.62412544 Ry
     smearing contrib. (-TS)   =      -0.01092220 Ry

     convergence has been achieved in  10 iterations

     Forces acting on atoms (Ry/au):

     atom    1 type  1   force =     0.00000000    0.00000000    0.00000000
     atom    2 type  1   force =     0.00000000    0.00000000    0.00000000
     atom    3 type  2   force =     0.00000000    0.00000000    0.00000000
     atom    4 type  2   force =     0.00000000    0.00000000    0.00000000

     Total force =     0.000000     Total SCF correction =     0.000000

     General routines

     Parallel routines

   This run was terminated on:   3:13:45  15Nov2017

   JOB DONE.