     Program PWSCF v.5.1rc2 (svn rev. ) starts on 14Nov2017 at 23:52:26

     Current dimensions of program PWSCF are:
     Max number of different atomic species (ntypx) = 10
     Max number of k-points (npk) =  40000
     Max angular momentum in pseudopotentials (lmaxx) =  3

     IMPORTANT: XC functional enforced from input :
     Exchange-correlation      = BEEF-VDW ( 1  4 27 13 2)
     Any further DFT definition will be discarded
     Please, verify this is what you really want

     Subspace diagonalization in iterative solution of the eigenvalue problem:
     a serial algorithm will be used

     Found symmetry operation: I + ( -0.5000 -0.5000  0.0000)
     This is a supercell, fractional translations are disabled

     bravais-lattice index     =            0
     lattice parameter (alat)  =       1.8897  a.u.
     unit-cell volume          =     390.7882 (a.u.)^3
     number of atoms/cell      =            4
     number of atomic types    =            2
     number of electrons       =        60.00
     number of Kohn-Sham states=           50
     kinetic-energy cutoff     =      58.7989  Ry
     charge density cutoff     =     587.9892  Ry
     convergence threshold     =      1.0E-06
     mixing beta               =       0.1000
     number of iterations used =           10  plain     mixing
     Exchange-correlation      = BEEF-VDW ( 1  4 27 13 2)

     celldm(1)=   1.889726  celldm(2)=   0.000000  celldm(3)=   0.000000
     celldm(4)=   0.000000  celldm(5)=   0.000000  celldm(6)=   0.000000

     crystal axes: (cart. coord. in units of alat)
               a(1) = (   3.850725   0.000000   0.000000 )
               a(2) = (   0.000000   3.850725   0.000000 )
               a(3) = (   0.000000   0.000000   3.905350 )

     reciprocal axes: (cart. coord. in units 2 pi/alat)
               b(1) = (  0.259691  0.000000  0.000000 )
               b(2) = (  0.000000  0.259691  0.000000 )
               b(3) = (  0.000000  0.000000  0.256059 )

     PseudoPot. # 1 for Tc read from file:
     /home/vossj/suncat/psp/gbrv1.5pbe/Tc.UPF
     MD5 check sum: 9eb49e5b028550b2339a02317eb7b844
     Pseudo is Ultrasoft + core correction, Zval = 15.0
     Generated by new atomic code, or converted to UPF format
     Using radial grid of  965 points,  6 beta functions with:
                l(1) =   0
                l(2) =   0
                l(3) =   1
                l(4) =   1
                l(5) =   2
                l(6) =   2
     Q(r) pseudized with  8 coefficients,  rinner =    1.300   1.300   1.300
                                                       1.300   1.300

     PseudoPot. # 2 for Ir read from file:
     /home/vossj/suncat/psp/gbrv1.5pbe/Ir.UPF
     MD5 check sum: 8836f839c3459d2b385c504ce6d91f2c
     Pseudo is Ultrasoft + core correction, Zval = 15.0
     Generated by new atomic code, or converted to UPF format
     Using radial grid of  983 points,  7 beta functions with:
                l(1) =   0
                l(2) =   0
                l(3) =   1
                l(4) =   1
                l(5) =   1
                l(6) =   2
                l(7) =   2
     Q(r) pseudized with  8 coefficients,  rinner =    1.400   1.400   1.400
                                                       1.400   1.400

     vdW kernel table read from file vdW_kernel_table
     MD5 check sum: 095c7af220d748ca6e76c0b4c6cfb241

     atomic species   valence    mass     pseudopotential
        Tc1           15.00    97.90721     Tc( 1.00)
        Ir1           15.00   192.21700     Ir( 1.00)

     16 Sym. Ops., with inversion, found

   Cartesian axes

     site n.     atom                  positions (alat units)
         1           Tc1 tau(   1) = (   0.0000000   0.0000000   0.0000000  )
         2           Tc1 tau(   2) = (   1.9253624   1.9253624   0.0000000  )
         3           Ir1 tau(   3) = (   1.9253624   0.0000000   1.9526748  )
         4           Ir1 tau(   4) = (   0.0000000   1.9253624   1.9526748  )

     number of k points=    75  Fermi-Dirac smearing, width (Ry)=  0.0073
                       cart. coord. in units 2pi/alat
        k(    1) = (   0.0000000   0.0000000   0.0000000), wk =   0.0027435
        k(    2) = (   0.0000000   0.0000000   0.0284510), wk =   0.0054870
        k(    3) = (   0.0000000   0.0000000   0.0569020), wk =   0.0054870
        k(    4) = (   0.0000000   0.0000000   0.0853530), wk =   0.0054870
        k(    5) = (   0.0000000   0.0000000   0.1138040), wk =   0.0054870
        k(    6) = (   0.0000000   0.0288546   0.0000000), wk =   0.0109739
        k(    7) = (   0.0000000   0.0288546   0.0284510), wk =   0.0219479
        k(    8) = (   0.0000000   0.0288546   0.0569020), wk =   0.0219479
        k(    9) = (   0.0000000   0.0288546   0.0853530), wk =   0.0219479
        k(   10) = (   0.0000000   0.0288546   0.1138040), wk =   0.0219479
        k(   11) = (   0.0000000   0.0577092   0.0000000), wk =   0.0109739
        k(   12) = (   0.0000000   0.0577092   0.0284510), wk =   0.0219479
        k(   13) = (   0.0000000   0.0577092   0.0569020), wk =   0.0219479
        k(   14) = (   0.0000000   0.0577092   0.0853530), wk =   0.0219479
        k(   15) = (   0.0000000   0.0577092   0.1138040), wk =   0.0219479
        k(   16) = (   0.0000000   0.0865638   0.0000000), wk =   0.0109739
        k(   17) = (   0.0000000   0.0865638   0.0284510), wk =   0.0219479
        k(   18) = (   0.0000000   0.0865638   0.0569020), wk =   0.0219479
        k(   19) = (   0.0000000   0.0865638   0.0853530), wk =   0.0219479
        k(   20) = (   0.0000000   0.0865638   0.1138040), wk =   0.0219479
        k(   21) = (   0.0000000   0.1154184   0.0000000), wk =   0.0109739
        k(   22) = (   0.0000000   0.1154184   0.0284510), wk =   0.0219479
        k(   23) = (   0.0000000   0.1154184   0.0569020), wk =   0.0219479
        k(   24) = (   0.0000000   0.1154184   0.0853530), wk =   0.0219479
        k(   25) = (   0.0000000   0.1154184   0.1138040), wk =   0.0219479
        k(   26) = (   0.0288546   0.0288546   0.0000000), wk =   0.0109739
        k(   27) = (   0.0288546   0.0288546   0.0284510), wk =   0.0219479
        k(   28) = (   0.0288546   0.0288546   0.0569020), wk =   0.0219479
        k(   29) = (   0.0288546   0.0288546   0.0853530), wk =   0.0219479
        k(   30) = (   0.0288546   0.0288546   0.1138040), wk =   0.0219479
        k(   31) = (   0.0288546   0.0577092   0.0000000), wk =   0.0219479
        k(   32) = (   0.0288546   0.0577092   0.0284510), wk =   0.0438957
        k(   33) = (   0.0288546   0.0577092   0.0569020), wk =   0.0438957
        k(   34) = (   0.0288546   0.0577092   0.0853530), wk =   0.0438957
        k(   35) = (   0.0288546   0.0577092   0.1138040), wk =   0.0438957
        k(   36) = (   0.0288546   0.0865638   0.0000000), wk =   0.0219479
        k(   37) = (   0.0288546   0.0865638   0.0284510), wk =   0.0438957
        k(   38) = (   0.0288546   0.0865638   0.0569020), wk =   0.0438957
        k(   39) = (   0.0288546   0.0865638   0.0853530), wk =   0.0438957
        k(   40) = (   0.0288546   0.0865638   0.1138040), wk =   0.0438957
        k(   41) = (   0.0288546   0.1154184   0.0000000), wk =   0.0219479
        k(   42) = (   0.0288546   0.1154184   0.0284510), wk =   0.0438957
        k(   43) = (   0.0288546   0.1154184   0.0569020), wk =   0.0438957
        k(   44) = (   0.0288546   0.1154184   0.0853530), wk =   0.0438957
        k(   45) = (   0.0288546   0.1154184   0.1138040), wk =   0.0438957
        k(   46) = (   0.0577092   0.0577092   0.0000000), wk =   0.0109739
        k(   47) = (   0.0577092   0.0577092   0.0284510), wk =   0.0219479
        k(   48) = (   0.0577092   0.0577092   0.0569020), wk =   0.0219479
        k(   49) = (   0.0577092   0.0577092   0.0853530), wk =   0.0219479
        k(   50) = (   0.0577092   0.0577092   0.1138040), wk =   0.0219479
        k(   51) = (   0.0577092   0.0865638   0.0000000), wk =   0.0219479
        k(   52) = (   0.0577092   0.0865638   0.0284510), wk =   0.0438957
        k(   53) = (   0.0577092   0.0865638   0.0569020), wk =   0.0438957
        k(   54) = (   0.0577092   0.0865638   0.0853530), wk =   0.0438957
        k(   55) = (   0.0577092   0.0865638   0.1138040), wk =   0.0438957
        k(   56) = (   0.0577092   0.1154184   0.0000000), wk =   0.0219479
        k(   57) = (   0.0577092   0.1154184   0.0284510), wk =   0.0438957
        k(   58) = (   0.0577092   0.1154184   0.0569020), wk =   0.0438957
        k(   59) = (   0.0577092   0.1154184   0.0853530), wk =   0.0438957
        k(   60) = (   0.0577092   0.1154184   0.1138040), wk =   0.0438957
        k(   61) = (   0.0865638   0.0865638   0.0000000), wk =   0.0109739
        k(   62) = (   0.0865638   0.0865638   0.0284510), wk =   0.0219479
        k(   63) = (   0.0865638   0.0865638   0.0569020), wk =   0.0219479
        k(   64) = (   0.0865638   0.0865638   0.0853530), wk =   0.0219479
        k(   65) = (   0.0865638   0.0865638   0.1138040), wk =   0.0219479
        k(   66) = (   0.0865638   0.1154184   0.0000000), wk =   0.0219479
        k(   67) = (   0.0865638   0.1154184   0.0284510), wk =   0.0438957
        k(   68) = (   0.0865638   0.1154184   0.0569020), wk =   0.0438957
        k(   69) = (   0.0865638   0.1154184   0.0853530), wk =   0.0438957
        k(   70) = (   0.0865638   0.1154184   0.1138040), wk =   0.0438957
        k(   71) = (   0.1154184   0.1154184   0.0000000), wk =   0.0109739
        k(   72) = (   0.1154184   0.1154184   0.0284510), wk =   0.0219479
        k(   73) = (   0.1154184   0.1154184   0.0569020), wk =   0.0219479
        k(   74) = (   0.1154184   0.1154184   0.0853530), wk =   0.0219479
        k(   75) = (   0.1154184   0.1154184   0.1138040), wk =   0.0219479

     Largest allocated arrays     est. size (Mb)     dimensions
     Largest temporary arrays     est. size (Mb)     dimensions

     Check: negative/imaginary core charge=   -0.000005    0.000000

     Initial potential from superposition of free atoms
     Check: negative starting charge=   -0.978888

     starting charge   56.99988, renormalised to   60.00000

     negative rho (up, down):  1.030E+00 0.000E+00

     *
     * You are using vdW-DF for exchange-correlation in this calculation.
     * Please cite the following three references that made this development
     * possible:
     *
     *   M. Dion, H. Rydberg, E. Schroder, D. C. Langreth, and
     *   B. I. Lundqvist, Phys. Rev. Lett. 92, 246401 (2004).
     *
     *   T. Thonhauser, V. R. Cooper, S. Li, A. Puzder, P. Hyldgaard, and
     *   D. C. Langreth, Phys. Rev. B 76, 125112 (2007).
     *
     *   G. Roman-Perez and J. M. Soler, Phys. Rev. Lett. 103, 096102 (2009).
     *
     *
     * If you are using vdW-DF2, please also cite:
     *
     *   K. Lee, E. D. Murray, L. Kong, B. I. Lundqvist, and
     *   D. C. Langreth, Phys. Rev. B 82, 081101(R) (2010).
     *
     *
     * If you are calculating the stress with vdW-DF, please also cite:
     *
     *   R. Sabatini, E. Kucukbenli, B. Kolb, T. Thonhauser, and
     *   S. de Gironcoli, J. Phys.: Condens. Matter 24, 424209 (2012).
     *

     Carrying out vdW-DF run using the following parameters:

     Nqs =      20    Nr_points =    1024   r_max =   100.000
     q_mesh =
               0.00001000     0.04494208     0.09755937     0.15916263
               0.23128650     0.31572767     0.41458969     0.53033537
               0.66584808     0.82450364     1.01025438     1.22772762
               1.48234092     1.78043706     2.12944203     2.53805004
               3.01644009     3.57652955     4.23227104     5.00000000

     Gradients computed in reciprocal space

     Starting wfc are   50 randomized atomic wfcs

     Self-consistent Calculation

     iteration #  1     ecut=    58.80 Ry     beta=0.10
     Davidson diagonalization with overlap
     ethr =  1.00E-02,  avg # of iterations =  4.7

[...]

     total energy              =    -717.80317730 Ry
     Harris-Foulkes estimate   =    -718.93932112 Ry
     estimated scf accuracy    <       7.05141242 Ry

[...]

     total energy              =    -717.43058559 Ry
     Harris-Foulkes estimate   =    -717.43059367 Ry
     estimated scf accuracy    <       0.00000497 Ry

     iteration # 11     ecut=    58.80 Ry     beta=0.10
     Davidson diagonalization with overlap
     ethr =  8.28E-09,  avg # of iterations =  2.0

     negative rho (up, down):  9.023E-01 0.000E+00

     End of self-consistent calculation

          k = 0.0000 0.0000 0.0000 (  2955 PWs)   bands (ev):

   -44.4559 -44.3104 -26.7096 -26.7096 -26.5793 -26.4882 -26.3546 -26.3546
   -16.6554 -16.6554 -16.4389 -16.3163 -16.0766 -16.0766  13.8818  16.2012
    16.3810  16.4042  16.7721  16.8372  16.8372  20.2257  20.2257  20.2879
    22.6650  22.7331  24.3937  24.7208  24.9960  25.1010  25.3068  25.3068
    25.4233  25.4233  25.7279  25.9902  25.9902  26.1121  33.8298  34.0893
    34.2022  34.5769  35.2965  35.4905  35.4905  35.5536  35.5536  35.9089
    36.9825  37.0879

[...]

          k = 0.1154 0.1154 0.1138 (  2992 PWs)   bands (ev):

   -44.3842 -44.3797 -26.7551 -26.7448 -26.5415 -26.5393 -26.3313 -26.3204
   -16.7286 -16.7117 -16.3868 -16.3822 -16.0403 -16.0219  16.1220  16.1959
    16.7408  16.7557  19.5080  19.5686  19.8942  20.0610  20.2252  20.3262
    20.5425  20.6556  22.5645  22.7320  22.8664  23.1731  24.4861  24.6089
    24.6180  24.9431  25.1543  25.3815  25.5557  25.5743  30.7553  31.0418
    33.3285  33.5613  34.1043  34.1046  36.8257  36.8570  36.8780  36.9119
    42.2690  42.2876

     the Fermi energy is    22.9981 ev

!    total energy              =    -717.43060971 Ry
     Harris-Foulkes estimate   =    -717.43058660 Ry
     estimated scf accuracy    <       0.00000037 Ry

     The total energy is the sum of the following terms:

     one-electron contribution =     -64.12151175 Ry
     hartree contribution      =      81.54133011 Ry
     xc contribution           =    -170.44048882 Ry
     ewald contribution        =    -564.39980435 Ry
     smearing contrib. (-TS)   =      -0.01013490 Ry

     convergence has been achieved in  11 iterations

     Forces acting on atoms (Ry/au):

     negative rho (up, down):  9.023E-01 0.000E+00
     atom    1 type  1   force =     0.00000000    0.00000000    0.00000000
     atom    2 type  1   force =     0.00000000    0.00000000    0.00000000
     atom    3 type  2   force =     0.00000000    0.00000000    0.00000000
     atom    4 type  2   force =     0.00000000    0.00000000    0.00000000

     Total force =     0.000000     Total SCF correction =     0.000000

     General routines

     Parallel routines

   This run was terminated on:  23:53: 8  14Nov2017

   JOB DONE.