     Program PWSCF v.5.1rc2 starts on 14Nov2017 at  9:53:30

     Current dimensions of program PWSCF are:
     Max number of different atomic species (ntypx) = 10
     Max number of k-points (npk) =  40000
     Max angular momentum in pseudopotentials (lmaxx) =  3

     IMPORTANT: XC functional enforced from input :
     Exchange-correlation      = BEEF-VDW ( 1  4 27 13 2)
     Any further DFT definition will be discarded
     Please, verify this is what you really want

     Found symmetry operation: I + ( -0.5000 -0.5000  0.0000)
     This is a supercell, fractional translations are disabled

     bravais-lattice index     =            0
     lattice parameter (alat)  =       1.8897  a.u.
     unit-cell volume          =     606.1034 (a.u.)^3
     number of atoms/cell      =            4
     number of atomic types    =            2
     number of electrons       =        66.00
     number of Kohn-Sham states=           53
     kinetic-energy cutoff     =      58.7989  Ry
     charge density cutoff     =     587.9892  Ry
     convergence threshold     =      1.0E-06
     mixing beta               =       0.1000
     number of iterations used =           10  plain     mixing
     Exchange-correlation      = BEEF-VDW ( 1  4 27 13 2)

     celldm(1)=   1.889726  celldm(2)=   0.000000  celldm(3)=   0.000000
     celldm(4)=   0.000000  celldm(5)=   0.000000  celldm(6)=   0.000000

     crystal axes: (cart. coord. in units of alat)
               a(1) = (   4.617575   0.000000   0.000000 )
               a(2) = (   0.000000   4.617575   0.000000 )
               a(3) = (   0.000000   0.000000   4.212328 )

     reciprocal axes: (cart. coord. in units 2 pi/alat)
               b(1) = (  0.216564  0.000000  0.000000 )
               b(2) = (  0.000000  0.216564  0.000000 )
               b(3) = (  0.000000  0.000000  0.237398 )

     PseudoPot. # 1 for Zn read from file:
     /home/users/vossj/suncat/psp/gbrv1.5pbe/Zn.UPF
     MD5 check sum: df62231357ef9e81f77b2b3087fa5675
     Pseudo is Ultrasoft, Zval = 20.0
     Generated by new atomic code, or converted to UPF format
     Using radial grid of  943 points,  6 beta functions with:
                l(1) =   0
                l(2) =   0
                l(3) =   1
                l(4) =   1
                l(5) =   2
                l(6) =   2
     Q(r) pseudized with  8 coefficients,  rinner =    1.100   1.100   1.100
                                                       1.100   1.100

     PseudoPot. # 2 for In read from file:
     /home/users/vossj/suncat/psp/gbrv1.5pbe/In.UPF
     MD5 check sum: 90777abd96fbb83f2e67db2a40c566b9
     Pseudo is Ultrasoft + core correction, Zval = 13.0
     Generated by new atomic code, or converted to UPF format
     Using radial grid of  889 points,  6 beta functions with:
                l(1) =   0
                l(2) =   0
                l(3) =   1
                l(4) =   1
                l(5) =   2
                l(6) =   2
     Q(r) pseudized with  6 coefficients,  rinner =    1.400   1.400   1.400
                                                       1.400   1.400

     vdW kernel table read from file vdW_kernel_table
     MD5 check sum: 095c7af220d748ca6e76c0b4c6cfb241

     atomic species   valence    mass     pseudopotential
        Zn1           20.00    65.39000     Zn( 1.00)
        In1           13.00   114.82000     In( 1.00)

     16 Sym. Ops., with inversion, found

   Cartesian axes

     site n.     atom                  positions (alat units)
         1           Zn1 tau(   1) = (   0.0000000   0.0000000   0.0000000  )
         2           Zn1 tau(   2) = (   2.3087877   2.3087877   0.0000000  )
         3           In1 tau(   3) = (   2.3087877   0.0000000   2.1061639  )
         4           In1 tau(   4) = (   0.0000000   2.3087877   2.1061639  )

     number of k points=    75  Fermi-Dirac smearing, width (Ry)=  0.0073
                       cart. coord. in units 2pi/alat
        k(    1) = (   0.0000000   0.0000000   0.0000000), wk =   0.0027435
        k(    2) = (   0.0000000   0.0000000   0.0263776), wk =   0.0054870
        k(    3) = (   0.0000000   0.0000000   0.0527552), wk =   0.0054870
        k(    4) = (   0.0000000   0.0000000   0.0791328), wk =   0.0054870
        k(    5) = (   0.0000000   0.0000000   0.1055104), wk =   0.0054870
        k(    6) = (   0.0000000   0.0240627   0.0000000), wk =   0.0109739
        k(    7) = (   0.0000000   0.0240627   0.0263776), wk =   0.0219479
        k(    8) = (   0.0000000   0.0240627   0.0527552), wk =   0.0219479
        k(    9) = (   0.0000000   0.0240627   0.0791328), wk =   0.0219479
        k(   10) = (   0.0000000   0.0240627   0.1055104), wk =   0.0219479
        k(   11) = (   0.0000000   0.0481253   0.0000000), wk =   0.0109739
        k(   12) = (   0.0000000   0.0481253   0.0263776), wk =   0.0219479
        k(   13) = (   0.0000000   0.0481253   0.0527552), wk =   0.0219479
        k(   14) = (   0.0000000   0.0481253   0.0791328), wk =   0.0219479
        k(   15) = (   0.0000000   0.0481253   0.1055104), wk =   0.0219479
        k(   16) = (   0.0000000   0.0721880   0.0000000), wk =   0.0109739
        k(   17) = (   0.0000000   0.0721880   0.0263776), wk =   0.0219479
        k(   18) = (   0.0000000   0.0721880   0.0527552), wk =   0.0219479
        k(   19) = (   0.0000000   0.0721880   0.0791328), wk =   0.0219479
        k(   20) = (   0.0000000   0.0721880   0.1055104), wk =   0.0219479
        k(   21) = (   0.0000000   0.0962506   0.0000000), wk =   0.0109739
        k(   22) = (   0.0000000   0.0962506   0.0263776), wk =   0.0219479
        k(   23) = (   0.0000000   0.0962506   0.0527552), wk =   0.0219479
        k(   24) = (   0.0000000   0.0962506   0.0791328), wk =   0.0219479
        k(   25) = (   0.0000000   0.0962506   0.1055104), wk =   0.0219479
        k(   26) = (   0.0240627   0.0240627   0.0000000), wk =   0.0109739
        k(   27) = (   0.0240627   0.0240627   0.0263776), wk =   0.0219479
        k(   28) = (   0.0240627   0.0240627   0.0527552), wk =   0.0219479
        k(   29) = (   0.0240627   0.0240627   0.0791328), wk =   0.0219479
        k(   30) = (   0.0240627   0.0240627   0.1055104), wk =   0.0219479
        k(   31) = (   0.0240627   0.0481253   0.0000000), wk =   0.0219479
        k(   32) = (   0.0240627   0.0481253   0.0263776), wk =   0.0438957
        k(   33) = (   0.0240627   0.0481253   0.0527552), wk =   0.0438957
        k(   34) = (   0.0240627   0.0481253   0.0791328), wk =   0.0438957
        k(   35) = (   0.0240627   0.0481253   0.1055104), wk =   0.0438957
        k(   36) = (   0.0240627   0.0721880   0.0000000), wk =   0.0219479
        k(   37) = (   0.0240627   0.0721880   0.0263776), wk =   0.0438957
        k(   38) = (   0.0240627   0.0721880   0.0527552), wk =   0.0438957
        k(   39) = (   0.0240627   0.0721880   0.0791328), wk =   0.0438957
        k(   40) = (   0.0240627   0.0721880   0.1055104), wk =   0.0438957
        k(   41) = (   0.0240627   0.0962506   0.0000000), wk =   0.0219479
        k(   42) = (   0.0240627   0.0962506   0.0263776), wk =   0.0438957
        k(   43) = (   0.0240627   0.0962506   0.0527552), wk =   0.0438957
        k(   44) = (   0.0240627   0.0962506   0.0791328), wk =   0.0438957
        k(   45) = (   0.0240627   0.0962506   0.1055104), wk =   0.0438957
        k(   46) = (   0.0481253   0.0481253   0.0000000), wk =   0.0109739
        k(   47) = (   0.0481253   0.0481253   0.0263776), wk =   0.0219479
        k(   48) = (   0.0481253   0.0481253   0.0527552), wk =   0.0219479
        k(   49) = (   0.0481253   0.0481253   0.0791328), wk =   0.0219479
        k(   50) = (   0.0481253   0.0481253   0.1055104), wk =   0.0219479
        k(   51) = (   0.0481253   0.0721880   0.0000000), wk =   0.0219479
        k(   52) = (   0.0481253   0.0721880   0.0263776), wk =   0.0438957
        k(   53) = (   0.0481253   0.0721880   0.0527552), wk =   0.0438957
        k(   54) = (   0.0481253   0.0721880   0.0791328), wk =   0.0438957
        k(   55) = (   0.0481253   0.0721880   0.1055104), wk =   0.0438957
        k(   56) = (   0.0481253   0.0962506   0.0000000), wk =   0.0219479
        k(   57) = (   0.0481253   0.0962506   0.0263776), wk =   0.0438957
        k(   58) = (   0.0481253   0.0962506   0.0527552), wk =   0.0438957
        k(   59) = (   0.0481253   0.0962506   0.0791328), wk =   0.0438957
        k(   60) = (   0.0481253   0.0962506   0.1055104), wk =   0.0438957
        k(   61) = (   0.0721880   0.0721880   0.0000000), wk =   0.0109739
        k(   62) = (   0.0721880   0.0721880   0.0263776), wk =   0.0219479
        k(   63) = (   0.0721880   0.0721880   0.0527552), wk =   0.0219479
        k(   64) = (   0.0721880   0.0721880   0.0791328), wk =   0.0219479
        k(   65) = (   0.0721880   0.0721880   0.1055104), wk =   0.0219479
        k(   66) = (   0.0721880   0.0962506   0.0000000), wk =   0.0219479
        k(   67) = (   0.0721880   0.0962506   0.0263776), wk =   0.0438957
        k(   68) = (   0.0721880   0.0962506   0.0527552), wk =   0.0438957
        k(   69) = (   0.0721880   0.0962506   0.0791328), wk =   0.0438957
        k(   70) = (   0.0721880   0.0962506   0.1055104), wk =   0.0438957
        k(   71) = (   0.0962506   0.0962506   0.0000000), wk =   0.0109739
        k(   72) = (   0.0962506   0.0962506   0.0263776), wk =   0.0219479
        k(   73) = (   0.0962506   0.0962506   0.0527552), wk =   0.0219479
        k(   74) = (   0.0962506   0.0962506   0.0791328), wk =   0.0219479
        k(   75) = (   0.0962506   0.0962506   0.1055104), wk =   0.0219479

     Largest allocated arrays     est. size (Mb)     dimensions
     Largest temporary arrays     est. size (Mb)     dimensions

     Initial potential from superposition of free atoms

     starting charge   62.99972, renormalised to   66.00000

     *
     * You are using vdW-DF for exchange-correlation in this calculation.
     * Please cite the following three references that made this development
     * possible:
     *
     *   M. Dion, H. Rydberg, E. Schroder, D. C. Langreth, and
     *   B. I. Lundqvist, Phys. Rev. Lett. 92, 246401 (2004).
     *
     *   T. Thonhauser, V. R. Cooper, S. Li, A. Puzder, P. Hyldgaard, and
     *   D. C. Langreth, Phys. Rev. B 76, 125112 (2007).
     *
     *   G. Roman-Perez and J. M. Soler, Phys. Rev. Lett. 103, 096102 (2009).
     *
     *
     * If you are using vdW-DF2, please also cite:
     *
     *   K. Lee, E. D. Murray, L. Kong, B. I. Lundqvist, and
     *   D. C. Langreth, Phys. Rev. B 82, 081101(R) (2010).
     *
     *
     * If you are calculating the stress with vdW-DF, please also cite:
     *
     *   R. Sabatini, E. Kucukbenli, B. Kolb, T. Thonhauser, and
     *   S. de Gironcoli, J. Phys.: Condens. Matter 24, 424209 (2012).
     *

     Carrying out vdW-DF run using the following parameters:

     Nqs =      20    Nr_points =    1024   r_max =   100.000
     q_mesh =
               0.00001000     0.04494208     0.09755937     0.15916263
               0.23128650     0.31572767     0.41458969     0.53033537
               0.66584808     0.82450364     1.01025438     1.22772762
               1.48234092     1.78043706     2.12944203     2.53805004
               3.01644009     3.57652955     4.23227104     5.00000000

     Gradients computed in reciprocal space

     Starting wfc are   44 randomized atomic wfcs +    9 random wfc

     Self-consistent Calculation

     iteration #  1     ecut=    58.80 Ry     beta=0.10
     Davidson diagonalization with overlap
     ethr =  1.00E-02,  avg # of iterations =  4.7

     total energy              =   -1183.73088652 Ry
     Harris-Foulkes estimate   =   -1204.14577149 Ry
     estimated scf accuracy    <     114.08265750 Ry

[...]

     total energy              =   -1195.12000401 Ry
     Harris-Foulkes estimate   =   -1195.12003186 Ry
     estimated scf accuracy    <       0.00006536 Ry

     iteration # 11     ecut=    58.80 Ry     beta=0.10
     Davidson diagonalization with overlap
     ethr =  5.49E-08,  avg # of iterations =  2.0

     End of self-consistent calculation

          k = 0.0000 0.0000 0.0000 (  4615 PWs)   bands (ev):

  -116.3339-116.3339 -70.5193 -70.5192 -70.5148 -70.5148 -70.5138 -70.5138
    -5.0583  -4.9601  -4.9071  -4.8441  -4.8441  -4.7168  -4.7168  -4.7065
    -4.6612  -4.5235   0.8435   2.5446   2.6055   2.6648   2.7472   2.7472
     2.8204   2.8450   2.8450   2.9024   3.0021   8.2953   8.2953   8.3909
     9.2476   9.4515  10.6247  14.7018  14.7018  15.8361  15.9416  16.3943
    16.3943  18.0927  18.4328  19.5669  19.6707  19.6707  19.9689  22.6324
    22.8856  22.8856  23.9497  25.2812  25.3352

[...]

          k = 0.0963 0.0963 0.1055 (  4621 PWs)   bands (ev):

  -116.3339-116.3339 -70.5193 -70.5193 -70.5148 -70.5148 -70.5138 -70.5137
    -4.9337  -4.9215  -4.8993  -4.8955  -4.7820  -4.7732  -4.7162  -4.7120
    -4.6425  -4.6325   2.4547   2.4595   2.6702   2.6808   2.8070   2.8179
     2.8384   2.8453   2.8866   2.8936   5.6854   6.2959   6.8527   7.0122
     7.5298   7.8747   7.9516   8.7465  18.9283  19.0702  19.2013  19.6406
    19.9588  20.2247  20.4960  20.9301  22.7558  23.1287  23.3930  23.7879
    23.8126  24.1787  24.1818  24.2470  24.4307

     the Fermi energy is    10.1283 ev

!    total energy              =   -1195.12002893 Ry
     Harris-Foulkes estimate   =   -1195.12001596 Ry
     estimated scf accuracy    <       0.00000020 Ry

     The total energy is the sum of the following terms:

     one-electron contribution =    -918.74498723 Ry
     hartree contribution      =     492.57078804 Ry
     xc contribution           =    -165.09398090 Ry
     ewald contribution        =    -603.84810625 Ry
     smearing contrib. (-TS)   =      -0.00374259 Ry

     convergence has been achieved in  11 iterations

     Forces acting on atoms (Ry/au):

     atom    1 type  1   force =     0.00000000    0.00000000    0.00000000
     atom    2 type  1   force =     0.00000000    0.00000000    0.00000000
     atom    3 type  2   force =     0.00000000    0.00000000    0.00000000
     atom    4 type  2   force =     0.00000000    0.00000000    0.00000000

     Total force =     0.000000     Total SCF correction =     0.000000

     General routines

     Parallel routines

   This run was terminated on:   9:54:29  14Nov2017

   JOB DONE.