     Program PWSCF v.5.1rc2 starts on 15Nov2017 at  6:34: 2

     Current dimensions of program PWSCF are:
     Max number of different atomic species (ntypx) = 10
     Max number of k-points (npk) =  40000
     Max angular momentum in pseudopotentials (lmaxx) =  3

     IMPORTANT: XC functional enforced from input :
     Exchange-correlation      = BEEF-VDW ( 1  4 27 13 2)
     Any further DFT definition will be discarded
     Please, verify this is what you really want

     Found symmetry operation: I + ( -0.5000 -0.5000  0.0000)
     This is a supercell, fractional translations are disabled

     bravais-lattice index     =            0
     lattice parameter (alat)  =       1.8897  a.u.
     unit-cell volume          =     427.2005 (a.u.)^3
     number of atoms/cell      =            4
     number of atomic types    =            2
     number of electrons       =        56.00
     number of Kohn-Sham states=           48
     kinetic-energy cutoff     =      58.7989  Ry
     charge density cutoff     =     587.9892  Ry
     convergence threshold     =      1.0E-06
     mixing beta               =       0.1000
     number of iterations used =           10  plain     mixing
     Exchange-correlation      = BEEF-VDW ( 1  4 27 13 2)

     celldm(1)=   1.889726  celldm(2)=   0.000000  celldm(3)=   0.000000
     celldm(4)=   0.000000  celldm(5)=   0.000000  celldm(6)=   0.000000

     crystal axes: (cart. coord. in units of alat)
               a(1) = (   4.031343   0.000000   0.000000 )
               a(2) = (   0.000000   4.031343   0.000000 )
               a(3) = (   0.000000   0.000000   3.895252 )

     reciprocal axes: (cart. coord. in units 2 pi/alat)
               b(1) = (  0.248056  0.000000  0.000000 )
               b(2) = (  0.000000  0.248056  0.000000 )
               b(3) = (  0.000000  0.000000  0.256723 )

     PseudoPot. # 1 for Ti read from file:
     /home/users/vossj/suncat/psp/gbrv1.5pbe/Ti.UPF
     MD5 check sum: 88a00a6731bd790ddea75d31a80cb452
     Pseudo is Ultrasoft + core correction, Zval = 12.0
     Generated by new atomic code, or converted to UPF format
     Using radial grid of  851 points,  6 beta functions with:
                l(1) =   0
                l(2) =   0
                l(3) =   1
                l(4) =   1
                l(5) =   2
                l(6) =   2
     Q(r) pseudized with  6 coefficients,  rinner =    1.000   1.000   1.000
                                                       1.000   1.000

     PseudoPot. # 2 for Pd read from file:
     /home/users/vossj/suncat/psp/gbrv1.5pbe/Pd.UPF
     MD5 check sum: 2d733d2bc2cbfd217af676df1668a4bc
     Pseudo is Ultrasoft + core correction, Zval = 16.0
     Generated by new atomic code, or converted to UPF format
     Using radial grid of  887 points,  6 beta functions with:
                l(1) =   0
                l(2) =   0
                l(3) =   1
                l(4) =   1
                l(5) =   2
                l(6) =   2
     Q(r) pseudized with  8 coefficients,  rinner =    1.130   1.130   1.130
                                                       1.130   1.130

     vdW kernel table read from file vdW_kernel_table
     MD5 check sum: 095c7af220d748ca6e76c0b4c6cfb241

     atomic species   valence    mass     pseudopotential
        Ti1           12.00    47.88000     Ti( 1.00)
        Pd1           16.00   106.42000     Pd( 1.00)

     16 Sym. Ops., with inversion, found

   Cartesian axes

     site n.     atom                  positions (alat units)
         1           Ti1 tau(   1) = (   0.0000000   0.0000000   0.0000000  )
         2           Ti1 tau(   2) = (   2.0156715   2.0156715   0.0000000  )
         3           Pd1 tau(   3) = (   2.0156715   0.0000000   1.9476262  )
         4           Pd1 tau(   4) = (   0.0000000   2.0156715   1.9476262  )

     number of k points=    75  Fermi-Dirac smearing, width (Ry)=  0.0073
                       cart. coord. in units 2pi/alat
        k(    1) = (   0.0000000   0.0000000   0.0000000), wk =   0.0027435
        k(    2) = (   0.0000000   0.0000000   0.0285248), wk =   0.0054870
        k(    3) = (   0.0000000   0.0000000   0.0570495), wk =   0.0054870
        k(    4) = (   0.0000000   0.0000000   0.0855743), wk =   0.0054870
        k(    5) = (   0.0000000   0.0000000   0.1140990), wk =   0.0054870
        k(    6) = (   0.0000000   0.0275618   0.0000000), wk =   0.0109739
        k(    7) = (   0.0000000   0.0275618   0.0285248), wk =   0.0219479
        k(    8) = (   0.0000000   0.0275618   0.0570495), wk =   0.0219479
        k(    9) = (   0.0000000   0.0275618   0.0855743), wk =   0.0219479
        k(   10) = (   0.0000000   0.0275618   0.1140990), wk =   0.0219479
        k(   11) = (   0.0000000   0.0551236   0.0000000), wk =   0.0109739
        k(   12) = (   0.0000000   0.0551236   0.0285248), wk =   0.0219479
        k(   13) = (   0.0000000   0.0551236   0.0570495), wk =   0.0219479
        k(   14) = (   0.0000000   0.0551236   0.0855743), wk =   0.0219479
        k(   15) = (   0.0000000   0.0551236   0.1140990), wk =   0.0219479
        k(   16) = (   0.0000000   0.0826854   0.0000000), wk =   0.0109739
        k(   17) = (   0.0000000   0.0826854   0.0285248), wk =   0.0219479
        k(   18) = (   0.0000000   0.0826854   0.0570495), wk =   0.0219479
        k(   19) = (   0.0000000   0.0826854   0.0855743), wk =   0.0219479
        k(   20) = (   0.0000000   0.0826854   0.1140990), wk =   0.0219479
        k(   21) = (   0.0000000   0.1102472   0.0000000), wk =   0.0109739
        k(   22) = (   0.0000000   0.1102472   0.0285248), wk =   0.0219479
        k(   23) = (   0.0000000   0.1102472   0.0570495), wk =   0.0219479
        k(   24) = (   0.0000000   0.1102472   0.0855743), wk =   0.0219479
        k(   25) = (   0.0000000   0.1102472   0.1140990), wk =   0.0219479
        k(   26) = (   0.0275618   0.0275618   0.0000000), wk =   0.0109739
        k(   27) = (   0.0275618   0.0275618   0.0285248), wk =   0.0219479
        k(   28) = (   0.0275618   0.0275618   0.0570495), wk =   0.0219479
        k(   29) = (   0.0275618   0.0275618   0.0855743), wk =   0.0219479
        k(   30) = (   0.0275618   0.0275618   0.1140990), wk =   0.0219479
        k(   31) = (   0.0275618   0.0551236   0.0000000), wk =   0.0219479
        k(   32) = (   0.0275618   0.0551236   0.0285248), wk =   0.0438957
        k(   33) = (   0.0275618   0.0551236   0.0570495), wk =   0.0438957
        k(   34) = (   0.0275618   0.0551236   0.0855743), wk =   0.0438957
        k(   35) = (   0.0275618   0.0551236   0.1140990), wk =   0.0438957
        k(   36) = (   0.0275618   0.0826854   0.0000000), wk =   0.0219479
        k(   37) = (   0.0275618   0.0826854   0.0285248), wk =   0.0438957
        k(   38) = (   0.0275618   0.0826854   0.0570495), wk =   0.0438957
        k(   39) = (   0.0275618   0.0826854   0.0855743), wk =   0.0438957
        k(   40) = (   0.0275618   0.0826854   0.1140990), wk =   0.0438957
        k(   41) = (   0.0275618   0.1102472   0.0000000), wk =   0.0219479
        k(   42) = (   0.0275618   0.1102472   0.0285248), wk =   0.0438957
        k(   43) = (   0.0275618   0.1102472   0.0570495), wk =   0.0438957
        k(   44) = (   0.0275618   0.1102472   0.0855743), wk =   0.0438957
        k(   45) = (   0.0275618   0.1102472   0.1140990), wk =   0.0438957
        k(   46) = (   0.0551236   0.0551236   0.0000000), wk =   0.0109739
        k(   47) = (   0.0551236   0.0551236   0.0285248), wk =   0.0219479
        k(   48) = (   0.0551236   0.0551236   0.0570495), wk =   0.0219479
        k(   49) = (   0.0551236   0.0551236   0.0855743), wk =   0.0219479
        k(   50) = (   0.0551236   0.0551236   0.1140990), wk =   0.0219479
        k(   51) = (   0.0551236   0.0826854   0.0000000), wk =   0.0219479
        k(   52) = (   0.0551236   0.0826854   0.0285248), wk =   0.0438957
        k(   53) = (   0.0551236   0.0826854   0.0570495), wk =   0.0438957
        k(   54) = (   0.0551236   0.0826854   0.0855743), wk =   0.0438957
        k(   55) = (   0.0551236   0.0826854   0.1140990), wk =   0.0438957
        k(   56) = (   0.0551236   0.1102472   0.0000000), wk =   0.0219479
        k(   57) = (   0.0551236   0.1102472   0.0285248), wk =   0.0438957
        k(   58) = (   0.0551236   0.1102472   0.0570495), wk =   0.0438957
        k(   59) = (   0.0551236   0.1102472   0.0855743), wk =   0.0438957
        k(   60) = (   0.0551236   0.1102472   0.1140990), wk =   0.0438957
        k(   61) = (   0.0826854   0.0826854   0.0000000), wk =   0.0109739
        k(   62) = (   0.0826854   0.0826854   0.0285248), wk =   0.0219479
        k(   63) = (   0.0826854   0.0826854   0.0570495), wk =   0.0219479
        k(   64) = (   0.0826854   0.0826854   0.0855743), wk =   0.0219479
        k(   65) = (   0.0826854   0.0826854   0.1140990), wk =   0.0219479
        k(   66) = (   0.0826854   0.1102472   0.0000000), wk =   0.0219479
        k(   67) = (   0.0826854   0.1102472   0.0285248), wk =   0.0438957
        k(   68) = (   0.0826854   0.1102472   0.0570495), wk =   0.0438957
        k(   69) = (   0.0826854   0.1102472   0.0855743), wk =   0.0438957
        k(   70) = (   0.0826854   0.1102472   0.1140990), wk =   0.0438957
        k(   71) = (   0.1102472   0.1102472   0.0000000), wk =   0.0109739
        k(   72) = (   0.1102472   0.1102472   0.0285248), wk =   0.0219479
        k(   73) = (   0.1102472   0.1102472   0.0570495), wk =   0.0219479
        k(   74) = (   0.1102472   0.1102472   0.0855743), wk =   0.0219479
        k(   75) = (   0.1102472   0.1102472   0.1140990), wk =   0.0219479

     Largest allocated arrays     est. size (Mb)     dimensions
     Largest temporary arrays     est. size (Mb)     dimensions

     Check: negative/imaginary core charge=   -0.000002    0.000000

     Initial potential from superposition of free atoms
     Check: negative starting charge=   -0.157502

     starting charge   52.99990, renormalised to   56.00000

     negative rho (up, down):  1.664E-01 0.000E+00

     *
     * You are using vdW-DF for exchange-correlation in this calculation.
     * Please cite the following three references that made this development
     * possible:
     *
     *   M. Dion, H. Rydberg, E. Schroder, D. C. Langreth, and
     *   B. I. Lundqvist, Phys. Rev. Lett. 92, 246401 (2004).
     *
     *   T. Thonhauser, V. R. Cooper, S. Li, A. Puzder, P. Hyldgaard, and
     *   D. C. Langreth, Phys. Rev. B 76, 125112 (2007).
     *
     *   G. Roman-Perez and J. M. Soler, Phys. Rev. Lett. 103, 096102 (2009).
     *
     *
     * If you are using vdW-DF2, please also cite:
     *
     *   K. Lee, E. D. Murray, L. Kong, B. I. Lundqvist, and
     *   D. C. Langreth, Phys. Rev. B 82, 081101(R) (2010).
     *
     *
     * If you are calculating the stress with vdW-DF, please also cite:
     *
     *   R. Sabatini, E. Kucukbenli, B. Kolb, T. Thonhauser, and
     *   S. de Gironcoli, J. Phys.: Condens. Matter 24, 424209 (2012).
     *

     Carrying out vdW-DF run using the following parameters:

     Nqs =      20    Nr_points =    1024   r_max =   100.000
     q_mesh =
               0.00001000     0.04494208     0.09755937     0.15916263
               0.23128650     0.31572767     0.41458969     0.53033537
               0.66584808     0.82450364     1.01025438     1.22772762
               1.48234092     1.78043706     2.12944203     2.53805004
               3.01644009     3.57652955     4.23227104     5.00000000

     Gradients computed in reciprocal space

     Starting wfc are   44 randomized atomic wfcs +    4 random wfc

     Self-consistent Calculation

     iteration #  1     ecut=    58.80 Ry     beta=0.10
     Davidson diagonalization with overlap
     ethr =  1.00E-02,  avg # of iterations =  4.0

[...]

     total energy              =    -633.62075127 Ry
     Harris-Foulkes estimate   =    -645.29952837 Ry
     estimated scf accuracy    <      65.09113518 Ry

[...]

     total energy              =    -639.59603188 Ry
     Harris-Foulkes estimate   =    -639.59603186 Ry
     estimated scf accuracy    <       0.00000263 Ry

     iteration # 16     ecut=    58.80 Ry     beta=0.10
     Davidson diagonalization with overlap
     ethr =  4.70E-09,  avg # of iterations =  1.3

     negative rho (up, down):  1.655E-01 0.000E+00

     End of self-consistent calculation

          k = 0.0000 0.0000 0.0000 (  3253 PWs)   bands (ev):

   -41.0551 -40.9562 -34.7029 -34.6833 -34.6833 -34.6743 -34.5533 -34.5533
   -17.3656 -17.3656 -17.3235 -17.2377 -17.0068 -17.0068   9.2682  10.9058
    11.1695  11.3516  11.6481  11.6481  11.7186  13.4233  13.4233  14.3862
    15.3039  15.7821  16.6179  16.8244  18.3511  18.3511  18.6127  18.7473
    18.7473  18.8305  18.8305  19.0407  19.4920  19.7599  25.6855  26.8440
    27.0545  28.1736  28.1736  28.1825  28.7279  28.7279  29.7139  32.5756

[...]

          k = 0.1102 0.1102 0.1141 (  3251 PWs)   bands (ev):

   -41.0058 -41.0027 -34.6978 -34.6940 -34.6919 -34.6912 -34.5454 -34.5415
   -17.4162 -17.4055 -17.2950 -17.2920 -16.9827 -16.9715  11.2224  11.2233
    11.4428  11.5158  13.1041  13.1966  13.2094  13.2096  13.4346  13.4840
    15.6260  16.0574  16.1811  16.2265  16.5114  16.6473  16.6584  17.1194
    18.2891  18.5600  18.7083  18.7834  18.9739  19.0707  23.2912  23.4460
    24.3414  24.5854  31.6948  31.7649  31.7892  31.8618  35.0536  36.0924

     the Fermi energy is    16.2289 ev

!    total energy              =    -639.59603518 Ry
     Harris-Foulkes estimate   =    -639.59603233 Ry
     estimated scf accuracy    <       0.00000028 Ry

     The total energy is the sum of the following terms:

     one-electron contribution =    -180.58301375 Ry
     hartree contribution      =     125.81366926 Ry
     xc contribution           =    -102.63036661 Ry
     ewald contribution        =    -482.18361796 Ry
     smearing contrib. (-TS)   =      -0.01270612 Ry

     convergence has been achieved in  16 iterations

     Forces acting on atoms (Ry/au):

     negative rho (up, down):  1.655E-01 0.000E+00
     atom    1 type  1   force =     0.00000000    0.00000000    0.00000000
     atom    2 type  1   force =     0.00000000    0.00000000    0.00000000
     atom    3 type  2   force =     0.00000000    0.00000000    0.00000000
     atom    4 type  2   force =     0.00000000    0.00000000    0.00000000

     Total force =     0.000000     Total SCF correction =     0.000000

     General routines

     Parallel routines

   This run was terminated on:   6:34:50  15Nov2017

   JOB DONE.