     Program PWSCF v.5.1rc2 starts on 14Nov2017 at  2:59:56

     Current dimensions of program PWSCF are:
     Max number of different atomic species (ntypx) = 10
     Max number of k-points (npk) =  40000
     Max angular momentum in pseudopotentials (lmaxx) =  3

     IMPORTANT: XC functional enforced from input :
     Exchange-correlation      = BEEF-VDW ( 1  4 27 13 2)
     Any further DFT definition will be discarded
     Please, verify this is what you really want

     Found symmetry operation: I + ( -0.5000 -0.5000  0.0000)
     This is a supercell, fractional translations are disabled

     bravais-lattice index     =            0
     lattice parameter (alat)  =       1.8897  a.u.
     unit-cell volume          =     484.8607 (a.u.)^3
     number of atoms/cell      =            4
     number of atomic types    =            2
     number of electrons       =        56.00
     number of Kohn-Sham states=           48
     kinetic-energy cutoff     =      58.7989  Ry
     charge density cutoff     =     587.9892  Ry
     convergence threshold     =      1.0E-06
     mixing beta               =       0.1000
     number of iterations used =           10  plain     mixing
     Exchange-correlation      = BEEF-VDW ( 1  4 27 13 2)

     celldm(1)=   1.889726  celldm(2)=   0.000000  celldm(3)=   0.000000
     celldm(4)=   0.000000  celldm(5)=   0.000000  celldm(6)=   0.000000

     crystal axes: (cart. coord. in units of alat)
               a(1) = (   4.297357   0.000000   0.000000 )
               a(2) = (   0.000000   4.297357   0.000000 )
               a(3) = (   0.000000   0.000000   3.890608 )

     reciprocal axes: (cart. coord. in units 2 pi/alat)
               b(1) = (  0.232701  0.000000  0.000000 )
               b(2) = (  0.000000  0.232701  0.000000 )
               b(3) = (  0.000000  0.000000  0.257029 )

     PseudoPot. # 1 for Cd read from file:
     /home/users/vossj/suncat/psp/gbrv1.5pbe/Cd.UPF
     MD5 check sum: 17164a7926edb8e0dc231208abae86a6
     Pseudo is Ultrasoft + core correction, Zval = 12.0
     Generated by new atomic code, or converted to UPF format
     Using radial grid of  889 points,  6 beta functions with:
                l(1) =   0
                l(2) =   0
                l(3) =   1
                l(4) =   1
                l(5) =   2
                l(6) =   2
     Q(r) pseudized with  6 coefficients,  rinner =    1.000   1.000   1.000
                                                       1.000   1.000

     PseudoPot. # 2 for Pt read from file:
     /home/users/vossj/suncat/psp/gbrv1.5pbe/Pt.UPF
     MD5 check sum: f09d6de1a584b5a045c4fc126da2d0c4
     Pseudo is Ultrasoft + core correction, Zval = 16.0
     Generated by new atomic code, or converted to UPF format
     Using radial grid of  985 points,  6 beta functions with:
                l(1) =   0
                l(2) =   0
                l(3) =   1
                l(4) =   1
                l(5) =   2
                l(6) =   2
     Q(r) pseudized with  8 coefficients,  rinner =    1.300   1.300   1.300
                                                       1.300   1.300

     vdW kernel table read from file vdW_kernel_table
     MD5 check sum: 095c7af220d748ca6e76c0b4c6cfb241

     atomic species   valence    mass     pseudopotential
        Cd1           12.00   112.41000     Cd( 1.00)
        Pt1           16.00   195.08000     Pt( 1.00)

     16 Sym. Ops., with inversion, found

   Cartesian axes

     site n.     atom                  positions (alat units)
         1           Cd1 tau(   1) = (   0.0000000   0.0000000   0.0000000  )
         2           Cd1 tau(   2) = (   2.1486785   2.1486785   0.0000000  )
         3           Pt1 tau(   3) = (   2.1486785   0.0000000   1.9453041  )
         4           Pt1 tau(   4) = (   0.0000000   2.1486785   1.9453041  )

     number of k points=    75  Fermi-Dirac smearing, width (Ry)=  0.0073
                       cart. coord. in units 2pi/alat
        k(    1) = (   0.0000000   0.0000000   0.0000000), wk =   0.0027435
        k(    2) = (   0.0000000   0.0000000   0.0285588), wk =   0.0054870
        k(    3) = (   0.0000000   0.0000000   0.0571176), wk =   0.0054870
        k(    4) = (   0.0000000   0.0000000   0.0856764), wk =   0.0054870
        k(    5) = (   0.0000000   0.0000000   0.1142352), wk =   0.0054870
        k(    6) = (   0.0000000   0.0258557   0.0000000), wk =   0.0109739
        k(    7) = (   0.0000000   0.0258557   0.0285588), wk =   0.0219479
        k(    8) = (   0.0000000   0.0258557   0.0571176), wk =   0.0219479
        k(    9) = (   0.0000000   0.0258557   0.0856764), wk =   0.0219479
        k(   10) = (   0.0000000   0.0258557   0.1142352), wk =   0.0219479
        k(   11) = (   0.0000000   0.0517114   0.0000000), wk =   0.0109739
        k(   12) = (   0.0000000   0.0517114   0.0285588), wk =   0.0219479
        k(   13) = (   0.0000000   0.0517114   0.0571176), wk =   0.0219479
        k(   14) = (   0.0000000   0.0517114   0.0856764), wk =   0.0219479
        k(   15) = (   0.0000000   0.0517114   0.1142352), wk =   0.0219479
        k(   16) = (   0.0000000   0.0775671   0.0000000), wk =   0.0109739
        k(   17) = (   0.0000000   0.0775671   0.0285588), wk =   0.0219479
        k(   18) = (   0.0000000   0.0775671   0.0571176), wk =   0.0219479
        k(   19) = (   0.0000000   0.0775671   0.0856764), wk =   0.0219479
        k(   20) = (   0.0000000   0.0775671   0.1142352), wk =   0.0219479
        k(   21) = (   0.0000000   0.1034227   0.0000000), wk =   0.0109739
        k(   22) = (   0.0000000   0.1034227   0.0285588), wk =   0.0219479
        k(   23) = (   0.0000000   0.1034227   0.0571176), wk =   0.0219479
        k(   24) = (   0.0000000   0.1034227   0.0856764), wk =   0.0219479
        k(   25) = (   0.0000000   0.1034227   0.1142352), wk =   0.0219479
        k(   26) = (   0.0258557   0.0258557   0.0000000), wk =   0.0109739
        k(   27) = (   0.0258557   0.0258557   0.0285588), wk =   0.0219479
        k(   28) = (   0.0258557   0.0258557   0.0571176), wk =   0.0219479
        k(   29) = (   0.0258557   0.0258557   0.0856764), wk =   0.0219479
        k(   30) = (   0.0258557   0.0258557   0.1142352), wk =   0.0219479
        k(   31) = (   0.0258557   0.0517114   0.0000000), wk =   0.0219479
        k(   32) = (   0.0258557   0.0517114   0.0285588), wk =   0.0438957
        k(   33) = (   0.0258557   0.0517114   0.0571176), wk =   0.0438957
        k(   34) = (   0.0258557   0.0517114   0.0856764), wk =   0.0438957
        k(   35) = (   0.0258557   0.0517114   0.1142352), wk =   0.0438957
        k(   36) = (   0.0258557   0.0775671   0.0000000), wk =   0.0219479
        k(   37) = (   0.0258557   0.0775671   0.0285588), wk =   0.0438957
        k(   38) = (   0.0258557   0.0775671   0.0571176), wk =   0.0438957
        k(   39) = (   0.0258557   0.0775671   0.0856764), wk =   0.0438957
        k(   40) = (   0.0258557   0.0775671   0.1142352), wk =   0.0438957
        k(   41) = (   0.0258557   0.1034227   0.0000000), wk =   0.0219479
        k(   42) = (   0.0258557   0.1034227   0.0285588), wk =   0.0438957
        k(   43) = (   0.0258557   0.1034227   0.0571176), wk =   0.0438957
        k(   44) = (   0.0258557   0.1034227   0.0856764), wk =   0.0438957
        k(   45) = (   0.0258557   0.1034227   0.1142352), wk =   0.0438957
        k(   46) = (   0.0517114   0.0517114   0.0000000), wk =   0.0109739
        k(   47) = (   0.0517114   0.0517114   0.0285588), wk =   0.0219479
        k(   48) = (   0.0517114   0.0517114   0.0571176), wk =   0.0219479
        k(   49) = (   0.0517114   0.0517114   0.0856764), wk =   0.0219479
        k(   50) = (   0.0517114   0.0517114   0.1142352), wk =   0.0219479
        k(   51) = (   0.0517114   0.0775671   0.0000000), wk =   0.0219479
        k(   52) = (   0.0517114   0.0775671   0.0285588), wk =   0.0438957
        k(   53) = (   0.0517114   0.0775671   0.0571176), wk =   0.0438957
        k(   54) = (   0.0517114   0.0775671   0.0856764), wk =   0.0438957
        k(   55) = (   0.0517114   0.0775671   0.1142352), wk =   0.0438957
        k(   56) = (   0.0517114   0.1034227   0.0000000), wk =   0.0219479
        k(   57) = (   0.0517114   0.1034227   0.0285588), wk =   0.0438957
        k(   58) = (   0.0517114   0.1034227   0.0571176), wk =   0.0438957
        k(   59) = (   0.0517114   0.1034227   0.0856764), wk =   0.0438957
        k(   60) = (   0.0517114   0.1034227   0.1142352), wk =   0.0438957
        k(   61) = (   0.0775671   0.0775671   0.0000000), wk =   0.0109739
        k(   62) = (   0.0775671   0.0775671   0.0285588), wk =   0.0219479
        k(   63) = (   0.0775671   0.0775671   0.0571176), wk =   0.0219479
        k(   64) = (   0.0775671   0.0775671   0.0856764), wk =   0.0219479
        k(   65) = (   0.0775671   0.0775671   0.1142352), wk =   0.0219479
        k(   66) = (   0.0775671   0.1034227   0.0000000), wk =   0.0219479
        k(   67) = (   0.0775671   0.1034227   0.0285588), wk =   0.0438957
        k(   68) = (   0.0775671   0.1034227   0.0571176), wk =   0.0438957
        k(   69) = (   0.0775671   0.1034227   0.0856764), wk =   0.0438957
        k(   70) = (   0.0775671   0.1034227   0.1142352), wk =   0.0438957
        k(   71) = (   0.1034227   0.1034227   0.0000000), wk =   0.0109739
        k(   72) = (   0.1034227   0.1034227   0.0285588), wk =   0.0219479
        k(   73) = (   0.1034227   0.1034227   0.0571176), wk =   0.0219479
        k(   74) = (   0.1034227   0.1034227   0.0856764), wk =   0.0219479
        k(   75) = (   0.1034227   0.1034227   0.1142352), wk =   0.0219479

     Largest allocated arrays     est. size (Mb)     dimensions
     Largest temporary arrays     est. size (Mb)     dimensions

     Initial potential from superposition of free atoms
     Check: negative starting charge=   -0.409690

     starting charge   53.99989, renormalised to   56.00000

     negative rho (up, down):  4.249E-01 0.000E+00

     *
     * You are using vdW-DF for exchange-correlation in this calculation.
     * Please cite the following three references that made this development
     * possible:
     *
     *   M. Dion, H. Rydberg, E. Schroder, D. C. Langreth, and
     *   B. I. Lundqvist, Phys. Rev. Lett. 92, 246401 (2004).
     *
     *   T. Thonhauser, V. R. Cooper, S. Li, A. Puzder, P. Hyldgaard, and
     *   D. C. Langreth, Phys. Rev. B 76, 125112 (2007).
     *
     *   G. Roman-Perez and J. M. Soler, Phys. Rev. Lett. 103, 096102 (2009).
     *
     *
     * If you are using vdW-DF2, please also cite:
     *
     *   K. Lee, E. D. Murray, L. Kong, B. I. Lundqvist, and
     *   D. C. Langreth, Phys. Rev. B 82, 081101(R) (2010).
     *
     *
     * If you are calculating the stress with vdW-DF, please also cite:
     *
     *   R. Sabatini, E. Kucukbenli, B. Kolb, T. Thonhauser, and
     *   S. de Gironcoli, J. Phys.: Condens. Matter 24, 424209 (2012).
     *

     Carrying out vdW-DF run using the following parameters:

     Nqs =      20    Nr_points =    1024   r_max =   100.000
     q_mesh =
               0.00001000     0.04494208     0.09755937     0.15916263
               0.23128650     0.31572767     0.41458969     0.53033537
               0.66584808     0.82450364     1.01025438     1.22772762
               1.48234092     1.78043706     2.12944203     2.53805004
               3.01644009     3.57652955     4.23227104     5.00000000

     Gradients computed in reciprocal space

     Starting wfc are   42 randomized atomic wfcs +    6 random wfc

     Self-consistent Calculation

     iteration #  1     ecut=    58.80 Ry     beta=0.10
     Davidson diagonalization with overlap
     ethr =  1.00E-02,  avg # of iterations =  4.6

[...]

     total energy              =    -657.26394396 Ry
     Harris-Foulkes estimate   =    -657.75120454 Ry
     estimated scf accuracy    <       3.06128489 Ry

[...]

     total energy              =    -657.04219082 Ry
     Harris-Foulkes estimate   =    -657.04217616 Ry
     estimated scf accuracy    <       0.00000522 Ry

     iteration # 10     ecut=    58.80 Ry     beta=0.10
     Davidson diagonalization with overlap
     ethr =  9.32E-09,  avg # of iterations =  2.0

     negative rho (up, down):  3.988E-01 0.000E+00

     End of self-consistent calculation

          k = 0.0000 0.0000 0.0000 (  3689 PWs)   bands (ev):

   -36.5432 -36.5432 -36.5336 -36.5188 -36.4650 -36.4650   6.2783   6.3403
     6.5574   6.7067   6.7067   6.8878   7.1075   7.3142   7.3142   7.5488
     7.9364  11.5886  12.0468  12.4750  13.6235  13.6235  13.7493  14.3530
    14.3530  14.7951  15.6504  16.0037  16.0037  17.7592  20.0990  21.0524
    22.7758  24.1058  24.1058  25.0405  26.0321  26.0321  27.1632  30.5236
    30.7709  31.0984  32.4675  32.4814  33.6350  33.6350  33.7077  33.7078

[...]

          k = 0.1034 0.1034 0.1142 (  3690 PWs)   bands (ev):

   -36.5505 -36.5482 -36.5296 -36.5291 -36.4608 -36.4584   6.4703   6.4768
     6.6303   6.6674   7.0851   7.1168   7.3023   7.3188   7.5250   7.5457
    10.9656  11.0455  12.2119  12.3306  13.6523  13.6961  13.8138  13.9970
    14.3315  14.3738  14.5541  15.1181  15.2322  15.3110  18.2394  18.5277
    19.3145  19.6217  29.2875  29.3155  29.4384  29.7903  29.8122  29.8383
    32.0120  32.3090  33.0915  33.1065  34.1168  34.3599  35.9964  36.3472

     the Fermi energy is    15.7404 ev

!    total energy              =    -657.04225788 Ry
     Harris-Foulkes estimate   =    -657.04219211 Ry
     estimated scf accuracy    <       0.00000033 Ry

     The total energy is the sum of the following terms:

     one-electron contribution =     -95.06999604 Ry
     hartree contribution      =      99.61583088 Ry
     xc contribution           =    -199.15996203 Ry
     ewald contribution        =    -462.42602743 Ry
     smearing contrib. (-TS)   =      -0.00210326 Ry

     convergence has been achieved in  10 iterations

     Forces acting on atoms (Ry/au):

     negative rho (up, down):  3.988E-01 0.000E+00
     atom    1 type  1   force =     0.00000000    0.00000000    0.00000000
     atom    2 type  1   force =     0.00000000    0.00000000    0.00000000
     atom    3 type  2   force =     0.00000000    0.00000000    0.00000000
     atom    4 type  2   force =     0.00000000    0.00000000    0.00000000

     Total force =     0.000000     Total SCF correction =     0.000000

     General routines

     Parallel routines

   This run was terminated on:   3: 0:31  14Nov2017

   JOB DONE.