     Program PWSCF v.5.1rc2 starts on 13Nov2017 at 13:56:44

     Current dimensions of program PWSCF are:
     Max number of different atomic species (ntypx) = 10
     Max number of k-points (npk) =  40000
     Max angular momentum in pseudopotentials (lmaxx) =  3

     IMPORTANT: XC functional enforced from input :
     Exchange-correlation      = BEEF-VDW ( 1  4 27 13 2)
     Any further DFT definition will be discarded
     Please, verify this is what you really want

     Found symmetry operation: I + ( -0.5000 -0.5000  0.0000)
     This is a supercell, fractional translations are disabled

     bravais-lattice index     =            0
     lattice parameter (alat)  =       1.8897  a.u.
     unit-cell volume          =     500.6289 (a.u.)^3
     number of atoms/cell      =            4
     number of atomic types    =            2
     number of electrons       =        60.00
     number of Kohn-Sham states=           50
     kinetic-energy cutoff     =      58.7989  Ry
     charge density cutoff     =     587.9892  Ry
     convergence threshold     =      1.0E-06
     mixing beta               =       0.1000
     number of iterations used =           10  plain     mixing
     Exchange-correlation      = BEEF-VDW ( 1  4 27 13 2)

     celldm(1)=   1.889726  celldm(2)=   0.000000  celldm(3)=   0.000000
     celldm(4)=   0.000000  celldm(5)=   0.000000  celldm(6)=   0.000000

     crystal axes: (cart. coord. in units of alat)
               a(1) = (   4.187416   0.000000   0.000000 )
               a(2) = (   0.000000   4.187416   0.000000 )
               a(3) = (   0.000000   0.000000   4.230844 )

     reciprocal axes: (cart. coord. in units 2 pi/alat)
               b(1) = (  0.238811  0.000000  0.000000 )
               b(2) = (  0.000000  0.238811  0.000000 )
               b(3) = (  0.000000  0.000000  0.236359 )

     PseudoPot. # 1 for Ag read from file:
     /home/users/vossj/suncat/psp/gbrv1.5pbe/Ag.UPF
     MD5 check sum: d66d668201baa78d5eb5b04ef7011058
     Pseudo is Ultrasoft + core correction, Zval = 19.0
     Generated by new atomic code, or converted to UPF format
     Using radial grid of  887 points,  6 beta functions with:
                l(1) =   0
                l(2) =   0
                l(3) =   1
                l(4) =   1
                l(5) =   2
                l(6) =   2
     Q(r) pseudized with  6 coefficients,  rinner =    1.300   1.300   1.300
                                                       1.300   1.300

     PseudoPot. # 2 for Au read from file:
     /home/users/vossj/suncat/psp/gbrv1.5pbe/Au.UPF
     MD5 check sum: 9d7f43293ad2c663164586bc4b293ffc
     Pseudo is Ultrasoft + core correction, Zval = 11.0
     Generated by new atomic code, or converted to UPF format
     Using radial grid of  985 points,  7 beta functions with:
                l(1) =   0
                l(2) =   0
                l(3) =   1
                l(4) =   1
                l(5) =   2
                l(6) =   2
                l(7) =   3
     Q(r) pseudized with  6 coefficients,  rinner =    1.900   1.900   1.900
                                                       1.900   1.900   1.900
                                                       1.900

     vdW kernel table read from file vdW_kernel_table
     MD5 check sum: 095c7af220d748ca6e76c0b4c6cfb241

     atomic species   valence    mass     pseudopotential
        Ag1           19.00   107.86800     Ag( 1.00)
        Au1           11.00   196.96650     Au( 1.00)

     16 Sym. Ops., with inversion, found

   Cartesian axes

     site n.     atom                  positions (alat units)
         1           Ag1 tau(   1) = (   0.0000000   0.0000000   0.0000000  )
         2           Ag1 tau(   2) = (   2.0937081   2.0937081   0.0000000  )
         3           Au1 tau(   3) = (   2.0937081   0.0000000   2.1154222  )
         4           Au1 tau(   4) = (   0.0000000   2.0937081   2.1154222  )

     number of k points=    75  Fermi-Dirac smearing, width (Ry)=  0.0073
                       cart. coord. in units 2pi/alat
        k(    1) = (   0.0000000   0.0000000   0.0000000), wk =   0.0027435
        k(    2) = (   0.0000000   0.0000000   0.0262622), wk =   0.0054870
        k(    3) = (   0.0000000   0.0000000   0.0525243), wk =   0.0054870
        k(    4) = (   0.0000000   0.0000000   0.0787865), wk =   0.0054870
        k(    5) = (   0.0000000   0.0000000   0.1050486), wk =   0.0054870
        k(    6) = (   0.0000000   0.0265345   0.0000000), wk =   0.0109739
        k(    7) = (   0.0000000   0.0265345   0.0262622), wk =   0.0219479
        k(    8) = (   0.0000000   0.0265345   0.0525243), wk =   0.0219479
        k(    9) = (   0.0000000   0.0265345   0.0787865), wk =   0.0219479
        k(   10) = (   0.0000000   0.0265345   0.1050486), wk =   0.0219479
        k(   11) = (   0.0000000   0.0530691   0.0000000), wk =   0.0109739
        k(   12) = (   0.0000000   0.0530691   0.0262622), wk =   0.0219479
        k(   13) = (   0.0000000   0.0530691   0.0525243), wk =   0.0219479
        k(   14) = (   0.0000000   0.0530691   0.0787865), wk =   0.0219479
        k(   15) = (   0.0000000   0.0530691   0.1050486), wk =   0.0219479
        k(   16) = (   0.0000000   0.0796036   0.0000000), wk =   0.0109739
        k(   17) = (   0.0000000   0.0796036   0.0262622), wk =   0.0219479
        k(   18) = (   0.0000000   0.0796036   0.0525243), wk =   0.0219479
        k(   19) = (   0.0000000   0.0796036   0.0787865), wk =   0.0219479
        k(   20) = (   0.0000000   0.0796036   0.1050486), wk =   0.0219479
        k(   21) = (   0.0000000   0.1061381   0.0000000), wk =   0.0109739
        k(   22) = (   0.0000000   0.1061381   0.0262622), wk =   0.0219479
        k(   23) = (   0.0000000   0.1061381   0.0525243), wk =   0.0219479
        k(   24) = (   0.0000000   0.1061381   0.0787865), wk =   0.0219479
        k(   25) = (   0.0000000   0.1061381   0.1050486), wk =   0.0219479
        k(   26) = (   0.0265345   0.0265345   0.0000000), wk =   0.0109739
        k(   27) = (   0.0265345   0.0265345   0.0262622), wk =   0.0219479
        k(   28) = (   0.0265345   0.0265345   0.0525243), wk =   0.0219479
        k(   29) = (   0.0265345   0.0265345   0.0787865), wk =   0.0219479
        k(   30) = (   0.0265345   0.0265345   0.1050486), wk =   0.0219479
        k(   31) = (   0.0265345   0.0530691   0.0000000), wk =   0.0219479
        k(   32) = (   0.0265345   0.0530691   0.0262622), wk =   0.0438957
        k(   33) = (   0.0265345   0.0530691   0.0525243), wk =   0.0438957
        k(   34) = (   0.0265345   0.0530691   0.0787865), wk =   0.0438957
        k(   35) = (   0.0265345   0.0530691   0.1050486), wk =   0.0438957
        k(   36) = (   0.0265345   0.0796036   0.0000000), wk =   0.0219479
        k(   37) = (   0.0265345   0.0796036   0.0262622), wk =   0.0438957
        k(   38) = (   0.0265345   0.0796036   0.0525243), wk =   0.0438957
        k(   39) = (   0.0265345   0.0796036   0.0787865), wk =   0.0438957
        k(   40) = (   0.0265345   0.0796036   0.1050486), wk =   0.0438957
        k(   41) = (   0.0265345   0.1061381   0.0000000), wk =   0.0219479
        k(   42) = (   0.0265345   0.1061381   0.0262622), wk =   0.0438957
        k(   43) = (   0.0265345   0.1061381   0.0525243), wk =   0.0438957
        k(   44) = (   0.0265345   0.1061381   0.0787865), wk =   0.0438957
        k(   45) = (   0.0265345   0.1061381   0.1050486), wk =   0.0438957
        k(   46) = (   0.0530691   0.0530691   0.0000000), wk =   0.0109739
        k(   47) = (   0.0530691   0.0530691   0.0262622), wk =   0.0219479
        k(   48) = (   0.0530691   0.0530691   0.0525243), wk =   0.0219479
        k(   49) = (   0.0530691   0.0530691   0.0787865), wk =   0.0219479
        k(   50) = (   0.0530691   0.0530691   0.1050486), wk =   0.0219479
        k(   51) = (   0.0530691   0.0796036   0.0000000), wk =   0.0219479
        k(   52) = (   0.0530691   0.0796036   0.0262622), wk =   0.0438957
        k(   53) = (   0.0530691   0.0796036   0.0525243), wk =   0.0438957
        k(   54) = (   0.0530691   0.0796036   0.0787865), wk =   0.0438957
        k(   55) = (   0.0530691   0.0796036   0.1050486), wk =   0.0438957
        k(   56) = (   0.0530691   0.1061381   0.0000000), wk =   0.0219479
        k(   57) = (   0.0530691   0.1061381   0.0262622), wk =   0.0438957
        k(   58) = (   0.0530691   0.1061381   0.0525243), wk =   0.0438957
        k(   59) = (   0.0530691   0.1061381   0.0787865), wk =   0.0438957
        k(   60) = (   0.0530691   0.1061381   0.1050486), wk =   0.0438957
        k(   61) = (   0.0796036   0.0796036   0.0000000), wk =   0.0109739
        k(   62) = (   0.0796036   0.0796036   0.0262622), wk =   0.0219479
        k(   63) = (   0.0796036   0.0796036   0.0525243), wk =   0.0219479
        k(   64) = (   0.0796036   0.0796036   0.0787865), wk =   0.0219479
        k(   65) = (   0.0796036   0.0796036   0.1050486), wk =   0.0219479
        k(   66) = (   0.0796036   0.1061381   0.0000000), wk =   0.0219479
        k(   67) = (   0.0796036   0.1061381   0.0262622), wk =   0.0438957
        k(   68) = (   0.0796036   0.1061381   0.0525243), wk =   0.0438957
        k(   69) = (   0.0796036   0.1061381   0.0787865), wk =   0.0438957
        k(   70) = (   0.0796036   0.1061381   0.1050486), wk =   0.0438957
        k(   71) = (   0.1061381   0.1061381   0.0000000), wk =   0.0109739
        k(   72) = (   0.1061381   0.1061381   0.0262622), wk =   0.0219479
        k(   73) = (   0.1061381   0.1061381   0.0525243), wk =   0.0219479
        k(   74) = (   0.1061381   0.1061381   0.0787865), wk =   0.0219479
        k(   75) = (   0.1061381   0.1061381   0.1050486), wk =   0.0219479

     Largest allocated arrays     est. size (Mb)     dimensions
     Largest temporary arrays     est. size (Mb)     dimensions

     Initial potential from superposition of free atoms

     starting charge   58.99966, renormalised to   60.00000

     *
     * You are using vdW-DF for exchange-correlation in this calculation.
     * Please cite the following three references that made this development
     * possible:
     *
     *   M. Dion, H. Rydberg, E. Schroder, D. C. Langreth, and
     *   B. I. Lundqvist, Phys. Rev. Lett. 92, 246401 (2004).
     *
     *   T. Thonhauser, V. R. Cooper, S. Li, A. Puzder, P. Hyldgaard, and
     *   D. C. Langreth, Phys. Rev. B 76, 125112 (2007).
     *
     *   G. Roman-Perez and J. M. Soler, Phys. Rev. Lett. 103, 096102 (2009).
     *
     *
     * If you are using vdW-DF2, please also cite:
     *
     *   K. Lee, E. D. Murray, L. Kong, B. I. Lundqvist, and
     *   D. C. Langreth, Phys. Rev. B 82, 081101(R) (2010).
     *
     *
     * If you are calculating the stress with vdW-DF, please also cite:
     *
     *   R. Sabatini, E. Kucukbenli, B. Kolb, T. Thonhauser, and
     *   S. de Gironcoli, J. Phys.: Condens. Matter 24, 424209 (2012).
     *

     Carrying out vdW-DF run using the following parameters:

     Nqs =      20    Nr_points =    1024   r_max =   100.000
     q_mesh =
               0.00001000     0.04494208     0.09755937     0.15916263
               0.23128650     0.31572767     0.41458969     0.53033537
               0.66584808     0.82450364     1.01025438     1.22772762
               1.48234092     1.78043706     2.12944203     2.53805004
               3.01644009     3.57652955     4.23227104     5.00000000

     Gradients computed in reciprocal space

     Starting wfc are   44 randomized atomic wfcs +    6 random wfc

     Self-consistent Calculation

     iteration #  1     ecut=    58.80 Ry     beta=0.10
     Davidson diagonalization with overlap
     ethr =  1.00E-02,  avg # of iterations =  5.0

     total energy              =    -826.91950860 Ry
     Harris-Foulkes estimate   =    -827.10751078 Ry
     estimated scf accuracy    <       1.17509148 Ry

[...]

     total energy              =    -826.80728592 Ry
     Harris-Foulkes estimate   =    -826.80728441 Ry
     estimated scf accuracy    <       0.00001562 Ry

     iteration #  9     ecut=    58.80 Ry     beta=0.10
     Davidson diagonalization with overlap
     ethr =  2.60E-08,  avg # of iterations =  2.0

     End of self-consistent calculation

          k = 0.0000 0.0000 0.0000 (  3823 PWs)   bands (ev):

   -77.4637 -77.4559 -40.9907 -40.9907 -40.9465 -40.9362 -40.9334 -40.9334
     6.4415   8.3243   8.3509   8.3660   8.4987   8.5132   8.5132   9.9390
     9.9960   9.9960  10.9273  10.9956  11.6036  11.6197  12.0288  12.0532
    12.0712  12.0712  12.1496  12.1496  12.7016  16.0044  16.1657  16.1657
    19.1369  20.1104  21.4852  24.5229  24.5956  24.5956  24.6746  24.7737
    24.7737  29.9161  30.0267  30.7864  31.3771  31.8857  31.9064  31.9064
    33.1606  33.2652

[...]

          k = 0.1061 0.1061 0.1050 (  3818 PWs)   bands (ev):

   -77.4599 -77.4597 -40.9962 -40.9944 -40.9419 -40.9416 -40.9305 -40.9288
     8.1295   8.1677   8.4659   8.4788   9.8538   9.8782   9.9216   9.9758
     9.9994  10.0011  10.0380  10.0502  11.4798  11.5141  11.7003  11.7943
    11.7998  11.9809  12.0220  12.1333  13.4954  14.4234  14.4446  14.4739
    16.6217  17.0544  18.4860  18.8496  29.2448  29.2574  29.3488  29.3923
    30.7523  30.8157  31.0144  31.0166  31.2257  31.3363  31.5499  31.6972
    34.7844  34.7849

     the Fermi energy is    14.4358 ev

!    total energy              =    -826.80731870 Ry
     Harris-Foulkes estimate   =    -826.80728892 Ry
     estimated scf accuracy    <       0.00000092 Ry

     The total energy is the sum of the following terms:

     one-electron contribution =    -290.15995891 Ry
     hartree contribution      =     189.36604827 Ry
     xc contribution           =    -188.32406172 Ry
     ewald contribution        =    -537.68676893 Ry
     smearing contrib. (-TS)   =      -0.00257740 Ry

     convergence has been achieved in   9 iterations

     Forces acting on atoms (Ry/au):

     atom    1 type  1   force =     0.00000000    0.00000000    0.00000000
     atom    2 type  1   force =     0.00000000    0.00000000    0.00000000
     atom    3 type  2   force =     0.00000000    0.00000000    0.00000000
     atom    4 type  2   force =     0.00000000    0.00000000    0.00000000

     Total force =     0.000000     Total SCF correction =     0.000000

     General routines

     Parallel routines

   This run was terminated on:  13:57:23  13Nov2017

   JOB DONE.