     Program PWSCF v.5.1rc2 starts on 14Nov2017 at  2:25:25

     Current dimensions of program PWSCF are:
     Max number of different atomic species (ntypx) = 10
     Max number of k-points (npk) =  40000
     Max angular momentum in pseudopotentials (lmaxx) =  3

     IMPORTANT: XC functional enforced from input :
     Exchange-correlation      = BEEF-VDW ( 1  4 27 13 2)
     Any further DFT definition will be discarded
     Please, verify this is what you really want

     Found symmetry operation: I + ( -0.5000 -0.5000  0.0000)
     This is a supercell, fractional translations are disabled

     bravais-lattice index     =            0
     lattice parameter (alat)  =       1.8897  a.u.
     unit-cell volume          =     364.0156 (a.u.)^3
     number of atoms/cell      =            4
     number of atomic types    =            2
     number of electrons       =        68.00
     number of Kohn-Sham states=           54
     kinetic-energy cutoff     =      58.7989  Ry
     charge density cutoff     =     587.9892  Ry
     convergence threshold     =      1.0E-06
     mixing beta               =       0.1000
     number of iterations used =           10  plain     mixing
     Exchange-correlation      = BEEF-VDW ( 1  4 27 13 2)

     celldm(1)=   1.889726  celldm(2)=   0.000000  celldm(3)=   0.000000
     celldm(4)=   0.000000  celldm(5)=   0.000000  celldm(6)=   0.000000

     crystal axes: (cart. coord. in units of alat)
               a(1) = (   3.795199   0.000000   0.000000 )
               a(2) = (   0.000000   3.795199   0.000000 )
               a(3) = (   0.000000   0.000000   3.745021 )

     reciprocal axes: (cart. coord. in units 2 pi/alat)
               b(1) = (  0.263491  0.000000  0.000000 )
               b(2) = (  0.000000  0.263491  0.000000 )
               b(3) = (  0.000000  0.000000  0.267021 )

     PseudoPot. # 1 for Cu read from file:
     /home/users/vossj/suncat/psp/gbrv1.5pbe/Cu.UPF
     MD5 check sum: 6e991ff952a84172a2a52a1c1e996048
     Pseudo is Ultrasoft + core correction, Zval = 19.0
     Generated by new atomic code, or converted to UPF format
     Using radial grid of  867 points,  6 beta functions with:
                l(1) =   0
                l(2) =   0
                l(3) =   1
                l(4) =   1
                l(5) =   2
                l(6) =   2
     Q(r) pseudized with  8 coefficients,  rinner =    1.150   1.150   1.150
                                                       1.150   1.150

     PseudoPot. # 2 for Rh read from file:
     /home/users/vossj/suncat/psp/gbrv1.5pbe/Rh.UPF
     MD5 check sum: 761627e959a2e3a1f56b0b5fe687810e
     Pseudo is Ultrasoft + core correction, Zval = 15.0
     Generated by new atomic code, or converted to UPF format
     Using radial grid of  969 points,  7 beta functions with:
                l(1) =   0
                l(2) =   0
                l(3) =   1
                l(4) =   1
                l(5) =   2
                l(6) =   2
                l(7) =   2
     Q(r) pseudized with  8 coefficients,  rinner =    1.200   1.200   1.200
                                                       1.200   1.200

     vdW kernel table read from file vdW_kernel_table
     MD5 check sum: 095c7af220d748ca6e76c0b4c6cfb241

     atomic species   valence    mass     pseudopotential
        Cu1           19.00    63.54600     Cu( 1.00)
        Rh1           15.00   102.90550     Rh( 1.00)

     16 Sym. Ops., with inversion, found

   Cartesian axes

     site n.     atom                  positions (alat units)
         1           Cu1 tau(   1) = (   0.0000000   0.0000000   0.0000000  )
         2           Cu1 tau(   2) = (   1.8975997   1.8975997   0.0000000  )
         3           Rh1 tau(   3) = (   1.8975997   0.0000000   1.8725104  )
         4           Rh1 tau(   4) = (   0.0000000   1.8975997   1.8725104  )

     number of k points=    75  Fermi-Dirac smearing, width (Ry)=  0.0073
                       cart. coord. in units 2pi/alat
        k(    1) = (   0.0000000   0.0000000   0.0000000), wk =   0.0027435
        k(    2) = (   0.0000000   0.0000000   0.0296690), wk =   0.0054870
        k(    3) = (   0.0000000   0.0000000   0.0593380), wk =   0.0054870
        k(    4) = (   0.0000000   0.0000000   0.0890071), wk =   0.0054870
        k(    5) = (   0.0000000   0.0000000   0.1186761), wk =   0.0054870
        k(    6) = (   0.0000000   0.0292768   0.0000000), wk =   0.0109739
        k(    7) = (   0.0000000   0.0292768   0.0296690), wk =   0.0219479
        k(    8) = (   0.0000000   0.0292768   0.0593380), wk =   0.0219479
        k(    9) = (   0.0000000   0.0292768   0.0890071), wk =   0.0219479
        k(   10) = (   0.0000000   0.0292768   0.1186761), wk =   0.0219479
        k(   11) = (   0.0000000   0.0585535   0.0000000), wk =   0.0109739
        k(   12) = (   0.0000000   0.0585535   0.0296690), wk =   0.0219479
        k(   13) = (   0.0000000   0.0585535   0.0593380), wk =   0.0219479
        k(   14) = (   0.0000000   0.0585535   0.0890071), wk =   0.0219479
        k(   15) = (   0.0000000   0.0585535   0.1186761), wk =   0.0219479
        k(   16) = (   0.0000000   0.0878303   0.0000000), wk =   0.0109739
        k(   17) = (   0.0000000   0.0878303   0.0296690), wk =   0.0219479
        k(   18) = (   0.0000000   0.0878303   0.0593380), wk =   0.0219479
        k(   19) = (   0.0000000   0.0878303   0.0890071), wk =   0.0219479
        k(   20) = (   0.0000000   0.0878303   0.1186761), wk =   0.0219479
        k(   21) = (   0.0000000   0.1171070   0.0000000), wk =   0.0109739
        k(   22) = (   0.0000000   0.1171070   0.0296690), wk =   0.0219479
        k(   23) = (   0.0000000   0.1171070   0.0593380), wk =   0.0219479
        k(   24) = (   0.0000000   0.1171070   0.0890071), wk =   0.0219479
        k(   25) = (   0.0000000   0.1171070   0.1186761), wk =   0.0219479
        k(   26) = (   0.0292768   0.0292768   0.0000000), wk =   0.0109739
        k(   27) = (   0.0292768   0.0292768   0.0296690), wk =   0.0219479
        k(   28) = (   0.0292768   0.0292768   0.0593380), wk =   0.0219479
        k(   29) = (   0.0292768   0.0292768   0.0890071), wk =   0.0219479
        k(   30) = (   0.0292768   0.0292768   0.1186761), wk =   0.0219479
        k(   31) = (   0.0292768   0.0585535   0.0000000), wk =   0.0219479
        k(   32) = (   0.0292768   0.0585535   0.0296690), wk =   0.0438957
        k(   33) = (   0.0292768   0.0585535   0.0593380), wk =   0.0438957
        k(   34) = (   0.0292768   0.0585535   0.0890071), wk =   0.0438957
        k(   35) = (   0.0292768   0.0585535   0.1186761), wk =   0.0438957
        k(   36) = (   0.0292768   0.0878303   0.0000000), wk =   0.0219479
        k(   37) = (   0.0292768   0.0878303   0.0296690), wk =   0.0438957
        k(   38) = (   0.0292768   0.0878303   0.0593380), wk =   0.0438957
        k(   39) = (   0.0292768   0.0878303   0.0890071), wk =   0.0438957
        k(   40) = (   0.0292768   0.0878303   0.1186761), wk =   0.0438957
        k(   41) = (   0.0292768   0.1171070   0.0000000), wk =   0.0219479
        k(   42) = (   0.0292768   0.1171070   0.0296690), wk =   0.0438957
        k(   43) = (   0.0292768   0.1171070   0.0593380), wk =   0.0438957
        k(   44) = (   0.0292768   0.1171070   0.0890071), wk =   0.0438957
        k(   45) = (   0.0292768   0.1171070   0.1186761), wk =   0.0438957
        k(   46) = (   0.0585535   0.0585535   0.0000000), wk =   0.0109739
        k(   47) = (   0.0585535   0.0585535   0.0296690), wk =   0.0219479
        k(   48) = (   0.0585535   0.0585535   0.0593380), wk =   0.0219479
        k(   49) = (   0.0585535   0.0585535   0.0890071), wk =   0.0219479
        k(   50) = (   0.0585535   0.0585535   0.1186761), wk =   0.0219479
        k(   51) = (   0.0585535   0.0878303   0.0000000), wk =   0.0219479
        k(   52) = (   0.0585535   0.0878303   0.0296690), wk =   0.0438957
        k(   53) = (   0.0585535   0.0878303   0.0593380), wk =   0.0438957
        k(   54) = (   0.0585535   0.0878303   0.0890071), wk =   0.0438957
        k(   55) = (   0.0585535   0.0878303   0.1186761), wk =   0.0438957
        k(   56) = (   0.0585535   0.1171070   0.0000000), wk =   0.0219479
        k(   57) = (   0.0585535   0.1171070   0.0296690), wk =   0.0438957
        k(   58) = (   0.0585535   0.1171070   0.0593380), wk =   0.0438957
        k(   59) = (   0.0585535   0.1171070   0.0890071), wk =   0.0438957
        k(   60) = (   0.0585535   0.1171070   0.1186761), wk =   0.0438957
        k(   61) = (   0.0878303   0.0878303   0.0000000), wk =   0.0109739
        k(   62) = (   0.0878303   0.0878303   0.0296690), wk =   0.0219479
        k(   63) = (   0.0878303   0.0878303   0.0593380), wk =   0.0219479
        k(   64) = (   0.0878303   0.0878303   0.0890071), wk =   0.0219479
        k(   65) = (   0.0878303   0.0878303   0.1186761), wk =   0.0219479
        k(   66) = (   0.0878303   0.1171070   0.0000000), wk =   0.0219479
        k(   67) = (   0.0878303   0.1171070   0.0296690), wk =   0.0438957
        k(   68) = (   0.0878303   0.1171070   0.0593380), wk =   0.0438957
        k(   69) = (   0.0878303   0.1171070   0.0890071), wk =   0.0438957
        k(   70) = (   0.0878303   0.1171070   0.1186761), wk =   0.0438957
        k(   71) = (   0.1171070   0.1171070   0.0000000), wk =   0.0109739
        k(   72) = (   0.1171070   0.1171070   0.0296690), wk =   0.0219479
        k(   73) = (   0.1171070   0.1171070   0.0593380), wk =   0.0219479
        k(   74) = (   0.1171070   0.1171070   0.0890071), wk =   0.0219479
        k(   75) = (   0.1171070   0.1171070   0.1186761), wk =   0.0219479

     Largest allocated arrays     est. size (Mb)     dimensions
     Largest temporary arrays     est. size (Mb)     dimensions

     Initial potential from superposition of free atoms
     Check: negative starting charge=   -0.112102

     starting charge   64.99980, renormalised to   68.00000

     negative rho (up, down):  1.173E-01 0.000E+00

     *
     * You are using vdW-DF for exchange-correlation in this calculation.
     * Please cite the following three references that made this development
     * possible:
     *
     *   M. Dion, H. Rydberg, E. Schroder, D. C. Langreth, and
     *   B. I. Lundqvist, Phys. Rev. Lett. 92, 246401 (2004).
     *
     *   T. Thonhauser, V. R. Cooper, S. Li, A. Puzder, P. Hyldgaard, and
     *   D. C. Langreth, Phys. Rev. B 76, 125112 (2007).
     *
     *   G. Roman-Perez and J. M. Soler, Phys. Rev. Lett. 103, 096102 (2009).
     *
     *
     * If you are using vdW-DF2, please also cite:
     *
     *   K. Lee, E. D. Murray, L. Kong, B. I. Lundqvist, and
     *   D. C. Langreth, Phys. Rev. B 82, 081101(R) (2010).
     *
     *
     * If you are calculating the stress with vdW-DF, please also cite:
     *
     *   R. Sabatini, E. Kucukbenli, B. Kolb, T. Thonhauser, and
     *   S. de Gironcoli, J. Phys.: Condens. Matter 24, 424209 (2012).
     *

     Carrying out vdW-DF run using the following parameters:

     Nqs =      20    Nr_points =    1024   r_max =   100.000
     q_mesh =
               0.00001000     0.04494208     0.09755937     0.15916263
               0.23128650     0.31572767     0.41458969     0.53033537
               0.66584808     0.82450364     1.01025438     1.22772762
               1.48234092     1.78043706     2.12944203     2.53805004
               3.01644009     3.57652955     4.23227104     5.00000000

     Gradients computed in reciprocal space

     Starting wfc are   50 randomized atomic wfcs +    4 random wfc

     Self-consistent Calculation

     iteration #  1     ecut=    58.80 Ry     beta=0.10
     Davidson diagonalization with overlap
     ethr =  1.00E-02,  avg # of iterations =  4.2

[...]

     total energy              =   -1154.51950142 Ry
     Harris-Foulkes estimate   =   -1155.75976979 Ry
     estimated scf accuracy    <       7.28872919 Ry

[...]

     total energy              =   -1154.36255142 Ry
     Harris-Foulkes estimate   =   -1154.36254858 Ry
     estimated scf accuracy    <       0.00000104 Ry

     iteration # 13     ecut=    58.80 Ry     beta=0.10
     Davidson diagonalization with overlap
     ethr =  1.53E-09,  avg # of iterations =  2.1

     negative rho (up, down):  1.163E-01 0.000E+00

     End of self-consistent calculation

          k = 0.0000 0.0000 0.0000 (  2785 PWs)   bands (ev):

   -95.3436 -95.3392 -52.7442 -52.7442 -52.7322 -52.7268 -52.7157 -52.7157
   -29.2350 -29.2350 -28.9319 -28.8888 -28.8888 -28.8524   9.2244  11.6729
    12.2380  12.5026  12.6864  12.7074  12.7074  14.4074  14.4074  14.4860
    15.1342  15.5849  15.6227  15.8114  16.7944  16.7944  17.1814  17.2764
    17.2764  17.5402  18.6816  19.6745  19.6745  20.0194  25.9250  27.0179
    27.1367  28.2107  29.9802  29.9802  30.8230  30.8230  33.2671  35.8653
    36.5142  37.2050  37.5532  37.5532  37.7398  40.7453

[...]

          k = 0.1171 0.1171 0.1187 (  2790 PWs)   bands (ev):

   -95.3415 -95.3413 -52.7469 -52.7461 -52.7299 -52.7297 -52.7142 -52.7134
   -29.2780 -29.2678 -28.9005 -28.8980 -28.8669 -28.8562  11.7729  11.7971
    12.5670  12.6291  14.2979  14.3216  14.3330  14.3575  14.3814  14.3849
    14.5937  14.6589  15.5521  15.6985  16.2322  16.3759  16.6284  16.7141
    17.2473  17.2826  17.3694  18.1134  18.1732  18.2350  23.0562  23.2199
    24.2825  24.6560  35.0249  35.2869  35.4743  35.6071  35.6686  36.0252
    37.2591  37.5009  39.7852  40.5695  40.8167  40.8746

     the Fermi energy is    17.0987 ev

!    total energy              =   -1154.36256465 Ry
     Harris-Foulkes estimate   =   -1154.36255163 Ry
     estimated scf accuracy    <          5.4E-09 Ry

     The total energy is the sum of the following terms:

     one-electron contribution =    -629.29442590 Ry
     hartree contribution      =     364.54271521 Ry
     xc contribution           =    -142.19222608 Ry
     ewald contribution        =    -747.40214679 Ry
     smearing contrib. (-TS)   =      -0.01648109 Ry

     convergence has been achieved in  13 iterations

     Forces acting on atoms (Ry/au):

     negative rho (up, down):  1.163E-01 0.000E+00
     atom    1 type  1   force =     0.00000000    0.00000000    0.00000000
     atom    2 type  1   force =     0.00000000    0.00000000    0.00000000
     atom    3 type  2   force =     0.00000000    0.00000000    0.00000000
     atom    4 type  2   force =     0.00000000    0.00000000    0.00000000

     Total force =     0.000000     Total SCF correction =     0.000000

     General routines

     Parallel routines

   This run was terminated on:   2:26: 8  14Nov2017

   JOB DONE.