     Program PWSCF v.5.1rc2 starts on 15Nov2017 at  5: 3: 9

     Current dimensions of program PWSCF are:
     Max number of different atomic species (ntypx) = 10
     Max number of k-points (npk) =  40000
     Max angular momentum in pseudopotentials (lmaxx) =  3

     IMPORTANT: XC functional enforced from input :
     Exchange-correlation      = BEEF-VDW ( 1  4 27 13 2)
     Any further DFT definition will be discarded
     Please, verify this is what you really want

     Found symmetry operation: I + ( -0.5000 -0.5000  0.0000)
     This is a supercell, fractional translations are disabled

     bravais-lattice index     =            0
     lattice parameter (alat)  =       1.8897  a.u.
     unit-cell volume          =     643.7780 (a.u.)^3
     number of atoms/cell      =            4
     number of atomic types    =            2
     number of electrons       =        48.00
     number of Kohn-Sham states=           44
     kinetic-energy cutoff     =      58.7989  Ry
     charge density cutoff     =     587.9892  Ry
     convergence threshold     =      1.0E-06
     mixing beta               =       0.1000
     number of iterations used =           10  plain     mixing
     Exchange-correlation      = BEEF-VDW ( 1  4 27 13 2)

     celldm(1)=   1.889726  celldm(2)=   0.000000  celldm(3)=   0.000000
     celldm(4)=   0.000000  celldm(5)=   0.000000  celldm(6)=   0.000000

     crystal axes: (cart. coord. in units of alat)
               a(1) = (   4.790481   0.000000   0.000000 )
               a(2) = (   0.000000   4.790481   0.000000 )
               a(3) = (   0.000000   0.000000   4.157012 )

     reciprocal axes: (cart. coord. in units 2 pi/alat)
               b(1) = (  0.208747  0.000000  0.000000 )
               b(2) = (  0.000000  0.208747  0.000000 )
               b(3) = (  0.000000  0.000000  0.240557 )

     PseudoPot. # 1 for Sc read from file:
     /home/users/vossj/suncat/psp/gbrv1.5pbe/Sc.UPF
     MD5 check sum: db30a2753ba66ef00f23801d899b7e7f
     Pseudo is Ultrasoft + core correction, Zval = 11.0
     Generated by new atomic code, or converted to UPF format
     Using radial grid of  849 points,  6 beta functions with:
                l(1) =   0
                l(2) =   0
                l(3) =   1
                l(4) =   1
                l(5) =   2
                l(6) =   2
     Q(r) pseudized with  6 coefficients,  rinner =    1.200   1.200   1.200
                                                       1.200   1.200

     PseudoPot. # 2 for Tl read from file:
     /home/users/vossj/suncat/psp/gbrv1.5pbe/Tl.UPF
     MD5 check sum: b76cf1f7e72655a2b2c53cf6385d7059
     Pseudo is Ultrasoft + core correction, Zval = 13.0
     Generated by new atomic code, or converted to UPF format
     Using radial grid of  899 points,  6 beta functions with:
                l(1) =   0
                l(2) =   0
                l(3) =   1
                l(4) =   1
                l(5) =   2
                l(6) =   2
     Q(r) pseudized with  6 coefficients,  rinner =    1.100   1.100   1.100
                                                       1.100   1.100

     vdW kernel table read from file vdW_kernel_table
     MD5 check sum: 095c7af220d748ca6e76c0b4c6cfb241

     atomic species   valence    mass     pseudopotential
        Sc1           11.00    44.95590     Sc( 1.00)
        Tl1           13.00   204.38300     Tl( 1.00)

     16 Sym. Ops., with inversion, found

   Cartesian axes

     site n.     atom                  positions (alat units)
         1           Sc1 tau(   1) = (   0.0000000   0.0000000   0.0000000  )
         2           Sc1 tau(   2) = (   2.3952405   2.3952405   0.0000000  )
         3           Tl1 tau(   3) = (   2.3952405   0.0000000   2.0785061  )
         4           Tl1 tau(   4) = (   0.0000000   2.3952405   2.0785061  )

     number of k points=    75  Fermi-Dirac smearing, width (Ry)=  0.0073
                       cart. coord. in units 2pi/alat
        k(    1) = (   0.0000000   0.0000000   0.0000000), wk =   0.0027435
        k(    2) = (   0.0000000   0.0000000   0.0267286), wk =   0.0054870
        k(    3) = (   0.0000000   0.0000000   0.0534572), wk =   0.0054870
        k(    4) = (   0.0000000   0.0000000   0.0801858), wk =   0.0054870
        k(    5) = (   0.0000000   0.0000000   0.1069144), wk =   0.0054870
        k(    6) = (   0.0000000   0.0231941   0.0000000), wk =   0.0109739
        k(    7) = (   0.0000000   0.0231941   0.0267286), wk =   0.0219479
        k(    8) = (   0.0000000   0.0231941   0.0534572), wk =   0.0219479
        k(    9) = (   0.0000000   0.0231941   0.0801858), wk =   0.0219479
        k(   10) = (   0.0000000   0.0231941   0.1069144), wk =   0.0219479
        k(   11) = (   0.0000000   0.0463883   0.0000000), wk =   0.0109739
        k(   12) = (   0.0000000   0.0463883   0.0267286), wk =   0.0219479
        k(   13) = (   0.0000000   0.0463883   0.0534572), wk =   0.0219479
        k(   14) = (   0.0000000   0.0463883   0.0801858), wk =   0.0219479
        k(   15) = (   0.0000000   0.0463883   0.1069144), wk =   0.0219479
        k(   16) = (   0.0000000   0.0695824   0.0000000), wk =   0.0109739
        k(   17) = (   0.0000000   0.0695824   0.0267286), wk =   0.0219479
        k(   18) = (   0.0000000   0.0695824   0.0534572), wk =   0.0219479
        k(   19) = (   0.0000000   0.0695824   0.0801858), wk =   0.0219479
        k(   20) = (   0.0000000   0.0695824   0.1069144), wk =   0.0219479
        k(   21) = (   0.0000000   0.0927766   0.0000000), wk =   0.0109739
        k(   22) = (   0.0000000   0.0927766   0.0267286), wk =   0.0219479
        k(   23) = (   0.0000000   0.0927766   0.0534572), wk =   0.0219479
        k(   24) = (   0.0000000   0.0927766   0.0801858), wk =   0.0219479
        k(   25) = (   0.0000000   0.0927766   0.1069144), wk =   0.0219479
        k(   26) = (   0.0231941   0.0231941   0.0000000), wk =   0.0109739
        k(   27) = (   0.0231941   0.0231941   0.0267286), wk =   0.0219479
        k(   28) = (   0.0231941   0.0231941   0.0534572), wk =   0.0219479
        k(   29) = (   0.0231941   0.0231941   0.0801858), wk =   0.0219479
        k(   30) = (   0.0231941   0.0231941   0.1069144), wk =   0.0219479
        k(   31) = (   0.0231941   0.0463883   0.0000000), wk =   0.0219479
        k(   32) = (   0.0231941   0.0463883   0.0267286), wk =   0.0438957
        k(   33) = (   0.0231941   0.0463883   0.0534572), wk =   0.0438957
        k(   34) = (   0.0231941   0.0463883   0.0801858), wk =   0.0438957
        k(   35) = (   0.0231941   0.0463883   0.1069144), wk =   0.0438957
        k(   36) = (   0.0231941   0.0695824   0.0000000), wk =   0.0219479
        k(   37) = (   0.0231941   0.0695824   0.0267286), wk =   0.0438957
        k(   38) = (   0.0231941   0.0695824   0.0534572), wk =   0.0438957
        k(   39) = (   0.0231941   0.0695824   0.0801858), wk =   0.0438957
        k(   40) = (   0.0231941   0.0695824   0.1069144), wk =   0.0438957
        k(   41) = (   0.0231941   0.0927766   0.0000000), wk =   0.0219479
        k(   42) = (   0.0231941   0.0927766   0.0267286), wk =   0.0438957
        k(   43) = (   0.0231941   0.0927766   0.0534572), wk =   0.0438957
        k(   44) = (   0.0231941   0.0927766   0.0801858), wk =   0.0438957
        k(   45) = (   0.0231941   0.0927766   0.1069144), wk =   0.0438957
        k(   46) = (   0.0463883   0.0463883   0.0000000), wk =   0.0109739
        k(   47) = (   0.0463883   0.0463883   0.0267286), wk =   0.0219479
        k(   48) = (   0.0463883   0.0463883   0.0534572), wk =   0.0219479
        k(   49) = (   0.0463883   0.0463883   0.0801858), wk =   0.0219479
        k(   50) = (   0.0463883   0.0463883   0.1069144), wk =   0.0219479
        k(   51) = (   0.0463883   0.0695824   0.0000000), wk =   0.0219479
        k(   52) = (   0.0463883   0.0695824   0.0267286), wk =   0.0438957
        k(   53) = (   0.0463883   0.0695824   0.0534572), wk =   0.0438957
        k(   54) = (   0.0463883   0.0695824   0.0801858), wk =   0.0438957
        k(   55) = (   0.0463883   0.0695824   0.1069144), wk =   0.0438957
        k(   56) = (   0.0463883   0.0927766   0.0000000), wk =   0.0219479
        k(   57) = (   0.0463883   0.0927766   0.0267286), wk =   0.0438957
        k(   58) = (   0.0463883   0.0927766   0.0534572), wk =   0.0438957
        k(   59) = (   0.0463883   0.0927766   0.0801858), wk =   0.0438957
        k(   60) = (   0.0463883   0.0927766   0.1069144), wk =   0.0438957
        k(   61) = (   0.0695824   0.0695824   0.0000000), wk =   0.0109739
        k(   62) = (   0.0695824   0.0695824   0.0267286), wk =   0.0219479
        k(   63) = (   0.0695824   0.0695824   0.0534572), wk =   0.0219479
        k(   64) = (   0.0695824   0.0695824   0.0801858), wk =   0.0219479
        k(   65) = (   0.0695824   0.0695824   0.1069144), wk =   0.0219479
        k(   66) = (   0.0695824   0.0927766   0.0000000), wk =   0.0219479
        k(   67) = (   0.0695824   0.0927766   0.0267286), wk =   0.0438957
        k(   68) = (   0.0695824   0.0927766   0.0534572), wk =   0.0438957
        k(   69) = (   0.0695824   0.0927766   0.0801858), wk =   0.0438957
        k(   70) = (   0.0695824   0.0927766   0.1069144), wk =   0.0438957
        k(   71) = (   0.0927766   0.0927766   0.0000000), wk =   0.0109739
        k(   72) = (   0.0927766   0.0927766   0.0267286), wk =   0.0219479
        k(   73) = (   0.0927766   0.0927766   0.0534572), wk =   0.0219479
        k(   74) = (   0.0927766   0.0927766   0.0801858), wk =   0.0219479
        k(   75) = (   0.0927766   0.0927766   0.1069144), wk =   0.0219479

     Largest allocated arrays     est. size (Mb)     dimensions
     Largest temporary arrays     est. size (Mb)     dimensions

     Check: negative/imaginary core charge=   -0.000001    0.000000

     Initial potential from superposition of free atoms
     Check: negative starting charge=   -0.098420

     starting charge   47.98546, renormalised to   48.00000

     negative rho (up, down):  9.845E-02 0.000E+00

     *
     * You are using vdW-DF for exchange-correlation in this calculation.
     * Please cite the following three references that made this development
     * possible:
     *
     *   M. Dion, H. Rydberg, E. Schroder, D. C. Langreth, and
     *   B. I. Lundqvist, Phys. Rev. Lett. 92, 246401 (2004).
     *
     *   T. Thonhauser, V. R. Cooper, S. Li, A. Puzder, P. Hyldgaard, and
     *   D. C. Langreth, Phys. Rev. B 76, 125112 (2007).
     *
     *   G. Roman-Perez and J. M. Soler, Phys. Rev. Lett. 103, 096102 (2009).
     *
     *
     * If you are using vdW-DF2, please also cite:
     *
     *   K. Lee, E. D. Murray, L. Kong, B. I. Lundqvist, and
     *   D. C. Langreth, Phys. Rev. B 82, 081101(R) (2010).
     *
     *
     * If you are calculating the stress with vdW-DF, please also cite:
     *
     *   R. Sabatini, E. Kucukbenli, B. Kolb, T. Thonhauser, and
     *   S. de Gironcoli, J. Phys.: Condens. Matter 24, 424209 (2012).
     *

     Carrying out vdW-DF run using the following parameters:

     Nqs =      20    Nr_points =    1024   r_max =   100.000
     q_mesh =
               0.00001000     0.04494208     0.09755937     0.15916263
               0.23128650     0.31572767     0.41458969     0.53033537
               0.66584808     0.82450364     1.01025438     1.22772762
               1.48234092     1.78043706     2.12944203     2.53805004
               3.01644009     3.57652955     4.23227104     5.00000000

     Gradients computed in reciprocal space

     Starting wfc are   44 randomized atomic wfcs

     Self-consistent Calculation

     iteration #  1     ecut=    58.80 Ry     beta=0.10
     Davidson diagonalization with overlap
     ethr =  1.00E-02,  avg # of iterations =  4.9

     Threshold (ethr) on eigenvalues was too large:
     Diagonalizing with lowered threshold

     Davidson diagonalization with overlap
     ethr =  9.38E-05,  avg # of iterations =  3.9

[...]

     total energy              =    -483.34577933 Ry
     Harris-Foulkes estimate   =    -483.35020789 Ry
     estimated scf accuracy    <       0.04578862 Ry

[...]

     total energy              =    -483.34765297 Ry
     Harris-Foulkes estimate   =    -483.34739551 Ry
     estimated scf accuracy    <       0.00000254 Ry

     iteration #  9     ecut=    58.80 Ry     beta=0.10
     Davidson diagonalization with overlap
     ethr =  5.29E-09,  avg # of iterations =  2.0

     negative rho (up, down):  1.069E-01 0.000E+00

     End of self-consistent calculation

          k = 0.0000 0.0000 0.0000 (  4915 PWs)   bands (ev):

   -38.6352 -38.6110 -17.2760 -17.2539 -17.2539 -17.2457 -17.1262 -17.1262
    -0.5456  -0.4782  -0.3536  -0.2828  -0.2828  -0.0522  -0.0522  -0.0466
     0.0362   0.3075   2.3443   6.7866  10.4006  10.4006  11.3269  11.5332
    12.2540  12.4233  12.7375  12.7375  13.6863  13.6863  13.9682  14.1628
    14.7188  16.6060  16.6060  16.9251  17.0247  17.0397  19.6300  19.6300
    21.6111  21.7531  22.6499  22.9179

[...]

          k = 0.0928 0.0928 0.1069 (  4923 PWs)   bands (ev):

   -38.6226 -38.6219 -17.2775 -17.2765 -17.2695 -17.2657 -17.1168 -17.1129
    -0.3667  -0.3649  -0.3607  -0.3442  -0.1735  -0.1591  -0.0661  -0.0591
     0.1245   0.1386   5.3499   5.5035   9.2282   9.3786   9.8806  10.0505
    11.4133  11.4720  13.3440  13.3587  13.5766  13.5943  13.8280  13.8701
    14.4365  14.5351  16.0128  16.1174  19.8014  20.1292  21.8289  21.9664
    22.2528  22.4276  24.8721  24.9971

     the Fermi energy is    11.6137 ev

!    total energy              =    -483.34871785 Ry
     Harris-Foulkes estimate   =    -483.34765332 Ry
     estimated scf accuracy    <       0.00000080 Ry

     The total energy is the sum of the following terms:

     one-electron contribution =     -99.79535016 Ry
     hartree contribution      =      79.40875286 Ry
     xc contribution           =    -155.99543340 Ry
     ewald contribution        =    -306.95677654 Ry
     smearing contrib. (-TS)   =      -0.00991061 Ry

     convergence has been achieved in   9 iterations

     Forces acting on atoms (Ry/au):

     negative rho (up, down):  1.069E-01 0.000E+00
     atom    1 type  1   force =     0.00000000    0.00000000    0.00000000
     atom    2 type  1   force =     0.00000000    0.00000000    0.00000000
     atom    3 type  2   force =     0.00000000    0.00000000    0.00000000
     atom    4 type  2   force =     0.00000000    0.00000000    0.00000000

     Total force =     0.000000     Total SCF correction =     0.000000

     General routines

     Parallel routines

   This run was terminated on:   5: 3:48  15Nov2017

   JOB DONE.