     Program PWSCF v.5.1rc2 starts on 13Nov2017 at 14:24:42

     Current dimensions of program PWSCF are:
     Max number of different atomic species (ntypx) = 10
     Max number of k-points (npk) =  40000
     Max angular momentum in pseudopotentials (lmaxx) =  3

     IMPORTANT: XC functional enforced from input :
     Exchange-correlation      = BEEF-VDW ( 1  4 27 13 2)
     Any further DFT definition will be discarded
     Please, verify this is what you really want

     Found symmetry operation: I + ( -0.5000 -0.5000  0.0000)
     This is a supercell, fractional translations are disabled

     bravais-lattice index     =            0
     lattice parameter (alat)  =       1.8897  a.u.
     unit-cell volume          =     606.3741 (a.u.)^3
     number of atoms/cell      =            4
     number of atomic types    =            2
     number of electrons       =        64.00
     number of Kohn-Sham states=           52
     kinetic-energy cutoff     =      58.7989  Ry
     charge density cutoff     =     587.9892  Ry
     convergence threshold     =      1.0E-06
     mixing beta               =       0.1000
     number of iterations used =           10  plain     mixing
     Exchange-correlation      = BEEF-VDW ( 1  4 27 13 2)

     celldm(1)=   1.889726  celldm(2)=   0.000000  celldm(3)=   0.000000
     celldm(4)=   0.000000  celldm(5)=   0.000000  celldm(6)=   0.000000

     crystal axes: (cart. coord. in units of alat)
               a(1) = (   4.522838   0.000000   0.000000 )
               a(2) = (   0.000000   4.522838   0.000000 )
               a(3) = (   0.000000   0.000000   4.392603 )

     reciprocal axes: (cart. coord. in units 2 pi/alat)
               b(1) = (  0.221100  0.000000  0.000000 )
               b(2) = (  0.000000  0.221100  0.000000 )
               b(3) = (  0.000000  0.000000  0.227655 )

     PseudoPot. # 1 for Ag read from file:
     /home/users/vossj/suncat/psp/gbrv1.5pbe/Ag.UPF
     MD5 check sum: d66d668201baa78d5eb5b04ef7011058
     Pseudo is Ultrasoft + core correction, Zval = 19.0
     Generated by new atomic code, or converted to UPF format
     Using radial grid of  887 points,  6 beta functions with:
                l(1) =   0
                l(2) =   0
                l(3) =   1
                l(4) =   1
                l(5) =   2
                l(6) =   2
     Q(r) pseudized with  6 coefficients,  rinner =    1.300   1.300   1.300
                                                       1.300   1.300

     PseudoPot. # 2 for In read from file:
     /home/users/vossj/suncat/psp/gbrv1.5pbe/In.UPF
     MD5 check sum: 90777abd96fbb83f2e67db2a40c566b9
     Pseudo is Ultrasoft + core correction, Zval = 13.0
     Generated by new atomic code, or converted to UPF format
     Using radial grid of  889 points,  6 beta functions with:
                l(1) =   0
                l(2) =   0
                l(3) =   1
                l(4) =   1
                l(5) =   2
                l(6) =   2
     Q(r) pseudized with  6 coefficients,  rinner =    1.400   1.400   1.400
                                                       1.400   1.400

     vdW kernel table read from file vdW_kernel_table
     MD5 check sum: 095c7af220d748ca6e76c0b4c6cfb241

     atomic species   valence    mass     pseudopotential
        Ag1           19.00   107.86800     Ag( 1.00)
        In1           13.00   114.82000     In( 1.00)

     16 Sym. Ops., with inversion, found

   Cartesian axes

     site n.     atom                  positions (alat units)
         1           Ag1 tau(   1) = (   0.0000000   0.0000000   0.0000000  )
         2           Ag1 tau(   2) = (   2.2614190   2.2614190   0.0000000  )
         3           In1 tau(   3) = (   2.2614190   0.0000000   2.1963017  )
         4           In1 tau(   4) = (   0.0000000   2.2614190   2.1963017  )

     number of k points=    75  Fermi-Dirac smearing, width (Ry)=  0.0073
                       cart. coord. in units 2pi/alat
        k(    1) = (   0.0000000   0.0000000   0.0000000), wk =   0.0027435
        k(    2) = (   0.0000000   0.0000000   0.0252950), wk =   0.0054870
        k(    3) = (   0.0000000   0.0000000   0.0505901), wk =   0.0054870
        k(    4) = (   0.0000000   0.0000000   0.0758851), wk =   0.0054870
        k(    5) = (   0.0000000   0.0000000   0.1011802), wk =   0.0054870
        k(    6) = (   0.0000000   0.0245667   0.0000000), wk =   0.0109739
        k(    7) = (   0.0000000   0.0245667   0.0252950), wk =   0.0219479
        k(    8) = (   0.0000000   0.0245667   0.0505901), wk =   0.0219479
        k(    9) = (   0.0000000   0.0245667   0.0758851), wk =   0.0219479
        k(   10) = (   0.0000000   0.0245667   0.1011802), wk =   0.0219479
        k(   11) = (   0.0000000   0.0491334   0.0000000), wk =   0.0109739
        k(   12) = (   0.0000000   0.0491334   0.0252950), wk =   0.0219479
        k(   13) = (   0.0000000   0.0491334   0.0505901), wk =   0.0219479
        k(   14) = (   0.0000000   0.0491334   0.0758851), wk =   0.0219479
        k(   15) = (   0.0000000   0.0491334   0.1011802), wk =   0.0219479
        k(   16) = (   0.0000000   0.0737000   0.0000000), wk =   0.0109739
        k(   17) = (   0.0000000   0.0737000   0.0252950), wk =   0.0219479
        k(   18) = (   0.0000000   0.0737000   0.0505901), wk =   0.0219479
        k(   19) = (   0.0000000   0.0737000   0.0758851), wk =   0.0219479
        k(   20) = (   0.0000000   0.0737000   0.1011802), wk =   0.0219479
        k(   21) = (   0.0000000   0.0982667   0.0000000), wk =   0.0109739
        k(   22) = (   0.0000000   0.0982667   0.0252950), wk =   0.0219479
        k(   23) = (   0.0000000   0.0982667   0.0505901), wk =   0.0219479
        k(   24) = (   0.0000000   0.0982667   0.0758851), wk =   0.0219479
        k(   25) = (   0.0000000   0.0982667   0.1011802), wk =   0.0219479
        k(   26) = (   0.0245667   0.0245667   0.0000000), wk =   0.0109739
        k(   27) = (   0.0245667   0.0245667   0.0252950), wk =   0.0219479
        k(   28) = (   0.0245667   0.0245667   0.0505901), wk =   0.0219479
        k(   29) = (   0.0245667   0.0245667   0.0758851), wk =   0.0219479
        k(   30) = (   0.0245667   0.0245667   0.1011802), wk =   0.0219479
        k(   31) = (   0.0245667   0.0491334   0.0000000), wk =   0.0219479
        k(   32) = (   0.0245667   0.0491334   0.0252950), wk =   0.0438957
        k(   33) = (   0.0245667   0.0491334   0.0505901), wk =   0.0438957
        k(   34) = (   0.0245667   0.0491334   0.0758851), wk =   0.0438957
        k(   35) = (   0.0245667   0.0491334   0.1011802), wk =   0.0438957
        k(   36) = (   0.0245667   0.0737000   0.0000000), wk =   0.0219479
        k(   37) = (   0.0245667   0.0737000   0.0252950), wk =   0.0438957
        k(   38) = (   0.0245667   0.0737000   0.0505901), wk =   0.0438957
        k(   39) = (   0.0245667   0.0737000   0.0758851), wk =   0.0438957
        k(   40) = (   0.0245667   0.0737000   0.1011802), wk =   0.0438957
        k(   41) = (   0.0245667   0.0982667   0.0000000), wk =   0.0219479
        k(   42) = (   0.0245667   0.0982667   0.0252950), wk =   0.0438957
        k(   43) = (   0.0245667   0.0982667   0.0505901), wk =   0.0438957
        k(   44) = (   0.0245667   0.0982667   0.0758851), wk =   0.0438957
        k(   45) = (   0.0245667   0.0982667   0.1011802), wk =   0.0438957
        k(   46) = (   0.0491334   0.0491334   0.0000000), wk =   0.0109739
        k(   47) = (   0.0491334   0.0491334   0.0252950), wk =   0.0219479
        k(   48) = (   0.0491334   0.0491334   0.0505901), wk =   0.0219479
        k(   49) = (   0.0491334   0.0491334   0.0758851), wk =   0.0219479
        k(   50) = (   0.0491334   0.0491334   0.1011802), wk =   0.0219479
        k(   51) = (   0.0491334   0.0737000   0.0000000), wk =   0.0219479
        k(   52) = (   0.0491334   0.0737000   0.0252950), wk =   0.0438957
        k(   53) = (   0.0491334   0.0737000   0.0505901), wk =   0.0438957
        k(   54) = (   0.0491334   0.0737000   0.0758851), wk =   0.0438957
        k(   55) = (   0.0491334   0.0737000   0.1011802), wk =   0.0438957
        k(   56) = (   0.0491334   0.0982667   0.0000000), wk =   0.0219479
        k(   57) = (   0.0491334   0.0982667   0.0252950), wk =   0.0438957
        k(   58) = (   0.0491334   0.0982667   0.0505901), wk =   0.0438957
        k(   59) = (   0.0491334   0.0982667   0.0758851), wk =   0.0438957
        k(   60) = (   0.0491334   0.0982667   0.1011802), wk =   0.0438957
        k(   61) = (   0.0737000   0.0737000   0.0000000), wk =   0.0109739
        k(   62) = (   0.0737000   0.0737000   0.0252950), wk =   0.0219479
        k(   63) = (   0.0737000   0.0737000   0.0505901), wk =   0.0219479
        k(   64) = (   0.0737000   0.0737000   0.0758851), wk =   0.0219479
        k(   65) = (   0.0737000   0.0737000   0.1011802), wk =   0.0219479
        k(   66) = (   0.0737000   0.0982667   0.0000000), wk =   0.0219479
        k(   67) = (   0.0737000   0.0982667   0.0252950), wk =   0.0438957
        k(   68) = (   0.0737000   0.0982667   0.0505901), wk =   0.0438957
        k(   69) = (   0.0737000   0.0982667   0.0758851), wk =   0.0438957
        k(   70) = (   0.0737000   0.0982667   0.1011802), wk =   0.0438957
        k(   71) = (   0.0982667   0.0982667   0.0000000), wk =   0.0109739
        k(   72) = (   0.0982667   0.0982667   0.0252950), wk =   0.0219479
        k(   73) = (   0.0982667   0.0982667   0.0505901), wk =   0.0219479
        k(   74) = (   0.0982667   0.0982667   0.0758851), wk =   0.0219479
        k(   75) = (   0.0982667   0.0982667   0.1011802), wk =   0.0219479

     Largest allocated arrays     est. size (Mb)     dimensions
     Largest temporary arrays     est. size (Mb)     dimensions

     Initial potential from superposition of free atoms

     starting charge   59.99990, renormalised to   64.00000

     *
     * You are using vdW-DF for exchange-correlation in this calculation.
     * Please cite the following three references that made this development
     * possible:
     *
     *   M. Dion, H. Rydberg, E. Schroder, D. C. Langreth, and
     *   B. I. Lundqvist, Phys. Rev. Lett. 92, 246401 (2004).
     *
     *   T. Thonhauser, V. R. Cooper, S. Li, A. Puzder, P. Hyldgaard, and
     *   D. C. Langreth, Phys. Rev. B 76, 125112 (2007).
     *
     *   G. Roman-Perez and J. M. Soler, Phys. Rev. Lett. 103, 096102 (2009).
     *
     *
     * If you are using vdW-DF2, please also cite:
     *
     *   K. Lee, E. D. Murray, L. Kong, B. I. Lundqvist, and
     *   D. C. Langreth, Phys. Rev. B 82, 081101(R) (2010).
     *
     *
     * If you are calculating the stress with vdW-DF, please also cite:
     *
     *   R. Sabatini, E. Kucukbenli, B. Kolb, T. Thonhauser, and
     *   S. de Gironcoli, J. Phys.: Condens. Matter 24, 424209 (2012).
     *

     Carrying out vdW-DF run using the following parameters:

     Nqs =      20    Nr_points =    1024   r_max =   100.000
     q_mesh =
               0.00001000     0.04494208     0.09755937     0.15916263
               0.23128650     0.31572767     0.41458969     0.53033537
               0.66584808     0.82450364     1.01025438     1.22772762
               1.48234092     1.78043706     2.12944203     2.53805004
               3.01644009     3.57652955     4.23227104     5.00000000

     Gradients computed in reciprocal space

     Starting wfc are   44 randomized atomic wfcs +    8 random wfc

     Self-consistent Calculation

     iteration #  1     ecut=    58.80 Ry     beta=0.10
     Davidson diagonalization with overlap
     ethr =  1.00E-02,  avg # of iterations =  4.8

     total energy              =    -862.61268081 Ry
     Harris-Foulkes estimate   =    -868.18451050 Ry
     estimated scf accuracy    <      33.16880466 Ry

[...]

     total energy              =    -862.92185392 Ry
     Harris-Foulkes estimate   =    -862.92185746 Ry
     estimated scf accuracy    <       0.00002412 Ry

     iteration # 11     ecut=    58.80 Ry     beta=0.10
     Davidson diagonalization with overlap
     ethr =  3.77E-08,  avg # of iterations =  2.1

     End of self-consistent calculation

          k = 0.0000 0.0000 0.0000 (  4617 PWs)   bands (ev):

   -80.0214 -80.0191 -43.5280 -43.5240 -43.5144 -43.5144 -43.4930 -43.4930
    -2.8821  -2.7597  -2.6951  -2.6368  -2.6368  -2.4806  -2.4806  -2.4583
    -2.4133  -2.2561   3.4904   6.6736   7.0446   7.1896   7.5448   7.5448
     7.8514   8.0146   8.0146   8.2786   8.6655  11.2745  11.2745  11.8089
    12.0727  14.3018  14.6818  17.7393  18.2988  18.2988  19.4453  19.4453
    20.2959  22.5979  22.7496  23.2248  23.5098  23.5098  24.1813  26.7094
    27.0063  27.0063  27.5258  27.5519

[...]

          k = 0.0983 0.0983 0.1012 (  4623 PWs)   bands (ev):

   -80.0203 -80.0202 -43.5264 -43.5262 -43.5164 -43.5157 -43.4918 -43.4911
    -2.7387  -2.7246  -2.6763  -2.6719  -2.5556  -2.5454  -2.4734  -2.4686
    -2.4035  -2.3920   6.0452   6.1122   7.2427   7.2873   7.8332   7.8956
     7.9661   8.0351   8.0415   8.0853   9.1212   9.7276   9.9958  10.3037
    10.9789  11.1137  12.6920  13.1338  21.7246  22.1339  23.5471  23.9671
    24.0647  24.1497  24.8773  24.9870  25.3040  25.5106  25.5115  25.5417
    27.1247  27.3202  27.6092  27.6971

     the Fermi energy is    12.3693 ev

!    total energy              =    -862.92189851 Ry
     Harris-Foulkes estimate   =    -862.92185888 Ry
     estimated scf accuracy    <       0.00000022 Ry

     The total energy is the sum of the following terms:

     one-electron contribution =    -395.40562877 Ry
     hartree contribution      =     235.50066871 Ry
     xc contribution           =    -138.52264130 Ry
     ewald contribution        =    -564.49095488 Ry
     smearing contrib. (-TS)   =      -0.00334225 Ry

     convergence has been achieved in  11 iterations

     Forces acting on atoms (Ry/au):

     atom    1 type  1   force =     0.00000000    0.00000000    0.00000000
     atom    2 type  1   force =     0.00000000    0.00000000    0.00000000
     atom    3 type  2   force =     0.00000000    0.00000000    0.00000000
     atom    4 type  2   force =     0.00000000    0.00000000    0.00000000

     Total force =     0.000000     Total SCF correction =     0.000000

     General routines

     Parallel routines

   This run was terminated on:  14:25:41  13Nov2017

   JOB DONE.