     Program PWSCF v.5.1rc2 starts on 15Nov2017 at  7:11:57

     Current dimensions of program PWSCF are:
     Max number of different atomic species (ntypx) = 10
     Max number of k-points (npk) =  40000
     Max angular momentum in pseudopotentials (lmaxx) =  3

     IMPORTANT: XC functional enforced from input :
     Exchange-correlation      = BEEF-VDW ( 1  4 27 13 2)
     Any further DFT definition will be discarded
     Please, verify this is what you really want

     Found symmetry operation: I + (  0.5000  0.5000  0.0000)
     This is a supercell, fractional translations are disabled

     bravais-lattice index     =            0
     lattice parameter (alat)  =       1.8897  a.u.
     unit-cell volume          =     486.8690 (a.u.)^3
     number of atoms/cell      =            4
     number of atomic types    =            2
     number of electrons       =        54.00
     number of Kohn-Sham states=           47
     kinetic-energy cutoff     =      58.7989  Ry
     charge density cutoff     =     587.9892  Ry
     convergence threshold     =      1.0E-06
     mixing beta               =       0.1000
     number of iterations used =           10  plain     mixing
     Exchange-correlation      = BEEF-VDW ( 1  4 27 13 2)

     celldm(1)=   1.889726  celldm(2)=   0.000000  celldm(3)=   0.000000
     celldm(4)=   0.000000  celldm(5)=   0.000000  celldm(6)=   0.000000

     crystal axes: (cart. coord. in units of alat)
               a(1) = (   4.618838   0.000000   0.000000 )
               a(2) = (   0.000000   4.618838   0.000000 )
               a(3) = (   0.000000   0.000000   3.381817 )

     reciprocal axes: (cart. coord. in units 2 pi/alat)
               b(1) = (  0.216505  0.000000  0.000000 )
               b(2) = (  0.000000  0.216505  0.000000 )
               b(3) = (  0.000000  0.000000  0.295699 )

     PseudoPot. # 1 for Zr read from file:
     /home/users/vossj/suncat/psp/gbrv1.5pbe/Zr.UPF
     MD5 check sum: 5db81b1e868ab7776c4564c113de050b
     Pseudo is Ultrasoft + core correction, Zval = 12.0
     Generated by new atomic code, or converted to UPF format
     Using radial grid of  887 points,  6 beta functions with:
                l(1) =   0
                l(2) =   0
                l(3) =   1
                l(4) =   1
                l(5) =   2
                l(6) =   2
     Q(r) pseudized with  6 coefficients,  rinner =    1.200   1.200   1.200
                                                       1.200   1.200

     PseudoPot. # 2 for Rh read from file:
     /home/users/vossj/suncat/psp/gbrv1.5pbe/Rh.UPF
     MD5 check sum: 761627e959a2e3a1f56b0b5fe687810e
     Pseudo is Ultrasoft + core correction, Zval = 15.0
     Generated by new atomic code, or converted to UPF format
     Using radial grid of  969 points,  7 beta functions with:
                l(1) =   0
                l(2) =   0
                l(3) =   1
                l(4) =   1
                l(5) =   2
                l(6) =   2
                l(7) =   2
     Q(r) pseudized with  8 coefficients,  rinner =    1.200   1.200   1.200
                                                       1.200   1.200

     vdW kernel table read from file vdW_kernel_table
     MD5 check sum: 095c7af220d748ca6e76c0b4c6cfb241

     atomic species   valence    mass     pseudopotential
        Zr1           12.00    91.22400     Zr( 1.00)
        Rh1           15.00   102.90550     Rh( 1.00)

     16 Sym. Ops., with inversion, found

   Cartesian axes

     site n.     atom                  positions (alat units)
         1           Zr1 tau(   1) = (   0.0000000   0.0000000   0.0000000  )
         2           Zr1 tau(   2) = (   2.3094189   2.3094189   0.0000000  )
         3           Rh1 tau(   3) = (   2.3094189   0.0000000   1.6909083  )
         4           Rh1 tau(   4) = (   0.0000000   2.3094189   1.6909083  )

     number of k points=    75  Fermi-Dirac smearing, width (Ry)=  0.0073
                       cart. coord. in units 2pi/alat
        k(    1) = (   0.0000000   0.0000000   0.0000000), wk =   0.0027435
        k(    2) = (   0.0000000   0.0000000   0.0328555), wk =   0.0054870
        k(    3) = (   0.0000000   0.0000000   0.0657109), wk =   0.0054870
        k(    4) = (   0.0000000   0.0000000   0.0985664), wk =   0.0054870
        k(    5) = (   0.0000000   0.0000000   0.1314218), wk =   0.0054870
        k(    6) = (   0.0000000   0.0240561   0.0000000), wk =   0.0109739
        k(    7) = (   0.0000000   0.0240561   0.0328555), wk =   0.0219479
        k(    8) = (   0.0000000   0.0240561   0.0657109), wk =   0.0219479
        k(    9) = (   0.0000000   0.0240561   0.0985664), wk =   0.0219479
        k(   10) = (   0.0000000   0.0240561   0.1314218), wk =   0.0219479
        k(   11) = (   0.0000000   0.0481122   0.0000000), wk =   0.0109739
        k(   12) = (   0.0000000   0.0481122   0.0328555), wk =   0.0219479
        k(   13) = (   0.0000000   0.0481122   0.0657109), wk =   0.0219479
        k(   14) = (   0.0000000   0.0481122   0.0985664), wk =   0.0219479
        k(   15) = (   0.0000000   0.0481122   0.1314218), wk =   0.0219479
        k(   16) = (   0.0000000   0.0721682   0.0000000), wk =   0.0109739
        k(   17) = (   0.0000000   0.0721682   0.0328555), wk =   0.0219479
        k(   18) = (   0.0000000   0.0721682   0.0657109), wk =   0.0219479
        k(   19) = (   0.0000000   0.0721682   0.0985664), wk =   0.0219479
        k(   20) = (   0.0000000   0.0721682   0.1314218), wk =   0.0219479
        k(   21) = (   0.0000000   0.0962243   0.0000000), wk =   0.0109739
        k(   22) = (   0.0000000   0.0962243   0.0328555), wk =   0.0219479
        k(   23) = (   0.0000000   0.0962243   0.0657109), wk =   0.0219479
        k(   24) = (   0.0000000   0.0962243   0.0985664), wk =   0.0219479
        k(   25) = (   0.0000000   0.0962243   0.1314218), wk =   0.0219479
        k(   26) = (   0.0240561   0.0240561   0.0000000), wk =   0.0109739
        k(   27) = (   0.0240561   0.0240561   0.0328555), wk =   0.0219479
        k(   28) = (   0.0240561   0.0240561   0.0657109), wk =   0.0219479
        k(   29) = (   0.0240561   0.0240561   0.0985664), wk =   0.0219479
        k(   30) = (   0.0240561   0.0240561   0.1314218), wk =   0.0219479
        k(   31) = (   0.0240561   0.0481122   0.0000000), wk =   0.0219479
        k(   32) = (   0.0240561   0.0481122   0.0328555), wk =   0.0438957
        k(   33) = (   0.0240561   0.0481122   0.0657109), wk =   0.0438957
        k(   34) = (   0.0240561   0.0481122   0.0985664), wk =   0.0438957
        k(   35) = (   0.0240561   0.0481122   0.1314218), wk =   0.0438957
        k(   36) = (   0.0240561   0.0721682   0.0000000), wk =   0.0219479
        k(   37) = (   0.0240561   0.0721682   0.0328555), wk =   0.0438957
        k(   38) = (   0.0240561   0.0721682   0.0657109), wk =   0.0438957
        k(   39) = (   0.0240561   0.0721682   0.0985664), wk =   0.0438957
        k(   40) = (   0.0240561   0.0721682   0.1314218), wk =   0.0438957
        k(   41) = (   0.0240561   0.0962243   0.0000000), wk =   0.0219479
        k(   42) = (   0.0240561   0.0962243   0.0328555), wk =   0.0438957
        k(   43) = (   0.0240561   0.0962243   0.0657109), wk =   0.0438957
        k(   44) = (   0.0240561   0.0962243   0.0985664), wk =   0.0438957
        k(   45) = (   0.0240561   0.0962243   0.1314218), wk =   0.0438957
        k(   46) = (   0.0481122   0.0481122   0.0000000), wk =   0.0109739
        k(   47) = (   0.0481122   0.0481122   0.0328555), wk =   0.0219479
        k(   48) = (   0.0481122   0.0481122   0.0657109), wk =   0.0219479
        k(   49) = (   0.0481122   0.0481122   0.0985664), wk =   0.0219479
        k(   50) = (   0.0481122   0.0481122   0.1314218), wk =   0.0219479
        k(   51) = (   0.0481122   0.0721682   0.0000000), wk =   0.0219479
        k(   52) = (   0.0481122   0.0721682   0.0328555), wk =   0.0438957
        k(   53) = (   0.0481122   0.0721682   0.0657109), wk =   0.0438957
        k(   54) = (   0.0481122   0.0721682   0.0985664), wk =   0.0438957
        k(   55) = (   0.0481122   0.0721682   0.1314218), wk =   0.0438957
        k(   56) = (   0.0481122   0.0962243   0.0000000), wk =   0.0219479
        k(   57) = (   0.0481122   0.0962243   0.0328555), wk =   0.0438957
        k(   58) = (   0.0481122   0.0962243   0.0657109), wk =   0.0438957
        k(   59) = (   0.0481122   0.0962243   0.0985664), wk =   0.0438957
        k(   60) = (   0.0481122   0.0962243   0.1314218), wk =   0.0438957
        k(   61) = (   0.0721682   0.0721682   0.0000000), wk =   0.0109739
        k(   62) = (   0.0721682   0.0721682   0.0328555), wk =   0.0219479
        k(   63) = (   0.0721682   0.0721682   0.0657109), wk =   0.0219479
        k(   64) = (   0.0721682   0.0721682   0.0985664), wk =   0.0219479
        k(   65) = (   0.0721682   0.0721682   0.1314218), wk =   0.0219479
        k(   66) = (   0.0721682   0.0962243   0.0000000), wk =   0.0219479
        k(   67) = (   0.0721682   0.0962243   0.0328555), wk =   0.0438957
        k(   68) = (   0.0721682   0.0962243   0.0657109), wk =   0.0438957
        k(   69) = (   0.0721682   0.0962243   0.0985664), wk =   0.0438957
        k(   70) = (   0.0721682   0.0962243   0.1314218), wk =   0.0438957
        k(   71) = (   0.0962243   0.0962243   0.0000000), wk =   0.0109739
        k(   72) = (   0.0962243   0.0962243   0.0328555), wk =   0.0219479
        k(   73) = (   0.0962243   0.0962243   0.0657109), wk =   0.0219479
        k(   74) = (   0.0962243   0.0962243   0.0985664), wk =   0.0219479
        k(   75) = (   0.0962243   0.0962243   0.1314218), wk =   0.0219479

     Largest allocated arrays     est. size (Mb)     dimensions
     Largest temporary arrays     est. size (Mb)     dimensions

     Initial potential from superposition of free atoms
     Check: negative starting charge=   -0.232793

     starting charge   52.99550, renormalised to   54.00000

     negative rho (up, down):  2.372E-01 0.000E+00

     *
     * You are using vdW-DF for exchange-correlation in this calculation.
     * Please cite the following three references that made this development
     * possible:
     *
     *   M. Dion, H. Rydberg, E. Schroder, D. C. Langreth, and
     *   B. I. Lundqvist, Phys. Rev. Lett. 92, 246401 (2004).
     *
     *   T. Thonhauser, V. R. Cooper, S. Li, A. Puzder, P. Hyldgaard, and
     *   D. C. Langreth, Phys. Rev. B 76, 125112 (2007).
     *
     *   G. Roman-Perez and J. M. Soler, Phys. Rev. Lett. 103, 096102 (2009).
     *
     *
     * If you are using vdW-DF2, please also cite:
     *
     *   K. Lee, E. D. Murray, L. Kong, B. I. Lundqvist, and
     *   D. C. Langreth, Phys. Rev. B 82, 081101(R) (2010).
     *
     *
     * If you are calculating the stress with vdW-DF, please also cite:
     *
     *   R. Sabatini, E. Kucukbenli, B. Kolb, T. Thonhauser, and
     *   S. de Gironcoli, J. Phys.: Condens. Matter 24, 424209 (2012).
     *

     Carrying out vdW-DF run using the following parameters:

     Nqs =      20    Nr_points =    1024   r_max =   100.000
     q_mesh =
               0.00001000     0.04494208     0.09755937     0.15916263
               0.23128650     0.31572767     0.41458969     0.53033537
               0.66584808     0.82450364     1.01025438     1.22772762
               1.48234092     1.78043706     2.12944203     2.53805004
               3.01644009     3.57652955     4.23227104     5.00000000

     Gradients computed in reciprocal space

     Starting wfc are   50 randomized atomic wfcs

     Self-consistent Calculation

     iteration #  1     ecut=    58.80 Ry     beta=0.10
     Davidson diagonalization with overlap
     ethr =  1.00E-02,  avg # of iterations =  4.4

[...]

     total energy              =    -544.32756658 Ry
     Harris-Foulkes estimate   =    -544.41450551 Ry
     estimated scf accuracy    <       0.58461254 Ry

[...]

     total energy              =    -544.26806068 Ry
     Harris-Foulkes estimate   =    -544.26805874 Ry
     estimated scf accuracy    <       0.00000155 Ry

     iteration # 10     ecut=    58.80 Ry     beta=0.10
     Davidson diagonalization with overlap
     ethr =  2.87E-09,  avg # of iterations =  1.0

     negative rho (up, down):  2.439E-01 0.000E+00

     End of self-consistent calculation

          k = 0.0000 0.0000 0.0000 (  3699 PWs)   bands (ev):

   -32.3346 -32.2623 -29.3505 -29.3505 -29.3059 -29.3059 -29.3052 -29.2957
   -10.4480 -10.4480 -10.1334 -10.0819 -10.0819 -10.0621  10.5807  12.4352
    12.5247  12.5750  12.5963  13.7339  13.7339  14.9984  14.9984  15.1909
    16.4071  17.2794  18.1644  18.5179  18.6730  18.6730  19.2706  21.1403
    21.1403  21.3106  21.3106  21.3325  21.9030  24.6680  25.5508  25.5508
    27.2781  27.6623  28.8920  28.8920  30.2054  31.6575  32.2597

[...]

          k = 0.0962 0.0962 0.1314 (  3714 PWs)   bands (ev):

   -32.2773 -32.2748 -29.3516 -29.3503 -29.3326 -29.3323 -29.2998 -29.2985
   -10.4642 -10.4534 -10.3804 -10.3774 -10.0382 -10.0265  12.5069  12.5357
    12.6906  12.7085  14.0142  14.0320  14.0357  14.0876  16.0511  16.1204
    16.8289  16.9986  18.0467  18.1977  18.3882  18.5024  18.7866  18.8081
    20.9561  21.1943  21.2477  21.3148  21.7899  21.8369  26.9555  26.9735
    27.3543  27.5843  29.1963  29.2609  29.3203  29.4749  31.0016

     the Fermi energy is    17.3294 ev

!    total energy              =    -544.26806884 Ry
     Harris-Foulkes estimate   =    -544.26806077 Ry
     estimated scf accuracy    <       0.00000029 Ry

     The total energy is the sum of the following terms:

     one-electron contribution =    -106.11910708 Ry
     hartree contribution      =      88.79579963 Ry
     xc contribution           =     -99.12227206 Ry
     ewald contribution        =    -427.81296682 Ry
     smearing contrib. (-TS)   =      -0.00952252 Ry

     convergence has been achieved in  10 iterations

     Forces acting on atoms (Ry/au):

     negative rho (up, down):  2.439E-01 0.000E+00
     atom    1 type  1   force =     0.00000000    0.00000000    0.00000000
     atom    2 type  1   force =     0.00000000    0.00000000    0.00000000
     atom    3 type  2   force =     0.00000000    0.00000000    0.00000000
     atom    4 type  2   force =     0.00000000    0.00000000    0.00000000

     Total force =     0.000000     Total SCF correction =     0.000000

     General routines

     Parallel routines

   This run was terminated on:   7:12:33  15Nov2017

   JOB DONE.