     Program PWSCF v.5.1rc2 (svn rev. ) starts on 18Feb2018 at 17:47:14

     Current dimensions of program PWSCF are:
     Max number of different atomic species (ntypx) = 10
     Max number of k-points (npk) =  40000
     Max angular momentum in pseudopotentials (lmaxx) =  3

     IMPORTANT: XC functional enforced from input :
     Exchange-correlation      = BEEF-VDW ( 1  4 27 13 2)
     Any further DFT definition will be discarded
     Please, verify this is what you really want

     Subspace diagonalization in iterative solution of the eigenvalue problem:
     a serial algorithm will be used

     Found symmetry operation: I + (  0.5000  0.5000  0.0000)
     This is a supercell, fractional translations are disabled

     bravais-lattice index     =            0
     lattice parameter (alat)  =       1.8897  a.u.
     unit-cell volume          =     890.5121 (a.u.)^3
     number of atoms/cell      =            4
     number of atomic types    =            2
     number of electrons       =        52.00
     number of Kohn-Sham states=           46
     kinetic-energy cutoff     =      58.7989  Ry
     charge density cutoff     =     587.9892  Ry
     convergence threshold     =      1.0E-06
     mixing beta               =       0.1000
     number of iterations used =           10  plain     mixing
     Exchange-correlation      = BEEF-VDW ( 1  4 27 13 2)

     celldm(1)=   1.889726  celldm(2)=   0.000000  celldm(3)=   0.000000
     celldm(4)=   0.000000  celldm(5)=   0.000000  celldm(6)=   0.000000

     crystal axes: (cart. coord. in units of alat)
               a(1) = (   6.117113   0.000000   0.000000 )
               a(2) = (   0.000000   6.117113   0.000000 )
               a(3) = (   0.000000   0.000000   3.526551 )

     reciprocal axes: (cart. coord. in units 2 pi/alat)
               b(1) = (  0.163476  0.000000  0.000000 )
               b(2) = (  0.000000  0.163476  0.000000 )
               b(3) = (  0.000000  0.000000  0.283563 )

     PseudoPot. # 1 for La read from file:
     /home/mamunm/src/pseudo/gbrv1.5pbe/La.UPF
     MD5 check sum: 5937b0c7494ba0601a847275249473aa
     Pseudo is Ultrasoft + core correction, Zval = 11.0
     Generated by new atomic code, or converted to UPF format
     Using radial grid of  995 points,  8 beta functions with:
                l(1) =   0
                l(2) =   0
                l(3) =   1
                l(4) =   1
                l(5) =   2
                l(6) =   2
                l(7) =   3
                l(8) =   3
     Q(r) pseudized with  8 coefficients,  rinner =    1.700   1.700   1.700
                                                       1.700   1.700   1.700
                                                       1.700

     PseudoPot. # 2 for Bi read from file:
     /home/mamunm/src/pseudo/gbrv1.5pbe/Bi.UPF
     MD5 check sum: 81103212dc04adf40945787f699eab19
     Pseudo is Ultrasoft + core correction, Zval = 15.0
     Generated by new atomic code, or converted to UPF format
     Using radial grid of  899 points,  6 beta functions with:
                l(1) =   0
                l(2) =   0
                l(3) =   1
                l(4) =   1
                l(5) =   2
                l(6) =   2
     Q(r) pseudized with  6 coefficients,  rinner =    1.000   1.000   1.000
                                                       1.000   1.000

     vdW kernel table read from file vdW_kernel_table
     MD5 check sum: 095c7af220d748ca6e76c0b4c6cfb241

     atomic species   valence    mass     pseudopotential
        La1           11.00   138.90547     La( 1.00)
        Bi1           15.00   208.98040     Bi( 1.00)

     16 Sym. Ops., with inversion, found

   Cartesian axes

     site n.     atom                  positions (alat units)
         1           La1 tau(   1) = (   0.0000000   0.0000000   0.0000000  )
         2           La1 tau(   2) = (   3.0585566   3.0585566   0.0000000  )
         3           Bi1 tau(   3) = (   3.0585566   0.0000000   1.7632757  )
         4           Bi1 tau(   4) = (   0.0000000   3.0585566   1.7632757  )

     number of k points=    75  Fermi-Dirac smearing, width (Ry)=  0.0073
                       cart. coord. in units 2pi/alat
        k(    1) = (   0.0000000   0.0000000   0.0000000), wk =   0.0027435
        k(    2) = (   0.0000000   0.0000000   0.0315070), wk =   0.0054870
        k(    3) = (   0.0000000   0.0000000   0.0630140), wk =   0.0054870
        k(    4) = (   0.0000000   0.0000000   0.0945211), wk =   0.0054870
        k(    5) = (   0.0000000   0.0000000   0.1260281), wk =   0.0054870
        k(    6) = (   0.0000000   0.0181640   0.0000000), wk =   0.0109739
        k(    7) = (   0.0000000   0.0181640   0.0315070), wk =   0.0219479
        k(    8) = (   0.0000000   0.0181640   0.0630140), wk =   0.0219479
        k(    9) = (   0.0000000   0.0181640   0.0945211), wk =   0.0219479
        k(   10) = (   0.0000000   0.0181640   0.1260281), wk =   0.0219479
        k(   11) = (   0.0000000   0.0363280   0.0000000), wk =   0.0109739
        k(   12) = (   0.0000000   0.0363280   0.0315070), wk =   0.0219479
        k(   13) = (   0.0000000   0.0363280   0.0630140), wk =   0.0219479
        k(   14) = (   0.0000000   0.0363280   0.0945211), wk =   0.0219479
        k(   15) = (   0.0000000   0.0363280   0.1260281), wk =   0.0219479
        k(   16) = (   0.0000000   0.0544919   0.0000000), wk =   0.0109739
        k(   17) = (   0.0000000   0.0544919   0.0315070), wk =   0.0219479
        k(   18) = (   0.0000000   0.0544919   0.0630140), wk =   0.0219479
        k(   19) = (   0.0000000   0.0544919   0.0945211), wk =   0.0219479
        k(   20) = (   0.0000000   0.0544919   0.1260281), wk =   0.0219479
        k(   21) = (   0.0000000   0.0726559   0.0000000), wk =   0.0109739
        k(   22) = (   0.0000000   0.0726559   0.0315070), wk =   0.0219479
        k(   23) = (   0.0000000   0.0726559   0.0630140), wk =   0.0219479
        k(   24) = (   0.0000000   0.0726559   0.0945211), wk =   0.0219479
        k(   25) = (   0.0000000   0.0726559   0.1260281), wk =   0.0219479
        k(   26) = (   0.0181640   0.0181640   0.0000000), wk =   0.0109739
        k(   27) = (   0.0181640   0.0181640   0.0315070), wk =   0.0219479
        k(   28) = (   0.0181640   0.0181640   0.0630140), wk =   0.0219479
        k(   29) = (   0.0181640   0.0181640   0.0945211), wk =   0.0219479
        k(   30) = (   0.0181640   0.0181640   0.1260281), wk =   0.0219479
        k(   31) = (   0.0181640   0.0363280   0.0000000), wk =   0.0219479
        k(   32) = (   0.0181640   0.0363280   0.0315070), wk =   0.0438957
        k(   33) = (   0.0181640   0.0363280   0.0630140), wk =   0.0438957
        k(   34) = (   0.0181640   0.0363280   0.0945211), wk =   0.0438957
        k(   35) = (   0.0181640   0.0363280   0.1260281), wk =   0.0438957
        k(   36) = (   0.0181640   0.0544919   0.0000000), wk =   0.0219479
        k(   37) = (   0.0181640   0.0544919   0.0315070), wk =   0.0438957
        k(   38) = (   0.0181640   0.0544919   0.0630140), wk =   0.0438957
        k(   39) = (   0.0181640   0.0544919   0.0945211), wk =   0.0438957
        k(   40) = (   0.0181640   0.0544919   0.1260281), wk =   0.0438957
        k(   41) = (   0.0181640   0.0726559   0.0000000), wk =   0.0219479
        k(   42) = (   0.0181640   0.0726559   0.0315070), wk =   0.0438957
        k(   43) = (   0.0181640   0.0726559   0.0630140), wk =   0.0438957
        k(   44) = (   0.0181640   0.0726559   0.0945211), wk =   0.0438957
        k(   45) = (   0.0181640   0.0726559   0.1260281), wk =   0.0438957
        k(   46) = (   0.0363280   0.0363280   0.0000000), wk =   0.0109739
        k(   47) = (   0.0363280   0.0363280   0.0315070), wk =   0.0219479
        k(   48) = (   0.0363280   0.0363280   0.0630140), wk =   0.0219479
        k(   49) = (   0.0363280   0.0363280   0.0945211), wk =   0.0219479
        k(   50) = (   0.0363280   0.0363280   0.1260281), wk =   0.0219479
        k(   51) = (   0.0363280   0.0544919   0.0000000), wk =   0.0219479
        k(   52) = (   0.0363280   0.0544919   0.0315070), wk =   0.0438957
        k(   53) = (   0.0363280   0.0544919   0.0630140), wk =   0.0438957
        k(   54) = (   0.0363280   0.0544919   0.0945211), wk =   0.0438957
        k(   55) = (   0.0363280   0.0544919   0.1260281), wk =   0.0438957
        k(   56) = (   0.0363280   0.0726559   0.0000000), wk =   0.0219479
        k(   57) = (   0.0363280   0.0726559   0.0315070), wk =   0.0438957
        k(   58) = (   0.0363280   0.0726559   0.0630140), wk =   0.0438957
        k(   59) = (   0.0363280   0.0726559   0.0945211), wk =   0.0438957
        k(   60) = (   0.0363280   0.0726559   0.1260281), wk =   0.0438957
        k(   61) = (   0.0544919   0.0544919   0.0000000), wk =   0.0109739
        k(   62) = (   0.0544919   0.0544919   0.0315070), wk =   0.0219479
        k(   63) = (   0.0544919   0.0544919   0.0630140), wk =   0.0219479
        k(   64) = (   0.0544919   0.0544919   0.0945211), wk =   0.0219479
        k(   65) = (   0.0544919   0.0544919   0.1260281), wk =   0.0219479
        k(   66) = (   0.0544919   0.0726559   0.0000000), wk =   0.0219479
        k(   67) = (   0.0544919   0.0726559   0.0315070), wk =   0.0438957
        k(   68) = (   0.0544919   0.0726559   0.0630140), wk =   0.0438957
        k(   69) = (   0.0544919   0.0726559   0.0945211), wk =   0.0438957
        k(   70) = (   0.0544919   0.0726559   0.1260281), wk =   0.0438957
        k(   71) = (   0.0726559   0.0726559   0.0000000), wk =   0.0109739
        k(   72) = (   0.0726559   0.0726559   0.0315070), wk =   0.0219479
        k(   73) = (   0.0726559   0.0726559   0.0630140), wk =   0.0219479
        k(   74) = (   0.0726559   0.0726559   0.0945211), wk =   0.0219479
        k(   75) = (   0.0726559   0.0726559   0.1260281), wk =   0.0219479

     Largest allocated arrays     est. size (Mb)     dimensions
     Largest temporary arrays     est. size (Mb)     dimensions

     Initial potential from superposition of free atoms
     Check: negative starting charge=   -0.225760

     starting charge   49.93578, renormalised to   52.00000

     negative rho (up, down):  2.351E-01 0.000E+00

     *
     * You are using vdW-DF for exchange-correlation in this calculation.
     * Please cite the following three references that made this development
     * possible:
     *
     *   M. Dion, H. Rydberg, E. Schroder, D. C. Langreth, and
     *   B. I. Lundqvist, Phys. Rev. Lett. 92, 246401 (2004).
     *
     *   T. Thonhauser, V. R. Cooper, S. Li, A. Puzder, P. Hyldgaard, and
     *   D. C. Langreth, Phys. Rev. B 76, 125112 (2007).
     *
     *   G. Roman-Perez and J. M. Soler, Phys. Rev. Lett. 103, 096102 (2009).
     *
     *
     * If you are using vdW-DF2, please also cite:
     *
     *   K. Lee, E. D. Murray, L. Kong, B. I. Lundqvist, and
     *   D. C. Langreth, Phys. Rev. B 82, 081101(R) (2010).
     *
     *
     * If you are calculating the stress with vdW-DF, please also cite:
     *
     *   R. Sabatini, E. Kucukbenli, B. Kolb, T. Thonhauser, and
     *   S. de Gironcoli, J. Phys.: Condens. Matter 24, 424209 (2012).
     *

     Carrying out vdW-DF run using the following parameters:

     Nqs =      20    Nr_points =    1024   r_max =   100.000
     q_mesh =
               0.00001000     0.04494208     0.09755937     0.15916263
               0.23128650     0.31572767     0.41458969     0.53033537
               0.66584808     0.82450364     1.01025438     1.22772762
               1.48234092     1.78043706     2.12944203     2.53805004
               3.01644009     3.57652955     4.23227104     5.00000000

     Gradients computed in reciprocal space

     Starting wfc are   58 randomized atomic wfcs

     Self-consistent Calculation

     iteration #  1     ecut=    58.80 Ry     beta=0.10
     Davidson diagonalization with overlap
     ethr =  1.00E-02,  avg # of iterations =  2.2

[...]

     total energy              =    -582.81824086 Ry
     Harris-Foulkes estimate   =    -582.91540581 Ry
     estimated scf accuracy    <       0.60071576 Ry

[...]

     total energy              =    -582.67117890 Ry
     Harris-Foulkes estimate   =    -582.67108851 Ry
     estimated scf accuracy    <       0.00000228 Ry

     iteration # 12     ecut=    58.80 Ry     beta=0.10
     Davidson diagonalization with overlap
     ethr =  4.38E-09,  avg # of iterations =  2.9

     negative rho (up, down):  1.852E-01 0.000E+00

     End of self-consistent calculation

          k = 0.0000 0.0000 0.0000 (  6805 PWs)   bands (ev):

   -21.5186 -21.4950 -10.9382 -10.9304 -10.8450 -10.8450 -10.8415 -10.8415
   -10.7947 -10.7910 -10.7825 -10.7571  -5.2747  -5.2747  -5.0672  -5.0672
    -4.4620  -4.4295   0.4576   0.9792   9.5393   9.5393  11.1026  11.1632
    11.2593  11.3185  11.3185  13.2450  13.2644  13.2644  13.2874  13.3130
    13.3130  13.4921  13.4921  13.5525  13.5968  13.6672  13.7855  13.9561
    13.9561  14.2218  14.2227  14.7698  15.0986  15.1235

[...]

          k = 0.0727 0.0727 0.1260 (  6782 PWs)   bands (ev):

   -21.3893 -21.3887 -10.8857 -10.8854 -10.8838 -10.8836 -10.8063 -10.8060
   -10.7920 -10.7914 -10.7646 -10.7639  -5.5779  -5.5737  -5.1352  -5.1305
    -4.9038  -4.8987   1.9005   1.9082   8.9146   8.9436  10.0271  10.1221
    11.6989  11.8738  12.0834  12.1081  12.8117  12.8705  13.0281  13.1131
    13.3707  13.3782  13.3847  13.3849  13.4849  13.5304  13.5804  13.5921
    13.6040  13.6283  13.7887  13.7920  13.8039  13.8250

     the Fermi energy is    11.9660 ev

!    total energy              =    -582.67155507 Ry
     Harris-Foulkes estimate   =    -582.67117924 Ry
     estimated scf accuracy    <       0.00000031 Ry

     The total energy is the sum of the following terms:

     one-electron contribution =    -106.38079298 Ry
     hartree contribution      =      84.31493492 Ry
     xc contribution           =    -234.88613191 Ry
     ewald contribution        =    -325.71457424 Ry
     smearing contrib. (-TS)   =      -0.00499087 Ry

     convergence has been achieved in  12 iterations

     Forces acting on atoms (Ry/au):

     negative rho (up, down):  1.852E-01 0.000E+00
     atom    1 type  1   force =     0.00000000    0.00000000    0.00000000
     atom    2 type  1   force =     0.00000000    0.00000000    0.00000000
     atom    3 type  2   force =     0.00000000    0.00000000    0.00000000
     atom    4 type  2   force =     0.00000000    0.00000000    0.00000000

     Total force =     0.000000     Total SCF correction =     0.000000

     General routines

     Parallel routines

   This run was terminated on:  17:49: 7  18Feb2018

   JOB DONE.