     Program PWSCF v.5.1rc2 starts on 15Nov2017 at  6:22: 7

     Current dimensions of program PWSCF are:
     Max number of different atomic species (ntypx) = 10
     Max number of k-points (npk) =  40000
     Max angular momentum in pseudopotentials (lmaxx) =  3

     IMPORTANT: XC functional enforced from input :
     Exchange-correlation      = BEEF-VDW ( 1  4 27 13 2)
     Any further DFT definition will be discarded
     Please, verify this is what you really want

     Found symmetry operation: I + ( -0.5000 -0.5000  0.0000)
     This is a supercell, fractional translations are disabled

     bravais-lattice index     =            0
     lattice parameter (alat)  =       1.8897  a.u.
     unit-cell volume          =     504.8825 (a.u.)^3
     number of atoms/cell      =            4
     number of atomic types    =            2
     number of electrons       =        64.00
     number of Kohn-Sham states=           52
     kinetic-energy cutoff     =      58.7989  Ry
     charge density cutoff     =     587.9892  Ry
     convergence threshold     =      1.0E-06
     mixing beta               =       0.1000
     number of iterations used =           10  plain     mixing
     Exchange-correlation      = BEEF-VDW ( 1  4 27 13 2)

     celldm(1)=   1.889726  celldm(2)=   0.000000  celldm(3)=   0.000000
     celldm(4)=   0.000000  celldm(5)=   0.000000  celldm(6)=   0.000000

     crystal axes: (cart. coord. in units of alat)
               a(1) = (   4.729814   0.000000   0.000000 )
               a(2) = (   0.000000   4.729814   0.000000 )
               a(3) = (   0.000000   0.000000   3.344303 )

     reciprocal axes: (cart. coord. in units 2 pi/alat)
               b(1) = (  0.211425  0.000000  0.000000 )
               b(2) = (  0.000000  0.211425  0.000000 )
               b(3) = (  0.000000  0.000000  0.299016 )

     PseudoPot. # 1 for Zn read from file:
     /home/users/vossj/suncat/psp/gbrv1.5pbe/Zn.UPF
     MD5 check sum: df62231357ef9e81f77b2b3087fa5675
     Pseudo is Ultrasoft, Zval = 20.0
     Generated by new atomic code, or converted to UPF format
     Using radial grid of  943 points,  6 beta functions with:
                l(1) =   0
                l(2) =   0
                l(3) =   1
                l(4) =   1
                l(5) =   2
                l(6) =   2
     Q(r) pseudized with  8 coefficients,  rinner =    1.100   1.100   1.100
                                                       1.100   1.100

     PseudoPot. # 2 for Zr read from file:
     /home/users/vossj/suncat/psp/gbrv1.5pbe/Zr.UPF
     MD5 check sum: 5db81b1e868ab7776c4564c113de050b
     Pseudo is Ultrasoft + core correction, Zval = 12.0
     Generated by new atomic code, or converted to UPF format
     Using radial grid of  887 points,  6 beta functions with:
                l(1) =   0
                l(2) =   0
                l(3) =   1
                l(4) =   1
                l(5) =   2
                l(6) =   2
     Q(r) pseudized with  6 coefficients,  rinner =    1.200   1.200   1.200
                                                       1.200   1.200

     vdW kernel table read from file vdW_kernel_table
     MD5 check sum: 095c7af220d748ca6e76c0b4c6cfb241

     atomic species   valence    mass     pseudopotential
        Zn1           20.00    65.39000     Zn( 1.00)
        Zr1           12.00    91.22400     Zr( 1.00)

     16 Sym. Ops., with inversion, found

   Cartesian axes

     site n.     atom                  positions (alat units)
         1           Zn1 tau(   1) = (   0.0000000   0.0000000   0.0000000  )
         2           Zn1 tau(   2) = (   2.3649068   2.3649068   0.0000000  )
         3           Zr1 tau(   3) = (   2.3649068   0.0000000   1.6721515  )
         4           Zr1 tau(   4) = (   0.0000000   2.3649068   1.6721515  )

     number of k points=    75  Fermi-Dirac smearing, width (Ry)=  0.0073
                       cart. coord. in units 2pi/alat
        k(    1) = (   0.0000000   0.0000000   0.0000000), wk =   0.0027435
        k(    2) = (   0.0000000   0.0000000   0.0332240), wk =   0.0054870
        k(    3) = (   0.0000000   0.0000000   0.0664480), wk =   0.0054870
        k(    4) = (   0.0000000   0.0000000   0.0996720), wk =   0.0054870
        k(    5) = (   0.0000000   0.0000000   0.1328960), wk =   0.0054870
        k(    6) = (   0.0000000   0.0234916   0.0000000), wk =   0.0109739
        k(    7) = (   0.0000000   0.0234916   0.0332240), wk =   0.0219479
        k(    8) = (   0.0000000   0.0234916   0.0664480), wk =   0.0219479
        k(    9) = (   0.0000000   0.0234916   0.0996720), wk =   0.0219479
        k(   10) = (   0.0000000   0.0234916   0.1328960), wk =   0.0219479
        k(   11) = (   0.0000000   0.0469833   0.0000000), wk =   0.0109739
        k(   12) = (   0.0000000   0.0469833   0.0332240), wk =   0.0219479
        k(   13) = (   0.0000000   0.0469833   0.0664480), wk =   0.0219479
        k(   14) = (   0.0000000   0.0469833   0.0996720), wk =   0.0219479
        k(   15) = (   0.0000000   0.0469833   0.1328960), wk =   0.0219479
        k(   16) = (   0.0000000   0.0704749   0.0000000), wk =   0.0109739
        k(   17) = (   0.0000000   0.0704749   0.0332240), wk =   0.0219479
        k(   18) = (   0.0000000   0.0704749   0.0664480), wk =   0.0219479
        k(   19) = (   0.0000000   0.0704749   0.0996720), wk =   0.0219479
        k(   20) = (   0.0000000   0.0704749   0.1328960), wk =   0.0219479
        k(   21) = (   0.0000000   0.0939666   0.0000000), wk =   0.0109739
        k(   22) = (   0.0000000   0.0939666   0.0332240), wk =   0.0219479
        k(   23) = (   0.0000000   0.0939666   0.0664480), wk =   0.0219479
        k(   24) = (   0.0000000   0.0939666   0.0996720), wk =   0.0219479
        k(   25) = (   0.0000000   0.0939666   0.1328960), wk =   0.0219479
        k(   26) = (   0.0234916   0.0234916   0.0000000), wk =   0.0109739
        k(   27) = (   0.0234916   0.0234916   0.0332240), wk =   0.0219479
        k(   28) = (   0.0234916   0.0234916   0.0664480), wk =   0.0219479
        k(   29) = (   0.0234916   0.0234916   0.0996720), wk =   0.0219479
        k(   30) = (   0.0234916   0.0234916   0.1328960), wk =   0.0219479
        k(   31) = (   0.0234916   0.0469833   0.0000000), wk =   0.0219479
        k(   32) = (   0.0234916   0.0469833   0.0332240), wk =   0.0438957
        k(   33) = (   0.0234916   0.0469833   0.0664480), wk =   0.0438957
        k(   34) = (   0.0234916   0.0469833   0.0996720), wk =   0.0438957
        k(   35) = (   0.0234916   0.0469833   0.1328960), wk =   0.0438957
        k(   36) = (   0.0234916   0.0704749   0.0000000), wk =   0.0219479
        k(   37) = (   0.0234916   0.0704749   0.0332240), wk =   0.0438957
        k(   38) = (   0.0234916   0.0704749   0.0664480), wk =   0.0438957
        k(   39) = (   0.0234916   0.0704749   0.0996720), wk =   0.0438957
        k(   40) = (   0.0234916   0.0704749   0.1328960), wk =   0.0438957
        k(   41) = (   0.0234916   0.0939666   0.0000000), wk =   0.0219479
        k(   42) = (   0.0234916   0.0939666   0.0332240), wk =   0.0438957
        k(   43) = (   0.0234916   0.0939666   0.0664480), wk =   0.0438957
        k(   44) = (   0.0234916   0.0939666   0.0996720), wk =   0.0438957
        k(   45) = (   0.0234916   0.0939666   0.1328960), wk =   0.0438957
        k(   46) = (   0.0469833   0.0469833   0.0000000), wk =   0.0109739
        k(   47) = (   0.0469833   0.0469833   0.0332240), wk =   0.0219479
        k(   48) = (   0.0469833   0.0469833   0.0664480), wk =   0.0219479
        k(   49) = (   0.0469833   0.0469833   0.0996720), wk =   0.0219479
        k(   50) = (   0.0469833   0.0469833   0.1328960), wk =   0.0219479
        k(   51) = (   0.0469833   0.0704749   0.0000000), wk =   0.0219479
        k(   52) = (   0.0469833   0.0704749   0.0332240), wk =   0.0438957
        k(   53) = (   0.0469833   0.0704749   0.0664480), wk =   0.0438957
        k(   54) = (   0.0469833   0.0704749   0.0996720), wk =   0.0438957
        k(   55) = (   0.0469833   0.0704749   0.1328960), wk =   0.0438957
        k(   56) = (   0.0469833   0.0939666   0.0000000), wk =   0.0219479
        k(   57) = (   0.0469833   0.0939666   0.0332240), wk =   0.0438957
        k(   58) = (   0.0469833   0.0939666   0.0664480), wk =   0.0438957
        k(   59) = (   0.0469833   0.0939666   0.0996720), wk =   0.0438957
        k(   60) = (   0.0469833   0.0939666   0.1328960), wk =   0.0438957
        k(   61) = (   0.0704749   0.0704749   0.0000000), wk =   0.0109739
        k(   62) = (   0.0704749   0.0704749   0.0332240), wk =   0.0219479
        k(   63) = (   0.0704749   0.0704749   0.0664480), wk =   0.0219479
        k(   64) = (   0.0704749   0.0704749   0.0996720), wk =   0.0219479
        k(   65) = (   0.0704749   0.0704749   0.1328960), wk =   0.0219479
        k(   66) = (   0.0704749   0.0939666   0.0000000), wk =   0.0219479
        k(   67) = (   0.0704749   0.0939666   0.0332240), wk =   0.0438957
        k(   68) = (   0.0704749   0.0939666   0.0664480), wk =   0.0438957
        k(   69) = (   0.0704749   0.0939666   0.0996720), wk =   0.0438957
        k(   70) = (   0.0704749   0.0939666   0.1328960), wk =   0.0438957
        k(   71) = (   0.0939666   0.0939666   0.0000000), wk =   0.0109739
        k(   72) = (   0.0939666   0.0939666   0.0332240), wk =   0.0219479
        k(   73) = (   0.0939666   0.0939666   0.0664480), wk =   0.0219479
        k(   74) = (   0.0939666   0.0939666   0.0996720), wk =   0.0219479
        k(   75) = (   0.0939666   0.0939666   0.1328960), wk =   0.0219479

     Largest allocated arrays     est. size (Mb)     dimensions
     Largest temporary arrays     est. size (Mb)     dimensions

     Initial potential from superposition of free atoms
     Check: negative starting charge=   -0.121112

     starting charge   63.99542, renormalised to   64.00000

     negative rho (up, down):  1.211E-01 0.000E+00

     *
     * You are using vdW-DF for exchange-correlation in this calculation.
     * Please cite the following three references that made this development
     * possible:
     *
     *   M. Dion, H. Rydberg, E. Schroder, D. C. Langreth, and
     *   B. I. Lundqvist, Phys. Rev. Lett. 92, 246401 (2004).
     *
     *   T. Thonhauser, V. R. Cooper, S. Li, A. Puzder, P. Hyldgaard, and
     *   D. C. Langreth, Phys. Rev. B 76, 125112 (2007).
     *
     *   G. Roman-Perez and J. M. Soler, Phys. Rev. Lett. 103, 096102 (2009).
     *
     *
     * If you are using vdW-DF2, please also cite:
     *
     *   K. Lee, E. D. Murray, L. Kong, B. I. Lundqvist, and
     *   D. C. Langreth, Phys. Rev. B 82, 081101(R) (2010).
     *
     *
     * If you are calculating the stress with vdW-DF, please also cite:
     *
     *   R. Sabatini, E. Kucukbenli, B. Kolb, T. Thonhauser, and
     *   S. de Gironcoli, J. Phys.: Condens. Matter 24, 424209 (2012).
     *

     Carrying out vdW-DF run using the following parameters:

     Nqs =      20    Nr_points =    1024   r_max =   100.000
     q_mesh =
               0.00001000     0.04494208     0.09755937     0.15916263
               0.23128650     0.31572767     0.41458969     0.53033537
               0.66584808     0.82450364     1.01025438     1.22772762
               1.48234092     1.78043706     2.12944203     2.53805004
               3.01644009     3.57652955     4.23227104     5.00000000

     Gradients computed in reciprocal space

     Starting wfc are   52 randomized atomic wfcs

     Self-consistent Calculation

     iteration #  1     ecut=    58.80 Ry     beta=0.10
     Davidson diagonalization with overlap
     ethr =  1.00E-02,  avg # of iterations =  4.4

     Threshold (ethr) on eigenvalues was too large:
     Diagonalizing with lowered threshold

     Davidson diagonalization with overlap
     ethr =  2.74E-04,  avg # of iterations =  1.2

[...]

     total energy              =   -1125.22323533 Ry
     Harris-Foulkes estimate   =   -1125.25002463 Ry
     estimated scf accuracy    <       0.16837204 Ry

[...]

     total energy              =   -1125.21435303 Ry
     Harris-Foulkes estimate   =   -1125.21435729 Ry
     estimated scf accuracy    <       0.00000335 Ry

     iteration # 10     ecut=    58.80 Ry     beta=0.10
     Davidson diagonalization with overlap
     ethr =  5.23E-09,  avg # of iterations =  2.0

     negative rho (up, down):  1.242E-01 0.000E+00

     End of self-consistent calculation

          k = 0.0000 0.0000 0.0000 (  3859 PWs)   bands (ev):

  -112.3511-112.3510 -66.5195 -66.5195 -66.5189 -66.5189 -66.5189 -66.5188
   -35.3102 -35.2553 -13.4147 -13.4147 -13.1104 -13.1104 -13.1095 -13.0466
     6.1491   6.4851   6.4854   6.4860   6.5561   6.6749   6.6749   6.8141
     6.8141   6.8143   6.9984   9.6250  13.0414  13.0421  13.5124  13.6728
    13.6728  15.9624  15.9624  17.3129  17.3138  17.3138  18.5411  19.4356
    19.4356  19.4368  20.6147  21.5221  22.6197  25.0854  25.6978  25.6978
    27.0636  27.0638  29.3478  29.5573

[...]

          k = 0.0940 0.0940 0.1329 (  3871 PWs)   bands (ev):

  -112.3510-112.3510 -66.5195 -66.5195 -66.5195 -66.5195 -66.5188 -66.5188
   -35.2570 -35.2553 -13.4150 -13.4069 -13.4053 -13.4029 -13.0585 -13.0494
     6.4990   6.4994   6.5633   6.5738   6.6776   6.6793   6.6794   6.6864
     6.9831   6.9910   9.6101   9.6468  12.9112  13.0771  13.5531  13.6607
    13.9526  14.1418  15.8989  15.9943  16.0837  16.1362  18.5213  18.5461
    20.3317  20.7020  21.5369  21.5750  22.8029  22.8895  25.6068  25.7696
    25.9155  25.9177  29.4966  29.6313

     the Fermi energy is    13.9544 ev

!    total energy              =   -1125.21436941 Ry
     Harris-Foulkes estimate   =   -1125.21435359 Ry
     estimated scf accuracy    <       0.00000002 Ry

     The total energy is the sum of the following terms:

     one-electron contribution =    -834.59570619 Ry
     hartree contribution      =     443.41771536 Ry
     xc contribution           =    -123.77735188 Ry
     ewald contribution        =    -610.25496450 Ry
     smearing contrib. (-TS)   =      -0.00406219 Ry

     convergence has been achieved in  10 iterations

     Forces acting on atoms (Ry/au):

     negative rho (up, down):  1.242E-01 0.000E+00
     atom    1 type  1   force =     0.00000000    0.00000000    0.00000000
     atom    2 type  1   force =     0.00000000    0.00000000    0.00000000
     atom    3 type  2   force =     0.00000000    0.00000000    0.00000000
     atom    4 type  2   force =     0.00000000    0.00000000    0.00000000

     Total force =     0.000000     Total SCF correction =     0.000000

     General routines

     Parallel routines

   This run was terminated on:   6:22:50  15Nov2017

   JOB DONE.