     Program PWSCF v.5.1rc2 starts on 14Nov2017 at  8:17:51

     Current dimensions of program PWSCF are:
     Max number of different atomic species (ntypx) = 10
     Max number of k-points (npk) =  40000
     Max angular momentum in pseudopotentials (lmaxx) =  3

     IMPORTANT: XC functional enforced from input :
     Exchange-correlation      = BEEF-VDW ( 1  4 27 13 2)
     Any further DFT definition will be discarded
     Please, verify this is what you really want

     Found symmetry operation: I + ( -0.5000 -0.5000  0.0000)
     This is a supercell, fractional translations are disabled

     bravais-lattice index     =            0
     lattice parameter (alat)  =       1.8897  a.u.
     unit-cell volume          =     350.2824 (a.u.)^3
     number of atoms/cell      =            4
     number of atomic types    =            2
     number of electrons       =        60.00
     number of Kohn-Sham states=           50
     kinetic-energy cutoff     =      58.7989  Ry
     charge density cutoff     =     587.9892  Ry
     convergence threshold     =      1.0E-06
     mixing beta               =       0.1000
     number of iterations used =           10  plain     mixing
     Exchange-correlation      = BEEF-VDW ( 1  4 27 13 2)

     celldm(1)=   1.889726  celldm(2)=   0.000000  celldm(3)=   0.000000
     celldm(4)=   0.000000  celldm(5)=   0.000000  celldm(6)=   0.000000

     crystal axes: (cart. coord. in units of alat)
               a(1) = (   3.782330   0.000000   0.000000 )
               a(2) = (   0.000000   3.782330   0.000000 )
               a(3) = (   0.000000   0.000000   3.628298 )

     reciprocal axes: (cart. coord. in units 2 pi/alat)
               b(1) = (  0.264387  0.000000  0.000000 )
               b(2) = (  0.000000  0.264387  0.000000 )
               b(3) = (  0.000000  0.000000  0.275611 )

     PseudoPot. # 1 for Cr read from file:
     /home/users/vossj/suncat/psp/gbrv1.5pbe/Cr.UPF
     MD5 check sum: 0d52af634a40206e4dee301ad30da4bf
     Pseudo is Ultrasoft + core correction, Zval = 14.0
     Generated by new atomic code, or converted to UPF format
     Using radial grid of  857 points,  6 beta functions with:
                l(1) =   0
                l(2) =   0
                l(3) =   1
                l(4) =   1
                l(5) =   2
                l(6) =   2
     Q(r) pseudized with  8 coefficients,  rinner =    0.950   0.950   0.950
                                                       0.950   0.950

     PseudoPot. # 2 for Ru read from file:
     /home/users/vossj/suncat/psp/gbrv1.5pbe/Ru.UPF
     MD5 check sum: 7158a806dd851261a58e6920c40ebe78
     Pseudo is Ultrasoft + core correction, Zval = 16.0
     Generated by new atomic code, or converted to UPF format
     Using radial grid of  967 points,  6 beta functions with:
                l(1) =   0
                l(2) =   0
                l(3) =   1
                l(4) =   1
                l(5) =   2
                l(6) =   2
     Q(r) pseudized with  8 coefficients,  rinner =    1.300   1.300   1.300
                                                       1.300   1.300

     vdW kernel table read from file vdW_kernel_table
     MD5 check sum: 095c7af220d748ca6e76c0b4c6cfb241

     atomic species   valence    mass     pseudopotential
        Cr1           14.00    51.99600     Cr( 1.00)
        Ru1           16.00   101.07000     Ru( 1.00)

     16 Sym. Ops., with inversion, found

   Cartesian axes

     site n.     atom                  positions (alat units)
         1           Cr1 tau(   1) = (   0.0000000   0.0000000   0.0000000  )
         2           Cr1 tau(   2) = (   1.8911649   1.8911649   0.0000000  )
         3           Ru1 tau(   3) = (   1.8911649   0.0000000   1.8141489  )
         4           Ru1 tau(   4) = (   0.0000000   1.8911649   1.8141489  )

     number of k points=    75  Fermi-Dirac smearing, width (Ry)=  0.0073
                       cart. coord. in units 2pi/alat
        k(    1) = (   0.0000000   0.0000000   0.0000000), wk =   0.0027435
        k(    2) = (   0.0000000   0.0000000   0.0306235), wk =   0.0054870
        k(    3) = (   0.0000000   0.0000000   0.0612470), wk =   0.0054870
        k(    4) = (   0.0000000   0.0000000   0.0918704), wk =   0.0054870
        k(    5) = (   0.0000000   0.0000000   0.1224939), wk =   0.0054870
        k(    6) = (   0.0000000   0.0293764   0.0000000), wk =   0.0109739
        k(    7) = (   0.0000000   0.0293764   0.0306235), wk =   0.0219479
        k(    8) = (   0.0000000   0.0293764   0.0612470), wk =   0.0219479
        k(    9) = (   0.0000000   0.0293764   0.0918704), wk =   0.0219479
        k(   10) = (   0.0000000   0.0293764   0.1224939), wk =   0.0219479
        k(   11) = (   0.0000000   0.0587527   0.0000000), wk =   0.0109739
        k(   12) = (   0.0000000   0.0587527   0.0306235), wk =   0.0219479
        k(   13) = (   0.0000000   0.0587527   0.0612470), wk =   0.0219479
        k(   14) = (   0.0000000   0.0587527   0.0918704), wk =   0.0219479
        k(   15) = (   0.0000000   0.0587527   0.1224939), wk =   0.0219479
        k(   16) = (   0.0000000   0.0881291   0.0000000), wk =   0.0109739
        k(   17) = (   0.0000000   0.0881291   0.0306235), wk =   0.0219479
        k(   18) = (   0.0000000   0.0881291   0.0612470), wk =   0.0219479
        k(   19) = (   0.0000000   0.0881291   0.0918704), wk =   0.0219479
        k(   20) = (   0.0000000   0.0881291   0.1224939), wk =   0.0219479
        k(   21) = (   0.0000000   0.1175055   0.0000000), wk =   0.0109739
        k(   22) = (   0.0000000   0.1175055   0.0306235), wk =   0.0219479
        k(   23) = (   0.0000000   0.1175055   0.0612470), wk =   0.0219479
        k(   24) = (   0.0000000   0.1175055   0.0918704), wk =   0.0219479
        k(   25) = (   0.0000000   0.1175055   0.1224939), wk =   0.0219479
        k(   26) = (   0.0293764   0.0293764   0.0000000), wk =   0.0109739
        k(   27) = (   0.0293764   0.0293764   0.0306235), wk =   0.0219479
        k(   28) = (   0.0293764   0.0293764   0.0612470), wk =   0.0219479
        k(   29) = (   0.0293764   0.0293764   0.0918704), wk =   0.0219479
        k(   30) = (   0.0293764   0.0293764   0.1224939), wk =   0.0219479
        k(   31) = (   0.0293764   0.0587527   0.0000000), wk =   0.0219479
        k(   32) = (   0.0293764   0.0587527   0.0306235), wk =   0.0438957
        k(   33) = (   0.0293764   0.0587527   0.0612470), wk =   0.0438957
        k(   34) = (   0.0293764   0.0587527   0.0918704), wk =   0.0438957
        k(   35) = (   0.0293764   0.0587527   0.1224939), wk =   0.0438957
        k(   36) = (   0.0293764   0.0881291   0.0000000), wk =   0.0219479
        k(   37) = (   0.0293764   0.0881291   0.0306235), wk =   0.0438957
        k(   38) = (   0.0293764   0.0881291   0.0612470), wk =   0.0438957
        k(   39) = (   0.0293764   0.0881291   0.0918704), wk =   0.0438957
        k(   40) = (   0.0293764   0.0881291   0.1224939), wk =   0.0438957
        k(   41) = (   0.0293764   0.1175055   0.0000000), wk =   0.0219479
        k(   42) = (   0.0293764   0.1175055   0.0306235), wk =   0.0438957
        k(   43) = (   0.0293764   0.1175055   0.0612470), wk =   0.0438957
        k(   44) = (   0.0293764   0.1175055   0.0918704), wk =   0.0438957
        k(   45) = (   0.0293764   0.1175055   0.1224939), wk =   0.0438957
        k(   46) = (   0.0587527   0.0587527   0.0000000), wk =   0.0109739
        k(   47) = (   0.0587527   0.0587527   0.0306235), wk =   0.0219479
        k(   48) = (   0.0587527   0.0587527   0.0612470), wk =   0.0219479
        k(   49) = (   0.0587527   0.0587527   0.0918704), wk =   0.0219479
        k(   50) = (   0.0587527   0.0587527   0.1224939), wk =   0.0219479
        k(   51) = (   0.0587527   0.0881291   0.0000000), wk =   0.0219479
        k(   52) = (   0.0587527   0.0881291   0.0306235), wk =   0.0438957
        k(   53) = (   0.0587527   0.0881291   0.0612470), wk =   0.0438957
        k(   54) = (   0.0587527   0.0881291   0.0918704), wk =   0.0438957
        k(   55) = (   0.0587527   0.0881291   0.1224939), wk =   0.0438957
        k(   56) = (   0.0587527   0.1175055   0.0000000), wk =   0.0219479
        k(   57) = (   0.0587527   0.1175055   0.0306235), wk =   0.0438957
        k(   58) = (   0.0587527   0.1175055   0.0612470), wk =   0.0438957
        k(   59) = (   0.0587527   0.1175055   0.0918704), wk =   0.0438957
        k(   60) = (   0.0587527   0.1175055   0.1224939), wk =   0.0438957
        k(   61) = (   0.0881291   0.0881291   0.0000000), wk =   0.0109739
        k(   62) = (   0.0881291   0.0881291   0.0306235), wk =   0.0219479
        k(   63) = (   0.0881291   0.0881291   0.0612470), wk =   0.0219479
        k(   64) = (   0.0881291   0.0881291   0.0918704), wk =   0.0219479
        k(   65) = (   0.0881291   0.0881291   0.1224939), wk =   0.0219479
        k(   66) = (   0.0881291   0.1175055   0.0000000), wk =   0.0219479
        k(   67) = (   0.0881291   0.1175055   0.0306235), wk =   0.0438957
        k(   68) = (   0.0881291   0.1175055   0.0612470), wk =   0.0438957
        k(   69) = (   0.0881291   0.1175055   0.0918704), wk =   0.0438957
        k(   70) = (   0.0881291   0.1175055   0.1224939), wk =   0.0438957
        k(   71) = (   0.1175055   0.1175055   0.0000000), wk =   0.0109739
        k(   72) = (   0.1175055   0.1175055   0.0306235), wk =   0.0219479
        k(   73) = (   0.1175055   0.1175055   0.0612470), wk =   0.0219479
        k(   74) = (   0.1175055   0.1175055   0.0918704), wk =   0.0219479
        k(   75) = (   0.1175055   0.1175055   0.1224939), wk =   0.0219479

     Largest allocated arrays     est. size (Mb)     dimensions
     Largest temporary arrays     est. size (Mb)     dimensions

     Check: negative/imaginary core charge=   -0.000006    0.000000

     Initial potential from superposition of free atoms
     Check: negative starting charge=   -0.149367

     starting charge   55.99994, renormalised to   60.00000

     negative rho (up, down):  1.600E-01 0.000E+00

     *
     * You are using vdW-DF for exchange-correlation in this calculation.
     * Please cite the following three references that made this development
     * possible:
     *
     *   M. Dion, H. Rydberg, E. Schroder, D. C. Langreth, and
     *   B. I. Lundqvist, Phys. Rev. Lett. 92, 246401 (2004).
     *
     *   T. Thonhauser, V. R. Cooper, S. Li, A. Puzder, P. Hyldgaard, and
     *   D. C. Langreth, Phys. Rev. B 76, 125112 (2007).
     *
     *   G. Roman-Perez and J. M. Soler, Phys. Rev. Lett. 103, 096102 (2009).
     *
     *
     * If you are using vdW-DF2, please also cite:
     *
     *   K. Lee, E. D. Murray, L. Kong, B. I. Lundqvist, and
     *   D. C. Langreth, Phys. Rev. B 82, 081101(R) (2010).
     *
     *
     * If you are calculating the stress with vdW-DF, please also cite:
     *
     *   R. Sabatini, E. Kucukbenli, B. Kolb, T. Thonhauser, and
     *   S. de Gironcoli, J. Phys.: Condens. Matter 24, 424209 (2012).
     *

     Carrying out vdW-DF run using the following parameters:

     Nqs =      20    Nr_points =    1024   r_max =   100.000
     q_mesh =
               0.00001000     0.04494208     0.09755937     0.15916263
               0.23128650     0.31572767     0.41458969     0.53033537
               0.66584808     0.82450364     1.01025438     1.22772762
               1.48234092     1.78043706     2.12944203     2.53805004
               3.01644009     3.57652955     4.23227104     5.00000000

     Gradients computed in reciprocal space

     Starting wfc are   46 randomized atomic wfcs +    4 random wfc

     Self-consistent Calculation

     iteration #  1     ecut=    58.80 Ry     beta=0.10
     Davidson diagonalization with overlap
     ethr =  1.00E-02,  avg # of iterations =  4.4

[...]

     total energy              =    -743.88824766 Ry
     Harris-Foulkes estimate   =    -744.76486559 Ry
     estimated scf accuracy    <       5.67617276 Ry

[...]

     total energy              =    -742.89368077 Ry
     Harris-Foulkes estimate   =    -742.89368101 Ry
     estimated scf accuracy    <       0.00000568 Ry

     iteration # 13     ecut=    58.80 Ry     beta=0.10
     Davidson diagonalization with overlap
     ethr =  9.46E-09,  avg # of iterations =  1.0

     negative rho (up, down):  1.543E-01 0.000E+00

     End of self-consistent calculation

          k = 0.0000 0.0000 0.0000 (  2657 PWs)   bands (ev):

   -52.3871 -52.2548 -51.3391 -51.2844 -22.9446 -22.9174 -22.9174 -22.6204
   -22.5227 -22.5227 -22.3323 -22.3323 -22.2037 -22.0527 -21.9719 -21.9719
    12.9956  14.7264  15.2250  15.6241  15.9199  15.9974  15.9974  18.8972
    18.8972  19.6262  20.8272  21.3755  22.4445  22.5142  22.5574  22.6240
    22.9179  22.9179  22.9620  23.0332  23.0332  23.8666  23.8666  24.8205
    32.5018  33.6035  33.8033  34.0514  34.1168  34.1168  34.7413  34.7413
    36.7646  37.5710

[...]

          k = 0.1175 0.1175 0.1225 (  2666 PWs)   bands (ev):

   -52.3152 -52.3116 -51.3184 -51.3164 -22.9931 -22.9888 -22.9487 -22.9425
   -22.4433 -22.4352 -22.2604 -22.2538 -22.0779 -22.0777 -22.0018 -21.9865
    15.2706  15.2771  15.7960  15.8878  18.3738  18.5384  18.6557  18.6657
    18.8529  18.8974  19.7523  19.8263  20.8078  20.8656  21.1009  21.1349
    22.3466  22.4457  22.5154  22.5318  22.6708  23.0624  23.1453  23.1757
    29.9046  30.0305  30.3618  30.6739  36.8916  36.9759  37.0065  37.0280
    41.0521  41.5336

     the Fermi energy is    20.5251 ev

!    total energy              =    -742.89368244 Ry
     Harris-Foulkes estimate   =    -742.89368117 Ry
     estimated scf accuracy    <       0.00000043 Ry

     The total energy is the sum of the following terms:

     one-electron contribution =    -190.32248132 Ry
     hartree contribution      =     134.54805003 Ry
     xc contribution           =    -100.42878899 Ry
     ewald contribution        =    -586.67740570 Ry
     smearing contrib. (-TS)   =      -0.01305645 Ry

     convergence has been achieved in  13 iterations

     Forces acting on atoms (Ry/au):

     negative rho (up, down):  1.543E-01 0.000E+00
     atom    1 type  1   force =     0.00000000    0.00000000    0.00000000
     atom    2 type  1   force =     0.00000000    0.00000000    0.00000000
     atom    3 type  2   force =     0.00000000    0.00000000    0.00000000
     atom    4 type  2   force =     0.00000000    0.00000000    0.00000000

     Total force =     0.000000     Total SCF correction =     0.000000

     General routines

     Parallel routines

   This run was terminated on:   8:18:31  14Nov2017

   JOB DONE.