     Program PWSCF v.5.1rc2 starts on 14Nov2017 at 14:27:19

     Current dimensions of program PWSCF are:
     Max number of different atomic species (ntypx) = 10
     Max number of k-points (npk) =  40000
     Max angular momentum in pseudopotentials (lmaxx) =  3

     IMPORTANT: XC functional enforced from input :
     Exchange-correlation      = BEEF-VDW ( 1  4 27 13 2)
     Any further DFT definition will be discarded
     Please, verify this is what you really want

     Found symmetry operation: I + ( -0.5000 -0.5000  0.0000)
     This is a supercell, fractional translations are disabled

     bravais-lattice index     =            0
     lattice parameter (alat)  =       1.8897  a.u.
     unit-cell volume          =     641.3200 (a.u.)^3
     number of atoms/cell      =            4
     number of atomic types    =            2
     number of electrons       =        52.00
     number of Kohn-Sham states=           46
     kinetic-energy cutoff     =      58.7989  Ry
     charge density cutoff     =     587.9892  Ry
     convergence threshold     =      1.0E-06
     mixing beta               =       0.1000
     number of iterations used =           10  plain     mixing
     Exchange-correlation      = BEEF-VDW ( 1  4 27 13 2)

     celldm(1)=   1.889726  celldm(2)=   0.000000  celldm(3)=   0.000000
     celldm(4)=   0.000000  celldm(5)=   0.000000  celldm(6)=   0.000000

     crystal axes: (cart. coord. in units of alat)
               a(1) = (   5.120520   0.000000   0.000000 )
               a(2) = (   0.000000   5.120520   0.000000 )
               a(3) = (   0.000000   0.000000   3.624516 )

     reciprocal axes: (cart. coord. in units 2 pi/alat)
               b(1) = (  0.195293  0.000000  0.000000 )
               b(2) = (  0.000000  0.195293  0.000000 )
               b(3) = (  0.000000  0.000000  0.275899 )

     PseudoPot. # 1 for La read from file:
     /home/users/vossj/suncat/psp/gbrv1.5pbe/La.UPF
     MD5 check sum: 5937b0c7494ba0601a847275249473aa
     Pseudo is Ultrasoft + core correction, Zval = 11.0
     Generated by new atomic code, or converted to UPF format
     Using radial grid of  995 points,  8 beta functions with:
                l(1) =   0
                l(2) =   0
                l(3) =   1
                l(4) =   1
                l(5) =   2
                l(6) =   2
                l(7) =   3
                l(8) =   3
     Q(r) pseudized with  8 coefficients,  rinner =    1.700   1.700   1.700
                                                       1.700   1.700   1.700
                                                       1.700

     PseudoPot. # 2 for Rh read from file:
     /home/users/vossj/suncat/psp/gbrv1.5pbe/Rh.UPF
     MD5 check sum: 761627e959a2e3a1f56b0b5fe687810e
     Pseudo is Ultrasoft + core correction, Zval = 15.0
     Generated by new atomic code, or converted to UPF format
     Using radial grid of  969 points,  7 beta functions with:
                l(1) =   0
                l(2) =   0
                l(3) =   1
                l(4) =   1
                l(5) =   2
                l(6) =   2
                l(7) =   2
     Q(r) pseudized with  8 coefficients,  rinner =    1.200   1.200   1.200
                                                       1.200   1.200

     vdW kernel table read from file vdW_kernel_table
     MD5 check sum: 095c7af220d748ca6e76c0b4c6cfb241

     atomic species   valence    mass     pseudopotential
        La1           11.00   138.90550     La( 1.00)
        Rh1           15.00   102.90550     Rh( 1.00)

     16 Sym. Ops., with inversion, found

   Cartesian axes

     site n.     atom                  positions (alat units)
         1           La1 tau(   1) = (   0.0000000   0.0000000   0.0000000  )
         2           La1 tau(   2) = (   2.5602602   2.5602602   0.0000000  )
         3           Rh1 tau(   3) = (   2.5602602   0.0000000   1.8122578  )
         4           Rh1 tau(   4) = (   0.0000000   2.5602602   1.8122578  )

     number of k points=    75  Fermi-Dirac smearing, width (Ry)=  0.0073
                       cart. coord. in units 2pi/alat
        k(    1) = (   0.0000000   0.0000000   0.0000000), wk =   0.0027435
        k(    2) = (   0.0000000   0.0000000   0.0306554), wk =   0.0054870
        k(    3) = (   0.0000000   0.0000000   0.0613109), wk =   0.0054870
        k(    4) = (   0.0000000   0.0000000   0.0919663), wk =   0.0054870
        k(    5) = (   0.0000000   0.0000000   0.1226218), wk =   0.0054870
        k(    6) = (   0.0000000   0.0216992   0.0000000), wk =   0.0109739
        k(    7) = (   0.0000000   0.0216992   0.0306554), wk =   0.0219479
        k(    8) = (   0.0000000   0.0216992   0.0613109), wk =   0.0219479
        k(    9) = (   0.0000000   0.0216992   0.0919663), wk =   0.0219479
        k(   10) = (   0.0000000   0.0216992   0.1226218), wk =   0.0219479
        k(   11) = (   0.0000000   0.0433984   0.0000000), wk =   0.0109739
        k(   12) = (   0.0000000   0.0433984   0.0306554), wk =   0.0219479
        k(   13) = (   0.0000000   0.0433984   0.0613109), wk =   0.0219479
        k(   14) = (   0.0000000   0.0433984   0.0919663), wk =   0.0219479
        k(   15) = (   0.0000000   0.0433984   0.1226218), wk =   0.0219479
        k(   16) = (   0.0000000   0.0650975   0.0000000), wk =   0.0109739
        k(   17) = (   0.0000000   0.0650975   0.0306554), wk =   0.0219479
        k(   18) = (   0.0000000   0.0650975   0.0613109), wk =   0.0219479
        k(   19) = (   0.0000000   0.0650975   0.0919663), wk =   0.0219479
        k(   20) = (   0.0000000   0.0650975   0.1226218), wk =   0.0219479
        k(   21) = (   0.0000000   0.0867967   0.0000000), wk =   0.0109739
        k(   22) = (   0.0000000   0.0867967   0.0306554), wk =   0.0219479
        k(   23) = (   0.0000000   0.0867967   0.0613109), wk =   0.0219479
        k(   24) = (   0.0000000   0.0867967   0.0919663), wk =   0.0219479
        k(   25) = (   0.0000000   0.0867967   0.1226218), wk =   0.0219479
        k(   26) = (   0.0216992   0.0216992   0.0000000), wk =   0.0109739
        k(   27) = (   0.0216992   0.0216992   0.0306554), wk =   0.0219479
        k(   28) = (   0.0216992   0.0216992   0.0613109), wk =   0.0219479
        k(   29) = (   0.0216992   0.0216992   0.0919663), wk =   0.0219479
        k(   30) = (   0.0216992   0.0216992   0.1226218), wk =   0.0219479
        k(   31) = (   0.0216992   0.0433984   0.0000000), wk =   0.0219479
        k(   32) = (   0.0216992   0.0433984   0.0306554), wk =   0.0438957
        k(   33) = (   0.0216992   0.0433984   0.0613109), wk =   0.0438957
        k(   34) = (   0.0216992   0.0433984   0.0919663), wk =   0.0438957
        k(   35) = (   0.0216992   0.0433984   0.1226218), wk =   0.0438957
        k(   36) = (   0.0216992   0.0650975   0.0000000), wk =   0.0219479
        k(   37) = (   0.0216992   0.0650975   0.0306554), wk =   0.0438957
        k(   38) = (   0.0216992   0.0650975   0.0613109), wk =   0.0438957
        k(   39) = (   0.0216992   0.0650975   0.0919663), wk =   0.0438957
        k(   40) = (   0.0216992   0.0650975   0.1226218), wk =   0.0438957
        k(   41) = (   0.0216992   0.0867967   0.0000000), wk =   0.0219479
        k(   42) = (   0.0216992   0.0867967   0.0306554), wk =   0.0438957
        k(   43) = (   0.0216992   0.0867967   0.0613109), wk =   0.0438957
        k(   44) = (   0.0216992   0.0867967   0.0919663), wk =   0.0438957
        k(   45) = (   0.0216992   0.0867967   0.1226218), wk =   0.0438957
        k(   46) = (   0.0433984   0.0433984   0.0000000), wk =   0.0109739
        k(   47) = (   0.0433984   0.0433984   0.0306554), wk =   0.0219479
        k(   48) = (   0.0433984   0.0433984   0.0613109), wk =   0.0219479
        k(   49) = (   0.0433984   0.0433984   0.0919663), wk =   0.0219479
        k(   50) = (   0.0433984   0.0433984   0.1226218), wk =   0.0219479
        k(   51) = (   0.0433984   0.0650975   0.0000000), wk =   0.0219479
        k(   52) = (   0.0433984   0.0650975   0.0306554), wk =   0.0438957
        k(   53) = (   0.0433984   0.0650975   0.0613109), wk =   0.0438957
        k(   54) = (   0.0433984   0.0650975   0.0919663), wk =   0.0438957
        k(   55) = (   0.0433984   0.0650975   0.1226218), wk =   0.0438957
        k(   56) = (   0.0433984   0.0867967   0.0000000), wk =   0.0219479
        k(   57) = (   0.0433984   0.0867967   0.0306554), wk =   0.0438957
        k(   58) = (   0.0433984   0.0867967   0.0613109), wk =   0.0438957
        k(   59) = (   0.0433984   0.0867967   0.0919663), wk =   0.0438957
        k(   60) = (   0.0433984   0.0867967   0.1226218), wk =   0.0438957
        k(   61) = (   0.0650975   0.0650975   0.0000000), wk =   0.0109739
        k(   62) = (   0.0650975   0.0650975   0.0306554), wk =   0.0219479
        k(   63) = (   0.0650975   0.0650975   0.0613109), wk =   0.0219479
        k(   64) = (   0.0650975   0.0650975   0.0919663), wk =   0.0219479
        k(   65) = (   0.0650975   0.0650975   0.1226218), wk =   0.0219479
        k(   66) = (   0.0650975   0.0867967   0.0000000), wk =   0.0219479
        k(   67) = (   0.0650975   0.0867967   0.0306554), wk =   0.0438957
        k(   68) = (   0.0650975   0.0867967   0.0613109), wk =   0.0438957
        k(   69) = (   0.0650975   0.0867967   0.0919663), wk =   0.0438957
        k(   70) = (   0.0650975   0.0867967   0.1226218), wk =   0.0438957
        k(   71) = (   0.0867967   0.0867967   0.0000000), wk =   0.0109739
        k(   72) = (   0.0867967   0.0867967   0.0306554), wk =   0.0219479
        k(   73) = (   0.0867967   0.0867967   0.0613109), wk =   0.0219479
        k(   74) = (   0.0867967   0.0867967   0.0919663), wk =   0.0219479
        k(   75) = (   0.0867967   0.0867967   0.1226218), wk =   0.0219479

     Largest allocated arrays     est. size (Mb)     dimensions
     Largest temporary arrays     est. size (Mb)     dimensions

     Initial potential from superposition of free atoms
     Check: negative starting charge=   -0.247952

     starting charge   50.93567, renormalised to   52.00000

     negative rho (up, down):  2.531E-01 0.000E+00

     *
     * You are using vdW-DF for exchange-correlation in this calculation.
     * Please cite the following three references that made this development
     * possible:
     *
     *   M. Dion, H. Rydberg, E. Schroder, D. C. Langreth, and
     *   B. I. Lundqvist, Phys. Rev. Lett. 92, 246401 (2004).
     *
     *   T. Thonhauser, V. R. Cooper, S. Li, A. Puzder, P. Hyldgaard, and
     *   D. C. Langreth, Phys. Rev. B 76, 125112 (2007).
     *
     *   G. Roman-Perez and J. M. Soler, Phys. Rev. Lett. 103, 096102 (2009).
     *
     *
     * If you are using vdW-DF2, please also cite:
     *
     *   K. Lee, E. D. Murray, L. Kong, B. I. Lundqvist, and
     *   D. C. Langreth, Phys. Rev. B 82, 081101(R) (2010).
     *
     *
     * If you are calculating the stress with vdW-DF, please also cite:
     *
     *   R. Sabatini, E. Kucukbenli, B. Kolb, T. Thonhauser, and
     *   S. de Gironcoli, J. Phys.: Condens. Matter 24, 424209 (2012).
     *

     Carrying out vdW-DF run using the following parameters:

     Nqs =      20    Nr_points =    1024   r_max =   100.000
     q_mesh =
               0.00001000     0.04494208     0.09755937     0.15916263
               0.23128650     0.31572767     0.41458969     0.53033537
               0.66584808     0.82450364     1.01025438     1.22772762
               1.48234092     1.78043706     2.12944203     2.53805004
               3.01644009     3.57652955     4.23227104     5.00000000

     Gradients computed in reciprocal space

     Starting wfc are   64 randomized atomic wfcs

     Self-consistent Calculation

     iteration #  1     ecut=    58.80 Ry     beta=0.10
     Davidson diagonalization with overlap
     ethr =  1.00E-02,  avg # of iterations =  2.0

[...]

     total energy              =    -552.75418514 Ry
     Harris-Foulkes estimate   =    -552.85272732 Ry
     estimated scf accuracy    <       0.60914075 Ry

[...]

     total energy              =    -552.75511962 Ry
     Harris-Foulkes estimate   =    -552.75508198 Ry
     estimated scf accuracy    <       0.00000148 Ry

     iteration # 11     ecut=    58.80 Ry     beta=0.10
     Davidson diagonalization with overlap
     ethr =  2.84E-09,  avg # of iterations =  2.6

     negative rho (up, down):  2.032E-01 0.000E+00

     End of self-consistent calculation

          k = 0.0000 0.0000 0.0000 (  4933 PWs)   bands (ev):

   -31.1410 -31.1410 -31.1284 -31.1284 -31.1279 -31.1255 -18.1457 -17.9537
    -2.1608  -2.1608  -1.3041  -1.3001  -1.3001  -1.1086  10.2444  10.8777
    11.2175  11.2183  11.6949  12.2941  12.2941  13.1049  13.1049  13.1084
    13.9448  14.5702  16.3175  16.3175  16.4294  16.4381  16.8859  16.8878
    16.8878  16.9147  16.9368  16.9368  16.9456  16.9480  16.9480  17.1737
    17.1975  17.3156  17.3600  18.4355  18.4355  19.7677

[...]

          k = 0.0868 0.0868 0.1226 (  4892 PWs)   bands (ev):

   -31.1410 -31.1406 -31.1399 -31.1398 -31.1265 -31.1262 -17.9601 -17.9546
    -2.1664  -2.1458  -2.1360  -2.1293  -1.1424  -1.1136  10.9585  10.9612
    11.7384  11.7694  12.3217  12.3251  12.3274  12.3656  13.8452  13.8917
    14.4737  14.5239  16.1941  16.2260  16.3260  16.3752  16.9047  16.9051
    16.9062  16.9165  16.9293  16.9424  17.1029  17.1730  17.3069  17.3088
    17.3625  17.4836  18.1039  18.1504  18.3165  18.3262

     the Fermi energy is    14.5437 ev

!    total energy              =    -552.75528225 Ry
     Harris-Foulkes estimate   =    -552.75511982 Ry
     estimated scf accuracy    <       0.00000034 Ry

     The total energy is the sum of the following terms:

     one-electron contribution =    -117.83076112 Ry
     hartree contribution      =      93.23080030 Ry
     xc contribution           =    -163.96709586 Ry
     ewald contribution        =    -364.18292000 Ry
     smearing contrib. (-TS)   =      -0.00530556 Ry

     convergence has been achieved in  11 iterations

     Forces acting on atoms (Ry/au):

     negative rho (up, down):  2.032E-01 0.000E+00
     atom    1 type  1   force =     0.00000000    0.00000000    0.00000000
     atom    2 type  1   force =     0.00000000    0.00000000    0.00000000
     atom    3 type  2   force =     0.00000000    0.00000000    0.00000000
     atom    4 type  2   force =     0.00000000    0.00000000    0.00000000

     Total force =     0.000000     Total SCF correction =     0.000000

     General routines

     Parallel routines

   This run was terminated on:  14:28:16  14Nov2017

   JOB DONE.