     Program PWSCF v.5.1rc2 starts on 14Nov2017 at 14:46:16

     Current dimensions of program PWSCF are:
     Max number of different atomic species (ntypx) = 10
     Max number of k-points (npk) =  40000
     Max angular momentum in pseudopotentials (lmaxx) =  3

     IMPORTANT: XC functional enforced from input :
     Exchange-correlation      = BEEF-VDW ( 1  4 27 13 2)
     Any further DFT definition will be discarded
     Please, verify this is what you really want

     Found symmetry operation: I + (  0.5000  0.5000  0.0000)
     This is a supercell, fractional translations are disabled

     bravais-lattice index     =            0
     lattice parameter (alat)  =       1.8897  a.u.
     unit-cell volume          =     681.8071 (a.u.)^3
     number of atoms/cell      =            4
     number of atomic types    =            2
     number of electrons       =        48.00
     number of Kohn-Sham states=           44
     kinetic-energy cutoff     =      58.7989  Ry
     charge density cutoff     =     587.9892  Ry
     convergence threshold     =      1.0E-06
     mixing beta               =       0.1000
     number of iterations used =           10  plain     mixing
     Exchange-correlation      = BEEF-VDW ( 1  4 27 13 2)

     celldm(1)=   1.889726  celldm(2)=   0.000000  celldm(3)=   0.000000
     celldm(4)=   0.000000  celldm(5)=   0.000000  celldm(6)=   0.000000

     crystal axes: (cart. coord. in units of alat)
               a(1) = (   4.403563   0.000000   0.000000 )
               a(2) = (   0.000000   4.403563   0.000000 )
               a(3) = (   0.000000   0.000000   5.210224 )

     reciprocal axes: (cart. coord. in units 2 pi/alat)
               b(1) = (  0.227089  0.000000  0.000000 )
               b(2) = (  0.000000  0.227089  0.000000 )
               b(3) = (  0.000000  0.000000  0.191930 )

     PseudoPot. # 1 for La read from file:
     /home/users/vossj/suncat/psp/gbrv1.5pbe/La.UPF
     MD5 check sum: 5937b0c7494ba0601a847275249473aa
     Pseudo is Ultrasoft + core correction, Zval = 11.0
     Generated by new atomic code, or converted to UPF format
     Using radial grid of  995 points,  8 beta functions with:
                l(1) =   0
                l(2) =   0
                l(3) =   1
                l(4) =   1
                l(5) =   2
                l(6) =   2
                l(7) =   3
                l(8) =   3
     Q(r) pseudized with  8 coefficients,  rinner =    1.700   1.700   1.700
                                                       1.700   1.700   1.700
                                                       1.700

     PseudoPot. # 2 for Nb read from file:
     /home/users/vossj/suncat/psp/gbrv1.5pbe/Nb.UPF
     MD5 check sum: 573aab8a2fa660278ed4a62cd769473f
     Pseudo is Ultrasoft + core correction, Zval = 13.0
     Generated by new atomic code, or converted to UPF format
     Using radial grid of  887 points,  6 beta functions with:
                l(1) =   0
                l(2) =   0
                l(3) =   1
                l(4) =   1
                l(5) =   2
                l(6) =   2
     Q(r) pseudized with  6 coefficients,  rinner =    1.000   1.000   1.000
                                                       1.000   1.000

     vdW kernel table read from file vdW_kernel_table
     MD5 check sum: 095c7af220d748ca6e76c0b4c6cfb241

     atomic species   valence    mass     pseudopotential
        La1           11.00   138.90550     La( 1.00)
        Nb1           13.00    92.90640     Nb( 1.00)

     16 Sym. Ops., with inversion, found

   Cartesian axes

     site n.     atom                  positions (alat units)
         1           La1 tau(   1) = (   0.0000000   0.0000000   0.0000000  )
         2           La1 tau(   2) = (   2.2017817   2.2017817   0.0000000  )
         3           Nb1 tau(   3) = (   2.2017817   0.0000000   2.6051122  )
         4           Nb1 tau(   4) = (   0.0000000   2.2017817   2.6051122  )

     number of k points=    75  Fermi-Dirac smearing, width (Ry)=  0.0073
                       cart. coord. in units 2pi/alat
        k(    1) = (   0.0000000   0.0000000   0.0000000), wk =   0.0027435
        k(    2) = (   0.0000000   0.0000000   0.0213256), wk =   0.0054870
        k(    3) = (   0.0000000   0.0000000   0.0426512), wk =   0.0054870
        k(    4) = (   0.0000000   0.0000000   0.0639768), wk =   0.0054870
        k(    5) = (   0.0000000   0.0000000   0.0853024), wk =   0.0054870
        k(    6) = (   0.0000000   0.0252321   0.0000000), wk =   0.0109739
        k(    7) = (   0.0000000   0.0252321   0.0213256), wk =   0.0219479
        k(    8) = (   0.0000000   0.0252321   0.0426512), wk =   0.0219479
        k(    9) = (   0.0000000   0.0252321   0.0639768), wk =   0.0219479
        k(   10) = (   0.0000000   0.0252321   0.0853024), wk =   0.0219479
        k(   11) = (   0.0000000   0.0504642   0.0000000), wk =   0.0109739
        k(   12) = (   0.0000000   0.0504642   0.0213256), wk =   0.0219479
        k(   13) = (   0.0000000   0.0504642   0.0426512), wk =   0.0219479
        k(   14) = (   0.0000000   0.0504642   0.0639768), wk =   0.0219479
        k(   15) = (   0.0000000   0.0504642   0.0853024), wk =   0.0219479
        k(   16) = (   0.0000000   0.0756963   0.0000000), wk =   0.0109739
        k(   17) = (   0.0000000   0.0756963   0.0213256), wk =   0.0219479
        k(   18) = (   0.0000000   0.0756963   0.0426512), wk =   0.0219479
        k(   19) = (   0.0000000   0.0756963   0.0639768), wk =   0.0219479
        k(   20) = (   0.0000000   0.0756963   0.0853024), wk =   0.0219479
        k(   21) = (   0.0000000   0.1009284   0.0000000), wk =   0.0109739
        k(   22) = (   0.0000000   0.1009284   0.0213256), wk =   0.0219479
        k(   23) = (   0.0000000   0.1009284   0.0426512), wk =   0.0219479
        k(   24) = (   0.0000000   0.1009284   0.0639768), wk =   0.0219479
        k(   25) = (   0.0000000   0.1009284   0.0853024), wk =   0.0219479
        k(   26) = (   0.0252321   0.0252321   0.0000000), wk =   0.0109739
        k(   27) = (   0.0252321   0.0252321   0.0213256), wk =   0.0219479
        k(   28) = (   0.0252321   0.0252321   0.0426512), wk =   0.0219479
        k(   29) = (   0.0252321   0.0252321   0.0639768), wk =   0.0219479
        k(   30) = (   0.0252321   0.0252321   0.0853024), wk =   0.0219479
        k(   31) = (   0.0252321   0.0504642   0.0000000), wk =   0.0219479
        k(   32) = (   0.0252321   0.0504642   0.0213256), wk =   0.0438957
        k(   33) = (   0.0252321   0.0504642   0.0426512), wk =   0.0438957
        k(   34) = (   0.0252321   0.0504642   0.0639768), wk =   0.0438957
        k(   35) = (   0.0252321   0.0504642   0.0853024), wk =   0.0438957
        k(   36) = (   0.0252321   0.0756963   0.0000000), wk =   0.0219479
        k(   37) = (   0.0252321   0.0756963   0.0213256), wk =   0.0438957
        k(   38) = (   0.0252321   0.0756963   0.0426512), wk =   0.0438957
        k(   39) = (   0.0252321   0.0756963   0.0639768), wk =   0.0438957
        k(   40) = (   0.0252321   0.0756963   0.0853024), wk =   0.0438957
        k(   41) = (   0.0252321   0.1009284   0.0000000), wk =   0.0219479
        k(   42) = (   0.0252321   0.1009284   0.0213256), wk =   0.0438957
        k(   43) = (   0.0252321   0.1009284   0.0426512), wk =   0.0438957
        k(   44) = (   0.0252321   0.1009284   0.0639768), wk =   0.0438957
        k(   45) = (   0.0252321   0.1009284   0.0853024), wk =   0.0438957
        k(   46) = (   0.0504642   0.0504642   0.0000000), wk =   0.0109739
        k(   47) = (   0.0504642   0.0504642   0.0213256), wk =   0.0219479
        k(   48) = (   0.0504642   0.0504642   0.0426512), wk =   0.0219479
        k(   49) = (   0.0504642   0.0504642   0.0639768), wk =   0.0219479
        k(   50) = (   0.0504642   0.0504642   0.0853024), wk =   0.0219479
        k(   51) = (   0.0504642   0.0756963   0.0000000), wk =   0.0219479
        k(   52) = (   0.0504642   0.0756963   0.0213256), wk =   0.0438957
        k(   53) = (   0.0504642   0.0756963   0.0426512), wk =   0.0438957
        k(   54) = (   0.0504642   0.0756963   0.0639768), wk =   0.0438957
        k(   55) = (   0.0504642   0.0756963   0.0853024), wk =   0.0438957
        k(   56) = (   0.0504642   0.1009284   0.0000000), wk =   0.0219479
        k(   57) = (   0.0504642   0.1009284   0.0213256), wk =   0.0438957
        k(   58) = (   0.0504642   0.1009284   0.0426512), wk =   0.0438957
        k(   59) = (   0.0504642   0.1009284   0.0639768), wk =   0.0438957
        k(   60) = (   0.0504642   0.1009284   0.0853024), wk =   0.0438957
        k(   61) = (   0.0756963   0.0756963   0.0000000), wk =   0.0109739
        k(   62) = (   0.0756963   0.0756963   0.0213256), wk =   0.0219479
        k(   63) = (   0.0756963   0.0756963   0.0426512), wk =   0.0219479
        k(   64) = (   0.0756963   0.0756963   0.0639768), wk =   0.0219479
        k(   65) = (   0.0756963   0.0756963   0.0853024), wk =   0.0219479
        k(   66) = (   0.0756963   0.1009284   0.0000000), wk =   0.0219479
        k(   67) = (   0.0756963   0.1009284   0.0213256), wk =   0.0438957
        k(   68) = (   0.0756963   0.1009284   0.0426512), wk =   0.0438957
        k(   69) = (   0.0756963   0.1009284   0.0639768), wk =   0.0438957
        k(   70) = (   0.0756963   0.1009284   0.0853024), wk =   0.0438957
        k(   71) = (   0.1009284   0.1009284   0.0000000), wk =   0.0109739
        k(   72) = (   0.1009284   0.1009284   0.0213256), wk =   0.0219479
        k(   73) = (   0.1009284   0.1009284   0.0426512), wk =   0.0219479
        k(   74) = (   0.1009284   0.1009284   0.0639768), wk =   0.0219479
        k(   75) = (   0.1009284   0.1009284   0.0853024), wk =   0.0219479

     Largest allocated arrays     est. size (Mb)     dimensions
     Largest temporary arrays     est. size (Mb)     dimensions

     Initial potential from superposition of free atoms
     Check: negative starting charge=   -0.135491

     starting charge   47.93040, renormalised to   48.00000

     negative rho (up, down):  1.357E-01 0.000E+00

     *
     * You are using vdW-DF for exchange-correlation in this calculation.
     * Please cite the following three references that made this development
     * possible:
     *
     *   M. Dion, H. Rydberg, E. Schroder, D. C. Langreth, and
     *   B. I. Lundqvist, Phys. Rev. Lett. 92, 246401 (2004).
     *
     *   T. Thonhauser, V. R. Cooper, S. Li, A. Puzder, P. Hyldgaard, and
     *   D. C. Langreth, Phys. Rev. B 76, 125112 (2007).
     *
     *   G. Roman-Perez and J. M. Soler, Phys. Rev. Lett. 103, 096102 (2009).
     *
     *
     * If you are using vdW-DF2, please also cite:
     *
     *   K. Lee, E. D. Murray, L. Kong, B. I. Lundqvist, and
     *   D. C. Langreth, Phys. Rev. B 82, 081101(R) (2010).
     *
     *
     * If you are calculating the stress with vdW-DF, please also cite:
     *
     *   R. Sabatini, E. Kucukbenli, B. Kolb, T. Thonhauser, and
     *   S. de Gironcoli, J. Phys.: Condens. Matter 24, 424209 (2012).
     *

     Carrying out vdW-DF run using the following parameters:

     Nqs =      20    Nr_points =    1024   r_max =   100.000
     q_mesh =
               0.00001000     0.04494208     0.09755937     0.15916263
               0.23128650     0.31572767     0.41458969     0.53033537
               0.66584808     0.82450364     1.01025438     1.22772762
               1.48234092     1.78043706     2.12944203     2.53805004
               3.01644009     3.57652955     4.23227104     5.00000000

     Gradients computed in reciprocal space

     Starting wfc are   66 randomized atomic wfcs

     Self-consistent Calculation

     iteration #  1     ecut=    58.80 Ry     beta=0.10
     Davidson diagonalization with overlap
     ethr =  1.00E-02,  avg # of iterations =  2.0

[...]

     total energy              =    -444.57070578 Ry
     Harris-Foulkes estimate   =    -445.55020441 Ry
     estimated scf accuracy    <       5.48836656 Ry

[...]

     total energy              =    -445.06344790 Ry
     Harris-Foulkes estimate   =    -445.06343524 Ry
     estimated scf accuracy    <       0.00000129 Ry

     iteration # 15     ecut=    58.80 Ry     beta=0.10
     Davidson diagonalization with overlap
     ethr =  2.69E-09,  avg # of iterations =  1.0

     negative rho (up, down):  7.481E-02 0.000E+00

     End of self-consistent calculation

          k = 0.0000 0.0000 0.0000 (  5197 PWs)   bands (ev):

   -40.5433 -40.4702 -18.2696 -17.3910 -16.6862 -16.6862 -16.5589 -16.4633
   -16.3293 -16.3293  -2.8155  -2.8155  -1.7839  -0.9164  -0.3734  -0.3734
    10.0822  11.0739  11.9623  12.2107  12.3495  12.3495  12.4820  14.5304
    15.7918  15.7918  16.4192  16.5636  16.7074  16.7117  16.8089  16.8089
    17.2554  17.2554  17.4598  17.4598  17.6068  17.7269  17.7269  17.7313
    17.7431  17.9070  17.9076  18.3513

[...]

          k = 0.1009 0.1009 0.0853 (  5217 PWs)   bands (ev):

   -40.5074 -40.5052 -17.8398 -17.8116 -16.7355 -16.7251 -16.5105 -16.5096
   -16.3060 -16.2949  -3.2899  -3.2300  -1.3779  -1.3485  -0.1438  -0.0503
    11.3985  11.4071  12.5955  12.6182  13.9092  13.9968  15.2977  15.3007
    15.5481  15.6757  15.6905  15.8680  16.0542  16.1856  16.2016  16.2067
    16.9250  16.9604  17.0051  17.0184  17.4367  17.4512  17.7168  17.7348
    18.0005  18.0086  18.0379  18.1058

     the Fermi energy is    14.5796 ev

!    total energy              =    -445.06350164 Ry
     Harris-Foulkes estimate   =    -445.06344791 Ry
     estimated scf accuracy    <       0.00000089 Ry

     The total energy is the sum of the following terms:

     one-electron contribution =     -55.99395040 Ry
     hartree contribution      =      51.49896184 Ry
     xc contribution           =    -139.95895896 Ry
     ewald contribution        =    -300.59691100 Ry
     smearing contrib. (-TS)   =      -0.01264312 Ry

     convergence has been achieved in  15 iterations

     Forces acting on atoms (Ry/au):

     negative rho (up, down):  7.481E-02 0.000E+00
     atom    1 type  1   force =     0.00000000    0.00000000    0.00000000
     atom    2 type  1   force =     0.00000000    0.00000000    0.00000000
     atom    3 type  2   force =     0.00000000    0.00000000    0.00000000
     atom    4 type  2   force =     0.00000000    0.00000000    0.00000000

     Total force =     0.000000     Total SCF correction =     0.000000

     General routines

     Parallel routines

   This run was terminated on:  14:47:24  14Nov2017

   JOB DONE.