     Program PWSCF v.5.1rc2 (svn rev. ) starts on 14Nov2017 at 23:58:43

     Current dimensions of program PWSCF are:
     Max number of different atomic species (ntypx) = 10
     Max number of k-points (npk) =  40000
     Max angular momentum in pseudopotentials (lmaxx) =  3

     IMPORTANT: XC functional enforced from input :
     Exchange-correlation      = BEEF-VDW ( 1  4 27 13 2)
     Any further DFT definition will be discarded
     Please, verify this is what you really want

     Subspace diagonalization in iterative solution of the eigenvalue problem:
     a serial algorithm will be used

     Found symmetry operation: I + (  0.5000  0.5000  0.0000)
     This is a supercell, fractional translations are disabled

     bravais-lattice index     =            0
     lattice parameter (alat)  =       1.8897  a.u.
     unit-cell volume          =     361.8584 (a.u.)^3
     number of atoms/cell      =            4
     number of atomic types    =            2
     number of electrons       =        68.00
     number of Kohn-Sham states=           54
     kinetic-energy cutoff     =      58.7989  Ry
     charge density cutoff     =     587.9892  Ry
     convergence threshold     =      1.0E-06
     mixing beta               =       0.1000
     number of iterations used =           10  plain     mixing
     Exchange-correlation      = BEEF-VDW ( 1  4 27 13 2)

     celldm(1)=   1.889726  celldm(2)=   0.000000  celldm(3)=   0.000000
     celldm(4)=   0.000000  celldm(5)=   0.000000  celldm(6)=   0.000000

     crystal axes: (cart. coord. in units of alat)
               a(1) = (   3.593063   0.000000   0.000000 )
               a(2) = (   0.000000   3.593063   0.000000 )
               a(3) = (   0.000000   0.000000   4.153483 )

     reciprocal axes: (cart. coord. in units 2 pi/alat)
               b(1) = (  0.278314  0.000000  0.000000 )
               b(2) = (  0.000000  0.278314  0.000000 )
               b(3) = (  0.000000  0.000000  0.240762 )

     PseudoPot. # 1 for Cu read from file:
     /home/vossj/suncat/psp/gbrv1.5pbe/Cu.UPF
     MD5 check sum: 6e991ff952a84172a2a52a1c1e996048
     Pseudo is Ultrasoft + core correction, Zval = 19.0
     Generated by new atomic code, or converted to UPF format
     Using radial grid of  867 points,  6 beta functions with:
                l(1) =   0
                l(2) =   0
                l(3) =   1
                l(4) =   1
                l(5) =   2
                l(6) =   2
     Q(r) pseudized with  8 coefficients,  rinner =    1.150   1.150   1.150
                                                       1.150   1.150

     PseudoPot. # 2 for Tc read from file:
     /home/vossj/suncat/psp/gbrv1.5pbe/Tc.UPF
     MD5 check sum: 9eb49e5b028550b2339a02317eb7b844
     Pseudo is Ultrasoft + core correction, Zval = 15.0
     Generated by new atomic code, or converted to UPF format
     Using radial grid of  965 points,  6 beta functions with:
                l(1) =   0
                l(2) =   0
                l(3) =   1
                l(4) =   1
                l(5) =   2
                l(6) =   2
     Q(r) pseudized with  8 coefficients,  rinner =    1.300   1.300   1.300
                                                       1.300   1.300

     vdW kernel table read from file vdW_kernel_table
     MD5 check sum: 095c7af220d748ca6e76c0b4c6cfb241

     atomic species   valence    mass     pseudopotential
        Cu1           19.00    63.54600     Cu( 1.00)
        Tc1           15.00    97.90721     Tc( 1.00)

     16 Sym. Ops., with inversion, found

   Cartesian axes

     site n.     atom                  positions (alat units)
         1           Cu1 tau(   1) = (   0.0000000   0.0000000   0.0000000  )
         2           Cu1 tau(   2) = (   1.7965315   1.7965315   0.0000000  )
         3           Tc1 tau(   3) = (   1.7965315   0.0000000   2.0767414  )
         4           Tc1 tau(   4) = (   0.0000000   1.7965315   2.0767414  )

     number of k points=    75  Fermi-Dirac smearing, width (Ry)=  0.0073
                       cart. coord. in units 2pi/alat
        k(    1) = (   0.0000000   0.0000000   0.0000000), wk =   0.0027435
        k(    2) = (   0.0000000   0.0000000   0.0267513), wk =   0.0054870
        k(    3) = (   0.0000000   0.0000000   0.0535026), wk =   0.0054870
        k(    4) = (   0.0000000   0.0000000   0.0802539), wk =   0.0054870
        k(    5) = (   0.0000000   0.0000000   0.1070052), wk =   0.0054870
        k(    6) = (   0.0000000   0.0309238   0.0000000), wk =   0.0109739
        k(    7) = (   0.0000000   0.0309238   0.0267513), wk =   0.0219479
        k(    8) = (   0.0000000   0.0309238   0.0535026), wk =   0.0219479
        k(    9) = (   0.0000000   0.0309238   0.0802539), wk =   0.0219479
        k(   10) = (   0.0000000   0.0309238   0.1070052), wk =   0.0219479
        k(   11) = (   0.0000000   0.0618476   0.0000000), wk =   0.0109739
        k(   12) = (   0.0000000   0.0618476   0.0267513), wk =   0.0219479
        k(   13) = (   0.0000000   0.0618476   0.0535026), wk =   0.0219479
        k(   14) = (   0.0000000   0.0618476   0.0802539), wk =   0.0219479
        k(   15) = (   0.0000000   0.0618476   0.1070052), wk =   0.0219479
        k(   16) = (   0.0000000   0.0927714   0.0000000), wk =   0.0109739
        k(   17) = (   0.0000000   0.0927714   0.0267513), wk =   0.0219479
        k(   18) = (   0.0000000   0.0927714   0.0535026), wk =   0.0219479
        k(   19) = (   0.0000000   0.0927714   0.0802539), wk =   0.0219479
        k(   20) = (   0.0000000   0.0927714   0.1070052), wk =   0.0219479
        k(   21) = (   0.0000000   0.1236951   0.0000000), wk =   0.0109739
        k(   22) = (   0.0000000   0.1236951   0.0267513), wk =   0.0219479
        k(   23) = (   0.0000000   0.1236951   0.0535026), wk =   0.0219479
        k(   24) = (   0.0000000   0.1236951   0.0802539), wk =   0.0219479
        k(   25) = (   0.0000000   0.1236951   0.1070052), wk =   0.0219479
        k(   26) = (   0.0309238   0.0309238   0.0000000), wk =   0.0109739
        k(   27) = (   0.0309238   0.0309238   0.0267513), wk =   0.0219479
        k(   28) = (   0.0309238   0.0309238   0.0535026), wk =   0.0219479
        k(   29) = (   0.0309238   0.0309238   0.0802539), wk =   0.0219479
        k(   30) = (   0.0309238   0.0309238   0.1070052), wk =   0.0219479
        k(   31) = (   0.0309238   0.0618476   0.0000000), wk =   0.0219479
        k(   32) = (   0.0309238   0.0618476   0.0267513), wk =   0.0438957
        k(   33) = (   0.0309238   0.0618476   0.0535026), wk =   0.0438957
        k(   34) = (   0.0309238   0.0618476   0.0802539), wk =   0.0438957
        k(   35) = (   0.0309238   0.0618476   0.1070052), wk =   0.0438957
        k(   36) = (   0.0309238   0.0927714   0.0000000), wk =   0.0219479
        k(   37) = (   0.0309238   0.0927714   0.0267513), wk =   0.0438957
        k(   38) = (   0.0309238   0.0927714   0.0535026), wk =   0.0438957
        k(   39) = (   0.0309238   0.0927714   0.0802539), wk =   0.0438957
        k(   40) = (   0.0309238   0.0927714   0.1070052), wk =   0.0438957
        k(   41) = (   0.0309238   0.1236951   0.0000000), wk =   0.0219479
        k(   42) = (   0.0309238   0.1236951   0.0267513), wk =   0.0438957
        k(   43) = (   0.0309238   0.1236951   0.0535026), wk =   0.0438957
        k(   44) = (   0.0309238   0.1236951   0.0802539), wk =   0.0438957
        k(   45) = (   0.0309238   0.1236951   0.1070052), wk =   0.0438957
        k(   46) = (   0.0618476   0.0618476   0.0000000), wk =   0.0109739
        k(   47) = (   0.0618476   0.0618476   0.0267513), wk =   0.0219479
        k(   48) = (   0.0618476   0.0618476   0.0535026), wk =   0.0219479
        k(   49) = (   0.0618476   0.0618476   0.0802539), wk =   0.0219479
        k(   50) = (   0.0618476   0.0618476   0.1070052), wk =   0.0219479
        k(   51) = (   0.0618476   0.0927714   0.0000000), wk =   0.0219479
        k(   52) = (   0.0618476   0.0927714   0.0267513), wk =   0.0438957
        k(   53) = (   0.0618476   0.0927714   0.0535026), wk =   0.0438957
        k(   54) = (   0.0618476   0.0927714   0.0802539), wk =   0.0438957
        k(   55) = (   0.0618476   0.0927714   0.1070052), wk =   0.0438957
        k(   56) = (   0.0618476   0.1236951   0.0000000), wk =   0.0219479
        k(   57) = (   0.0618476   0.1236951   0.0267513), wk =   0.0438957
        k(   58) = (   0.0618476   0.1236951   0.0535026), wk =   0.0438957
        k(   59) = (   0.0618476   0.1236951   0.0802539), wk =   0.0438957
        k(   60) = (   0.0618476   0.1236951   0.1070052), wk =   0.0438957
        k(   61) = (   0.0927714   0.0927714   0.0000000), wk =   0.0109739
        k(   62) = (   0.0927714   0.0927714   0.0267513), wk =   0.0219479
        k(   63) = (   0.0927714   0.0927714   0.0535026), wk =   0.0219479
        k(   64) = (   0.0927714   0.0927714   0.0802539), wk =   0.0219479
        k(   65) = (   0.0927714   0.0927714   0.1070052), wk =   0.0219479
        k(   66) = (   0.0927714   0.1236951   0.0000000), wk =   0.0219479
        k(   67) = (   0.0927714   0.1236951   0.0267513), wk =   0.0438957
        k(   68) = (   0.0927714   0.1236951   0.0535026), wk =   0.0438957
        k(   69) = (   0.0927714   0.1236951   0.0802539), wk =   0.0438957
        k(   70) = (   0.0927714   0.1236951   0.1070052), wk =   0.0438957
        k(   71) = (   0.1236951   0.1236951   0.0000000), wk =   0.0109739
        k(   72) = (   0.1236951   0.1236951   0.0267513), wk =   0.0219479
        k(   73) = (   0.1236951   0.1236951   0.0535026), wk =   0.0219479
        k(   74) = (   0.1236951   0.1236951   0.0802539), wk =   0.0219479
        k(   75) = (   0.1236951   0.1236951   0.1070052), wk =   0.0219479

     Largest allocated arrays     est. size (Mb)     dimensions
     Largest temporary arrays     est. size (Mb)     dimensions

     Check: negative/imaginary core charge=   -0.000008    0.000000

     Initial potential from superposition of free atoms
     Check: negative starting charge=   -0.248353

     starting charge   63.99994, renormalised to   68.00000

     negative rho (up, down):  2.639E-01 0.000E+00

     *
     * You are using vdW-DF for exchange-correlation in this calculation.
     * Please cite the following three references that made this development
     * possible:
     *
     *   M. Dion, H. Rydberg, E. Schroder, D. C. Langreth, and
     *   B. I. Lundqvist, Phys. Rev. Lett. 92, 246401 (2004).
     *
     *   T. Thonhauser, V. R. Cooper, S. Li, A. Puzder, P. Hyldgaard, and
     *   D. C. Langreth, Phys. Rev. B 76, 125112 (2007).
     *
     *   G. Roman-Perez and J. M. Soler, Phys. Rev. Lett. 103, 096102 (2009).
     *
     *
     * If you are using vdW-DF2, please also cite:
     *
     *   K. Lee, E. D. Murray, L. Kong, B. I. Lundqvist, and
     *   D. C. Langreth, Phys. Rev. B 82, 081101(R) (2010).
     *
     *
     * If you are calculating the stress with vdW-DF, please also cite:
     *
     *   R. Sabatini, E. Kucukbenli, B. Kolb, T. Thonhauser, and
     *   S. de Gironcoli, J. Phys.: Condens. Matter 24, 424209 (2012).
     *

     Carrying out vdW-DF run using the following parameters:

     Nqs =      20    Nr_points =    1024   r_max =   100.000
     q_mesh =
               0.00001000     0.04494208     0.09755937     0.15916263
               0.23128650     0.31572767     0.41458969     0.53033537
               0.66584808     0.82450364     1.01025438     1.22772762
               1.48234092     1.78043706     2.12944203     2.53805004
               3.01644009     3.57652955     4.23227104     5.00000000

     Gradients computed in reciprocal space

     Starting wfc are   52 randomized atomic wfcs +    2 random wfc

     Self-consistent Calculation

     iteration #  1     ecut=    58.80 Ry     beta=0.10
     Davidson diagonalization with overlap
     ethr =  1.00E-02,  avg # of iterations =  4.3

[...]

     total energy              =   -1156.02047827 Ry
     Harris-Foulkes estimate   =   -1164.89553028 Ry
     estimated scf accuracy    <      49.37980659 Ry

[...]

     total energy              =   -1160.50867887 Ry
     Harris-Foulkes estimate   =   -1160.50868213 Ry
     estimated scf accuracy    <       0.00000171 Ry

     iteration # 20     ecut=    58.80 Ry     beta=0.10
     Davidson diagonalization with overlap
     ethr =  2.51E-09,  avg # of iterations =  1.8

     negative rho (up, down):  2.576E-01 0.000E+00

     End of self-consistent calculation

          k = 0.0000 0.0000 0.0000 (  2767 PWs)   bands (ev):

   -93.8669 -93.8569 -51.2646 -51.2646 -51.2625 -51.2517 -51.2105 -51.2105
   -48.3493 -48.0273 -20.7668 -20.7668 -20.2830 -19.9954 -19.6978 -19.6978
    10.6778  12.8571  13.6556  14.0513  14.2788  14.2895  14.2895  15.5374
    16.2715  16.2715  16.7546  16.8974  17.2789  17.3633  18.5007  18.5007
    19.7183  20.0651  20.4155  20.4155  21.6921  22.3147  22.3147  23.7042
    27.3217  27.9866  29.0037  30.8172  32.4499  32.4499  33.4949  33.4949
    33.8353  36.3655  38.9125  39.0864  39.1745  39.1745

[...]

          k = 0.1237 0.1237 0.1070 (  2761 PWs)   bands (ev):

   -93.8620 -93.8617 -51.2702 -51.2686 -51.2573 -51.2569 -51.2076 -51.2060
   -48.1905 -48.1809 -20.9315 -20.9012 -20.1440 -20.1352 -19.6227 -19.5884
    13.1554  13.1837  14.2246  14.2931  15.5160  15.5566  15.8993  16.0291
    16.1487  16.2281  16.3611  16.4017  17.3086  17.5593  18.2981  18.3955
    18.4303  19.2113  19.5965  20.3631  20.3806  20.5429  20.6424  20.8725
    24.9857  25.2307  28.3784  28.5477  33.3453  33.3934  35.4144  35.7474
    38.1342  38.2205  38.5628  39.2426  40.8072  41.3383

     the Fermi energy is    19.1826 ev

!    total energy              =   -1160.50868517 Ry
     Harris-Foulkes estimate   =   -1160.50867896 Ry
     estimated scf accuracy    <       0.00000080 Ry

     The total energy is the sum of the following terms:

     one-electron contribution =    -624.28754338 Ry
     hartree contribution      =     357.73763199 Ry
     xc contribution           =    -146.37936840 Ry
     ewald contribution        =    -747.57326993 Ry
     smearing contrib. (-TS)   =      -0.00613545 Ry

     convergence has been achieved in  20 iterations

     Forces acting on atoms (Ry/au):

     negative rho (up, down):  2.576E-01 0.000E+00
     atom    1 type  1   force =     0.00000000    0.00000000    0.00000000
     atom    2 type  1   force =     0.00000000    0.00000000    0.00000000
     atom    3 type  2   force =     0.00000000    0.00000000    0.00000000
     atom    4 type  2   force =     0.00000000    0.00000000    0.00000000

     Total force =     0.000000     Total SCF correction =     0.000000

     General routines

     Parallel routines

   This run was terminated on:  23:59:54  14Nov2017

   JOB DONE.