     Program PWSCF v.5.1rc2 starts on 14Nov2017 at 13:43:20

     Current dimensions of program PWSCF are:
     Max number of different atomic species (ntypx) = 10
     Max number of k-points (npk) =  40000
     Max angular momentum in pseudopotentials (lmaxx) =  3

     IMPORTANT: XC functional enforced from input :
     Exchange-correlation      = BEEF-VDW ( 1  4 27 13 2)
     Any further DFT definition will be discarded
     Please, verify this is what you really want

     Found symmetry operation: I + (  0.5000  0.5000  0.0000)
     This is a supercell, fractional translations are disabled

     bravais-lattice index     =            0
     lattice parameter (alat)  =       1.8897  a.u.
     unit-cell volume          =     670.8032 (a.u.)^3
     number of atoms/cell      =            4
     number of atomic types    =            2
     number of electrons       =        62.00
     number of Kohn-Sham states=           51
     kinetic-energy cutoff     =      58.7989  Ry
     charge density cutoff     =     587.9892  Ry
     convergence threshold     =      1.0E-06
     mixing beta               =       0.1000
     number of iterations used =           10  plain     mixing
     Exchange-correlation      = BEEF-VDW ( 1  4 27 13 2)

     celldm(1)=   1.889726  celldm(2)=   0.000000  celldm(3)=   0.000000
     celldm(4)=   0.000000  celldm(5)=   0.000000  celldm(6)=   0.000000

     crystal axes: (cart. coord. in units of alat)
               a(1) = (   5.107606   0.000000   0.000000 )
               a(2) = (   0.000000   5.107606   0.000000 )
               a(3) = (   0.000000   0.000000   3.810340 )

     reciprocal axes: (cart. coord. in units 2 pi/alat)
               b(1) = (  0.195786  0.000000  0.000000 )
               b(2) = (  0.000000  0.195786  0.000000 )
               b(3) = (  0.000000  0.000000  0.262444 )

     PseudoPot. # 1 for Ga read from file:
     /home/users/vossj/suncat/psp/gbrv1.5pbe/Ga.UPF
     MD5 check sum: ccd671392a58a050fbb373893b4fcd66
     Pseudo is Ultrasoft + core correction, Zval = 19.0
     Generated by new atomic code, or converted to UPF format
     Using radial grid of  871 points,  6 beta functions with:
                l(1) =   0
                l(2) =   0
                l(3) =   1
                l(4) =   1
                l(5) =   2
                l(6) =   2
     Q(r) pseudized with  8 coefficients,  rinner =    1.250   1.250   1.250
                                                       1.250   1.250

     PseudoPot. # 2 for Hg read from file:
     /home/users/vossj/suncat/psp/gbrv1.5pbe/Hg.UPF
     MD5 check sum: 8f42caffe07f7fd9c0a564347f8c5498
     Pseudo is Ultrasoft + core correction, Zval = 12.0
     Generated by new atomic code, or converted to UPF format
     Using radial grid of  985 points,  6 beta functions with:
                l(1) =   0
                l(2) =   0
                l(3) =   1
                l(4) =   1
                l(5) =   2
                l(6) =   2
     Q(r) pseudized with  8 coefficients,  rinner =    2.000   2.000   2.000
                                                       2.000   2.000

     vdW kernel table read from file vdW_kernel_table
     MD5 check sum: 095c7af220d748ca6e76c0b4c6cfb241

     atomic species   valence    mass     pseudopotential
        Ga1           19.00    69.72300     Ga( 1.00)
        Hg1           12.00   200.59000     Hg( 1.00)

     16 Sym. Ops., with inversion, found

   Cartesian axes

     site n.     atom                  positions (alat units)
         1           Ga1 tau(   1) = (   0.0000000   0.0000000   0.0000000  )
         2           Ga1 tau(   2) = (   2.5538030   2.5538030   0.0000000  )
         3           Hg1 tau(   3) = (   2.5538030   0.0000000   1.9051700  )
         4           Hg1 tau(   4) = (   0.0000000   2.5538030   1.9051700  )

     number of k points=    75  Fermi-Dirac smearing, width (Ry)=  0.0073
                       cart. coord. in units 2pi/alat
        k(    1) = (   0.0000000   0.0000000   0.0000000), wk =   0.0027435
        k(    2) = (   0.0000000   0.0000000   0.0291604), wk =   0.0054870
        k(    3) = (   0.0000000   0.0000000   0.0583208), wk =   0.0054870
        k(    4) = (   0.0000000   0.0000000   0.0874813), wk =   0.0054870
        k(    5) = (   0.0000000   0.0000000   0.1166417), wk =   0.0054870
        k(    6) = (   0.0000000   0.0217540   0.0000000), wk =   0.0109739
        k(    7) = (   0.0000000   0.0217540   0.0291604), wk =   0.0219479
        k(    8) = (   0.0000000   0.0217540   0.0583208), wk =   0.0219479
        k(    9) = (   0.0000000   0.0217540   0.0874813), wk =   0.0219479
        k(   10) = (   0.0000000   0.0217540   0.1166417), wk =   0.0219479
        k(   11) = (   0.0000000   0.0435081   0.0000000), wk =   0.0109739
        k(   12) = (   0.0000000   0.0435081   0.0291604), wk =   0.0219479
        k(   13) = (   0.0000000   0.0435081   0.0583208), wk =   0.0219479
        k(   14) = (   0.0000000   0.0435081   0.0874813), wk =   0.0219479
        k(   15) = (   0.0000000   0.0435081   0.1166417), wk =   0.0219479
        k(   16) = (   0.0000000   0.0652621   0.0000000), wk =   0.0109739
        k(   17) = (   0.0000000   0.0652621   0.0291604), wk =   0.0219479
        k(   18) = (   0.0000000   0.0652621   0.0583208), wk =   0.0219479
        k(   19) = (   0.0000000   0.0652621   0.0874813), wk =   0.0219479
        k(   20) = (   0.0000000   0.0652621   0.1166417), wk =   0.0219479
        k(   21) = (   0.0000000   0.0870162   0.0000000), wk =   0.0109739
        k(   22) = (   0.0000000   0.0870162   0.0291604), wk =   0.0219479
        k(   23) = (   0.0000000   0.0870162   0.0583208), wk =   0.0219479
        k(   24) = (   0.0000000   0.0870162   0.0874813), wk =   0.0219479
        k(   25) = (   0.0000000   0.0870162   0.1166417), wk =   0.0219479
        k(   26) = (   0.0217540   0.0217540   0.0000000), wk =   0.0109739
        k(   27) = (   0.0217540   0.0217540   0.0291604), wk =   0.0219479
        k(   28) = (   0.0217540   0.0217540   0.0583208), wk =   0.0219479
        k(   29) = (   0.0217540   0.0217540   0.0874813), wk =   0.0219479
        k(   30) = (   0.0217540   0.0217540   0.1166417), wk =   0.0219479
        k(   31) = (   0.0217540   0.0435081   0.0000000), wk =   0.0219479
        k(   32) = (   0.0217540   0.0435081   0.0291604), wk =   0.0438957
        k(   33) = (   0.0217540   0.0435081   0.0583208), wk =   0.0438957
        k(   34) = (   0.0217540   0.0435081   0.0874813), wk =   0.0438957
        k(   35) = (   0.0217540   0.0435081   0.1166417), wk =   0.0438957
        k(   36) = (   0.0217540   0.0652621   0.0000000), wk =   0.0219479
        k(   37) = (   0.0217540   0.0652621   0.0291604), wk =   0.0438957
        k(   38) = (   0.0217540   0.0652621   0.0583208), wk =   0.0438957
        k(   39) = (   0.0217540   0.0652621   0.0874813), wk =   0.0438957
        k(   40) = (   0.0217540   0.0652621   0.1166417), wk =   0.0438957
        k(   41) = (   0.0217540   0.0870162   0.0000000), wk =   0.0219479
        k(   42) = (   0.0217540   0.0870162   0.0291604), wk =   0.0438957
        k(   43) = (   0.0217540   0.0870162   0.0583208), wk =   0.0438957
        k(   44) = (   0.0217540   0.0870162   0.0874813), wk =   0.0438957
        k(   45) = (   0.0217540   0.0870162   0.1166417), wk =   0.0438957
        k(   46) = (   0.0435081   0.0435081   0.0000000), wk =   0.0109739
        k(   47) = (   0.0435081   0.0435081   0.0291604), wk =   0.0219479
        k(   48) = (   0.0435081   0.0435081   0.0583208), wk =   0.0219479
        k(   49) = (   0.0435081   0.0435081   0.0874813), wk =   0.0219479
        k(   50) = (   0.0435081   0.0435081   0.1166417), wk =   0.0219479
        k(   51) = (   0.0435081   0.0652621   0.0000000), wk =   0.0219479
        k(   52) = (   0.0435081   0.0652621   0.0291604), wk =   0.0438957
        k(   53) = (   0.0435081   0.0652621   0.0583208), wk =   0.0438957
        k(   54) = (   0.0435081   0.0652621   0.0874813), wk =   0.0438957
        k(   55) = (   0.0435081   0.0652621   0.1166417), wk =   0.0438957
        k(   56) = (   0.0435081   0.0870162   0.0000000), wk =   0.0219479
        k(   57) = (   0.0435081   0.0870162   0.0291604), wk =   0.0438957
        k(   58) = (   0.0435081   0.0870162   0.0583208), wk =   0.0438957
        k(   59) = (   0.0435081   0.0870162   0.0874813), wk =   0.0438957
        k(   60) = (   0.0435081   0.0870162   0.1166417), wk =   0.0438957
        k(   61) = (   0.0652621   0.0652621   0.0000000), wk =   0.0109739
        k(   62) = (   0.0652621   0.0652621   0.0291604), wk =   0.0219479
        k(   63) = (   0.0652621   0.0652621   0.0583208), wk =   0.0219479
        k(   64) = (   0.0652621   0.0652621   0.0874813), wk =   0.0219479
        k(   65) = (   0.0652621   0.0652621   0.1166417), wk =   0.0219479
        k(   66) = (   0.0652621   0.0870162   0.0000000), wk =   0.0219479
        k(   67) = (   0.0652621   0.0870162   0.0291604), wk =   0.0438957
        k(   68) = (   0.0652621   0.0870162   0.0583208), wk =   0.0438957
        k(   69) = (   0.0652621   0.0870162   0.0874813), wk =   0.0438957
        k(   70) = (   0.0652621   0.0870162   0.1166417), wk =   0.0438957
        k(   71) = (   0.0870162   0.0870162   0.0000000), wk =   0.0109739
        k(   72) = (   0.0870162   0.0870162   0.0291604), wk =   0.0219479
        k(   73) = (   0.0870162   0.0870162   0.0583208), wk =   0.0219479
        k(   74) = (   0.0870162   0.0870162   0.0874813), wk =   0.0219479
        k(   75) = (   0.0870162   0.0870162   0.1166417), wk =   0.0219479

     Largest allocated arrays     est. size (Mb)     dimensions
     Largest temporary arrays     est. size (Mb)     dimensions

     Initial potential from superposition of free atoms

     starting charge   59.99988, renormalised to   62.00000

     *
     * You are using vdW-DF for exchange-correlation in this calculation.
     * Please cite the following three references that made this development
     * possible:
     *
     *   M. Dion, H. Rydberg, E. Schroder, D. C. Langreth, and
     *   B. I. Lundqvist, Phys. Rev. Lett. 92, 246401 (2004).
     *
     *   T. Thonhauser, V. R. Cooper, S. Li, A. Puzder, P. Hyldgaard, and
     *   D. C. Langreth, Phys. Rev. B 76, 125112 (2007).
     *
     *   G. Roman-Perez and J. M. Soler, Phys. Rev. Lett. 103, 096102 (2009).
     *
     *
     * If you are using vdW-DF2, please also cite:
     *
     *   K. Lee, E. D. Murray, L. Kong, B. I. Lundqvist, and
     *   D. C. Langreth, Phys. Rev. B 82, 081101(R) (2010).
     *
     *
     * If you are calculating the stress with vdW-DF, please also cite:
     *
     *   R. Sabatini, E. Kucukbenli, B. Kolb, T. Thonhauser, and
     *   S. de Gironcoli, J. Phys.: Condens. Matter 24, 424209 (2012).
     *

     Carrying out vdW-DF run using the following parameters:

     Nqs =      20    Nr_points =    1024   r_max =   100.000
     q_mesh =
               0.00001000     0.04494208     0.09755937     0.15916263
               0.23128650     0.31572767     0.41458969     0.53033537
               0.66584808     0.82450364     1.01025438     1.22772762
               1.48234092     1.78043706     2.12944203     2.53805004
               3.01644009     3.57652955     4.23227104     5.00000000

     Gradients computed in reciprocal space

     Starting wfc are   42 randomized atomic wfcs +    9 random wfc

     Self-consistent Calculation

     iteration #  1     ecut=    58.80 Ry     beta=0.10
     Davidson diagonalization with overlap
     ethr =  1.00E-02,  avg # of iterations =  5.4

     total energy              =   -1051.91688009 Ry
     Harris-Foulkes estimate   =   -1052.72259753 Ry
     estimated scf accuracy    <       4.57189915 Ry

[...]

     total energy              =   -1051.40161713 Ry
     Harris-Foulkes estimate   =   -1051.40161702 Ry
     estimated scf accuracy    <       0.00000324 Ry

     iteration # 12     ecut=    58.80 Ry     beta=0.10
     Davidson diagonalization with overlap
     ethr =  1.92E-09,  avg # of iterations =  2.0

     End of self-consistent calculation

          k = 0.0000 0.0000 0.0000 (  5133 PWs)   bands (ev):

   -85.8395 -85.8391 -85.8375 -85.8375 -85.8372 -85.8372  -6.1813  -6.1759
    -6.1756  -6.1571  -6.1571  -6.1501  -6.1405  -6.1405  -6.1342  -6.1086
     0.0119   1.3281   1.7838   1.8396   2.0647   2.1563   2.1563   2.3489
     2.3489   2.3965   2.6489   5.7709   6.6580   7.1745   7.1745   9.7177
    10.7002  11.7185  11.7185  13.9388  16.3487  16.7739  17.2239  17.2239
    17.8031  19.2105  20.9577  20.9577  21.1587  21.4441  21.5164  21.5164
    23.8186  24.6316  24.6316

[...]

          k = 0.0870 0.0870 0.1166 (  5129 PWs)   bands (ev):

   -85.8395 -85.8391 -85.8375 -85.8375 -85.8372 -85.8372  -6.1748  -6.1742
    -6.1601  -6.1584  -6.1509  -6.1498  -6.1495  -6.1490  -6.1183  -6.1171
     1.2908   1.2925   1.9419   1.9663   2.1880   2.2116   2.2275   2.2423
     2.5412   2.5584   5.0024   5.3603   5.9514   5.9947   7.0981   7.3488
     7.4286   7.9944  14.3247  14.5414  17.5820  17.7055  17.7607  18.2146
    18.3869  18.4146  20.0440  20.0957  21.7417  22.0379  22.2378  22.3136
    22.8770  23.3896  25.2537

     the Fermi energy is     9.1323 ev

!    total energy              =   -1051.40162637 Ry
     Harris-Foulkes estimate   =   -1051.40161781 Ry
     estimated scf accuracy    <       0.00000021 Ry

     The total energy is the sum of the following terms:

     one-electron contribution =    -778.36651264 Ry
     hartree contribution      =     424.84309714 Ry
     xc contribution           =    -180.21731727 Ry
     ewald contribution        =    -517.65640618 Ry
     smearing contrib. (-TS)   =      -0.00448742 Ry

     convergence has been achieved in  12 iterations

     Forces acting on atoms (Ry/au):

     atom    1 type  1   force =     0.00000000    0.00000000    0.00000000
     atom    2 type  1   force =     0.00000000    0.00000000    0.00000000
     atom    3 type  2   force =     0.00000000    0.00000000    0.00000000
     atom    4 type  2   force =     0.00000000    0.00000000    0.00000000

     Total force =     0.000000     Total SCF correction =     0.000000

     General routines

     Parallel routines

   This run was terminated on:  13:44:20  14Nov2017

   JOB DONE.