     Program PWSCF v.5.1rc2 starts on 15Nov2017 at  7:17: 4

     Current dimensions of program PWSCF are:
     Max number of different atomic species (ntypx) = 10
     Max number of k-points (npk) =  40000
     Max angular momentum in pseudopotentials (lmaxx) =  3

     IMPORTANT: XC functional enforced from input :
     Exchange-correlation      = BEEF-VDW ( 1  4 27 13 2)
     Any further DFT definition will be discarded
     Please, verify this is what you really want

     Found symmetry operation: I + ( -0.5000 -0.5000  0.0000)
     This is a supercell, fractional translations are disabled

     bravais-lattice index     =            0
     lattice parameter (alat)  =       1.8897  a.u.
     unit-cell volume          =     474.7247 (a.u.)^3
     number of atoms/cell      =            4
     number of atomic types    =            2
     number of electrons       =        56.00
     number of Kohn-Sham states=           48
     kinetic-energy cutoff     =      58.7989  Ry
     charge density cutoff     =     587.9892  Ry
     convergence threshold     =      1.0E-06
     mixing beta               =       0.1000
     number of iterations used =           10  plain     mixing
     Exchange-correlation      = BEEF-VDW ( 1  4 27 13 2)

     celldm(1)=   1.889726  celldm(2)=   0.000000  celldm(3)=   0.000000
     celldm(4)=   0.000000  celldm(5)=   0.000000  celldm(6)=   0.000000

     crystal axes: (cart. coord. in units of alat)
               a(1) = (   4.631707   0.000000   0.000000 )
               a(2) = (   0.000000   4.631707   0.000000 )
               a(3) = (   0.000000   0.000000   3.279164 )

     reciprocal axes: (cart. coord. in units 2 pi/alat)
               b(1) = (  0.215903  0.000000  0.000000 )
               b(2) = (  0.000000  0.215903  0.000000 )
               b(3) = (  0.000000  0.000000  0.304956 )

     PseudoPot. # 1 for Zr read from file:
     /home/users/vossj/suncat/psp/gbrv1.5pbe/Zr.UPF
     MD5 check sum: 5db81b1e868ab7776c4564c113de050b
     Pseudo is Ultrasoft + core correction, Zval = 12.0
     Generated by new atomic code, or converted to UPF format
     Using radial grid of  887 points,  6 beta functions with:
                l(1) =   0
                l(2) =   0
                l(3) =   1
                l(4) =   1
                l(5) =   2
                l(6) =   2
     Q(r) pseudized with  6 coefficients,  rinner =    1.200   1.200   1.200
                                                       1.200   1.200

     PseudoPot. # 2 for Ru read from file:
     /home/users/vossj/suncat/psp/gbrv1.5pbe/Ru.UPF
     MD5 check sum: 7158a806dd851261a58e6920c40ebe78
     Pseudo is Ultrasoft + core correction, Zval = 16.0
     Generated by new atomic code, or converted to UPF format
     Using radial grid of  967 points,  6 beta functions with:
                l(1) =   0
                l(2) =   0
                l(3) =   1
                l(4) =   1
                l(5) =   2
                l(6) =   2
     Q(r) pseudized with  8 coefficients,  rinner =    1.300   1.300   1.300
                                                       1.300   1.300

     vdW kernel table read from file vdW_kernel_table
     MD5 check sum: 095c7af220d748ca6e76c0b4c6cfb241

     atomic species   valence    mass     pseudopotential
        Zr1           12.00    91.22400     Zr( 1.00)
        Ru1           16.00   101.07000     Ru( 1.00)

     16 Sym. Ops., with inversion, found

   Cartesian axes

     site n.     atom                  positions (alat units)
         1           Zr1 tau(   1) = (   0.0000000   0.0000000   0.0000000  )
         2           Zr1 tau(   2) = (   2.3158535   2.3158535   0.0000000  )
         3           Ru1 tau(   3) = (   2.3158535   0.0000000   1.6395819  )
         4           Ru1 tau(   4) = (   0.0000000   2.3158535   1.6395819  )

     number of k points=    75  Fermi-Dirac smearing, width (Ry)=  0.0073
                       cart. coord. in units 2pi/alat
        k(    1) = (   0.0000000   0.0000000   0.0000000), wk =   0.0027435
        k(    2) = (   0.0000000   0.0000000   0.0338840), wk =   0.0054870
        k(    3) = (   0.0000000   0.0000000   0.0677680), wk =   0.0054870
        k(    4) = (   0.0000000   0.0000000   0.1016519), wk =   0.0054870
        k(    5) = (   0.0000000   0.0000000   0.1355359), wk =   0.0054870
        k(    6) = (   0.0000000   0.0239892   0.0000000), wk =   0.0109739
        k(    7) = (   0.0000000   0.0239892   0.0338840), wk =   0.0219479
        k(    8) = (   0.0000000   0.0239892   0.0677680), wk =   0.0219479
        k(    9) = (   0.0000000   0.0239892   0.1016519), wk =   0.0219479
        k(   10) = (   0.0000000   0.0239892   0.1355359), wk =   0.0219479
        k(   11) = (   0.0000000   0.0479785   0.0000000), wk =   0.0109739
        k(   12) = (   0.0000000   0.0479785   0.0338840), wk =   0.0219479
        k(   13) = (   0.0000000   0.0479785   0.0677680), wk =   0.0219479
        k(   14) = (   0.0000000   0.0479785   0.1016519), wk =   0.0219479
        k(   15) = (   0.0000000   0.0479785   0.1355359), wk =   0.0219479
        k(   16) = (   0.0000000   0.0719677   0.0000000), wk =   0.0109739
        k(   17) = (   0.0000000   0.0719677   0.0338840), wk =   0.0219479
        k(   18) = (   0.0000000   0.0719677   0.0677680), wk =   0.0219479
        k(   19) = (   0.0000000   0.0719677   0.1016519), wk =   0.0219479
        k(   20) = (   0.0000000   0.0719677   0.1355359), wk =   0.0219479
        k(   21) = (   0.0000000   0.0959569   0.0000000), wk =   0.0109739
        k(   22) = (   0.0000000   0.0959569   0.0338840), wk =   0.0219479
        k(   23) = (   0.0000000   0.0959569   0.0677680), wk =   0.0219479
        k(   24) = (   0.0000000   0.0959569   0.1016519), wk =   0.0219479
        k(   25) = (   0.0000000   0.0959569   0.1355359), wk =   0.0219479
        k(   26) = (   0.0239892   0.0239892   0.0000000), wk =   0.0109739
        k(   27) = (   0.0239892   0.0239892   0.0338840), wk =   0.0219479
        k(   28) = (   0.0239892   0.0239892   0.0677680), wk =   0.0219479
        k(   29) = (   0.0239892   0.0239892   0.1016519), wk =   0.0219479
        k(   30) = (   0.0239892   0.0239892   0.1355359), wk =   0.0219479
        k(   31) = (   0.0239892   0.0479785   0.0000000), wk =   0.0219479
        k(   32) = (   0.0239892   0.0479785   0.0338840), wk =   0.0438957
        k(   33) = (   0.0239892   0.0479785   0.0677680), wk =   0.0438957
        k(   34) = (   0.0239892   0.0479785   0.1016519), wk =   0.0438957
        k(   35) = (   0.0239892   0.0479785   0.1355359), wk =   0.0438957
        k(   36) = (   0.0239892   0.0719677   0.0000000), wk =   0.0219479
        k(   37) = (   0.0239892   0.0719677   0.0338840), wk =   0.0438957
        k(   38) = (   0.0239892   0.0719677   0.0677680), wk =   0.0438957
        k(   39) = (   0.0239892   0.0719677   0.1016519), wk =   0.0438957
        k(   40) = (   0.0239892   0.0719677   0.1355359), wk =   0.0438957
        k(   41) = (   0.0239892   0.0959569   0.0000000), wk =   0.0219479
        k(   42) = (   0.0239892   0.0959569   0.0338840), wk =   0.0438957
        k(   43) = (   0.0239892   0.0959569   0.0677680), wk =   0.0438957
        k(   44) = (   0.0239892   0.0959569   0.1016519), wk =   0.0438957
        k(   45) = (   0.0239892   0.0959569   0.1355359), wk =   0.0438957
        k(   46) = (   0.0479785   0.0479785   0.0000000), wk =   0.0109739
        k(   47) = (   0.0479785   0.0479785   0.0338840), wk =   0.0219479
        k(   48) = (   0.0479785   0.0479785   0.0677680), wk =   0.0219479
        k(   49) = (   0.0479785   0.0479785   0.1016519), wk =   0.0219479
        k(   50) = (   0.0479785   0.0479785   0.1355359), wk =   0.0219479
        k(   51) = (   0.0479785   0.0719677   0.0000000), wk =   0.0219479
        k(   52) = (   0.0479785   0.0719677   0.0338840), wk =   0.0438957
        k(   53) = (   0.0479785   0.0719677   0.0677680), wk =   0.0438957
        k(   54) = (   0.0479785   0.0719677   0.1016519), wk =   0.0438957
        k(   55) = (   0.0479785   0.0719677   0.1355359), wk =   0.0438957
        k(   56) = (   0.0479785   0.0959569   0.0000000), wk =   0.0219479
        k(   57) = (   0.0479785   0.0959569   0.0338840), wk =   0.0438957
        k(   58) = (   0.0479785   0.0959569   0.0677680), wk =   0.0438957
        k(   59) = (   0.0479785   0.0959569   0.1016519), wk =   0.0438957
        k(   60) = (   0.0479785   0.0959569   0.1355359), wk =   0.0438957
        k(   61) = (   0.0719677   0.0719677   0.0000000), wk =   0.0109739
        k(   62) = (   0.0719677   0.0719677   0.0338840), wk =   0.0219479
        k(   63) = (   0.0719677   0.0719677   0.0677680), wk =   0.0219479
        k(   64) = (   0.0719677   0.0719677   0.1016519), wk =   0.0219479
        k(   65) = (   0.0719677   0.0719677   0.1355359), wk =   0.0219479
        k(   66) = (   0.0719677   0.0959569   0.0000000), wk =   0.0219479
        k(   67) = (   0.0719677   0.0959569   0.0338840), wk =   0.0438957
        k(   68) = (   0.0719677   0.0959569   0.0677680), wk =   0.0438957
        k(   69) = (   0.0719677   0.0959569   0.1016519), wk =   0.0438957
        k(   70) = (   0.0719677   0.0959569   0.1355359), wk =   0.0438957
        k(   71) = (   0.0959569   0.0959569   0.0000000), wk =   0.0109739
        k(   72) = (   0.0959569   0.0959569   0.0338840), wk =   0.0219479
        k(   73) = (   0.0959569   0.0959569   0.0677680), wk =   0.0219479
        k(   74) = (   0.0959569   0.0959569   0.1016519), wk =   0.0219479
        k(   75) = (   0.0959569   0.0959569   0.1355359), wk =   0.0219479

     Largest allocated arrays     est. size (Mb)     dimensions
     Largest temporary arrays     est. size (Mb)     dimensions

     Initial potential from superposition of free atoms
     Check: negative starting charge=   -0.269337

     starting charge   53.99567, renormalised to   56.00000

     negative rho (up, down):  2.793E-01 0.000E+00

     *
     * You are using vdW-DF for exchange-correlation in this calculation.
     * Please cite the following three references that made this development
     * possible:
     *
     *   M. Dion, H. Rydberg, E. Schroder, D. C. Langreth, and
     *   B. I. Lundqvist, Phys. Rev. Lett. 92, 246401 (2004).
     *
     *   T. Thonhauser, V. R. Cooper, S. Li, A. Puzder, P. Hyldgaard, and
     *   D. C. Langreth, Phys. Rev. B 76, 125112 (2007).
     *
     *   G. Roman-Perez and J. M. Soler, Phys. Rev. Lett. 103, 096102 (2009).
     *
     *
     * If you are using vdW-DF2, please also cite:
     *
     *   K. Lee, E. D. Murray, L. Kong, B. I. Lundqvist, and
     *   D. C. Langreth, Phys. Rev. B 82, 081101(R) (2010).
     *
     *
     * If you are calculating the stress with vdW-DF, please also cite:
     *
     *   R. Sabatini, E. Kucukbenli, B. Kolb, T. Thonhauser, and
     *   S. de Gironcoli, J. Phys.: Condens. Matter 24, 424209 (2012).
     *

     Carrying out vdW-DF run using the following parameters:

     Nqs =      20    Nr_points =    1024   r_max =   100.000
     q_mesh =
               0.00001000     0.04494208     0.09755937     0.15916263
               0.23128650     0.31572767     0.41458969     0.53033537
               0.66584808     0.82450364     1.01025438     1.22772762
               1.48234092     1.78043706     2.12944203     2.53805004
               3.01644009     3.57652955     4.23227104     5.00000000

     Gradients computed in reciprocal space

     Starting wfc are   52 randomized atomic wfcs

     Self-consistent Calculation

     iteration #  1     ecut=    58.80 Ry     beta=0.10
     Davidson diagonalization with overlap
     ethr =  1.00E-02,  avg # of iterations =  4.2

[...]

     total energy              =    -590.22797937 Ry
     Harris-Foulkes estimate   =    -590.48920478 Ry
     estimated scf accuracy    <       1.69375883 Ry

[...]

     total energy              =    -590.06910546 Ry
     Harris-Foulkes estimate   =    -590.06910444 Ry
     estimated scf accuracy    <       0.00000152 Ry

     iteration # 11     ecut=    58.80 Ry     beta=0.10
     Davidson diagonalization with overlap
     ethr =  2.71E-09,  avg # of iterations =  1.0

     negative rho (up, down):  2.788E-01 0.000E+00

     End of self-consistent calculation

          k = 0.0000 0.0000 0.0000 (  3611 PWs)   bands (ev):

   -54.3853 -54.3767 -30.9116 -30.8416 -24.4025 -24.4025 -24.3342 -24.3342
   -24.3308 -24.3155  -9.0386  -9.0386  -8.6811  -8.6791  -8.6791  -8.6178
    11.7964  13.6605  13.7539  13.7541  13.8907  15.3677  15.3677  16.7854
    16.7854  16.7923  18.4047  19.0037  19.9376  19.9376  20.0790  20.0951
    20.7045  22.9853  22.9860  22.9860  23.0590  23.0590  23.2130  26.7667
    26.7976  26.7976  29.0707  29.5662  30.0397  30.0397  32.6210  32.8512

[...]

          k = 0.0960 0.0960 0.1355 (  3580 PWs)   bands (ev):

   -54.3770 -54.3768 -30.8448 -30.8424 -24.4018 -24.4000 -24.3954 -24.3953
   -24.3214 -24.3195  -9.0418  -9.0321  -9.0269  -9.0251  -8.6308  -8.6191
    13.7252  13.7520  13.9581  13.9794  15.4070  15.4137  15.4162  15.4803
    18.0526  18.1898  18.7270  18.9121  19.5677  19.8153  19.9767  20.0941
    20.5736  20.6656  22.8166  23.0356  23.0488  23.1713  23.3500  23.4509
    29.0326  29.0416  29.4412  29.6369  30.1868  30.2497  30.3962  30.6038

     the Fermi energy is    18.3577 ev

!    total energy              =    -590.06911116 Ry
     Harris-Foulkes estimate   =    -590.06910561 Ry
     estimated scf accuracy    <       0.00000001 Ry

     The total energy is the sum of the following terms:

     one-electron contribution =    -130.30213255 Ry
     hartree contribution      =      97.15331534 Ry
     xc contribution           =     -90.84740544 Ry
     ewald contribution        =    -466.06977135 Ry
     smearing contrib. (-TS)   =      -0.00311715 Ry

     convergence has been achieved in  11 iterations

     Forces acting on atoms (Ry/au):

     negative rho (up, down):  2.788E-01 0.000E+00
     atom    1 type  1   force =     0.00000000    0.00000000    0.00000000
     atom    2 type  1   force =     0.00000000    0.00000000    0.00000000
     atom    3 type  2   force =     0.00000000    0.00000000    0.00000000
     atom    4 type  2   force =     0.00000000    0.00000000    0.00000000

     Total force =     0.000000     Total SCF correction =     0.000000

     General routines

     Parallel routines

   This run was terminated on:   7:17:39  15Nov2017

   JOB DONE.