     Program PWSCF v.5.1rc2 starts on 15Nov2017 at  4:50:21

     Current dimensions of program PWSCF are:
     Max number of different atomic species (ntypx) = 10
     Max number of k-points (npk) =  40000
     Max angular momentum in pseudopotentials (lmaxx) =  3

     IMPORTANT: XC functional enforced from input :
     Exchange-correlation      = BEEF-VDW ( 1  4 27 13 2)
     Any further DFT definition will be discarded
     Please, verify this is what you really want

     Found symmetry operation: I + ( -0.5000 -0.5000  0.0000)
     This is a supercell, fractional translations are disabled

     bravais-lattice index     =            0
     lattice parameter (alat)  =       1.8897  a.u.
     unit-cell volume          =     432.2678 (a.u.)^3
     number of atoms/cell      =            4
     number of atomic types    =            2
     number of electrons       =        56.00
     number of Kohn-Sham states=           48
     kinetic-energy cutoff     =      58.7989  Ry
     charge density cutoff     =     587.9892  Ry
     convergence threshold     =      1.0E-06
     mixing beta               =       0.1000
     number of iterations used =           10  plain     mixing
     Exchange-correlation      = BEEF-VDW ( 1  4 27 13 2)

     celldm(1)=   1.889726  celldm(2)=   0.000000  celldm(3)=   0.000000
     celldm(4)=   0.000000  celldm(5)=   0.000000  celldm(6)=   0.000000

     crystal axes: (cart. coord. in units of alat)
               a(1) = (   4.071276   0.000000   0.000000 )
               a(2) = (   0.000000   4.071276   0.000000 )
               a(3) = (   0.000000   0.000000   3.864516 )

     reciprocal axes: (cart. coord. in units 2 pi/alat)
               b(1) = (  0.245623  0.000000  0.000000 )
               b(2) = (  0.000000  0.245623  0.000000 )
               b(3) = (  0.000000  0.000000  0.258765 )

     PseudoPot. # 1 for Rh read from file:
     /home/users/vossj/suncat/psp/gbrv1.5pbe/Rh.UPF
     MD5 check sum: 761627e959a2e3a1f56b0b5fe687810e
     Pseudo is Ultrasoft + core correction, Zval = 15.0
     Generated by new atomic code, or converted to UPF format
     Using radial grid of  969 points,  7 beta functions with:
                l(1) =   0
                l(2) =   0
                l(3) =   1
                l(4) =   1
                l(5) =   2
                l(6) =   2
                l(7) =   2
     Q(r) pseudized with  8 coefficients,  rinner =    1.200   1.200   1.200
                                                       1.200   1.200

     PseudoPot. # 2 for Ta read from file:
     /home/users/vossj/suncat/psp/gbrv1.5pbe/Ta.UPF
     MD5 check sum: f8bbe9446314a3b8ea5d9f3e3836c939
     Pseudo is Ultrasoft + core correction, Zval = 13.0
     Generated by new atomic code, or converted to UPF format
     Using radial grid of  921 points,  7 beta functions with:
                l(1) =   0
                l(2) =   0
                l(3) =   1
                l(4) =   1
                l(5) =   2
                l(6) =   2
                l(7) =   3
     Q(r) pseudized with  6 coefficients,  rinner =    1.300   1.300   1.300
                                                       1.300   1.300   1.300
                                                       1.300

     vdW kernel table read from file vdW_kernel_table
     MD5 check sum: 095c7af220d748ca6e76c0b4c6cfb241

     atomic species   valence    mass     pseudopotential
        Rh1           15.00   102.90550     Rh( 1.00)
        Ta1           13.00   180.94790     Ta( 1.00)

     16 Sym. Ops., with inversion, found

   Cartesian axes

     site n.     atom                  positions (alat units)
         1           Rh1 tau(   1) = (   0.0000000   0.0000000   0.0000000  )
         2           Rh1 tau(   2) = (   2.0356382   2.0356382   0.0000000  )
         3           Ta1 tau(   3) = (   2.0356382   0.0000000   1.9322578  )
         4           Ta1 tau(   4) = (   0.0000000   2.0356382   1.9322578  )

     number of k points=    75  Fermi-Dirac smearing, width (Ry)=  0.0073
                       cart. coord. in units 2pi/alat
        k(    1) = (   0.0000000   0.0000000   0.0000000), wk =   0.0027435
        k(    2) = (   0.0000000   0.0000000   0.0287516), wk =   0.0054870
        k(    3) = (   0.0000000   0.0000000   0.0575033), wk =   0.0054870
        k(    4) = (   0.0000000   0.0000000   0.0862549), wk =   0.0054870
        k(    5) = (   0.0000000   0.0000000   0.1150065), wk =   0.0054870
        k(    6) = (   0.0000000   0.0272915   0.0000000), wk =   0.0109739
        k(    7) = (   0.0000000   0.0272915   0.0287516), wk =   0.0219479
        k(    8) = (   0.0000000   0.0272915   0.0575033), wk =   0.0219479
        k(    9) = (   0.0000000   0.0272915   0.0862549), wk =   0.0219479
        k(   10) = (   0.0000000   0.0272915   0.1150065), wk =   0.0219479
        k(   11) = (   0.0000000   0.0545829   0.0000000), wk =   0.0109739
        k(   12) = (   0.0000000   0.0545829   0.0287516), wk =   0.0219479
        k(   13) = (   0.0000000   0.0545829   0.0575033), wk =   0.0219479
        k(   14) = (   0.0000000   0.0545829   0.0862549), wk =   0.0219479
        k(   15) = (   0.0000000   0.0545829   0.1150065), wk =   0.0219479
        k(   16) = (   0.0000000   0.0818744   0.0000000), wk =   0.0109739
        k(   17) = (   0.0000000   0.0818744   0.0287516), wk =   0.0219479
        k(   18) = (   0.0000000   0.0818744   0.0575033), wk =   0.0219479
        k(   19) = (   0.0000000   0.0818744   0.0862549), wk =   0.0219479
        k(   20) = (   0.0000000   0.0818744   0.1150065), wk =   0.0219479
        k(   21) = (   0.0000000   0.1091659   0.0000000), wk =   0.0109739
        k(   22) = (   0.0000000   0.1091659   0.0287516), wk =   0.0219479
        k(   23) = (   0.0000000   0.1091659   0.0575033), wk =   0.0219479
        k(   24) = (   0.0000000   0.1091659   0.0862549), wk =   0.0219479
        k(   25) = (   0.0000000   0.1091659   0.1150065), wk =   0.0219479
        k(   26) = (   0.0272915   0.0272915   0.0000000), wk =   0.0109739
        k(   27) = (   0.0272915   0.0272915   0.0287516), wk =   0.0219479
        k(   28) = (   0.0272915   0.0272915   0.0575033), wk =   0.0219479
        k(   29) = (   0.0272915   0.0272915   0.0862549), wk =   0.0219479
        k(   30) = (   0.0272915   0.0272915   0.1150065), wk =   0.0219479
        k(   31) = (   0.0272915   0.0545829   0.0000000), wk =   0.0219479
        k(   32) = (   0.0272915   0.0545829   0.0287516), wk =   0.0438957
        k(   33) = (   0.0272915   0.0545829   0.0575033), wk =   0.0438957
        k(   34) = (   0.0272915   0.0545829   0.0862549), wk =   0.0438957
        k(   35) = (   0.0272915   0.0545829   0.1150065), wk =   0.0438957
        k(   36) = (   0.0272915   0.0818744   0.0000000), wk =   0.0219479
        k(   37) = (   0.0272915   0.0818744   0.0287516), wk =   0.0438957
        k(   38) = (   0.0272915   0.0818744   0.0575033), wk =   0.0438957
        k(   39) = (   0.0272915   0.0818744   0.0862549), wk =   0.0438957
        k(   40) = (   0.0272915   0.0818744   0.1150065), wk =   0.0438957
        k(   41) = (   0.0272915   0.1091659   0.0000000), wk =   0.0219479
        k(   42) = (   0.0272915   0.1091659   0.0287516), wk =   0.0438957
        k(   43) = (   0.0272915   0.1091659   0.0575033), wk =   0.0438957
        k(   44) = (   0.0272915   0.1091659   0.0862549), wk =   0.0438957
        k(   45) = (   0.0272915   0.1091659   0.1150065), wk =   0.0438957
        k(   46) = (   0.0545829   0.0545829   0.0000000), wk =   0.0109739
        k(   47) = (   0.0545829   0.0545829   0.0287516), wk =   0.0219479
        k(   48) = (   0.0545829   0.0545829   0.0575033), wk =   0.0219479
        k(   49) = (   0.0545829   0.0545829   0.0862549), wk =   0.0219479
        k(   50) = (   0.0545829   0.0545829   0.1150065), wk =   0.0219479
        k(   51) = (   0.0545829   0.0818744   0.0000000), wk =   0.0219479
        k(   52) = (   0.0545829   0.0818744   0.0287516), wk =   0.0438957
        k(   53) = (   0.0545829   0.0818744   0.0575033), wk =   0.0438957
        k(   54) = (   0.0545829   0.0818744   0.0862549), wk =   0.0438957
        k(   55) = (   0.0545829   0.0818744   0.1150065), wk =   0.0438957
        k(   56) = (   0.0545829   0.1091659   0.0000000), wk =   0.0219479
        k(   57) = (   0.0545829   0.1091659   0.0287516), wk =   0.0438957
        k(   58) = (   0.0545829   0.1091659   0.0575033), wk =   0.0438957
        k(   59) = (   0.0545829   0.1091659   0.0862549), wk =   0.0438957
        k(   60) = (   0.0545829   0.1091659   0.1150065), wk =   0.0438957
        k(   61) = (   0.0818744   0.0818744   0.0000000), wk =   0.0109739
        k(   62) = (   0.0818744   0.0818744   0.0287516), wk =   0.0219479
        k(   63) = (   0.0818744   0.0818744   0.0575033), wk =   0.0219479
        k(   64) = (   0.0818744   0.0818744   0.0862549), wk =   0.0219479
        k(   65) = (   0.0818744   0.0818744   0.1150065), wk =   0.0219479
        k(   66) = (   0.0818744   0.1091659   0.0000000), wk =   0.0219479
        k(   67) = (   0.0818744   0.1091659   0.0287516), wk =   0.0438957
        k(   68) = (   0.0818744   0.1091659   0.0575033), wk =   0.0438957
        k(   69) = (   0.0818744   0.1091659   0.0862549), wk =   0.0438957
        k(   70) = (   0.0818744   0.1091659   0.1150065), wk =   0.0438957
        k(   71) = (   0.1091659   0.1091659   0.0000000), wk =   0.0109739
        k(   72) = (   0.1091659   0.1091659   0.0287516), wk =   0.0219479
        k(   73) = (   0.1091659   0.1091659   0.0575033), wk =   0.0219479
        k(   74) = (   0.1091659   0.1091659   0.0862549), wk =   0.0219479
        k(   75) = (   0.1091659   0.1091659   0.1150065), wk =   0.0219479

     Largest allocated arrays     est. size (Mb)     dimensions
     Largest temporary arrays     est. size (Mb)     dimensions

     Initial potential from superposition of free atoms
     Check: negative starting charge=   -0.299928

     starting charge   54.99758, renormalised to   56.00000

     negative rho (up, down):  3.054E-01 0.000E+00

     *
     * You are using vdW-DF for exchange-correlation in this calculation.
     * Please cite the following three references that made this development
     * possible:
     *
     *   M. Dion, H. Rydberg, E. Schroder, D. C. Langreth, and
     *   B. I. Lundqvist, Phys. Rev. Lett. 92, 246401 (2004).
     *
     *   T. Thonhauser, V. R. Cooper, S. Li, A. Puzder, P. Hyldgaard, and
     *   D. C. Langreth, Phys. Rev. B 76, 125112 (2007).
     *
     *   G. Roman-Perez and J. M. Soler, Phys. Rev. Lett. 103, 096102 (2009).
     *
     *
     * If you are using vdW-DF2, please also cite:
     *
     *   K. Lee, E. D. Murray, L. Kong, B. I. Lundqvist, and
     *   D. C. Langreth, Phys. Rev. B 82, 081101(R) (2010).
     *
     *
     * If you are calculating the stress with vdW-DF, please also cite:
     *
     *   R. Sabatini, E. Kucukbenli, B. Kolb, T. Thonhauser, and
     *   S. de Gironcoli, J. Phys.: Condens. Matter 24, 424209 (2012).
     *

     Carrying out vdW-DF run using the following parameters:

     Nqs =      20    Nr_points =    1024   r_max =   100.000
     q_mesh =
               0.00001000     0.04494208     0.09755937     0.15916263
               0.23128650     0.31572767     0.41458969     0.53033537
               0.66584808     0.82450364     1.01025438     1.22772762
               1.48234092     1.78043706     2.12944203     2.53805004
               3.01644009     3.57652955     4.23227104     5.00000000

     Gradients computed in reciprocal space

     Starting wfc are   50 randomized atomic wfcs

     Self-consistent Calculation

     iteration #  1     ecut=    58.80 Ry     beta=0.10
     Davidson diagonalization with overlap
     ethr =  1.00E-02,  avg # of iterations =  4.3

[...]

     total energy              =    -631.22187161 Ry
     Harris-Foulkes estimate   =    -631.30499761 Ry
     estimated scf accuracy    <       0.59138818 Ry

[...]

     total energy              =    -631.14287617 Ry
     Harris-Foulkes estimate   =    -631.14287607 Ry
     estimated scf accuracy    <       0.00000191 Ry

     iteration # 10     ecut=    58.80 Ry     beta=0.10
     Davidson diagonalization with overlap
     ethr =  3.42E-09,  avg # of iterations =  2.0

     negative rho (up, down):  3.219E-01 0.000E+00

     End of self-consistent calculation

          k = 0.0000 0.0000 0.0000 (  3253 PWs)   bands (ev):

   -48.7964 -48.7076 -27.0685 -27.0495 -27.0495 -27.0229 -26.8767 -26.8767
   -15.3888 -15.3888 -15.1905 -15.0514 -14.7563 -14.7563  11.5293  14.1661
    14.1893  14.1930  14.7553  14.8200  14.8200  17.3468  17.3468  18.7763
    18.7820  19.9416  20.8231  20.8819  22.4333  22.4333  23.4390  23.4390
    23.4429  23.6371  24.1742  24.1742  24.6645  26.4841  30.8824  31.2508
    31.2508  31.5502  31.9151  31.9151  32.7326  33.4401  33.8075  34.2431

[...]

          k = 0.1092 0.1092 0.1150 (  3290 PWs)   bands (ev):

   -48.7524 -48.7497 -27.0716 -27.0665 -27.0542 -27.0532 -26.8645 -26.8593
   -15.4705 -15.4523 -15.1476 -15.1426 -14.7155 -14.6951  14.0993  14.1538
    14.5241  14.5616  17.0400  17.1451  17.1492  17.1735  17.2830  17.2927
    19.1825  19.3698  19.5128  20.0219  20.0391  20.2428  20.6402  21.1078
    23.0532  23.3658  24.1028  24.1034  24.1715  24.4301  29.1246  29.1898
    30.2285  30.4623  33.4060  33.4544  33.5488  33.5604  37.3915  37.7060

     the Fermi energy is    19.6080 ev

!    total energy              =    -631.14287865 Ry
     Harris-Foulkes estimate   =    -631.14287651 Ry
     estimated scf accuracy    <       0.00000010 Ry

     The total energy is the sum of the following terms:

     one-electron contribution =     -90.09765301 Ry
     hartree contribution      =      85.11029865 Ry
     xc contribution           =    -149.52238978 Ry
     ewald contribution        =    -476.62496341 Ry
     smearing contrib. (-TS)   =      -0.00817110 Ry

     convergence has been achieved in  10 iterations

     Forces acting on atoms (Ry/au):

     negative rho (up, down):  3.219E-01 0.000E+00
     atom    1 type  1   force =     0.00000000    0.00000000    0.00000000
     atom    2 type  1   force =     0.00000000    0.00000000    0.00000000
     atom    3 type  2   force =     0.00000000    0.00000000    0.00000000
     atom    4 type  2   force =     0.00000000    0.00000000    0.00000000

     Total force =     0.000000     Total SCF correction =     0.000000

     General routines

     Parallel routines

   This run was terminated on:   4:50:55  15Nov2017

   JOB DONE.