     Program PWSCF v.5.1rc2 (svn rev. ) starts on 14Nov2017 at 20: 7: 2

     Current dimensions of program PWSCF are:
     Max number of different atomic species (ntypx) = 10
     Max number of k-points (npk) =  40000
     Max angular momentum in pseudopotentials (lmaxx) =  3

     IMPORTANT: XC functional enforced from input :
     Exchange-correlation      = BEEF-VDW ( 1  4 27 13 2)
     Any further DFT definition will be discarded
     Please, verify this is what you really want

     Subspace diagonalization in iterative solution of the eigenvalue problem:
     a serial algorithm will be used

     Found symmetry operation: I + (  0.5000  0.5000  0.0000)
     This is a supercell, fractional translations are disabled

     bravais-lattice index     =            0
     lattice parameter (alat)  =       1.8897  a.u.
     unit-cell volume          =     450.3594 (a.u.)^3
     number of atoms/cell      =            4
     number of atomic types    =            2
     number of electrons       =        64.00
     number of Kohn-Sham states=           52
     kinetic-energy cutoff     =      58.7989  Ry
     charge density cutoff     =     587.9892  Ry
     convergence threshold     =      1.0E-06
     mixing beta               =       0.1000
     number of iterations used =           10  plain     mixing
     Exchange-correlation      = BEEF-VDW ( 1  4 27 13 2)

     celldm(1)=   1.889726  celldm(2)=   0.000000  celldm(3)=   0.000000
     celldm(4)=   0.000000  celldm(5)=   0.000000  celldm(6)=   0.000000

     crystal axes: (cart. coord. in units of alat)
               a(1) = (   4.027805   0.000000   0.000000 )
               a(2) = (   0.000000   4.027805   0.000000 )
               a(3) = (   0.000000   0.000000   4.113635 )

     reciprocal axes: (cart. coord. in units 2 pi/alat)
               b(1) = (  0.248274  0.000000  0.000000 )
               b(2) = (  0.000000  0.248274  0.000000 )
               b(3) = (  0.000000  0.000000  0.243094 )

     PseudoPot. # 1 for Ga read from file:
     /home/vossj/suncat/psp/gbrv1.5pbe/Ga.UPF
     MD5 check sum: ccd671392a58a050fbb373893b4fcd66
     Pseudo is Ultrasoft + core correction, Zval = 19.0
     Generated by new atomic code, or converted to UPF format
     Using radial grid of  871 points,  6 beta functions with:
                l(1) =   0
                l(2) =   0
                l(3) =   1
                l(4) =   1
                l(5) =   2
                l(6) =   2
     Q(r) pseudized with  8 coefficients,  rinner =    1.250   1.250   1.250
                                                       1.250   1.250

     PseudoPot. # 2 for Ta read from file:
     /home/vossj/suncat/psp/gbrv1.5pbe/Ta.UPF
     MD5 check sum: f8bbe9446314a3b8ea5d9f3e3836c939
     Pseudo is Ultrasoft + core correction, Zval = 13.0
     Generated by new atomic code, or converted to UPF format
     Using radial grid of  921 points,  7 beta functions with:
                l(1) =   0
                l(2) =   0
                l(3) =   1
                l(4) =   1
                l(5) =   2
                l(6) =   2
                l(7) =   3
     Q(r) pseudized with  6 coefficients,  rinner =    1.300   1.300   1.300
                                                       1.300   1.300   1.300
                                                       1.300

     vdW kernel table read from file vdW_kernel_table
     MD5 check sum: 095c7af220d748ca6e76c0b4c6cfb241

     atomic species   valence    mass     pseudopotential
        Ga1           19.00    69.72300     Ga( 1.00)
        Ta1           13.00   180.94788     Ta( 1.00)

     16 Sym. Ops., with inversion, found

   Cartesian axes

     site n.     atom                  positions (alat units)
         1           Ga1 tau(   1) = (   0.0000000   0.0000000   0.0000000  )
         2           Ga1 tau(   2) = (   2.0139024   2.0139024   0.0000000  )
         3           Ta1 tau(   3) = (   2.0139024   0.0000000   2.0568177  )
         4           Ta1 tau(   4) = (   0.0000000   2.0139024   2.0568177  )

     number of k points=    75  Fermi-Dirac smearing, width (Ry)=  0.0073
                       cart. coord. in units 2pi/alat
        k(    1) = (   0.0000000   0.0000000   0.0000000), wk =   0.0027435
        k(    2) = (   0.0000000   0.0000000   0.0270104), wk =   0.0054870
        k(    3) = (   0.0000000   0.0000000   0.0540209), wk =   0.0054870
        k(    4) = (   0.0000000   0.0000000   0.0810313), wk =   0.0054870
        k(    5) = (   0.0000000   0.0000000   0.1080418), wk =   0.0054870
        k(    6) = (   0.0000000   0.0275860   0.0000000), wk =   0.0109739
        k(    7) = (   0.0000000   0.0275860   0.0270104), wk =   0.0219479
        k(    8) = (   0.0000000   0.0275860   0.0540209), wk =   0.0219479
        k(    9) = (   0.0000000   0.0275860   0.0810313), wk =   0.0219479
        k(   10) = (   0.0000000   0.0275860   0.1080418), wk =   0.0219479
        k(   11) = (   0.0000000   0.0551720   0.0000000), wk =   0.0109739
        k(   12) = (   0.0000000   0.0551720   0.0270104), wk =   0.0219479
        k(   13) = (   0.0000000   0.0551720   0.0540209), wk =   0.0219479
        k(   14) = (   0.0000000   0.0551720   0.0810313), wk =   0.0219479
        k(   15) = (   0.0000000   0.0551720   0.1080418), wk =   0.0219479
        k(   16) = (   0.0000000   0.0827581   0.0000000), wk =   0.0109739
        k(   17) = (   0.0000000   0.0827581   0.0270104), wk =   0.0219479
        k(   18) = (   0.0000000   0.0827581   0.0540209), wk =   0.0219479
        k(   19) = (   0.0000000   0.0827581   0.0810313), wk =   0.0219479
        k(   20) = (   0.0000000   0.0827581   0.1080418), wk =   0.0219479
        k(   21) = (   0.0000000   0.1103441   0.0000000), wk =   0.0109739
        k(   22) = (   0.0000000   0.1103441   0.0270104), wk =   0.0219479
        k(   23) = (   0.0000000   0.1103441   0.0540209), wk =   0.0219479
        k(   24) = (   0.0000000   0.1103441   0.0810313), wk =   0.0219479
        k(   25) = (   0.0000000   0.1103441   0.1080418), wk =   0.0219479
        k(   26) = (   0.0275860   0.0275860   0.0000000), wk =   0.0109739
        k(   27) = (   0.0275860   0.0275860   0.0270104), wk =   0.0219479
        k(   28) = (   0.0275860   0.0275860   0.0540209), wk =   0.0219479
        k(   29) = (   0.0275860   0.0275860   0.0810313), wk =   0.0219479
        k(   30) = (   0.0275860   0.0275860   0.1080418), wk =   0.0219479
        k(   31) = (   0.0275860   0.0551720   0.0000000), wk =   0.0219479
        k(   32) = (   0.0275860   0.0551720   0.0270104), wk =   0.0438957
        k(   33) = (   0.0275860   0.0551720   0.0540209), wk =   0.0438957
        k(   34) = (   0.0275860   0.0551720   0.0810313), wk =   0.0438957
        k(   35) = (   0.0275860   0.0551720   0.1080418), wk =   0.0438957
        k(   36) = (   0.0275860   0.0827581   0.0000000), wk =   0.0219479
        k(   37) = (   0.0275860   0.0827581   0.0270104), wk =   0.0438957
        k(   38) = (   0.0275860   0.0827581   0.0540209), wk =   0.0438957
        k(   39) = (   0.0275860   0.0827581   0.0810313), wk =   0.0438957
        k(   40) = (   0.0275860   0.0827581   0.1080418), wk =   0.0438957
        k(   41) = (   0.0275860   0.1103441   0.0000000), wk =   0.0219479
        k(   42) = (   0.0275860   0.1103441   0.0270104), wk =   0.0438957
        k(   43) = (   0.0275860   0.1103441   0.0540209), wk =   0.0438957
        k(   44) = (   0.0275860   0.1103441   0.0810313), wk =   0.0438957
        k(   45) = (   0.0275860   0.1103441   0.1080418), wk =   0.0438957
        k(   46) = (   0.0551720   0.0551720   0.0000000), wk =   0.0109739
        k(   47) = (   0.0551720   0.0551720   0.0270104), wk =   0.0219479
        k(   48) = (   0.0551720   0.0551720   0.0540209), wk =   0.0219479
        k(   49) = (   0.0551720   0.0551720   0.0810313), wk =   0.0219479
        k(   50) = (   0.0551720   0.0551720   0.1080418), wk =   0.0219479
        k(   51) = (   0.0551720   0.0827581   0.0000000), wk =   0.0219479
        k(   52) = (   0.0551720   0.0827581   0.0270104), wk =   0.0438957
        k(   53) = (   0.0551720   0.0827581   0.0540209), wk =   0.0438957
        k(   54) = (   0.0551720   0.0827581   0.0810313), wk =   0.0438957
        k(   55) = (   0.0551720   0.0827581   0.1080418), wk =   0.0438957
        k(   56) = (   0.0551720   0.1103441   0.0000000), wk =   0.0219479
        k(   57) = (   0.0551720   0.1103441   0.0270104), wk =   0.0438957
        k(   58) = (   0.0551720   0.1103441   0.0540209), wk =   0.0438957
        k(   59) = (   0.0551720   0.1103441   0.0810313), wk =   0.0438957
        k(   60) = (   0.0551720   0.1103441   0.1080418), wk =   0.0438957
        k(   61) = (   0.0827581   0.0827581   0.0000000), wk =   0.0109739
        k(   62) = (   0.0827581   0.0827581   0.0270104), wk =   0.0219479
        k(   63) = (   0.0827581   0.0827581   0.0540209), wk =   0.0219479
        k(   64) = (   0.0827581   0.0827581   0.0810313), wk =   0.0219479
        k(   65) = (   0.0827581   0.0827581   0.1080418), wk =   0.0219479
        k(   66) = (   0.0827581   0.1103441   0.0000000), wk =   0.0219479
        k(   67) = (   0.0827581   0.1103441   0.0270104), wk =   0.0438957
        k(   68) = (   0.0827581   0.1103441   0.0540209), wk =   0.0438957
        k(   69) = (   0.0827581   0.1103441   0.0810313), wk =   0.0438957
        k(   70) = (   0.0827581   0.1103441   0.1080418), wk =   0.0438957
        k(   71) = (   0.1103441   0.1103441   0.0000000), wk =   0.0109739
        k(   72) = (   0.1103441   0.1103441   0.0270104), wk =   0.0219479
        k(   73) = (   0.1103441   0.1103441   0.0540209), wk =   0.0219479
        k(   74) = (   0.1103441   0.1103441   0.0810313), wk =   0.0219479
        k(   75) = (   0.1103441   0.1103441   0.1080418), wk =   0.0219479

     Largest allocated arrays     est. size (Mb)     dimensions
     Largest temporary arrays     est. size (Mb)     dimensions

     Initial potential from superposition of free atoms
     Check: negative starting charge=   -0.189120

     starting charge   61.99777, renormalised to   64.00000

     negative rho (up, down):  1.952E-01 0.000E+00

     *
     * You are using vdW-DF for exchange-correlation in this calculation.
     * Please cite the following three references that made this development
     * possible:
     *
     *   M. Dion, H. Rydberg, E. Schroder, D. C. Langreth, and
     *   B. I. Lundqvist, Phys. Rev. Lett. 92, 246401 (2004).
     *
     *   T. Thonhauser, V. R. Cooper, S. Li, A. Puzder, P. Hyldgaard, and
     *   D. C. Langreth, Phys. Rev. B 76, 125112 (2007).
     *
     *   G. Roman-Perez and J. M. Soler, Phys. Rev. Lett. 103, 096102 (2009).
     *
     *
     * If you are using vdW-DF2, please also cite:
     *
     *   K. Lee, E. D. Murray, L. Kong, B. I. Lundqvist, and
     *   D. C. Langreth, Phys. Rev. B 82, 081101(R) (2010).
     *
     *
     * If you are calculating the stress with vdW-DF, please also cite:
     *
     *   R. Sabatini, E. Kucukbenli, B. Kolb, T. Thonhauser, and
     *   S. de Gironcoli, J. Phys.: Condens. Matter 24, 424209 (2012).
     *

     Carrying out vdW-DF run using the following parameters:

     Nqs =      20    Nr_points =    1024   r_max =   100.000
     q_mesh =
               0.00001000     0.04494208     0.09755937     0.15916263
               0.23128650     0.31572767     0.41458969     0.53033537
               0.66584808     0.82450364     1.01025438     1.22772762
               1.48234092     1.78043706     2.12944203     2.53805004
               3.01644009     3.57652955     4.23227104     5.00000000

     Gradients computed in reciprocal space

     Starting wfc are   50 randomized atomic wfcs +    2 random wfc

     Self-consistent Calculation

     iteration #  1     ecut=    58.80 Ry     beta=0.10
     Davidson diagonalization with overlap
     ethr =  1.00E-02,  avg # of iterations =  4.1

[...]

     total energy              =   -1120.16696517 Ry
     Harris-Foulkes estimate   =   -1121.16806715 Ry
     estimated scf accuracy    <       5.65988738 Ry

[...]

     total energy              =   -1119.74800659 Ry
     Harris-Foulkes estimate   =   -1119.74800635 Ry
     estimated scf accuracy    <       0.00000248 Ry

     iteration # 12     ecut=    58.80 Ry     beta=0.10
     Davidson diagonalization with overlap
     ethr =  3.87E-09,  avg # of iterations =  2.3

     negative rho (up, down):  2.019E-01 0.000E+00

     End of self-consistent calculation

          k = 0.0000 0.0000 0.0000 (  3415 PWs)   bands (ev):

   -77.8268 -77.8268 -77.8232 -77.8232 -77.7776 -77.7770 -51.6275 -51.5257
   -18.2497 -18.2497 -18.1483 -17.9637 -17.5453 -17.5453   1.5814   1.6276
     1.7360   1.7420   1.7420   1.8960   1.8960   1.9166   1.9418   2.0674
     5.8568  11.4690  13.3703  14.3300  15.7140  15.7140  15.8460  16.0142
    16.0142  16.1823  19.6577  19.6577  19.8209  21.1522  21.7504  23.4718
    23.9182  24.1129  24.1129  26.4779  26.9879  26.9879  29.2601  29.9096
    30.9377  31.1135  34.9974  34.9981

[...]

          k = 0.1103 0.1103 0.1080 (  3432 PWs)   bands (ev):

   -77.8270 -77.8269 -77.8230 -77.8229 -77.7773 -77.7773 -51.5773 -51.5743
   -18.3528 -18.3328 -18.0735 -18.0676 -17.4966 -17.4741   1.6991   1.7112
     1.7159   1.7192   1.8233   1.8318   1.9057   1.9096   1.9533   1.9610
     9.6558   9.8271  13.1674  13.1981  13.9925  14.3133  15.0425  15.3561
    18.1549  18.1666  18.6818  18.7122  19.8865  19.8867  20.8921  21.0247
    24.8865  25.1002  26.9067  27.5914  29.0373  29.1394  30.0411  30.3367
    31.4200  31.8233  32.5228  32.7331

     the Fermi energy is    17.0067 ev

!    total energy              =   -1119.74801233 Ry
     Harris-Foulkes estimate   =   -1119.74800690 Ry
     estimated scf accuracy    <       0.00000024 Ry

     The total energy is the sum of the following terms:

     one-electron contribution =    -689.64737571 Ry
     hartree contribution      =     379.90649449 Ry
     xc contribution           =    -187.11013719 Ry
     ewald contribution        =    -622.89276650 Ry
     smearing contrib. (-TS)   =      -0.00422742 Ry

     convergence has been achieved in  12 iterations

     Forces acting on atoms (Ry/au):

     negative rho (up, down):  2.019E-01 0.000E+00
     atom    1 type  1   force =     0.00000000    0.00000000    0.00000000
     atom    2 type  1   force =     0.00000000    0.00000000    0.00000000
     atom    3 type  2   force =     0.00000000    0.00000000    0.00000000
     atom    4 type  2   force =     0.00000000    0.00000000    0.00000000

     Total force =     0.000000     Total SCF correction =     0.000000

     General routines

     Parallel routines

   This run was terminated on:  20: 7:55  14Nov2017

   JOB DONE.