     Program PWSCF v.5.1rc2 starts on 14Nov2017 at 14:40:34

     Current dimensions of program PWSCF are:
     Max number of different atomic species (ntypx) = 10
     Max number of k-points (npk) =  40000
     Max angular momentum in pseudopotentials (lmaxx) =  3

     IMPORTANT: XC functional enforced from input :
     Exchange-correlation      = BEEF-VDW ( 1  4 27 13 2)
     Any further DFT definition will be discarded
     Please, verify this is what you really want

     Found symmetry operation: I + ( -0.5000 -0.5000  0.0000)
     This is a supercell, fractional translations are disabled

     bravais-lattice index     =            0
     lattice parameter (alat)  =       1.8897  a.u.
     unit-cell volume          =     474.4615 (a.u.)^3
     number of atoms/cell      =            4
     number of atomic types    =            2
     number of electrons       =        54.00
     number of Kohn-Sham states=           47
     kinetic-energy cutoff     =      58.7989  Ry
     charge density cutoff     =     587.9892  Ry
     convergence threshold     =      1.0E-06
     mixing beta               =       0.1000
     number of iterations used =           10  plain     mixing
     Exchange-correlation      = BEEF-VDW ( 1  4 27 13 2)

     celldm(1)=   1.889726  celldm(2)=   0.000000  celldm(3)=   0.000000
     celldm(4)=   0.000000  celldm(5)=   0.000000  celldm(6)=   0.000000

     crystal axes: (cart. coord. in units of alat)
               a(1) = (   4.622161   0.000000   0.000000 )
               a(2) = (   0.000000   4.622161   0.000000 )
               a(3) = (   0.000000   0.000000   3.290896 )

     reciprocal axes: (cart. coord. in units 2 pi/alat)
               b(1) = (  0.216349  0.000000  0.000000 )
               b(2) = (  0.000000  0.216349  0.000000 )
               b(3) = (  0.000000  0.000000  0.303869 )

     PseudoPot. # 1 for Hf read from file:
     /home/users/vossj/suncat/psp/gbrv1.5pbe/Hf.UPF
     MD5 check sum: 8ee9378dfe14276e333edf04c5e4aa26
     Pseudo is Ultrasoft + core correction, Zval = 12.0
     Generated by new atomic code, or converted to UPF format
     Using radial grid of  921 points,  8 beta functions with:
                l(1) =   0
                l(2) =   0
                l(3) =   0
                l(4) =   1
                l(5) =   1
                l(6) =   2
                l(7) =   2
                l(8) =   3
     Q(r) pseudized with  6 coefficients,  rinner =    1.200   1.200   1.200
                                                       1.200   1.200   1.200
                                                       1.200

     PseudoPot. # 2 for Re read from file:
     /home/users/vossj/suncat/psp/gbrv1.5pbe/Re.UPF
     MD5 check sum: 85f993410f3e006da9d71c142b4ad953
     Pseudo is Ultrasoft + core correction, Zval = 15.0
     Generated by new atomic code, or converted to UPF format
     Using radial grid of  981 points,  8 beta functions with:
                l(1) =   0
                l(2) =   0
                l(3) =   1
                l(4) =   1
                l(5) =   2
                l(6) =   2
                l(7) =   3
                l(8) =   3
     Q(r) pseudized with  8 coefficients,  rinner =    1.150   1.150   1.150
                                                       1.150   1.150   1.150
                                                       1.150

     vdW kernel table read from file vdW_kernel_table
     MD5 check sum: 095c7af220d748ca6e76c0b4c6cfb241

     atomic species   valence    mass     pseudopotential
        Hf1           12.00   178.49000     Hf( 1.00)
        Re1           15.00   186.20700     Re( 1.00)

     16 Sym. Ops., with inversion, found

   Cartesian axes

     site n.     atom                  positions (alat units)
         1           Hf1 tau(   1) = (   0.0000000   0.0000000   0.0000000  )
         2           Hf1 tau(   2) = (   2.3110805   2.3110805   0.0000000  )
         3           Re1 tau(   3) = (   2.3110805   0.0000000   1.6454481  )
         4           Re1 tau(   4) = (   0.0000000   2.3110805   1.6454481  )

     number of k points=    75  Fermi-Dirac smearing, width (Ry)=  0.0073
                       cart. coord. in units 2pi/alat
        k(    1) = (   0.0000000   0.0000000   0.0000000), wk =   0.0027435
        k(    2) = (   0.0000000   0.0000000   0.0337632), wk =   0.0054870
        k(    3) = (   0.0000000   0.0000000   0.0675264), wk =   0.0054870
        k(    4) = (   0.0000000   0.0000000   0.1012895), wk =   0.0054870
        k(    5) = (   0.0000000   0.0000000   0.1350527), wk =   0.0054870
        k(    6) = (   0.0000000   0.0240388   0.0000000), wk =   0.0109739
        k(    7) = (   0.0000000   0.0240388   0.0337632), wk =   0.0219479
        k(    8) = (   0.0000000   0.0240388   0.0675264), wk =   0.0219479
        k(    9) = (   0.0000000   0.0240388   0.1012895), wk =   0.0219479
        k(   10) = (   0.0000000   0.0240388   0.1350527), wk =   0.0219479
        k(   11) = (   0.0000000   0.0480776   0.0000000), wk =   0.0109739
        k(   12) = (   0.0000000   0.0480776   0.0337632), wk =   0.0219479
        k(   13) = (   0.0000000   0.0480776   0.0675264), wk =   0.0219479
        k(   14) = (   0.0000000   0.0480776   0.1012895), wk =   0.0219479
        k(   15) = (   0.0000000   0.0480776   0.1350527), wk =   0.0219479
        k(   16) = (   0.0000000   0.0721163   0.0000000), wk =   0.0109739
        k(   17) = (   0.0000000   0.0721163   0.0337632), wk =   0.0219479
        k(   18) = (   0.0000000   0.0721163   0.0675264), wk =   0.0219479
        k(   19) = (   0.0000000   0.0721163   0.1012895), wk =   0.0219479
        k(   20) = (   0.0000000   0.0721163   0.1350527), wk =   0.0219479
        k(   21) = (   0.0000000   0.0961551   0.0000000), wk =   0.0109739
        k(   22) = (   0.0000000   0.0961551   0.0337632), wk =   0.0219479
        k(   23) = (   0.0000000   0.0961551   0.0675264), wk =   0.0219479
        k(   24) = (   0.0000000   0.0961551   0.1012895), wk =   0.0219479
        k(   25) = (   0.0000000   0.0961551   0.1350527), wk =   0.0219479
        k(   26) = (   0.0240388   0.0240388   0.0000000), wk =   0.0109739
        k(   27) = (   0.0240388   0.0240388   0.0337632), wk =   0.0219479
        k(   28) = (   0.0240388   0.0240388   0.0675264), wk =   0.0219479
        k(   29) = (   0.0240388   0.0240388   0.1012895), wk =   0.0219479
        k(   30) = (   0.0240388   0.0240388   0.1350527), wk =   0.0219479
        k(   31) = (   0.0240388   0.0480776   0.0000000), wk =   0.0219479
        k(   32) = (   0.0240388   0.0480776   0.0337632), wk =   0.0438957
        k(   33) = (   0.0240388   0.0480776   0.0675264), wk =   0.0438957
        k(   34) = (   0.0240388   0.0480776   0.1012895), wk =   0.0438957
        k(   35) = (   0.0240388   0.0480776   0.1350527), wk =   0.0438957
        k(   36) = (   0.0240388   0.0721163   0.0000000), wk =   0.0219479
        k(   37) = (   0.0240388   0.0721163   0.0337632), wk =   0.0438957
        k(   38) = (   0.0240388   0.0721163   0.0675264), wk =   0.0438957
        k(   39) = (   0.0240388   0.0721163   0.1012895), wk =   0.0438957
        k(   40) = (   0.0240388   0.0721163   0.1350527), wk =   0.0438957
        k(   41) = (   0.0240388   0.0961551   0.0000000), wk =   0.0219479
        k(   42) = (   0.0240388   0.0961551   0.0337632), wk =   0.0438957
        k(   43) = (   0.0240388   0.0961551   0.0675264), wk =   0.0438957
        k(   44) = (   0.0240388   0.0961551   0.1012895), wk =   0.0438957
        k(   45) = (   0.0240388   0.0961551   0.1350527), wk =   0.0438957
        k(   46) = (   0.0480776   0.0480776   0.0000000), wk =   0.0109739
        k(   47) = (   0.0480776   0.0480776   0.0337632), wk =   0.0219479
        k(   48) = (   0.0480776   0.0480776   0.0675264), wk =   0.0219479
        k(   49) = (   0.0480776   0.0480776   0.1012895), wk =   0.0219479
        k(   50) = (   0.0480776   0.0480776   0.1350527), wk =   0.0219479
        k(   51) = (   0.0480776   0.0721163   0.0000000), wk =   0.0219479
        k(   52) = (   0.0480776   0.0721163   0.0337632), wk =   0.0438957
        k(   53) = (   0.0480776   0.0721163   0.0675264), wk =   0.0438957
        k(   54) = (   0.0480776   0.0721163   0.1012895), wk =   0.0438957
        k(   55) = (   0.0480776   0.0721163   0.1350527), wk =   0.0438957
        k(   56) = (   0.0480776   0.0961551   0.0000000), wk =   0.0219479
        k(   57) = (   0.0480776   0.0961551   0.0337632), wk =   0.0438957
        k(   58) = (   0.0480776   0.0961551   0.0675264), wk =   0.0438957
        k(   59) = (   0.0480776   0.0961551   0.1012895), wk =   0.0438957
        k(   60) = (   0.0480776   0.0961551   0.1350527), wk =   0.0438957
        k(   61) = (   0.0721163   0.0721163   0.0000000), wk =   0.0109739
        k(   62) = (   0.0721163   0.0721163   0.0337632), wk =   0.0219479
        k(   63) = (   0.0721163   0.0721163   0.0675264), wk =   0.0219479
        k(   64) = (   0.0721163   0.0721163   0.1012895), wk =   0.0219479
        k(   65) = (   0.0721163   0.0721163   0.1350527), wk =   0.0219479
        k(   66) = (   0.0721163   0.0961551   0.0000000), wk =   0.0219479
        k(   67) = (   0.0721163   0.0961551   0.0337632), wk =   0.0438957
        k(   68) = (   0.0721163   0.0961551   0.0675264), wk =   0.0438957
        k(   69) = (   0.0721163   0.0961551   0.1012895), wk =   0.0438957
        k(   70) = (   0.0721163   0.0961551   0.1350527), wk =   0.0438957
        k(   71) = (   0.0961551   0.0961551   0.0000000), wk =   0.0109739
        k(   72) = (   0.0961551   0.0961551   0.0337632), wk =   0.0219479
        k(   73) = (   0.0961551   0.0961551   0.0675264), wk =   0.0219479
        k(   74) = (   0.0961551   0.0961551   0.1012895), wk =   0.0219479
        k(   75) = (   0.0961551   0.0961551   0.1350527), wk =   0.0219479

     Largest allocated arrays     est. size (Mb)     dimensions
     Largest temporary arrays     est. size (Mb)     dimensions

     Initial potential from superposition of free atoms
     Check: negative starting charge=   -0.473779

     starting charge   48.99991, renormalised to   54.00000

     negative rho (up, down):  5.221E-01 0.000E+00

     *
     * You are using vdW-DF for exchange-correlation in this calculation.
     * Please cite the following three references that made this development
     * possible:
     *
     *   M. Dion, H. Rydberg, E. Schroder, D. C. Langreth, and
     *   B. I. Lundqvist, Phys. Rev. Lett. 92, 246401 (2004).
     *
     *   T. Thonhauser, V. R. Cooper, S. Li, A. Puzder, P. Hyldgaard, and
     *   D. C. Langreth, Phys. Rev. B 76, 125112 (2007).
     *
     *   G. Roman-Perez and J. M. Soler, Phys. Rev. Lett. 103, 096102 (2009).
     *
     *
     * If you are using vdW-DF2, please also cite:
     *
     *   K. Lee, E. D. Murray, L. Kong, B. I. Lundqvist, and
     *   D. C. Langreth, Phys. Rev. B 82, 081101(R) (2010).
     *
     *
     * If you are calculating the stress with vdW-DF, please also cite:
     *
     *   R. Sabatini, E. Kucukbenli, B. Kolb, T. Thonhauser, and
     *   S. de Gironcoli, J. Phys.: Condens. Matter 24, 424209 (2012).
     *

     Carrying out vdW-DF run using the following parameters:

     Nqs =      20    Nr_points =    1024   r_max =   100.000
     q_mesh =
               0.00001000     0.04494208     0.09755937     0.15916263
               0.23128650     0.31572767     0.41458969     0.53033537
               0.66584808     0.82450364     1.01025438     1.22772762
               1.48234092     1.78043706     2.12944203     2.53805004
               3.01644009     3.57652955     4.23227104     5.00000000

     Gradients computed in reciprocal space

     Starting wfc are   52 randomized atomic wfcs

     Self-consistent Calculation

     iteration #  1     ecut=    58.80 Ry     beta=0.10
     Davidson diagonalization with overlap
     ethr =  1.00E-02,  avg # of iterations =  4.8

[...]

     total energy              =    -706.70919407 Ry
     Harris-Foulkes estimate   =    -707.26892655 Ry
     estimated scf accuracy    <       3.97174731 Ry

[...]

     total energy              =    -705.70993447 Ry
     Harris-Foulkes estimate   =    -705.70993474 Ry
     estimated scf accuracy    <       0.00000102 Ry

     iteration # 14     ecut=    58.80 Ry     beta=0.10
     Davidson diagonalization with overlap
     ethr =  1.89E-09,  avg # of iterations =  2.0

     negative rho (up, down):  5.046E-01 0.000E+00

     End of self-consistent calculation

          k = 0.0000 0.0000 0.0000 (  3595 PWs)   bands (ev):

   -60.8708 -60.8639 -42.4770 -42.4504 -22.6551 -22.6551 -22.5532 -22.5502
   -22.5502 -22.5276 -11.2160 -11.2160 -10.9505 -10.9415 -10.9415 -10.9095
    10.8055  14.0766  14.3222  14.6786  14.6936  16.6844  16.6844  18.6358
    18.6358  18.7046  20.3924  20.3924  21.1120  21.1396  22.4347  22.5452
    23.2348  25.5833  25.7388  25.7528  25.7528  26.2611  26.2611  27.3459
    27.5238  27.5238  30.2158  30.8393  30.8393  30.9544  33.7393

[...]

          k = 0.0962 0.0962 0.1351 (  3577 PWs)   bands (ev):

   -60.8644 -60.8642 -42.4524 -42.4516 -22.6553 -22.6524 -22.6467 -22.6463
   -22.5295 -22.5265 -11.2213 -11.2131 -11.1996 -11.1978 -10.9138 -10.9046
    14.1115  14.1683  14.3995  14.4224  16.7897  16.8031  16.8124  16.8881
    19.6849  19.7666  19.7904  20.0940  21.0805  21.1900  21.4393  21.6322
    22.9037  23.0400  25.5157  25.5582  25.8577  26.2178  26.2277  26.3487
    30.0767  30.1605  30.7052  30.9919  31.1044  31.1103  31.2829

     the Fermi energy is    18.6787 ev

!    total energy              =    -705.70993561 Ry
     Harris-Foulkes estimate   =    -705.70993476 Ry
     estimated scf accuracy    <       0.00000055 Ry

     The total energy is the sum of the following terms:

     one-electron contribution =     -79.88540399 Ry
     hartree contribution      =      69.09738937 Ry
     xc contribution           =    -263.39349837 Ry
     ewald contribution        =    -431.52075863 Ry
     smearing contrib. (-TS)   =      -0.00766398 Ry

     convergence has been achieved in  14 iterations

     Forces acting on atoms (Ry/au):

     negative rho (up, down):  5.046E-01 0.000E+00
     atom    1 type  1   force =     0.00000000    0.00000000    0.00000000
     atom    2 type  1   force =     0.00000000    0.00000000    0.00000000
     atom    3 type  2   force =     0.00000000    0.00000000    0.00000000
     atom    4 type  2   force =     0.00000000    0.00000000    0.00000000

     Total force =     0.000000     Total SCF correction =     0.000000

     General routines

     Parallel routines

   This run was terminated on:  14:41:25  14Nov2017

   JOB DONE.