     Program PWSCF v.5.1rc2 starts on 15Nov2017 at  4: 4:56

     Current dimensions of program PWSCF are:
     Max number of different atomic species (ntypx) = 10
     Max number of k-points (npk) =  40000
     Max angular momentum in pseudopotentials (lmaxx) =  3

     IMPORTANT: XC functional enforced from input :
     Exchange-correlation      = BEEF-VDW ( 1  4 27 13 2)
     Any further DFT definition will be discarded
     Please, verify this is what you really want

     Found symmetry operation: I + (  0.5000  0.5000  0.0000)
     This is a supercell, fractional translations are disabled

     bravais-lattice index     =            0
     lattice parameter (alat)  =       1.8897  a.u.
     unit-cell volume          =     549.7511 (a.u.)^3
     number of atoms/cell      =            4
     number of atomic types    =            2
     number of electrons       =        48.00
     number of Kohn-Sham states=           44
     kinetic-energy cutoff     =      58.7989  Ry
     charge density cutoff     =     587.9892  Ry
     convergence threshold     =      1.0E-06
     mixing beta               =       0.1000
     number of iterations used =           10  plain     mixing
     Exchange-correlation      = BEEF-VDW ( 1  4 27 13 2)

     celldm(1)=   1.889726  celldm(2)=   0.000000  celldm(3)=   0.000000
     celldm(4)=   0.000000  celldm(5)=   0.000000  celldm(6)=   0.000000

     crystal axes: (cart. coord. in units of alat)
               a(1) = (   4.062424   0.000000   0.000000 )
               a(2) = (   0.000000   4.062424   0.000000 )
               a(3) = (   0.000000   0.000000   4.936272 )

     reciprocal axes: (cart. coord. in units 2 pi/alat)
               b(1) = (  0.246158  0.000000  0.000000 )
               b(2) = (  0.000000  0.246158  0.000000 )
               b(3) = (  0.000000  0.000000  0.202582 )

     PseudoPot. # 1 for Sc read from file:
     /home/users/vossj/suncat/psp/gbrv1.5pbe/Sc.UPF
     MD5 check sum: db30a2753ba66ef00f23801d899b7e7f
     Pseudo is Ultrasoft + core correction, Zval = 11.0
     Generated by new atomic code, or converted to UPF format
     Using radial grid of  849 points,  6 beta functions with:
                l(1) =   0
                l(2) =   0
                l(3) =   1
                l(4) =   1
                l(5) =   2
                l(6) =   2
     Q(r) pseudized with  6 coefficients,  rinner =    1.200   1.200   1.200
                                                       1.200   1.200

     PseudoPot. # 2 for Ta read from file:
     /home/users/vossj/suncat/psp/gbrv1.5pbe/Ta.UPF
     MD5 check sum: f8bbe9446314a3b8ea5d9f3e3836c939
     Pseudo is Ultrasoft + core correction, Zval = 13.0
     Generated by new atomic code, or converted to UPF format
     Using radial grid of  921 points,  7 beta functions with:
                l(1) =   0
                l(2) =   0
                l(3) =   1
                l(4) =   1
                l(5) =   2
                l(6) =   2
                l(7) =   3
     Q(r) pseudized with  6 coefficients,  rinner =    1.300   1.300   1.300
                                                       1.300   1.300   1.300
                                                       1.300

     vdW kernel table read from file vdW_kernel_table
     MD5 check sum: 095c7af220d748ca6e76c0b4c6cfb241

     atomic species   valence    mass     pseudopotential
        Sc1           11.00    44.95590     Sc( 1.00)
        Ta1           13.00   180.94790     Ta( 1.00)

     16 Sym. Ops., with inversion, found

   Cartesian axes

     site n.     atom                  positions (alat units)
         1           Sc1 tau(   1) = (   0.0000000   0.0000000   0.0000000  )
         2           Sc1 tau(   2) = (   2.0312118   2.0312118   0.0000000  )
         3           Ta1 tau(   3) = (   2.0312118   0.0000000   2.4681362  )
         4           Ta1 tau(   4) = (   0.0000000   2.0312118   2.4681362  )

     number of k points=    75  Fermi-Dirac smearing, width (Ry)=  0.0073
                       cart. coord. in units 2pi/alat
        k(    1) = (   0.0000000   0.0000000   0.0000000), wk =   0.0027435
        k(    2) = (   0.0000000   0.0000000   0.0225091), wk =   0.0054870
        k(    3) = (   0.0000000   0.0000000   0.0450182), wk =   0.0054870
        k(    4) = (   0.0000000   0.0000000   0.0675273), wk =   0.0054870
        k(    5) = (   0.0000000   0.0000000   0.0900365), wk =   0.0054870
        k(    6) = (   0.0000000   0.0273509   0.0000000), wk =   0.0109739
        k(    7) = (   0.0000000   0.0273509   0.0225091), wk =   0.0219479
        k(    8) = (   0.0000000   0.0273509   0.0450182), wk =   0.0219479
        k(    9) = (   0.0000000   0.0273509   0.0675273), wk =   0.0219479
        k(   10) = (   0.0000000   0.0273509   0.0900365), wk =   0.0219479
        k(   11) = (   0.0000000   0.0547019   0.0000000), wk =   0.0109739
        k(   12) = (   0.0000000   0.0547019   0.0225091), wk =   0.0219479
        k(   13) = (   0.0000000   0.0547019   0.0450182), wk =   0.0219479
        k(   14) = (   0.0000000   0.0547019   0.0675273), wk =   0.0219479
        k(   15) = (   0.0000000   0.0547019   0.0900365), wk =   0.0219479
        k(   16) = (   0.0000000   0.0820528   0.0000000), wk =   0.0109739
        k(   17) = (   0.0000000   0.0820528   0.0225091), wk =   0.0219479
        k(   18) = (   0.0000000   0.0820528   0.0450182), wk =   0.0219479
        k(   19) = (   0.0000000   0.0820528   0.0675273), wk =   0.0219479
        k(   20) = (   0.0000000   0.0820528   0.0900365), wk =   0.0219479
        k(   21) = (   0.0000000   0.1094038   0.0000000), wk =   0.0109739
        k(   22) = (   0.0000000   0.1094038   0.0225091), wk =   0.0219479
        k(   23) = (   0.0000000   0.1094038   0.0450182), wk =   0.0219479
        k(   24) = (   0.0000000   0.1094038   0.0675273), wk =   0.0219479
        k(   25) = (   0.0000000   0.1094038   0.0900365), wk =   0.0219479
        k(   26) = (   0.0273509   0.0273509   0.0000000), wk =   0.0109739
        k(   27) = (   0.0273509   0.0273509   0.0225091), wk =   0.0219479
        k(   28) = (   0.0273509   0.0273509   0.0450182), wk =   0.0219479
        k(   29) = (   0.0273509   0.0273509   0.0675273), wk =   0.0219479
        k(   30) = (   0.0273509   0.0273509   0.0900365), wk =   0.0219479
        k(   31) = (   0.0273509   0.0547019   0.0000000), wk =   0.0219479
        k(   32) = (   0.0273509   0.0547019   0.0225091), wk =   0.0438957
        k(   33) = (   0.0273509   0.0547019   0.0450182), wk =   0.0438957
        k(   34) = (   0.0273509   0.0547019   0.0675273), wk =   0.0438957
        k(   35) = (   0.0273509   0.0547019   0.0900365), wk =   0.0438957
        k(   36) = (   0.0273509   0.0820528   0.0000000), wk =   0.0219479
        k(   37) = (   0.0273509   0.0820528   0.0225091), wk =   0.0438957
        k(   38) = (   0.0273509   0.0820528   0.0450182), wk =   0.0438957
        k(   39) = (   0.0273509   0.0820528   0.0675273), wk =   0.0438957
        k(   40) = (   0.0273509   0.0820528   0.0900365), wk =   0.0438957
        k(   41) = (   0.0273509   0.1094038   0.0000000), wk =   0.0219479
        k(   42) = (   0.0273509   0.1094038   0.0225091), wk =   0.0438957
        k(   43) = (   0.0273509   0.1094038   0.0450182), wk =   0.0438957
        k(   44) = (   0.0273509   0.1094038   0.0675273), wk =   0.0438957
        k(   45) = (   0.0273509   0.1094038   0.0900365), wk =   0.0438957
        k(   46) = (   0.0547019   0.0547019   0.0000000), wk =   0.0109739
        k(   47) = (   0.0547019   0.0547019   0.0225091), wk =   0.0219479
        k(   48) = (   0.0547019   0.0547019   0.0450182), wk =   0.0219479
        k(   49) = (   0.0547019   0.0547019   0.0675273), wk =   0.0219479
        k(   50) = (   0.0547019   0.0547019   0.0900365), wk =   0.0219479
        k(   51) = (   0.0547019   0.0820528   0.0000000), wk =   0.0219479
        k(   52) = (   0.0547019   0.0820528   0.0225091), wk =   0.0438957
        k(   53) = (   0.0547019   0.0820528   0.0450182), wk =   0.0438957
        k(   54) = (   0.0547019   0.0820528   0.0675273), wk =   0.0438957
        k(   55) = (   0.0547019   0.0820528   0.0900365), wk =   0.0438957
        k(   56) = (   0.0547019   0.1094038   0.0000000), wk =   0.0219479
        k(   57) = (   0.0547019   0.1094038   0.0225091), wk =   0.0438957
        k(   58) = (   0.0547019   0.1094038   0.0450182), wk =   0.0438957
        k(   59) = (   0.0547019   0.1094038   0.0675273), wk =   0.0438957
        k(   60) = (   0.0547019   0.1094038   0.0900365), wk =   0.0438957
        k(   61) = (   0.0820528   0.0820528   0.0000000), wk =   0.0109739
        k(   62) = (   0.0820528   0.0820528   0.0225091), wk =   0.0219479
        k(   63) = (   0.0820528   0.0820528   0.0450182), wk =   0.0219479
        k(   64) = (   0.0820528   0.0820528   0.0675273), wk =   0.0219479
        k(   65) = (   0.0820528   0.0820528   0.0900365), wk =   0.0219479
        k(   66) = (   0.0820528   0.1094038   0.0000000), wk =   0.0219479
        k(   67) = (   0.0820528   0.1094038   0.0225091), wk =   0.0438957
        k(   68) = (   0.0820528   0.1094038   0.0450182), wk =   0.0438957
        k(   69) = (   0.0820528   0.1094038   0.0675273), wk =   0.0438957
        k(   70) = (   0.0820528   0.1094038   0.0900365), wk =   0.0438957
        k(   71) = (   0.1094038   0.1094038   0.0000000), wk =   0.0109739
        k(   72) = (   0.1094038   0.1094038   0.0225091), wk =   0.0219479
        k(   73) = (   0.1094038   0.1094038   0.0450182), wk =   0.0219479
        k(   74) = (   0.1094038   0.1094038   0.0675273), wk =   0.0219479
        k(   75) = (   0.1094038   0.1094038   0.0900365), wk =   0.0219479

     Largest allocated arrays     est. size (Mb)     dimensions
     Largest temporary arrays     est. size (Mb)     dimensions

     Initial potential from superposition of free atoms
     Check: negative starting charge=   -0.186565

     starting charge   47.99297, renormalised to   48.00000

     negative rho (up, down):  1.866E-01 0.000E+00

     *
     * You are using vdW-DF for exchange-correlation in this calculation.
     * Please cite the following three references that made this development
     * possible:
     *
     *   M. Dion, H. Rydberg, E. Schroder, D. C. Langreth, and
     *   B. I. Lundqvist, Phys. Rev. Lett. 92, 246401 (2004).
     *
     *   T. Thonhauser, V. R. Cooper, S. Li, A. Puzder, P. Hyldgaard, and
     *   D. C. Langreth, Phys. Rev. B 76, 125112 (2007).
     *
     *   G. Roman-Perez and J. M. Soler, Phys. Rev. Lett. 103, 096102 (2009).
     *
     *
     * If you are using vdW-DF2, please also cite:
     *
     *   K. Lee, E. D. Murray, L. Kong, B. I. Lundqvist, and
     *   D. C. Langreth, Phys. Rev. B 82, 081101(R) (2010).
     *
     *
     * If you are calculating the stress with vdW-DF, please also cite:
     *
     *   R. Sabatini, E. Kucukbenli, B. Kolb, T. Thonhauser, and
     *   S. de Gironcoli, J. Phys.: Condens. Matter 24, 424209 (2012).
     *

     Carrying out vdW-DF run using the following parameters:

     Nqs =      20    Nr_points =    1024   r_max =   100.000
     q_mesh =
               0.00001000     0.04494208     0.09755937     0.15916263
               0.23128650     0.31572767     0.41458969     0.53033537
               0.66584808     0.82450364     1.01025438     1.22772762
               1.48234092     1.78043706     2.12944203     2.53805004
               3.01644009     3.57652955     4.23227104     5.00000000

     Gradients computed in reciprocal space

     Starting wfc are   52 randomized atomic wfcs

     Self-consistent Calculation

     iteration #  1     ecut=    58.80 Ry     beta=0.10
     Davidson diagonalization with overlap
     ethr =  1.00E-02,  avg # of iterations =  3.2

     Threshold (ethr) on eigenvalues was too large:
     Diagonalizing with lowered threshold

     Davidson diagonalization with overlap
     ethr =  1.52E-04,  avg # of iterations =  3.7

[...]

     total energy              =    -476.13990112 Ry
     Harris-Foulkes estimate   =    -476.14782009 Ry
     estimated scf accuracy    <       0.07709956 Ry

[...]

     total energy              =    -476.13903967 Ry
     Harris-Foulkes estimate   =    -476.13904380 Ry
     estimated scf accuracy    <       0.00000562 Ry

     iteration #  9     ecut=    58.80 Ry     beta=0.10
     Davidson diagonalization with overlap
     ethr =  1.17E-08,  avg # of iterations =  2.0

     negative rho (up, down):  1.995E-01 0.000E+00

     End of self-consistent calculation

          k = 0.0000 0.0000 0.0000 (  4211 PWs)   bands (ev):

   -54.2663 -54.1756 -35.6977 -35.5270 -20.8863 -20.8863 -20.6288 -20.4570
   -20.2430 -20.2430 -14.5730 -14.5730 -14.1529 -14.0171 -14.0171 -14.0070
     7.0793  10.4460  10.6587  11.2446  11.6653  11.9077  11.9077  14.0621
    14.5108  15.6135  15.7998  15.7998  17.6164  17.6164  17.8359  17.8359
    17.9612  18.0370  18.0613  18.8404  18.8404  19.0743  19.1434  21.0438
    22.5593  22.7804  23.0719  24.5563

[...]

          k = 0.1094 0.1094 0.0900 (  4180 PWs)   bands (ev):

   -54.2218 -54.2191 -35.6132 -35.6080 -20.9794 -20.9611 -20.5440 -20.5391
   -20.2002 -20.1797 -14.6628 -14.6468 -14.0821 -14.0771 -13.9778 -13.9602
    10.3562  10.5097  10.8521  10.8850  13.3137  13.4121  14.1880  14.2234
    14.3012  14.3773  14.5596  14.5877  15.6927  15.6969  15.8026  15.8991
    18.0642  18.1737  18.3370  18.4052  18.4970  18.5892  18.7527  18.7774
    22.7730  22.8123  23.2298  23.4261

     the Fermi energy is    13.6642 ev

!    total energy              =    -476.13905656 Ry
     Harris-Foulkes estimate   =    -476.13904050 Ry
     estimated scf accuracy    <       0.00000056 Ry

     The total energy is the sum of the following terms:

     one-electron contribution =    -109.48950083 Ry
     hartree contribution      =      71.26292506 Ry
     xc contribution           =    -115.13118474 Ry
     ewald contribution        =    -322.76901287 Ry
     smearing contrib. (-TS)   =      -0.01228318 Ry

     convergence has been achieved in   9 iterations

     Forces acting on atoms (Ry/au):

     negative rho (up, down):  1.995E-01 0.000E+00
     atom    1 type  1   force =     0.00000000    0.00000000    0.00000000
     atom    2 type  1   force =     0.00000000    0.00000000    0.00000000
     atom    3 type  2   force =     0.00000000    0.00000000    0.00000000
     atom    4 type  2   force =     0.00000000    0.00000000    0.00000000

     Total force =     0.000000     Total SCF correction =     0.000000

     General routines

     Parallel routines

   This run was terminated on:   4: 5:28  15Nov2017

   JOB DONE.