     Program PWSCF v.5.1rc2 starts on 15Nov2017 at  8:43: 0

     Current dimensions of program PWSCF are:
     Max number of different atomic species (ntypx) = 10
     Max number of k-points (npk) =  40000
     Max angular momentum in pseudopotentials (lmaxx) =  3

     IMPORTANT: XC functional enforced from input :
     Exchange-correlation      = BEEF-VDW ( 1  4 27 13 2)
     Any further DFT definition will be discarded
     Please, verify this is what you really want

     Found symmetry operation: I + ( -0.5000 -0.5000  0.0000)
     This is a supercell, fractional translations are disabled

     bravais-lattice index     =            0
     lattice parameter (alat)  =       1.8897  a.u.
     unit-cell volume          =     677.0837 (a.u.)^3
     number of atoms/cell      =            4
     number of atomic types    =            2
     number of electrons       =        48.00
     number of Kohn-Sham states=           44
     kinetic-energy cutoff     =      58.7989  Ry
     charge density cutoff     =     587.9892  Ry
     convergence threshold     =      1.0E-06
     mixing beta               =       0.1000
     number of iterations used =           10  plain     mixing
     Exchange-correlation      = BEEF-VDW ( 1  4 27 13 2)

     celldm(1)=   1.889726  celldm(2)=   0.000000  celldm(3)=   0.000000
     celldm(4)=   0.000000  celldm(5)=   0.000000  celldm(6)=   0.000000

     crystal axes: (cart. coord. in units of alat)
               a(1) = (   4.388248   0.000000   0.000000 )
               a(2) = (   0.000000   4.388248   0.000000 )
               a(3) = (   0.000000   0.000000   5.210308 )

     reciprocal axes: (cart. coord. in units 2 pi/alat)
               b(1) = (  0.227881  0.000000  0.000000 )
               b(2) = (  0.000000  0.227881  0.000000 )
               b(3) = (  0.000000  0.000000  0.191927 )

     PseudoPot. # 1 for La read from file:
     /home/users/vossj/suncat/psp/gbrv1.5pbe/La.UPF
     MD5 check sum: 5937b0c7494ba0601a847275249473aa
     Pseudo is Ultrasoft + core correction, Zval = 11.0
     Generated by new atomic code, or converted to UPF format
     Using radial grid of  995 points,  8 beta functions with:
                l(1) =   0
                l(2) =   0
                l(3) =   1
                l(4) =   1
                l(5) =   2
                l(6) =   2
                l(7) =   3
                l(8) =   3
     Q(r) pseudized with  8 coefficients,  rinner =    1.700   1.700   1.700
                                                       1.700   1.700   1.700
                                                       1.700

     PseudoPot. # 2 for Ta read from file:
     /home/users/vossj/suncat/psp/gbrv1.5pbe/Ta.UPF
     MD5 check sum: f8bbe9446314a3b8ea5d9f3e3836c939
     Pseudo is Ultrasoft + core correction, Zval = 13.0
     Generated by new atomic code, or converted to UPF format
     Using radial grid of  921 points,  7 beta functions with:
                l(1) =   0
                l(2) =   0
                l(3) =   1
                l(4) =   1
                l(5) =   2
                l(6) =   2
                l(7) =   3
     Q(r) pseudized with  6 coefficients,  rinner =    1.300   1.300   1.300
                                                       1.300   1.300   1.300
                                                       1.300

     vdW kernel table read from file vdW_kernel_table
     MD5 check sum: 095c7af220d748ca6e76c0b4c6cfb241

     atomic species   valence    mass     pseudopotential
        La1           11.00   138.90550     La( 1.00)
        Ta1           13.00   180.94790     Ta( 1.00)

     16 Sym. Ops., with inversion, found

   Cartesian axes

     site n.     atom                  positions (alat units)
         1           La1 tau(   1) = (   0.0000000   0.0000000   0.0000000  )
         2           La1 tau(   2) = (   2.1941241   2.1941241   0.0000000  )
         3           Ta1 tau(   3) = (   2.1941241   0.0000000   2.6051538  )
         4           Ta1 tau(   4) = (   0.0000000   2.1941241   2.6051538  )

     number of k points=    75  Fermi-Dirac smearing, width (Ry)=  0.0073
                       cart. coord. in units 2pi/alat
        k(    1) = (   0.0000000   0.0000000   0.0000000), wk =   0.0027435
        k(    2) = (   0.0000000   0.0000000   0.0213252), wk =   0.0054870
        k(    3) = (   0.0000000   0.0000000   0.0426505), wk =   0.0054870
        k(    4) = (   0.0000000   0.0000000   0.0639757), wk =   0.0054870
        k(    5) = (   0.0000000   0.0000000   0.0853010), wk =   0.0054870
        k(    6) = (   0.0000000   0.0253202   0.0000000), wk =   0.0109739
        k(    7) = (   0.0000000   0.0253202   0.0213252), wk =   0.0219479
        k(    8) = (   0.0000000   0.0253202   0.0426505), wk =   0.0219479
        k(    9) = (   0.0000000   0.0253202   0.0639757), wk =   0.0219479
        k(   10) = (   0.0000000   0.0253202   0.0853010), wk =   0.0219479
        k(   11) = (   0.0000000   0.0506403   0.0000000), wk =   0.0109739
        k(   12) = (   0.0000000   0.0506403   0.0213252), wk =   0.0219479
        k(   13) = (   0.0000000   0.0506403   0.0426505), wk =   0.0219479
        k(   14) = (   0.0000000   0.0506403   0.0639757), wk =   0.0219479
        k(   15) = (   0.0000000   0.0506403   0.0853010), wk =   0.0219479
        k(   16) = (   0.0000000   0.0759605   0.0000000), wk =   0.0109739
        k(   17) = (   0.0000000   0.0759605   0.0213252), wk =   0.0219479
        k(   18) = (   0.0000000   0.0759605   0.0426505), wk =   0.0219479
        k(   19) = (   0.0000000   0.0759605   0.0639757), wk =   0.0219479
        k(   20) = (   0.0000000   0.0759605   0.0853010), wk =   0.0219479
        k(   21) = (   0.0000000   0.1012806   0.0000000), wk =   0.0109739
        k(   22) = (   0.0000000   0.1012806   0.0213252), wk =   0.0219479
        k(   23) = (   0.0000000   0.1012806   0.0426505), wk =   0.0219479
        k(   24) = (   0.0000000   0.1012806   0.0639757), wk =   0.0219479
        k(   25) = (   0.0000000   0.1012806   0.0853010), wk =   0.0219479
        k(   26) = (   0.0253202   0.0253202   0.0000000), wk =   0.0109739
        k(   27) = (   0.0253202   0.0253202   0.0213252), wk =   0.0219479
        k(   28) = (   0.0253202   0.0253202   0.0426505), wk =   0.0219479
        k(   29) = (   0.0253202   0.0253202   0.0639757), wk =   0.0219479
        k(   30) = (   0.0253202   0.0253202   0.0853010), wk =   0.0219479
        k(   31) = (   0.0253202   0.0506403   0.0000000), wk =   0.0219479
        k(   32) = (   0.0253202   0.0506403   0.0213252), wk =   0.0438957
        k(   33) = (   0.0253202   0.0506403   0.0426505), wk =   0.0438957
        k(   34) = (   0.0253202   0.0506403   0.0639757), wk =   0.0438957
        k(   35) = (   0.0253202   0.0506403   0.0853010), wk =   0.0438957
        k(   36) = (   0.0253202   0.0759605   0.0000000), wk =   0.0219479
        k(   37) = (   0.0253202   0.0759605   0.0213252), wk =   0.0438957
        k(   38) = (   0.0253202   0.0759605   0.0426505), wk =   0.0438957
        k(   39) = (   0.0253202   0.0759605   0.0639757), wk =   0.0438957
        k(   40) = (   0.0253202   0.0759605   0.0853010), wk =   0.0438957
        k(   41) = (   0.0253202   0.1012806   0.0000000), wk =   0.0219479
        k(   42) = (   0.0253202   0.1012806   0.0213252), wk =   0.0438957
        k(   43) = (   0.0253202   0.1012806   0.0426505), wk =   0.0438957
        k(   44) = (   0.0253202   0.1012806   0.0639757), wk =   0.0438957
        k(   45) = (   0.0253202   0.1012806   0.0853010), wk =   0.0438957
        k(   46) = (   0.0506403   0.0506403   0.0000000), wk =   0.0109739
        k(   47) = (   0.0506403   0.0506403   0.0213252), wk =   0.0219479
        k(   48) = (   0.0506403   0.0506403   0.0426505), wk =   0.0219479
        k(   49) = (   0.0506403   0.0506403   0.0639757), wk =   0.0219479
        k(   50) = (   0.0506403   0.0506403   0.0853010), wk =   0.0219479
        k(   51) = (   0.0506403   0.0759605   0.0000000), wk =   0.0219479
        k(   52) = (   0.0506403   0.0759605   0.0213252), wk =   0.0438957
        k(   53) = (   0.0506403   0.0759605   0.0426505), wk =   0.0438957
        k(   54) = (   0.0506403   0.0759605   0.0639757), wk =   0.0438957
        k(   55) = (   0.0506403   0.0759605   0.0853010), wk =   0.0438957
        k(   56) = (   0.0506403   0.1012806   0.0000000), wk =   0.0219479
        k(   57) = (   0.0506403   0.1012806   0.0213252), wk =   0.0438957
        k(   58) = (   0.0506403   0.1012806   0.0426505), wk =   0.0438957
        k(   59) = (   0.0506403   0.1012806   0.0639757), wk =   0.0438957
        k(   60) = (   0.0506403   0.1012806   0.0853010), wk =   0.0438957
        k(   61) = (   0.0759605   0.0759605   0.0000000), wk =   0.0109739
        k(   62) = (   0.0759605   0.0759605   0.0213252), wk =   0.0219479
        k(   63) = (   0.0759605   0.0759605   0.0426505), wk =   0.0219479
        k(   64) = (   0.0759605   0.0759605   0.0639757), wk =   0.0219479
        k(   65) = (   0.0759605   0.0759605   0.0853010), wk =   0.0219479
        k(   66) = (   0.0759605   0.1012806   0.0000000), wk =   0.0219479
        k(   67) = (   0.0759605   0.1012806   0.0213252), wk =   0.0438957
        k(   68) = (   0.0759605   0.1012806   0.0426505), wk =   0.0438957
        k(   69) = (   0.0759605   0.1012806   0.0639757), wk =   0.0438957
        k(   70) = (   0.0759605   0.1012806   0.0853010), wk =   0.0438957
        k(   71) = (   0.1012806   0.1012806   0.0000000), wk =   0.0109739
        k(   72) = (   0.1012806   0.1012806   0.0213252), wk =   0.0219479
        k(   73) = (   0.1012806   0.1012806   0.0426505), wk =   0.0219479
        k(   74) = (   0.1012806   0.1012806   0.0639757), wk =   0.0219479
        k(   75) = (   0.1012806   0.1012806   0.0853010), wk =   0.0219479

     Largest allocated arrays     est. size (Mb)     dimensions
     Largest temporary arrays     est. size (Mb)     dimensions

     Initial potential from superposition of free atoms
     Check: negative starting charge=   -0.322955

     starting charge   47.93364, renormalised to   48.00000

     negative rho (up, down):  3.234E-01 0.000E+00

     *
     * You are using vdW-DF for exchange-correlation in this calculation.
     * Please cite the following three references that made this development
     * possible:
     *
     *   M. Dion, H. Rydberg, E. Schroder, D. C. Langreth, and
     *   B. I. Lundqvist, Phys. Rev. Lett. 92, 246401 (2004).
     *
     *   T. Thonhauser, V. R. Cooper, S. Li, A. Puzder, P. Hyldgaard, and
     *   D. C. Langreth, Phys. Rev. B 76, 125112 (2007).
     *
     *   G. Roman-Perez and J. M. Soler, Phys. Rev. Lett. 103, 096102 (2009).
     *
     *
     * If you are using vdW-DF2, please also cite:
     *
     *   K. Lee, E. D. Murray, L. Kong, B. I. Lundqvist, and
     *   D. C. Langreth, Phys. Rev. B 82, 081101(R) (2010).
     *
     *
     * If you are calculating the stress with vdW-DF, please also cite:
     *
     *   R. Sabatini, E. Kucukbenli, B. Kolb, T. Thonhauser, and
     *   S. de Gironcoli, J. Phys.: Condens. Matter 24, 424209 (2012).
     *

     Carrying out vdW-DF run using the following parameters:

     Nqs =      20    Nr_points =    1024   r_max =   100.000
     q_mesh =
               0.00001000     0.04494208     0.09755937     0.15916263
               0.23128650     0.31572767     0.41458969     0.53033537
               0.66584808     0.82450364     1.01025438     1.22772762
               1.48234092     1.78043706     2.12944203     2.53805004
               3.01644009     3.57652955     4.23227104     5.00000000

     Gradients computed in reciprocal space

     Starting wfc are   66 randomized atomic wfcs

     Self-consistent Calculation

     iteration #  1     ecut=    58.80 Ry     beta=0.10
     Davidson diagonalization with overlap
     ethr =  1.00E-02,  avg # of iterations =  2.0

[...]

     total energy              =    -494.22975856 Ry
     Harris-Foulkes estimate   =    -494.60675205 Ry
     estimated scf accuracy    <       2.12971140 Ry

[...]

     total energy              =    -494.40955396 Ry
     Harris-Foulkes estimate   =    -494.40952976 Ry
     estimated scf accuracy    <       0.00001134 Ry

     iteration # 11     ecut=    58.80 Ry     beta=0.10
     Davidson diagonalization with overlap
     ethr =  2.36E-08,  avg # of iterations =  1.9

     negative rho (up, down):  2.748E-01 0.000E+00

     End of self-consistent calculation

          k = 0.0000 0.0000 0.0000 (  5109 PWs)   bands (ev):

   -53.4479 -53.4153 -19.8855 -19.8855 -19.7773 -19.7014 -19.5772 -19.5772
   -17.8473 -16.9363  -2.4168  -2.4168  -1.3827  -0.4651   0.0864   0.0864
     9.2504  11.2597  12.2416  12.5876  12.6939  12.6939  12.8407  14.9861
    16.5243  16.5243  16.9291  17.0334  17.0517  17.1287  17.1287  17.1452
    17.7093  17.7093  17.9014  17.9014  18.1865  18.1865  18.1978  18.2088
    18.3776  18.4931  18.7719  18.8647

[...]

          k = 0.1013 0.1013 0.0853 (  5179 PWs)   bands (ev):

   -53.4320 -53.4310 -19.9254 -19.9164 -19.7408 -19.7379 -19.5580 -19.5485
   -17.3977 -17.3710  -2.9108  -2.8496  -0.9545  -0.9227   0.3241   0.4204
    11.0182  11.0484  12.9454  12.9721  14.3557  14.4592  15.6759  15.7126
    15.8599  15.9818  16.1779  16.4064  16.4899  16.5799  16.7368  16.7912
    17.3314  17.4045  17.4661  17.4738  17.8923  17.9072  18.1845  18.2026
    18.4814  18.4824  18.5054  18.5256

     the Fermi energy is    14.9270 ev

!    total energy              =    -494.40966718 Ry
     Harris-Foulkes estimate   =    -494.40955501 Ry
     estimated scf accuracy    <       0.00000086 Ry

     The total energy is the sum of the following terms:

     one-electron contribution =     -53.08795243 Ry
     hartree contribution      =      49.00884174 Ry
     xc contribution           =    -189.04529821 Ry
     ewald contribution        =    -301.27303397 Ry
     smearing contrib. (-TS)   =      -0.01222432 Ry

     convergence has been achieved in  11 iterations

     Forces acting on atoms (Ry/au):

     negative rho (up, down):  2.748E-01 0.000E+00
     atom    1 type  1   force =     0.00000000    0.00000000    0.00000000
     atom    2 type  1   force =     0.00000000    0.00000000    0.00000000
     atom    3 type  2   force =     0.00000000    0.00000000    0.00000000
     atom    4 type  2   force =     0.00000000    0.00000000    0.00000000

     Total force =     0.000000     Total SCF correction =     0.000000

     General routines

     Parallel routines

   This run was terminated on:   8:43:58  15Nov2017

   JOB DONE.