     Program PWSCF v.5.1rc2 (svn rev. ) starts on 15Nov2017 at  1:46: 1

     Current dimensions of program PWSCF are:
     Max number of different atomic species (ntypx) = 10
     Max number of k-points (npk) =  40000
     Max angular momentum in pseudopotentials (lmaxx) =  3

     IMPORTANT: XC functional enforced from input :
     Exchange-correlation      = BEEF-VDW ( 1  4 27 13 2)
     Any further DFT definition will be discarded
     Please, verify this is what you really want

     Subspace diagonalization in iterative solution of the eigenvalue problem:
     a serial algorithm will be used

     Found symmetry operation: I + ( -0.5000 -0.5000  0.0000)
     This is a supercell, fractional translations are disabled

     bravais-lattice index     =            0
     lattice parameter (alat)  =       1.8897  a.u.
     unit-cell volume          =     474.5395 (a.u.)^3
     number of atoms/cell      =            4
     number of atomic types    =            2
     number of electrons       =        56.00
     number of Kohn-Sham states=           48
     kinetic-energy cutoff     =      58.7989  Ry
     charge density cutoff     =     587.9892  Ry
     convergence threshold     =      1.0E-06
     mixing beta               =       0.1000
     number of iterations used =           10  plain     mixing
     Exchange-correlation      = BEEF-VDW ( 1  4 27 13 2)

     celldm(1)=   1.889726  celldm(2)=   0.000000  celldm(3)=   0.000000
     celldm(4)=   0.000000  celldm(5)=   0.000000  celldm(6)=   0.000000

     crystal axes: (cart. coord. in units of alat)
               a(1) = (   4.622542   0.000000   0.000000 )
               a(2) = (   0.000000   4.622542   0.000000 )
               a(3) = (   0.000000   0.000000   3.290895 )

     reciprocal axes: (cart. coord. in units 2 pi/alat)
               b(1) = (  0.216331  0.000000  0.000000 )
               b(2) = (  0.000000  0.216331  0.000000 )
               b(3) = (  0.000000  0.000000  0.303869 )

     PseudoPot. # 1 for Tc read from file:
     /home/vossj/suncat/psp/gbrv1.5pbe/Tc.UPF
     MD5 check sum: 9eb49e5b028550b2339a02317eb7b844
     Pseudo is Ultrasoft + core correction, Zval = 15.0
     Generated by new atomic code, or converted to UPF format
     Using radial grid of  965 points,  6 beta functions with:
                l(1) =   0
                l(2) =   0
                l(3) =   1
                l(4) =   1
                l(5) =   2
                l(6) =   2
     Q(r) pseudized with  8 coefficients,  rinner =    1.300   1.300   1.300
                                                       1.300   1.300

     PseudoPot. # 2 for In read from file:
     /home/vossj/suncat/psp/gbrv1.5pbe/In.UPF
     MD5 check sum: 90777abd96fbb83f2e67db2a40c566b9
     Pseudo is Ultrasoft + core correction, Zval = 13.0
     Generated by new atomic code, or converted to UPF format
     Using radial grid of  889 points,  6 beta functions with:
                l(1) =   0
                l(2) =   0
                l(3) =   1
                l(4) =   1
                l(5) =   2
                l(6) =   2
     Q(r) pseudized with  6 coefficients,  rinner =    1.400   1.400   1.400
                                                       1.400   1.400

     vdW kernel table read from file vdW_kernel_table
     MD5 check sum: 095c7af220d748ca6e76c0b4c6cfb241

     atomic species   valence    mass     pseudopotential
        Tc1           15.00    97.90721     Tc( 1.00)
        In1           13.00   114.81800     In( 1.00)

     16 Sym. Ops., with inversion, found

   Cartesian axes

     site n.     atom                  positions (alat units)
         1           Tc1 tau(   1) = (   0.0000000   0.0000000   0.0000000  )
         2           Tc1 tau(   2) = (   2.3112710   2.3112710   0.0000000  )
         3           In1 tau(   3) = (   2.3112710   0.0000000   1.6454477  )
         4           In1 tau(   4) = (   0.0000000   2.3112710   1.6454477  )

     number of k points=    75  Fermi-Dirac smearing, width (Ry)=  0.0073
                       cart. coord. in units 2pi/alat
        k(    1) = (   0.0000000   0.0000000   0.0000000), wk =   0.0027435
        k(    2) = (   0.0000000   0.0000000   0.0337632), wk =   0.0054870
        k(    3) = (   0.0000000   0.0000000   0.0675264), wk =   0.0054870
        k(    4) = (   0.0000000   0.0000000   0.1012896), wk =   0.0054870
        k(    5) = (   0.0000000   0.0000000   0.1350527), wk =   0.0054870
        k(    6) = (   0.0000000   0.0240368   0.0000000), wk =   0.0109739
        k(    7) = (   0.0000000   0.0240368   0.0337632), wk =   0.0219479
        k(    8) = (   0.0000000   0.0240368   0.0675264), wk =   0.0219479
        k(    9) = (   0.0000000   0.0240368   0.1012896), wk =   0.0219479
        k(   10) = (   0.0000000   0.0240368   0.1350527), wk =   0.0219479
        k(   11) = (   0.0000000   0.0480736   0.0000000), wk =   0.0109739
        k(   12) = (   0.0000000   0.0480736   0.0337632), wk =   0.0219479
        k(   13) = (   0.0000000   0.0480736   0.0675264), wk =   0.0219479
        k(   14) = (   0.0000000   0.0480736   0.1012896), wk =   0.0219479
        k(   15) = (   0.0000000   0.0480736   0.1350527), wk =   0.0219479
        k(   16) = (   0.0000000   0.0721104   0.0000000), wk =   0.0109739
        k(   17) = (   0.0000000   0.0721104   0.0337632), wk =   0.0219479
        k(   18) = (   0.0000000   0.0721104   0.0675264), wk =   0.0219479
        k(   19) = (   0.0000000   0.0721104   0.1012896), wk =   0.0219479
        k(   20) = (   0.0000000   0.0721104   0.1350527), wk =   0.0219479
        k(   21) = (   0.0000000   0.0961472   0.0000000), wk =   0.0109739
        k(   22) = (   0.0000000   0.0961472   0.0337632), wk =   0.0219479
        k(   23) = (   0.0000000   0.0961472   0.0675264), wk =   0.0219479
        k(   24) = (   0.0000000   0.0961472   0.1012896), wk =   0.0219479
        k(   25) = (   0.0000000   0.0961472   0.1350527), wk =   0.0219479
        k(   26) = (   0.0240368   0.0240368   0.0000000), wk =   0.0109739
        k(   27) = (   0.0240368   0.0240368   0.0337632), wk =   0.0219479
        k(   28) = (   0.0240368   0.0240368   0.0675264), wk =   0.0219479
        k(   29) = (   0.0240368   0.0240368   0.1012896), wk =   0.0219479
        k(   30) = (   0.0240368   0.0240368   0.1350527), wk =   0.0219479
        k(   31) = (   0.0240368   0.0480736   0.0000000), wk =   0.0219479
        k(   32) = (   0.0240368   0.0480736   0.0337632), wk =   0.0438957
        k(   33) = (   0.0240368   0.0480736   0.0675264), wk =   0.0438957
        k(   34) = (   0.0240368   0.0480736   0.1012896), wk =   0.0438957
        k(   35) = (   0.0240368   0.0480736   0.1350527), wk =   0.0438957
        k(   36) = (   0.0240368   0.0721104   0.0000000), wk =   0.0219479
        k(   37) = (   0.0240368   0.0721104   0.0337632), wk =   0.0438957
        k(   38) = (   0.0240368   0.0721104   0.0675264), wk =   0.0438957
        k(   39) = (   0.0240368   0.0721104   0.1012896), wk =   0.0438957
        k(   40) = (   0.0240368   0.0721104   0.1350527), wk =   0.0438957
        k(   41) = (   0.0240368   0.0961472   0.0000000), wk =   0.0219479
        k(   42) = (   0.0240368   0.0961472   0.0337632), wk =   0.0438957
        k(   43) = (   0.0240368   0.0961472   0.0675264), wk =   0.0438957
        k(   44) = (   0.0240368   0.0961472   0.1012896), wk =   0.0438957
        k(   45) = (   0.0240368   0.0961472   0.1350527), wk =   0.0438957
        k(   46) = (   0.0480736   0.0480736   0.0000000), wk =   0.0109739
        k(   47) = (   0.0480736   0.0480736   0.0337632), wk =   0.0219479
        k(   48) = (   0.0480736   0.0480736   0.0675264), wk =   0.0219479
        k(   49) = (   0.0480736   0.0480736   0.1012896), wk =   0.0219479
        k(   50) = (   0.0480736   0.0480736   0.1350527), wk =   0.0219479
        k(   51) = (   0.0480736   0.0721104   0.0000000), wk =   0.0219479
        k(   52) = (   0.0480736   0.0721104   0.0337632), wk =   0.0438957
        k(   53) = (   0.0480736   0.0721104   0.0675264), wk =   0.0438957
        k(   54) = (   0.0480736   0.0721104   0.1012896), wk =   0.0438957
        k(   55) = (   0.0480736   0.0721104   0.1350527), wk =   0.0438957
        k(   56) = (   0.0480736   0.0961472   0.0000000), wk =   0.0219479
        k(   57) = (   0.0480736   0.0961472   0.0337632), wk =   0.0438957
        k(   58) = (   0.0480736   0.0961472   0.0675264), wk =   0.0438957
        k(   59) = (   0.0480736   0.0961472   0.1012896), wk =   0.0438957
        k(   60) = (   0.0480736   0.0961472   0.1350527), wk =   0.0438957
        k(   61) = (   0.0721104   0.0721104   0.0000000), wk =   0.0109739
        k(   62) = (   0.0721104   0.0721104   0.0337632), wk =   0.0219479
        k(   63) = (   0.0721104   0.0721104   0.0675264), wk =   0.0219479
        k(   64) = (   0.0721104   0.0721104   0.1012896), wk =   0.0219479
        k(   65) = (   0.0721104   0.0721104   0.1350527), wk =   0.0219479
        k(   66) = (   0.0721104   0.0961472   0.0000000), wk =   0.0219479
        k(   67) = (   0.0721104   0.0961472   0.0337632), wk =   0.0438957
        k(   68) = (   0.0721104   0.0961472   0.0675264), wk =   0.0438957
        k(   69) = (   0.0721104   0.0961472   0.1012896), wk =   0.0438957
        k(   70) = (   0.0721104   0.0961472   0.1350527), wk =   0.0438957
        k(   71) = (   0.0961472   0.0961472   0.0000000), wk =   0.0109739
        k(   72) = (   0.0961472   0.0961472   0.0337632), wk =   0.0219479
        k(   73) = (   0.0961472   0.0961472   0.0675264), wk =   0.0219479
        k(   74) = (   0.0961472   0.0961472   0.1012896), wk =   0.0219479
        k(   75) = (   0.0961472   0.0961472   0.1350527), wk =   0.0219479

     Largest allocated arrays     est. size (Mb)     dimensions
     Largest temporary arrays     est. size (Mb)     dimensions

     Check: negative/imaginary core charge=   -0.000004    0.000000

     Initial potential from superposition of free atoms
     Check: negative starting charge=   -0.249562

     starting charge   50.99994, renormalised to   56.00000

     negative rho (up, down):  2.740E-01 0.000E+00

     *
     * You are using vdW-DF for exchange-correlation in this calculation.
     * Please cite the following three references that made this development
     * possible:
     *
     *   M. Dion, H. Rydberg, E. Schroder, D. C. Langreth, and
     *   B. I. Lundqvist, Phys. Rev. Lett. 92, 246401 (2004).
     *
     *   T. Thonhauser, V. R. Cooper, S. Li, A. Puzder, P. Hyldgaard, and
     *   D. C. Langreth, Phys. Rev. B 76, 125112 (2007).
     *
     *   G. Roman-Perez and J. M. Soler, Phys. Rev. Lett. 103, 096102 (2009).
     *
     *
     * If you are using vdW-DF2, please also cite:
     *
     *   K. Lee, E. D. Murray, L. Kong, B. I. Lundqvist, and
     *   D. C. Langreth, Phys. Rev. B 82, 081101(R) (2010).
     *
     *
     * If you are calculating the stress with vdW-DF, please also cite:
     *
     *   R. Sabatini, E. Kucukbenli, B. Kolb, T. Thonhauser, and
     *   S. de Gironcoli, J. Phys.: Condens. Matter 24, 424209 (2012).
     *

     Carrying out vdW-DF run using the following parameters:

     Nqs =      20    Nr_points =    1024   r_max =   100.000
     q_mesh =
               0.00001000     0.04494208     0.09755937     0.15916263
               0.23128650     0.31572767     0.41458969     0.53033537
               0.66584808     0.82450364     1.01025438     1.22772762
               1.48234092     1.78043706     2.12944203     2.53805004
               3.01644009     3.57652955     4.23227104     5.00000000

     Gradients computed in reciprocal space

     Starting wfc are   44 randomized atomic wfcs +    4 random wfc

     Self-consistent Calculation

     iteration #  1     ecut=    58.80 Ry     beta=0.10
     Davidson diagonalization with overlap
     ethr =  1.00E-02,  avg # of iterations =  5.0

[...]

     total energy              =    -621.54114627 Ry
     Harris-Foulkes estimate   =    -622.71635482 Ry
     estimated scf accuracy    <       7.54661338 Ry

[...]

     total energy              =    -620.11197025 Ry
     Harris-Foulkes estimate   =    -620.11197022 Ry
     estimated scf accuracy    <       0.00000526 Ry

     iteration # 11     ecut=    58.80 Ry     beta=0.10
     Davidson diagonalization with overlap
     ethr =  9.39E-09,  avg # of iterations =  2.5

     negative rho (up, down):  2.531E-01 0.000E+00

     End of self-consistent calculation

          k = 0.0000 0.0000 0.0000 (  3595 PWs)   bands (ev):

   -49.8059 -49.7915 -21.8988 -21.8988 -21.8063 -21.7974 -21.7974 -21.7867
     1.9830   1.9933   2.0327   2.1869   2.2266   2.2266   2.3724   2.3724
     2.3762   2.6008   7.1882  11.1935  14.4843  14.4873  14.8861  15.0727
    15.0727  16.3836  16.3836  17.1512  17.1512  17.1808  18.0804  20.9460
    21.4115  21.5921  21.5921  21.6807  26.0801  27.7276  28.0437  28.0437
    28.9316  28.9796  32.0070  32.1238  32.1238  32.3411  32.4431  32.5652

[...]

          k = 0.0961 0.0961 0.1351 (  3577 PWs)   bands (ev):

   -49.7925 -49.7921 -21.8999 -21.8976 -21.8968 -21.8967 -21.7824 -21.7794
     2.0487   2.0526   2.1693   2.1837   2.2294   2.2367   2.2385   2.2437
     2.5762   2.5866  11.0921  11.1564  14.3146  14.4442  14.8965  15.0158
    15.1921  15.3697  16.3726  16.4406  16.6120  16.6240  18.0998  18.1256
    20.9331  21.0393  21.7203  21.8935  26.0411  26.3127  28.0618  28.1204
    28.1322  28.2760  32.1084  32.1547  32.4012  32.4289  33.2362  33.4250

     the Fermi energy is    16.6601 ev

!    total energy              =    -620.11197622 Ry
     Harris-Foulkes estimate   =    -620.11197148 Ry
     estimated scf accuracy    <       0.00000070 Ry

     The total energy is the sum of the following terms:

     one-electron contribution =    -116.38946678 Ry
     hartree contribution      =     103.38866338 Ry
     xc contribution           =    -144.91038982 Ry
     ewald contribution        =    -462.18473297 Ry
     smearing contrib. (-TS)   =      -0.01605003 Ry

     convergence has been achieved in  11 iterations

     Forces acting on atoms (Ry/au):

     negative rho (up, down):  2.531E-01 0.000E+00
     atom    1 type  1   force =     0.00000000    0.00000000    0.00000000
     atom    2 type  1   force =     0.00000000    0.00000000    0.00000000
     atom    3 type  2   force =     0.00000000    0.00000000    0.00000000
     atom    4 type  2   force =     0.00000000    0.00000000    0.00000000

     Total force =     0.000000     Total SCF correction =     0.000000

     General routines

     Parallel routines

   This run was terminated on:   1:46:46  15Nov2017

   JOB DONE.