     Program PWSCF v.5.1rc2 starts on 14Nov2017 at 16: 4:39

     Current dimensions of program PWSCF are:
     Max number of different atomic species (ntypx) = 10
     Max number of k-points (npk) =  40000
     Max angular momentum in pseudopotentials (lmaxx) =  3

     IMPORTANT: XC functional enforced from input :
     Exchange-correlation      = BEEF-VDW ( 1  4 27 13 2)
     Any further DFT definition will be discarded
     Please, verify this is what you really want

     Found symmetry operation: I + ( -0.5000 -0.5000  0.0000)
     This is a supercell, fractional translations are disabled

     bravais-lattice index     =            0
     lattice parameter (alat)  =       1.8897  a.u.
     unit-cell volume          =     482.6369 (a.u.)^3
     number of atoms/cell      =            4
     number of atomic types    =            2
     number of electrons       =        48.00
     number of Kohn-Sham states=           44
     kinetic-energy cutoff     =      58.7989  Ry
     charge density cutoff     =     587.9892  Ry
     convergence threshold     =      1.0E-06
     mixing beta               =       0.1000
     number of iterations used =           10  plain     mixing
     Exchange-correlation      = BEEF-VDW ( 1  4 27 13 2)

     celldm(1)=   1.889726  celldm(2)=   0.000000  celldm(3)=   0.000000
     celldm(4)=   0.000000  celldm(5)=   0.000000  celldm(6)=   0.000000

     crystal axes: (cart. coord. in units of alat)
               a(1) = (   4.113562   0.000000   0.000000 )
               a(2) = (   0.000000   4.113562   0.000000 )
               a(3) = (   0.000000   0.000000   4.226568 )

     reciprocal axes: (cart. coord. in units 2 pi/alat)
               b(1) = (  0.243098  0.000000  0.000000 )
               b(2) = (  0.000000  0.243098  0.000000 )
               b(3) = (  0.000000  0.000000  0.236599 )

     PseudoPot. # 1 for Nb read from file:
     /home/users/vossj/suncat/psp/gbrv1.5pbe/Nb.UPF
     MD5 check sum: 573aab8a2fa660278ed4a62cd769473f
     Pseudo is Ultrasoft + core correction, Zval = 13.0
     Generated by new atomic code, or converted to UPF format
     Using radial grid of  887 points,  6 beta functions with:
                l(1) =   0
                l(2) =   0
                l(3) =   1
                l(4) =   1
                l(5) =   2
                l(6) =   2
     Q(r) pseudized with  6 coefficients,  rinner =    1.000   1.000   1.000
                                                       1.000   1.000

     PseudoPot. # 2 for Au read from file:
     /home/users/vossj/suncat/psp/gbrv1.5pbe/Au.UPF
     MD5 check sum: 9d7f43293ad2c663164586bc4b293ffc
     Pseudo is Ultrasoft + core correction, Zval = 11.0
     Generated by new atomic code, or converted to UPF format
     Using radial grid of  985 points,  7 beta functions with:
                l(1) =   0
                l(2) =   0
                l(3) =   1
                l(4) =   1
                l(5) =   2
                l(6) =   2
                l(7) =   3
     Q(r) pseudized with  6 coefficients,  rinner =    1.900   1.900   1.900
                                                       1.900   1.900   1.900
                                                       1.900

     vdW kernel table read from file vdW_kernel_table
     MD5 check sum: 095c7af220d748ca6e76c0b4c6cfb241

     atomic species   valence    mass     pseudopotential
        Nb1           13.00    92.90640     Nb( 1.00)
        Au1           11.00   196.96650     Au( 1.00)

     16 Sym. Ops., with inversion, found

   Cartesian axes

     site n.     atom                  positions (alat units)
         1           Nb1 tau(   1) = (   0.0000000   0.0000000   0.0000000  )
         2           Nb1 tau(   2) = (   2.0567809   2.0567809   0.0000000  )
         3           Au1 tau(   3) = (   2.0567809   0.0000000   2.1132840  )
         4           Au1 tau(   4) = (   0.0000000   2.0567809   2.1132840  )

     number of k points=    75  Fermi-Dirac smearing, width (Ry)=  0.0073
                       cart. coord. in units 2pi/alat
        k(    1) = (   0.0000000   0.0000000   0.0000000), wk =   0.0027435
        k(    2) = (   0.0000000   0.0000000   0.0262887), wk =   0.0054870
        k(    3) = (   0.0000000   0.0000000   0.0525775), wk =   0.0054870
        k(    4) = (   0.0000000   0.0000000   0.0788662), wk =   0.0054870
        k(    5) = (   0.0000000   0.0000000   0.1051549), wk =   0.0054870
        k(    6) = (   0.0000000   0.0270109   0.0000000), wk =   0.0109739
        k(    7) = (   0.0000000   0.0270109   0.0262887), wk =   0.0219479
        k(    8) = (   0.0000000   0.0270109   0.0525775), wk =   0.0219479
        k(    9) = (   0.0000000   0.0270109   0.0788662), wk =   0.0219479
        k(   10) = (   0.0000000   0.0270109   0.1051549), wk =   0.0219479
        k(   11) = (   0.0000000   0.0540219   0.0000000), wk =   0.0109739
        k(   12) = (   0.0000000   0.0540219   0.0262887), wk =   0.0219479
        k(   13) = (   0.0000000   0.0540219   0.0525775), wk =   0.0219479
        k(   14) = (   0.0000000   0.0540219   0.0788662), wk =   0.0219479
        k(   15) = (   0.0000000   0.0540219   0.1051549), wk =   0.0219479
        k(   16) = (   0.0000000   0.0810328   0.0000000), wk =   0.0109739
        k(   17) = (   0.0000000   0.0810328   0.0262887), wk =   0.0219479
        k(   18) = (   0.0000000   0.0810328   0.0525775), wk =   0.0219479
        k(   19) = (   0.0000000   0.0810328   0.0788662), wk =   0.0219479
        k(   20) = (   0.0000000   0.0810328   0.1051549), wk =   0.0219479
        k(   21) = (   0.0000000   0.1080437   0.0000000), wk =   0.0109739
        k(   22) = (   0.0000000   0.1080437   0.0262887), wk =   0.0219479
        k(   23) = (   0.0000000   0.1080437   0.0525775), wk =   0.0219479
        k(   24) = (   0.0000000   0.1080437   0.0788662), wk =   0.0219479
        k(   25) = (   0.0000000   0.1080437   0.1051549), wk =   0.0219479
        k(   26) = (   0.0270109   0.0270109   0.0000000), wk =   0.0109739
        k(   27) = (   0.0270109   0.0270109   0.0262887), wk =   0.0219479
        k(   28) = (   0.0270109   0.0270109   0.0525775), wk =   0.0219479
        k(   29) = (   0.0270109   0.0270109   0.0788662), wk =   0.0219479
        k(   30) = (   0.0270109   0.0270109   0.1051549), wk =   0.0219479
        k(   31) = (   0.0270109   0.0540219   0.0000000), wk =   0.0219479
        k(   32) = (   0.0270109   0.0540219   0.0262887), wk =   0.0438957
        k(   33) = (   0.0270109   0.0540219   0.0525775), wk =   0.0438957
        k(   34) = (   0.0270109   0.0540219   0.0788662), wk =   0.0438957
        k(   35) = (   0.0270109   0.0540219   0.1051549), wk =   0.0438957
        k(   36) = (   0.0270109   0.0810328   0.0000000), wk =   0.0219479
        k(   37) = (   0.0270109   0.0810328   0.0262887), wk =   0.0438957
        k(   38) = (   0.0270109   0.0810328   0.0525775), wk =   0.0438957
        k(   39) = (   0.0270109   0.0810328   0.0788662), wk =   0.0438957
        k(   40) = (   0.0270109   0.0810328   0.1051549), wk =   0.0438957
        k(   41) = (   0.0270109   0.1080437   0.0000000), wk =   0.0219479
        k(   42) = (   0.0270109   0.1080437   0.0262887), wk =   0.0438957
        k(   43) = (   0.0270109   0.1080437   0.0525775), wk =   0.0438957
        k(   44) = (   0.0270109   0.1080437   0.0788662), wk =   0.0438957
        k(   45) = (   0.0270109   0.1080437   0.1051549), wk =   0.0438957
        k(   46) = (   0.0540219   0.0540219   0.0000000), wk =   0.0109739
        k(   47) = (   0.0540219   0.0540219   0.0262887), wk =   0.0219479
        k(   48) = (   0.0540219   0.0540219   0.0525775), wk =   0.0219479
        k(   49) = (   0.0540219   0.0540219   0.0788662), wk =   0.0219479
        k(   50) = (   0.0540219   0.0540219   0.1051549), wk =   0.0219479
        k(   51) = (   0.0540219   0.0810328   0.0000000), wk =   0.0219479
        k(   52) = (   0.0540219   0.0810328   0.0262887), wk =   0.0438957
        k(   53) = (   0.0540219   0.0810328   0.0525775), wk =   0.0438957
        k(   54) = (   0.0540219   0.0810328   0.0788662), wk =   0.0438957
        k(   55) = (   0.0540219   0.0810328   0.1051549), wk =   0.0438957
        k(   56) = (   0.0540219   0.1080437   0.0000000), wk =   0.0219479
        k(   57) = (   0.0540219   0.1080437   0.0262887), wk =   0.0438957
        k(   58) = (   0.0540219   0.1080437   0.0525775), wk =   0.0438957
        k(   59) = (   0.0540219   0.1080437   0.0788662), wk =   0.0438957
        k(   60) = (   0.0540219   0.1080437   0.1051549), wk =   0.0438957
        k(   61) = (   0.0810328   0.0810328   0.0000000), wk =   0.0109739
        k(   62) = (   0.0810328   0.0810328   0.0262887), wk =   0.0219479
        k(   63) = (   0.0810328   0.0810328   0.0525775), wk =   0.0219479
        k(   64) = (   0.0810328   0.0810328   0.0788662), wk =   0.0219479
        k(   65) = (   0.0810328   0.0810328   0.1051549), wk =   0.0219479
        k(   66) = (   0.0810328   0.1080437   0.0000000), wk =   0.0219479
        k(   67) = (   0.0810328   0.1080437   0.0262887), wk =   0.0438957
        k(   68) = (   0.0810328   0.1080437   0.0525775), wk =   0.0438957
        k(   69) = (   0.0810328   0.1080437   0.0788662), wk =   0.0438957
        k(   70) = (   0.0810328   0.1080437   0.1051549), wk =   0.0438957
        k(   71) = (   0.1080437   0.1080437   0.0000000), wk =   0.0109739
        k(   72) = (   0.1080437   0.1080437   0.0262887), wk =   0.0219479
        k(   73) = (   0.1080437   0.1080437   0.0525775), wk =   0.0219479
        k(   74) = (   0.1080437   0.1080437   0.0788662), wk =   0.0219479
        k(   75) = (   0.1080437   0.1080437   0.1051549), wk =   0.0219479

     Largest allocated arrays     est. size (Mb)     dimensions
     Largest temporary arrays     est. size (Mb)     dimensions

     Initial potential from superposition of free atoms

     starting charge   47.99429, renormalised to   48.00000

     *
     * You are using vdW-DF for exchange-correlation in this calculation.
     * Please cite the following three references that made this development
     * possible:
     *
     *   M. Dion, H. Rydberg, E. Schroder, D. C. Langreth, and
     *   B. I. Lundqvist, Phys. Rev. Lett. 92, 246401 (2004).
     *
     *   T. Thonhauser, V. R. Cooper, S. Li, A. Puzder, P. Hyldgaard, and
     *   D. C. Langreth, Phys. Rev. B 76, 125112 (2007).
     *
     *   G. Roman-Perez and J. M. Soler, Phys. Rev. Lett. 103, 096102 (2009).
     *
     *
     * If you are using vdW-DF2, please also cite:
     *
     *   K. Lee, E. D. Murray, L. Kong, B. I. Lundqvist, and
     *   D. C. Langreth, Phys. Rev. B 82, 081101(R) (2010).
     *
     *
     * If you are calculating the stress with vdW-DF, please also cite:
     *
     *   R. Sabatini, E. Kucukbenli, B. Kolb, T. Thonhauser, and
     *   S. de Gironcoli, J. Phys.: Condens. Matter 24, 424209 (2012).
     *

     Carrying out vdW-DF run using the following parameters:

     Nqs =      20    Nr_points =    1024   r_max =   100.000
     q_mesh =
               0.00001000     0.04494208     0.09755937     0.15916263
               0.23128650     0.31572767     0.41458969     0.53033537
               0.66584808     0.82450364     1.01025438     1.22772762
               1.48234092     1.78043706     2.12944203     2.53805004
               3.01644009     3.57652955     4.23227104     5.00000000

     Gradients computed in reciprocal space

     Starting wfc are   44 randomized atomic wfcs

     Self-consistent Calculation

     iteration #  1     ecut=    58.80 Ry     beta=0.10
     Davidson diagonalization with overlap
     ethr =  1.00E-02,  avg # of iterations =  5.4

     Threshold (ethr) on eigenvalues was too large:
     Diagonalizing with lowered threshold

     Davidson diagonalization with overlap
     ethr =  9.24E-04,  avg # of iterations =  1.0

     total energy              =    -470.66225836 Ry
     Harris-Foulkes estimate   =    -470.72099851 Ry
     estimated scf accuracy    <       0.44324193 Ry

[...]

     total energy              =    -470.61598654 Ry
     Harris-Foulkes estimate   =    -470.61598664 Ry
     estimated scf accuracy    <       0.00000111 Ry

     iteration # 13     ecut=    58.80 Ry     beta=0.10
     Davidson diagonalization with overlap
     ethr =  2.32E-09,  avg # of iterations =  2.0

     End of self-consistent calculation

          k = 0.0000 0.0000 0.0000 (  3743 PWs)   bands (ev):

   -38.7830 -38.6189 -14.9666 -14.9666 -14.9308 -14.7587 -14.3066 -14.3066
     8.0985   9.8562  10.1841  10.2412  10.4369  10.4369  10.6035  12.2972
    12.2972  13.2852  14.2905  14.8861  15.6569  15.9411  18.2653  18.2653
    18.3509  18.7051  18.7051  19.0720  19.4801  19.4801  20.3849  21.8807
    23.5022  25.0373  25.9726  27.2268  27.2268  27.5970  27.5970  28.2229
    28.8292  29.6150  33.7524  34.3998

[...]

          k = 0.1080 0.1080 0.1052 (  3669 PWs)   bands (ev):

   -38.7018 -38.6968 -15.0649 -15.0460 -14.8602 -14.8546 -14.2607 -14.2397
     9.9063   9.9849  10.2776  10.2849  11.7212  11.7381  11.9971  12.0994
    12.4083  12.4560  14.5858  15.1729  15.3857  15.5560  16.0058  16.4143
    16.7569  17.0757  18.6275  18.9812  19.4673  19.4821  19.5163  19.7219
    22.2443  22.4618  25.5886  25.7136  29.1861  29.2004  29.3950  29.4829
    32.1827  32.4967  32.7441  33.0025

     the Fermi energy is    16.7000 ev

!    total energy              =    -470.61598895 Ry
     Harris-Foulkes estimate   =    -470.61598670 Ry
     estimated scf accuracy    <          6.9E-09 Ry

     The total energy is the sum of the following terms:

     one-electron contribution =     -14.96713830 Ry
     hartree contribution      =      48.35559018 Ry
     xc contribution           =    -166.20459400 Ry
     ewald contribution        =    -337.79141059 Ry
     smearing contrib. (-TS)   =      -0.00843624 Ry

     convergence has been achieved in  13 iterations

     Forces acting on atoms (Ry/au):

     atom    1 type  1   force =     0.00000000    0.00000000    0.00000000
     atom    2 type  1   force =     0.00000000    0.00000000    0.00000000
     atom    3 type  2   force =     0.00000000    0.00000000    0.00000000
     atom    4 type  2   force =     0.00000000    0.00000000    0.00000000

     Total force =     0.000000     Total SCF correction =     0.000000

     General routines

     Parallel routines

   This run was terminated on:  16: 5:22  14Nov2017

   JOB DONE.