     Program PWSCF v.5.1rc2 starts on 14Nov2017 at  8:32: 3

     Current dimensions of program PWSCF are:
     Max number of different atomic species (ntypx) = 10
     Max number of k-points (npk) =  40000
     Max angular momentum in pseudopotentials (lmaxx) =  3

     IMPORTANT: XC functional enforced from input :
     Exchange-correlation      = BEEF-VDW ( 1  4 27 13 2)
     Any further DFT definition will be discarded
     Please, verify this is what you really want

     Found symmetry operation: I + ( -0.5000 -0.5000  0.0000)
     This is a supercell, fractional translations are disabled

     bravais-lattice index     =            0
     lattice parameter (alat)  =       1.8897  a.u.
     unit-cell volume          =     418.1781 (a.u.)^3
     number of atoms/cell      =            4
     number of atomic types    =            2
     number of electrons       =        76.00
     number of Kohn-Sham states=           58
     kinetic-energy cutoff     =      58.7989  Ry
     charge density cutoff     =     587.9892  Ry
     convergence threshold     =      1.0E-06
     mixing beta               =       0.1000
     number of iterations used =           10  plain     mixing
     Exchange-correlation      = BEEF-VDW ( 1  4 27 13 2)

     celldm(1)=   1.889726  celldm(2)=   0.000000  celldm(3)=   0.000000
     celldm(4)=   0.000000  celldm(5)=   0.000000  celldm(6)=   0.000000

     crystal axes: (cart. coord. in units of alat)
               a(1) = (   4.043344   0.000000   0.000000 )
               a(2) = (   0.000000   4.043344   0.000000 )
               a(3) = (   0.000000   0.000000   3.790384 )

     reciprocal axes: (cart. coord. in units 2 pi/alat)
               b(1) = (  0.247320  0.000000  0.000000 )
               b(2) = (  0.000000  0.247320  0.000000 )
               b(3) = (  0.000000  0.000000  0.263826 )

     PseudoPot. # 1 for Cu read from file:
     /home/users/vossj/suncat/psp/gbrv1.5pbe/Cu.UPF
     MD5 check sum: 6e991ff952a84172a2a52a1c1e996048
     Pseudo is Ultrasoft + core correction, Zval = 19.0
     Generated by new atomic code, or converted to UPF format
     Using radial grid of  867 points,  6 beta functions with:
                l(1) =   0
                l(2) =   0
                l(3) =   1
                l(4) =   1
                l(5) =   2
                l(6) =   2
     Q(r) pseudized with  8 coefficients,  rinner =    1.150   1.150   1.150
                                                       1.150   1.150

     PseudoPot. # 2 for Ag read from file:
     /home/users/vossj/suncat/psp/gbrv1.5pbe/Ag.UPF
     MD5 check sum: d66d668201baa78d5eb5b04ef7011058
     Pseudo is Ultrasoft + core correction, Zval = 19.0
     Generated by new atomic code, or converted to UPF format
     Using radial grid of  887 points,  6 beta functions with:
                l(1) =   0
                l(2) =   0
                l(3) =   1
                l(4) =   1
                l(5) =   2
                l(6) =   2
     Q(r) pseudized with  6 coefficients,  rinner =    1.300   1.300   1.300
                                                       1.300   1.300

     vdW kernel table read from file vdW_kernel_table
     MD5 check sum: 095c7af220d748ca6e76c0b4c6cfb241

     atomic species   valence    mass     pseudopotential
        Cu1           19.00    63.54600     Cu( 1.00)
        Ag1           19.00   107.86800     Ag( 1.00)

     16 Sym. Ops., with inversion, found

   Cartesian axes

     site n.     atom                  positions (alat units)
         1           Cu1 tau(   1) = (   0.0000000   0.0000000   0.0000000  )
         2           Cu1 tau(   2) = (   2.0216722   2.0216722   0.0000000  )
         3           Ag1 tau(   3) = (   2.0216722   0.0000000   1.8951920  )
         4           Ag1 tau(   4) = (   0.0000000   2.0216722   1.8951920  )

     number of k points=    75  Fermi-Dirac smearing, width (Ry)=  0.0073
                       cart. coord. in units 2pi/alat
        k(    1) = (   0.0000000   0.0000000   0.0000000), wk =   0.0027435
        k(    2) = (   0.0000000   0.0000000   0.0293139), wk =   0.0054870
        k(    3) = (   0.0000000   0.0000000   0.0586279), wk =   0.0054870
        k(    4) = (   0.0000000   0.0000000   0.0879418), wk =   0.0054870
        k(    5) = (   0.0000000   0.0000000   0.1172558), wk =   0.0054870
        k(    6) = (   0.0000000   0.0274800   0.0000000), wk =   0.0109739
        k(    7) = (   0.0000000   0.0274800   0.0293139), wk =   0.0219479
        k(    8) = (   0.0000000   0.0274800   0.0586279), wk =   0.0219479
        k(    9) = (   0.0000000   0.0274800   0.0879418), wk =   0.0219479
        k(   10) = (   0.0000000   0.0274800   0.1172558), wk =   0.0219479
        k(   11) = (   0.0000000   0.0549600   0.0000000), wk =   0.0109739
        k(   12) = (   0.0000000   0.0549600   0.0293139), wk =   0.0219479
        k(   13) = (   0.0000000   0.0549600   0.0586279), wk =   0.0219479
        k(   14) = (   0.0000000   0.0549600   0.0879418), wk =   0.0219479
        k(   15) = (   0.0000000   0.0549600   0.1172558), wk =   0.0219479
        k(   16) = (   0.0000000   0.0824400   0.0000000), wk =   0.0109739
        k(   17) = (   0.0000000   0.0824400   0.0293139), wk =   0.0219479
        k(   18) = (   0.0000000   0.0824400   0.0586279), wk =   0.0219479
        k(   19) = (   0.0000000   0.0824400   0.0879418), wk =   0.0219479
        k(   20) = (   0.0000000   0.0824400   0.1172558), wk =   0.0219479
        k(   21) = (   0.0000000   0.1099200   0.0000000), wk =   0.0109739
        k(   22) = (   0.0000000   0.1099200   0.0293139), wk =   0.0219479
        k(   23) = (   0.0000000   0.1099200   0.0586279), wk =   0.0219479
        k(   24) = (   0.0000000   0.1099200   0.0879418), wk =   0.0219479
        k(   25) = (   0.0000000   0.1099200   0.1172558), wk =   0.0219479
        k(   26) = (   0.0274800   0.0274800   0.0000000), wk =   0.0109739
        k(   27) = (   0.0274800   0.0274800   0.0293139), wk =   0.0219479
        k(   28) = (   0.0274800   0.0274800   0.0586279), wk =   0.0219479
        k(   29) = (   0.0274800   0.0274800   0.0879418), wk =   0.0219479
        k(   30) = (   0.0274800   0.0274800   0.1172558), wk =   0.0219479
        k(   31) = (   0.0274800   0.0549600   0.0000000), wk =   0.0219479
        k(   32) = (   0.0274800   0.0549600   0.0293139), wk =   0.0438957
        k(   33) = (   0.0274800   0.0549600   0.0586279), wk =   0.0438957
        k(   34) = (   0.0274800   0.0549600   0.0879418), wk =   0.0438957
        k(   35) = (   0.0274800   0.0549600   0.1172558), wk =   0.0438957
        k(   36) = (   0.0274800   0.0824400   0.0000000), wk =   0.0219479
        k(   37) = (   0.0274800   0.0824400   0.0293139), wk =   0.0438957
        k(   38) = (   0.0274800   0.0824400   0.0586279), wk =   0.0438957
        k(   39) = (   0.0274800   0.0824400   0.0879418), wk =   0.0438957
        k(   40) = (   0.0274800   0.0824400   0.1172558), wk =   0.0438957
        k(   41) = (   0.0274800   0.1099200   0.0000000), wk =   0.0219479
        k(   42) = (   0.0274800   0.1099200   0.0293139), wk =   0.0438957
        k(   43) = (   0.0274800   0.1099200   0.0586279), wk =   0.0438957
        k(   44) = (   0.0274800   0.1099200   0.0879418), wk =   0.0438957
        k(   45) = (   0.0274800   0.1099200   0.1172558), wk =   0.0438957
        k(   46) = (   0.0549600   0.0549600   0.0000000), wk =   0.0109739
        k(   47) = (   0.0549600   0.0549600   0.0293139), wk =   0.0219479
        k(   48) = (   0.0549600   0.0549600   0.0586279), wk =   0.0219479
        k(   49) = (   0.0549600   0.0549600   0.0879418), wk =   0.0219479
        k(   50) = (   0.0549600   0.0549600   0.1172558), wk =   0.0219479
        k(   51) = (   0.0549600   0.0824400   0.0000000), wk =   0.0219479
        k(   52) = (   0.0549600   0.0824400   0.0293139), wk =   0.0438957
        k(   53) = (   0.0549600   0.0824400   0.0586279), wk =   0.0438957
        k(   54) = (   0.0549600   0.0824400   0.0879418), wk =   0.0438957
        k(   55) = (   0.0549600   0.0824400   0.1172558), wk =   0.0438957
        k(   56) = (   0.0549600   0.1099200   0.0000000), wk =   0.0219479
        k(   57) = (   0.0549600   0.1099200   0.0293139), wk =   0.0438957
        k(   58) = (   0.0549600   0.1099200   0.0586279), wk =   0.0438957
        k(   59) = (   0.0549600   0.1099200   0.0879418), wk =   0.0438957
        k(   60) = (   0.0549600   0.1099200   0.1172558), wk =   0.0438957
        k(   61) = (   0.0824400   0.0824400   0.0000000), wk =   0.0109739
        k(   62) = (   0.0824400   0.0824400   0.0293139), wk =   0.0219479
        k(   63) = (   0.0824400   0.0824400   0.0586279), wk =   0.0219479
        k(   64) = (   0.0824400   0.0824400   0.0879418), wk =   0.0219479
        k(   65) = (   0.0824400   0.0824400   0.1172558), wk =   0.0219479
        k(   66) = (   0.0824400   0.1099200   0.0000000), wk =   0.0219479
        k(   67) = (   0.0824400   0.1099200   0.0293139), wk =   0.0438957
        k(   68) = (   0.0824400   0.1099200   0.0586279), wk =   0.0438957
        k(   69) = (   0.0824400   0.1099200   0.0879418), wk =   0.0438957
        k(   70) = (   0.0824400   0.1099200   0.1172558), wk =   0.0438957
        k(   71) = (   0.1099200   0.1099200   0.0000000), wk =   0.0109739
        k(   72) = (   0.1099200   0.1099200   0.0293139), wk =   0.0219479
        k(   73) = (   0.1099200   0.1099200   0.0586279), wk =   0.0219479
        k(   74) = (   0.1099200   0.1099200   0.0879418), wk =   0.0219479
        k(   75) = (   0.1099200   0.1099200   0.1172558), wk =   0.0219479

     Largest allocated arrays     est. size (Mb)     dimensions
     Largest temporary arrays     est. size (Mb)     dimensions

     Initial potential from superposition of free atoms

     starting charge   72.99990, renormalised to   76.00000

     *
     * You are using vdW-DF for exchange-correlation in this calculation.
     * Please cite the following three references that made this development
     * possible:
     *
     *   M. Dion, H. Rydberg, E. Schroder, D. C. Langreth, and
     *   B. I. Lundqvist, Phys. Rev. Lett. 92, 246401 (2004).
     *
     *   T. Thonhauser, V. R. Cooper, S. Li, A. Puzder, P. Hyldgaard, and
     *   D. C. Langreth, Phys. Rev. B 76, 125112 (2007).
     *
     *   G. Roman-Perez and J. M. Soler, Phys. Rev. Lett. 103, 096102 (2009).
     *
     *
     * If you are using vdW-DF2, please also cite:
     *
     *   K. Lee, E. D. Murray, L. Kong, B. I. Lundqvist, and
     *   D. C. Langreth, Phys. Rev. B 82, 081101(R) (2010).
     *
     *
     * If you are calculating the stress with vdW-DF, please also cite:
     *
     *   R. Sabatini, E. Kucukbenli, B. Kolb, T. Thonhauser, and
     *   S. de Gironcoli, J. Phys.: Condens. Matter 24, 424209 (2012).
     *

     Carrying out vdW-DF run using the following parameters:

     Nqs =      20    Nr_points =    1024   r_max =   100.000
     q_mesh =
               0.00001000     0.04494208     0.09755937     0.15916263
               0.23128650     0.31572767     0.41458969     0.53033537
               0.66584808     0.82450364     1.01025438     1.22772762
               1.48234092     1.78043706     2.12944203     2.53805004
               3.01644009     3.57652955     4.23227104     5.00000000

     Gradients computed in reciprocal space

     Starting wfc are   52 randomized atomic wfcs +    6 random wfc

     Self-consistent Calculation

     iteration #  1     ecut=    58.80 Ry     beta=0.10
     Davidson diagonalization with overlap
     ethr =  1.00E-02,  avg # of iterations =  4.3

     total energy              =   -1403.64398130 Ry
     Harris-Foulkes estimate   =   -1405.40803118 Ry
     estimated scf accuracy    <      10.37380816 Ry

[...]

     total energy              =   -1403.23447546 Ry
     Harris-Foulkes estimate   =   -1403.23448461 Ry
     estimated scf accuracy    <       0.00006067 Ry

     iteration # 11     ecut=    58.80 Ry     beta=0.10
     Davidson diagonalization with overlap
     ethr =  7.98E-08,  avg # of iterations =  1.2

     End of self-consistent calculation

          k = 0.0000 0.0000 0.0000 (  3221 PWs)   bands (ev):

   -97.0113 -97.0097 -77.0786 -77.0654 -54.4233 -54.4210 -54.4195 -54.4195
   -54.4064 -54.4064 -40.6023 -40.6023 -40.5560 -40.5399 -40.5167 -40.5167
     7.3031   8.8952   9.2749   9.3914   9.7956   9.7956  10.1601  10.9741
    10.9741  11.5963  12.3253  12.4369  12.8983  12.9682  13.3956  13.3973
    13.4519  13.4519  13.4728  13.4728  13.6072  16.5108  16.5108  17.6840
    20.7397  21.4053  22.7292  25.6002  25.6002  25.6337  27.0454  27.0454
    28.4218  30.8621  31.7051  32.3274  32.3429  32.3429  33.8419  34.3185
    36.4118  36.4118

[...]

          k = 0.1099 0.1099 0.1173 (  3190 PWs)   bands (ev):

   -97.0105 -97.0105 -77.0721 -77.0717 -54.4225 -54.4224 -54.4206 -54.4202
   -54.4057 -54.4053 -40.6107 -40.6080 -40.5503 -40.5498 -40.5119 -40.5093
     9.0351   9.0351   9.5626   9.6320  10.6401  10.7196  10.9601  11.0033
    11.0402  11.0571  12.5625  12.5955  12.6698  12.7660  13.2043  13.2518
    13.3233  13.3483  13.4040  13.4315  14.2159  14.9632  15.0437  15.0501
    18.4274  18.5423  18.9683  19.4568  30.9223  31.4736  31.9140  31.9259
    32.1610  32.3709  33.9206  34.0187  34.3105  34.4912  35.6985  36.0232
    36.9429  37.3072

     the Fermi energy is    15.2112 ev

!    total energy              =   -1403.23452458 Ry
     Harris-Foulkes estimate   =   -1403.23448341 Ry
     estimated scf accuracy    <       0.00000084 Ry

     The total energy is the sum of the following terms:

     one-electron contribution =    -836.88636569 Ry
     hartree contribution      =     459.24010670 Ry
     xc contribution           =    -140.29000124 Ry
     ewald contribution        =    -885.29586979 Ry
     smearing contrib. (-TS)   =      -0.00239456 Ry

     convergence has been achieved in  11 iterations

     Forces acting on atoms (Ry/au):

     atom    1 type  1   force =     0.00000000    0.00000000    0.00000000
     atom    2 type  1   force =     0.00000000    0.00000000    0.00000000
     atom    3 type  2   force =     0.00000000    0.00000000    0.00000000
     atom    4 type  2   force =     0.00000000    0.00000000    0.00000000

     Total force =     0.000000     Total SCF correction =     0.000000

     General routines

     Parallel routines

   This run was terminated on:   8:32:45  14Nov2017

   JOB DONE.