     Program PWSCF v.5.1rc2 starts on 15Nov2017 at  3:53:59

     Current dimensions of program PWSCF are:
     Max number of different atomic species (ntypx) = 10
     Max number of k-points (npk) =  40000
     Max angular momentum in pseudopotentials (lmaxx) =  3

     IMPORTANT: XC functional enforced from input :
     Exchange-correlation      = BEEF-VDW ( 1  4 27 13 2)
     Any further DFT definition will be discarded
     Please, verify this is what you really want

     Found symmetry operation: I + ( -0.5000 -0.5000  0.0000)
     This is a supercell, fractional translations are disabled

     bravais-lattice index     =            0
     lattice parameter (alat)  =       1.8897  a.u.
     unit-cell volume          =     495.2805 (a.u.)^3
     number of atoms/cell      =            4
     number of atomic types    =            2
     number of electrons       =        58.00
     number of Kohn-Sham states=           49
     kinetic-energy cutoff     =      58.7989  Ry
     charge density cutoff     =     587.9892  Ry
     convergence threshold     =      1.0E-06
     mixing beta               =       0.1000
     number of iterations used =           10  plain     mixing
     Exchange-correlation      = BEEF-VDW ( 1  4 27 13 2)

     celldm(1)=   1.889726  celldm(2)=   0.000000  celldm(3)=   0.000000
     celldm(4)=   0.000000  celldm(5)=   0.000000  celldm(6)=   0.000000

     crystal axes: (cart. coord. in units of alat)
               a(1) = (   4.699333   0.000000   0.000000 )
               a(2) = (   0.000000   4.699333   0.000000 )
               a(3) = (   0.000000   0.000000   3.323396 )

     reciprocal axes: (cart. coord. in units 2 pi/alat)
               b(1) = (  0.212796  0.000000  0.000000 )
               b(2) = (  0.000000  0.212796  0.000000 )
               b(3) = (  0.000000  0.000000  0.300897 )

     PseudoPot. # 1 for Ru read from file:
     /home/users/vossj/suncat/psp/gbrv1.5pbe/Ru.UPF
     MD5 check sum: 7158a806dd851261a58e6920c40ebe78
     Pseudo is Ultrasoft + core correction, Zval = 16.0
     Generated by new atomic code, or converted to UPF format
     Using radial grid of  967 points,  6 beta functions with:
                l(1) =   0
                l(2) =   0
                l(3) =   1
                l(4) =   1
                l(5) =   2
                l(6) =   2
     Q(r) pseudized with  8 coefficients,  rinner =    1.300   1.300   1.300
                                                       1.300   1.300

     PseudoPot. # 2 for Tl read from file:
     /home/users/vossj/suncat/psp/gbrv1.5pbe/Tl.UPF
     MD5 check sum: b76cf1f7e72655a2b2c53cf6385d7059
     Pseudo is Ultrasoft + core correction, Zval = 13.0
     Generated by new atomic code, or converted to UPF format
     Using radial grid of  899 points,  6 beta functions with:
                l(1) =   0
                l(2) =   0
                l(3) =   1
                l(4) =   1
                l(5) =   2
                l(6) =   2
     Q(r) pseudized with  6 coefficients,  rinner =    1.100   1.100   1.100
                                                       1.100   1.100

     vdW kernel table read from file vdW_kernel_table
     MD5 check sum: 095c7af220d748ca6e76c0b4c6cfb241

     atomic species   valence    mass     pseudopotential
        Ru1           16.00   101.07000     Ru( 1.00)
        Tl1           13.00   204.38300     Tl( 1.00)

     16 Sym. Ops., with inversion, found

   Cartesian axes

     site n.     atom                  positions (alat units)
         1           Ru1 tau(   1) = (   0.0000000   0.0000000   0.0000000  )
         2           Ru1 tau(   2) = (   2.3496666   2.3496666   0.0000000  )
         3           Tl1 tau(   3) = (   2.3496666   0.0000000   1.6616981  )
         4           Tl1 tau(   4) = (   0.0000000   2.3496666   1.6616981  )

     number of k points=    75  Fermi-Dirac smearing, width (Ry)=  0.0073
                       cart. coord. in units 2pi/alat
        k(    1) = (   0.0000000   0.0000000   0.0000000), wk =   0.0027435
        k(    2) = (   0.0000000   0.0000000   0.0334330), wk =   0.0054870
        k(    3) = (   0.0000000   0.0000000   0.0668660), wk =   0.0054870
        k(    4) = (   0.0000000   0.0000000   0.1002990), wk =   0.0054870
        k(    5) = (   0.0000000   0.0000000   0.1337320), wk =   0.0054870
        k(    6) = (   0.0000000   0.0236440   0.0000000), wk =   0.0109739
        k(    7) = (   0.0000000   0.0236440   0.0334330), wk =   0.0219479
        k(    8) = (   0.0000000   0.0236440   0.0668660), wk =   0.0219479
        k(    9) = (   0.0000000   0.0236440   0.1002990), wk =   0.0219479
        k(   10) = (   0.0000000   0.0236440   0.1337320), wk =   0.0219479
        k(   11) = (   0.0000000   0.0472880   0.0000000), wk =   0.0109739
        k(   12) = (   0.0000000   0.0472880   0.0334330), wk =   0.0219479
        k(   13) = (   0.0000000   0.0472880   0.0668660), wk =   0.0219479
        k(   14) = (   0.0000000   0.0472880   0.1002990), wk =   0.0219479
        k(   15) = (   0.0000000   0.0472880   0.1337320), wk =   0.0219479
        k(   16) = (   0.0000000   0.0709320   0.0000000), wk =   0.0109739
        k(   17) = (   0.0000000   0.0709320   0.0334330), wk =   0.0219479
        k(   18) = (   0.0000000   0.0709320   0.0668660), wk =   0.0219479
        k(   19) = (   0.0000000   0.0709320   0.1002990), wk =   0.0219479
        k(   20) = (   0.0000000   0.0709320   0.1337320), wk =   0.0219479
        k(   21) = (   0.0000000   0.0945761   0.0000000), wk =   0.0109739
        k(   22) = (   0.0000000   0.0945761   0.0334330), wk =   0.0219479
        k(   23) = (   0.0000000   0.0945761   0.0668660), wk =   0.0219479
        k(   24) = (   0.0000000   0.0945761   0.1002990), wk =   0.0219479
        k(   25) = (   0.0000000   0.0945761   0.1337320), wk =   0.0219479
        k(   26) = (   0.0236440   0.0236440   0.0000000), wk =   0.0109739
        k(   27) = (   0.0236440   0.0236440   0.0334330), wk =   0.0219479
        k(   28) = (   0.0236440   0.0236440   0.0668660), wk =   0.0219479
        k(   29) = (   0.0236440   0.0236440   0.1002990), wk =   0.0219479
        k(   30) = (   0.0236440   0.0236440   0.1337320), wk =   0.0219479
        k(   31) = (   0.0236440   0.0472880   0.0000000), wk =   0.0219479
        k(   32) = (   0.0236440   0.0472880   0.0334330), wk =   0.0438957
        k(   33) = (   0.0236440   0.0472880   0.0668660), wk =   0.0438957
        k(   34) = (   0.0236440   0.0472880   0.1002990), wk =   0.0438957
        k(   35) = (   0.0236440   0.0472880   0.1337320), wk =   0.0438957
        k(   36) = (   0.0236440   0.0709320   0.0000000), wk =   0.0219479
        k(   37) = (   0.0236440   0.0709320   0.0334330), wk =   0.0438957
        k(   38) = (   0.0236440   0.0709320   0.0668660), wk =   0.0438957
        k(   39) = (   0.0236440   0.0709320   0.1002990), wk =   0.0438957
        k(   40) = (   0.0236440   0.0709320   0.1337320), wk =   0.0438957
        k(   41) = (   0.0236440   0.0945761   0.0000000), wk =   0.0219479
        k(   42) = (   0.0236440   0.0945761   0.0334330), wk =   0.0438957
        k(   43) = (   0.0236440   0.0945761   0.0668660), wk =   0.0438957
        k(   44) = (   0.0236440   0.0945761   0.1002990), wk =   0.0438957
        k(   45) = (   0.0236440   0.0945761   0.1337320), wk =   0.0438957
        k(   46) = (   0.0472880   0.0472880   0.0000000), wk =   0.0109739
        k(   47) = (   0.0472880   0.0472880   0.0334330), wk =   0.0219479
        k(   48) = (   0.0472880   0.0472880   0.0668660), wk =   0.0219479
        k(   49) = (   0.0472880   0.0472880   0.1002990), wk =   0.0219479
        k(   50) = (   0.0472880   0.0472880   0.1337320), wk =   0.0219479
        k(   51) = (   0.0472880   0.0709320   0.0000000), wk =   0.0219479
        k(   52) = (   0.0472880   0.0709320   0.0334330), wk =   0.0438957
        k(   53) = (   0.0472880   0.0709320   0.0668660), wk =   0.0438957
        k(   54) = (   0.0472880   0.0709320   0.1002990), wk =   0.0438957
        k(   55) = (   0.0472880   0.0709320   0.1337320), wk =   0.0438957
        k(   56) = (   0.0472880   0.0945761   0.0000000), wk =   0.0219479
        k(   57) = (   0.0472880   0.0945761   0.0334330), wk =   0.0438957
        k(   58) = (   0.0472880   0.0945761   0.0668660), wk =   0.0438957
        k(   59) = (   0.0472880   0.0945761   0.1002990), wk =   0.0438957
        k(   60) = (   0.0472880   0.0945761   0.1337320), wk =   0.0438957
        k(   61) = (   0.0709320   0.0709320   0.0000000), wk =   0.0109739
        k(   62) = (   0.0709320   0.0709320   0.0334330), wk =   0.0219479
        k(   63) = (   0.0709320   0.0709320   0.0668660), wk =   0.0219479
        k(   64) = (   0.0709320   0.0709320   0.1002990), wk =   0.0219479
        k(   65) = (   0.0709320   0.0709320   0.1337320), wk =   0.0219479
        k(   66) = (   0.0709320   0.0945761   0.0000000), wk =   0.0219479
        k(   67) = (   0.0709320   0.0945761   0.0334330), wk =   0.0438957
        k(   68) = (   0.0709320   0.0945761   0.0668660), wk =   0.0438957
        k(   69) = (   0.0709320   0.0945761   0.1002990), wk =   0.0438957
        k(   70) = (   0.0709320   0.0945761   0.1337320), wk =   0.0438957
        k(   71) = (   0.0945761   0.0945761   0.0000000), wk =   0.0109739
        k(   72) = (   0.0945761   0.0945761   0.0334330), wk =   0.0219479
        k(   73) = (   0.0945761   0.0945761   0.0668660), wk =   0.0219479
        k(   74) = (   0.0945761   0.0945761   0.1002990), wk =   0.0219479
        k(   75) = (   0.0945761   0.0945761   0.1337320), wk =   0.0219479

     Largest allocated arrays     est. size (Mb)     dimensions
     Largest temporary arrays     est. size (Mb)     dimensions

     Initial potential from superposition of free atoms
     Check: negative starting charge=   -0.248157

     starting charge   55.99024, renormalised to   58.00000

     negative rho (up, down):  2.571E-01 0.000E+00

     *
     * You are using vdW-DF for exchange-correlation in this calculation.
     * Please cite the following three references that made this development
     * possible:
     *
     *   M. Dion, H. Rydberg, E. Schroder, D. C. Langreth, and
     *   B. I. Lundqvist, Phys. Rev. Lett. 92, 246401 (2004).
     *
     *   T. Thonhauser, V. R. Cooper, S. Li, A. Puzder, P. Hyldgaard, and
     *   D. C. Langreth, Phys. Rev. B 76, 125112 (2007).
     *
     *   G. Roman-Perez and J. M. Soler, Phys. Rev. Lett. 103, 096102 (2009).
     *
     *
     * If you are using vdW-DF2, please also cite:
     *
     *   K. Lee, E. D. Murray, L. Kong, B. I. Lundqvist, and
     *   D. C. Langreth, Phys. Rev. B 82, 081101(R) (2010).
     *
     *
     * If you are calculating the stress with vdW-DF, please also cite:
     *
     *   R. Sabatini, E. Kucukbenli, B. Kolb, T. Thonhauser, and
     *   S. de Gironcoli, J. Phys.: Condens. Matter 24, 424209 (2012).
     *

     Carrying out vdW-DF run using the following parameters:

     Nqs =      20    Nr_points =    1024   r_max =   100.000
     q_mesh =
               0.00001000     0.04494208     0.09755937     0.15916263
               0.23128650     0.31572767     0.41458969     0.53033537
               0.66584808     0.82450364     1.01025438     1.22772762
               1.48234092     1.78043706     2.12944203     2.53805004
               3.01644009     3.57652955     4.23227104     5.00000000

     Gradients computed in reciprocal space

     Starting wfc are   44 randomized atomic wfcs +    5 random wfc

     Self-consistent Calculation

     iteration #  1     ecut=    58.80 Ry     beta=0.10
     Davidson diagonalization with overlap
     ethr =  1.00E-02,  avg # of iterations =  5.0

[...]

     total energy              =    -683.90609504 Ry
     Harris-Foulkes estimate   =    -684.01608209 Ry
     estimated scf accuracy    <       0.74395685 Ry

[...]

     iteration #  8     ecut=    58.80 Ry     beta=0.10
     Davidson diagonalization with overlap
     c_bands:  1 eigenvalues not converged
     ethr =  1.61E-06,  avg # of iterations =  4.5

[...]

     total energy              =    -683.73659172 Ry
     Harris-Foulkes estimate   =    -683.73652643 Ry
     estimated scf accuracy    <       0.00000581 Ry

     iteration # 12     ecut=    58.80 Ry     beta=0.10
     Davidson diagonalization with overlap
     ethr =  7.22E-09,  avg # of iterations =  2.0

     negative rho (up, down):  2.615E-01 0.000E+00

     End of self-consistent calculation

          k = 0.0000 0.0000 0.0000 (  3787 PWs)   bands (ev):

   -55.0730 -55.0663 -25.1136 -25.1136 -25.0585 -25.0585 -25.0554 -25.0455
     4.8473   4.8475   4.9141   5.1095   5.2989   5.2989   5.5626   5.5626
     5.5631   5.9265   6.7713  10.9141  14.9054  14.9088  15.2991  15.4329
    15.4329  16.4664  16.4664  16.8889  16.8906  16.8906  17.4849  19.3702
    21.6018  21.8282  21.8322  21.8322  25.8984  26.8625  28.2539  28.2539
    29.8907  29.8916  31.6050  32.2922  32.2954  32.2954  33.8036  36.0272
    36.0272

[...]

          k = 0.0946 0.0946 0.1337 (  3804 PWs)   bands (ev):

   -55.0665 -55.0663 -25.1137 -25.1121 -25.1088 -25.1085 -25.0506 -25.0489
     4.9321   4.9391   5.1078   5.1328   5.2961   5.3025   5.3075   5.3156
     5.8881   5.9076  10.8116  10.8975  14.8157  14.9065  15.2389  15.3999
    15.5131  15.6380  16.4040  16.4755  16.6730  16.6912  17.5679  17.6130
    19.4401  19.5952  21.7506  21.9146  26.6101  26.9148  28.2199  28.2390
    28.2872  28.3936  31.2652  31.4471  33.9251  34.1693  35.9234  36.0978
    36.1161

     the Fermi energy is    16.8406 ev

!    total energy              =    -683.73688075 Ry
     Harris-Foulkes estimate   =    -683.73659260 Ry
     estimated scf accuracy    <       0.00000005 Ry

     The total energy is the sum of the following terms:

     one-electron contribution =    -117.14731239 Ry
     hartree contribution      =     105.87308674 Ry
     xc contribution           =    -182.15556673 Ry
     ewald contribution        =    -490.29458891 Ry
     smearing contrib. (-TS)   =      -0.01249947 Ry

     convergence has been achieved in  12 iterations

     Forces acting on atoms (Ry/au):

     negative rho (up, down):  2.615E-01 0.000E+00
     atom    1 type  1   force =     0.00000000    0.00000000    0.00000000
     atom    2 type  1   force =     0.00000000    0.00000000    0.00000000
     atom    3 type  2   force =     0.00000000    0.00000000    0.00000000
     atom    4 type  2   force =     0.00000000    0.00000000    0.00000000

     Total force =     0.000000     Total SCF correction =     0.000000

     General routines

     Parallel routines

   This run was terminated on:   3:54:42  15Nov2017

   JOB DONE.