     Program PWSCF v.5.1rc2 starts on 15Nov2017 at  5: 1:16

     Current dimensions of program PWSCF are:
     Max number of different atomic species (ntypx) = 10
     Max number of k-points (npk) =  40000
     Max angular momentum in pseudopotentials (lmaxx) =  3

     IMPORTANT: XC functional enforced from input :
     Exchange-correlation      = BEEF-VDW ( 1  4 27 13 2)
     Any further DFT definition will be discarded
     Please, verify this is what you really want

     Found symmetry operation: I + ( -0.5000 -0.5000  0.0000)
     This is a supercell, fractional translations are disabled

     bravais-lattice index     =            0
     lattice parameter (alat)  =       1.8897  a.u.
     unit-cell volume          =     384.5516 (a.u.)^3
     number of atoms/cell      =            4
     number of atomic types    =            2
     number of electrons       =        62.00
     number of Kohn-Sham states=           51
     kinetic-energy cutoff     =      58.7989  Ry
     charge density cutoff     =     587.9892  Ry
     convergence threshold     =      1.0E-06
     mixing beta               =       0.1000
     number of iterations used =           10  plain     mixing
     Exchange-correlation      = BEEF-VDW ( 1  4 27 13 2)

     celldm(1)=   1.889726  celldm(2)=   0.000000  celldm(3)=   0.000000
     celldm(4)=   0.000000  celldm(5)=   0.000000  celldm(6)=   0.000000

     crystal axes: (cart. coord. in units of alat)
               a(1) = (   3.843999   0.000000   0.000000 )
               a(2) = (   0.000000   3.843999   0.000000 )
               a(3) = (   0.000000   0.000000   3.856484 )

     reciprocal axes: (cart. coord. in units 2 pi/alat)
               b(1) = (  0.260146  0.000000  0.000000 )
               b(2) = (  0.000000  0.260146  0.000000 )
               b(3) = (  0.000000  0.000000  0.259304 )

     PseudoPot. # 1 for Ru read from file:
     /home/users/vossj/suncat/psp/gbrv1.5pbe/Ru.UPF
     MD5 check sum: 7158a806dd851261a58e6920c40ebe78
     Pseudo is Ultrasoft + core correction, Zval = 16.0
     Generated by new atomic code, or converted to UPF format
     Using radial grid of  967 points,  6 beta functions with:
                l(1) =   0
                l(2) =   0
                l(3) =   1
                l(4) =   1
                l(5) =   2
                l(6) =   2
     Q(r) pseudized with  8 coefficients,  rinner =    1.300   1.300   1.300
                                                       1.300   1.300

     PseudoPot. # 2 for Ir read from file:
     /home/users/vossj/suncat/psp/gbrv1.5pbe/Ir.UPF
     MD5 check sum: 8836f839c3459d2b385c504ce6d91f2c
     Pseudo is Ultrasoft + core correction, Zval = 15.0
     Generated by new atomic code, or converted to UPF format
     Using radial grid of  983 points,  7 beta functions with:
                l(1) =   0
                l(2) =   0
                l(3) =   1
                l(4) =   1
                l(5) =   1
                l(6) =   2
                l(7) =   2
     Q(r) pseudized with  8 coefficients,  rinner =    1.400   1.400   1.400
                                                       1.400   1.400

     vdW kernel table read from file vdW_kernel_table
     MD5 check sum: 095c7af220d748ca6e76c0b4c6cfb241

     atomic species   valence    mass     pseudopotential
        Ru1           16.00   101.07000     Ru( 1.00)
        Ir1           15.00   192.22000     Ir( 1.00)

     16 Sym. Ops., with inversion, found

   Cartesian axes

     site n.     atom                  positions (alat units)
         1           Ru1 tau(   1) = (   0.0000000   0.0000000   0.0000000  )
         2           Ru1 tau(   2) = (   1.9219995   1.9219995   0.0000000  )
         3           Ir1 tau(   3) = (   1.9219995   0.0000000   1.9282418  )
         4           Ir1 tau(   4) = (   0.0000000   1.9219995   1.9282418  )

     number of k points=    75  Fermi-Dirac smearing, width (Ry)=  0.0073
                       cart. coord. in units 2pi/alat
        k(    1) = (   0.0000000   0.0000000   0.0000000), wk =   0.0027435
        k(    2) = (   0.0000000   0.0000000   0.0288115), wk =   0.0054870
        k(    3) = (   0.0000000   0.0000000   0.0576230), wk =   0.0054870
        k(    4) = (   0.0000000   0.0000000   0.0864345), wk =   0.0054870
        k(    5) = (   0.0000000   0.0000000   0.1152460), wk =   0.0054870
        k(    6) = (   0.0000000   0.0289051   0.0000000), wk =   0.0109739
        k(    7) = (   0.0000000   0.0289051   0.0288115), wk =   0.0219479
        k(    8) = (   0.0000000   0.0289051   0.0576230), wk =   0.0219479
        k(    9) = (   0.0000000   0.0289051   0.0864345), wk =   0.0219479
        k(   10) = (   0.0000000   0.0289051   0.1152460), wk =   0.0219479
        k(   11) = (   0.0000000   0.0578102   0.0000000), wk =   0.0109739
        k(   12) = (   0.0000000   0.0578102   0.0288115), wk =   0.0219479
        k(   13) = (   0.0000000   0.0578102   0.0576230), wk =   0.0219479
        k(   14) = (   0.0000000   0.0578102   0.0864345), wk =   0.0219479
        k(   15) = (   0.0000000   0.0578102   0.1152460), wk =   0.0219479
        k(   16) = (   0.0000000   0.0867152   0.0000000), wk =   0.0109739
        k(   17) = (   0.0000000   0.0867152   0.0288115), wk =   0.0219479
        k(   18) = (   0.0000000   0.0867152   0.0576230), wk =   0.0219479
        k(   19) = (   0.0000000   0.0867152   0.0864345), wk =   0.0219479
        k(   20) = (   0.0000000   0.0867152   0.1152460), wk =   0.0219479
        k(   21) = (   0.0000000   0.1156203   0.0000000), wk =   0.0109739
        k(   22) = (   0.0000000   0.1156203   0.0288115), wk =   0.0219479
        k(   23) = (   0.0000000   0.1156203   0.0576230), wk =   0.0219479
        k(   24) = (   0.0000000   0.1156203   0.0864345), wk =   0.0219479
        k(   25) = (   0.0000000   0.1156203   0.1152460), wk =   0.0219479
        k(   26) = (   0.0289051   0.0289051   0.0000000), wk =   0.0109739
        k(   27) = (   0.0289051   0.0289051   0.0288115), wk =   0.0219479
        k(   28) = (   0.0289051   0.0289051   0.0576230), wk =   0.0219479
        k(   29) = (   0.0289051   0.0289051   0.0864345), wk =   0.0219479
        k(   30) = (   0.0289051   0.0289051   0.1152460), wk =   0.0219479
        k(   31) = (   0.0289051   0.0578102   0.0000000), wk =   0.0219479
        k(   32) = (   0.0289051   0.0578102   0.0288115), wk =   0.0438957
        k(   33) = (   0.0289051   0.0578102   0.0576230), wk =   0.0438957
        k(   34) = (   0.0289051   0.0578102   0.0864345), wk =   0.0438957
        k(   35) = (   0.0289051   0.0578102   0.1152460), wk =   0.0438957
        k(   36) = (   0.0289051   0.0867152   0.0000000), wk =   0.0219479
        k(   37) = (   0.0289051   0.0867152   0.0288115), wk =   0.0438957
        k(   38) = (   0.0289051   0.0867152   0.0576230), wk =   0.0438957
        k(   39) = (   0.0289051   0.0867152   0.0864345), wk =   0.0438957
        k(   40) = (   0.0289051   0.0867152   0.1152460), wk =   0.0438957
        k(   41) = (   0.0289051   0.1156203   0.0000000), wk =   0.0219479
        k(   42) = (   0.0289051   0.1156203   0.0288115), wk =   0.0438957
        k(   43) = (   0.0289051   0.1156203   0.0576230), wk =   0.0438957
        k(   44) = (   0.0289051   0.1156203   0.0864345), wk =   0.0438957
        k(   45) = (   0.0289051   0.1156203   0.1152460), wk =   0.0438957
        k(   46) = (   0.0578102   0.0578102   0.0000000), wk =   0.0109739
        k(   47) = (   0.0578102   0.0578102   0.0288115), wk =   0.0219479
        k(   48) = (   0.0578102   0.0578102   0.0576230), wk =   0.0219479
        k(   49) = (   0.0578102   0.0578102   0.0864345), wk =   0.0219479
        k(   50) = (   0.0578102   0.0578102   0.1152460), wk =   0.0219479
        k(   51) = (   0.0578102   0.0867152   0.0000000), wk =   0.0219479
        k(   52) = (   0.0578102   0.0867152   0.0288115), wk =   0.0438957
        k(   53) = (   0.0578102   0.0867152   0.0576230), wk =   0.0438957
        k(   54) = (   0.0578102   0.0867152   0.0864345), wk =   0.0438957
        k(   55) = (   0.0578102   0.0867152   0.1152460), wk =   0.0438957
        k(   56) = (   0.0578102   0.1156203   0.0000000), wk =   0.0219479
        k(   57) = (   0.0578102   0.1156203   0.0288115), wk =   0.0438957
        k(   58) = (   0.0578102   0.1156203   0.0576230), wk =   0.0438957
        k(   59) = (   0.0578102   0.1156203   0.0864345), wk =   0.0438957
        k(   60) = (   0.0578102   0.1156203   0.1152460), wk =   0.0438957
        k(   61) = (   0.0867152   0.0867152   0.0000000), wk =   0.0109739
        k(   62) = (   0.0867152   0.0867152   0.0288115), wk =   0.0219479
        k(   63) = (   0.0867152   0.0867152   0.0576230), wk =   0.0219479
        k(   64) = (   0.0867152   0.0867152   0.0864345), wk =   0.0219479
        k(   65) = (   0.0867152   0.0867152   0.1152460), wk =   0.0219479
        k(   66) = (   0.0867152   0.1156203   0.0000000), wk =   0.0219479
        k(   67) = (   0.0867152   0.1156203   0.0288115), wk =   0.0438957
        k(   68) = (   0.0867152   0.1156203   0.0576230), wk =   0.0438957
        k(   69) = (   0.0867152   0.1156203   0.0864345), wk =   0.0438957
        k(   70) = (   0.0867152   0.1156203   0.1152460), wk =   0.0438957
        k(   71) = (   0.1156203   0.1156203   0.0000000), wk =   0.0109739
        k(   72) = (   0.1156203   0.1156203   0.0288115), wk =   0.0219479
        k(   73) = (   0.1156203   0.1156203   0.0576230), wk =   0.0219479
        k(   74) = (   0.1156203   0.1156203   0.0864345), wk =   0.0219479
        k(   75) = (   0.1156203   0.1156203   0.1152460), wk =   0.0219479

     Largest allocated arrays     est. size (Mb)     dimensions
     Largest temporary arrays     est. size (Mb)     dimensions

     Initial potential from superposition of free atoms
     Check: negative starting charge=   -0.878249

     starting charge   58.99991, renormalised to   62.00000

     negative rho (up, down):  9.229E-01 0.000E+00

     *
     * You are using vdW-DF for exchange-correlation in this calculation.
     * Please cite the following three references that made this development
     * possible:
     *
     *   M. Dion, H. Rydberg, E. Schroder, D. C. Langreth, and
     *   B. I. Lundqvist, Phys. Rev. Lett. 92, 246401 (2004).
     *
     *   T. Thonhauser, V. R. Cooper, S. Li, A. Puzder, P. Hyldgaard, and
     *   D. C. Langreth, Phys. Rev. B 76, 125112 (2007).
     *
     *   G. Roman-Perez and J. M. Soler, Phys. Rev. Lett. 103, 096102 (2009).
     *
     *
     * If you are using vdW-DF2, please also cite:
     *
     *   K. Lee, E. D. Murray, L. Kong, B. I. Lundqvist, and
     *   D. C. Langreth, Phys. Rev. B 82, 081101(R) (2010).
     *
     *
     * If you are calculating the stress with vdW-DF, please also cite:
     *
     *   R. Sabatini, E. Kucukbenli, B. Kolb, T. Thonhauser, and
     *   S. de Gironcoli, J. Phys.: Condens. Matter 24, 424209 (2012).
     *

     Carrying out vdW-DF run using the following parameters:

     Nqs =      20    Nr_points =    1024   r_max =   100.000
     q_mesh =
               0.00001000     0.04494208     0.09755937     0.15916263
               0.23128650     0.31572767     0.41458969     0.53033537
               0.66584808     0.82450364     1.01025438     1.22772762
               1.48234092     1.78043706     2.12944203     2.53805004
               3.01644009     3.57652955     4.23227104     5.00000000

     Gradients computed in reciprocal space

     Starting wfc are   50 randomized atomic wfcs +    1 random wfc

     Self-consistent Calculation

     iteration #  1     ecut=    58.80 Ry     beta=0.10
     Davidson diagonalization with overlap
     ethr =  1.00E-02,  avg # of iterations =  4.8

[...]

     total energy              =    -757.58001057 Ry
     Harris-Foulkes estimate   =    -758.44922668 Ry
     estimated scf accuracy    <       5.53082679 Ry

[...]

     total energy              =    -757.03357101 Ry
     Harris-Foulkes estimate   =    -757.03356921 Ry
     estimated scf accuracy    <       0.00000370 Ry

     iteration # 11     ecut=    58.80 Ry     beta=0.10
     Davidson diagonalization with overlap
     ethr =  5.97E-09,  avg # of iterations =  2.0

     negative rho (up, down):  7.958E-01 0.000E+00

     End of self-consistent calculation

          k = 0.0000 0.0000 0.0000 (  2945 PWs)   bands (ev):

   -50.1254 -50.0280 -26.7023 -26.7023 -26.5551 -26.4576 -26.3408 -26.3408
   -20.2234 -20.2234 -20.0624 -19.9880 -19.8049 -19.8049  13.8831  16.1757
    16.3997  16.4724  16.7462  16.8211  16.8211  20.0611  20.0611  20.1251
    22.4614  22.4714  24.2384  24.3149  24.3593  24.7776  24.8499  24.8499
    24.8654  24.8654  24.9729  25.8788  25.9295  25.9295  33.6772  34.0707
    34.1408  35.1780  35.3823  35.6620  35.6620  35.6715  35.6715  35.8247
    36.5919  37.6057  42.9889

[...]

          k = 0.1156 0.1156 0.1152 (  2946 PWs)   bands (ev):

   -50.0774 -50.0745 -26.7499 -26.7394 -26.5164 -26.5141 -26.3162 -26.3051
   -20.2694 -20.2569 -20.0298 -20.0267 -19.7812 -19.7680  16.1474  16.2212
    16.7028  16.7167  19.5829  19.6391  19.7629  19.9116  20.0303  20.1193
    20.2548  20.3491  22.5643  22.6036  22.7560  23.0582  24.2100  24.2268
    24.2938  24.3538  24.4268  25.0217  25.0926  25.1446  30.4929  30.7858
    32.8470  33.1228  34.0852  34.0856  37.4031  37.4310  37.4672  37.4989
    42.8719  42.9953  43.0102

     the Fermi energy is    23.1105 ev

!    total energy              =    -757.03358294 Ry
     Harris-Foulkes estimate   =    -757.03357161 Ry
     estimated scf accuracy    <       0.00000019 Ry

     The total energy is the sum of the following terms:

     one-electron contribution =     -88.78640561 Ry
     hartree contribution      =      95.86720817 Ry
     xc contribution           =    -157.89831813 Ry
     ewald contribution        =    -606.20517003 Ry
     smearing contrib. (-TS)   =      -0.01089734 Ry

     convergence has been achieved in  11 iterations

     Forces acting on atoms (Ry/au):

     negative rho (up, down):  7.958E-01 0.000E+00
     atom    1 type  1   force =     0.00000000    0.00000000    0.00000000
     atom    2 type  1   force =     0.00000000    0.00000000    0.00000000
     atom    3 type  2   force =     0.00000000    0.00000000    0.00000000
     atom    4 type  2   force =     0.00000000    0.00000000    0.00000000

     Total force =     0.000000     Total SCF correction =     0.000000

     General routines

     Parallel routines

   This run was terminated on:   5: 1:54  15Nov2017

   JOB DONE.