     Program PWSCF v.5.1rc2 starts on 15Nov2017 at  4:14:57

     Current dimensions of program PWSCF are:
     Max number of different atomic species (ntypx) = 10
     Max number of k-points (npk) =  40000
     Max angular momentum in pseudopotentials (lmaxx) =  3

     IMPORTANT: XC functional enforced from input :
     Exchange-correlation      = BEEF-VDW ( 1  4 27 13 2)
     Any further DFT definition will be discarded
     Please, verify this is what you really want

     Found symmetry operation: I + ( -0.5000 -0.5000  0.0000)
     This is a supercell, fractional translations are disabled

     bravais-lattice index     =            0
     lattice parameter (alat)  =       1.8897  a.u.
     unit-cell volume          =     551.9055 (a.u.)^3
     number of atoms/cell      =            4
     number of atomic types    =            2
     number of electrons       =        58.00
     number of Kohn-Sham states=           49
     kinetic-energy cutoff     =      58.7989  Ry
     charge density cutoff     =     587.9892  Ry
     convergence threshold     =      1.0E-06
     mixing beta               =       0.1000
     number of iterations used =           10  plain     mixing
     Exchange-correlation      = BEEF-VDW ( 1  4 27 13 2)

     celldm(1)=   1.889726  celldm(2)=   0.000000  celldm(3)=   0.000000
     celldm(4)=   0.000000  celldm(5)=   0.000000  celldm(6)=   0.000000

     crystal axes: (cart. coord. in units of alat)
               a(1) = (   4.977943   0.000000   0.000000 )
               a(2) = (   0.000000   4.977943   0.000000 )
               a(3) = (   0.000000   0.000000   3.300413 )

     reciprocal axes: (cart. coord. in units 2 pi/alat)
               b(1) = (  0.200886  0.000000  0.000000 )
               b(2) = (  0.000000  0.200886  0.000000 )
               b(3) = (  0.000000  0.000000  0.302992 )

     PseudoPot. # 1 for Pt read from file:
     /home/users/vossj/suncat/psp/gbrv1.5pbe/Pt.UPF
     MD5 check sum: f09d6de1a584b5a045c4fc126da2d0c4
     Pseudo is Ultrasoft + core correction, Zval = 16.0
     Generated by new atomic code, or converted to UPF format
     Using radial grid of  985 points,  6 beta functions with:
                l(1) =   0
                l(2) =   0
                l(3) =   1
                l(4) =   1
                l(5) =   2
                l(6) =   2
     Q(r) pseudized with  8 coefficients,  rinner =    1.300   1.300   1.300
                                                       1.300   1.300

     PseudoPot. # 2 for Tl read from file:
     /home/users/vossj/suncat/psp/gbrv1.5pbe/Tl.UPF
     MD5 check sum: b76cf1f7e72655a2b2c53cf6385d7059
     Pseudo is Ultrasoft + core correction, Zval = 13.0
     Generated by new atomic code, or converted to UPF format
     Using radial grid of  899 points,  6 beta functions with:
                l(1) =   0
                l(2) =   0
                l(3) =   1
                l(4) =   1
                l(5) =   2
                l(6) =   2
     Q(r) pseudized with  6 coefficients,  rinner =    1.100   1.100   1.100
                                                       1.100   1.100

     vdW kernel table read from file vdW_kernel_table
     MD5 check sum: 095c7af220d748ca6e76c0b4c6cfb241

     atomic species   valence    mass     pseudopotential
        Pt1           16.00   195.08000     Pt( 1.00)
        Tl1           13.00   204.38300     Tl( 1.00)

     16 Sym. Ops., with inversion, found

   Cartesian axes

     site n.     atom                  positions (alat units)
         1           Pt1 tau(   1) = (   0.0000000   0.0000000   0.0000000  )
         2           Pt1 tau(   2) = (   2.4889713   2.4889713   0.0000000  )
         3           Tl1 tau(   3) = (   2.4889713   0.0000000   1.6502066  )
         4           Tl1 tau(   4) = (   0.0000000   2.4889713   1.6502066  )

     number of k points=    75  Fermi-Dirac smearing, width (Ry)=  0.0073
                       cart. coord. in units 2pi/alat
        k(    1) = (   0.0000000   0.0000000   0.0000000), wk =   0.0027435
        k(    2) = (   0.0000000   0.0000000   0.0336658), wk =   0.0054870
        k(    3) = (   0.0000000   0.0000000   0.0673316), wk =   0.0054870
        k(    4) = (   0.0000000   0.0000000   0.1009975), wk =   0.0054870
        k(    5) = (   0.0000000   0.0000000   0.1346633), wk =   0.0054870
        k(    6) = (   0.0000000   0.0223207   0.0000000), wk =   0.0109739
        k(    7) = (   0.0000000   0.0223207   0.0336658), wk =   0.0219479
        k(    8) = (   0.0000000   0.0223207   0.0673316), wk =   0.0219479
        k(    9) = (   0.0000000   0.0223207   0.1009975), wk =   0.0219479
        k(   10) = (   0.0000000   0.0223207   0.1346633), wk =   0.0219479
        k(   11) = (   0.0000000   0.0446414   0.0000000), wk =   0.0109739
        k(   12) = (   0.0000000   0.0446414   0.0336658), wk =   0.0219479
        k(   13) = (   0.0000000   0.0446414   0.0673316), wk =   0.0219479
        k(   14) = (   0.0000000   0.0446414   0.1009975), wk =   0.0219479
        k(   15) = (   0.0000000   0.0446414   0.1346633), wk =   0.0219479
        k(   16) = (   0.0000000   0.0669621   0.0000000), wk =   0.0109739
        k(   17) = (   0.0000000   0.0669621   0.0336658), wk =   0.0219479
        k(   18) = (   0.0000000   0.0669621   0.0673316), wk =   0.0219479
        k(   19) = (   0.0000000   0.0669621   0.1009975), wk =   0.0219479
        k(   20) = (   0.0000000   0.0669621   0.1346633), wk =   0.0219479
        k(   21) = (   0.0000000   0.0892828   0.0000000), wk =   0.0109739
        k(   22) = (   0.0000000   0.0892828   0.0336658), wk =   0.0219479
        k(   23) = (   0.0000000   0.0892828   0.0673316), wk =   0.0219479
        k(   24) = (   0.0000000   0.0892828   0.1009975), wk =   0.0219479
        k(   25) = (   0.0000000   0.0892828   0.1346633), wk =   0.0219479
        k(   26) = (   0.0223207   0.0223207   0.0000000), wk =   0.0109739
        k(   27) = (   0.0223207   0.0223207   0.0336658), wk =   0.0219479
        k(   28) = (   0.0223207   0.0223207   0.0673316), wk =   0.0219479
        k(   29) = (   0.0223207   0.0223207   0.1009975), wk =   0.0219479
        k(   30) = (   0.0223207   0.0223207   0.1346633), wk =   0.0219479
        k(   31) = (   0.0223207   0.0446414   0.0000000), wk =   0.0219479
        k(   32) = (   0.0223207   0.0446414   0.0336658), wk =   0.0438957
        k(   33) = (   0.0223207   0.0446414   0.0673316), wk =   0.0438957
        k(   34) = (   0.0223207   0.0446414   0.1009975), wk =   0.0438957
        k(   35) = (   0.0223207   0.0446414   0.1346633), wk =   0.0438957
        k(   36) = (   0.0223207   0.0669621   0.0000000), wk =   0.0219479
        k(   37) = (   0.0223207   0.0669621   0.0336658), wk =   0.0438957
        k(   38) = (   0.0223207   0.0669621   0.0673316), wk =   0.0438957
        k(   39) = (   0.0223207   0.0669621   0.1009975), wk =   0.0438957
        k(   40) = (   0.0223207   0.0669621   0.1346633), wk =   0.0438957
        k(   41) = (   0.0223207   0.0892828   0.0000000), wk =   0.0219479
        k(   42) = (   0.0223207   0.0892828   0.0336658), wk =   0.0438957
        k(   43) = (   0.0223207   0.0892828   0.0673316), wk =   0.0438957
        k(   44) = (   0.0223207   0.0892828   0.1009975), wk =   0.0438957
        k(   45) = (   0.0223207   0.0892828   0.1346633), wk =   0.0438957
        k(   46) = (   0.0446414   0.0446414   0.0000000), wk =   0.0109739
        k(   47) = (   0.0446414   0.0446414   0.0336658), wk =   0.0219479
        k(   48) = (   0.0446414   0.0446414   0.0673316), wk =   0.0219479
        k(   49) = (   0.0446414   0.0446414   0.1009975), wk =   0.0219479
        k(   50) = (   0.0446414   0.0446414   0.1346633), wk =   0.0219479
        k(   51) = (   0.0446414   0.0669621   0.0000000), wk =   0.0219479
        k(   52) = (   0.0446414   0.0669621   0.0336658), wk =   0.0438957
        k(   53) = (   0.0446414   0.0669621   0.0673316), wk =   0.0438957
        k(   54) = (   0.0446414   0.0669621   0.1009975), wk =   0.0438957
        k(   55) = (   0.0446414   0.0669621   0.1346633), wk =   0.0438957
        k(   56) = (   0.0446414   0.0892828   0.0000000), wk =   0.0219479
        k(   57) = (   0.0446414   0.0892828   0.0336658), wk =   0.0438957
        k(   58) = (   0.0446414   0.0892828   0.0673316), wk =   0.0438957
        k(   59) = (   0.0446414   0.0892828   0.1009975), wk =   0.0438957
        k(   60) = (   0.0446414   0.0892828   0.1346633), wk =   0.0438957
        k(   61) = (   0.0669621   0.0669621   0.0000000), wk =   0.0109739
        k(   62) = (   0.0669621   0.0669621   0.0336658), wk =   0.0219479
        k(   63) = (   0.0669621   0.0669621   0.0673316), wk =   0.0219479
        k(   64) = (   0.0669621   0.0669621   0.1009975), wk =   0.0219479
        k(   65) = (   0.0669621   0.0669621   0.1346633), wk =   0.0219479
        k(   66) = (   0.0669621   0.0892828   0.0000000), wk =   0.0219479
        k(   67) = (   0.0669621   0.0892828   0.0336658), wk =   0.0438957
        k(   68) = (   0.0669621   0.0892828   0.0673316), wk =   0.0438957
        k(   69) = (   0.0669621   0.0892828   0.1009975), wk =   0.0438957
        k(   70) = (   0.0669621   0.0892828   0.1346633), wk =   0.0438957
        k(   71) = (   0.0892828   0.0892828   0.0000000), wk =   0.0109739
        k(   72) = (   0.0892828   0.0892828   0.0336658), wk =   0.0219479
        k(   73) = (   0.0892828   0.0892828   0.0673316), wk =   0.0219479
        k(   74) = (   0.0892828   0.0892828   0.1009975), wk =   0.0219479
        k(   75) = (   0.0892828   0.0892828   0.1346633), wk =   0.0219479

     Largest allocated arrays     est. size (Mb)     dimensions
     Largest temporary arrays     est. size (Mb)     dimensions

     Initial potential from superposition of free atoms
     Check: negative starting charge=   -0.469260

     starting charge   56.99025, renormalised to   58.00000

     negative rho (up, down):  4.776E-01 0.000E+00

     *
     * You are using vdW-DF for exchange-correlation in this calculation.
     * Please cite the following three references that made this development
     * possible:
     *
     *   M. Dion, H. Rydberg, E. Schroder, D. C. Langreth, and
     *   B. I. Lundqvist, Phys. Rev. Lett. 92, 246401 (2004).
     *
     *   T. Thonhauser, V. R. Cooper, S. Li, A. Puzder, P. Hyldgaard, and
     *   D. C. Langreth, Phys. Rev. B 76, 125112 (2007).
     *
     *   G. Roman-Perez and J. M. Soler, Phys. Rev. Lett. 103, 096102 (2009).
     *
     *
     * If you are using vdW-DF2, please also cite:
     *
     *   K. Lee, E. D. Murray, L. Kong, B. I. Lundqvist, and
     *   D. C. Langreth, Phys. Rev. B 82, 081101(R) (2010).
     *
     *
     * If you are calculating the stress with vdW-DF, please also cite:
     *
     *   R. Sabatini, E. Kucukbenli, B. Kolb, T. Thonhauser, and
     *   S. de Gironcoli, J. Phys.: Condens. Matter 24, 424209 (2012).
     *

     Carrying out vdW-DF run using the following parameters:

     Nqs =      20    Nr_points =    1024   r_max =   100.000
     q_mesh =
               0.00001000     0.04494208     0.09755937     0.15916263
               0.23128650     0.31572767     0.41458969     0.53033537
               0.66584808     0.82450364     1.01025438     1.22772762
               1.48234092     1.78043706     2.12944203     2.53805004
               3.01644009     3.57652955     4.23227104     5.00000000

     Gradients computed in reciprocal space

     Starting wfc are   42 randomized atomic wfcs +    7 random wfc

     Self-consistent Calculation

     iteration #  1     ecut=    58.80 Ry     beta=0.10
     Davidson diagonalization with overlap
     ethr =  1.00E-02,  avg # of iterations =  5.2

[...]

     total energy              =    -718.42528830 Ry
     Harris-Foulkes estimate   =    -718.58186916 Ry
     estimated scf accuracy    <       1.04031972 Ry

[...]

     total energy              =    -718.33958156 Ry
     Harris-Foulkes estimate   =    -718.33940736 Ry
     estimated scf accuracy    <       0.00001238 Ry

     iteration #  9     ecut=    58.80 Ry     beta=0.10
     Davidson diagonalization with overlap
     ethr =  2.13E-08,  avg # of iterations =  2.0

     negative rho (up, down):  4.700E-01 0.000E+00

     End of self-consistent calculation

          k = 0.0000 0.0000 0.0000 (  4203 PWs)   bands (ev):

   -36.6507 -36.6507 -36.6459 -36.6440 -36.6382 -36.6382   3.3902   3.5047
     3.5243   3.5477   3.8801   3.8801   3.9721   4.0343   4.0343   4.2342
     5.2994   8.9098  12.2579  12.2991  12.4463  13.6071  13.6071  13.6587
    13.6587  13.7977  13.9256  13.9256  14.2571  16.1284  16.4424  19.0408
    19.0408  20.5093  20.7076  25.2286  26.8085  26.8085  26.9270  27.9265
    28.8399  30.0561  30.0561  31.2208  31.7301  33.9336  33.9336  34.0015
    34.0015

[...]

          k = 0.0893 0.0893 0.1347 (  4200 PWs)   bands (ev):

   -36.6754 -36.6750 -36.6492 -36.6488 -36.6353 -36.6349   3.4663   3.4711
     3.7379   3.7491   3.7542   3.7551   3.8131   3.8236   4.2719   4.2847
     9.2777   9.3327  12.4726  12.5987  13.1392  13.1679  13.3937  13.4882
    13.5275  13.7230  14.0408  14.1030  14.5749  14.7586  16.3858  16.4371
    17.4185  17.6814  23.8002  24.0506  25.6300  25.7115  25.7820  25.9669
    27.1443  27.3478  30.7241  30.9138  32.8092  32.8845  33.2693  33.4061
    33.8590

     the Fermi energy is    15.4914 ev

!    total energy              =    -718.34029776 Ry
     Harris-Foulkes estimate   =    -718.33958409 Ry
     estimated scf accuracy    <       0.00000077 Ry

     The total energy is the sum of the following terms:

     one-electron contribution =    -100.59286360 Ry
     hartree contribution      =     100.70833507 Ry
     xc contribution           =    -245.59177593 Ry
     ewald contribution        =    -472.85912741 Ry
     smearing contrib. (-TS)   =      -0.00486589 Ry

     convergence has been achieved in   9 iterations

     Forces acting on atoms (Ry/au):

     negative rho (up, down):  4.700E-01 0.000E+00
     atom    1 type  1   force =     0.00000000    0.00000000    0.00000000
     atom    2 type  1   force =     0.00000000    0.00000000    0.00000000
     atom    3 type  2   force =     0.00000000    0.00000000    0.00000000
     atom    4 type  2   force =     0.00000000    0.00000000    0.00000000

     Total force =     0.000000     Total SCF correction =     0.000000

     General routines

     Parallel routines

   This run was terminated on:   4:15:32  15Nov2017

   JOB DONE.