     Program PWSCF v.5.1rc2 (svn rev. ) starts on 18Feb2018 at 16:41:22

     Current dimensions of program PWSCF are:
     Max number of different atomic species (ntypx) = 10
     Max number of k-points (npk) =  40000
     Max angular momentum in pseudopotentials (lmaxx) =  3

     IMPORTANT: XC functional enforced from input :
     Exchange-correlation      = BEEF-VDW ( 1  4 27 13 2)
     Any further DFT definition will be discarded
     Please, verify this is what you really want

     Subspace diagonalization in iterative solution of the eigenvalue problem:
     a serial algorithm will be used

     Found symmetry operation: I + (  0.5000  0.5000  0.0000)
     This is a supercell, fractional translations are disabled

     bravais-lattice index     =            0
     lattice parameter (alat)  =       1.8897  a.u.
     unit-cell volume          =     566.8059 (a.u.)^3
     number of atoms/cell      =            4
     number of atomic types    =            2
     number of electrons       =        60.00
     number of Kohn-Sham states=           50
     kinetic-energy cutoff     =      58.7989  Ry
     charge density cutoff     =     587.9892  Ry
     convergence threshold     =      1.0E-06
     mixing beta               =       0.1000
     number of iterations used =           10  plain     mixing
     Exchange-correlation      = BEEF-VDW ( 1  4 27 13 2)

     celldm(1)=   1.889726  celldm(2)=   0.000000  celldm(3)=   0.000000
     celldm(4)=   0.000000  celldm(5)=   0.000000  celldm(6)=   0.000000

     crystal axes: (cart. coord. in units of alat)
               a(1) = (   4.759744   0.000000   0.000000 )
               a(2) = (   0.000000   4.759744   0.000000 )
               a(3) = (   0.000000   0.000000   3.707409 )

     reciprocal axes: (cart. coord. in units 2 pi/alat)
               b(1) = (  0.210095  0.000000  0.000000 )
               b(2) = (  0.000000  0.210095  0.000000 )
               b(3) = (  0.000000  0.000000  0.269730 )

     PseudoPot. # 1 for Ir read from file:
     /home/mamunm/src/pseudo/gbrv1.5pbe/Ir.UPF
     MD5 check sum: 8836f839c3459d2b385c504ce6d91f2c
     Pseudo is Ultrasoft + core correction, Zval = 15.0
     Generated by new atomic code, or converted to UPF format
     Using radial grid of  983 points,  7 beta functions with:
                l(1) =   0
                l(2) =   0
                l(3) =   1
                l(4) =   1
                l(5) =   1
                l(6) =   2
                l(7) =   2
     Q(r) pseudized with  8 coefficients,  rinner =    1.400   1.400   1.400
                                                       1.400   1.400

     PseudoPot. # 2 for Bi read from file:
     /home/mamunm/src/pseudo/gbrv1.5pbe/Bi.UPF
     MD5 check sum: 81103212dc04adf40945787f699eab19
     Pseudo is Ultrasoft + core correction, Zval = 15.0
     Generated by new atomic code, or converted to UPF format
     Using radial grid of  899 points,  6 beta functions with:
                l(1) =   0
                l(2) =   0
                l(3) =   1
                l(4) =   1
                l(5) =   2
                l(6) =   2
     Q(r) pseudized with  6 coefficients,  rinner =    1.000   1.000   1.000
                                                       1.000   1.000

     vdW kernel table read from file vdW_kernel_table
     MD5 check sum: 095c7af220d748ca6e76c0b4c6cfb241

     atomic species   valence    mass     pseudopotential
        Ir1           15.00   192.21700     Ir( 1.00)
        Bi1           15.00   208.98040     Bi( 1.00)

     16 Sym. Ops., with inversion, found

   Cartesian axes

     site n.     atom                  positions (alat units)
         1           Ir1 tau(   1) = (   0.0000000   0.0000000   0.0000000  )
         2           Ir1 tau(   2) = (   2.3798721   2.3798721   0.0000000  )
         3           Bi1 tau(   3) = (   2.3798721   0.0000000   1.8537045  )
         4           Bi1 tau(   4) = (   0.0000000   2.3798721   1.8537045  )

     number of k points=    75  Fermi-Dirac smearing, width (Ry)=  0.0073
                       cart. coord. in units 2pi/alat
        k(    1) = (   0.0000000   0.0000000   0.0000000), wk =   0.0027435
        k(    2) = (   0.0000000   0.0000000   0.0299700), wk =   0.0054870
        k(    3) = (   0.0000000   0.0000000   0.0599400), wk =   0.0054870
        k(    4) = (   0.0000000   0.0000000   0.0899101), wk =   0.0054870
        k(    5) = (   0.0000000   0.0000000   0.1198801), wk =   0.0054870
        k(    6) = (   0.0000000   0.0233439   0.0000000), wk =   0.0109739
        k(    7) = (   0.0000000   0.0233439   0.0299700), wk =   0.0219479
        k(    8) = (   0.0000000   0.0233439   0.0599400), wk =   0.0219479
        k(    9) = (   0.0000000   0.0233439   0.0899101), wk =   0.0219479
        k(   10) = (   0.0000000   0.0233439   0.1198801), wk =   0.0219479
        k(   11) = (   0.0000000   0.0466878   0.0000000), wk =   0.0109739
        k(   12) = (   0.0000000   0.0466878   0.0299700), wk =   0.0219479
        k(   13) = (   0.0000000   0.0466878   0.0599400), wk =   0.0219479
        k(   14) = (   0.0000000   0.0466878   0.0899101), wk =   0.0219479
        k(   15) = (   0.0000000   0.0466878   0.1198801), wk =   0.0219479
        k(   16) = (   0.0000000   0.0700318   0.0000000), wk =   0.0109739
        k(   17) = (   0.0000000   0.0700318   0.0299700), wk =   0.0219479
        k(   18) = (   0.0000000   0.0700318   0.0599400), wk =   0.0219479
        k(   19) = (   0.0000000   0.0700318   0.0899101), wk =   0.0219479
        k(   20) = (   0.0000000   0.0700318   0.1198801), wk =   0.0219479
        k(   21) = (   0.0000000   0.0933757   0.0000000), wk =   0.0109739
        k(   22) = (   0.0000000   0.0933757   0.0299700), wk =   0.0219479
        k(   23) = (   0.0000000   0.0933757   0.0599400), wk =   0.0219479
        k(   24) = (   0.0000000   0.0933757   0.0899101), wk =   0.0219479
        k(   25) = (   0.0000000   0.0933757   0.1198801), wk =   0.0219479
        k(   26) = (   0.0233439   0.0233439   0.0000000), wk =   0.0109739
        k(   27) = (   0.0233439   0.0233439   0.0299700), wk =   0.0219479
        k(   28) = (   0.0233439   0.0233439   0.0599400), wk =   0.0219479
        k(   29) = (   0.0233439   0.0233439   0.0899101), wk =   0.0219479
        k(   30) = (   0.0233439   0.0233439   0.1198801), wk =   0.0219479
        k(   31) = (   0.0233439   0.0466878   0.0000000), wk =   0.0219479
        k(   32) = (   0.0233439   0.0466878   0.0299700), wk =   0.0438957
        k(   33) = (   0.0233439   0.0466878   0.0599400), wk =   0.0438957
        k(   34) = (   0.0233439   0.0466878   0.0899101), wk =   0.0438957
        k(   35) = (   0.0233439   0.0466878   0.1198801), wk =   0.0438957
        k(   36) = (   0.0233439   0.0700318   0.0000000), wk =   0.0219479
        k(   37) = (   0.0233439   0.0700318   0.0299700), wk =   0.0438957
        k(   38) = (   0.0233439   0.0700318   0.0599400), wk =   0.0438957
        k(   39) = (   0.0233439   0.0700318   0.0899101), wk =   0.0438957
        k(   40) = (   0.0233439   0.0700318   0.1198801), wk =   0.0438957
        k(   41) = (   0.0233439   0.0933757   0.0000000), wk =   0.0219479
        k(   42) = (   0.0233439   0.0933757   0.0299700), wk =   0.0438957
        k(   43) = (   0.0233439   0.0933757   0.0599400), wk =   0.0438957
        k(   44) = (   0.0233439   0.0933757   0.0899101), wk =   0.0438957
        k(   45) = (   0.0233439   0.0933757   0.1198801), wk =   0.0438957
        k(   46) = (   0.0466878   0.0466878   0.0000000), wk =   0.0109739
        k(   47) = (   0.0466878   0.0466878   0.0299700), wk =   0.0219479
        k(   48) = (   0.0466878   0.0466878   0.0599400), wk =   0.0219479
        k(   49) = (   0.0466878   0.0466878   0.0899101), wk =   0.0219479
        k(   50) = (   0.0466878   0.0466878   0.1198801), wk =   0.0219479
        k(   51) = (   0.0466878   0.0700318   0.0000000), wk =   0.0219479
        k(   52) = (   0.0466878   0.0700318   0.0299700), wk =   0.0438957
        k(   53) = (   0.0466878   0.0700318   0.0599400), wk =   0.0438957
        k(   54) = (   0.0466878   0.0700318   0.0899101), wk =   0.0438957
        k(   55) = (   0.0466878   0.0700318   0.1198801), wk =   0.0438957
        k(   56) = (   0.0466878   0.0933757   0.0000000), wk =   0.0219479
        k(   57) = (   0.0466878   0.0933757   0.0299700), wk =   0.0438957
        k(   58) = (   0.0466878   0.0933757   0.0599400), wk =   0.0438957
        k(   59) = (   0.0466878   0.0933757   0.0899101), wk =   0.0438957
        k(   60) = (   0.0466878   0.0933757   0.1198801), wk =   0.0438957
        k(   61) = (   0.0700318   0.0700318   0.0000000), wk =   0.0109739
        k(   62) = (   0.0700318   0.0700318   0.0299700), wk =   0.0219479
        k(   63) = (   0.0700318   0.0700318   0.0599400), wk =   0.0219479
        k(   64) = (   0.0700318   0.0700318   0.0899101), wk =   0.0219479
        k(   65) = (   0.0700318   0.0700318   0.1198801), wk =   0.0219479
        k(   66) = (   0.0700318   0.0933757   0.0000000), wk =   0.0219479
        k(   67) = (   0.0700318   0.0933757   0.0299700), wk =   0.0438957
        k(   68) = (   0.0700318   0.0933757   0.0599400), wk =   0.0438957
        k(   69) = (   0.0700318   0.0933757   0.0899101), wk =   0.0438957
        k(   70) = (   0.0700318   0.0933757   0.1198801), wk =   0.0438957
        k(   71) = (   0.0933757   0.0933757   0.0000000), wk =   0.0109739
        k(   72) = (   0.0933757   0.0933757   0.0299700), wk =   0.0219479
        k(   73) = (   0.0933757   0.0933757   0.0599400), wk =   0.0219479
        k(   74) = (   0.0933757   0.0933757   0.0899101), wk =   0.0219479
        k(   75) = (   0.0933757   0.0933757   0.1198801), wk =   0.0219479

     Largest allocated arrays     est. size (Mb)     dimensions
     Largest temporary arrays     est. size (Mb)     dimensions

     Initial potential from superposition of free atoms
     Check: negative starting charge=   -0.815849

     starting charge   56.99985, renormalised to   60.00000

     negative rho (up, down):  8.588E-01 0.000E+00

     *
     * You are using vdW-DF for exchange-correlation in this calculation.
     * Please cite the following three references that made this development
     * possible:
     *
     *   M. Dion, H. Rydberg, E. Schroder, D. C. Langreth, and
     *   B. I. Lundqvist, Phys. Rev. Lett. 92, 246401 (2004).
     *
     *   T. Thonhauser, V. R. Cooper, S. Li, A. Puzder, P. Hyldgaard, and
     *   D. C. Langreth, Phys. Rev. B 76, 125112 (2007).
     *
     *   G. Roman-Perez and J. M. Soler, Phys. Rev. Lett. 103, 096102 (2009).
     *
     *
     * If you are using vdW-DF2, please also cite:
     *
     *   K. Lee, E. D. Murray, L. Kong, B. I. Lundqvist, and
     *   D. C. Langreth, Phys. Rev. B 82, 081101(R) (2010).
     *
     *
     * If you are calculating the stress with vdW-DF, please also cite:
     *
     *   R. Sabatini, E. Kucukbenli, B. Kolb, T. Thonhauser, and
     *   S. de Gironcoli, J. Phys.: Condens. Matter 24, 424209 (2012).
     *

     Carrying out vdW-DF run using the following parameters:

     Nqs =      20    Nr_points =    1024   r_max =   100.000
     q_mesh =
               0.00001000     0.04494208     0.09755937     0.15916263
               0.23128650     0.31572767     0.41458969     0.53033537
               0.66584808     0.82450364     1.01025438     1.22772762
               1.48234092     1.78043706     2.12944203     2.53805004
               3.01644009     3.57652955     4.23227104     5.00000000

     Gradients computed in reciprocal space

     Starting wfc are   42 randomized atomic wfcs +    8 random wfc

     Self-consistent Calculation

     iteration #  1     ecut=    58.80 Ry     beta=0.10
     Davidson diagonalization with overlap
     ethr =  1.00E-02,  avg # of iterations =  5.2

[...]

     total energy              =    -741.38450759 Ry
     Harris-Foulkes estimate   =    -742.06037578 Ry
     estimated scf accuracy    <       4.34484134 Ry

[...]

     total energy              =    -740.92644921 Ry
     Harris-Foulkes estimate   =    -740.92642882 Ry
     estimated scf accuracy    <       0.00000329 Ry

     iteration # 10     ecut=    58.80 Ry     beta=0.10
     Davidson diagonalization with overlap
     ethr =  5.49E-09,  avg # of iterations =  2.4

     negative rho (up, down):  7.624E-01 0.000E+00

     End of self-consistent calculation

          k = 0.0000 0.0000 0.0000 (  4285 PWs)   bands (ev):

   -31.6691 -31.6691 -31.6359 -31.6359 -31.5757 -31.5695  -6.6876  -6.5987
    -6.5801  -6.5113  -6.5113  -6.4683  -6.4535  -6.4476  -6.4476  -6.3739
     3.2974   6.6202  12.9128  12.9128  13.6905  13.7134  13.8809  14.8176
    14.8176  15.6614  15.6614  15.9179  15.9770  16.5170  16.7331  18.4337
    18.4989  18.5563  18.5563  20.0793  24.8013  24.8013  26.0721  26.2353
    27.1742  28.1971  28.6183  29.2084  30.4574  30.4574  31.2921  31.2924
    31.4929  32.8621

[...]

          k = 0.0934 0.0934 0.1199 (  4298 PWs)   bands (ev):

   -31.6714 -31.6704 -31.6334 -31.6324 -31.5830 -31.5828  -6.5903  -6.5825
    -6.5478  -6.5459  -6.5181  -6.5142  -6.4659  -6.4639  -6.3921  -6.3870
     5.8497   5.9390  12.1118  12.1522  12.8061  12.9976  13.6514  13.8306
    15.1353  15.2253  15.3048  15.3845  16.2739  16.3097  16.3535  16.5187
    17.8183  17.9662  21.3419  21.5289  25.8702  25.9061  26.1654  26.4029
    28.6069  28.6190  28.6584  28.8004  28.8070  28.9213  32.0396  32.0406
    32.1358  32.1765

     the Fermi energy is    16.7356 ev

!    total energy              =    -740.92654862 Ry
     Harris-Foulkes estimate   =    -740.92644974 Ry
     estimated scf accuracy    <       0.00000053 Ry

     The total energy is the sum of the following terms:

     one-electron contribution =    -105.91157508 Ry
     hartree contribution      =     101.04354870 Ry
     xc contribution           =    -237.45954160 Ry
     ewald contribution        =    -498.58993271 Ry
     smearing contrib. (-TS)   =      -0.00904793 Ry

     convergence has been achieved in  10 iterations

     Forces acting on atoms (Ry/au):

     negative rho (up, down):  7.624E-01 0.000E+00
     atom    1 type  1   force =     0.00000000    0.00000000    0.00000000
     atom    2 type  1   force =     0.00000000    0.00000000    0.00000000
     atom    3 type  2   force =     0.00000000    0.00000000    0.00000000
     atom    4 type  2   force =     0.00000000    0.00000000    0.00000000

     Total force =     0.000000     Total SCF correction =     0.000000

     General routines

     Parallel routines

   This run was terminated on:  16:42:23  18Feb2018

   JOB DONE.