     Program PWSCF v.5.1rc2 starts on 15Nov2017 at  7:14:35

     Current dimensions of program PWSCF are:
     Max number of different atomic species (ntypx) = 10
     Max number of k-points (npk) =  40000
     Max angular momentum in pseudopotentials (lmaxx) =  3

     IMPORTANT: XC functional enforced from input :
     Exchange-correlation      = BEEF-VDW ( 1  4 27 13 2)
     Any further DFT definition will be discarded
     Please, verify this is what you really want

     Found symmetry operation: I + ( -0.5000 -0.5000  0.0000)
     This is a supercell, fractional translations are disabled

     bravais-lattice index     =            0
     lattice parameter (alat)  =       1.8897  a.u.
     unit-cell volume          =     479.0355 (a.u.)^3
     number of atoms/cell      =            4
     number of atomic types    =            2
     number of electrons       =        56.00
     number of Kohn-Sham states=           48
     kinetic-energy cutoff     =      58.7989  Ry
     charge density cutoff     =     587.9892  Ry
     convergence threshold     =      1.0E-06
     mixing beta               =       0.1000
     number of iterations used =           10  plain     mixing
     Exchange-correlation      = BEEF-VDW ( 1  4 27 13 2)

     celldm(1)=   1.889726  celldm(2)=   0.000000  celldm(3)=   0.000000
     celldm(4)=   0.000000  celldm(5)=   0.000000  celldm(6)=   0.000000

     crystal axes: (cart. coord. in units of alat)
               a(1) = (   4.642723   0.000000   0.000000 )
               a(2) = (   0.000000   4.642723   0.000000 )
               a(3) = (   0.000000   0.000000   3.293257 )

     reciprocal axes: (cart. coord. in units 2 pi/alat)
               b(1) = (  0.215391  0.000000  0.000000 )
               b(2) = (  0.000000  0.215391  0.000000 )
               b(3) = (  0.000000  0.000000  0.303651 )

     PseudoPot. # 1 for Zr read from file:
     /home/users/vossj/suncat/psp/gbrv1.5pbe/Zr.UPF
     MD5 check sum: 5db81b1e868ab7776c4564c113de050b
     Pseudo is Ultrasoft + core correction, Zval = 12.0
     Generated by new atomic code, or converted to UPF format
     Using radial grid of  887 points,  6 beta functions with:
                l(1) =   0
                l(2) =   0
                l(3) =   1
                l(4) =   1
                l(5) =   2
                l(6) =   2
     Q(r) pseudized with  6 coefficients,  rinner =    1.200   1.200   1.200
                                                       1.200   1.200

     PseudoPot. # 2 for Os read from file:
     /home/users/vossj/suncat/psp/gbrv1.5pbe/Os.UPF
     MD5 check sum: a3fb40a04f0c37c25c34bbc47164c9a8
     Pseudo is Ultrasoft + core correction, Zval = 16.0
     Generated by new atomic code, or converted to UPF format
     Using radial grid of  983 points,  8 beta functions with:
                l(1) =   0
                l(2) =   0
                l(3) =   1
                l(4) =   1
                l(5) =   2
                l(6) =   2
                l(7) =   3
                l(8) =   3
     Q(r) pseudized with  8 coefficients,  rinner =    1.150   1.150   1.150
                                                       1.150   1.150   1.150
                                                       1.150

     vdW kernel table read from file vdW_kernel_table
     MD5 check sum: 095c7af220d748ca6e76c0b4c6cfb241

     atomic species   valence    mass     pseudopotential
        Zr1           12.00    91.22400     Zr( 1.00)
        Os1           16.00   190.20000     Os( 1.00)

     16 Sym. Ops., with inversion, found

   Cartesian axes

     site n.     atom                  positions (alat units)
         1           Zr1 tau(   1) = (   0.0000000   0.0000000   0.0000000  )
         2           Zr1 tau(   2) = (   2.3213614   2.3213614   0.0000000  )
         3           Os1 tau(   3) = (   2.3213614   0.0000000   1.6466284  )
         4           Os1 tau(   4) = (   0.0000000   2.3213614   1.6466284  )

     number of k points=    75  Fermi-Dirac smearing, width (Ry)=  0.0073
                       cart. coord. in units 2pi/alat
        k(    1) = (   0.0000000   0.0000000   0.0000000), wk =   0.0027435
        k(    2) = (   0.0000000   0.0000000   0.0337390), wk =   0.0054870
        k(    3) = (   0.0000000   0.0000000   0.0674780), wk =   0.0054870
        k(    4) = (   0.0000000   0.0000000   0.1012169), wk =   0.0054870
        k(    5) = (   0.0000000   0.0000000   0.1349559), wk =   0.0054870
        k(    6) = (   0.0000000   0.0239323   0.0000000), wk =   0.0109739
        k(    7) = (   0.0000000   0.0239323   0.0337390), wk =   0.0219479
        k(    8) = (   0.0000000   0.0239323   0.0674780), wk =   0.0219479
        k(    9) = (   0.0000000   0.0239323   0.1012169), wk =   0.0219479
        k(   10) = (   0.0000000   0.0239323   0.1349559), wk =   0.0219479
        k(   11) = (   0.0000000   0.0478646   0.0000000), wk =   0.0109739
        k(   12) = (   0.0000000   0.0478646   0.0337390), wk =   0.0219479
        k(   13) = (   0.0000000   0.0478646   0.0674780), wk =   0.0219479
        k(   14) = (   0.0000000   0.0478646   0.1012169), wk =   0.0219479
        k(   15) = (   0.0000000   0.0478646   0.1349559), wk =   0.0219479
        k(   16) = (   0.0000000   0.0717969   0.0000000), wk =   0.0109739
        k(   17) = (   0.0000000   0.0717969   0.0337390), wk =   0.0219479
        k(   18) = (   0.0000000   0.0717969   0.0674780), wk =   0.0219479
        k(   19) = (   0.0000000   0.0717969   0.1012169), wk =   0.0219479
        k(   20) = (   0.0000000   0.0717969   0.1349559), wk =   0.0219479
        k(   21) = (   0.0000000   0.0957293   0.0000000), wk =   0.0109739
        k(   22) = (   0.0000000   0.0957293   0.0337390), wk =   0.0219479
        k(   23) = (   0.0000000   0.0957293   0.0674780), wk =   0.0219479
        k(   24) = (   0.0000000   0.0957293   0.1012169), wk =   0.0219479
        k(   25) = (   0.0000000   0.0957293   0.1349559), wk =   0.0219479
        k(   26) = (   0.0239323   0.0239323   0.0000000), wk =   0.0109739
        k(   27) = (   0.0239323   0.0239323   0.0337390), wk =   0.0219479
        k(   28) = (   0.0239323   0.0239323   0.0674780), wk =   0.0219479
        k(   29) = (   0.0239323   0.0239323   0.1012169), wk =   0.0219479
        k(   30) = (   0.0239323   0.0239323   0.1349559), wk =   0.0219479
        k(   31) = (   0.0239323   0.0478646   0.0000000), wk =   0.0219479
        k(   32) = (   0.0239323   0.0478646   0.0337390), wk =   0.0438957
        k(   33) = (   0.0239323   0.0478646   0.0674780), wk =   0.0438957
        k(   34) = (   0.0239323   0.0478646   0.1012169), wk =   0.0438957
        k(   35) = (   0.0239323   0.0478646   0.1349559), wk =   0.0438957
        k(   36) = (   0.0239323   0.0717969   0.0000000), wk =   0.0219479
        k(   37) = (   0.0239323   0.0717969   0.0337390), wk =   0.0438957
        k(   38) = (   0.0239323   0.0717969   0.0674780), wk =   0.0438957
        k(   39) = (   0.0239323   0.0717969   0.1012169), wk =   0.0438957
        k(   40) = (   0.0239323   0.0717969   0.1349559), wk =   0.0438957
        k(   41) = (   0.0239323   0.0957293   0.0000000), wk =   0.0219479
        k(   42) = (   0.0239323   0.0957293   0.0337390), wk =   0.0438957
        k(   43) = (   0.0239323   0.0957293   0.0674780), wk =   0.0438957
        k(   44) = (   0.0239323   0.0957293   0.1012169), wk =   0.0438957
        k(   45) = (   0.0239323   0.0957293   0.1349559), wk =   0.0438957
        k(   46) = (   0.0478646   0.0478646   0.0000000), wk =   0.0109739
        k(   47) = (   0.0478646   0.0478646   0.0337390), wk =   0.0219479
        k(   48) = (   0.0478646   0.0478646   0.0674780), wk =   0.0219479
        k(   49) = (   0.0478646   0.0478646   0.1012169), wk =   0.0219479
        k(   50) = (   0.0478646   0.0478646   0.1349559), wk =   0.0219479
        k(   51) = (   0.0478646   0.0717969   0.0000000), wk =   0.0219479
        k(   52) = (   0.0478646   0.0717969   0.0337390), wk =   0.0438957
        k(   53) = (   0.0478646   0.0717969   0.0674780), wk =   0.0438957
        k(   54) = (   0.0478646   0.0717969   0.1012169), wk =   0.0438957
        k(   55) = (   0.0478646   0.0717969   0.1349559), wk =   0.0438957
        k(   56) = (   0.0478646   0.0957293   0.0000000), wk =   0.0219479
        k(   57) = (   0.0478646   0.0957293   0.0337390), wk =   0.0438957
        k(   58) = (   0.0478646   0.0957293   0.0674780), wk =   0.0438957
        k(   59) = (   0.0478646   0.0957293   0.1012169), wk =   0.0438957
        k(   60) = (   0.0478646   0.0957293   0.1349559), wk =   0.0438957
        k(   61) = (   0.0717969   0.0717969   0.0000000), wk =   0.0109739
        k(   62) = (   0.0717969   0.0717969   0.0337390), wk =   0.0219479
        k(   63) = (   0.0717969   0.0717969   0.0674780), wk =   0.0219479
        k(   64) = (   0.0717969   0.0717969   0.1012169), wk =   0.0219479
        k(   65) = (   0.0717969   0.0717969   0.1349559), wk =   0.0219479
        k(   66) = (   0.0717969   0.0957293   0.0000000), wk =   0.0219479
        k(   67) = (   0.0717969   0.0957293   0.0337390), wk =   0.0438957
        k(   68) = (   0.0717969   0.0957293   0.0674780), wk =   0.0438957
        k(   69) = (   0.0717969   0.0957293   0.1012169), wk =   0.0438957
        k(   70) = (   0.0717969   0.0957293   0.1349559), wk =   0.0438957
        k(   71) = (   0.0957293   0.0957293   0.0000000), wk =   0.0109739
        k(   72) = (   0.0957293   0.0957293   0.0337390), wk =   0.0219479
        k(   73) = (   0.0957293   0.0957293   0.0674780), wk =   0.0219479
        k(   74) = (   0.0957293   0.0957293   0.1012169), wk =   0.0219479
        k(   75) = (   0.0957293   0.0957293   0.1349559), wk =   0.0219479

     Largest allocated arrays     est. size (Mb)     dimensions
     Largest temporary arrays     est. size (Mb)     dimensions

     Initial potential from superposition of free atoms
     Check: negative starting charge=   -0.367364

     starting charge   54.99563, renormalised to   56.00000

     negative rho (up, down):  3.741E-01 0.000E+00

     *
     * You are using vdW-DF for exchange-correlation in this calculation.
     * Please cite the following three references that made this development
     * possible:
     *
     *   M. Dion, H. Rydberg, E. Schroder, D. C. Langreth, and
     *   B. I. Lundqvist, Phys. Rev. Lett. 92, 246401 (2004).
     *
     *   T. Thonhauser, V. R. Cooper, S. Li, A. Puzder, P. Hyldgaard, and
     *   D. C. Langreth, Phys. Rev. B 76, 125112 (2007).
     *
     *   G. Roman-Perez and J. M. Soler, Phys. Rev. Lett. 103, 096102 (2009).
     *
     *
     * If you are using vdW-DF2, please also cite:
     *
     *   K. Lee, E. D. Murray, L. Kong, B. I. Lundqvist, and
     *   D. C. Langreth, Phys. Rev. B 82, 081101(R) (2010).
     *
     *
     * If you are calculating the stress with vdW-DF, please also cite:
     *
     *   R. Sabatini, E. Kucukbenli, B. Kolb, T. Thonhauser, and
     *   S. de Gironcoli, J. Phys.: Condens. Matter 24, 424209 (2012).
     *

     Carrying out vdW-DF run using the following parameters:

     Nqs =      20    Nr_points =    1024   r_max =   100.000
     q_mesh =
               0.00001000     0.04494208     0.09755937     0.15916263
               0.23128650     0.31572767     0.41458969     0.53033537
               0.66584808     0.82450364     1.01025438     1.22772762
               1.48234092     1.78043706     2.12944203     2.53805004
               3.01644009     3.57652955     4.23227104     5.00000000

     Gradients computed in reciprocal space

     Starting wfc are   52 randomized atomic wfcs

     Self-consistent Calculation

     iteration #  1     ecut=    58.80 Ry     beta=0.10
     Davidson diagonalization with overlap
     ethr =  1.00E-02,  avg # of iterations =  4.3

     Threshold (ethr) on eigenvalues was too large:
     Diagonalizing with lowered threshold

     Davidson diagonalization with overlap
     ethr =  4.02E-04,  avg # of iterations =  1.4

[...]

     total energy              =    -599.45038697 Ry
     Harris-Foulkes estimate   =    -599.47859144 Ry
     estimated scf accuracy    <       0.22753303 Ry

[...]

     total energy              =    -599.40016236 Ry
     Harris-Foulkes estimate   =    -599.40016038 Ry
     estimated scf accuracy    <       0.00000239 Ry

     iteration # 10     ecut=    58.80 Ry     beta=0.10
     Davidson diagonalization with overlap
     ethr =  4.27E-09,  avg # of iterations =  3.0

     negative rho (up, down):  3.696E-01 0.000E+00

     End of self-consistent calculation

          k = 0.0000 0.0000 0.0000 (  3627 PWs)   bands (ev):

   -66.9742 -66.9702 -29.7762 -29.7057 -26.3045 -26.3045 -26.2373 -26.2373
   -26.2347 -26.2206  -7.9238  -7.9238  -7.5685  -7.5640  -7.5640  -7.5035
    11.5731  13.8155  14.4022  14.4045  14.5473  16.1547  16.1547  17.8153
    17.8153  17.8406  19.9038  20.0085  20.5209  20.5209  21.4433  21.4892
    22.1019  24.2643  24.3329  24.3384  24.3384  24.6980  24.6980  27.2684
    27.3474  27.3474  29.1543  30.6326  30.6326  30.8553  33.1111  33.3559

[...]

          k = 0.0957 0.0957 0.1350 (  3624 PWs)   bands (ev):

   -66.9704 -66.9703 -29.7101 -29.7075 -26.3038 -26.3021 -26.2970 -26.2964
   -26.2258 -26.2238  -7.9284  -7.9183  -7.9088  -7.9063  -7.5151  -7.5033
    13.8711  13.9084  14.6233  14.6448  16.2163  16.2260  16.2291  16.3000
    19.2368  19.3434  19.4697  19.9659  20.2000  20.6323  20.8374  20.9995
    21.8894  22.0038  24.2362  24.3433  24.3820  24.6768  24.7474  24.8648
    29.0166  29.2529  30.5698  30.5868  30.8173  30.8571  31.2026  31.4704

     the Fermi energy is    19.3270 ev

!    total energy              =    -599.40017268 Ry
     Harris-Foulkes estimate   =    -599.40016317 Ry
     estimated scf accuracy    <       0.00000084 Ry

     The total energy is the sum of the following terms:

     one-electron contribution =    -101.77959995 Ry
     hartree contribution      =      81.62704831 Ry
     xc contribution           =    -114.57782430 Ry
     ewald contribution        =    -464.66741823 Ry
     smearing contrib. (-TS)   =      -0.00237852 Ry

     convergence has been achieved in  10 iterations

     Forces acting on atoms (Ry/au):

     negative rho (up, down):  3.696E-01 0.000E+00
     atom    1 type  1   force =     0.00000000    0.00000000    0.00000000
     atom    2 type  1   force =     0.00000000    0.00000000    0.00000000
     atom    3 type  2   force =     0.00000000    0.00000000    0.00000000
     atom    4 type  2   force =     0.00000000    0.00000000    0.00000000

     Total force =     0.000000     Total SCF correction =     0.000000

     General routines

     Parallel routines

   This run was terminated on:   7:15:17  15Nov2017

   JOB DONE.