     Program PWSCF v.5.1rc2 starts on 14Nov2017 at  8:39:49

     Current dimensions of program PWSCF are:
     Max number of different atomic species (ntypx) = 10
     Max number of k-points (npk) =  40000
     Max angular momentum in pseudopotentials (lmaxx) =  3

     IMPORTANT: XC functional enforced from input :
     Exchange-correlation      = BEEF-VDW ( 1  4 27 13 2)
     Any further DFT definition will be discarded
     Please, verify this is what you really want

     Found symmetry operation: I + ( -0.5000 -0.5000  0.0000)
     This is a supercell, fractional translations are disabled

     bravais-lattice index     =            0
     lattice parameter (alat)  =       1.8897  a.u.
     unit-cell volume          =     456.1242 (a.u.)^3
     number of atoms/cell      =            4
     number of atomic types    =            2
     number of electrons       =        62.00
     number of Kohn-Sham states=           51
     kinetic-energy cutoff     =      58.7989  Ry
     charge density cutoff     =     587.9892  Ry
     convergence threshold     =      1.0E-06
     mixing beta               =       0.1000
     number of iterations used =           10  plain     mixing
     Exchange-correlation      = BEEF-VDW ( 1  4 27 13 2)

     celldm(1)=   1.889726  celldm(2)=   0.000000  celldm(3)=   0.000000
     celldm(4)=   0.000000  celldm(5)=   0.000000  celldm(6)=   0.000000

     crystal axes: (cart. coord. in units of alat)
               a(1) = (   4.496925   0.000000   0.000000 )
               a(2) = (   0.000000   4.496925   0.000000 )
               a(3) = (   0.000000   0.000000   3.342375 )

     reciprocal axes: (cart. coord. in units 2 pi/alat)
               b(1) = (  0.222374  0.000000  0.000000 )
               b(2) = (  0.000000  0.222374  0.000000 )
               b(3) = (  0.000000  0.000000  0.299188 )

     PseudoPot. # 1 for Cu read from file:
     /home/users/vossj/suncat/psp/gbrv1.5pbe/Cu.UPF
     MD5 check sum: 6e991ff952a84172a2a52a1c1e996048
     Pseudo is Ultrasoft + core correction, Zval = 19.0
     Generated by new atomic code, or converted to UPF format
     Using radial grid of  867 points,  6 beta functions with:
                l(1) =   0
                l(2) =   0
                l(3) =   1
                l(4) =   1
                l(5) =   2
                l(6) =   2
     Q(r) pseudized with  8 coefficients,  rinner =    1.150   1.150   1.150
                                                       1.150   1.150

     PseudoPot. # 2 for Cd read from file:
     /home/users/vossj/suncat/psp/gbrv1.5pbe/Cd.UPF
     MD5 check sum: 17164a7926edb8e0dc231208abae86a6
     Pseudo is Ultrasoft + core correction, Zval = 12.0
     Generated by new atomic code, or converted to UPF format
     Using radial grid of  889 points,  6 beta functions with:
                l(1) =   0
                l(2) =   0
                l(3) =   1
                l(4) =   1
                l(5) =   2
                l(6) =   2
     Q(r) pseudized with  6 coefficients,  rinner =    1.000   1.000   1.000
                                                       1.000   1.000

     vdW kernel table read from file vdW_kernel_table
     MD5 check sum: 095c7af220d748ca6e76c0b4c6cfb241

     atomic species   valence    mass     pseudopotential
        Cu1           19.00    63.54600     Cu( 1.00)
        Cd1           12.00   112.41000     Cd( 1.00)

     16 Sym. Ops., with inversion, found

   Cartesian axes

     site n.     atom                  positions (alat units)
         1           Cu1 tau(   1) = (   0.0000000   0.0000000   0.0000000  )
         2           Cu1 tau(   2) = (   2.2484627   2.2484627   0.0000000  )
         3           Cd1 tau(   3) = (   2.2484627   0.0000000   1.6711875  )
         4           Cd1 tau(   4) = (   0.0000000   2.2484627   1.6711875  )

     number of k points=    75  Fermi-Dirac smearing, width (Ry)=  0.0073
                       cart. coord. in units 2pi/alat
        k(    1) = (   0.0000000   0.0000000   0.0000000), wk =   0.0027435
        k(    2) = (   0.0000000   0.0000000   0.0332432), wk =   0.0054870
        k(    3) = (   0.0000000   0.0000000   0.0664863), wk =   0.0054870
        k(    4) = (   0.0000000   0.0000000   0.0997295), wk =   0.0054870
        k(    5) = (   0.0000000   0.0000000   0.1329726), wk =   0.0054870
        k(    6) = (   0.0000000   0.0247082   0.0000000), wk =   0.0109739
        k(    7) = (   0.0000000   0.0247082   0.0332432), wk =   0.0219479
        k(    8) = (   0.0000000   0.0247082   0.0664863), wk =   0.0219479
        k(    9) = (   0.0000000   0.0247082   0.0997295), wk =   0.0219479
        k(   10) = (   0.0000000   0.0247082   0.1329726), wk =   0.0219479
        k(   11) = (   0.0000000   0.0494165   0.0000000), wk =   0.0109739
        k(   12) = (   0.0000000   0.0494165   0.0332432), wk =   0.0219479
        k(   13) = (   0.0000000   0.0494165   0.0664863), wk =   0.0219479
        k(   14) = (   0.0000000   0.0494165   0.0997295), wk =   0.0219479
        k(   15) = (   0.0000000   0.0494165   0.1329726), wk =   0.0219479
        k(   16) = (   0.0000000   0.0741247   0.0000000), wk =   0.0109739
        k(   17) = (   0.0000000   0.0741247   0.0332432), wk =   0.0219479
        k(   18) = (   0.0000000   0.0741247   0.0664863), wk =   0.0219479
        k(   19) = (   0.0000000   0.0741247   0.0997295), wk =   0.0219479
        k(   20) = (   0.0000000   0.0741247   0.1329726), wk =   0.0219479
        k(   21) = (   0.0000000   0.0988330   0.0000000), wk =   0.0109739
        k(   22) = (   0.0000000   0.0988330   0.0332432), wk =   0.0219479
        k(   23) = (   0.0000000   0.0988330   0.0664863), wk =   0.0219479
        k(   24) = (   0.0000000   0.0988330   0.0997295), wk =   0.0219479
        k(   25) = (   0.0000000   0.0988330   0.1329726), wk =   0.0219479
        k(   26) = (   0.0247082   0.0247082   0.0000000), wk =   0.0109739
        k(   27) = (   0.0247082   0.0247082   0.0332432), wk =   0.0219479
        k(   28) = (   0.0247082   0.0247082   0.0664863), wk =   0.0219479
        k(   29) = (   0.0247082   0.0247082   0.0997295), wk =   0.0219479
        k(   30) = (   0.0247082   0.0247082   0.1329726), wk =   0.0219479
        k(   31) = (   0.0247082   0.0494165   0.0000000), wk =   0.0219479
        k(   32) = (   0.0247082   0.0494165   0.0332432), wk =   0.0438957
        k(   33) = (   0.0247082   0.0494165   0.0664863), wk =   0.0438957
        k(   34) = (   0.0247082   0.0494165   0.0997295), wk =   0.0438957
        k(   35) = (   0.0247082   0.0494165   0.1329726), wk =   0.0438957
        k(   36) = (   0.0247082   0.0741247   0.0000000), wk =   0.0219479
        k(   37) = (   0.0247082   0.0741247   0.0332432), wk =   0.0438957
        k(   38) = (   0.0247082   0.0741247   0.0664863), wk =   0.0438957
        k(   39) = (   0.0247082   0.0741247   0.0997295), wk =   0.0438957
        k(   40) = (   0.0247082   0.0741247   0.1329726), wk =   0.0438957
        k(   41) = (   0.0247082   0.0988330   0.0000000), wk =   0.0219479
        k(   42) = (   0.0247082   0.0988330   0.0332432), wk =   0.0438957
        k(   43) = (   0.0247082   0.0988330   0.0664863), wk =   0.0438957
        k(   44) = (   0.0247082   0.0988330   0.0997295), wk =   0.0438957
        k(   45) = (   0.0247082   0.0988330   0.1329726), wk =   0.0438957
        k(   46) = (   0.0494165   0.0494165   0.0000000), wk =   0.0109739
        k(   47) = (   0.0494165   0.0494165   0.0332432), wk =   0.0219479
        k(   48) = (   0.0494165   0.0494165   0.0664863), wk =   0.0219479
        k(   49) = (   0.0494165   0.0494165   0.0997295), wk =   0.0219479
        k(   50) = (   0.0494165   0.0494165   0.1329726), wk =   0.0219479
        k(   51) = (   0.0494165   0.0741247   0.0000000), wk =   0.0219479
        k(   52) = (   0.0494165   0.0741247   0.0332432), wk =   0.0438957
        k(   53) = (   0.0494165   0.0741247   0.0664863), wk =   0.0438957
        k(   54) = (   0.0494165   0.0741247   0.0997295), wk =   0.0438957
        k(   55) = (   0.0494165   0.0741247   0.1329726), wk =   0.0438957
        k(   56) = (   0.0494165   0.0988330   0.0000000), wk =   0.0219479
        k(   57) = (   0.0494165   0.0988330   0.0332432), wk =   0.0438957
        k(   58) = (   0.0494165   0.0988330   0.0664863), wk =   0.0438957
        k(   59) = (   0.0494165   0.0988330   0.0997295), wk =   0.0438957
        k(   60) = (   0.0494165   0.0988330   0.1329726), wk =   0.0438957
        k(   61) = (   0.0741247   0.0741247   0.0000000), wk =   0.0109739
        k(   62) = (   0.0741247   0.0741247   0.0332432), wk =   0.0219479
        k(   63) = (   0.0741247   0.0741247   0.0664863), wk =   0.0219479
        k(   64) = (   0.0741247   0.0741247   0.0997295), wk =   0.0219479
        k(   65) = (   0.0741247   0.0741247   0.1329726), wk =   0.0219479
        k(   66) = (   0.0741247   0.0988330   0.0000000), wk =   0.0219479
        k(   67) = (   0.0741247   0.0988330   0.0332432), wk =   0.0438957
        k(   68) = (   0.0741247   0.0988330   0.0664863), wk =   0.0438957
        k(   69) = (   0.0741247   0.0988330   0.0997295), wk =   0.0438957
        k(   70) = (   0.0741247   0.0988330   0.1329726), wk =   0.0438957
        k(   71) = (   0.0988330   0.0988330   0.0000000), wk =   0.0109739
        k(   72) = (   0.0988330   0.0988330   0.0332432), wk =   0.0219479
        k(   73) = (   0.0988330   0.0988330   0.0664863), wk =   0.0219479
        k(   74) = (   0.0988330   0.0988330   0.0997295), wk =   0.0219479
        k(   75) = (   0.0988330   0.0988330   0.1329726), wk =   0.0219479

     Largest allocated arrays     est. size (Mb)     dimensions
     Largest temporary arrays     est. size (Mb)     dimensions

     Initial potential from superposition of free atoms
     Check: negative starting charge=   -0.041759

     starting charge   58.99991, renormalised to   62.00000

     negative rho (up, down):  4.388E-02 0.000E+00

     *
     * You are using vdW-DF for exchange-correlation in this calculation.
     * Please cite the following three references that made this development
     * possible:
     *
     *   M. Dion, H. Rydberg, E. Schroder, D. C. Langreth, and
     *   B. I. Lundqvist, Phys. Rev. Lett. 92, 246401 (2004).
     *
     *   T. Thonhauser, V. R. Cooper, S. Li, A. Puzder, P. Hyldgaard, and
     *   D. C. Langreth, Phys. Rev. B 76, 125112 (2007).
     *
     *   G. Roman-Perez and J. M. Soler, Phys. Rev. Lett. 103, 096102 (2009).
     *
     *
     * If you are using vdW-DF2, please also cite:
     *
     *   K. Lee, E. D. Murray, L. Kong, B. I. Lundqvist, and
     *   D. C. Langreth, Phys. Rev. B 82, 081101(R) (2010).
     *
     *
     * If you are calculating the stress with vdW-DF, please also cite:
     *
     *   R. Sabatini, E. Kucukbenli, B. Kolb, T. Thonhauser, and
     *   S. de Gironcoli, J. Phys.: Condens. Matter 24, 424209 (2012).
     *

     Carrying out vdW-DF run using the following parameters:

     Nqs =      20    Nr_points =    1024   r_max =   100.000
     q_mesh =
               0.00001000     0.04494208     0.09755937     0.15916263
               0.23128650     0.31572767     0.41458969     0.53033537
               0.66584808     0.82450364     1.01025438     1.22772762
               1.48234092     1.78043706     2.12944203     2.53805004
               3.01644009     3.57652955     4.23227104     5.00000000

     Gradients computed in reciprocal space

     Starting wfc are   44 randomized atomic wfcs +    7 random wfc

     Self-consistent Calculation

     iteration #  1     ecut=    58.80 Ry     beta=0.10
     Davidson diagonalization with overlap
     ethr =  1.00E-02,  avg # of iterations =  4.9

[...]

     total energy              =   -1041.53589552 Ry
     Harris-Foulkes estimate   =   -1043.57277866 Ry
     estimated scf accuracy    <      11.56182597 Ry

[...]

     total energy              =   -1042.10008212 Ry
     Harris-Foulkes estimate   =   -1042.10007402 Ry
     estimated scf accuracy    <       0.00003606 Ry

     iteration # 12     ecut=    58.80 Ry     beta=0.10
     Davidson diagonalization with overlap
     ethr =  4.02E-08,  avg # of iterations =  2.0

     negative rho (up, down):  4.367E-02 0.000E+00

     End of self-consistent calculation

          k = 0.0000 0.0000 0.0000 (  3491 PWs)   bands (ev):

   -99.9475 -99.9472 -57.3579 -57.3575 -57.3495 -57.3495 -57.3464 -57.3464
     3.1603   3.2400   3.3153   3.6618   3.7413   3.7413   3.8902   4.0525
     4.0525   4.1122   4.4528   8.9350   9.6231   9.6668   9.8564  10.0989
    10.0989  10.1900  10.1900  10.2203  10.3828  11.5639  11.5639  14.4338
    14.5029  17.1660  18.5949  18.5949  21.7427  23.4548  23.7095  23.9460
    24.8544  24.8544  25.2123  29.1320  29.1320  29.6425  30.9885  31.0202
    31.7005  31.7005  33.0400

[...]

          k = 0.0988 0.0988 0.1330 (  3456 PWs)   bands (ev):

   -99.9473 -99.9472 -57.3593 -57.3592 -57.3497 -57.3496 -57.3462 -57.3461
     3.2160   3.2252   3.5145   3.5433   3.7985   3.8236   3.8587   3.8737
     4.3349   4.3582   8.7273   8.7922   9.6949   9.7378  10.0340  10.0413
    10.1128  10.1385  10.2175  10.2743  10.6799  11.2849  11.3390  11.5136
    14.0558  14.2591  14.3331  14.9308  24.4580  24.8414  25.2106  25.5543
    25.6891  25.9972  26.0993  26.1179  30.1018  30.4193  30.5767  30.6878
    30.8162  31.3544  32.3632

     the Fermi energy is    12.7876 ev

!    total energy              =   -1042.10014902 Ry
     Harris-Foulkes estimate   =   -1042.10008644 Ry
     estimated scf accuracy    <       0.00000019 Ry

     The total energy is the sum of the following terms:

     one-electron contribution =    -674.37984714 Ry
     hartree contribution      =     382.73864829 Ry
     xc contribution           =    -161.76918846 Ry
     ewald contribution        =    -588.68781683 Ry
     smearing contrib. (-TS)   =      -0.00194488 Ry

     convergence has been achieved in  12 iterations

     Forces acting on atoms (Ry/au):

     negative rho (up, down):  4.367E-02 0.000E+00
     atom    1 type  1   force =     0.00000000    0.00000000    0.00000000
     atom    2 type  1   force =     0.00000000    0.00000000    0.00000000
     atom    3 type  2   force =     0.00000000    0.00000000    0.00000000
     atom    4 type  2   force =     0.00000000    0.00000000    0.00000000

     Total force =     0.000000     Total SCF correction =     0.000000

     General routines

     Parallel routines

   This run was terminated on:   8:40:34  14Nov2017

   JOB DONE.