     Program PWSCF v.5.1rc2 (svn rev. ) starts on 15Nov2017 at  0: 8:42

     Current dimensions of program PWSCF are:
     Max number of different atomic species (ntypx) = 10
     Max number of k-points (npk) =  40000
     Max angular momentum in pseudopotentials (lmaxx) =  3

     IMPORTANT: XC functional enforced from input :
     Exchange-correlation      = BEEF-VDW ( 1  4 27 13 2)
     Any further DFT definition will be discarded
     Please, verify this is what you really want

     Subspace diagonalization in iterative solution of the eigenvalue problem:
     a serial algorithm will be used

     Found symmetry operation: I + ( -0.5000 -0.5000  0.0000)
     This is a supercell, fractional translations are disabled

     bravais-lattice index     =            0
     lattice parameter (alat)  =       1.8897  a.u.
     unit-cell volume          =     402.8996 (a.u.)^3
     number of atoms/cell      =            4
     number of atomic types    =            2
     number of electrons       =        62.00
     number of Kohn-Sham states=           51
     kinetic-energy cutoff     =      58.7989  Ry
     charge density cutoff     =     587.9892  Ry
     convergence threshold     =      1.0E-06
     mixing beta               =       0.1000
     number of iterations used =           10  plain     mixing
     Exchange-correlation      = BEEF-VDW ( 1  4 27 13 2)

     celldm(1)=   1.889726  celldm(2)=   0.000000  celldm(3)=   0.000000
     celldm(4)=   0.000000  celldm(5)=   0.000000  celldm(6)=   0.000000

     crystal axes: (cart. coord. in units of alat)
               a(1) = (   3.809680   0.000000   0.000000 )
               a(2) = (   0.000000   3.809680   0.000000 )
               a(3) = (   0.000000   0.000000   4.113610 )

     reciprocal axes: (cart. coord. in units 2 pi/alat)
               b(1) = (  0.262489  0.000000  0.000000 )
               b(2) = (  0.000000  0.262489  0.000000 )
               b(3) = (  0.000000  0.000000  0.243095 )

     PseudoPot. # 1 for Tc read from file:
     /home/vossj/suncat/psp/gbrv1.5pbe/Tc.UPF
     MD5 check sum: 9eb49e5b028550b2339a02317eb7b844
     Pseudo is Ultrasoft + core correction, Zval = 15.0
     Generated by new atomic code, or converted to UPF format
     Using radial grid of  965 points,  6 beta functions with:
                l(1) =   0
                l(2) =   0
                l(3) =   1
                l(4) =   1
                l(5) =   2
                l(6) =   2
     Q(r) pseudized with  8 coefficients,  rinner =    1.300   1.300   1.300
                                                       1.300   1.300

     PseudoPot. # 2 for Pd read from file:
     /home/vossj/suncat/psp/gbrv1.5pbe/Pd.UPF
     MD5 check sum: 2d733d2bc2cbfd217af676df1668a4bc
     Pseudo is Ultrasoft + core correction, Zval = 16.0
     Generated by new atomic code, or converted to UPF format
     Using radial grid of  887 points,  6 beta functions with:
                l(1) =   0
                l(2) =   0
                l(3) =   1
                l(4) =   1
                l(5) =   2
                l(6) =   2
     Q(r) pseudized with  8 coefficients,  rinner =    1.130   1.130   1.130
                                                       1.130   1.130

     vdW kernel table read from file vdW_kernel_table
     MD5 check sum: 095c7af220d748ca6e76c0b4c6cfb241

     atomic species   valence    mass     pseudopotential
        Tc1           15.00    97.90721     Tc( 1.00)
        Pd1           16.00   106.42000     Pd( 1.00)

     16 Sym. Ops., with inversion, found

   Cartesian axes

     site n.     atom                  positions (alat units)
         1           Tc1 tau(   1) = (   0.0000000   0.0000000   0.0000000  )
         2           Tc1 tau(   2) = (   1.9048401   1.9048401   0.0000000  )
         3           Pd1 tau(   3) = (   1.9048401   0.0000000   2.0568050  )
         4           Pd1 tau(   4) = (   0.0000000   1.9048401   2.0568050  )

     number of k points=    75  Fermi-Dirac smearing, width (Ry)=  0.0073
                       cart. coord. in units 2pi/alat
        k(    1) = (   0.0000000   0.0000000   0.0000000), wk =   0.0027435
        k(    2) = (   0.0000000   0.0000000   0.0270106), wk =   0.0054870
        k(    3) = (   0.0000000   0.0000000   0.0540212), wk =   0.0054870
        k(    4) = (   0.0000000   0.0000000   0.0810318), wk =   0.0054870
        k(    5) = (   0.0000000   0.0000000   0.1080424), wk =   0.0054870
        k(    6) = (   0.0000000   0.0291655   0.0000000), wk =   0.0109739
        k(    7) = (   0.0000000   0.0291655   0.0270106), wk =   0.0219479
        k(    8) = (   0.0000000   0.0291655   0.0540212), wk =   0.0219479
        k(    9) = (   0.0000000   0.0291655   0.0810318), wk =   0.0219479
        k(   10) = (   0.0000000   0.0291655   0.1080424), wk =   0.0219479
        k(   11) = (   0.0000000   0.0583309   0.0000000), wk =   0.0109739
        k(   12) = (   0.0000000   0.0583309   0.0270106), wk =   0.0219479
        k(   13) = (   0.0000000   0.0583309   0.0540212), wk =   0.0219479
        k(   14) = (   0.0000000   0.0583309   0.0810318), wk =   0.0219479
        k(   15) = (   0.0000000   0.0583309   0.1080424), wk =   0.0219479
        k(   16) = (   0.0000000   0.0874964   0.0000000), wk =   0.0109739
        k(   17) = (   0.0000000   0.0874964   0.0270106), wk =   0.0219479
        k(   18) = (   0.0000000   0.0874964   0.0540212), wk =   0.0219479
        k(   19) = (   0.0000000   0.0874964   0.0810318), wk =   0.0219479
        k(   20) = (   0.0000000   0.0874964   0.1080424), wk =   0.0219479
        k(   21) = (   0.0000000   0.1166619   0.0000000), wk =   0.0109739
        k(   22) = (   0.0000000   0.1166619   0.0270106), wk =   0.0219479
        k(   23) = (   0.0000000   0.1166619   0.0540212), wk =   0.0219479
        k(   24) = (   0.0000000   0.1166619   0.0810318), wk =   0.0219479
        k(   25) = (   0.0000000   0.1166619   0.1080424), wk =   0.0219479
        k(   26) = (   0.0291655   0.0291655   0.0000000), wk =   0.0109739
        k(   27) = (   0.0291655   0.0291655   0.0270106), wk =   0.0219479
        k(   28) = (   0.0291655   0.0291655   0.0540212), wk =   0.0219479
        k(   29) = (   0.0291655   0.0291655   0.0810318), wk =   0.0219479
        k(   30) = (   0.0291655   0.0291655   0.1080424), wk =   0.0219479
        k(   31) = (   0.0291655   0.0583309   0.0000000), wk =   0.0219479
        k(   32) = (   0.0291655   0.0583309   0.0270106), wk =   0.0438957
        k(   33) = (   0.0291655   0.0583309   0.0540212), wk =   0.0438957
        k(   34) = (   0.0291655   0.0583309   0.0810318), wk =   0.0438957
        k(   35) = (   0.0291655   0.0583309   0.1080424), wk =   0.0438957
        k(   36) = (   0.0291655   0.0874964   0.0000000), wk =   0.0219479
        k(   37) = (   0.0291655   0.0874964   0.0270106), wk =   0.0438957
        k(   38) = (   0.0291655   0.0874964   0.0540212), wk =   0.0438957
        k(   39) = (   0.0291655   0.0874964   0.0810318), wk =   0.0438957
        k(   40) = (   0.0291655   0.0874964   0.1080424), wk =   0.0438957
        k(   41) = (   0.0291655   0.1166619   0.0000000), wk =   0.0219479
        k(   42) = (   0.0291655   0.1166619   0.0270106), wk =   0.0438957
        k(   43) = (   0.0291655   0.1166619   0.0540212), wk =   0.0438957
        k(   44) = (   0.0291655   0.1166619   0.0810318), wk =   0.0438957
        k(   45) = (   0.0291655   0.1166619   0.1080424), wk =   0.0438957
        k(   46) = (   0.0583309   0.0583309   0.0000000), wk =   0.0109739
        k(   47) = (   0.0583309   0.0583309   0.0270106), wk =   0.0219479
        k(   48) = (   0.0583309   0.0583309   0.0540212), wk =   0.0219479
        k(   49) = (   0.0583309   0.0583309   0.0810318), wk =   0.0219479
        k(   50) = (   0.0583309   0.0583309   0.1080424), wk =   0.0219479
        k(   51) = (   0.0583309   0.0874964   0.0000000), wk =   0.0219479
        k(   52) = (   0.0583309   0.0874964   0.0270106), wk =   0.0438957
        k(   53) = (   0.0583309   0.0874964   0.0540212), wk =   0.0438957
        k(   54) = (   0.0583309   0.0874964   0.0810318), wk =   0.0438957
        k(   55) = (   0.0583309   0.0874964   0.1080424), wk =   0.0438957
        k(   56) = (   0.0583309   0.1166619   0.0000000), wk =   0.0219479
        k(   57) = (   0.0583309   0.1166619   0.0270106), wk =   0.0438957
        k(   58) = (   0.0583309   0.1166619   0.0540212), wk =   0.0438957
        k(   59) = (   0.0583309   0.1166619   0.0810318), wk =   0.0438957
        k(   60) = (   0.0583309   0.1166619   0.1080424), wk =   0.0438957
        k(   61) = (   0.0874964   0.0874964   0.0000000), wk =   0.0109739
        k(   62) = (   0.0874964   0.0874964   0.0270106), wk =   0.0219479
        k(   63) = (   0.0874964   0.0874964   0.0540212), wk =   0.0219479
        k(   64) = (   0.0874964   0.0874964   0.0810318), wk =   0.0219479
        k(   65) = (   0.0874964   0.0874964   0.1080424), wk =   0.0219479
        k(   66) = (   0.0874964   0.1166619   0.0000000), wk =   0.0219479
        k(   67) = (   0.0874964   0.1166619   0.0270106), wk =   0.0438957
        k(   68) = (   0.0874964   0.1166619   0.0540212), wk =   0.0438957
        k(   69) = (   0.0874964   0.1166619   0.0810318), wk =   0.0438957
        k(   70) = (   0.0874964   0.1166619   0.1080424), wk =   0.0438957
        k(   71) = (   0.1166619   0.1166619   0.0000000), wk =   0.0109739
        k(   72) = (   0.1166619   0.1166619   0.0270106), wk =   0.0219479
        k(   73) = (   0.1166619   0.1166619   0.0540212), wk =   0.0219479
        k(   74) = (   0.1166619   0.1166619   0.0810318), wk =   0.0219479
        k(   75) = (   0.1166619   0.1166619   0.1080424), wk =   0.0219479

     Largest allocated arrays     est. size (Mb)     dimensions
     Largest temporary arrays     est. size (Mb)     dimensions

     Check: negative/imaginary core charge=   -0.000005    0.000000

     Initial potential from superposition of free atoms
     Check: negative starting charge=   -0.404818

     starting charge   58.99993, renormalised to   62.00000

     negative rho (up, down):  4.254E-01 0.000E+00

     *
     * You are using vdW-DF for exchange-correlation in this calculation.
     * Please cite the following three references that made this development
     * possible:
     *
     *   M. Dion, H. Rydberg, E. Schroder, D. C. Langreth, and
     *   B. I. Lundqvist, Phys. Rev. Lett. 92, 246401 (2004).
     *
     *   T. Thonhauser, V. R. Cooper, S. Li, A. Puzder, P. Hyldgaard, and
     *   D. C. Langreth, Phys. Rev. B 76, 125112 (2007).
     *
     *   G. Roman-Perez and J. M. Soler, Phys. Rev. Lett. 103, 096102 (2009).
     *
     *
     * If you are using vdW-DF2, please also cite:
     *
     *   K. Lee, E. D. Murray, L. Kong, B. I. Lundqvist, and
     *   D. C. Langreth, Phys. Rev. B 82, 081101(R) (2010).
     *
     *
     * If you are calculating the stress with vdW-DF, please also cite:
     *
     *   R. Sabatini, E. Kucukbenli, B. Kolb, T. Thonhauser, and
     *   S. de Gironcoli, J. Phys.: Condens. Matter 24, 424209 (2012).
     *

     Carrying out vdW-DF run using the following parameters:

     Nqs =      20    Nr_points =    1024   r_max =   100.000
     q_mesh =
               0.00001000     0.04494208     0.09755937     0.15916263
               0.23128650     0.31572767     0.41458969     0.53033537
               0.66584808     0.82450364     1.01025438     1.22772762
               1.48234092     1.78043706     2.12944203     2.53805004
               3.01644009     3.57652955     4.23227104     5.00000000

     Gradients computed in reciprocal space

     Starting wfc are   50 randomized atomic wfcs +    1 random wfc

     Self-consistent Calculation

     iteration #  1     ecut=    58.80 Ry     beta=0.10
     Davidson diagonalization with overlap
     ethr =  1.00E-02,  avg # of iterations =  4.4

[...]

     total energy              =    -749.31599513 Ry
     Harris-Foulkes estimate   =    -753.02664570 Ry
     estimated scf accuracy    <      21.24807695 Ry

[...]

     total energy              =    -750.22496717 Ry
     Harris-Foulkes estimate   =    -750.22496692 Ry
     estimated scf accuracy    <       0.00000232 Ry

     iteration # 15     ecut=    58.80 Ry     beta=0.10
     Davidson diagonalization with overlap
     ethr =  3.75E-09,  avg # of iterations =  1.6

     negative rho (up, down):  4.243E-01 0.000E+00

     End of self-consistent calculation

          k = 0.0000 0.0000 0.0000 (  3059 PWs)   bands (ev):

   -47.1747 -47.0110 -30.6607 -30.6445 -30.6445 -30.6041 -30.4076 -30.4076
   -19.4028 -19.4028 -19.1344 -18.9844 -18.7678 -18.7678  12.7401  14.3107
    14.3183  14.3373  14.6878  14.6878  14.7238  17.0846  17.3702  17.3702
    18.8673  18.8968  19.8700  20.0266  21.0075  21.0075  21.6900  21.7310
    21.7310  22.0938  22.3939  23.5944  23.9348  23.9348  30.7042  31.0714
    32.2537  32.8640  33.0807  33.0807  33.4396  33.9067  33.9067  35.7450
    39.4131  41.1243  41.4484

[...]

          k = 0.1167 0.1167 0.1080 (  3055 PWs)   bands (ev):

   -47.0942 -47.0892 -30.6736 -30.6666 -30.6344 -30.6328 -30.3929 -30.3857
   -19.4893 -19.4709 -19.0649 -19.0600 -18.7261 -18.7061  14.5376  14.5742
    14.6020  14.6233  16.3852  16.4369  17.1905  17.3268  17.4986  17.5466
    17.5727  17.6721  19.6369  19.7487  20.2955  20.3022  20.5820  20.7632
    21.0856  21.5833  21.7916  21.9965  22.2868  22.4447  28.2619  28.4766
    29.1946  29.4890  34.8567  34.8985  35.3355  35.4560  38.9327  39.1949
    40.1242  40.5483  41.1634

     the Fermi energy is    20.1874 ev

!    total energy              =    -750.22496975 Ry
     Harris-Foulkes estimate   =    -750.22496746 Ry
     estimated scf accuracy    <       0.00000049 Ry

     The total energy is the sum of the following terms:

     one-electron contribution =    -141.42492996 Ry
     hartree contribution      =     119.29859254 Ry
     xc contribution           =    -131.32971116 Ry
     ewald contribution        =    -596.75671112 Ry
     smearing contrib. (-TS)   =      -0.01221005 Ry

     convergence has been achieved in  15 iterations

     Forces acting on atoms (Ry/au):

     negative rho (up, down):  4.243E-01 0.000E+00
     atom    1 type  1   force =     0.00000000    0.00000000    0.00000000
     atom    2 type  1   force =     0.00000000    0.00000000    0.00000000
     atom    3 type  2   force =     0.00000000    0.00000000    0.00000000
     atom    4 type  2   force =     0.00000000    0.00000000    0.00000000

     Total force =     0.000000     Total SCF correction =     0.000000

     General routines

     Parallel routines

   This run was terminated on:   0: 9:34  15Nov2017

   JOB DONE.