     Program PWSCF v.5.1rc2 (svn rev. ) starts on 18Feb2018 at 18:14:15

     Current dimensions of program PWSCF are:
     Max number of different atomic species (ntypx) = 10
     Max number of k-points (npk) =  40000
     Max angular momentum in pseudopotentials (lmaxx) =  3

     IMPORTANT: XC functional enforced from input :
     Exchange-correlation      = BEEF-VDW ( 1  4 27 13 2)
     Any further DFT definition will be discarded
     Please, verify this is what you really want

     Subspace diagonalization in iterative solution of the eigenvalue problem:
     a serial algorithm will be used

     Found symmetry operation: I + ( -0.5000 -0.5000  0.0000)
     This is a supercell, fractional translations are disabled

     bravais-lattice index     =            0
     lattice parameter (alat)  =       1.8897  a.u.
     unit-cell volume          =     653.0098 (a.u.)^3
     number of atoms/cell      =            4
     number of atomic types    =            2
     number of electrons       =        54.00
     number of Kohn-Sham states=           47
     kinetic-energy cutoff     =      58.7989  Ry
     charge density cutoff     =     587.9892  Ry
     convergence threshold     =      1.0E-06
     mixing beta               =       0.1000
     number of iterations used =           10  plain     mixing
     Exchange-correlation      = BEEF-VDW ( 1  4 27 13 2)

     celldm(1)=   1.889726  celldm(2)=   0.000000  celldm(3)=   0.000000
     celldm(4)=   0.000000  celldm(5)=   0.000000  celldm(6)=   0.000000

     crystal axes: (cart. coord. in units of alat)
               a(1) = (   5.112105   0.000000   0.000000 )
               a(2) = (   0.000000   5.112105   0.000000 )
               a(3) = (   0.000000   0.000000   3.702744 )

     reciprocal axes: (cart. coord. in units 2 pi/alat)
               b(1) = (  0.195614  0.000000  0.000000 )
               b(2) = (  0.000000  0.195614  0.000000 )
               b(3) = (  0.000000  0.000000  0.270070 )

     PseudoPot. # 1 for Hf read from file:
     /home/mamunm/src/pseudo/gbrv1.5pbe/Hf.UPF
     MD5 check sum: 8ee9378dfe14276e333edf04c5e4aa26
     Pseudo is Ultrasoft + core correction, Zval = 12.0
     Generated by new atomic code, or converted to UPF format
     Using radial grid of  921 points,  8 beta functions with:
                l(1) =   0
                l(2) =   0
                l(3) =   0
                l(4) =   1
                l(5) =   1
                l(6) =   2
                l(7) =   2
                l(8) =   3
     Q(r) pseudized with  6 coefficients,  rinner =    1.200   1.200   1.200
                                                       1.200   1.200   1.200
                                                       1.200

     PseudoPot. # 2 for Bi read from file:
     /home/mamunm/src/pseudo/gbrv1.5pbe/Bi.UPF
     MD5 check sum: 81103212dc04adf40945787f699eab19
     Pseudo is Ultrasoft + core correction, Zval = 15.0
     Generated by new atomic code, or converted to UPF format
     Using radial grid of  899 points,  6 beta functions with:
                l(1) =   0
                l(2) =   0
                l(3) =   1
                l(4) =   1
                l(5) =   2
                l(6) =   2
     Q(r) pseudized with  6 coefficients,  rinner =    1.000   1.000   1.000
                                                       1.000   1.000

     vdW kernel table read from file vdW_kernel_table
     MD5 check sum: 095c7af220d748ca6e76c0b4c6cfb241

     atomic species   valence    mass     pseudopotential
        Hf1           12.00   178.49000     Hf( 1.00)
        Bi1           15.00   208.98040     Bi( 1.00)

     16 Sym. Ops., with inversion, found

   Cartesian axes

     site n.     atom                  positions (alat units)
         1           Hf1 tau(   1) = (   0.0000000   0.0000000   0.0000000  )
         2           Hf1 tau(   2) = (   2.5560523   2.5560523   0.0000000  )
         3           Bi1 tau(   3) = (   2.5560523   0.0000000   1.8513718  )
         4           Bi1 tau(   4) = (   0.0000000   2.5560523   1.8513718  )

     number of k points=    75  Fermi-Dirac smearing, width (Ry)=  0.0073
                       cart. coord. in units 2pi/alat
        k(    1) = (   0.0000000   0.0000000   0.0000000), wk =   0.0027435
        k(    2) = (   0.0000000   0.0000000   0.0300078), wk =   0.0054870
        k(    3) = (   0.0000000   0.0000000   0.0600156), wk =   0.0054870
        k(    4) = (   0.0000000   0.0000000   0.0900233), wk =   0.0054870
        k(    5) = (   0.0000000   0.0000000   0.1200311), wk =   0.0054870
        k(    6) = (   0.0000000   0.0217349   0.0000000), wk =   0.0109739
        k(    7) = (   0.0000000   0.0217349   0.0300078), wk =   0.0219479
        k(    8) = (   0.0000000   0.0217349   0.0600156), wk =   0.0219479
        k(    9) = (   0.0000000   0.0217349   0.0900233), wk =   0.0219479
        k(   10) = (   0.0000000   0.0217349   0.1200311), wk =   0.0219479
        k(   11) = (   0.0000000   0.0434698   0.0000000), wk =   0.0109739
        k(   12) = (   0.0000000   0.0434698   0.0300078), wk =   0.0219479
        k(   13) = (   0.0000000   0.0434698   0.0600156), wk =   0.0219479
        k(   14) = (   0.0000000   0.0434698   0.0900233), wk =   0.0219479
        k(   15) = (   0.0000000   0.0434698   0.1200311), wk =   0.0219479
        k(   16) = (   0.0000000   0.0652047   0.0000000), wk =   0.0109739
        k(   17) = (   0.0000000   0.0652047   0.0300078), wk =   0.0219479
        k(   18) = (   0.0000000   0.0652047   0.0600156), wk =   0.0219479
        k(   19) = (   0.0000000   0.0652047   0.0900233), wk =   0.0219479
        k(   20) = (   0.0000000   0.0652047   0.1200311), wk =   0.0219479
        k(   21) = (   0.0000000   0.0869396   0.0000000), wk =   0.0109739
        k(   22) = (   0.0000000   0.0869396   0.0300078), wk =   0.0219479
        k(   23) = (   0.0000000   0.0869396   0.0600156), wk =   0.0219479
        k(   24) = (   0.0000000   0.0869396   0.0900233), wk =   0.0219479
        k(   25) = (   0.0000000   0.0869396   0.1200311), wk =   0.0219479
        k(   26) = (   0.0217349   0.0217349   0.0000000), wk =   0.0109739
        k(   27) = (   0.0217349   0.0217349   0.0300078), wk =   0.0219479
        k(   28) = (   0.0217349   0.0217349   0.0600156), wk =   0.0219479
        k(   29) = (   0.0217349   0.0217349   0.0900233), wk =   0.0219479
        k(   30) = (   0.0217349   0.0217349   0.1200311), wk =   0.0219479
        k(   31) = (   0.0217349   0.0434698   0.0000000), wk =   0.0219479
        k(   32) = (   0.0217349   0.0434698   0.0300078), wk =   0.0438957
        k(   33) = (   0.0217349   0.0434698   0.0600156), wk =   0.0438957
        k(   34) = (   0.0217349   0.0434698   0.0900233), wk =   0.0438957
        k(   35) = (   0.0217349   0.0434698   0.1200311), wk =   0.0438957
        k(   36) = (   0.0217349   0.0652047   0.0000000), wk =   0.0219479
        k(   37) = (   0.0217349   0.0652047   0.0300078), wk =   0.0438957
        k(   38) = (   0.0217349   0.0652047   0.0600156), wk =   0.0438957
        k(   39) = (   0.0217349   0.0652047   0.0900233), wk =   0.0438957
        k(   40) = (   0.0217349   0.0652047   0.1200311), wk =   0.0438957
        k(   41) = (   0.0217349   0.0869396   0.0000000), wk =   0.0219479
        k(   42) = (   0.0217349   0.0869396   0.0300078), wk =   0.0438957
        k(   43) = (   0.0217349   0.0869396   0.0600156), wk =   0.0438957
        k(   44) = (   0.0217349   0.0869396   0.0900233), wk =   0.0438957
        k(   45) = (   0.0217349   0.0869396   0.1200311), wk =   0.0438957
        k(   46) = (   0.0434698   0.0434698   0.0000000), wk =   0.0109739
        k(   47) = (   0.0434698   0.0434698   0.0300078), wk =   0.0219479
        k(   48) = (   0.0434698   0.0434698   0.0600156), wk =   0.0219479
        k(   49) = (   0.0434698   0.0434698   0.0900233), wk =   0.0219479
        k(   50) = (   0.0434698   0.0434698   0.1200311), wk =   0.0219479
        k(   51) = (   0.0434698   0.0652047   0.0000000), wk =   0.0219479
        k(   52) = (   0.0434698   0.0652047   0.0300078), wk =   0.0438957
        k(   53) = (   0.0434698   0.0652047   0.0600156), wk =   0.0438957
        k(   54) = (   0.0434698   0.0652047   0.0900233), wk =   0.0438957
        k(   55) = (   0.0434698   0.0652047   0.1200311), wk =   0.0438957
        k(   56) = (   0.0434698   0.0869396   0.0000000), wk =   0.0219479
        k(   57) = (   0.0434698   0.0869396   0.0300078), wk =   0.0438957
        k(   58) = (   0.0434698   0.0869396   0.0600156), wk =   0.0438957
        k(   59) = (   0.0434698   0.0869396   0.0900233), wk =   0.0438957
        k(   60) = (   0.0434698   0.0869396   0.1200311), wk =   0.0438957
        k(   61) = (   0.0652047   0.0652047   0.0000000), wk =   0.0109739
        k(   62) = (   0.0652047   0.0652047   0.0300078), wk =   0.0219479
        k(   63) = (   0.0652047   0.0652047   0.0600156), wk =   0.0219479
        k(   64) = (   0.0652047   0.0652047   0.0900233), wk =   0.0219479
        k(   65) = (   0.0652047   0.0652047   0.1200311), wk =   0.0219479
        k(   66) = (   0.0652047   0.0869396   0.0000000), wk =   0.0219479
        k(   67) = (   0.0652047   0.0869396   0.0300078), wk =   0.0438957
        k(   68) = (   0.0652047   0.0869396   0.0600156), wk =   0.0438957
        k(   69) = (   0.0652047   0.0869396   0.0900233), wk =   0.0438957
        k(   70) = (   0.0652047   0.0869396   0.1200311), wk =   0.0438957
        k(   71) = (   0.0869396   0.0869396   0.0000000), wk =   0.0109739
        k(   72) = (   0.0869396   0.0869396   0.0300078), wk =   0.0219479
        k(   73) = (   0.0869396   0.0869396   0.0600156), wk =   0.0219479
        k(   74) = (   0.0869396   0.0869396   0.0900233), wk =   0.0219479
        k(   75) = (   0.0869396   0.0869396   0.1200311), wk =   0.0219479

     Largest allocated arrays     est. size (Mb)     dimensions
     Largest temporary arrays     est. size (Mb)     dimensions

     Initial potential from superposition of free atoms
     Check: negative starting charge=   -0.299157

     starting charge   47.99991, renormalised to   54.00000

     negative rho (up, down):  3.366E-01 0.000E+00

     *
     * You are using vdW-DF for exchange-correlation in this calculation.
     * Please cite the following three references that made this development
     * possible:
     *
     *   M. Dion, H. Rydberg, E. Schroder, D. C. Langreth, and
     *   B. I. Lundqvist, Phys. Rev. Lett. 92, 246401 (2004).
     *
     *   T. Thonhauser, V. R. Cooper, S. Li, A. Puzder, P. Hyldgaard, and
     *   D. C. Langreth, Phys. Rev. B 76, 125112 (2007).
     *
     *   G. Roman-Perez and J. M. Soler, Phys. Rev. Lett. 103, 096102 (2009).
     *
     *
     * If you are using vdW-DF2, please also cite:
     *
     *   K. Lee, E. D. Murray, L. Kong, B. I. Lundqvist, and
     *   D. C. Langreth, Phys. Rev. B 82, 081101(R) (2010).
     *
     *
     * If you are calculating the stress with vdW-DF, please also cite:
     *
     *   R. Sabatini, E. Kucukbenli, B. Kolb, T. Thonhauser, and
     *   S. de Gironcoli, J. Phys.: Condens. Matter 24, 424209 (2012).
     *

     Carrying out vdW-DF run using the following parameters:

     Nqs =      20    Nr_points =    1024   r_max =   100.000
     q_mesh =
               0.00001000     0.04494208     0.09755937     0.15916263
               0.23128650     0.31572767     0.41458969     0.53033537
               0.66584808     0.82450364     1.01025438     1.22772762
               1.48234092     1.78043706     2.12944203     2.53805004
               3.01644009     3.57652955     4.23227104     5.00000000

     Gradients computed in reciprocal space

     Starting wfc are   44 randomized atomic wfcs +    3 random wfc

     Self-consistent Calculation

     iteration #  1     ecut=    58.80 Ry     beta=0.10
     Davidson diagonalization with overlap
     ethr =  1.00E-02,  avg # of iterations =  4.5

[...]

     total energy              =    -697.34239222 Ry
     Harris-Foulkes estimate   =    -698.21091423 Ry
     estimated scf accuracy    <       5.87729603 Ry

[...]

     total energy              =    -695.53625513 Ry
     Harris-Foulkes estimate   =    -695.53623513 Ry
     estimated scf accuracy    <       0.00000170 Ry

     iteration # 11     ecut=    58.80 Ry     beta=0.10
     Davidson diagonalization with overlap
     ethr =  3.14E-09,  avg # of iterations =  1.2

     negative rho (up, down):  3.238E-01 0.000E+00

     End of self-consistent calculation

          k = 0.0000 0.0000 0.0000 (  5021 PWs)   bands (ev):

   -48.3231 -48.3169 -16.8816 -16.8816 -16.8175 -16.7972 -16.7823 -16.7823
    -8.3335  -8.3206  -8.3124  -8.2762  -8.2762  -8.2547  -8.2462  -8.2436
    -8.2436  -8.1667   1.7990   4.1453  10.9201  10.9201  12.8216  13.4314
    13.4787  14.9722  15.4273  15.4273  15.7574  15.7574  16.3779  16.7628
    17.1821  17.1821  17.3389  17.3411  18.6531  18.8893  22.4647  22.4647
    24.5001  24.6319  25.9855  26.4291  26.4937  26.4937  29.2504

[...]

          k = 0.0869 0.0869 0.1200 (  4977 PWs)   bands (ev):

   -48.3185 -48.3174 -16.8909 -16.8897 -16.8847 -16.8817 -16.7686 -16.7655
    -8.3078  -8.3070  -8.2789  -8.2783  -8.2774  -8.2742  -8.2674  -8.2666
    -8.1721  -8.1694   3.9468   4.0039  10.5993  10.5998  10.9235  10.9958
    12.9561  13.0733  15.6914  15.7128  15.9960  16.0328  16.4307  17.0556
    18.0405  18.2591  18.2830  18.4765  18.6483  18.7405  22.6956  22.7677
    22.8486  22.9418  25.9558  26.0004  26.4621  26.5287  29.5818

     the Fermi energy is    14.5800 ev

!    total energy              =    -695.53634158 Ry
     Harris-Foulkes estimate   =    -695.53625532 Ry
     estimated scf accuracy    <       0.00000049 Ry

     The total energy is the sum of the following terms:

     one-electron contribution =    -104.14943398 Ry
     hartree contribution      =      84.73519754 Ry
     xc contribution           =    -288.17869382 Ry
     ewald contribution        =    -387.93327640 Ry
     smearing contrib. (-TS)   =      -0.01013493 Ry

     convergence has been achieved in  11 iterations

     Forces acting on atoms (Ry/au):

     negative rho (up, down):  3.238E-01 0.000E+00
     atom    1 type  1   force =     0.00000000    0.00000000    0.00000000
     atom    2 type  1   force =     0.00000000    0.00000000    0.00000000
     atom    3 type  2   force =     0.00000000    0.00000000    0.00000000
     atom    4 type  2   force =     0.00000000    0.00000000    0.00000000

     Total force =     0.000000     Total SCF correction =     0.000000

     General routines

     Parallel routines

   This run was terminated on:  18:15:13  18Feb2018

   JOB DONE.