     Program PWSCF v.5.1rc2 starts on 15Nov2017 at  3:13:17

     Current dimensions of program PWSCF are:
     Max number of different atomic species (ntypx) = 10
     Max number of k-points (npk) =  40000
     Max angular momentum in pseudopotentials (lmaxx) =  3

     IMPORTANT: XC functional enforced from input :
     Exchange-correlation      = BEEF-VDW ( 1  4 27 13 2)
     Any further DFT definition will be discarded
     Please, verify this is what you really want

     Found symmetry operation: I + ( -0.5000 -0.5000  0.0000)
     This is a supercell, fractional translations are disabled

     bravais-lattice index     =            0
     lattice parameter (alat)  =       1.8897  a.u.
     unit-cell volume          =     446.8887 (a.u.)^3
     number of atoms/cell      =            4
     number of atomic types    =            2
     number of electrons       =        58.00
     number of Kohn-Sham states=           49
     kinetic-energy cutoff     =      58.7989  Ry
     charge density cutoff     =     587.9892  Ry
     convergence threshold     =      1.0E-06
     mixing beta               =       0.1000
     number of iterations used =           10  plain     mixing
     Exchange-correlation      = BEEF-VDW ( 1  4 27 13 2)

     celldm(1)=   1.889726  celldm(2)=   0.000000  celldm(3)=   0.000000
     celldm(4)=   0.000000  celldm(5)=   0.000000  celldm(6)=   0.000000

     crystal axes: (cart. coord. in units of alat)
               a(1) = (   4.000694   0.000000   0.000000 )
               a(2) = (   0.000000   4.000694   0.000000 )
               a(3) = (   0.000000   0.000000   4.137443 )

     reciprocal axes: (cart. coord. in units 2 pi/alat)
               b(1) = (  0.249957  0.000000  0.000000 )
               b(2) = (  0.000000  0.249957  0.000000 )
               b(3) = (  0.000000  0.000000  0.241695 )

     PseudoPot. # 1 for Pd read from file:
     /home/users/vossj/suncat/psp/gbrv1.5pbe/Pd.UPF
     MD5 check sum: 2d733d2bc2cbfd217af676df1668a4bc
     Pseudo is Ultrasoft + core correction, Zval = 16.0
     Generated by new atomic code, or converted to UPF format
     Using radial grid of  887 points,  6 beta functions with:
                l(1) =   0
                l(2) =   0
                l(3) =   1
                l(4) =   1
                l(5) =   2
                l(6) =   2
     Q(r) pseudized with  8 coefficients,  rinner =    1.130   1.130   1.130
                                                       1.130   1.130

     PseudoPot. # 2 for Ta read from file:
     /home/users/vossj/suncat/psp/gbrv1.5pbe/Ta.UPF
     MD5 check sum: f8bbe9446314a3b8ea5d9f3e3836c939
     Pseudo is Ultrasoft + core correction, Zval = 13.0
     Generated by new atomic code, or converted to UPF format
     Using radial grid of  921 points,  7 beta functions with:
                l(1) =   0
                l(2) =   0
                l(3) =   1
                l(4) =   1
                l(5) =   2
                l(6) =   2
                l(7) =   3
     Q(r) pseudized with  6 coefficients,  rinner =    1.300   1.300   1.300
                                                       1.300   1.300   1.300
                                                       1.300

     vdW kernel table read from file vdW_kernel_table
     MD5 check sum: 095c7af220d748ca6e76c0b4c6cfb241

     atomic species   valence    mass     pseudopotential
        Pd1           16.00   106.42000     Pd( 1.00)
        Ta1           13.00   180.94790     Ta( 1.00)

     16 Sym. Ops., with inversion, found

   Cartesian axes

     site n.     atom                  positions (alat units)
         1           Pd1 tau(   1) = (   0.0000000   0.0000000   0.0000000  )
         2           Pd1 tau(   2) = (   2.0003471   2.0003471   0.0000000  )
         3           Ta1 tau(   3) = (   2.0003471   0.0000000   2.0687217  )
         4           Ta1 tau(   4) = (   0.0000000   2.0003471   2.0687217  )

     number of k points=    75  Fermi-Dirac smearing, width (Ry)=  0.0073
                       cart. coord. in units 2pi/alat
        k(    1) = (   0.0000000   0.0000000   0.0000000), wk =   0.0027435
        k(    2) = (   0.0000000   0.0000000   0.0268550), wk =   0.0054870
        k(    3) = (   0.0000000   0.0000000   0.0537100), wk =   0.0054870
        k(    4) = (   0.0000000   0.0000000   0.0805650), wk =   0.0054870
        k(    5) = (   0.0000000   0.0000000   0.1074201), wk =   0.0054870
        k(    6) = (   0.0000000   0.0277730   0.0000000), wk =   0.0109739
        k(    7) = (   0.0000000   0.0277730   0.0268550), wk =   0.0219479
        k(    8) = (   0.0000000   0.0277730   0.0537100), wk =   0.0219479
        k(    9) = (   0.0000000   0.0277730   0.0805650), wk =   0.0219479
        k(   10) = (   0.0000000   0.0277730   0.1074201), wk =   0.0219479
        k(   11) = (   0.0000000   0.0555459   0.0000000), wk =   0.0109739
        k(   12) = (   0.0000000   0.0555459   0.0268550), wk =   0.0219479
        k(   13) = (   0.0000000   0.0555459   0.0537100), wk =   0.0219479
        k(   14) = (   0.0000000   0.0555459   0.0805650), wk =   0.0219479
        k(   15) = (   0.0000000   0.0555459   0.1074201), wk =   0.0219479
        k(   16) = (   0.0000000   0.0833189   0.0000000), wk =   0.0109739
        k(   17) = (   0.0000000   0.0833189   0.0268550), wk =   0.0219479
        k(   18) = (   0.0000000   0.0833189   0.0537100), wk =   0.0219479
        k(   19) = (   0.0000000   0.0833189   0.0805650), wk =   0.0219479
        k(   20) = (   0.0000000   0.0833189   0.1074201), wk =   0.0219479
        k(   21) = (   0.0000000   0.1110918   0.0000000), wk =   0.0109739
        k(   22) = (   0.0000000   0.1110918   0.0268550), wk =   0.0219479
        k(   23) = (   0.0000000   0.1110918   0.0537100), wk =   0.0219479
        k(   24) = (   0.0000000   0.1110918   0.0805650), wk =   0.0219479
        k(   25) = (   0.0000000   0.1110918   0.1074201), wk =   0.0219479
        k(   26) = (   0.0277730   0.0277730   0.0000000), wk =   0.0109739
        k(   27) = (   0.0277730   0.0277730   0.0268550), wk =   0.0219479
        k(   28) = (   0.0277730   0.0277730   0.0537100), wk =   0.0219479
        k(   29) = (   0.0277730   0.0277730   0.0805650), wk =   0.0219479
        k(   30) = (   0.0277730   0.0277730   0.1074201), wk =   0.0219479
        k(   31) = (   0.0277730   0.0555459   0.0000000), wk =   0.0219479
        k(   32) = (   0.0277730   0.0555459   0.0268550), wk =   0.0438957
        k(   33) = (   0.0277730   0.0555459   0.0537100), wk =   0.0438957
        k(   34) = (   0.0277730   0.0555459   0.0805650), wk =   0.0438957
        k(   35) = (   0.0277730   0.0555459   0.1074201), wk =   0.0438957
        k(   36) = (   0.0277730   0.0833189   0.0000000), wk =   0.0219479
        k(   37) = (   0.0277730   0.0833189   0.0268550), wk =   0.0438957
        k(   38) = (   0.0277730   0.0833189   0.0537100), wk =   0.0438957
        k(   39) = (   0.0277730   0.0833189   0.0805650), wk =   0.0438957
        k(   40) = (   0.0277730   0.0833189   0.1074201), wk =   0.0438957
        k(   41) = (   0.0277730   0.1110918   0.0000000), wk =   0.0219479
        k(   42) = (   0.0277730   0.1110918   0.0268550), wk =   0.0438957
        k(   43) = (   0.0277730   0.1110918   0.0537100), wk =   0.0438957
        k(   44) = (   0.0277730   0.1110918   0.0805650), wk =   0.0438957
        k(   45) = (   0.0277730   0.1110918   0.1074201), wk =   0.0438957
        k(   46) = (   0.0555459   0.0555459   0.0000000), wk =   0.0109739
        k(   47) = (   0.0555459   0.0555459   0.0268550), wk =   0.0219479
        k(   48) = (   0.0555459   0.0555459   0.0537100), wk =   0.0219479
        k(   49) = (   0.0555459   0.0555459   0.0805650), wk =   0.0219479
        k(   50) = (   0.0555459   0.0555459   0.1074201), wk =   0.0219479
        k(   51) = (   0.0555459   0.0833189   0.0000000), wk =   0.0219479
        k(   52) = (   0.0555459   0.0833189   0.0268550), wk =   0.0438957
        k(   53) = (   0.0555459   0.0833189   0.0537100), wk =   0.0438957
        k(   54) = (   0.0555459   0.0833189   0.0805650), wk =   0.0438957
        k(   55) = (   0.0555459   0.0833189   0.1074201), wk =   0.0438957
        k(   56) = (   0.0555459   0.1110918   0.0000000), wk =   0.0219479
        k(   57) = (   0.0555459   0.1110918   0.0268550), wk =   0.0438957
        k(   58) = (   0.0555459   0.1110918   0.0537100), wk =   0.0438957
        k(   59) = (   0.0555459   0.1110918   0.0805650), wk =   0.0438957
        k(   60) = (   0.0555459   0.1110918   0.1074201), wk =   0.0438957
        k(   61) = (   0.0833189   0.0833189   0.0000000), wk =   0.0109739
        k(   62) = (   0.0833189   0.0833189   0.0268550), wk =   0.0219479
        k(   63) = (   0.0833189   0.0833189   0.0537100), wk =   0.0219479
        k(   64) = (   0.0833189   0.0833189   0.0805650), wk =   0.0219479
        k(   65) = (   0.0833189   0.0833189   0.1074201), wk =   0.0219479
        k(   66) = (   0.0833189   0.1110918   0.0000000), wk =   0.0219479
        k(   67) = (   0.0833189   0.1110918   0.0268550), wk =   0.0438957
        k(   68) = (   0.0833189   0.1110918   0.0537100), wk =   0.0438957
        k(   69) = (   0.0833189   0.1110918   0.0805650), wk =   0.0438957
        k(   70) = (   0.0833189   0.1110918   0.1074201), wk =   0.0438957
        k(   71) = (   0.1110918   0.1110918   0.0000000), wk =   0.0109739
        k(   72) = (   0.1110918   0.1110918   0.0268550), wk =   0.0219479
        k(   73) = (   0.1110918   0.1110918   0.0537100), wk =   0.0219479
        k(   74) = (   0.1110918   0.1110918   0.0805650), wk =   0.0219479
        k(   75) = (   0.1110918   0.1110918   0.1074201), wk =   0.0219479

     Largest allocated arrays     est. size (Mb)     dimensions
     Largest temporary arrays     est. size (Mb)     dimensions

     Initial potential from superposition of free atoms
     Check: negative starting charge=   -0.343700

     starting charge   56.99776, renormalised to   58.00000

     negative rho (up, down):  3.497E-01 0.000E+00

     *
     * You are using vdW-DF for exchange-correlation in this calculation.
     * Please cite the following three references that made this development
     * possible:
     *
     *   M. Dion, H. Rydberg, E. Schroder, D. C. Langreth, and
     *   B. I. Lundqvist, Phys. Rev. Lett. 92, 246401 (2004).
     *
     *   T. Thonhauser, V. R. Cooper, S. Li, A. Puzder, P. Hyldgaard, and
     *   D. C. Langreth, Phys. Rev. B 76, 125112 (2007).
     *
     *   G. Roman-Perez and J. M. Soler, Phys. Rev. Lett. 103, 096102 (2009).
     *
     *
     * If you are using vdW-DF2, please also cite:
     *
     *   K. Lee, E. D. Murray, L. Kong, B. I. Lundqvist, and
     *   D. C. Langreth, Phys. Rev. B 82, 081101(R) (2010).
     *
     *
     * If you are calculating the stress with vdW-DF, please also cite:
     *
     *   R. Sabatini, E. Kucukbenli, B. Kolb, T. Thonhauser, and
     *   S. de Gironcoli, J. Phys.: Condens. Matter 24, 424209 (2012).
     *

     Carrying out vdW-DF run using the following parameters:

     Nqs =      20    Nr_points =    1024   r_max =   100.000
     q_mesh =
               0.00001000     0.04494208     0.09755937     0.15916263
               0.23128650     0.31572767     0.41458969     0.53033537
               0.66584808     0.82450364     1.01025438     1.22772762
               1.48234092     1.78043706     2.12944203     2.53805004
               3.01644009     3.57652955     4.23227104     5.00000000

     Gradients computed in reciprocal space

     Starting wfc are   50 randomized atomic wfcs

     Self-consistent Calculation

     iteration #  1     ecut=    58.80 Ry     beta=0.10
     Davidson diagonalization with overlap
     ethr =  1.00E-02,  avg # of iterations =  4.2

[...]

     total energy              =    -685.91662738 Ry
     Harris-Foulkes estimate   =    -687.03021826 Ry
     estimated scf accuracy    <       6.47323742 Ry

[...]

     total energy              =    -686.21329866 Ry
     Harris-Foulkes estimate   =    -686.21329852 Ry
     estimated scf accuracy    <       0.00000779 Ry

     iteration # 10     ecut=    58.80 Ry     beta=0.10
     Davidson diagonalization with overlap
     ethr =  1.34E-08,  avg # of iterations =  1.0

     negative rho (up, down):  3.671E-01 0.000E+00

     End of self-consistent calculation

          k = 0.0000 0.0000 0.0000 (  3399 PWs)   bands (ev):

   -49.5986 -49.4890 -32.1663 -32.1374 -32.1374 -32.1339 -31.9966 -31.9966
   -16.2047 -16.2047 -16.0703 -15.8910 -15.4672 -15.4672  10.7401  13.1417
    13.2361  13.4056  13.6812  13.6812  13.7107  15.8904  15.8904  17.0216
    17.2161  17.9469  18.6920  18.8268  21.1149  21.3448  21.3448  21.7792
    21.7792  22.2236  22.9379  22.9379  24.0995  26.1803  28.5738  30.1226
    30.7155  30.8405  30.8405  30.9097  30.9292  30.9292  32.0762  33.1275
    37.4729

[...]

          k = 0.1111 0.1111 0.1074 (  3395 PWs)   bands (ev):

   -49.5447 -49.5414 -32.1538 -32.1519 -32.1510 -32.1496 -31.9881 -31.9838
   -16.3088 -16.2878 -15.9933 -15.9875 -15.4178 -15.3941  13.1246  13.1637
    13.5317  13.5775  15.2384  15.2662  15.6741  15.7860  15.9866  16.0396
    17.6253  17.8367  18.0738  18.6428  18.9389  19.1827  19.2575  19.7387
    21.6832  21.9908  22.6035  22.6173  22.9780  23.1312  27.9600  28.0342
    28.3176  28.4827  32.5424  32.5507  32.8556  33.0139  36.3971  36.6349
    36.8302

     the Fermi energy is    18.8562 ev

!    total energy              =    -686.21330801 Ry
     Harris-Foulkes estimate   =    -686.21329977 Ry
     estimated scf accuracy    <       0.00000023 Ry

     The total energy is the sum of the following terms:

     one-electron contribution =    -135.07783218 Ry
     hartree contribution      =     108.16983160 Ry
     xc contribution           =    -152.39378937 Ry
     ewald contribution        =    -506.90394105 Ry
     smearing contrib. (-TS)   =      -0.00757701 Ry

     convergence has been achieved in  10 iterations

     Forces acting on atoms (Ry/au):

     negative rho (up, down):  3.671E-01 0.000E+00
     atom    1 type  1   force =     0.00000000    0.00000000    0.00000000
     atom    2 type  1   force =     0.00000000    0.00000000    0.00000000
     atom    3 type  2   force =     0.00000000    0.00000000    0.00000000
     atom    4 type  2   force =     0.00000000    0.00000000    0.00000000

     Total force =     0.000000     Total SCF correction =     0.000000

     General routines

     Parallel routines

   This run was terminated on:   3:13:49  15Nov2017

   JOB DONE.