     Program PWSCF v.5.1rc2 starts on 15Nov2017 at  4: 3:41

     Current dimensions of program PWSCF are:
     Max number of different atomic species (ntypx) = 10
     Max number of k-points (npk) =  40000
     Max angular momentum in pseudopotentials (lmaxx) =  3

     IMPORTANT: XC functional enforced from input :
     Exchange-correlation      = BEEF-VDW ( 1  4 27 13 2)
     Any further DFT definition will be discarded
     Please, verify this is what you really want

     Found symmetry operation: I + (  0.5000  0.5000  0.0000)
     This is a supercell, fractional translations are disabled

     bravais-lattice index     =            0
     lattice parameter (alat)  =       1.8897  a.u.
     unit-cell volume          =     558.3845 (a.u.)^3
     number of atoms/cell      =            4
     number of atomic types    =            2
     number of electrons       =        60.00
     number of Kohn-Sham states=           50
     kinetic-energy cutoff     =      58.7989  Ry
     charge density cutoff     =     587.9892  Ry
     convergence threshold     =      1.0E-06
     mixing beta               =       0.1000
     number of iterations used =           10  plain     mixing
     Exchange-correlation      = BEEF-VDW ( 1  4 27 13 2)

     celldm(1)=   1.889726  celldm(2)=   0.000000  celldm(3)=   0.000000
     celldm(4)=   0.000000  celldm(5)=   0.000000  celldm(6)=   0.000000

     crystal axes: (cart. coord. in units of alat)
               a(1) = (   4.875258   0.000000   0.000000 )
               a(2) = (   0.000000   4.875258   0.000000 )
               a(3) = (   0.000000   0.000000   3.481301 )

     reciprocal axes: (cart. coord. in units 2 pi/alat)
               b(1) = (  0.205117  0.000000  0.000000 )
               b(2) = (  0.000000  0.205117  0.000000 )
               b(3) = (  0.000000  0.000000  0.287249 )

     PseudoPot. # 1 for Sc read from file:
     /home/users/vossj/suncat/psp/gbrv1.5pbe/Sc.UPF
     MD5 check sum: db30a2753ba66ef00f23801d899b7e7f
     Pseudo is Ultrasoft + core correction, Zval = 11.0
     Generated by new atomic code, or converted to UPF format
     Using radial grid of  849 points,  6 beta functions with:
                l(1) =   0
                l(2) =   0
                l(3) =   1
                l(4) =   1
                l(5) =   2
                l(6) =   2
     Q(r) pseudized with  6 coefficients,  rinner =    1.200   1.200   1.200
                                                       1.200   1.200

     PseudoPot. # 2 for Ag read from file:
     /home/users/vossj/suncat/psp/gbrv1.5pbe/Ag.UPF
     MD5 check sum: d66d668201baa78d5eb5b04ef7011058
     Pseudo is Ultrasoft + core correction, Zval = 19.0
     Generated by new atomic code, or converted to UPF format
     Using radial grid of  887 points,  6 beta functions with:
                l(1) =   0
                l(2) =   0
                l(3) =   1
                l(4) =   1
                l(5) =   2
                l(6) =   2
     Q(r) pseudized with  6 coefficients,  rinner =    1.300   1.300   1.300
                                                       1.300   1.300

     vdW kernel table read from file vdW_kernel_table
     MD5 check sum: 095c7af220d748ca6e76c0b4c6cfb241

     atomic species   valence    mass     pseudopotential
        Sc1           11.00    44.95590     Sc( 1.00)
        Ag1           19.00   107.86800     Ag( 1.00)

     16 Sym. Ops., with inversion, found

   Cartesian axes

     site n.     atom                  positions (alat units)
         1           Sc1 tau(   1) = (   0.0000000   0.0000000   0.0000000  )
         2           Sc1 tau(   2) = (   2.4376290   2.4376290   0.0000000  )
         3           Ag1 tau(   3) = (   2.4376290   0.0000000   1.7406505  )
         4           Ag1 tau(   4) = (   0.0000000   2.4376290   1.7406505  )

     number of k points=    75  Fermi-Dirac smearing, width (Ry)=  0.0073
                       cart. coord. in units 2pi/alat
        k(    1) = (   0.0000000   0.0000000   0.0000000), wk =   0.0027435
        k(    2) = (   0.0000000   0.0000000   0.0319165), wk =   0.0054870
        k(    3) = (   0.0000000   0.0000000   0.0638331), wk =   0.0054870
        k(    4) = (   0.0000000   0.0000000   0.0957496), wk =   0.0054870
        k(    5) = (   0.0000000   0.0000000   0.1276662), wk =   0.0054870
        k(    6) = (   0.0000000   0.0227908   0.0000000), wk =   0.0109739
        k(    7) = (   0.0000000   0.0227908   0.0319165), wk =   0.0219479
        k(    8) = (   0.0000000   0.0227908   0.0638331), wk =   0.0219479
        k(    9) = (   0.0000000   0.0227908   0.0957496), wk =   0.0219479
        k(   10) = (   0.0000000   0.0227908   0.1276662), wk =   0.0219479
        k(   11) = (   0.0000000   0.0455816   0.0000000), wk =   0.0109739
        k(   12) = (   0.0000000   0.0455816   0.0319165), wk =   0.0219479
        k(   13) = (   0.0000000   0.0455816   0.0638331), wk =   0.0219479
        k(   14) = (   0.0000000   0.0455816   0.0957496), wk =   0.0219479
        k(   15) = (   0.0000000   0.0455816   0.1276662), wk =   0.0219479
        k(   16) = (   0.0000000   0.0683725   0.0000000), wk =   0.0109739
        k(   17) = (   0.0000000   0.0683725   0.0319165), wk =   0.0219479
        k(   18) = (   0.0000000   0.0683725   0.0638331), wk =   0.0219479
        k(   19) = (   0.0000000   0.0683725   0.0957496), wk =   0.0219479
        k(   20) = (   0.0000000   0.0683725   0.1276662), wk =   0.0219479
        k(   21) = (   0.0000000   0.0911633   0.0000000), wk =   0.0109739
        k(   22) = (   0.0000000   0.0911633   0.0319165), wk =   0.0219479
        k(   23) = (   0.0000000   0.0911633   0.0638331), wk =   0.0219479
        k(   24) = (   0.0000000   0.0911633   0.0957496), wk =   0.0219479
        k(   25) = (   0.0000000   0.0911633   0.1276662), wk =   0.0219479
        k(   26) = (   0.0227908   0.0227908   0.0000000), wk =   0.0109739
        k(   27) = (   0.0227908   0.0227908   0.0319165), wk =   0.0219479
        k(   28) = (   0.0227908   0.0227908   0.0638331), wk =   0.0219479
        k(   29) = (   0.0227908   0.0227908   0.0957496), wk =   0.0219479
        k(   30) = (   0.0227908   0.0227908   0.1276662), wk =   0.0219479
        k(   31) = (   0.0227908   0.0455816   0.0000000), wk =   0.0219479
        k(   32) = (   0.0227908   0.0455816   0.0319165), wk =   0.0438957
        k(   33) = (   0.0227908   0.0455816   0.0638331), wk =   0.0438957
        k(   34) = (   0.0227908   0.0455816   0.0957496), wk =   0.0438957
        k(   35) = (   0.0227908   0.0455816   0.1276662), wk =   0.0438957
        k(   36) = (   0.0227908   0.0683725   0.0000000), wk =   0.0219479
        k(   37) = (   0.0227908   0.0683725   0.0319165), wk =   0.0438957
        k(   38) = (   0.0227908   0.0683725   0.0638331), wk =   0.0438957
        k(   39) = (   0.0227908   0.0683725   0.0957496), wk =   0.0438957
        k(   40) = (   0.0227908   0.0683725   0.1276662), wk =   0.0438957
        k(   41) = (   0.0227908   0.0911633   0.0000000), wk =   0.0219479
        k(   42) = (   0.0227908   0.0911633   0.0319165), wk =   0.0438957
        k(   43) = (   0.0227908   0.0911633   0.0638331), wk =   0.0438957
        k(   44) = (   0.0227908   0.0911633   0.0957496), wk =   0.0438957
        k(   45) = (   0.0227908   0.0911633   0.1276662), wk =   0.0438957
        k(   46) = (   0.0455816   0.0455816   0.0000000), wk =   0.0109739
        k(   47) = (   0.0455816   0.0455816   0.0319165), wk =   0.0219479
        k(   48) = (   0.0455816   0.0455816   0.0638331), wk =   0.0219479
        k(   49) = (   0.0455816   0.0455816   0.0957496), wk =   0.0219479
        k(   50) = (   0.0455816   0.0455816   0.1276662), wk =   0.0219479
        k(   51) = (   0.0455816   0.0683725   0.0000000), wk =   0.0219479
        k(   52) = (   0.0455816   0.0683725   0.0319165), wk =   0.0438957
        k(   53) = (   0.0455816   0.0683725   0.0638331), wk =   0.0438957
        k(   54) = (   0.0455816   0.0683725   0.0957496), wk =   0.0438957
        k(   55) = (   0.0455816   0.0683725   0.1276662), wk =   0.0438957
        k(   56) = (   0.0455816   0.0911633   0.0000000), wk =   0.0219479
        k(   57) = (   0.0455816   0.0911633   0.0319165), wk =   0.0438957
        k(   58) = (   0.0455816   0.0911633   0.0638331), wk =   0.0438957
        k(   59) = (   0.0455816   0.0911633   0.0957496), wk =   0.0438957
        k(   60) = (   0.0455816   0.0911633   0.1276662), wk =   0.0438957
        k(   61) = (   0.0683725   0.0683725   0.0000000), wk =   0.0109739
        k(   62) = (   0.0683725   0.0683725   0.0319165), wk =   0.0219479
        k(   63) = (   0.0683725   0.0683725   0.0638331), wk =   0.0219479
        k(   64) = (   0.0683725   0.0683725   0.0957496), wk =   0.0219479
        k(   65) = (   0.0683725   0.0683725   0.1276662), wk =   0.0219479
        k(   66) = (   0.0683725   0.0911633   0.0000000), wk =   0.0219479
        k(   67) = (   0.0683725   0.0911633   0.0319165), wk =   0.0438957
        k(   68) = (   0.0683725   0.0911633   0.0638331), wk =   0.0438957
        k(   69) = (   0.0683725   0.0911633   0.0957496), wk =   0.0438957
        k(   70) = (   0.0683725   0.0911633   0.1276662), wk =   0.0438957
        k(   71) = (   0.0911633   0.0911633   0.0000000), wk =   0.0109739
        k(   72) = (   0.0911633   0.0911633   0.0319165), wk =   0.0219479
        k(   73) = (   0.0911633   0.0911633   0.0638331), wk =   0.0219479
        k(   74) = (   0.0911633   0.0911633   0.0957496), wk =   0.0219479
        k(   75) = (   0.0911633   0.0911633   0.1276662), wk =   0.0219479

     Largest allocated arrays     est. size (Mb)     dimensions
     Largest temporary arrays     est. size (Mb)     dimensions

     Initial potential from superposition of free atoms

     starting charge   58.99510, renormalised to   60.00000

     *
     * You are using vdW-DF for exchange-correlation in this calculation.
     * Please cite the following three references that made this development
     * possible:
     *
     *   M. Dion, H. Rydberg, E. Schroder, D. C. Langreth, and
     *   B. I. Lundqvist, Phys. Rev. Lett. 92, 246401 (2004).
     *
     *   T. Thonhauser, V. R. Cooper, S. Li, A. Puzder, P. Hyldgaard, and
     *   D. C. Langreth, Phys. Rev. B 76, 125112 (2007).
     *
     *   G. Roman-Perez and J. M. Soler, Phys. Rev. Lett. 103, 096102 (2009).
     *
     *
     * If you are using vdW-DF2, please also cite:
     *
     *   K. Lee, E. D. Murray, L. Kong, B. I. Lundqvist, and
     *   D. C. Langreth, Phys. Rev. B 82, 081101(R) (2010).
     *
     *
     * If you are calculating the stress with vdW-DF, please also cite:
     *
     *   R. Sabatini, E. Kucukbenli, B. Kolb, T. Thonhauser, and
     *   S. de Gironcoli, J. Phys.: Condens. Matter 24, 424209 (2012).
     *

     Carrying out vdW-DF run using the following parameters:

     Nqs =      20    Nr_points =    1024   r_max =   100.000
     q_mesh =
               0.00001000     0.04494208     0.09755937     0.15916263
               0.23128650     0.31572767     0.41458969     0.53033537
               0.66584808     0.82450364     1.01025438     1.22772762
               1.48234092     1.78043706     2.12944203     2.53805004
               3.01644009     3.57652955     4.23227104     5.00000000

     Gradients computed in reciprocal space

     Starting wfc are   52 randomized atomic wfcs

     Self-consistent Calculation

     iteration #  1     ecut=    58.80 Ry     beta=0.10
     Davidson diagonalization with overlap
     ethr =  1.00E-02,  avg # of iterations =  3.7

     total energy              =    -783.11013801 Ry
     Harris-Foulkes estimate   =    -783.65441690 Ry
     estimated scf accuracy    <       3.20411533 Ry

[...]

     total energy              =    -783.08930187 Ry
     Harris-Foulkes estimate   =    -783.08929744 Ry
     estimated scf accuracy    <       0.00000249 Ry

     iteration # 13     ecut=    58.80 Ry     beta=0.10
     Davidson diagonalization with overlap
     ethr =  4.14E-09,  avg # of iterations =  2.0

     End of self-consistent calculation

          k = 0.0000 0.0000 0.0000 (  4217 PWs)   bands (ev):

   -79.9186 -79.9180 -43.3876 -43.3876 -43.3805 -43.3794 -43.3794 -43.3792
   -37.6322 -37.6132 -16.2403 -16.2403 -16.1414 -16.1353 -16.1353 -16.1211
     6.2506   7.0790   7.1955   7.1989   7.3983   7.7098   7.7098   8.0914
     8.0914   8.1104   8.5798  11.0917  12.9324  12.9324  13.2530  13.2841
    13.6279  14.8402  14.8402  15.2115  15.2115  15.2269  15.7041  18.4919
    18.8617  18.9149  19.1633  19.1633  24.3475  24.5239  24.5239  24.9085
    25.0890  25.2710

[...]

          k = 0.0912 0.0912 0.1277 (  4260 PWs)   bands (ev):

   -79.9181 -79.9180 -43.3878 -43.3875 -43.3875 -43.3874 -43.3784 -43.3782
   -37.6148 -37.6143 -16.2418 -16.2387 -16.2330 -16.2322 -16.1200 -16.1169
     7.1134   7.1187   7.3892   7.4181   7.7294   7.7442   7.7480   7.7621
     8.5050   8.5333  10.8713  10.9825  12.6234  12.6514  12.8990  12.9123
    13.6608  13.6865  14.8042  14.8738  14.9297  14.9615  15.7207  15.7403
    18.5008  18.5245  18.8901  19.0777  24.1199  24.5317  24.5721  24.6651
    24.6945  24.7693

     the Fermi energy is    12.7956 ev

!    total energy              =    -783.08932658 Ry
     Harris-Foulkes estimate   =    -783.08930250 Ry
     estimated scf accuracy    <       0.00000007 Ry

     The total energy is the sum of the following terms:

     one-electron contribution =    -388.28505338 Ry
     hartree contribution      =     214.14162271 Ry
     xc contribution           =     -87.87729402 Ry
     ewald contribution        =    -521.05905275 Ry
     smearing contrib. (-TS)   =      -0.00954913 Ry

     convergence has been achieved in  13 iterations

     Forces acting on atoms (Ry/au):

     atom    1 type  1   force =     0.00000000    0.00000000    0.00000000
     atom    2 type  1   force =     0.00000000    0.00000000    0.00000000
     atom    3 type  2   force =     0.00000000    0.00000000    0.00000000
     atom    4 type  2   force =     0.00000000    0.00000000    0.00000000

     Total force =     0.000000     Total SCF correction =     0.000000

     General routines

     Parallel routines

   This run was terminated on:   4: 4:35  15Nov2017

   JOB DONE.