     Program PWSCF v.5.1rc2 starts on 15Nov2017 at  8: 2:10

     Current dimensions of program PWSCF are:
     Max number of different atomic species (ntypx) = 10
     Max number of k-points (npk) =  40000
     Max angular momentum in pseudopotentials (lmaxx) =  3

     IMPORTANT: XC functional enforced from input :
     Exchange-correlation      = BEEF-VDW ( 1  4 27 13 2)
     Any further DFT definition will be discarded
     Please, verify this is what you really want

     Found symmetry operation: I + ( -0.5000 -0.5000  0.0000)
     This is a supercell, fractional translations are disabled

     bravais-lattice index     =            0
     lattice parameter (alat)  =       1.8897  a.u.
     unit-cell volume          =     417.8564 (a.u.)^3
     number of atoms/cell      =            4
     number of atomic types    =            2
     number of electrons       =        58.00
     number of Kohn-Sham states=           49
     kinetic-energy cutoff     =      58.7989  Ry
     charge density cutoff     =     587.9892  Ry
     convergence threshold     =      1.0E-06
     mixing beta               =       0.1000
     number of iterations used =           10  plain     mixing
     Exchange-correlation      = BEEF-VDW ( 1  4 27 13 2)

     celldm(1)=   1.889726  celldm(2)=   0.000000  celldm(3)=   0.000000
     celldm(4)=   0.000000  celldm(5)=   0.000000  celldm(6)=   0.000000

     crystal axes: (cart. coord. in units of alat)
               a(1) = (   3.957467   0.000000   0.000000 )
               a(2) = (   0.000000   3.957467   0.000000 )
               a(3) = (   0.000000   0.000000   3.953628 )

     reciprocal axes: (cart. coord. in units 2 pi/alat)
               b(1) = (  0.252687  0.000000  0.000000 )
               b(2) = (  0.000000  0.252687  0.000000 )
               b(3) = (  0.000000  0.000000  0.252932 )

     PseudoPot. # 1 for Mo read from file:
     /home/users/vossj/suncat/psp/gbrv1.5pbe/Mo.UPF
     MD5 check sum: 30c4dcd161f5d35cd49bb5239c51a633
     Pseudo is Ultrasoft + core correction, Zval = 14.0
     Generated by new atomic code, or converted to UPF format
     Using radial grid of  889 points,  6 beta functions with:
                l(1) =   0
                l(2) =   0
                l(3) =   1
                l(4) =   1
                l(5) =   2
                l(6) =   2
     Q(r) pseudized with  6 coefficients,  rinner =    1.000   1.000   1.000
                                                       1.000   1.000

     PseudoPot. # 2 for Re read from file:
     /home/users/vossj/suncat/psp/gbrv1.5pbe/Re.UPF
     MD5 check sum: 85f993410f3e006da9d71c142b4ad953
     Pseudo is Ultrasoft + core correction, Zval = 15.0
     Generated by new atomic code, or converted to UPF format
     Using radial grid of  981 points,  8 beta functions with:
                l(1) =   0
                l(2) =   0
                l(3) =   1
                l(4) =   1
                l(5) =   2
                l(6) =   2
                l(7) =   3
                l(8) =   3
     Q(r) pseudized with  8 coefficients,  rinner =    1.150   1.150   1.150
                                                       1.150   1.150   1.150
                                                       1.150

     vdW kernel table read from file vdW_kernel_table
     MD5 check sum: 095c7af220d748ca6e76c0b4c6cfb241

     atomic species   valence    mass     pseudopotential
        Mo1           14.00    95.94000     Mo( 1.00)
        Re1           15.00   186.20700     Re( 1.00)

     16 Sym. Ops., with inversion, found

   Cartesian axes

     site n.     atom                  positions (alat units)
         1           Mo1 tau(   1) = (   0.0000000   0.0000000   0.0000000  )
         2           Mo1 tau(   2) = (   1.9787336   1.9787336   0.0000000  )
         3           Re1 tau(   3) = (   1.9787336   0.0000000   1.9768140  )
         4           Re1 tau(   4) = (   0.0000000   1.9787336   1.9768140  )

     number of k points=    75  Fermi-Dirac smearing, width (Ry)=  0.0073
                       cart. coord. in units 2pi/alat
        k(    1) = (   0.0000000   0.0000000   0.0000000), wk =   0.0027435
        k(    2) = (   0.0000000   0.0000000   0.0281036), wk =   0.0054870
        k(    3) = (   0.0000000   0.0000000   0.0562072), wk =   0.0054870
        k(    4) = (   0.0000000   0.0000000   0.0843107), wk =   0.0054870
        k(    5) = (   0.0000000   0.0000000   0.1124143), wk =   0.0054870
        k(    6) = (   0.0000000   0.0280763   0.0000000), wk =   0.0109739
        k(    7) = (   0.0000000   0.0280763   0.0281036), wk =   0.0219479
        k(    8) = (   0.0000000   0.0280763   0.0562072), wk =   0.0219479
        k(    9) = (   0.0000000   0.0280763   0.0843107), wk =   0.0219479
        k(   10) = (   0.0000000   0.0280763   0.1124143), wk =   0.0219479
        k(   11) = (   0.0000000   0.0561526   0.0000000), wk =   0.0109739
        k(   12) = (   0.0000000   0.0561526   0.0281036), wk =   0.0219479
        k(   13) = (   0.0000000   0.0561526   0.0562072), wk =   0.0219479
        k(   14) = (   0.0000000   0.0561526   0.0843107), wk =   0.0219479
        k(   15) = (   0.0000000   0.0561526   0.1124143), wk =   0.0219479
        k(   16) = (   0.0000000   0.0842290   0.0000000), wk =   0.0109739
        k(   17) = (   0.0000000   0.0842290   0.0281036), wk =   0.0219479
        k(   18) = (   0.0000000   0.0842290   0.0562072), wk =   0.0219479
        k(   19) = (   0.0000000   0.0842290   0.0843107), wk =   0.0219479
        k(   20) = (   0.0000000   0.0842290   0.1124143), wk =   0.0219479
        k(   21) = (   0.0000000   0.1123053   0.0000000), wk =   0.0109739
        k(   22) = (   0.0000000   0.1123053   0.0281036), wk =   0.0219479
        k(   23) = (   0.0000000   0.1123053   0.0562072), wk =   0.0219479
        k(   24) = (   0.0000000   0.1123053   0.0843107), wk =   0.0219479
        k(   25) = (   0.0000000   0.1123053   0.1124143), wk =   0.0219479
        k(   26) = (   0.0280763   0.0280763   0.0000000), wk =   0.0109739
        k(   27) = (   0.0280763   0.0280763   0.0281036), wk =   0.0219479
        k(   28) = (   0.0280763   0.0280763   0.0562072), wk =   0.0219479
        k(   29) = (   0.0280763   0.0280763   0.0843107), wk =   0.0219479
        k(   30) = (   0.0280763   0.0280763   0.1124143), wk =   0.0219479
        k(   31) = (   0.0280763   0.0561526   0.0000000), wk =   0.0219479
        k(   32) = (   0.0280763   0.0561526   0.0281036), wk =   0.0438957
        k(   33) = (   0.0280763   0.0561526   0.0562072), wk =   0.0438957
        k(   34) = (   0.0280763   0.0561526   0.0843107), wk =   0.0438957
        k(   35) = (   0.0280763   0.0561526   0.1124143), wk =   0.0438957
        k(   36) = (   0.0280763   0.0842290   0.0000000), wk =   0.0219479
        k(   37) = (   0.0280763   0.0842290   0.0281036), wk =   0.0438957
        k(   38) = (   0.0280763   0.0842290   0.0562072), wk =   0.0438957
        k(   39) = (   0.0280763   0.0842290   0.0843107), wk =   0.0438957
        k(   40) = (   0.0280763   0.0842290   0.1124143), wk =   0.0438957
        k(   41) = (   0.0280763   0.1123053   0.0000000), wk =   0.0219479
        k(   42) = (   0.0280763   0.1123053   0.0281036), wk =   0.0438957
        k(   43) = (   0.0280763   0.1123053   0.0562072), wk =   0.0438957
        k(   44) = (   0.0280763   0.1123053   0.0843107), wk =   0.0438957
        k(   45) = (   0.0280763   0.1123053   0.1124143), wk =   0.0438957
        k(   46) = (   0.0561526   0.0561526   0.0000000), wk =   0.0109739
        k(   47) = (   0.0561526   0.0561526   0.0281036), wk =   0.0219479
        k(   48) = (   0.0561526   0.0561526   0.0562072), wk =   0.0219479
        k(   49) = (   0.0561526   0.0561526   0.0843107), wk =   0.0219479
        k(   50) = (   0.0561526   0.0561526   0.1124143), wk =   0.0219479
        k(   51) = (   0.0561526   0.0842290   0.0000000), wk =   0.0219479
        k(   52) = (   0.0561526   0.0842290   0.0281036), wk =   0.0438957
        k(   53) = (   0.0561526   0.0842290   0.0562072), wk =   0.0438957
        k(   54) = (   0.0561526   0.0842290   0.0843107), wk =   0.0438957
        k(   55) = (   0.0561526   0.0842290   0.1124143), wk =   0.0438957
        k(   56) = (   0.0561526   0.1123053   0.0000000), wk =   0.0219479
        k(   57) = (   0.0561526   0.1123053   0.0281036), wk =   0.0438957
        k(   58) = (   0.0561526   0.1123053   0.0562072), wk =   0.0438957
        k(   59) = (   0.0561526   0.1123053   0.0843107), wk =   0.0438957
        k(   60) = (   0.0561526   0.1123053   0.1124143), wk =   0.0438957
        k(   61) = (   0.0842290   0.0842290   0.0000000), wk =   0.0109739
        k(   62) = (   0.0842290   0.0842290   0.0281036), wk =   0.0219479
        k(   63) = (   0.0842290   0.0842290   0.0562072), wk =   0.0219479
        k(   64) = (   0.0842290   0.0842290   0.0843107), wk =   0.0219479
        k(   65) = (   0.0842290   0.0842290   0.1124143), wk =   0.0219479
        k(   66) = (   0.0842290   0.1123053   0.0000000), wk =   0.0219479
        k(   67) = (   0.0842290   0.1123053   0.0281036), wk =   0.0438957
        k(   68) = (   0.0842290   0.1123053   0.0562072), wk =   0.0438957
        k(   69) = (   0.0842290   0.1123053   0.0843107), wk =   0.0438957
        k(   70) = (   0.0842290   0.1123053   0.1124143), wk =   0.0438957
        k(   71) = (   0.1123053   0.1123053   0.0000000), wk =   0.0109739
        k(   72) = (   0.1123053   0.1123053   0.0281036), wk =   0.0219479
        k(   73) = (   0.1123053   0.1123053   0.0562072), wk =   0.0219479
        k(   74) = (   0.1123053   0.1123053   0.0843107), wk =   0.0219479
        k(   75) = (   0.1123053   0.1123053   0.1124143), wk =   0.0219479

     Largest allocated arrays     est. size (Mb)     dimensions
     Largest temporary arrays     est. size (Mb)     dimensions

     Initial potential from superposition of free atoms
     Check: negative starting charge=   -0.255310

     starting charge   56.99778, renormalised to   58.00000

     negative rho (up, down):  2.598E-01 0.000E+00

     *
     * You are using vdW-DF for exchange-correlation in this calculation.
     * Please cite the following three references that made this development
     * possible:
     *
     *   M. Dion, H. Rydberg, E. Schroder, D. C. Langreth, and
     *   B. I. Lundqvist, Phys. Rev. Lett. 92, 246401 (2004).
     *
     *   T. Thonhauser, V. R. Cooper, S. Li, A. Puzder, P. Hyldgaard, and
     *   D. C. Langreth, Phys. Rev. B 76, 125112 (2007).
     *
     *   G. Roman-Perez and J. M. Soler, Phys. Rev. Lett. 103, 096102 (2009).
     *
     *
     * If you are using vdW-DF2, please also cite:
     *
     *   K. Lee, E. D. Murray, L. Kong, B. I. Lundqvist, and
     *   D. C. Langreth, Phys. Rev. B 82, 081101(R) (2010).
     *
     *
     * If you are calculating the stress with vdW-DF, please also cite:
     *
     *   R. Sabatini, E. Kucukbenli, B. Kolb, T. Thonhauser, and
     *   S. de Gironcoli, J. Phys.: Condens. Matter 24, 424209 (2012).
     *

     Carrying out vdW-DF run using the following parameters:

     Nqs =      20    Nr_points =    1024   r_max =   100.000
     q_mesh =
               0.00001000     0.04494208     0.09755937     0.15916263
               0.23128650     0.31572767     0.41458969     0.53033537
               0.66584808     0.82450364     1.01025438     1.22772762
               1.48234092     1.78043706     2.12944203     2.53805004
               3.01644009     3.57652955     4.23227104     5.00000000

     Gradients computed in reciprocal space

     Starting wfc are   52 randomized atomic wfcs

     Self-consistent Calculation

     iteration #  1     ecut=    58.80 Ry     beta=0.10
     Davidson diagonalization with overlap
     ethr =  1.00E-02,  avg # of iterations =  4.1

     Threshold (ethr) on eigenvalues was too large:
     Diagonalizing with lowered threshold

     Davidson diagonalization with overlap
     ethr =  5.27E-04,  avg # of iterations =  1.3

[...]

     total energy              =    -664.45734137 Ry
     Harris-Foulkes estimate   =    -664.49761544 Ry
     estimated scf accuracy    <       0.30449070 Ry

[...]

     total energy              =    -664.39156991 Ry
     Harris-Foulkes estimate   =    -664.39157285 Ry
     estimated scf accuracy    <       0.00001299 Ry

     iteration # 10     ecut=    58.80 Ry     beta=0.10
     Davidson diagonalization with overlap
     ethr =  2.24E-08,  avg # of iterations =  1.1

     negative rho (up, down):  2.764E-01 0.000E+00

     End of self-consistent calculation

          k = 0.0000 0.0000 0.0000 (  3191 PWs)   bands (ev):

   -58.4482 -58.3883 -39.1746 -39.0095 -20.3639 -20.3639 -20.1874 -20.0431
   -19.8882 -19.8882 -13.4368 -13.4368 -13.1791 -13.0626 -12.7940 -12.7940
    13.4983  16.1449  16.1517  16.2346  16.8744  16.9044  16.9044  20.6246
    20.6246  20.6797  23.4740  23.5220  25.2541  25.2541  25.3043  25.6357
    25.6954  25.7440  26.2682  26.3567  26.3567  26.3619  26.3619  26.4174
    33.6429  34.0216  34.1273  34.1273  34.1919  34.1919  34.6913  35.0159
    35.6572

[...]

          k = 0.1123 0.1123 0.1124 (  3166 PWs)   bands (ev):

   -58.4187 -58.4169 -39.0932 -39.0882 -20.4339 -20.4203 -20.1343 -20.1312
   -19.8529 -19.8382 -13.5127 -13.4938 -13.1303 -13.1251 -12.7557 -12.7349
    15.9538  16.0262  16.7380  16.7676  20.1614  20.2135  20.2451  20.4365
    20.4934  20.5921  20.6719  20.7824  22.1838  22.2706  22.5974  22.6622
    25.5391  25.5511  25.6728  25.7394  25.7829  26.0302  26.0408  26.0613
    31.1300  31.3536  33.4848  33.5731  34.9680  34.9771  34.9819  35.0718
    40.6967

     the Fermi energy is    21.8350 ev

!    total energy              =    -664.39157497 Ry
     Harris-Foulkes estimate   =    -664.39157116 Ry
     estimated scf accuracy    <       0.00000033 Ry

     The total energy is the sum of the following terms:

     one-electron contribution =     -74.67110875 Ry
     hartree contribution      =      74.85254563 Ry
     xc contribution           =    -148.50376768 Ry
     ewald contribution        =    -516.06056938 Ry
     smearing contrib. (-TS)   =      -0.00867479 Ry

     convergence has been achieved in  10 iterations

     Forces acting on atoms (Ry/au):

     negative rho (up, down):  2.764E-01 0.000E+00
     atom    1 type  1   force =     0.00000000    0.00000000    0.00000000
     atom    2 type  1   force =     0.00000000    0.00000000    0.00000000
     atom    3 type  2   force =     0.00000000    0.00000000    0.00000000
     atom    4 type  2   force =     0.00000000    0.00000000    0.00000000

     Total force =     0.000000     Total SCF correction =     0.000000

     General routines

     Parallel routines

   This run was terminated on:   8: 2:47  15Nov2017

   JOB DONE.