     Program PWSCF v.5.1rc2 starts on 15Nov2017 at  5:28:18

     Current dimensions of program PWSCF are:
     Max number of different atomic species (ntypx) = 10
     Max number of k-points (npk) =  40000
     Max angular momentum in pseudopotentials (lmaxx) =  3

     IMPORTANT: XC functional enforced from input :
     Exchange-correlation      = BEEF-VDW ( 1  4 27 13 2)
     Any further DFT definition will be discarded
     Please, verify this is what you really want

     Found symmetry operation: I + ( -0.5000 -0.5000  0.0000)
     This is a supercell, fractional translations are disabled

     bravais-lattice index     =            0
     lattice parameter (alat)  =       1.8897  a.u.
     unit-cell volume          =     628.2725 (a.u.)^3
     number of atoms/cell      =            4
     number of atomic types    =            2
     number of electrons       =        50.00
     number of Kohn-Sham states=           45
     kinetic-energy cutoff     =      58.7989  Ry
     charge density cutoff     =     587.9892  Ry
     convergence threshold     =      1.0E-06
     mixing beta               =       0.1000
     number of iterations used =           10  plain     mixing
     Exchange-correlation      = BEEF-VDW ( 1  4 27 13 2)

     celldm(1)=   1.889726  celldm(2)=   0.000000  celldm(3)=   0.000000
     celldm(4)=   0.000000  celldm(5)=   0.000000  celldm(6)=   0.000000

     crystal axes: (cart. coord. in units of alat)
               a(1) = (   4.994000   0.000000   0.000000 )
               a(2) = (   0.000000   4.994000   0.000000 )
               a(3) = (   0.000000   0.000000   3.732969 )

     reciprocal axes: (cart. coord. in units 2 pi/alat)
               b(1) = (  0.200240  0.000000  0.000000 )
               b(2) = (  0.000000  0.200240  0.000000 )
               b(3) = (  0.000000  0.000000  0.267883 )

     PseudoPot. # 1 for Sn read from file:
     /home/users/vossj/suncat/psp/gbrv1.5pbe/Sn.UPF
     MD5 check sum: 469debedee59599fedebd795477fea03
     Pseudo is Ultrasoft + core correction, Zval = 14.0
     Generated by new atomic code, or converted to UPF format
     Using radial grid of  891 points,  6 beta functions with:
                l(1) =   0
                l(2) =   0
                l(3) =   1
                l(4) =   1
                l(5) =   2
                l(6) =   2
     Q(r) pseudized with  8 coefficients,  rinner =    1.350   1.350   1.350
                                                       1.350   1.350

     PseudoPot. # 2 for Au read from file:
     /home/users/vossj/suncat/psp/gbrv1.5pbe/Au.UPF
     MD5 check sum: 9d7f43293ad2c663164586bc4b293ffc
     Pseudo is Ultrasoft + core correction, Zval = 11.0
     Generated by new atomic code, or converted to UPF format
     Using radial grid of  985 points,  7 beta functions with:
                l(1) =   0
                l(2) =   0
                l(3) =   1
                l(4) =   1
                l(5) =   2
                l(6) =   2
                l(7) =   3
     Q(r) pseudized with  6 coefficients,  rinner =    1.900   1.900   1.900
                                                       1.900   1.900   1.900
                                                       1.900

     vdW kernel table read from file vdW_kernel_table
     MD5 check sum: 095c7af220d748ca6e76c0b4c6cfb241

     atomic species   valence    mass     pseudopotential
        Sn1           14.00   118.71000     Sn( 1.00)
        Au1           11.00   196.96650     Au( 1.00)

     16 Sym. Ops., with inversion, found

   Cartesian axes

     site n.     atom                  positions (alat units)
         1           Sn1 tau(   1) = (   0.0000000   0.0000000   0.0000000  )
         2           Sn1 tau(   2) = (   2.4970001   2.4970001   0.0000000  )
         3           Au1 tau(   3) = (   2.4970001   0.0000000   1.8664843  )
         4           Au1 tau(   4) = (   0.0000000   2.4970001   1.8664843  )

     number of k points=    75  Fermi-Dirac smearing, width (Ry)=  0.0073
                       cart. coord. in units 2pi/alat
        k(    1) = (   0.0000000   0.0000000   0.0000000), wk =   0.0027435
        k(    2) = (   0.0000000   0.0000000   0.0297648), wk =   0.0054870
        k(    3) = (   0.0000000   0.0000000   0.0595296), wk =   0.0054870
        k(    4) = (   0.0000000   0.0000000   0.0892944), wk =   0.0054870
        k(    5) = (   0.0000000   0.0000000   0.1190592), wk =   0.0054870
        k(    6) = (   0.0000000   0.0222489   0.0000000), wk =   0.0109739
        k(    7) = (   0.0000000   0.0222489   0.0297648), wk =   0.0219479
        k(    8) = (   0.0000000   0.0222489   0.0595296), wk =   0.0219479
        k(    9) = (   0.0000000   0.0222489   0.0892944), wk =   0.0219479
        k(   10) = (   0.0000000   0.0222489   0.1190592), wk =   0.0219479
        k(   11) = (   0.0000000   0.0444978   0.0000000), wk =   0.0109739
        k(   12) = (   0.0000000   0.0444978   0.0297648), wk =   0.0219479
        k(   13) = (   0.0000000   0.0444978   0.0595296), wk =   0.0219479
        k(   14) = (   0.0000000   0.0444978   0.0892944), wk =   0.0219479
        k(   15) = (   0.0000000   0.0444978   0.1190592), wk =   0.0219479
        k(   16) = (   0.0000000   0.0667468   0.0000000), wk =   0.0109739
        k(   17) = (   0.0000000   0.0667468   0.0297648), wk =   0.0219479
        k(   18) = (   0.0000000   0.0667468   0.0595296), wk =   0.0219479
        k(   19) = (   0.0000000   0.0667468   0.0892944), wk =   0.0219479
        k(   20) = (   0.0000000   0.0667468   0.1190592), wk =   0.0219479
        k(   21) = (   0.0000000   0.0889957   0.0000000), wk =   0.0109739
        k(   22) = (   0.0000000   0.0889957   0.0297648), wk =   0.0219479
        k(   23) = (   0.0000000   0.0889957   0.0595296), wk =   0.0219479
        k(   24) = (   0.0000000   0.0889957   0.0892944), wk =   0.0219479
        k(   25) = (   0.0000000   0.0889957   0.1190592), wk =   0.0219479
        k(   26) = (   0.0222489   0.0222489   0.0000000), wk =   0.0109739
        k(   27) = (   0.0222489   0.0222489   0.0297648), wk =   0.0219479
        k(   28) = (   0.0222489   0.0222489   0.0595296), wk =   0.0219479
        k(   29) = (   0.0222489   0.0222489   0.0892944), wk =   0.0219479
        k(   30) = (   0.0222489   0.0222489   0.1190592), wk =   0.0219479
        k(   31) = (   0.0222489   0.0444978   0.0000000), wk =   0.0219479
        k(   32) = (   0.0222489   0.0444978   0.0297648), wk =   0.0438957
        k(   33) = (   0.0222489   0.0444978   0.0595296), wk =   0.0438957
        k(   34) = (   0.0222489   0.0444978   0.0892944), wk =   0.0438957
        k(   35) = (   0.0222489   0.0444978   0.1190592), wk =   0.0438957
        k(   36) = (   0.0222489   0.0667468   0.0000000), wk =   0.0219479
        k(   37) = (   0.0222489   0.0667468   0.0297648), wk =   0.0438957
        k(   38) = (   0.0222489   0.0667468   0.0595296), wk =   0.0438957
        k(   39) = (   0.0222489   0.0667468   0.0892944), wk =   0.0438957
        k(   40) = (   0.0222489   0.0667468   0.1190592), wk =   0.0438957
        k(   41) = (   0.0222489   0.0889957   0.0000000), wk =   0.0219479
        k(   42) = (   0.0222489   0.0889957   0.0297648), wk =   0.0438957
        k(   43) = (   0.0222489   0.0889957   0.0595296), wk =   0.0438957
        k(   44) = (   0.0222489   0.0889957   0.0892944), wk =   0.0438957
        k(   45) = (   0.0222489   0.0889957   0.1190592), wk =   0.0438957
        k(   46) = (   0.0444978   0.0444978   0.0000000), wk =   0.0109739
        k(   47) = (   0.0444978   0.0444978   0.0297648), wk =   0.0219479
        k(   48) = (   0.0444978   0.0444978   0.0595296), wk =   0.0219479
        k(   49) = (   0.0444978   0.0444978   0.0892944), wk =   0.0219479
        k(   50) = (   0.0444978   0.0444978   0.1190592), wk =   0.0219479
        k(   51) = (   0.0444978   0.0667468   0.0000000), wk =   0.0219479
        k(   52) = (   0.0444978   0.0667468   0.0297648), wk =   0.0438957
        k(   53) = (   0.0444978   0.0667468   0.0595296), wk =   0.0438957
        k(   54) = (   0.0444978   0.0667468   0.0892944), wk =   0.0438957
        k(   55) = (   0.0444978   0.0667468   0.1190592), wk =   0.0438957
        k(   56) = (   0.0444978   0.0889957   0.0000000), wk =   0.0219479
        k(   57) = (   0.0444978   0.0889957   0.0297648), wk =   0.0438957
        k(   58) = (   0.0444978   0.0889957   0.0595296), wk =   0.0438957
        k(   59) = (   0.0444978   0.0889957   0.0892944), wk =   0.0438957
        k(   60) = (   0.0444978   0.0889957   0.1190592), wk =   0.0438957
        k(   61) = (   0.0667468   0.0667468   0.0000000), wk =   0.0109739
        k(   62) = (   0.0667468   0.0667468   0.0297648), wk =   0.0219479
        k(   63) = (   0.0667468   0.0667468   0.0595296), wk =   0.0219479
        k(   64) = (   0.0667468   0.0667468   0.0892944), wk =   0.0219479
        k(   65) = (   0.0667468   0.0667468   0.1190592), wk =   0.0219479
        k(   66) = (   0.0667468   0.0889957   0.0000000), wk =   0.0219479
        k(   67) = (   0.0667468   0.0889957   0.0297648), wk =   0.0438957
        k(   68) = (   0.0667468   0.0889957   0.0595296), wk =   0.0438957
        k(   69) = (   0.0667468   0.0889957   0.0892944), wk =   0.0438957
        k(   70) = (   0.0667468   0.0889957   0.1190592), wk =   0.0438957
        k(   71) = (   0.0889957   0.0889957   0.0000000), wk =   0.0109739
        k(   72) = (   0.0889957   0.0889957   0.0297648), wk =   0.0219479
        k(   73) = (   0.0889957   0.0889957   0.0595296), wk =   0.0219479
        k(   74) = (   0.0889957   0.0889957   0.0892944), wk =   0.0219479
        k(   75) = (   0.0889957   0.0889957   0.1190592), wk =   0.0219479

     Largest allocated arrays     est. size (Mb)     dimensions
     Largest temporary arrays     est. size (Mb)     dimensions

     Initial potential from superposition of free atoms

     starting charge   47.99967, renormalised to   50.00000

     *
     * You are using vdW-DF for exchange-correlation in this calculation.
     * Please cite the following three references that made this development
     * possible:
     *
     *   M. Dion, H. Rydberg, E. Schroder, D. C. Langreth, and
     *   B. I. Lundqvist, Phys. Rev. Lett. 92, 246401 (2004).
     *
     *   T. Thonhauser, V. R. Cooper, S. Li, A. Puzder, P. Hyldgaard, and
     *   D. C. Langreth, Phys. Rev. B 76, 125112 (2007).
     *
     *   G. Roman-Perez and J. M. Soler, Phys. Rev. Lett. 103, 096102 (2009).
     *
     *
     * If you are using vdW-DF2, please also cite:
     *
     *   K. Lee, E. D. Murray, L. Kong, B. I. Lundqvist, and
     *   D. C. Langreth, Phys. Rev. B 82, 081101(R) (2010).
     *
     *
     * If you are calculating the stress with vdW-DF, please also cite:
     *
     *   R. Sabatini, E. Kucukbenli, B. Kolb, T. Thonhauser, and
     *   S. de Gironcoli, J. Phys.: Condens. Matter 24, 424209 (2012).
     *

     Carrying out vdW-DF run using the following parameters:

     Nqs =      20    Nr_points =    1024   r_max =   100.000
     q_mesh =
               0.00001000     0.04494208     0.09755937     0.15916263
               0.23128650     0.31572767     0.41458969     0.53033537
               0.66584808     0.82450364     1.01025438     1.22772762
               1.48234092     1.78043706     2.12944203     2.53805004
               3.01644009     3.57652955     4.23227104     5.00000000

     Gradients computed in reciprocal space

     Starting wfc are   36 randomized atomic wfcs +    9 random wfc

     Self-consistent Calculation

     iteration #  1     ecut=    58.80 Ry     beta=0.10
     Davidson diagonalization with overlap
     ethr =  1.00E-02,  avg # of iterations =  6.0

     total energy              =    -555.14215100 Ry
     Harris-Foulkes estimate   =    -555.37757503 Ry
     estimated scf accuracy    <       1.45850410 Ry

[...]

     total energy              =    -554.89633167 Ry
     Harris-Foulkes estimate   =    -554.89632344 Ry
     estimated scf accuracy    <       0.00002034 Ry

     iteration # 10     ecut=    58.80 Ry     beta=0.10
     Davidson diagonalization with overlap
     ethr =  3.66E-08,  avg # of iterations =  2.0

     End of self-consistent calculation

          k = 0.0000 0.0000 0.0000 (  4853 PWs)   bands (ev):

   -10.3646 -10.3420 -10.3303 -10.2985 -10.2985 -10.2942 -10.2722 -10.2722
   -10.2678 -10.2287   1.3809   4.5271   6.9441   6.9753   7.1625   7.5412
     7.5412   7.9188   7.9188   8.0200   8.4735   8.8479   8.8479   9.6274
    10.8171  12.7050  13.7231  13.8438  13.8438  16.0943  19.2943  19.5835
    20.0383  20.0383  21.3404  22.3346  24.3050  24.3050  25.2933  25.3919
    25.5490  25.5491  25.5705  26.5917  26.5917

[...]

          k = 0.0890 0.0890 0.1191 (  4773 PWs)   bands (ev):

   -10.3231 -10.3211 -10.3202 -10.3199 -10.2948 -10.2930 -10.2853 -10.2845
   -10.2425 -10.2402   4.1768   4.2385   6.9184   7.0004   7.5388   7.5695
     7.6599   7.7001   8.0306   8.1509   8.2258   8.7248   8.7822   8.9702
     9.8220   9.8853  10.6430  11.0281  16.6141  16.8448  20.5262  20.6361
    20.6650  21.0601  21.9326  22.0525  23.0417  23.1107  25.0292  25.3012
    25.6960  25.7168  27.1933  27.6446  27.9817

     the Fermi energy is    11.7121 ev

!    total energy              =    -554.89641642 Ry
     Harris-Foulkes estimate   =    -554.89633637 Ry
     estimated scf accuracy    <       0.00000050 Ry

     The total energy is the sum of the following terms:

     one-electron contribution =     -94.48231502 Ry
     hartree contribution      =      93.91887656 Ry
     xc contribution           =    -217.06225247 Ry
     ewald contribution        =    -337.26665854 Ry
     smearing contrib. (-TS)   =      -0.00406694 Ry

     convergence has been achieved in  10 iterations

     Forces acting on atoms (Ry/au):

     atom    1 type  1   force =     0.00000000    0.00000000    0.00000000
     atom    2 type  1   force =     0.00000000    0.00000000    0.00000000
     atom    3 type  2   force =     0.00000000    0.00000000    0.00000000
     atom    4 type  2   force =     0.00000000    0.00000000    0.00000000

     Total force =     0.000000     Total SCF correction =     0.000000

     General routines

     Parallel routines

   This run was terminated on:   5:29: 4  15Nov2017

   JOB DONE.