     Program PWSCF v.5.1rc2 starts on 14Nov2017 at  6:58:29

     Current dimensions of program PWSCF are:
     Max number of different atomic species (ntypx) = 10
     Max number of k-points (npk) =  40000
     Max angular momentum in pseudopotentials (lmaxx) =  3

     IMPORTANT: XC functional enforced from input :
     Exchange-correlation      = BEEF-VDW ( 1  4 27 13 2)
     Any further DFT definition will be discarded
     Please, verify this is what you really want

     Found symmetry operation: I + ( -0.5000 -0.5000  0.0000)
     This is a supercell, fractional translations are disabled

     bravais-lattice index     =            0
     lattice parameter (alat)  =       1.8897  a.u.
     unit-cell volume          =     404.8779 (a.u.)^3
     number of atoms/cell      =            4
     number of atomic types    =            2
     number of electrons       =        50.00
     number of Kohn-Sham states=           45
     kinetic-energy cutoff     =      58.7989  Ry
     charge density cutoff     =     587.9892  Ry
     convergence threshold     =      1.0E-06
     mixing beta               =       0.1000
     number of iterations used =           10  plain     mixing
     Exchange-correlation      = BEEF-VDW ( 1  4 27 13 2)

     celldm(1)=   1.889726  celldm(2)=   0.000000  celldm(3)=   0.000000
     celldm(4)=   0.000000  celldm(5)=   0.000000  celldm(6)=   0.000000

     crystal axes: (cart. coord. in units of alat)
               a(1) = (   3.818932   0.000000   0.000000 )
               a(2) = (   0.000000   3.818932   0.000000 )
               a(3) = (   0.000000   0.000000   4.113803 )

     reciprocal axes: (cart. coord. in units 2 pi/alat)
               b(1) = (  0.261853  0.000000  0.000000 )
               b(2) = (  0.000000  0.261853  0.000000 )
               b(3) = (  0.000000  0.000000  0.243084 )

     PseudoPot. # 1 for Cr read from file:
     /home/users/vossj/suncat/psp/gbrv1.5pbe/Cr.UPF
     MD5 check sum: 0d52af634a40206e4dee301ad30da4bf
     Pseudo is Ultrasoft + core correction, Zval = 14.0
     Generated by new atomic code, or converted to UPF format
     Using radial grid of  857 points,  6 beta functions with:
                l(1) =   0
                l(2) =   0
                l(3) =   1
                l(4) =   1
                l(5) =   2
                l(6) =   2
     Q(r) pseudized with  8 coefficients,  rinner =    0.950   0.950   0.950
                                                       0.950   0.950

     PseudoPot. # 2 for Au read from file:
     /home/users/vossj/suncat/psp/gbrv1.5pbe/Au.UPF
     MD5 check sum: 9d7f43293ad2c663164586bc4b293ffc
     Pseudo is Ultrasoft + core correction, Zval = 11.0
     Generated by new atomic code, or converted to UPF format
     Using radial grid of  985 points,  7 beta functions with:
                l(1) =   0
                l(2) =   0
                l(3) =   1
                l(4) =   1
                l(5) =   2
                l(6) =   2
                l(7) =   3
     Q(r) pseudized with  6 coefficients,  rinner =    1.900   1.900   1.900
                                                       1.900   1.900   1.900
                                                       1.900

     vdW kernel table read from file vdW_kernel_table
     MD5 check sum: 095c7af220d748ca6e76c0b4c6cfb241

     atomic species   valence    mass     pseudopotential
        Cr1           14.00    51.99600     Cr( 1.00)
        Au1           11.00   196.96650     Au( 1.00)

     16 Sym. Ops., with inversion, found

   Cartesian axes

     site n.     atom                  positions (alat units)
         1           Cr1 tau(   1) = (   0.0000000   0.0000000   0.0000000  )
         2           Cr1 tau(   2) = (   1.9094662   1.9094662   0.0000000  )
         3           Au1 tau(   3) = (   1.9094662   0.0000000   2.0569016  )
         4           Au1 tau(   4) = (   0.0000000   1.9094662   2.0569016  )

     number of k points=    75  Fermi-Dirac smearing, width (Ry)=  0.0073
                       cart. coord. in units 2pi/alat
        k(    1) = (   0.0000000   0.0000000   0.0000000), wk =   0.0027435
        k(    2) = (   0.0000000   0.0000000   0.0270093), wk =   0.0054870
        k(    3) = (   0.0000000   0.0000000   0.0540187), wk =   0.0054870
        k(    4) = (   0.0000000   0.0000000   0.0810280), wk =   0.0054870
        k(    5) = (   0.0000000   0.0000000   0.1080374), wk =   0.0054870
        k(    6) = (   0.0000000   0.0290948   0.0000000), wk =   0.0109739
        k(    7) = (   0.0000000   0.0290948   0.0270093), wk =   0.0219479
        k(    8) = (   0.0000000   0.0290948   0.0540187), wk =   0.0219479
        k(    9) = (   0.0000000   0.0290948   0.0810280), wk =   0.0219479
        k(   10) = (   0.0000000   0.0290948   0.1080374), wk =   0.0219479
        k(   11) = (   0.0000000   0.0581896   0.0000000), wk =   0.0109739
        k(   12) = (   0.0000000   0.0581896   0.0270093), wk =   0.0219479
        k(   13) = (   0.0000000   0.0581896   0.0540187), wk =   0.0219479
        k(   14) = (   0.0000000   0.0581896   0.0810280), wk =   0.0219479
        k(   15) = (   0.0000000   0.0581896   0.1080374), wk =   0.0219479
        k(   16) = (   0.0000000   0.0872844   0.0000000), wk =   0.0109739
        k(   17) = (   0.0000000   0.0872844   0.0270093), wk =   0.0219479
        k(   18) = (   0.0000000   0.0872844   0.0540187), wk =   0.0219479
        k(   19) = (   0.0000000   0.0872844   0.0810280), wk =   0.0219479
        k(   20) = (   0.0000000   0.0872844   0.1080374), wk =   0.0219479
        k(   21) = (   0.0000000   0.1163792   0.0000000), wk =   0.0109739
        k(   22) = (   0.0000000   0.1163792   0.0270093), wk =   0.0219479
        k(   23) = (   0.0000000   0.1163792   0.0540187), wk =   0.0219479
        k(   24) = (   0.0000000   0.1163792   0.0810280), wk =   0.0219479
        k(   25) = (   0.0000000   0.1163792   0.1080374), wk =   0.0219479
        k(   26) = (   0.0290948   0.0290948   0.0000000), wk =   0.0109739
        k(   27) = (   0.0290948   0.0290948   0.0270093), wk =   0.0219479
        k(   28) = (   0.0290948   0.0290948   0.0540187), wk =   0.0219479
        k(   29) = (   0.0290948   0.0290948   0.0810280), wk =   0.0219479
        k(   30) = (   0.0290948   0.0290948   0.1080374), wk =   0.0219479
        k(   31) = (   0.0290948   0.0581896   0.0000000), wk =   0.0219479
        k(   32) = (   0.0290948   0.0581896   0.0270093), wk =   0.0438957
        k(   33) = (   0.0290948   0.0581896   0.0540187), wk =   0.0438957
        k(   34) = (   0.0290948   0.0581896   0.0810280), wk =   0.0438957
        k(   35) = (   0.0290948   0.0581896   0.1080374), wk =   0.0438957
        k(   36) = (   0.0290948   0.0872844   0.0000000), wk =   0.0219479
        k(   37) = (   0.0290948   0.0872844   0.0270093), wk =   0.0438957
        k(   38) = (   0.0290948   0.0872844   0.0540187), wk =   0.0438957
        k(   39) = (   0.0290948   0.0872844   0.0810280), wk =   0.0438957
        k(   40) = (   0.0290948   0.0872844   0.1080374), wk =   0.0438957
        k(   41) = (   0.0290948   0.1163792   0.0000000), wk =   0.0219479
        k(   42) = (   0.0290948   0.1163792   0.0270093), wk =   0.0438957
        k(   43) = (   0.0290948   0.1163792   0.0540187), wk =   0.0438957
        k(   44) = (   0.0290948   0.1163792   0.0810280), wk =   0.0438957
        k(   45) = (   0.0290948   0.1163792   0.1080374), wk =   0.0438957
        k(   46) = (   0.0581896   0.0581896   0.0000000), wk =   0.0109739
        k(   47) = (   0.0581896   0.0581896   0.0270093), wk =   0.0219479
        k(   48) = (   0.0581896   0.0581896   0.0540187), wk =   0.0219479
        k(   49) = (   0.0581896   0.0581896   0.0810280), wk =   0.0219479
        k(   50) = (   0.0581896   0.0581896   0.1080374), wk =   0.0219479
        k(   51) = (   0.0581896   0.0872844   0.0000000), wk =   0.0219479
        k(   52) = (   0.0581896   0.0872844   0.0270093), wk =   0.0438957
        k(   53) = (   0.0581896   0.0872844   0.0540187), wk =   0.0438957
        k(   54) = (   0.0581896   0.0872844   0.0810280), wk =   0.0438957
        k(   55) = (   0.0581896   0.0872844   0.1080374), wk =   0.0438957
        k(   56) = (   0.0581896   0.1163792   0.0000000), wk =   0.0219479
        k(   57) = (   0.0581896   0.1163792   0.0270093), wk =   0.0438957
        k(   58) = (   0.0581896   0.1163792   0.0540187), wk =   0.0438957
        k(   59) = (   0.0581896   0.1163792   0.0810280), wk =   0.0438957
        k(   60) = (   0.0581896   0.1163792   0.1080374), wk =   0.0438957
        k(   61) = (   0.0872844   0.0872844   0.0000000), wk =   0.0109739
        k(   62) = (   0.0872844   0.0872844   0.0270093), wk =   0.0219479
        k(   63) = (   0.0872844   0.0872844   0.0540187), wk =   0.0219479
        k(   64) = (   0.0872844   0.0872844   0.0810280), wk =   0.0219479
        k(   65) = (   0.0872844   0.0872844   0.1080374), wk =   0.0219479
        k(   66) = (   0.0872844   0.1163792   0.0000000), wk =   0.0219479
        k(   67) = (   0.0872844   0.1163792   0.0270093), wk =   0.0438957
        k(   68) = (   0.0872844   0.1163792   0.0540187), wk =   0.0438957
        k(   69) = (   0.0872844   0.1163792   0.0810280), wk =   0.0438957
        k(   70) = (   0.0872844   0.1163792   0.1080374), wk =   0.0438957
        k(   71) = (   0.1163792   0.1163792   0.0000000), wk =   0.0109739
        k(   72) = (   0.1163792   0.1163792   0.0270093), wk =   0.0219479
        k(   73) = (   0.1163792   0.1163792   0.0540187), wk =   0.0219479
        k(   74) = (   0.1163792   0.1163792   0.0810280), wk =   0.0219479
        k(   75) = (   0.1163792   0.1163792   0.1080374), wk =   0.0219479

     Largest allocated arrays     est. size (Mb)     dimensions
     Largest temporary arrays     est. size (Mb)     dimensions

     Check: negative/imaginary core charge=   -0.000003    0.000000

     Initial potential from superposition of free atoms
     Check: negative starting charge=   -0.001116

     starting charge   47.99972, renormalised to   50.00000

     negative rho (up, down):  1.163E-03 0.000E+00

     *
     * You are using vdW-DF for exchange-correlation in this calculation.
     * Please cite the following three references that made this development
     * possible:
     *
     *   M. Dion, H. Rydberg, E. Schroder, D. C. Langreth, and
     *   B. I. Lundqvist, Phys. Rev. Lett. 92, 246401 (2004).
     *
     *   T. Thonhauser, V. R. Cooper, S. Li, A. Puzder, P. Hyldgaard, and
     *   D. C. Langreth, Phys. Rev. B 76, 125112 (2007).
     *
     *   G. Roman-Perez and J. M. Soler, Phys. Rev. Lett. 103, 096102 (2009).
     *
     *
     * If you are using vdW-DF2, please also cite:
     *
     *   K. Lee, E. D. Murray, L. Kong, B. I. Lundqvist, and
     *   D. C. Langreth, Phys. Rev. B 82, 081101(R) (2010).
     *
     *
     * If you are calculating the stress with vdW-DF, please also cite:
     *
     *   R. Sabatini, E. Kucukbenli, B. Kolb, T. Thonhauser, and
     *   S. de Gironcoli, J. Phys.: Condens. Matter 24, 424209 (2012).
     *

     Carrying out vdW-DF run using the following parameters:

     Nqs =      20    Nr_points =    1024   r_max =   100.000
     q_mesh =
               0.00001000     0.04494208     0.09755937     0.15916263
               0.23128650     0.31572767     0.41458969     0.53033537
               0.66584808     0.82450364     1.01025438     1.22772762
               1.48234092     1.78043706     2.12944203     2.53805004
               3.01644009     3.57652955     4.23227104     5.00000000

     Gradients computed in reciprocal space

     Starting wfc are   38 randomized atomic wfcs +    7 random wfc

     Self-consistent Calculation

     iteration #  1     ecut=    58.80 Ry     beta=0.10
     Davidson diagonalization with overlap
     ethr =  1.00E-02,  avg # of iterations =  4.7

[...]

     total energy              =    -585.56845932 Ry
     Harris-Foulkes estimate   =    -586.89131994 Ry
     estimated scf accuracy    <       7.54867022 Ry

[...]

     total energy              =    -585.90903197 Ry
     Harris-Foulkes estimate   =    -585.90903191 Ry
     estimated scf accuracy    <       0.00000256 Ry

     iteration # 14     ecut=    58.80 Ry     beta=0.10
     Davidson diagonalization with overlap
     ethr =  5.11E-09,  avg # of iterations =  1.6

     negative rho (up, down):  1.048E-03 0.000E+00

     End of self-consistent calculation

          k = 0.0000 0.0000 0.0000 (  3075 PWs)   bands (ev):

   -55.6211 -55.5615 -26.9898 -26.9898 -26.9482 -26.8928 -26.7569 -26.7569
     6.8872   8.7788   9.1002   9.5162  10.0250  10.0250  10.7581  12.2726
    12.2726  13.4280  14.6398  14.7600  15.3698  15.6630  16.8658  16.8658
    17.0584  17.2519  17.3289  17.3289  17.5969  18.2222  18.4657  18.4657
    23.6993  23.7043  27.0841  27.1106  27.4085  27.5985  27.5985  28.7790
    28.7791  32.5348  33.3912  35.2087  35.2087

[...]

          k = 0.1164 0.1164 0.1080 (  3079 PWs)   bands (ev):

   -55.5918 -55.5900 -27.0206 -27.0137 -26.9226 -26.9209 -26.7422 -26.7351
     9.1932   9.3270   9.3677   9.3856  11.3808  11.4044  11.6511  11.8318
    12.4395  12.5269  14.4900  14.9207  15.0374  15.4019  15.4264  15.6649
    15.8502  16.3131  16.8888  17.2323  17.2528  17.3275  17.5281  17.5963
    20.5757  20.8947  23.2082  23.4882  31.3048  31.4177  31.5730  31.6432
    34.2599  34.4984  35.1723  35.4106  35.6316

     the Fermi energy is    16.2922 ev

!    total energy              =    -585.90903564 Ry
     Harris-Foulkes estimate   =    -585.90903248 Ry
     estimated scf accuracy    <       0.00000078 Ry

     The total energy is the sum of the following terms:

     one-electron contribution =    -126.50049453 Ry
     hartree contribution      =     105.08622561 Ry
     xc contribution           =    -174.63262936 Ry
     ewald contribution        =    -389.84726842 Ry
     smearing contrib. (-TS)   =      -0.01486895 Ry

     convergence has been achieved in  14 iterations

     Forces acting on atoms (Ry/au):

     negative rho (up, down):  1.048E-03 0.000E+00
     atom    1 type  1   force =     0.00000000    0.00000000    0.00000000
     atom    2 type  1   force =     0.00000000    0.00000000    0.00000000
     atom    3 type  2   force =     0.00000000    0.00000000    0.00000000
     atom    4 type  2   force =     0.00000000    0.00000000    0.00000000

     Total force =     0.000000     Total SCF correction =     0.000000

     General routines

     Parallel routines

   This run was terminated on:   6:59:11  14Nov2017

   JOB DONE.