     Program PWSCF v.5.1rc2 starts on 15Nov2017 at  5:39:21

     Current dimensions of program PWSCF are:
     Max number of different atomic species (ntypx) = 10
     Max number of k-points (npk) =  40000
     Max angular momentum in pseudopotentials (lmaxx) =  3

     IMPORTANT: XC functional enforced from input :
     Exchange-correlation      = BEEF-VDW ( 1  4 27 13 2)
     Any further DFT definition will be discarded
     Please, verify this is what you really want

     Found symmetry operation: I + ( -0.5000 -0.5000  0.0000)
     This is a supercell, fractional translations are disabled

     bravais-lattice index     =            0
     lattice parameter (alat)  =       1.8897  a.u.
     unit-cell volume          =     551.9095 (a.u.)^3
     number of atoms/cell      =            4
     number of atomic types    =            2
     number of electrons       =        50.00
     number of Kohn-Sham states=           45
     kinetic-energy cutoff     =      58.7989  Ry
     charge density cutoff     =     587.9892  Ry
     convergence threshold     =      1.0E-06
     mixing beta               =       0.1000
     number of iterations used =           10  plain     mixing
     Exchange-correlation      = BEEF-VDW ( 1  4 27 13 2)

     celldm(1)=   1.889726  celldm(2)=   0.000000  celldm(3)=   0.000000
     celldm(4)=   0.000000  celldm(5)=   0.000000  celldm(6)=   0.000000

     crystal axes: (cart. coord. in units of alat)
               a(1) = (   4.394259   0.000000   0.000000 )
               a(2) = (   0.000000   4.394259   0.000000 )
               a(3) = (   0.000000   0.000000   4.235455 )

     reciprocal axes: (cart. coord. in units 2 pi/alat)
               b(1) = (  0.227570  0.000000  0.000000 )
               b(2) = (  0.000000  0.227570  0.000000 )
               b(3) = (  0.000000  0.000000  0.236102 )

     PseudoPot. # 1 for Ti read from file:
     /home/users/vossj/suncat/psp/gbrv1.5pbe/Ti.UPF
     MD5 check sum: 88a00a6731bd790ddea75d31a80cb452
     Pseudo is Ultrasoft + core correction, Zval = 12.0
     Generated by new atomic code, or converted to UPF format
     Using radial grid of  851 points,  6 beta functions with:
                l(1) =   0
                l(2) =   0
                l(3) =   1
                l(4) =   1
                l(5) =   2
                l(6) =   2
     Q(r) pseudized with  6 coefficients,  rinner =    1.000   1.000   1.000
                                                       1.000   1.000

     PseudoPot. # 2 for Tl read from file:
     /home/users/vossj/suncat/psp/gbrv1.5pbe/Tl.UPF
     MD5 check sum: b76cf1f7e72655a2b2c53cf6385d7059
     Pseudo is Ultrasoft + core correction, Zval = 13.0
     Generated by new atomic code, or converted to UPF format
     Using radial grid of  899 points,  6 beta functions with:
                l(1) =   0
                l(2) =   0
                l(3) =   1
                l(4) =   1
                l(5) =   2
                l(6) =   2
     Q(r) pseudized with  6 coefficients,  rinner =    1.100   1.100   1.100
                                                       1.100   1.100

     vdW kernel table read from file vdW_kernel_table
     MD5 check sum: 095c7af220d748ca6e76c0b4c6cfb241

     atomic species   valence    mass     pseudopotential
        Ti1           12.00    47.88000     Ti( 1.00)
        Tl1           13.00   204.38300     Tl( 1.00)

     16 Sym. Ops., with inversion, found

   Cartesian axes

     site n.     atom                  positions (alat units)
         1           Ti1 tau(   1) = (   0.0000000   0.0000000   0.0000000  )
         2           Ti1 tau(   2) = (   2.1971293   2.1971293   0.0000000  )
         3           Tl1 tau(   3) = (   2.1971293   0.0000000   2.1177274  )
         4           Tl1 tau(   4) = (   0.0000000   2.1971293   2.1177274  )

     number of k points=    75  Fermi-Dirac smearing, width (Ry)=  0.0073
                       cart. coord. in units 2pi/alat
        k(    1) = (   0.0000000   0.0000000   0.0000000), wk =   0.0027435
        k(    2) = (   0.0000000   0.0000000   0.0262336), wk =   0.0054870
        k(    3) = (   0.0000000   0.0000000   0.0524671), wk =   0.0054870
        k(    4) = (   0.0000000   0.0000000   0.0787007), wk =   0.0054870
        k(    5) = (   0.0000000   0.0000000   0.1049343), wk =   0.0054870
        k(    6) = (   0.0000000   0.0252855   0.0000000), wk =   0.0109739
        k(    7) = (   0.0000000   0.0252855   0.0262336), wk =   0.0219479
        k(    8) = (   0.0000000   0.0252855   0.0524671), wk =   0.0219479
        k(    9) = (   0.0000000   0.0252855   0.0787007), wk =   0.0219479
        k(   10) = (   0.0000000   0.0252855   0.1049343), wk =   0.0219479
        k(   11) = (   0.0000000   0.0505710   0.0000000), wk =   0.0109739
        k(   12) = (   0.0000000   0.0505710   0.0262336), wk =   0.0219479
        k(   13) = (   0.0000000   0.0505710   0.0524671), wk =   0.0219479
        k(   14) = (   0.0000000   0.0505710   0.0787007), wk =   0.0219479
        k(   15) = (   0.0000000   0.0505710   0.1049343), wk =   0.0219479
        k(   16) = (   0.0000000   0.0758566   0.0000000), wk =   0.0109739
        k(   17) = (   0.0000000   0.0758566   0.0262336), wk =   0.0219479
        k(   18) = (   0.0000000   0.0758566   0.0524671), wk =   0.0219479
        k(   19) = (   0.0000000   0.0758566   0.0787007), wk =   0.0219479
        k(   20) = (   0.0000000   0.0758566   0.1049343), wk =   0.0219479
        k(   21) = (   0.0000000   0.1011421   0.0000000), wk =   0.0109739
        k(   22) = (   0.0000000   0.1011421   0.0262336), wk =   0.0219479
        k(   23) = (   0.0000000   0.1011421   0.0524671), wk =   0.0219479
        k(   24) = (   0.0000000   0.1011421   0.0787007), wk =   0.0219479
        k(   25) = (   0.0000000   0.1011421   0.1049343), wk =   0.0219479
        k(   26) = (   0.0252855   0.0252855   0.0000000), wk =   0.0109739
        k(   27) = (   0.0252855   0.0252855   0.0262336), wk =   0.0219479
        k(   28) = (   0.0252855   0.0252855   0.0524671), wk =   0.0219479
        k(   29) = (   0.0252855   0.0252855   0.0787007), wk =   0.0219479
        k(   30) = (   0.0252855   0.0252855   0.1049343), wk =   0.0219479
        k(   31) = (   0.0252855   0.0505710   0.0000000), wk =   0.0219479
        k(   32) = (   0.0252855   0.0505710   0.0262336), wk =   0.0438957
        k(   33) = (   0.0252855   0.0505710   0.0524671), wk =   0.0438957
        k(   34) = (   0.0252855   0.0505710   0.0787007), wk =   0.0438957
        k(   35) = (   0.0252855   0.0505710   0.1049343), wk =   0.0438957
        k(   36) = (   0.0252855   0.0758566   0.0000000), wk =   0.0219479
        k(   37) = (   0.0252855   0.0758566   0.0262336), wk =   0.0438957
        k(   38) = (   0.0252855   0.0758566   0.0524671), wk =   0.0438957
        k(   39) = (   0.0252855   0.0758566   0.0787007), wk =   0.0438957
        k(   40) = (   0.0252855   0.0758566   0.1049343), wk =   0.0438957
        k(   41) = (   0.0252855   0.1011421   0.0000000), wk =   0.0219479
        k(   42) = (   0.0252855   0.1011421   0.0262336), wk =   0.0438957
        k(   43) = (   0.0252855   0.1011421   0.0524671), wk =   0.0438957
        k(   44) = (   0.0252855   0.1011421   0.0787007), wk =   0.0438957
        k(   45) = (   0.0252855   0.1011421   0.1049343), wk =   0.0438957
        k(   46) = (   0.0505710   0.0505710   0.0000000), wk =   0.0109739
        k(   47) = (   0.0505710   0.0505710   0.0262336), wk =   0.0219479
        k(   48) = (   0.0505710   0.0505710   0.0524671), wk =   0.0219479
        k(   49) = (   0.0505710   0.0505710   0.0787007), wk =   0.0219479
        k(   50) = (   0.0505710   0.0505710   0.1049343), wk =   0.0219479
        k(   51) = (   0.0505710   0.0758566   0.0000000), wk =   0.0219479
        k(   52) = (   0.0505710   0.0758566   0.0262336), wk =   0.0438957
        k(   53) = (   0.0505710   0.0758566   0.0524671), wk =   0.0438957
        k(   54) = (   0.0505710   0.0758566   0.0787007), wk =   0.0438957
        k(   55) = (   0.0505710   0.0758566   0.1049343), wk =   0.0438957
        k(   56) = (   0.0505710   0.1011421   0.0000000), wk =   0.0219479
        k(   57) = (   0.0505710   0.1011421   0.0262336), wk =   0.0438957
        k(   58) = (   0.0505710   0.1011421   0.0524671), wk =   0.0438957
        k(   59) = (   0.0505710   0.1011421   0.0787007), wk =   0.0438957
        k(   60) = (   0.0505710   0.1011421   0.1049343), wk =   0.0438957
        k(   61) = (   0.0758566   0.0758566   0.0000000), wk =   0.0109739
        k(   62) = (   0.0758566   0.0758566   0.0262336), wk =   0.0219479
        k(   63) = (   0.0758566   0.0758566   0.0524671), wk =   0.0219479
        k(   64) = (   0.0758566   0.0758566   0.0787007), wk =   0.0219479
        k(   65) = (   0.0758566   0.0758566   0.1049343), wk =   0.0219479
        k(   66) = (   0.0758566   0.1011421   0.0000000), wk =   0.0219479
        k(   67) = (   0.0758566   0.1011421   0.0262336), wk =   0.0438957
        k(   68) = (   0.0758566   0.1011421   0.0524671), wk =   0.0438957
        k(   69) = (   0.0758566   0.1011421   0.0787007), wk =   0.0438957
        k(   70) = (   0.0758566   0.1011421   0.1049343), wk =   0.0438957
        k(   71) = (   0.1011421   0.1011421   0.0000000), wk =   0.0109739
        k(   72) = (   0.1011421   0.1011421   0.0262336), wk =   0.0219479
        k(   73) = (   0.1011421   0.1011421   0.0524671), wk =   0.0219479
        k(   74) = (   0.1011421   0.1011421   0.0787007), wk =   0.0219479
        k(   75) = (   0.1011421   0.1011421   0.1049343), wk =   0.0219479

     Largest allocated arrays     est. size (Mb)     dimensions
     Largest temporary arrays     est. size (Mb)     dimensions

     Check: negative/imaginary core charge=   -0.000002    0.000000

     Initial potential from superposition of free atoms
     Check: negative starting charge=   -0.101739

     starting charge   47.99018, renormalised to   50.00000

     negative rho (up, down):  1.060E-01 0.000E+00

     *
     * You are using vdW-DF for exchange-correlation in this calculation.
     * Please cite the following three references that made this development
     * possible:
     *
     *   M. Dion, H. Rydberg, E. Schroder, D. C. Langreth, and
     *   B. I. Lundqvist, Phys. Rev. Lett. 92, 246401 (2004).
     *
     *   T. Thonhauser, V. R. Cooper, S. Li, A. Puzder, P. Hyldgaard, and
     *   D. C. Langreth, Phys. Rev. B 76, 125112 (2007).
     *
     *   G. Roman-Perez and J. M. Soler, Phys. Rev. Lett. 103, 096102 (2009).
     *
     *
     * If you are using vdW-DF2, please also cite:
     *
     *   K. Lee, E. D. Murray, L. Kong, B. I. Lundqvist, and
     *   D. C. Langreth, Phys. Rev. B 82, 081101(R) (2010).
     *
     *
     * If you are calculating the stress with vdW-DF, please also cite:
     *
     *   R. Sabatini, E. Kucukbenli, B. Kolb, T. Thonhauser, and
     *   S. de Gironcoli, J. Phys.: Condens. Matter 24, 424209 (2012).
     *

     Carrying out vdW-DF run using the following parameters:

     Nqs =      20    Nr_points =    1024   r_max =   100.000
     q_mesh =
               0.00001000     0.04494208     0.09755937     0.15916263
               0.23128650     0.31572767     0.41458969     0.53033537
               0.66584808     0.82450364     1.01025438     1.22772762
               1.48234092     1.78043706     2.12944203     2.53805004
               3.01644009     3.57652955     4.23227104     5.00000000

     Gradients computed in reciprocal space

     Starting wfc are   38 randomized atomic wfcs +    7 random wfc

     Self-consistent Calculation

     iteration #  1     ecut=    58.80 Ry     beta=0.10
     Davidson diagonalization with overlap
     ethr =  1.00E-02,  avg # of iterations =  4.6

[...]

     total energy              =    -533.56016141 Ry
     Harris-Foulkes estimate   =    -533.95971251 Ry
     estimated scf accuracy    <       2.26530701 Ry

[...]

     total energy              =    -533.39947631 Ry
     Harris-Foulkes estimate   =    -533.39932337 Ry
     estimated scf accuracy    <       0.00000262 Ry

     iteration # 10     ecut=    58.80 Ry     beta=0.10
     Davidson diagonalization with overlap
     ethr =  5.24E-09,  avg # of iterations =  3.2

     negative rho (up, down):  1.103E-01 0.000E+00

     End of self-consistent calculation

          k = 0.0000 0.0000 0.0000 (  4183 PWs)   bands (ev):

   -43.7632 -43.7280 -20.1299 -20.0904 -19.9869 -19.9869 -19.8232 -19.8232
     0.9377   1.0836   1.2808   1.4491   1.4491   1.8902   1.8902   1.9010
     2.0582   2.4670   3.5058   9.5850  12.5476  12.5854  12.5854  12.9037
    13.3467  14.0142  14.0142  14.0227  15.0545  15.0545  15.6272  15.7423
    16.2538  18.5487  19.5595  19.6018  20.2603  20.2603  21.7969  21.7969
    23.0045  25.6251  25.7734  26.4844  27.2567

[...]

          k = 0.1011 0.1011 0.1049 (  4193 PWs)   bands (ev):

   -43.7457 -43.7446 -20.1167 -20.1154 -20.0083 -20.0034 -19.8125 -19.8075
     1.2116   1.2492   1.3307   1.3415   1.6732   1.7020   1.9062   1.9199
     2.0634   2.0867   7.2606   7.5347  10.6360  10.8910  11.7321  11.9591
    12.9270  12.9907  14.8432  14.8530  14.8821  14.9085  15.0685  15.1089
    15.8541  15.9390  18.0801  18.2403  24.2540  24.6865  25.0731  25.2492
    25.8523  25.8807  27.2019  27.2966  28.2026

     the Fermi energy is    13.5459 ev

!    total energy              =    -533.40012787 Ry
     Harris-Foulkes estimate   =    -533.39947811 Ry
     estimated scf accuracy    <       0.00000096 Ry

     The total energy is the sum of the following terms:

     one-electron contribution =    -104.26765512 Ry
     hartree contribution      =      86.26706687 Ry
     xc contribution           =    -165.77198030 Ry
     ewald contribution        =    -349.61869072 Ry
     smearing contrib. (-TS)   =      -0.00886861 Ry

     convergence has been achieved in  10 iterations

     Forces acting on atoms (Ry/au):

     negative rho (up, down):  1.103E-01 0.000E+00
     atom    1 type  1   force =     0.00000000    0.00000000    0.00000000
     atom    2 type  1   force =     0.00000000    0.00000000    0.00000000
     atom    3 type  2   force =     0.00000000    0.00000000    0.00000000
     atom    4 type  2   force =     0.00000000    0.00000000    0.00000000

     Total force =     0.000000     Total SCF correction =     0.000000

     General routines

     Parallel routines

   This run was terminated on:   5:39:59  15Nov2017

   JOB DONE.