     Program PWSCF v.5.1rc2 starts on 15Nov2017 at  4:29:44

     Current dimensions of program PWSCF are:
     Max number of different atomic species (ntypx) = 10
     Max number of k-points (npk) =  40000
     Max angular momentum in pseudopotentials (lmaxx) =  3

     IMPORTANT: XC functional enforced from input :
     Exchange-correlation      = BEEF-VDW ( 1  4 27 13 2)
     Any further DFT definition will be discarded
     Please, verify this is what you really want

     Found symmetry operation: I + ( -0.5000 -0.5000  0.0000)
     This is a supercell, fractional translations are disabled

     bravais-lattice index     =            0
     lattice parameter (alat)  =       1.8897  a.u.
     unit-cell volume          =     521.7071 (a.u.)^3
     number of atoms/cell      =            4
     number of atomic types    =            2
     number of electrons       =        58.00
     number of Kohn-Sham states=           49
     kinetic-energy cutoff     =      58.7989  Ry
     charge density cutoff     =     587.9892  Ry
     convergence threshold     =      1.0E-06
     mixing beta               =       0.1000
     number of iterations used =           10  plain     mixing
     Exchange-correlation      = BEEF-VDW ( 1  4 27 13 2)

     celldm(1)=   1.889726  celldm(2)=   0.000000  celldm(3)=   0.000000
     celldm(4)=   0.000000  celldm(5)=   0.000000  celldm(6)=   0.000000

     crystal axes: (cart. coord. in units of alat)
               a(1) = (   4.777833   0.000000   0.000000 )
               a(2) = (   0.000000   4.777833   0.000000 )
               a(3) = (   0.000000   0.000000   3.386634 )

     reciprocal axes: (cart. coord. in units 2 pi/alat)
               b(1) = (  0.209300  0.000000  0.000000 )
               b(2) = (  0.000000  0.209300  0.000000 )
               b(3) = (  0.000000  0.000000  0.295278 )

     PseudoPot. # 1 for Re read from file:
     /home/users/vossj/suncat/psp/gbrv1.5pbe/Re.UPF
     MD5 check sum: 85f993410f3e006da9d71c142b4ad953
     Pseudo is Ultrasoft + core correction, Zval = 15.0
     Generated by new atomic code, or converted to UPF format
     Using radial grid of  981 points,  8 beta functions with:
                l(1) =   0
                l(2) =   0
                l(3) =   1
                l(4) =   1
                l(5) =   2
                l(6) =   2
                l(7) =   3
                l(8) =   3
     Q(r) pseudized with  8 coefficients,  rinner =    1.150   1.150   1.150
                                                       1.150   1.150   1.150
                                                       1.150

     PseudoPot. # 2 for Pb read from file:
     /home/users/vossj/suncat/psp/gbrv1.5pbe/Pb.UPF
     MD5 check sum: 3d1c1779aa92214d1e8f3a7db79003e2
     Pseudo is Ultrasoft + core correction, Zval = 14.0
     Generated by new atomic code, or converted to UPF format
     Using radial grid of  899 points,  6 beta functions with:
                l(1) =   0
                l(2) =   0
                l(3) =   1
                l(4) =   1
                l(5) =   2
                l(6) =   2
     Q(r) pseudized with  6 coefficients,  rinner =    1.000   1.000   1.000
                                                       1.000   1.000

     vdW kernel table read from file vdW_kernel_table
     MD5 check sum: 095c7af220d748ca6e76c0b4c6cfb241

     atomic species   valence    mass     pseudopotential
        Re1           15.00   186.20700     Re( 1.00)
        Pb1           14.00   207.20000     Pb( 1.00)

     16 Sym. Ops., with inversion, found

   Cartesian axes

     site n.     atom                  positions (alat units)
         1           Re1 tau(   1) = (   0.0000000   0.0000000   0.0000000  )
         2           Re1 tau(   2) = (   2.3889164   2.3889164   0.0000000  )
         3           Pb1 tau(   3) = (   2.3889164   0.0000000   1.6933171  )
         4           Pb1 tau(   4) = (   0.0000000   2.3889164   1.6933171  )

     number of k points=    75  Fermi-Dirac smearing, width (Ry)=  0.0073
                       cart. coord. in units 2pi/alat
        k(    1) = (   0.0000000   0.0000000   0.0000000), wk =   0.0027435
        k(    2) = (   0.0000000   0.0000000   0.0328087), wk =   0.0054870
        k(    3) = (   0.0000000   0.0000000   0.0656174), wk =   0.0054870
        k(    4) = (   0.0000000   0.0000000   0.0984261), wk =   0.0054870
        k(    5) = (   0.0000000   0.0000000   0.1312349), wk =   0.0054870
        k(    6) = (   0.0000000   0.0232555   0.0000000), wk =   0.0109739
        k(    7) = (   0.0000000   0.0232555   0.0328087), wk =   0.0219479
        k(    8) = (   0.0000000   0.0232555   0.0656174), wk =   0.0219479
        k(    9) = (   0.0000000   0.0232555   0.0984261), wk =   0.0219479
        k(   10) = (   0.0000000   0.0232555   0.1312349), wk =   0.0219479
        k(   11) = (   0.0000000   0.0465111   0.0000000), wk =   0.0109739
        k(   12) = (   0.0000000   0.0465111   0.0328087), wk =   0.0219479
        k(   13) = (   0.0000000   0.0465111   0.0656174), wk =   0.0219479
        k(   14) = (   0.0000000   0.0465111   0.0984261), wk =   0.0219479
        k(   15) = (   0.0000000   0.0465111   0.1312349), wk =   0.0219479
        k(   16) = (   0.0000000   0.0697666   0.0000000), wk =   0.0109739
        k(   17) = (   0.0000000   0.0697666   0.0328087), wk =   0.0219479
        k(   18) = (   0.0000000   0.0697666   0.0656174), wk =   0.0219479
        k(   19) = (   0.0000000   0.0697666   0.0984261), wk =   0.0219479
        k(   20) = (   0.0000000   0.0697666   0.1312349), wk =   0.0219479
        k(   21) = (   0.0000000   0.0930222   0.0000000), wk =   0.0109739
        k(   22) = (   0.0000000   0.0930222   0.0328087), wk =   0.0219479
        k(   23) = (   0.0000000   0.0930222   0.0656174), wk =   0.0219479
        k(   24) = (   0.0000000   0.0930222   0.0984261), wk =   0.0219479
        k(   25) = (   0.0000000   0.0930222   0.1312349), wk =   0.0219479
        k(   26) = (   0.0232555   0.0232555   0.0000000), wk =   0.0109739
        k(   27) = (   0.0232555   0.0232555   0.0328087), wk =   0.0219479
        k(   28) = (   0.0232555   0.0232555   0.0656174), wk =   0.0219479
        k(   29) = (   0.0232555   0.0232555   0.0984261), wk =   0.0219479
        k(   30) = (   0.0232555   0.0232555   0.1312349), wk =   0.0219479
        k(   31) = (   0.0232555   0.0465111   0.0000000), wk =   0.0219479
        k(   32) = (   0.0232555   0.0465111   0.0328087), wk =   0.0438957
        k(   33) = (   0.0232555   0.0465111   0.0656174), wk =   0.0438957
        k(   34) = (   0.0232555   0.0465111   0.0984261), wk =   0.0438957
        k(   35) = (   0.0232555   0.0465111   0.1312349), wk =   0.0438957
        k(   36) = (   0.0232555   0.0697666   0.0000000), wk =   0.0219479
        k(   37) = (   0.0232555   0.0697666   0.0328087), wk =   0.0438957
        k(   38) = (   0.0232555   0.0697666   0.0656174), wk =   0.0438957
        k(   39) = (   0.0232555   0.0697666   0.0984261), wk =   0.0438957
        k(   40) = (   0.0232555   0.0697666   0.1312349), wk =   0.0438957
        k(   41) = (   0.0232555   0.0930222   0.0000000), wk =   0.0219479
        k(   42) = (   0.0232555   0.0930222   0.0328087), wk =   0.0438957
        k(   43) = (   0.0232555   0.0930222   0.0656174), wk =   0.0438957
        k(   44) = (   0.0232555   0.0930222   0.0984261), wk =   0.0438957
        k(   45) = (   0.0232555   0.0930222   0.1312349), wk =   0.0438957
        k(   46) = (   0.0465111   0.0465111   0.0000000), wk =   0.0109739
        k(   47) = (   0.0465111   0.0465111   0.0328087), wk =   0.0219479
        k(   48) = (   0.0465111   0.0465111   0.0656174), wk =   0.0219479
        k(   49) = (   0.0465111   0.0465111   0.0984261), wk =   0.0219479
        k(   50) = (   0.0465111   0.0465111   0.1312349), wk =   0.0219479
        k(   51) = (   0.0465111   0.0697666   0.0000000), wk =   0.0219479
        k(   52) = (   0.0465111   0.0697666   0.0328087), wk =   0.0438957
        k(   53) = (   0.0465111   0.0697666   0.0656174), wk =   0.0438957
        k(   54) = (   0.0465111   0.0697666   0.0984261), wk =   0.0438957
        k(   55) = (   0.0465111   0.0697666   0.1312349), wk =   0.0438957
        k(   56) = (   0.0465111   0.0930222   0.0000000), wk =   0.0219479
        k(   57) = (   0.0465111   0.0930222   0.0328087), wk =   0.0438957
        k(   58) = (   0.0465111   0.0930222   0.0656174), wk =   0.0438957
        k(   59) = (   0.0465111   0.0930222   0.0984261), wk =   0.0438957
        k(   60) = (   0.0465111   0.0930222   0.1312349), wk =   0.0438957
        k(   61) = (   0.0697666   0.0697666   0.0000000), wk =   0.0109739
        k(   62) = (   0.0697666   0.0697666   0.0328087), wk =   0.0219479
        k(   63) = (   0.0697666   0.0697666   0.0656174), wk =   0.0219479
        k(   64) = (   0.0697666   0.0697666   0.0984261), wk =   0.0219479
        k(   65) = (   0.0697666   0.0697666   0.1312349), wk =   0.0219479
        k(   66) = (   0.0697666   0.0930222   0.0000000), wk =   0.0219479
        k(   67) = (   0.0697666   0.0930222   0.0328087), wk =   0.0438957
        k(   68) = (   0.0697666   0.0930222   0.0656174), wk =   0.0438957
        k(   69) = (   0.0697666   0.0930222   0.0984261), wk =   0.0438957
        k(   70) = (   0.0697666   0.0930222   0.1312349), wk =   0.0438957
        k(   71) = (   0.0930222   0.0930222   0.0000000), wk =   0.0109739
        k(   72) = (   0.0930222   0.0930222   0.0328087), wk =   0.0219479
        k(   73) = (   0.0930222   0.0930222   0.0656174), wk =   0.0219479
        k(   74) = (   0.0930222   0.0930222   0.0984261), wk =   0.0219479
        k(   75) = (   0.0930222   0.0930222   0.1312349), wk =   0.0219479

     Largest allocated arrays     est. size (Mb)     dimensions
     Largest temporary arrays     est. size (Mb)     dimensions

     Initial potential from superposition of free atoms
     Check: negative starting charge=   -0.287045

     starting charge   56.99521, renormalised to   58.00000

     negative rho (up, down):  2.921E-01 0.000E+00

     *
     * You are using vdW-DF for exchange-correlation in this calculation.
     * Please cite the following three references that made this development
     * possible:
     *
     *   M. Dion, H. Rydberg, E. Schroder, D. C. Langreth, and
     *   B. I. Lundqvist, Phys. Rev. Lett. 92, 246401 (2004).
     *
     *   T. Thonhauser, V. R. Cooper, S. Li, A. Puzder, P. Hyldgaard, and
     *   D. C. Langreth, Phys. Rev. B 76, 125112 (2007).
     *
     *   G. Roman-Perez and J. M. Soler, Phys. Rev. Lett. 103, 096102 (2009).
     *
     *
     * If you are using vdW-DF2, please also cite:
     *
     *   K. Lee, E. D. Murray, L. Kong, B. I. Lundqvist, and
     *   D. C. Langreth, Phys. Rev. B 82, 081101(R) (2010).
     *
     *
     * If you are calculating the stress with vdW-DF, please also cite:
     *
     *   R. Sabatini, E. Kucukbenli, B. Kolb, T. Thonhauser, and
     *   S. de Gironcoli, J. Phys.: Condens. Matter 24, 424209 (2012).
     *

     Carrying out vdW-DF run using the following parameters:

     Nqs =      20    Nr_points =    1024   r_max =   100.000
     q_mesh =
               0.00001000     0.04494208     0.09755937     0.15916263
               0.23128650     0.31572767     0.41458969     0.53033537
               0.66584808     0.82450364     1.01025438     1.22772762
               1.48234092     1.78043706     2.12944203     2.53805004
               3.01644009     3.57652955     4.23227104     5.00000000

     Gradients computed in reciprocal space

     Starting wfc are   44 randomized atomic wfcs +    5 random wfc

     Self-consistent Calculation

     iteration #  1     ecut=    58.80 Ry     beta=0.10
     Davidson diagonalization with overlap
     ethr =  1.00E-02,  avg # of iterations =  4.5

     Threshold (ethr) on eigenvalues was too large:
     Diagonalizing with lowered threshold

     Davidson diagonalization with overlap
     ethr =  3.92E-04,  avg # of iterations =  1.5

[...]

     total energy              =    -716.11881809 Ry
     Harris-Foulkes estimate   =    -716.15354836 Ry
     estimated scf accuracy    <       0.22694519 Ry

[...]

     iteration #  4     ecut=    58.80 Ry     beta=0.10
     Davidson diagonalization with overlap
     c_bands:  2 eigenvalues not converged
     c_bands:  1 eigenvalues not converged
     ethr =  4.72E-05,  avg # of iterations =  4.8

[...]

     total energy              =    -716.07472273 Ry
     Harris-Foulkes estimate   =    -716.07469958 Ry
     estimated scf accuracy    <       0.00000203 Ry

     iteration # 17     ecut=    58.80 Ry     beta=0.10
     Davidson diagonalization with overlap
     ethr =  3.50E-09,  avg # of iterations =  3.5

     negative rho (up, down):  2.930E-01 0.000E+00

     End of self-consistent calculation

          k = 0.0000 0.0000 0.0000 (  3935 PWs)   bands (ev):

   -61.9139 -61.9100 -23.6846 -23.6846 -23.6175 -23.6175 -23.6109 -23.5987
     0.9107   0.9140   0.9578   1.0914   1.1469   1.1469   1.2760   1.2760
     1.2784   1.4840   5.8764   9.6649  15.0468  15.0468  15.6422  15.7250
    15.7355  17.7903  17.7903  18.6558  18.6558  18.6607  19.7073  20.3561
    20.8582  20.9201  20.9201  21.1540  23.0941  24.8959  27.7476  27.7476
    29.2225  29.2559  30.0383  30.0501  31.4469  31.6849  31.7271  31.7271
    32.4475

[...]

          k = 0.0930 0.0930 0.1312 (  3981 PWs)   bands (ev):

   -61.9102 -61.9101 -23.6849 -23.6829 -23.6741 -23.6736 -23.6079 -23.6059
     0.9675   0.9711   1.0836   1.0973   1.1478   1.1518   1.1538   1.1574
     1.4633   1.4728   9.5613   9.6463  14.4683  14.6029  15.0272  15.0661
    15.9490  16.0985  17.7202  17.8235  17.8616  17.9228  19.7070  19.7133
    20.2543  20.4723  21.2103  21.3392  24.9913  25.0931  27.7222  27.8307
    27.8638  27.9400  29.2252  29.2267  31.1092  31.2654  32.5960  32.7597
    36.2435

     the Fermi energy is    18.1977 ev

!    total energy              =    -716.07482400 Ry
     Harris-Foulkes estimate   =    -716.07472306 Ry
     estimated scf accuracy    <       0.00000081 Ry

     The total energy is the sum of the following terms:

     one-electron contribution =     -83.61890756 Ry
     hartree contribution      =      86.13061235 Ry
     xc contribution           =    -239.25050304 Ry
     ewald contribution        =    -479.32379238 Ry
     smearing contrib. (-TS)   =      -0.01223338 Ry

     convergence has been achieved in  17 iterations

     Forces acting on atoms (Ry/au):

     negative rho (up, down):  2.930E-01 0.000E+00
     atom    1 type  1   force =     0.00000000    0.00000000    0.00000000
     atom    2 type  1   force =     0.00000000    0.00000000    0.00000000
     atom    3 type  2   force =     0.00000000    0.00000000    0.00000000
     atom    4 type  2   force =     0.00000000    0.00000000    0.00000000

     Total force =     0.000000     Total SCF correction =     0.000000

     General routines

     Parallel routines

   This run was terminated on:   4:30:54  15Nov2017

   JOB DONE.