     Program PWSCF v.5.1rc2 starts on 15Nov2017 at  7:10:24

     Current dimensions of program PWSCF are:
     Max number of different atomic species (ntypx) = 10
     Max number of k-points (npk) =  40000
     Max angular momentum in pseudopotentials (lmaxx) =  3

     IMPORTANT: XC functional enforced from input :
     Exchange-correlation      = BEEF-VDW ( 1  4 27 13 2)
     Any further DFT definition will be discarded
     Please, verify this is what you really want

     Found symmetry operation: I + ( -0.5000 -0.5000  0.0000)
     This is a supercell, fractional translations are disabled

     bravais-lattice index     =            0
     lattice parameter (alat)  =       1.8897  a.u.
     unit-cell volume          =     592.8745 (a.u.)^3
     number of atoms/cell      =            4
     number of atomic types    =            2
     number of electrons       =        48.00
     number of Kohn-Sham states=           44
     kinetic-energy cutoff     =      58.7989  Ry
     charge density cutoff     =     587.9892  Ry
     convergence threshold     =      1.0E-06
     mixing beta               =       0.1000
     number of iterations used =           10  plain     mixing
     Exchange-correlation      = BEEF-VDW ( 1  4 27 13 2)

     celldm(1)=   1.889726  celldm(2)=   0.000000  celldm(3)=   0.000000
     celldm(4)=   0.000000  celldm(5)=   0.000000  celldm(6)=   0.000000

     crystal axes: (cart. coord. in units of alat)
               a(1) = (   4.443314   0.000000   0.000000 )
               a(2) = (   0.000000   4.443314   0.000000 )
               a(3) = (   0.000000   0.000000   4.449920 )

     reciprocal axes: (cart. coord. in units 2 pi/alat)
               b(1) = (  0.225057  0.000000  0.000000 )
               b(2) = (  0.000000  0.225057  0.000000 )
               b(3) = (  0.000000  0.000000  0.224723 )

     PseudoPot. # 1 for Zr read from file:
     /home/users/vossj/suncat/psp/gbrv1.5pbe/Zr.UPF
     MD5 check sum: 5db81b1e868ab7776c4564c113de050b
     Pseudo is Ultrasoft + core correction, Zval = 12.0
     Generated by new atomic code, or converted to UPF format
     Using radial grid of  887 points,  6 beta functions with:
                l(1) =   0
                l(2) =   0
                l(3) =   1
                l(4) =   1
                l(5) =   2
                l(6) =   2
     Q(r) pseudized with  6 coefficients,  rinner =    1.200   1.200   1.200
                                                       1.200   1.200

     PseudoPot. # 2 for Cd read from file:
     /home/users/vossj/suncat/psp/gbrv1.5pbe/Cd.UPF
     MD5 check sum: 17164a7926edb8e0dc231208abae86a6
     Pseudo is Ultrasoft + core correction, Zval = 12.0
     Generated by new atomic code, or converted to UPF format
     Using radial grid of  889 points,  6 beta functions with:
                l(1) =   0
                l(2) =   0
                l(3) =   1
                l(4) =   1
                l(5) =   2
                l(6) =   2
     Q(r) pseudized with  6 coefficients,  rinner =    1.000   1.000   1.000
                                                       1.000   1.000

     vdW kernel table read from file vdW_kernel_table
     MD5 check sum: 095c7af220d748ca6e76c0b4c6cfb241

     atomic species   valence    mass     pseudopotential
        Zr1           12.00    91.22400     Zr( 1.00)
        Cd1           12.00   112.41000     Cd( 1.00)

     16 Sym. Ops., with inversion, found

   Cartesian axes

     site n.     atom                  positions (alat units)
         1           Zr1 tau(   1) = (   0.0000000   0.0000000   0.0000000  )
         2           Zr1 tau(   2) = (   2.2216570   2.2216570   0.0000000  )
         3           Cd1 tau(   3) = (   2.2216570   0.0000000   2.2249601  )
         4           Cd1 tau(   4) = (   0.0000000   2.2216570   2.2249601  )

     number of k points=    75  Fermi-Dirac smearing, width (Ry)=  0.0073
                       cart. coord. in units 2pi/alat
        k(    1) = (   0.0000000   0.0000000   0.0000000), wk =   0.0027435
        k(    2) = (   0.0000000   0.0000000   0.0249692), wk =   0.0054870
        k(    3) = (   0.0000000   0.0000000   0.0499385), wk =   0.0054870
        k(    4) = (   0.0000000   0.0000000   0.0749077), wk =   0.0054870
        k(    5) = (   0.0000000   0.0000000   0.0998769), wk =   0.0054870
        k(    6) = (   0.0000000   0.0250064   0.0000000), wk =   0.0109739
        k(    7) = (   0.0000000   0.0250064   0.0249692), wk =   0.0219479
        k(    8) = (   0.0000000   0.0250064   0.0499385), wk =   0.0219479
        k(    9) = (   0.0000000   0.0250064   0.0749077), wk =   0.0219479
        k(   10) = (   0.0000000   0.0250064   0.0998769), wk =   0.0219479
        k(   11) = (   0.0000000   0.0500127   0.0000000), wk =   0.0109739
        k(   12) = (   0.0000000   0.0500127   0.0249692), wk =   0.0219479
        k(   13) = (   0.0000000   0.0500127   0.0499385), wk =   0.0219479
        k(   14) = (   0.0000000   0.0500127   0.0749077), wk =   0.0219479
        k(   15) = (   0.0000000   0.0500127   0.0998769), wk =   0.0219479
        k(   16) = (   0.0000000   0.0750191   0.0000000), wk =   0.0109739
        k(   17) = (   0.0000000   0.0750191   0.0249692), wk =   0.0219479
        k(   18) = (   0.0000000   0.0750191   0.0499385), wk =   0.0219479
        k(   19) = (   0.0000000   0.0750191   0.0749077), wk =   0.0219479
        k(   20) = (   0.0000000   0.0750191   0.0998769), wk =   0.0219479
        k(   21) = (   0.0000000   0.1000254   0.0000000), wk =   0.0109739
        k(   22) = (   0.0000000   0.1000254   0.0249692), wk =   0.0219479
        k(   23) = (   0.0000000   0.1000254   0.0499385), wk =   0.0219479
        k(   24) = (   0.0000000   0.1000254   0.0749077), wk =   0.0219479
        k(   25) = (   0.0000000   0.1000254   0.0998769), wk =   0.0219479
        k(   26) = (   0.0250064   0.0250064   0.0000000), wk =   0.0109739
        k(   27) = (   0.0250064   0.0250064   0.0249692), wk =   0.0219479
        k(   28) = (   0.0250064   0.0250064   0.0499385), wk =   0.0219479
        k(   29) = (   0.0250064   0.0250064   0.0749077), wk =   0.0219479
        k(   30) = (   0.0250064   0.0250064   0.0998769), wk =   0.0219479
        k(   31) = (   0.0250064   0.0500127   0.0000000), wk =   0.0219479
        k(   32) = (   0.0250064   0.0500127   0.0249692), wk =   0.0438957
        k(   33) = (   0.0250064   0.0500127   0.0499385), wk =   0.0438957
        k(   34) = (   0.0250064   0.0500127   0.0749077), wk =   0.0438957
        k(   35) = (   0.0250064   0.0500127   0.0998769), wk =   0.0438957
        k(   36) = (   0.0250064   0.0750191   0.0000000), wk =   0.0219479
        k(   37) = (   0.0250064   0.0750191   0.0249692), wk =   0.0438957
        k(   38) = (   0.0250064   0.0750191   0.0499385), wk =   0.0438957
        k(   39) = (   0.0250064   0.0750191   0.0749077), wk =   0.0438957
        k(   40) = (   0.0250064   0.0750191   0.0998769), wk =   0.0438957
        k(   41) = (   0.0250064   0.1000254   0.0000000), wk =   0.0219479
        k(   42) = (   0.0250064   0.1000254   0.0249692), wk =   0.0438957
        k(   43) = (   0.0250064   0.1000254   0.0499385), wk =   0.0438957
        k(   44) = (   0.0250064   0.1000254   0.0749077), wk =   0.0438957
        k(   45) = (   0.0250064   0.1000254   0.0998769), wk =   0.0438957
        k(   46) = (   0.0500127   0.0500127   0.0000000), wk =   0.0109739
        k(   47) = (   0.0500127   0.0500127   0.0249692), wk =   0.0219479
        k(   48) = (   0.0500127   0.0500127   0.0499385), wk =   0.0219479
        k(   49) = (   0.0500127   0.0500127   0.0749077), wk =   0.0219479
        k(   50) = (   0.0500127   0.0500127   0.0998769), wk =   0.0219479
        k(   51) = (   0.0500127   0.0750191   0.0000000), wk =   0.0219479
        k(   52) = (   0.0500127   0.0750191   0.0249692), wk =   0.0438957
        k(   53) = (   0.0500127   0.0750191   0.0499385), wk =   0.0438957
        k(   54) = (   0.0500127   0.0750191   0.0749077), wk =   0.0438957
        k(   55) = (   0.0500127   0.0750191   0.0998769), wk =   0.0438957
        k(   56) = (   0.0500127   0.1000254   0.0000000), wk =   0.0219479
        k(   57) = (   0.0500127   0.1000254   0.0249692), wk =   0.0438957
        k(   58) = (   0.0500127   0.1000254   0.0499385), wk =   0.0438957
        k(   59) = (   0.0500127   0.1000254   0.0749077), wk =   0.0438957
        k(   60) = (   0.0500127   0.1000254   0.0998769), wk =   0.0438957
        k(   61) = (   0.0750191   0.0750191   0.0000000), wk =   0.0109739
        k(   62) = (   0.0750191   0.0750191   0.0249692), wk =   0.0219479
        k(   63) = (   0.0750191   0.0750191   0.0499385), wk =   0.0219479
        k(   64) = (   0.0750191   0.0750191   0.0749077), wk =   0.0219479
        k(   65) = (   0.0750191   0.0750191   0.0998769), wk =   0.0219479
        k(   66) = (   0.0750191   0.1000254   0.0000000), wk =   0.0219479
        k(   67) = (   0.0750191   0.1000254   0.0249692), wk =   0.0438957
        k(   68) = (   0.0750191   0.1000254   0.0499385), wk =   0.0438957
        k(   69) = (   0.0750191   0.1000254   0.0749077), wk =   0.0438957
        k(   70) = (   0.0750191   0.1000254   0.0998769), wk =   0.0438957
        k(   71) = (   0.1000254   0.1000254   0.0000000), wk =   0.0109739
        k(   72) = (   0.1000254   0.1000254   0.0249692), wk =   0.0219479
        k(   73) = (   0.1000254   0.1000254   0.0499385), wk =   0.0219479
        k(   74) = (   0.1000254   0.1000254   0.0749077), wk =   0.0219479
        k(   75) = (   0.1000254   0.1000254   0.0998769), wk =   0.0219479

     Largest allocated arrays     est. size (Mb)     dimensions
     Largest temporary arrays     est. size (Mb)     dimensions

     Initial potential from superposition of free atoms
     Check: negative starting charge=   -0.164510

     starting charge   46.99562, renormalised to   48.00000

     negative rho (up, down):  1.680E-01 0.000E+00

     *
     * You are using vdW-DF for exchange-correlation in this calculation.
     * Please cite the following three references that made this development
     * possible:
     *
     *   M. Dion, H. Rydberg, E. Schroder, D. C. Langreth, and
     *   B. I. Lundqvist, Phys. Rev. Lett. 92, 246401 (2004).
     *
     *   T. Thonhauser, V. R. Cooper, S. Li, A. Puzder, P. Hyldgaard, and
     *   D. C. Langreth, Phys. Rev. B 76, 125112 (2007).
     *
     *   G. Roman-Perez and J. M. Soler, Phys. Rev. Lett. 103, 096102 (2009).
     *
     *
     * If you are using vdW-DF2, please also cite:
     *
     *   K. Lee, E. D. Murray, L. Kong, B. I. Lundqvist, and
     *   D. C. Langreth, Phys. Rev. B 82, 081101(R) (2010).
     *
     *
     * If you are calculating the stress with vdW-DF, please also cite:
     *
     *   R. Sabatini, E. Kucukbenli, B. Kolb, T. Thonhauser, and
     *   S. de Gironcoli, J. Phys.: Condens. Matter 24, 424209 (2012).
     *

     Carrying out vdW-DF run using the following parameters:

     Nqs =      20    Nr_points =    1024   r_max =   100.000
     q_mesh =
               0.00001000     0.04494208     0.09755937     0.15916263
               0.23128650     0.31572767     0.41458969     0.53033537
               0.66584808     0.82450364     1.01025438     1.22772762
               1.48234092     1.78043706     2.12944203     2.53805004
               3.01644009     3.57652955     4.23227104     5.00000000

     Gradients computed in reciprocal space

     Starting wfc are   44 randomized atomic wfcs

     Self-consistent Calculation

     iteration #  1     ecut=    58.80 Ry     beta=0.10
     Davidson diagonalization with overlap
     ethr =  1.00E-02,  avg # of iterations =  4.6

     Threshold (ethr) on eigenvalues was too large:
     Diagonalizing with lowered threshold

     Davidson diagonalization with overlap
     ethr =  3.06E-04,  avg # of iterations =  1.6

[...]

     total energy              =    -431.81496733 Ry
     Harris-Foulkes estimate   =    -431.83292639 Ry
     estimated scf accuracy    <       0.14312756 Ry

[...]

     total energy              =    -431.78644467 Ry
     Harris-Foulkes estimate   =    -431.78643107 Ry
     estimated scf accuracy    <       0.00001051 Ry

     iteration # 10     ecut=    58.80 Ry     beta=0.10
     Davidson diagonalization with overlap
     ethr =  2.19E-08,  avg # of iterations =  2.0

     negative rho (up, down):  1.684E-01 0.000E+00

     End of self-consistent calculation

          k = 0.0000 0.0000 0.0000 (  4553 PWs)   bands (ev):

   -36.4445 -36.3328 -14.5589 -14.5589 -14.5194 -14.3860 -14.0512 -14.0512
     3.6630   3.6918   3.8791   3.9338   3.9338   4.3255   4.3781   4.3781
     4.5841   4.9121   5.5514  10.3054  11.7181  11.8901  13.7022  13.7022
    13.7287  13.7287  13.9089  14.1347  15.8593  15.8593  17.1254  18.3594
    18.4906  19.1067  20.6793  21.0588  21.0588  21.7549  22.2198  22.2198
    24.2257  24.9319  26.9671  27.2919

[...]

          k = 0.1000 0.1000 0.0999 (  4552 PWs)   bands (ev):

   -36.3891 -36.3857 -14.6339 -14.6193 -14.4690 -14.4647 -14.0158 -13.9997
     3.8663   3.8739   3.8968   3.9270   4.2529   4.2773   4.4018   4.4135
     4.4952   4.5127   9.0705   9.2543  11.5457  11.5922  12.0988  12.2835
    12.6929  12.9010  15.1642  15.2563  15.2821  15.3020  15.9634  16.0041
    17.9704  18.0918  20.2408  20.2595  24.2514  24.3639  24.5013  24.5868
    24.6556  24.9665  26.3245  26.5905

     the Fermi energy is    12.7765 ev

!    total energy              =    -431.78652409 Ry
     Harris-Foulkes estimate   =    -431.78644708 Ry
     estimated scf accuracy    <       0.00000016 Ry

     The total energy is the sum of the following terms:

     one-electron contribution =     -67.84584370 Ry
     hartree contribution      =      68.96258973 Ry
     xc contribution           =    -118.53234993 Ry
     ewald contribution        =    -314.36038208 Ry
     smearing contrib. (-TS)   =      -0.01053811 Ry

     convergence has been achieved in  10 iterations

     Forces acting on atoms (Ry/au):

     negative rho (up, down):  1.684E-01 0.000E+00
     atom    1 type  1   force =     0.00000000    0.00000000    0.00000000
     atom    2 type  1   force =     0.00000000    0.00000000    0.00000000
     atom    3 type  2   force =     0.00000000    0.00000000    0.00000000
     atom    4 type  2   force =     0.00000000    0.00000000    0.00000000

     Total force =     0.000000     Total SCF correction =     0.000000

     General routines

     Parallel routines

   This run was terminated on:   7:11:11  15Nov2017

   JOB DONE.