     Program PWSCF v.5.1rc2 starts on 15Nov2017 at  5:12:38

     Current dimensions of program PWSCF are:
     Max number of different atomic species (ntypx) = 10
     Max number of k-points (npk) =  40000
     Max angular momentum in pseudopotentials (lmaxx) =  3

     IMPORTANT: XC functional enforced from input :
     Exchange-correlation      = BEEF-VDW ( 1  4 27 13 2)
     Any further DFT definition will be discarded
     Please, verify this is what you really want

     Found symmetry operation: I + (  0.5000  0.5000  0.0000)
     This is a supercell, fractional translations are disabled

     bravais-lattice index     =            0
     lattice parameter (alat)  =       1.8897  a.u.
     unit-cell volume          =     631.5252 (a.u.)^3
     number of atoms/cell      =            4
     number of atomic types    =            2
     number of electrons       =        46.00
     number of Kohn-Sham states=           43
     kinetic-energy cutoff     =      58.7989  Ry
     charge density cutoff     =     587.9892  Ry
     convergence threshold     =      1.0E-06
     mixing beta               =       0.1000
     number of iterations used =           10  plain     mixing
     Exchange-correlation      = BEEF-VDW ( 1  4 27 13 2)

     celldm(1)=   1.889726  celldm(2)=   0.000000  celldm(3)=   0.000000
     celldm(4)=   0.000000  celldm(5)=   0.000000  celldm(6)=   0.000000

     crystal axes: (cart. coord. in units of alat)
               a(1) = (   4.517324   0.000000   0.000000 )
               a(2) = (   0.000000   4.517324   0.000000 )
               a(3) = (   0.000000   0.000000   4.585973 )

     reciprocal axes: (cart. coord. in units 2 pi/alat)
               b(1) = (  0.221370  0.000000  0.000000 )
               b(2) = (  0.000000  0.221370  0.000000 )
               b(3) = (  0.000000  0.000000  0.218056 )

     PseudoPot. # 1 for Sc read from file:
     /home/users/vossj/suncat/psp/gbrv1.5pbe/Sc.UPF
     MD5 check sum: db30a2753ba66ef00f23801d899b7e7f
     Pseudo is Ultrasoft + core correction, Zval = 11.0
     Generated by new atomic code, or converted to UPF format
     Using radial grid of  849 points,  6 beta functions with:
                l(1) =   0
                l(2) =   0
                l(3) =   1
                l(4) =   1
                l(5) =   2
                l(6) =   2
     Q(r) pseudized with  6 coefficients,  rinner =    1.200   1.200   1.200
                                                       1.200   1.200

     PseudoPot. # 2 for Zr read from file:
     /home/users/vossj/suncat/psp/gbrv1.5pbe/Zr.UPF
     MD5 check sum: 5db81b1e868ab7776c4564c113de050b
     Pseudo is Ultrasoft + core correction, Zval = 12.0
     Generated by new atomic code, or converted to UPF format
     Using radial grid of  887 points,  6 beta functions with:
                l(1) =   0
                l(2) =   0
                l(3) =   1
                l(4) =   1
                l(5) =   2
                l(6) =   2
     Q(r) pseudized with  6 coefficients,  rinner =    1.200   1.200   1.200
                                                       1.200   1.200

     vdW kernel table read from file vdW_kernel_table
     MD5 check sum: 095c7af220d748ca6e76c0b4c6cfb241

     atomic species   valence    mass     pseudopotential
        Sc1           11.00    44.95590     Sc( 1.00)
        Zr1           12.00    91.22400     Zr( 1.00)

     16 Sym. Ops., with inversion, found

   Cartesian axes

     site n.     atom                  positions (alat units)
         1           Sc1 tau(   1) = (   0.0000000   0.0000000   0.0000000  )
         2           Sc1 tau(   2) = (   2.2586622   2.2586622   0.0000000  )
         3           Zr1 tau(   3) = (   2.2586622   0.0000000   2.2929867  )
         4           Zr1 tau(   4) = (   0.0000000   2.2586622   2.2929867  )

     number of k points=    75  Fermi-Dirac smearing, width (Ry)=  0.0073
                       cart. coord. in units 2pi/alat
        k(    1) = (   0.0000000   0.0000000   0.0000000), wk =   0.0027435
        k(    2) = (   0.0000000   0.0000000   0.0242285), wk =   0.0054870
        k(    3) = (   0.0000000   0.0000000   0.0484569), wk =   0.0054870
        k(    4) = (   0.0000000   0.0000000   0.0726854), wk =   0.0054870
        k(    5) = (   0.0000000   0.0000000   0.0969139), wk =   0.0054870
        k(    6) = (   0.0000000   0.0245967   0.0000000), wk =   0.0109739
        k(    7) = (   0.0000000   0.0245967   0.0242285), wk =   0.0219479
        k(    8) = (   0.0000000   0.0245967   0.0484569), wk =   0.0219479
        k(    9) = (   0.0000000   0.0245967   0.0726854), wk =   0.0219479
        k(   10) = (   0.0000000   0.0245967   0.0969139), wk =   0.0219479
        k(   11) = (   0.0000000   0.0491933   0.0000000), wk =   0.0109739
        k(   12) = (   0.0000000   0.0491933   0.0242285), wk =   0.0219479
        k(   13) = (   0.0000000   0.0491933   0.0484569), wk =   0.0219479
        k(   14) = (   0.0000000   0.0491933   0.0726854), wk =   0.0219479
        k(   15) = (   0.0000000   0.0491933   0.0969139), wk =   0.0219479
        k(   16) = (   0.0000000   0.0737900   0.0000000), wk =   0.0109739
        k(   17) = (   0.0000000   0.0737900   0.0242285), wk =   0.0219479
        k(   18) = (   0.0000000   0.0737900   0.0484569), wk =   0.0219479
        k(   19) = (   0.0000000   0.0737900   0.0726854), wk =   0.0219479
        k(   20) = (   0.0000000   0.0737900   0.0969139), wk =   0.0219479
        k(   21) = (   0.0000000   0.0983867   0.0000000), wk =   0.0109739
        k(   22) = (   0.0000000   0.0983867   0.0242285), wk =   0.0219479
        k(   23) = (   0.0000000   0.0983867   0.0484569), wk =   0.0219479
        k(   24) = (   0.0000000   0.0983867   0.0726854), wk =   0.0219479
        k(   25) = (   0.0000000   0.0983867   0.0969139), wk =   0.0219479
        k(   26) = (   0.0245967   0.0245967   0.0000000), wk =   0.0109739
        k(   27) = (   0.0245967   0.0245967   0.0242285), wk =   0.0219479
        k(   28) = (   0.0245967   0.0245967   0.0484569), wk =   0.0219479
        k(   29) = (   0.0245967   0.0245967   0.0726854), wk =   0.0219479
        k(   30) = (   0.0245967   0.0245967   0.0969139), wk =   0.0219479
        k(   31) = (   0.0245967   0.0491933   0.0000000), wk =   0.0219479
        k(   32) = (   0.0245967   0.0491933   0.0242285), wk =   0.0438957
        k(   33) = (   0.0245967   0.0491933   0.0484569), wk =   0.0438957
        k(   34) = (   0.0245967   0.0491933   0.0726854), wk =   0.0438957
        k(   35) = (   0.0245967   0.0491933   0.0969139), wk =   0.0438957
        k(   36) = (   0.0245967   0.0737900   0.0000000), wk =   0.0219479
        k(   37) = (   0.0245967   0.0737900   0.0242285), wk =   0.0438957
        k(   38) = (   0.0245967   0.0737900   0.0484569), wk =   0.0438957
        k(   39) = (   0.0245967   0.0737900   0.0726854), wk =   0.0438957
        k(   40) = (   0.0245967   0.0737900   0.0969139), wk =   0.0438957
        k(   41) = (   0.0245967   0.0983867   0.0000000), wk =   0.0219479
        k(   42) = (   0.0245967   0.0983867   0.0242285), wk =   0.0438957
        k(   43) = (   0.0245967   0.0983867   0.0484569), wk =   0.0438957
        k(   44) = (   0.0245967   0.0983867   0.0726854), wk =   0.0438957
        k(   45) = (   0.0245967   0.0983867   0.0969139), wk =   0.0438957
        k(   46) = (   0.0491933   0.0491933   0.0000000), wk =   0.0109739
        k(   47) = (   0.0491933   0.0491933   0.0242285), wk =   0.0219479
        k(   48) = (   0.0491933   0.0491933   0.0484569), wk =   0.0219479
        k(   49) = (   0.0491933   0.0491933   0.0726854), wk =   0.0219479
        k(   50) = (   0.0491933   0.0491933   0.0969139), wk =   0.0219479
        k(   51) = (   0.0491933   0.0737900   0.0000000), wk =   0.0219479
        k(   52) = (   0.0491933   0.0737900   0.0242285), wk =   0.0438957
        k(   53) = (   0.0491933   0.0737900   0.0484569), wk =   0.0438957
        k(   54) = (   0.0491933   0.0737900   0.0726854), wk =   0.0438957
        k(   55) = (   0.0491933   0.0737900   0.0969139), wk =   0.0438957
        k(   56) = (   0.0491933   0.0983867   0.0000000), wk =   0.0219479
        k(   57) = (   0.0491933   0.0983867   0.0242285), wk =   0.0438957
        k(   58) = (   0.0491933   0.0983867   0.0484569), wk =   0.0438957
        k(   59) = (   0.0491933   0.0983867   0.0726854), wk =   0.0438957
        k(   60) = (   0.0491933   0.0983867   0.0969139), wk =   0.0438957
        k(   61) = (   0.0737900   0.0737900   0.0000000), wk =   0.0109739
        k(   62) = (   0.0737900   0.0737900   0.0242285), wk =   0.0219479
        k(   63) = (   0.0737900   0.0737900   0.0484569), wk =   0.0219479
        k(   64) = (   0.0737900   0.0737900   0.0726854), wk =   0.0219479
        k(   65) = (   0.0737900   0.0737900   0.0969139), wk =   0.0219479
        k(   66) = (   0.0737900   0.0983867   0.0000000), wk =   0.0219479
        k(   67) = (   0.0737900   0.0983867   0.0242285), wk =   0.0438957
        k(   68) = (   0.0737900   0.0983867   0.0484569), wk =   0.0438957
        k(   69) = (   0.0737900   0.0983867   0.0726854), wk =   0.0438957
        k(   70) = (   0.0737900   0.0983867   0.0969139), wk =   0.0438957
        k(   71) = (   0.0983867   0.0983867   0.0000000), wk =   0.0109739
        k(   72) = (   0.0983867   0.0983867   0.0242285), wk =   0.0219479
        k(   73) = (   0.0983867   0.0983867   0.0484569), wk =   0.0219479
        k(   74) = (   0.0983867   0.0983867   0.0726854), wk =   0.0219479
        k(   75) = (   0.0983867   0.0983867   0.0969139), wk =   0.0219479

     Largest allocated arrays     est. size (Mb)     dimensions
     Largest temporary arrays     est. size (Mb)     dimensions

     Initial potential from superposition of free atoms
     Check: negative starting charge=   -0.121561

     starting charge   45.99090, renormalised to   46.00000

     negative rho (up, down):  1.216E-01 0.000E+00

     *
     * You are using vdW-DF for exchange-correlation in this calculation.
     * Please cite the following three references that made this development
     * possible:
     *
     *   M. Dion, H. Rydberg, E. Schroder, D. C. Langreth, and
     *   B. I. Lundqvist, Phys. Rev. Lett. 92, 246401 (2004).
     *
     *   T. Thonhauser, V. R. Cooper, S. Li, A. Puzder, P. Hyldgaard, and
     *   D. C. Langreth, Phys. Rev. B 76, 125112 (2007).
     *
     *   G. Roman-Perez and J. M. Soler, Phys. Rev. Lett. 103, 096102 (2009).
     *
     *
     * If you are using vdW-DF2, please also cite:
     *
     *   K. Lee, E. D. Murray, L. Kong, B. I. Lundqvist, and
     *   D. C. Langreth, Phys. Rev. B 82, 081101(R) (2010).
     *
     *
     * If you are calculating the stress with vdW-DF, please also cite:
     *
     *   R. Sabatini, E. Kucukbenli, B. Kolb, T. Thonhauser, and
     *   S. de Gironcoli, J. Phys.: Condens. Matter 24, 424209 (2012).
     *

     Carrying out vdW-DF run using the following parameters:

     Nqs =      20    Nr_points =    1024   r_max =   100.000
     q_mesh =
               0.00001000     0.04494208     0.09755937     0.15916263
               0.23128650     0.31572767     0.41458969     0.53033537
               0.66584808     0.82450364     1.01025438     1.22772762
               1.48234092     1.78043706     2.12944203     2.53805004
               3.01644009     3.57652955     4.23227104     5.00000000

     Gradients computed in reciprocal space

     Starting wfc are   52 randomized atomic wfcs

     Self-consistent Calculation

     iteration #  1     ecut=    58.80 Ry     beta=0.10
     Davidson diagonalization with overlap
     ethr =  1.00E-02,  avg # of iterations =  2.8

     Threshold (ethr) on eigenvalues was too large:
     Diagonalizing with lowered threshold

     Davidson diagonalization with overlap
     ethr =  6.65E-05,  avg # of iterations =  4.3

[...]

     total energy              =    -389.22843451 Ry
     Harris-Foulkes estimate   =    -389.23143578 Ry
     estimated scf accuracy    <       0.03358656 Ry

[...]

     total energy              =    -389.22835760 Ry
     Harris-Foulkes estimate   =    -389.22835405 Ry
     estimated scf accuracy    <       0.00001156 Ry

     iteration #  9     ecut=    58.80 Ry     beta=0.10
     Davidson diagonalization with overlap
     ethr =  2.51E-08,  avg # of iterations =  1.0

     negative rho (up, down):  1.242E-01 0.000E+00

     End of self-consistent calculation

          k = 0.0000 0.0000 0.0000 (  4801 PWs)   bands (ev):

   -37.8788 -37.8218 -37.2625 -37.1758 -16.5930 -16.5930 -16.5217 -16.3975
   -16.3518 -16.3518 -15.3880 -15.3880 -15.1948 -15.1548 -14.9636 -14.9636
     6.3265   9.1088   9.3771   9.7122  10.1817  10.2530  10.2530  12.9650
    13.0437  13.0437  14.0496  14.2625  14.2625  14.7456  14.8523  15.8038
    15.8923  16.2842  16.3026  16.3145  16.3145  16.4361  16.4361  17.3033
    20.4271  21.4341  21.4347

[...]

          k = 0.0984 0.0984 0.0969 (  4779 PWs)   bands (ev):

   -37.8475 -37.8459 -37.2230 -37.2202 -16.6402 -16.6339 -16.4889 -16.4880
   -16.3287 -16.3217 -15.4165 -15.4045 -15.1761 -15.1730 -14.9421 -14.9282
     9.1632   9.2162   9.4821   9.5614  12.0649  12.0793  12.2851  12.3947
    12.6087  12.6309  12.9183  12.9402  12.9525  12.9985  13.0310  13.0502
    15.7875  15.8026  15.8872  16.0211  16.1546  16.2354  16.3685  16.4299
    19.9226  19.9384  20.0454

     the Fermi energy is    11.6336 ev

!    total energy              =    -389.22838655 Ry
     Harris-Foulkes estimate   =    -389.22835825 Ry
     estimated scf accuracy    <       0.00000084 Ry

     The total energy is the sum of the following terms:

     one-electron contribution =    -110.85588887 Ry
     hartree contribution      =      69.26581760 Ry
     xc contribution           =     -64.67070993 Ry
     ewald contribution        =    -282.95350302 Ry
     smearing contrib. (-TS)   =      -0.01410233 Ry

     convergence has been achieved in   9 iterations

     Forces acting on atoms (Ry/au):

     negative rho (up, down):  1.242E-01 0.000E+00
     atom    1 type  1   force =     0.00000000    0.00000000    0.00000000
     atom    2 type  1   force =     0.00000000    0.00000000    0.00000000
     atom    3 type  2   force =     0.00000000    0.00000000    0.00000000
     atom    4 type  2   force =     0.00000000    0.00000000    0.00000000

     Total force =     0.000000     Total SCF correction =     0.000000

     General routines

     Parallel routines

   This run was terminated on:   5:13:18  15Nov2017

   JOB DONE.