     Program PWSCF v.5.1rc2 starts on 14Nov2017 at 13:23:28

     Current dimensions of program PWSCF are:
     Max number of different atomic species (ntypx) = 10
     Max number of k-points (npk) =  40000
     Max angular momentum in pseudopotentials (lmaxx) =  3

     IMPORTANT: XC functional enforced from input :
     Exchange-correlation      = BEEF-VDW ( 1  4 27 13 2)
     Any further DFT definition will be discarded
     Please, verify this is what you really want

     Found symmetry operation: I + ( -0.5000 -0.5000  0.0000)
     This is a supercell, fractional translations are disabled

     bravais-lattice index     =            0
     lattice parameter (alat)  =       1.8897  a.u.
     unit-cell volume          =     403.6328 (a.u.)^3
     number of atoms/cell      =            4
     number of atomic types    =            2
     number of electrons       =        68.00
     number of Kohn-Sham states=           54
     kinetic-energy cutoff     =      58.7989  Ry
     charge density cutoff     =     587.9892  Ry
     convergence threshold     =      1.0E-06
     mixing beta               =       0.1000
     number of iterations used =           10  plain     mixing
     Exchange-correlation      = BEEF-VDW ( 1  4 27 13 2)

     celldm(1)=   1.889726  celldm(2)=   0.000000  celldm(3)=   0.000000
     celldm(4)=   0.000000  celldm(5)=   0.000000  celldm(6)=   0.000000

     crystal axes: (cart. coord. in units of alat)
               a(1) = (   3.865056   0.000000   0.000000 )
               a(2) = (   0.000000   3.865056   0.000000 )
               a(3) = (   0.000000   0.000000   4.003853 )

     reciprocal axes: (cart. coord. in units 2 pi/alat)
               b(1) = (  0.258728  0.000000  0.000000 )
               b(2) = (  0.000000  0.258728  0.000000 )
               b(3) = (  0.000000  0.000000  0.249759 )

     PseudoPot. # 1 for Ga read from file:
     /home/users/vossj/suncat/psp/gbrv1.5pbe/Ga.UPF
     MD5 check sum: ccd671392a58a050fbb373893b4fcd66
     Pseudo is Ultrasoft + core correction, Zval = 19.0
     Generated by new atomic code, or converted to UPF format
     Using radial grid of  871 points,  6 beta functions with:
                l(1) =   0
                l(2) =   0
                l(3) =   1
                l(4) =   1
                l(5) =   2
                l(6) =   2
     Q(r) pseudized with  8 coefficients,  rinner =    1.250   1.250   1.250
                                                       1.250   1.250

     PseudoPot. # 2 for Re read from file:
     /home/users/vossj/suncat/psp/gbrv1.5pbe/Re.UPF
     MD5 check sum: 85f993410f3e006da9d71c142b4ad953
     Pseudo is Ultrasoft + core correction, Zval = 15.0
     Generated by new atomic code, or converted to UPF format
     Using radial grid of  981 points,  8 beta functions with:
                l(1) =   0
                l(2) =   0
                l(3) =   1
                l(4) =   1
                l(5) =   2
                l(6) =   2
                l(7) =   3
                l(8) =   3
     Q(r) pseudized with  8 coefficients,  rinner =    1.150   1.150   1.150
                                                       1.150   1.150   1.150
                                                       1.150

     vdW kernel table read from file vdW_kernel_table
     MD5 check sum: 095c7af220d748ca6e76c0b4c6cfb241

     atomic species   valence    mass     pseudopotential
        Ga1           19.00    69.72300     Ga( 1.00)
        Re1           15.00   186.20700     Re( 1.00)

     16 Sym. Ops., with inversion, found

   Cartesian axes

     site n.     atom                  positions (alat units)
         1           Ga1 tau(   1) = (   0.0000000   0.0000000   0.0000000  )
         2           Ga1 tau(   2) = (   1.9325282   1.9325282   0.0000000  )
         3           Re1 tau(   3) = (   1.9325282   0.0000000   2.0019266  )
         4           Re1 tau(   4) = (   0.0000000   1.9325282   2.0019266  )

     number of k points=    75  Fermi-Dirac smearing, width (Ry)=  0.0073
                       cart. coord. in units 2pi/alat
        k(    1) = (   0.0000000   0.0000000   0.0000000), wk =   0.0027435
        k(    2) = (   0.0000000   0.0000000   0.0277510), wk =   0.0054870
        k(    3) = (   0.0000000   0.0000000   0.0555021), wk =   0.0054870
        k(    4) = (   0.0000000   0.0000000   0.0832531), wk =   0.0054870
        k(    5) = (   0.0000000   0.0000000   0.1110042), wk =   0.0054870
        k(    6) = (   0.0000000   0.0287476   0.0000000), wk =   0.0109739
        k(    7) = (   0.0000000   0.0287476   0.0277510), wk =   0.0219479
        k(    8) = (   0.0000000   0.0287476   0.0555021), wk =   0.0219479
        k(    9) = (   0.0000000   0.0287476   0.0832531), wk =   0.0219479
        k(   10) = (   0.0000000   0.0287476   0.1110042), wk =   0.0219479
        k(   11) = (   0.0000000   0.0574952   0.0000000), wk =   0.0109739
        k(   12) = (   0.0000000   0.0574952   0.0277510), wk =   0.0219479
        k(   13) = (   0.0000000   0.0574952   0.0555021), wk =   0.0219479
        k(   14) = (   0.0000000   0.0574952   0.0832531), wk =   0.0219479
        k(   15) = (   0.0000000   0.0574952   0.1110042), wk =   0.0219479
        k(   16) = (   0.0000000   0.0862428   0.0000000), wk =   0.0109739
        k(   17) = (   0.0000000   0.0862428   0.0277510), wk =   0.0219479
        k(   18) = (   0.0000000   0.0862428   0.0555021), wk =   0.0219479
        k(   19) = (   0.0000000   0.0862428   0.0832531), wk =   0.0219479
        k(   20) = (   0.0000000   0.0862428   0.1110042), wk =   0.0219479
        k(   21) = (   0.0000000   0.1149904   0.0000000), wk =   0.0109739
        k(   22) = (   0.0000000   0.1149904   0.0277510), wk =   0.0219479
        k(   23) = (   0.0000000   0.1149904   0.0555021), wk =   0.0219479
        k(   24) = (   0.0000000   0.1149904   0.0832531), wk =   0.0219479
        k(   25) = (   0.0000000   0.1149904   0.1110042), wk =   0.0219479
        k(   26) = (   0.0287476   0.0287476   0.0000000), wk =   0.0109739
        k(   27) = (   0.0287476   0.0287476   0.0277510), wk =   0.0219479
        k(   28) = (   0.0287476   0.0287476   0.0555021), wk =   0.0219479
        k(   29) = (   0.0287476   0.0287476   0.0832531), wk =   0.0219479
        k(   30) = (   0.0287476   0.0287476   0.1110042), wk =   0.0219479
        k(   31) = (   0.0287476   0.0574952   0.0000000), wk =   0.0219479
        k(   32) = (   0.0287476   0.0574952   0.0277510), wk =   0.0438957
        k(   33) = (   0.0287476   0.0574952   0.0555021), wk =   0.0438957
        k(   34) = (   0.0287476   0.0574952   0.0832531), wk =   0.0438957
        k(   35) = (   0.0287476   0.0574952   0.1110042), wk =   0.0438957
        k(   36) = (   0.0287476   0.0862428   0.0000000), wk =   0.0219479
        k(   37) = (   0.0287476   0.0862428   0.0277510), wk =   0.0438957
        k(   38) = (   0.0287476   0.0862428   0.0555021), wk =   0.0438957
        k(   39) = (   0.0287476   0.0862428   0.0832531), wk =   0.0438957
        k(   40) = (   0.0287476   0.0862428   0.1110042), wk =   0.0438957
        k(   41) = (   0.0287476   0.1149904   0.0000000), wk =   0.0219479
        k(   42) = (   0.0287476   0.1149904   0.0277510), wk =   0.0438957
        k(   43) = (   0.0287476   0.1149904   0.0555021), wk =   0.0438957
        k(   44) = (   0.0287476   0.1149904   0.0832531), wk =   0.0438957
        k(   45) = (   0.0287476   0.1149904   0.1110042), wk =   0.0438957
        k(   46) = (   0.0574952   0.0574952   0.0000000), wk =   0.0109739
        k(   47) = (   0.0574952   0.0574952   0.0277510), wk =   0.0219479
        k(   48) = (   0.0574952   0.0574952   0.0555021), wk =   0.0219479
        k(   49) = (   0.0574952   0.0574952   0.0832531), wk =   0.0219479
        k(   50) = (   0.0574952   0.0574952   0.1110042), wk =   0.0219479
        k(   51) = (   0.0574952   0.0862428   0.0000000), wk =   0.0219479
        k(   52) = (   0.0574952   0.0862428   0.0277510), wk =   0.0438957
        k(   53) = (   0.0574952   0.0862428   0.0555021), wk =   0.0438957
        k(   54) = (   0.0574952   0.0862428   0.0832531), wk =   0.0438957
        k(   55) = (   0.0574952   0.0862428   0.1110042), wk =   0.0438957
        k(   56) = (   0.0574952   0.1149904   0.0000000), wk =   0.0219479
        k(   57) = (   0.0574952   0.1149904   0.0277510), wk =   0.0438957
        k(   58) = (   0.0574952   0.1149904   0.0555021), wk =   0.0438957
        k(   59) = (   0.0574952   0.1149904   0.0832531), wk =   0.0438957
        k(   60) = (   0.0574952   0.1149904   0.1110042), wk =   0.0438957
        k(   61) = (   0.0862428   0.0862428   0.0000000), wk =   0.0109739
        k(   62) = (   0.0862428   0.0862428   0.0277510), wk =   0.0219479
        k(   63) = (   0.0862428   0.0862428   0.0555021), wk =   0.0219479
        k(   64) = (   0.0862428   0.0862428   0.0832531), wk =   0.0219479
        k(   65) = (   0.0862428   0.0862428   0.1110042), wk =   0.0219479
        k(   66) = (   0.0862428   0.1149904   0.0000000), wk =   0.0219479
        k(   67) = (   0.0862428   0.1149904   0.0277510), wk =   0.0438957
        k(   68) = (   0.0862428   0.1149904   0.0555021), wk =   0.0438957
        k(   69) = (   0.0862428   0.1149904   0.0832531), wk =   0.0438957
        k(   70) = (   0.0862428   0.1149904   0.1110042), wk =   0.0438957
        k(   71) = (   0.1149904   0.1149904   0.0000000), wk =   0.0109739
        k(   72) = (   0.1149904   0.1149904   0.0277510), wk =   0.0219479
        k(   73) = (   0.1149904   0.1149904   0.0555021), wk =   0.0219479
        k(   74) = (   0.1149904   0.1149904   0.0832531), wk =   0.0219479
        k(   75) = (   0.1149904   0.1149904   0.1110042), wk =   0.0219479

     Largest allocated arrays     est. size (Mb)     dimensions
     Largest temporary arrays     est. size (Mb)     dimensions

     Initial potential from superposition of free atoms
     Check: negative starting charge=   -0.258461

     starting charge   64.99991, renormalised to   68.00000

     negative rho (up, down):  2.704E-01 0.000E+00

     *
     * You are using vdW-DF for exchange-correlation in this calculation.
     * Please cite the following three references that made this development
     * possible:
     *
     *   M. Dion, H. Rydberg, E. Schroder, D. C. Langreth, and
     *   B. I. Lundqvist, Phys. Rev. Lett. 92, 246401 (2004).
     *
     *   T. Thonhauser, V. R. Cooper, S. Li, A. Puzder, P. Hyldgaard, and
     *   D. C. Langreth, Phys. Rev. B 76, 125112 (2007).
     *
     *   G. Roman-Perez and J. M. Soler, Phys. Rev. Lett. 103, 096102 (2009).
     *
     *
     * If you are using vdW-DF2, please also cite:
     *
     *   K. Lee, E. D. Murray, L. Kong, B. I. Lundqvist, and
     *   D. C. Langreth, Phys. Rev. B 82, 081101(R) (2010).
     *
     *
     * If you are calculating the stress with vdW-DF, please also cite:
     *
     *   R. Sabatini, E. Kucukbenli, B. Kolb, T. Thonhauser, and
     *   S. de Gironcoli, J. Phys.: Condens. Matter 24, 424209 (2012).
     *

     Carrying out vdW-DF run using the following parameters:

     Nqs =      20    Nr_points =    1024   r_max =   100.000
     q_mesh =
               0.00001000     0.04494208     0.09755937     0.15916263
               0.23128650     0.31572767     0.41458969     0.53033537
               0.66584808     0.82450364     1.01025438     1.22772762
               1.48234092     1.78043706     2.12944203     2.53805004
               3.01644009     3.57652955     4.23227104     5.00000000

     Gradients computed in reciprocal space

     Starting wfc are   50 randomized atomic wfcs +    4 random wfc

     Self-consistent Calculation

     iteration #  1     ecut=    58.80 Ry     beta=0.10
     Davidson diagonalization with overlap
     ethr =  1.00E-02,  avg # of iterations =  4.2

[...]

     total energy              =   -1217.15757210 Ry
     Harris-Foulkes estimate   =   -1220.53404721 Ry
     estimated scf accuracy    <      18.71932381 Ry

[...]

     total energy              =   -1217.48419174 Ry
     Harris-Foulkes estimate   =   -1217.48419122 Ry
     estimated scf accuracy    <       0.00000140 Ry

     iteration # 13     ecut=    58.80 Ry     beta=0.10
     Davidson diagonalization with overlap
     ethr =  2.06E-09,  avg # of iterations =  2.0

     negative rho (up, down):  2.680E-01 0.000E+00

     End of self-consistent calculation

          k = 0.0000 0.0000 0.0000 (  3027 PWs)   bands (ev):

   -75.5255 -75.5255 -75.5192 -75.5192 -75.4789 -75.4779 -61.1604 -61.0786
   -23.1509 -23.1509 -22.9046 -22.7591 -22.5619 -22.5619   3.7810   3.8456
     3.9640   3.9908   3.9908   4.2028   4.2028   4.2057   4.2745   4.4252
     7.4779  13.1116  14.6194  15.1199  17.0043  17.0043  17.7068  17.8774
    18.0171  18.0171  20.2576  20.2576  21.9515  22.3677  24.0231  24.1771
    25.1323  27.3693  27.3693  27.6834  29.4439  29.4439  32.3215  32.4843
    34.2067  34.5358  37.2426  37.2426  37.3080  37.8039

[...]

          k = 0.1150 0.1150 0.1110 (  3078 PWs)   bands (ev):

   -75.5261 -75.5259 -75.5190 -75.5188 -75.4784 -75.4784 -61.1203 -61.1178
   -23.2304 -23.2134 -22.8418 -22.8372 -22.5232 -22.5048   3.9279   3.9438
     3.9512   3.9556   4.1160   4.1278   4.2166   4.2221   4.2564   4.2665
    11.5921  11.7665  14.7467  14.9273  15.6599  15.6744  16.9248  17.1368
    19.1048  19.1130  19.2703  19.4456  20.5096  20.5399  22.2639  22.3976
    25.8279  25.8406  30.6441  31.4258  32.0969  32.2181  33.4130  33.6622
    34.6732  35.0317  36.3265  36.6360  36.6743  37.4950

     the Fermi energy is    19.4112 ev

!    total energy              =   -1217.48419679 Ry
     Harris-Foulkes estimate   =   -1217.48419207 Ry
     estimated scf accuracy    <       0.00000027 Ry

     The total energy is the sum of the following terms:

     one-electron contribution =    -660.63453252 Ry
     hartree contribution      =     373.19607820 Ry
     xc contribution           =    -208.15384833 Ry
     ewald contribution        =    -721.88235093 Ry
     smearing contrib. (-TS)   =      -0.00954321 Ry

     convergence has been achieved in  13 iterations

     Forces acting on atoms (Ry/au):

     negative rho (up, down):  2.680E-01 0.000E+00
     atom    1 type  1   force =     0.00000000    0.00000000    0.00000000
     atom    2 type  1   force =     0.00000000    0.00000000    0.00000000
     atom    3 type  2   force =     0.00000000    0.00000000    0.00000000
     atom    4 type  2   force =     0.00000000    0.00000000    0.00000000

     Total force =     0.000000     Total SCF correction =     0.000000

     General routines

     Parallel routines

   This run was terminated on:  13:24:17  14Nov2017

   JOB DONE.