     Program PWSCF v.5.1rc2 starts on 14Nov2017 at  9: 2:21

     Current dimensions of program PWSCF are:
     Max number of different atomic species (ntypx) = 10
     Max number of k-points (npk) =  40000
     Max angular momentum in pseudopotentials (lmaxx) =  3

     IMPORTANT: XC functional enforced from input :
     Exchange-correlation      = BEEF-VDW ( 1  4 27 13 2)
     Any further DFT definition will be discarded
     Please, verify this is what you really want

     Found symmetry operation: I + ( -0.5000 -0.5000  0.0000)
     This is a supercell, fractional translations are disabled

     bravais-lattice index     =            0
     lattice parameter (alat)  =       1.8897  a.u.
     unit-cell volume          =     477.2928 (a.u.)^3
     number of atoms/cell      =            4
     number of atomic types    =            2
     number of electrons       =        62.00
     number of Kohn-Sham states=           51
     kinetic-energy cutoff     =      58.7989  Ry
     charge density cutoff     =     587.9892  Ry
     convergence threshold     =      1.0E-06
     mixing beta               =       0.1000
     number of iterations used =           10  plain     mixing
     Exchange-correlation      = BEEF-VDW ( 1  4 27 13 2)

     celldm(1)=   1.889726  celldm(2)=   0.000000  celldm(3)=   0.000000
     celldm(4)=   0.000000  celldm(5)=   0.000000  celldm(6)=   0.000000

     crystal axes: (cart. coord. in units of alat)
               a(1) = (   4.541616   0.000000   0.000000 )
               a(2) = (   0.000000   4.541616   0.000000 )
               a(3) = (   0.000000   0.000000   3.429000 )

     reciprocal axes: (cart. coord. in units 2 pi/alat)
               b(1) = (  0.220186  0.000000  0.000000 )
               b(2) = (  0.000000  0.220186  0.000000 )
               b(3) = (  0.000000  0.000000  0.291630 )

     PseudoPot. # 1 for Cu read from file:
     /home/users/vossj/suncat/psp/gbrv1.5pbe/Cu.UPF
     MD5 check sum: 6e991ff952a84172a2a52a1c1e996048
     Pseudo is Ultrasoft + core correction, Zval = 19.0
     Generated by new atomic code, or converted to UPF format
     Using radial grid of  867 points,  6 beta functions with:
                l(1) =   0
                l(2) =   0
                l(3) =   1
                l(4) =   1
                l(5) =   2
                l(6) =   2
     Q(r) pseudized with  8 coefficients,  rinner =    1.150   1.150   1.150
                                                       1.150   1.150

     PseudoPot. # 2 for Hg read from file:
     /home/users/vossj/suncat/psp/gbrv1.5pbe/Hg.UPF
     MD5 check sum: 8f42caffe07f7fd9c0a564347f8c5498
     Pseudo is Ultrasoft + core correction, Zval = 12.0
     Generated by new atomic code, or converted to UPF format
     Using radial grid of  985 points,  6 beta functions with:
                l(1) =   0
                l(2) =   0
                l(3) =   1
                l(4) =   1
                l(5) =   2
                l(6) =   2
     Q(r) pseudized with  8 coefficients,  rinner =    2.000   2.000   2.000
                                                       2.000   2.000

     vdW kernel table read from file vdW_kernel_table
     MD5 check sum: 095c7af220d748ca6e76c0b4c6cfb241

     atomic species   valence    mass     pseudopotential
        Cu1           19.00    63.54600     Cu( 1.00)
        Hg1           12.00   200.59000     Hg( 1.00)

     16 Sym. Ops., with inversion, found

   Cartesian axes

     site n.     atom                  positions (alat units)
         1           Cu1 tau(   1) = (   0.0000000   0.0000000   0.0000000  )
         2           Cu1 tau(   2) = (   2.2708082   2.2708082   0.0000000  )
         3           Hg1 tau(   3) = (   2.2708082   0.0000000   1.7144998  )
         4           Hg1 tau(   4) = (   0.0000000   2.2708082   1.7144998  )

     number of k points=    75  Fermi-Dirac smearing, width (Ry)=  0.0073
                       cart. coord. in units 2pi/alat
        k(    1) = (   0.0000000   0.0000000   0.0000000), wk =   0.0027435
        k(    2) = (   0.0000000   0.0000000   0.0324034), wk =   0.0054870
        k(    3) = (   0.0000000   0.0000000   0.0648067), wk =   0.0054870
        k(    4) = (   0.0000000   0.0000000   0.0972101), wk =   0.0054870
        k(    5) = (   0.0000000   0.0000000   0.1296134), wk =   0.0054870
        k(    6) = (   0.0000000   0.0244651   0.0000000), wk =   0.0109739
        k(    7) = (   0.0000000   0.0244651   0.0324034), wk =   0.0219479
        k(    8) = (   0.0000000   0.0244651   0.0648067), wk =   0.0219479
        k(    9) = (   0.0000000   0.0244651   0.0972101), wk =   0.0219479
        k(   10) = (   0.0000000   0.0244651   0.1296134), wk =   0.0219479
        k(   11) = (   0.0000000   0.0489302   0.0000000), wk =   0.0109739
        k(   12) = (   0.0000000   0.0489302   0.0324034), wk =   0.0219479
        k(   13) = (   0.0000000   0.0489302   0.0648067), wk =   0.0219479
        k(   14) = (   0.0000000   0.0489302   0.0972101), wk =   0.0219479
        k(   15) = (   0.0000000   0.0489302   0.1296134), wk =   0.0219479
        k(   16) = (   0.0000000   0.0733953   0.0000000), wk =   0.0109739
        k(   17) = (   0.0000000   0.0733953   0.0324034), wk =   0.0219479
        k(   18) = (   0.0000000   0.0733953   0.0648067), wk =   0.0219479
        k(   19) = (   0.0000000   0.0733953   0.0972101), wk =   0.0219479
        k(   20) = (   0.0000000   0.0733953   0.1296134), wk =   0.0219479
        k(   21) = (   0.0000000   0.0978604   0.0000000), wk =   0.0109739
        k(   22) = (   0.0000000   0.0978604   0.0324034), wk =   0.0219479
        k(   23) = (   0.0000000   0.0978604   0.0648067), wk =   0.0219479
        k(   24) = (   0.0000000   0.0978604   0.0972101), wk =   0.0219479
        k(   25) = (   0.0000000   0.0978604   0.1296134), wk =   0.0219479
        k(   26) = (   0.0244651   0.0244651   0.0000000), wk =   0.0109739
        k(   27) = (   0.0244651   0.0244651   0.0324034), wk =   0.0219479
        k(   28) = (   0.0244651   0.0244651   0.0648067), wk =   0.0219479
        k(   29) = (   0.0244651   0.0244651   0.0972101), wk =   0.0219479
        k(   30) = (   0.0244651   0.0244651   0.1296134), wk =   0.0219479
        k(   31) = (   0.0244651   0.0489302   0.0000000), wk =   0.0219479
        k(   32) = (   0.0244651   0.0489302   0.0324034), wk =   0.0438957
        k(   33) = (   0.0244651   0.0489302   0.0648067), wk =   0.0438957
        k(   34) = (   0.0244651   0.0489302   0.0972101), wk =   0.0438957
        k(   35) = (   0.0244651   0.0489302   0.1296134), wk =   0.0438957
        k(   36) = (   0.0244651   0.0733953   0.0000000), wk =   0.0219479
        k(   37) = (   0.0244651   0.0733953   0.0324034), wk =   0.0438957
        k(   38) = (   0.0244651   0.0733953   0.0648067), wk =   0.0438957
        k(   39) = (   0.0244651   0.0733953   0.0972101), wk =   0.0438957
        k(   40) = (   0.0244651   0.0733953   0.1296134), wk =   0.0438957
        k(   41) = (   0.0244651   0.0978604   0.0000000), wk =   0.0219479
        k(   42) = (   0.0244651   0.0978604   0.0324034), wk =   0.0438957
        k(   43) = (   0.0244651   0.0978604   0.0648067), wk =   0.0438957
        k(   44) = (   0.0244651   0.0978604   0.0972101), wk =   0.0438957
        k(   45) = (   0.0244651   0.0978604   0.1296134), wk =   0.0438957
        k(   46) = (   0.0489302   0.0489302   0.0000000), wk =   0.0109739
        k(   47) = (   0.0489302   0.0489302   0.0324034), wk =   0.0219479
        k(   48) = (   0.0489302   0.0489302   0.0648067), wk =   0.0219479
        k(   49) = (   0.0489302   0.0489302   0.0972101), wk =   0.0219479
        k(   50) = (   0.0489302   0.0489302   0.1296134), wk =   0.0219479
        k(   51) = (   0.0489302   0.0733953   0.0000000), wk =   0.0219479
        k(   52) = (   0.0489302   0.0733953   0.0324034), wk =   0.0438957
        k(   53) = (   0.0489302   0.0733953   0.0648067), wk =   0.0438957
        k(   54) = (   0.0489302   0.0733953   0.0972101), wk =   0.0438957
        k(   55) = (   0.0489302   0.0733953   0.1296134), wk =   0.0438957
        k(   56) = (   0.0489302   0.0978604   0.0000000), wk =   0.0219479
        k(   57) = (   0.0489302   0.0978604   0.0324034), wk =   0.0438957
        k(   58) = (   0.0489302   0.0978604   0.0648067), wk =   0.0438957
        k(   59) = (   0.0489302   0.0978604   0.0972101), wk =   0.0438957
        k(   60) = (   0.0489302   0.0978604   0.1296134), wk =   0.0438957
        k(   61) = (   0.0733953   0.0733953   0.0000000), wk =   0.0109739
        k(   62) = (   0.0733953   0.0733953   0.0324034), wk =   0.0219479
        k(   63) = (   0.0733953   0.0733953   0.0648067), wk =   0.0219479
        k(   64) = (   0.0733953   0.0733953   0.0972101), wk =   0.0219479
        k(   65) = (   0.0733953   0.0733953   0.1296134), wk =   0.0219479
        k(   66) = (   0.0733953   0.0978604   0.0000000), wk =   0.0219479
        k(   67) = (   0.0733953   0.0978604   0.0324034), wk =   0.0438957
        k(   68) = (   0.0733953   0.0978604   0.0648067), wk =   0.0438957
        k(   69) = (   0.0733953   0.0978604   0.0972101), wk =   0.0438957
        k(   70) = (   0.0733953   0.0978604   0.1296134), wk =   0.0438957
        k(   71) = (   0.0978604   0.0978604   0.0000000), wk =   0.0109739
        k(   72) = (   0.0978604   0.0978604   0.0324034), wk =   0.0219479
        k(   73) = (   0.0978604   0.0978604   0.0648067), wk =   0.0219479
        k(   74) = (   0.0978604   0.0978604   0.0972101), wk =   0.0219479
        k(   75) = (   0.0978604   0.0978604   0.1296134), wk =   0.0219479

     Largest allocated arrays     est. size (Mb)     dimensions
     Largest temporary arrays     est. size (Mb)     dimensions

     Initial potential from superposition of free atoms

     starting charge   59.99988, renormalised to   62.00000

     *
     * You are using vdW-DF for exchange-correlation in this calculation.
     * Please cite the following three references that made this development
     * possible:
     *
     *   M. Dion, H. Rydberg, E. Schroder, D. C. Langreth, and
     *   B. I. Lundqvist, Phys. Rev. Lett. 92, 246401 (2004).
     *
     *   T. Thonhauser, V. R. Cooper, S. Li, A. Puzder, P. Hyldgaard, and
     *   D. C. Langreth, Phys. Rev. B 76, 125112 (2007).
     *
     *   G. Roman-Perez and J. M. Soler, Phys. Rev. Lett. 103, 096102 (2009).
     *
     *
     * If you are using vdW-DF2, please also cite:
     *
     *   K. Lee, E. D. Murray, L. Kong, B. I. Lundqvist, and
     *   D. C. Langreth, Phys. Rev. B 82, 081101(R) (2010).
     *
     *
     * If you are calculating the stress with vdW-DF, please also cite:
     *
     *   R. Sabatini, E. Kucukbenli, B. Kolb, T. Thonhauser, and
     *   S. de Gironcoli, J. Phys.: Condens. Matter 24, 424209 (2012).
     *

     Carrying out vdW-DF run using the following parameters:

     Nqs =      20    Nr_points =    1024   r_max =   100.000
     q_mesh =
               0.00001000     0.04494208     0.09755937     0.15916263
               0.23128650     0.31572767     0.41458969     0.53033537
               0.66584808     0.82450364     1.01025438     1.22772762
               1.48234092     1.78043706     2.12944203     2.53805004
               3.01644009     3.57652955     4.23227104     5.00000000

     Gradients computed in reciprocal space

     Starting wfc are   44 randomized atomic wfcs +    7 random wfc

     Self-consistent Calculation

     iteration #  1     ecut=    58.80 Ry     beta=0.10
     Davidson diagonalization with overlap
     ethr =  1.00E-02,  avg # of iterations =  5.3

     total energy              =   -1028.25021329 Ry
     Harris-Foulkes estimate   =   -1028.45746851 Ry
     estimated scf accuracy    <       1.23626408 Ry

[...]

     total energy              =   -1028.06750108 Ry
     Harris-Foulkes estimate   =   -1028.06749771 Ry
     estimated scf accuracy    <       0.00000342 Ry

     iteration # 12     ecut=    58.80 Ry     beta=0.10
     Davidson diagonalization with overlap
     ethr =  5.51E-09,  avg # of iterations =  2.0

     End of self-consistent calculation

          k = 0.0000 0.0000 0.0000 (  3627 PWs)   bands (ev):

   -99.4358 -99.4355 -56.8543 -56.8539 -56.8464 -56.8464 -56.8437 -56.8437
     3.6134   4.6197   4.7977   4.9163   5.3012   5.5044   5.5044   6.0265
     6.0265   6.1573   6.7037   9.3427  10.2045  10.2931  10.4932  10.7196
    10.7196  10.7220  10.7220  10.7338  10.8379  12.0398  12.0398  13.5035
    15.6294  17.0954  18.8963  18.8963  20.5158  23.5138  24.3464  24.5422
    24.5422  25.0640  25.2046  29.5208  30.1333  30.1333  30.2793  30.7214
    31.1441  31.1441  32.7185

[...]

          k = 0.0979 0.0979 0.1296 (  3621 PWs)   bands (ev):

   -99.4357 -99.4356 -56.8552 -56.8551 -56.8466 -56.8465 -56.8436 -56.8435
     4.6992   4.7104   5.0312   5.0788   5.6352   5.6762   5.7404   5.7653
     6.4549   6.4902   8.8982   9.0287  10.3041  10.3352  10.5758  10.5963
    10.6753  10.6966  10.7298  10.7553  11.0338  11.6829  11.7466  11.9376
    13.4740  13.5913  15.2829  15.5841  24.4351  24.7999  25.4100  25.5268
    25.6608  25.9339  26.2566  26.4021  30.7860  30.9617  31.2179  31.4699
    31.7700  31.8114  32.8310

     the Fermi energy is    13.0718 ev

!    total energy              =   -1028.06751912 Ry
     Harris-Foulkes estimate   =   -1028.06750203 Ry
     estimated scf accuracy    <       0.00000068 Ry

     The total energy is the sum of the following terms:

     one-electron contribution =    -666.20492969 Ry
     hartree contribution      =     378.99635677 Ry
     xc contribution           =    -161.04167422 Ry
     ewald contribution        =    -579.81479226 Ry
     smearing contrib. (-TS)   =      -0.00247972 Ry

     convergence has been achieved in  12 iterations

     Forces acting on atoms (Ry/au):

     atom    1 type  1   force =     0.00000000    0.00000000    0.00000000
     atom    2 type  1   force =     0.00000000    0.00000000    0.00000000
     atom    3 type  2   force =     0.00000000    0.00000000    0.00000000
     atom    4 type  2   force =     0.00000000    0.00000000    0.00000000

     Total force =     0.000000     Total SCF correction =     0.000000

     General routines

     Parallel routines

   This run was terminated on:   9: 3: 7  14Nov2017

   JOB DONE.