     Program PWSCF v.5.1rc2 starts on 15Nov2017 at  5:53:30

     Current dimensions of program PWSCF are:
     Max number of different atomic species (ntypx) = 10
     Max number of k-points (npk) =  40000
     Max angular momentum in pseudopotentials (lmaxx) =  3

     IMPORTANT: XC functional enforced from input :
     Exchange-correlation      = BEEF-VDW ( 1  4 27 13 2)
     Any further DFT definition will be discarded
     Please, verify this is what you really want

     Found symmetry operation: I + (  0.5000  0.5000  0.0000)
     This is a supercell, fractional translations are disabled

     bravais-lattice index     =            0
     lattice parameter (alat)  =       1.8897  a.u.
     unit-cell volume          =     755.8909 (a.u.)^3
     number of atoms/cell      =            4
     number of atomic types    =            2
     number of electrons       =        52.00
     number of Kohn-Sham states=           46
     kinetic-energy cutoff     =      58.7989  Ry
     charge density cutoff     =     587.9892  Ry
     convergence threshold     =      1.0E-06
     mixing beta               =       0.1000
     number of iterations used =           10  plain     mixing
     Exchange-correlation      = BEEF-VDW ( 1  4 27 13 2)

     celldm(1)=   1.889726  celldm(2)=   0.000000  celldm(3)=   0.000000
     celldm(4)=   0.000000  celldm(5)=   0.000000  celldm(6)=   0.000000

     crystal axes: (cart. coord. in units of alat)
               a(1) = (   4.763550   0.000000   0.000000 )
               a(2) = (   0.000000   4.763550   0.000000 )
               a(3) = (   0.000000   0.000000   4.936294 )

     reciprocal axes: (cart. coord. in units 2 pi/alat)
               b(1) = (  0.209927  0.000000  0.000000 )
               b(2) = (  0.000000  0.209927  0.000000 )
               b(3) = (  0.000000  0.000000  0.202581 )

     PseudoPot. # 1 for Sn read from file:
     /home/users/vossj/suncat/psp/gbrv1.5pbe/Sn.UPF
     MD5 check sum: 469debedee59599fedebd795477fea03
     Pseudo is Ultrasoft + core correction, Zval = 14.0
     Generated by new atomic code, or converted to UPF format
     Using radial grid of  891 points,  6 beta functions with:
                l(1) =   0
                l(2) =   0
                l(3) =   1
                l(4) =   1
                l(5) =   2
                l(6) =   2
     Q(r) pseudized with  8 coefficients,  rinner =    1.350   1.350   1.350
                                                       1.350   1.350

     PseudoPot. # 2 for Hg read from file:
     /home/users/vossj/suncat/psp/gbrv1.5pbe/Hg.UPF
     MD5 check sum: 8f42caffe07f7fd9c0a564347f8c5498
     Pseudo is Ultrasoft + core correction, Zval = 12.0
     Generated by new atomic code, or converted to UPF format
     Using radial grid of  985 points,  6 beta functions with:
                l(1) =   0
                l(2) =   0
                l(3) =   1
                l(4) =   1
                l(5) =   2
                l(6) =   2
     Q(r) pseudized with  8 coefficients,  rinner =    2.000   2.000   2.000
                                                       2.000   2.000

     vdW kernel table read from file vdW_kernel_table
     MD5 check sum: 095c7af220d748ca6e76c0b4c6cfb241

     atomic species   valence    mass     pseudopotential
        Sn1           14.00   118.71000     Sn( 1.00)
        Hg1           12.00   200.59000     Hg( 1.00)

     16 Sym. Ops., with inversion, found

   Cartesian axes

     site n.     atom                  positions (alat units)
         1           Sn1 tau(   1) = (   0.0000000   0.0000000   0.0000000  )
         2           Sn1 tau(   2) = (   2.3817751   2.3817751   0.0000000  )
         3           Hg1 tau(   3) = (   2.3817751   0.0000000   2.4681469  )
         4           Hg1 tau(   4) = (   0.0000000   2.3817751   2.4681469  )

     number of k points=    75  Fermi-Dirac smearing, width (Ry)=  0.0073
                       cart. coord. in units 2pi/alat
        k(    1) = (   0.0000000   0.0000000   0.0000000), wk =   0.0027435
        k(    2) = (   0.0000000   0.0000000   0.0225090), wk =   0.0054870
        k(    3) = (   0.0000000   0.0000000   0.0450180), wk =   0.0054870
        k(    4) = (   0.0000000   0.0000000   0.0675270), wk =   0.0054870
        k(    5) = (   0.0000000   0.0000000   0.0900361), wk =   0.0054870
        k(    6) = (   0.0000000   0.0233253   0.0000000), wk =   0.0109739
        k(    7) = (   0.0000000   0.0233253   0.0225090), wk =   0.0219479
        k(    8) = (   0.0000000   0.0233253   0.0450180), wk =   0.0219479
        k(    9) = (   0.0000000   0.0233253   0.0675270), wk =   0.0219479
        k(   10) = (   0.0000000   0.0233253   0.0900361), wk =   0.0219479
        k(   11) = (   0.0000000   0.0466505   0.0000000), wk =   0.0109739
        k(   12) = (   0.0000000   0.0466505   0.0225090), wk =   0.0219479
        k(   13) = (   0.0000000   0.0466505   0.0450180), wk =   0.0219479
        k(   14) = (   0.0000000   0.0466505   0.0675270), wk =   0.0219479
        k(   15) = (   0.0000000   0.0466505   0.0900361), wk =   0.0219479
        k(   16) = (   0.0000000   0.0699758   0.0000000), wk =   0.0109739
        k(   17) = (   0.0000000   0.0699758   0.0225090), wk =   0.0219479
        k(   18) = (   0.0000000   0.0699758   0.0450180), wk =   0.0219479
        k(   19) = (   0.0000000   0.0699758   0.0675270), wk =   0.0219479
        k(   20) = (   0.0000000   0.0699758   0.0900361), wk =   0.0219479
        k(   21) = (   0.0000000   0.0933011   0.0000000), wk =   0.0109739
        k(   22) = (   0.0000000   0.0933011   0.0225090), wk =   0.0219479
        k(   23) = (   0.0000000   0.0933011   0.0450180), wk =   0.0219479
        k(   24) = (   0.0000000   0.0933011   0.0675270), wk =   0.0219479
        k(   25) = (   0.0000000   0.0933011   0.0900361), wk =   0.0219479
        k(   26) = (   0.0233253   0.0233253   0.0000000), wk =   0.0109739
        k(   27) = (   0.0233253   0.0233253   0.0225090), wk =   0.0219479
        k(   28) = (   0.0233253   0.0233253   0.0450180), wk =   0.0219479
        k(   29) = (   0.0233253   0.0233253   0.0675270), wk =   0.0219479
        k(   30) = (   0.0233253   0.0233253   0.0900361), wk =   0.0219479
        k(   31) = (   0.0233253   0.0466505   0.0000000), wk =   0.0219479
        k(   32) = (   0.0233253   0.0466505   0.0225090), wk =   0.0438957
        k(   33) = (   0.0233253   0.0466505   0.0450180), wk =   0.0438957
        k(   34) = (   0.0233253   0.0466505   0.0675270), wk =   0.0438957
        k(   35) = (   0.0233253   0.0466505   0.0900361), wk =   0.0438957
        k(   36) = (   0.0233253   0.0699758   0.0000000), wk =   0.0219479
        k(   37) = (   0.0233253   0.0699758   0.0225090), wk =   0.0438957
        k(   38) = (   0.0233253   0.0699758   0.0450180), wk =   0.0438957
        k(   39) = (   0.0233253   0.0699758   0.0675270), wk =   0.0438957
        k(   40) = (   0.0233253   0.0699758   0.0900361), wk =   0.0438957
        k(   41) = (   0.0233253   0.0933011   0.0000000), wk =   0.0219479
        k(   42) = (   0.0233253   0.0933011   0.0225090), wk =   0.0438957
        k(   43) = (   0.0233253   0.0933011   0.0450180), wk =   0.0438957
        k(   44) = (   0.0233253   0.0933011   0.0675270), wk =   0.0438957
        k(   45) = (   0.0233253   0.0933011   0.0900361), wk =   0.0438957
        k(   46) = (   0.0466505   0.0466505   0.0000000), wk =   0.0109739
        k(   47) = (   0.0466505   0.0466505   0.0225090), wk =   0.0219479
        k(   48) = (   0.0466505   0.0466505   0.0450180), wk =   0.0219479
        k(   49) = (   0.0466505   0.0466505   0.0675270), wk =   0.0219479
        k(   50) = (   0.0466505   0.0466505   0.0900361), wk =   0.0219479
        k(   51) = (   0.0466505   0.0699758   0.0000000), wk =   0.0219479
        k(   52) = (   0.0466505   0.0699758   0.0225090), wk =   0.0438957
        k(   53) = (   0.0466505   0.0699758   0.0450180), wk =   0.0438957
        k(   54) = (   0.0466505   0.0699758   0.0675270), wk =   0.0438957
        k(   55) = (   0.0466505   0.0699758   0.0900361), wk =   0.0438957
        k(   56) = (   0.0466505   0.0933011   0.0000000), wk =   0.0219479
        k(   57) = (   0.0466505   0.0933011   0.0225090), wk =   0.0438957
        k(   58) = (   0.0466505   0.0933011   0.0450180), wk =   0.0438957
        k(   59) = (   0.0466505   0.0933011   0.0675270), wk =   0.0438957
        k(   60) = (   0.0466505   0.0933011   0.0900361), wk =   0.0438957
        k(   61) = (   0.0699758   0.0699758   0.0000000), wk =   0.0109739
        k(   62) = (   0.0699758   0.0699758   0.0225090), wk =   0.0219479
        k(   63) = (   0.0699758   0.0699758   0.0450180), wk =   0.0219479
        k(   64) = (   0.0699758   0.0699758   0.0675270), wk =   0.0219479
        k(   65) = (   0.0699758   0.0699758   0.0900361), wk =   0.0219479
        k(   66) = (   0.0699758   0.0933011   0.0000000), wk =   0.0219479
        k(   67) = (   0.0699758   0.0933011   0.0225090), wk =   0.0438957
        k(   68) = (   0.0699758   0.0933011   0.0450180), wk =   0.0438957
        k(   69) = (   0.0699758   0.0933011   0.0675270), wk =   0.0438957
        k(   70) = (   0.0699758   0.0933011   0.0900361), wk =   0.0438957
        k(   71) = (   0.0933011   0.0933011   0.0000000), wk =   0.0109739
        k(   72) = (   0.0933011   0.0933011   0.0225090), wk =   0.0219479
        k(   73) = (   0.0933011   0.0933011   0.0450180), wk =   0.0219479
        k(   74) = (   0.0933011   0.0933011   0.0675270), wk =   0.0219479
        k(   75) = (   0.0933011   0.0933011   0.0900361), wk =   0.0219479

     Largest allocated arrays     est. size (Mb)     dimensions
     Largest temporary arrays     est. size (Mb)     dimensions

     Initial potential from superposition of free atoms

     starting charge   49.99979, renormalised to   52.00000

     *
     * You are using vdW-DF for exchange-correlation in this calculation.
     * Please cite the following three references that made this development
     * possible:
     *
     *   M. Dion, H. Rydberg, E. Schroder, D. C. Langreth, and
     *   B. I. Lundqvist, Phys. Rev. Lett. 92, 246401 (2004).
     *
     *   T. Thonhauser, V. R. Cooper, S. Li, A. Puzder, P. Hyldgaard, and
     *   D. C. Langreth, Phys. Rev. B 76, 125112 (2007).
     *
     *   G. Roman-Perez and J. M. Soler, Phys. Rev. Lett. 103, 096102 (2009).
     *
     *
     * If you are using vdW-DF2, please also cite:
     *
     *   K. Lee, E. D. Murray, L. Kong, B. I. Lundqvist, and
     *   D. C. Langreth, Phys. Rev. B 82, 081101(R) (2010).
     *
     *
     * If you are calculating the stress with vdW-DF, please also cite:
     *
     *   R. Sabatini, E. Kucukbenli, B. Kolb, T. Thonhauser, and
     *   S. de Gironcoli, J. Phys.: Condens. Matter 24, 424209 (2012).
     *

     Carrying out vdW-DF run using the following parameters:

     Nqs =      20    Nr_points =    1024   r_max =   100.000
     q_mesh =
               0.00001000     0.04494208     0.09755937     0.15916263
               0.23128650     0.31572767     0.41458969     0.53033537
               0.66584808     0.82450364     1.01025438     1.22772762
               1.48234092     1.78043706     2.12944203     2.53805004
               3.01644009     3.57652955     4.23227104     5.00000000

     Gradients computed in reciprocal space

     Starting wfc are   36 randomized atomic wfcs +   10 random wfc

     Self-consistent Calculation

     iteration #  1     ecut=    58.80 Ry     beta=0.10
     Davidson diagonalization with overlap
     ethr =  1.00E-02,  avg # of iterations =  5.9

     total energy              =    -539.86701975 Ry
     Harris-Foulkes estimate   =    -540.11414020 Ry
     estimated scf accuracy    <       1.49451416 Ry

[...]

     iteration #  6     ecut=    58.80 Ry     beta=0.10
     Davidson diagonalization with overlap
     c_bands:  1 eigenvalues not converged
     c_bands:  1 eigenvalues not converged
     ethr =  7.94E-06,  avg # of iterations =  3.5

[...]

     total energy              =    -539.63010871 Ry
     Harris-Foulkes estimate   =    -539.63008169 Ry
     estimated scf accuracy    <       0.00000157 Ry

     iteration # 11     ecut=    58.80 Ry     beta=0.10
     Davidson diagonalization with overlap
     ethr =  3.01E-09,  avg # of iterations =  2.0

     End of self-consistent calculation

          k = 0.0000 0.0000 0.0000 (  5755 PWs)   bands (ev):

   -12.4984 -12.4794 -12.4456 -12.4456 -12.4376 -12.4051 -12.4050 -12.4050
   -12.3486 -12.2914  -0.1549   2.0963   2.2218   2.3884   2.6140   2.6140
     2.9368   2.9903   2.9903   3.1916   3.5237   5.5494   6.8377   7.4792
     7.5660   7.5660   8.5299  12.0156  13.3569  13.3569  13.9692  13.9692
    15.2797  16.6937  17.3792  17.5281  17.8837  18.0404  18.0404  19.8424
    20.3442  20.3442  21.3796  23.9540  23.9541  25.4630

[...]

          k = 0.0933 0.0933 0.0900 (  5754 PWs)   bands (ev):

   -12.4781 -12.4745 -12.4522 -12.4510 -12.4026 -12.4014 -12.3890 -12.3864
   -12.3624 -12.3575   1.6040   1.6458   2.3848   2.4194   2.8570   2.8897
     2.9999   3.0214   3.0267   3.0462   4.0663   4.2729   5.9393   6.0022
     6.4772   6.7712   7.3524   7.9434  15.3202  15.6646  16.5251  16.5887
    17.7125  17.8947  19.7410  19.8774  20.1327  20.1371  20.4658  20.8977
    21.2056  21.4196  21.9159  22.1652  22.2063  22.7288

     the Fermi energy is     9.5938 ev

!    total energy              =    -539.63022612 Ry
     Harris-Foulkes estimate   =    -539.63010896 Ry
     estimated scf accuracy    <       0.00000012 Ry

     The total energy is the sum of the following terms:

     one-electron contribution =    -143.00258541 Ry
     hartree contribution      =     114.37922949 Ry
     xc contribution           =    -169.81048580 Ry
     ewald contribution        =    -341.19173588 Ry
     smearing contrib. (-TS)   =      -0.00464851 Ry

     convergence has been achieved in  11 iterations

     Forces acting on atoms (Ry/au):

     atom    1 type  1   force =     0.00000000    0.00000000    0.00000000
     atom    2 type  1   force =     0.00000000    0.00000000    0.00000000
     atom    3 type  2   force =     0.00000000    0.00000000    0.00000000
     atom    4 type  2   force =     0.00000000    0.00000000    0.00000000

     Total force =     0.000000     Total SCF correction =     0.000000

     General routines

     Parallel routines

   This run was terminated on:   5:54:22  15Nov2017

   JOB DONE.