     Program PWSCF v.5.1rc2 starts on 14Nov2017 at 15: 0:46

     Current dimensions of program PWSCF are:
     Max number of different atomic species (ntypx) = 10
     Max number of k-points (npk) =  40000
     Max angular momentum in pseudopotentials (lmaxx) =  3

     IMPORTANT: XC functional enforced from input :
     Exchange-correlation      = BEEF-VDW ( 1  4 27 13 2)
     Any further DFT definition will be discarded
     Please, verify this is what you really want

     Found symmetry operation: I + ( -0.5000 -0.5000  0.0000)
     This is a supercell, fractional translations are disabled

     bravais-lattice index     =            0
     lattice parameter (alat)  =       1.8897  a.u.
     unit-cell volume          =     890.7897 (a.u.)^3
     number of atoms/cell      =            4
     number of atomic types    =            2
     number of electrons       =        48.00
     number of Kohn-Sham states=           44
     kinetic-energy cutoff     =      58.7989  Ry
     charge density cutoff     =     587.9892  Ry
     convergence threshold     =      1.0E-06
     mixing beta               =       0.1000
     number of iterations used =           10  plain     mixing
     Exchange-correlation      = BEEF-VDW ( 1  4 27 13 2)

     celldm(1)=   1.889726  celldm(2)=   0.000000  celldm(3)=   0.000000
     celldm(4)=   0.000000  celldm(5)=   0.000000  celldm(6)=   0.000000

     crystal axes: (cart. coord. in units of alat)
               a(1) = (   5.484721   0.000000   0.000000 )
               a(2) = (   0.000000   5.484721   0.000000 )
               a(3) = (   0.000000   0.000000   4.388029 )

     reciprocal axes: (cart. coord. in units 2 pi/alat)
               b(1) = (  0.182325  0.000000  0.000000 )
               b(2) = (  0.000000  0.182325  0.000000 )
               b(3) = (  0.000000  0.000000  0.227893 )

     PseudoPot. # 1 for La read from file:
     /home/users/vossj/suncat/psp/gbrv1.5pbe/La.UPF
     MD5 check sum: 5937b0c7494ba0601a847275249473aa
     Pseudo is Ultrasoft + core correction, Zval = 11.0
     Generated by new atomic code, or converted to UPF format
     Using radial grid of  995 points,  8 beta functions with:
                l(1) =   0
                l(2) =   0
                l(3) =   1
                l(4) =   1
                l(5) =   2
                l(6) =   2
                l(7) =   3
                l(8) =   3
     Q(r) pseudized with  8 coefficients,  rinner =    1.700   1.700   1.700
                                                       1.700   1.700   1.700
                                                       1.700

     PseudoPot. # 2 for Tl read from file:
     /home/users/vossj/suncat/psp/gbrv1.5pbe/Tl.UPF
     MD5 check sum: b76cf1f7e72655a2b2c53cf6385d7059
     Pseudo is Ultrasoft + core correction, Zval = 13.0
     Generated by new atomic code, or converted to UPF format
     Using radial grid of  899 points,  6 beta functions with:
                l(1) =   0
                l(2) =   0
                l(3) =   1
                l(4) =   1
                l(5) =   2
                l(6) =   2
     Q(r) pseudized with  6 coefficients,  rinner =    1.100   1.100   1.100
                                                       1.100   1.100

     vdW kernel table read from file vdW_kernel_table
     MD5 check sum: 095c7af220d748ca6e76c0b4c6cfb241

     atomic species   valence    mass     pseudopotential
        La1           11.00   138.90550     La( 1.00)
        Tl1           13.00   204.38300     Tl( 1.00)

     16 Sym. Ops., with inversion, found

   Cartesian axes

     site n.     atom                  positions (alat units)
         1           La1 tau(   1) = (   0.0000000   0.0000000   0.0000000  )
         2           La1 tau(   2) = (   2.7423606   2.7423606   0.0000000  )
         3           Tl1 tau(   3) = (   2.7423606   0.0000000   2.1940143  )
         4           Tl1 tau(   4) = (   0.0000000   2.7423606   2.1940143  )

     number of k points=    75  Fermi-Dirac smearing, width (Ry)=  0.0073
                       cart. coord. in units 2pi/alat
        k(    1) = (   0.0000000   0.0000000   0.0000000), wk =   0.0027435
        k(    2) = (   0.0000000   0.0000000   0.0253214), wk =   0.0054870
        k(    3) = (   0.0000000   0.0000000   0.0506428), wk =   0.0054870
        k(    4) = (   0.0000000   0.0000000   0.0759643), wk =   0.0054870
        k(    5) = (   0.0000000   0.0000000   0.1012857), wk =   0.0054870
        k(    6) = (   0.0000000   0.0202583   0.0000000), wk =   0.0109739
        k(    7) = (   0.0000000   0.0202583   0.0253214), wk =   0.0219479
        k(    8) = (   0.0000000   0.0202583   0.0506428), wk =   0.0219479
        k(    9) = (   0.0000000   0.0202583   0.0759643), wk =   0.0219479
        k(   10) = (   0.0000000   0.0202583   0.1012857), wk =   0.0219479
        k(   11) = (   0.0000000   0.0405166   0.0000000), wk =   0.0109739
        k(   12) = (   0.0000000   0.0405166   0.0253214), wk =   0.0219479
        k(   13) = (   0.0000000   0.0405166   0.0506428), wk =   0.0219479
        k(   14) = (   0.0000000   0.0405166   0.0759643), wk =   0.0219479
        k(   15) = (   0.0000000   0.0405166   0.1012857), wk =   0.0219479
        k(   16) = (   0.0000000   0.0607749   0.0000000), wk =   0.0109739
        k(   17) = (   0.0000000   0.0607749   0.0253214), wk =   0.0219479
        k(   18) = (   0.0000000   0.0607749   0.0506428), wk =   0.0219479
        k(   19) = (   0.0000000   0.0607749   0.0759643), wk =   0.0219479
        k(   20) = (   0.0000000   0.0607749   0.1012857), wk =   0.0219479
        k(   21) = (   0.0000000   0.0810332   0.0000000), wk =   0.0109739
        k(   22) = (   0.0000000   0.0810332   0.0253214), wk =   0.0219479
        k(   23) = (   0.0000000   0.0810332   0.0506428), wk =   0.0219479
        k(   24) = (   0.0000000   0.0810332   0.0759643), wk =   0.0219479
        k(   25) = (   0.0000000   0.0810332   0.1012857), wk =   0.0219479
        k(   26) = (   0.0202583   0.0202583   0.0000000), wk =   0.0109739
        k(   27) = (   0.0202583   0.0202583   0.0253214), wk =   0.0219479
        k(   28) = (   0.0202583   0.0202583   0.0506428), wk =   0.0219479
        k(   29) = (   0.0202583   0.0202583   0.0759643), wk =   0.0219479
        k(   30) = (   0.0202583   0.0202583   0.1012857), wk =   0.0219479
        k(   31) = (   0.0202583   0.0405166   0.0000000), wk =   0.0219479
        k(   32) = (   0.0202583   0.0405166   0.0253214), wk =   0.0438957
        k(   33) = (   0.0202583   0.0405166   0.0506428), wk =   0.0438957
        k(   34) = (   0.0202583   0.0405166   0.0759643), wk =   0.0438957
        k(   35) = (   0.0202583   0.0405166   0.1012857), wk =   0.0438957
        k(   36) = (   0.0202583   0.0607749   0.0000000), wk =   0.0219479
        k(   37) = (   0.0202583   0.0607749   0.0253214), wk =   0.0438957
        k(   38) = (   0.0202583   0.0607749   0.0506428), wk =   0.0438957
        k(   39) = (   0.0202583   0.0607749   0.0759643), wk =   0.0438957
        k(   40) = (   0.0202583   0.0607749   0.1012857), wk =   0.0438957
        k(   41) = (   0.0202583   0.0810332   0.0000000), wk =   0.0219479
        k(   42) = (   0.0202583   0.0810332   0.0253214), wk =   0.0438957
        k(   43) = (   0.0202583   0.0810332   0.0506428), wk =   0.0438957
        k(   44) = (   0.0202583   0.0810332   0.0759643), wk =   0.0438957
        k(   45) = (   0.0202583   0.0810332   0.1012857), wk =   0.0438957
        k(   46) = (   0.0405166   0.0405166   0.0000000), wk =   0.0109739
        k(   47) = (   0.0405166   0.0405166   0.0253214), wk =   0.0219479
        k(   48) = (   0.0405166   0.0405166   0.0506428), wk =   0.0219479
        k(   49) = (   0.0405166   0.0405166   0.0759643), wk =   0.0219479
        k(   50) = (   0.0405166   0.0405166   0.1012857), wk =   0.0219479
        k(   51) = (   0.0405166   0.0607749   0.0000000), wk =   0.0219479
        k(   52) = (   0.0405166   0.0607749   0.0253214), wk =   0.0438957
        k(   53) = (   0.0405166   0.0607749   0.0506428), wk =   0.0438957
        k(   54) = (   0.0405166   0.0607749   0.0759643), wk =   0.0438957
        k(   55) = (   0.0405166   0.0607749   0.1012857), wk =   0.0438957
        k(   56) = (   0.0405166   0.0810332   0.0000000), wk =   0.0219479
        k(   57) = (   0.0405166   0.0810332   0.0253214), wk =   0.0438957
        k(   58) = (   0.0405166   0.0810332   0.0506428), wk =   0.0438957
        k(   59) = (   0.0405166   0.0810332   0.0759643), wk =   0.0438957
        k(   60) = (   0.0405166   0.0810332   0.1012857), wk =   0.0438957
        k(   61) = (   0.0607749   0.0607749   0.0000000), wk =   0.0109739
        k(   62) = (   0.0607749   0.0607749   0.0253214), wk =   0.0219479
        k(   63) = (   0.0607749   0.0607749   0.0506428), wk =   0.0219479
        k(   64) = (   0.0607749   0.0607749   0.0759643), wk =   0.0219479
        k(   65) = (   0.0607749   0.0607749   0.1012857), wk =   0.0219479
        k(   66) = (   0.0607749   0.0810332   0.0000000), wk =   0.0219479
        k(   67) = (   0.0607749   0.0810332   0.0253214), wk =   0.0438957
        k(   68) = (   0.0607749   0.0810332   0.0506428), wk =   0.0438957
        k(   69) = (   0.0607749   0.0810332   0.0759643), wk =   0.0438957
        k(   70) = (   0.0607749   0.0810332   0.1012857), wk =   0.0438957
        k(   71) = (   0.0810332   0.0810332   0.0000000), wk =   0.0109739
        k(   72) = (   0.0810332   0.0810332   0.0253214), wk =   0.0219479
        k(   73) = (   0.0810332   0.0810332   0.0506428), wk =   0.0219479
        k(   74) = (   0.0810332   0.0810332   0.0759643), wk =   0.0219479
        k(   75) = (   0.0810332   0.0810332   0.1012857), wk =   0.0219479

     Largest allocated arrays     est. size (Mb)     dimensions
     Largest temporary arrays     est. size (Mb)     dimensions

     Initial potential from superposition of free atoms
     Check: negative starting charge=   -0.238394

     starting charge   47.92613, renormalised to   48.00000

     negative rho (up, down):  2.388E-01 0.000E+00

     *
     * You are using vdW-DF for exchange-correlation in this calculation.
     * Please cite the following three references that made this development
     * possible:
     *
     *   M. Dion, H. Rydberg, E. Schroder, D. C. Langreth, and
     *   B. I. Lundqvist, Phys. Rev. Lett. 92, 246401 (2004).
     *
     *   T. Thonhauser, V. R. Cooper, S. Li, A. Puzder, P. Hyldgaard, and
     *   D. C. Langreth, Phys. Rev. B 76, 125112 (2007).
     *
     *   G. Roman-Perez and J. M. Soler, Phys. Rev. Lett. 103, 096102 (2009).
     *
     *
     * If you are using vdW-DF2, please also cite:
     *
     *   K. Lee, E. D. Murray, L. Kong, B. I. Lundqvist, and
     *   D. C. Langreth, Phys. Rev. B 82, 081101(R) (2010).
     *
     *
     * If you are calculating the stress with vdW-DF, please also cite:
     *
     *   R. Sabatini, E. Kucukbenli, B. Kolb, T. Thonhauser, and
     *   S. de Gironcoli, J. Phys.: Condens. Matter 24, 424209 (2012).
     *

     Carrying out vdW-DF run using the following parameters:

     Nqs =      20    Nr_points =    1024   r_max =   100.000
     q_mesh =
               0.00001000     0.04494208     0.09755937     0.15916263
               0.23128650     0.31572767     0.41458969     0.53033537
               0.66584808     0.82450364     1.01025438     1.22772762
               1.48234092     1.78043706     2.12944203     2.53805004
               3.01644009     3.57652955     4.23227104     5.00000000

     Gradients computed in reciprocal space

     Starting wfc are   58 randomized atomic wfcs

     Self-consistent Calculation

     iteration #  1     ecut=    58.80 Ry     beta=0.10
     Davidson diagonalization with overlap
     ethr =  1.00E-02,  avg # of iterations =  1.7

     Threshold (ethr) on eigenvalues was too large:
     Diagonalizing with lowered threshold

     Davidson diagonalization with overlap
     ethr =  1.54E-04,  avg # of iterations =  3.3

[...]

     total energy              =    -501.80909894 Ry
     Harris-Foulkes estimate   =    -501.81841540 Ry
     estimated scf accuracy    <       0.07320125 Ry

[...]

     total energy              =    -501.80952265 Ry
     Harris-Foulkes estimate   =    -501.80915440 Ry
     estimated scf accuracy    <       0.00000956 Ry

     iteration # 10     ecut=    58.80 Ry     beta=0.10
     Davidson diagonalization with overlap
     ethr =  1.99E-08,  avg # of iterations =  2.5

     negative rho (up, down):  2.059E-01 0.000E+00

     End of self-consistent calculation

          k = 0.0000 0.0000 0.0000 (  6733 PWs)   bands (ev):

   -22.5727 -22.4892  -6.3574  -6.3574  -6.0836  -5.9606  -5.8846  -5.8846
    -0.7729  -0.7606  -0.7121  -0.7121  -0.7053  -0.6292  -0.6292  -0.6010
    -0.5979  -0.4566   3.1719   5.1997  10.5031  10.5031  10.5658  10.5727
    11.4861  11.7919  11.9432  12.1980  12.1980  12.2091  12.2646  12.2646
    12.3162  12.3162  12.4514  12.5279  12.5305  12.5765  12.5765  12.6622
    12.6622  13.4330  13.7520  14.3070

[...]

          k = 0.0810 0.0810 0.1013 (  6754 PWs)   bands (ev):

   -22.5228 -22.5203  -6.4115  -6.3982  -6.2012  -6.1962  -5.8349  -5.8194
    -0.7215  -0.7211  -0.6878  -0.6802  -0.6746  -0.6730  -0.6466  -0.6454
    -0.5018  -0.4967   4.6543   4.6902   9.9220   9.9564  10.4627  10.5611
    11.0271  11.1648  12.1718  12.1964  12.2162  12.2200  12.2213  12.2357
    12.4289  12.4340  12.4915  12.4937  12.5585  12.5605  12.5659  12.5812
    13.2194  13.3106  13.6521  13.7591

     the Fermi energy is    10.8876 ev

!    total energy              =    -501.81104761 Ry
     Harris-Foulkes estimate   =    -501.80952525 Ry
     estimated scf accuracy    <       0.00000055 Ry

     The total energy is the sum of the following terms:

     one-electron contribution =     -58.08622590 Ry
     hartree contribution      =      61.30779059 Ry
     xc contribution           =    -229.52216820 Ry
     ewald contribution        =    -275.50063008 Ry
     smearing contrib. (-TS)   =      -0.00981402 Ry

     convergence has been achieved in  10 iterations

     Forces acting on atoms (Ry/au):

     negative rho (up, down):  2.059E-01 0.000E+00
     atom    1 type  1   force =     0.00000000    0.00000000    0.00000000
     atom    2 type  1   force =     0.00000000    0.00000000    0.00000000
     atom    3 type  2   force =     0.00000000    0.00000000    0.00000000
     atom    4 type  2   force =     0.00000000    0.00000000    0.00000000

     Total force =     0.000000     Total SCF correction =     0.000000

     General routines

     Parallel routines

   This run was terminated on:  15: 1:51  14Nov2017

   JOB DONE.