     Program PWSCF v.5.1rc2 starts on 13Nov2017 at 18:38:54

     Current dimensions of program PWSCF are:
     Max number of different atomic species (ntypx) = 10
     Max number of k-points (npk) =  40000
     Max angular momentum in pseudopotentials (lmaxx) =  3

     IMPORTANT: XC functional enforced from input :
     Exchange-correlation      = BEEF-VDW ( 1  4 27 13 2)
     Any further DFT definition will be discarded
     Please, verify this is what you really want

     Found symmetry operation: I + ( -0.5000 -0.5000  0.0000)
     This is a supercell, fractional translations are disabled

     bravais-lattice index     =            0
     lattice parameter (alat)  =       1.8897  a.u.
     unit-cell volume          =     535.9155 (a.u.)^3
     number of atoms/cell      =            4
     number of atomic types    =            2
     number of electrons       =        62.00
     number of Kohn-Sham states=           51
     kinetic-energy cutoff     =      58.7989  Ry
     charge density cutoff     =     587.9892  Ry
     convergence threshold     =      1.0E-06
     mixing beta               =       0.1000
     number of iterations used =           10  plain     mixing
     Exchange-correlation      = BEEF-VDW ( 1  4 27 13 2)

     celldm(1)=   1.889726  celldm(2)=   0.000000  celldm(3)=   0.000000
     celldm(4)=   0.000000  celldm(5)=   0.000000  celldm(6)=   0.000000

     crystal axes: (cart. coord. in units of alat)
               a(1) = (   4.254276   0.000000   0.000000 )
               a(2) = (   0.000000   4.254276   0.000000 )
               a(3) = (   0.000000   0.000000   4.387816 )

     reciprocal axes: (cart. coord. in units 2 pi/alat)
               b(1) = (  0.235058  0.000000  0.000000 )
               b(2) = (  0.000000  0.235058  0.000000 )
               b(3) = (  0.000000  0.000000  0.227904 )

     PseudoPot. # 1 for Ag read from file:
     /home/users/vossj/suncat/psp/gbrv1.5pbe/Ag.UPF
     MD5 check sum: d66d668201baa78d5eb5b04ef7011058
     Pseudo is Ultrasoft + core correction, Zval = 19.0
     Generated by new atomic code, or converted to UPF format
     Using radial grid of  887 points,  6 beta functions with:
                l(1) =   0
                l(2) =   0
                l(3) =   1
                l(4) =   1
                l(5) =   2
                l(6) =   2
     Q(r) pseudized with  6 coefficients,  rinner =    1.300   1.300   1.300
                                                       1.300   1.300

     PseudoPot. # 2 for Hf read from file:
     /home/users/vossj/suncat/psp/gbrv1.5pbe/Hf.UPF
     MD5 check sum: 8ee9378dfe14276e333edf04c5e4aa26
     Pseudo is Ultrasoft + core correction, Zval = 12.0
     Generated by new atomic code, or converted to UPF format
     Using radial grid of  921 points,  8 beta functions with:
                l(1) =   0
                l(2) =   0
                l(3) =   0
                l(4) =   1
                l(5) =   1
                l(6) =   2
                l(7) =   2
                l(8) =   3
     Q(r) pseudized with  6 coefficients,  rinner =    1.200   1.200   1.200
                                                       1.200   1.200   1.200
                                                       1.200

     vdW kernel table read from file vdW_kernel_table
     MD5 check sum: 095c7af220d748ca6e76c0b4c6cfb241

     atomic species   valence    mass     pseudopotential
        Ag1           19.00   107.86800     Ag( 1.00)
        Hf1           12.00   178.49000     Hf( 1.00)

     16 Sym. Ops., with inversion, found

   Cartesian axes

     site n.     atom                  positions (alat units)
         1           Ag1 tau(   1) = (   0.0000000   0.0000000   0.0000000  )
         2           Ag1 tau(   2) = (   2.1271379   2.1271379   0.0000000  )
         3           Hf1 tau(   3) = (   2.1271379   0.0000000   2.1939082  )
         4           Hf1 tau(   4) = (   0.0000000   2.1271379   2.1939082  )

     number of k points=    75  Fermi-Dirac smearing, width (Ry)=  0.0073
                       cart. coord. in units 2pi/alat
        k(    1) = (   0.0000000   0.0000000   0.0000000), wk =   0.0027435
        k(    2) = (   0.0000000   0.0000000   0.0253226), wk =   0.0054870
        k(    3) = (   0.0000000   0.0000000   0.0506453), wk =   0.0054870
        k(    4) = (   0.0000000   0.0000000   0.0759679), wk =   0.0054870
        k(    5) = (   0.0000000   0.0000000   0.1012906), wk =   0.0054870
        k(    6) = (   0.0000000   0.0261175   0.0000000), wk =   0.0109739
        k(    7) = (   0.0000000   0.0261175   0.0253226), wk =   0.0219479
        k(    8) = (   0.0000000   0.0261175   0.0506453), wk =   0.0219479
        k(    9) = (   0.0000000   0.0261175   0.0759679), wk =   0.0219479
        k(   10) = (   0.0000000   0.0261175   0.1012906), wk =   0.0219479
        k(   11) = (   0.0000000   0.0522350   0.0000000), wk =   0.0109739
        k(   12) = (   0.0000000   0.0522350   0.0253226), wk =   0.0219479
        k(   13) = (   0.0000000   0.0522350   0.0506453), wk =   0.0219479
        k(   14) = (   0.0000000   0.0522350   0.0759679), wk =   0.0219479
        k(   15) = (   0.0000000   0.0522350   0.1012906), wk =   0.0219479
        k(   16) = (   0.0000000   0.0783525   0.0000000), wk =   0.0109739
        k(   17) = (   0.0000000   0.0783525   0.0253226), wk =   0.0219479
        k(   18) = (   0.0000000   0.0783525   0.0506453), wk =   0.0219479
        k(   19) = (   0.0000000   0.0783525   0.0759679), wk =   0.0219479
        k(   20) = (   0.0000000   0.0783525   0.1012906), wk =   0.0219479
        k(   21) = (   0.0000000   0.1044701   0.0000000), wk =   0.0109739
        k(   22) = (   0.0000000   0.1044701   0.0253226), wk =   0.0219479
        k(   23) = (   0.0000000   0.1044701   0.0506453), wk =   0.0219479
        k(   24) = (   0.0000000   0.1044701   0.0759679), wk =   0.0219479
        k(   25) = (   0.0000000   0.1044701   0.1012906), wk =   0.0219479
        k(   26) = (   0.0261175   0.0261175   0.0000000), wk =   0.0109739
        k(   27) = (   0.0261175   0.0261175   0.0253226), wk =   0.0219479
        k(   28) = (   0.0261175   0.0261175   0.0506453), wk =   0.0219479
        k(   29) = (   0.0261175   0.0261175   0.0759679), wk =   0.0219479
        k(   30) = (   0.0261175   0.0261175   0.1012906), wk =   0.0219479
        k(   31) = (   0.0261175   0.0522350   0.0000000), wk =   0.0219479
        k(   32) = (   0.0261175   0.0522350   0.0253226), wk =   0.0438957
        k(   33) = (   0.0261175   0.0522350   0.0506453), wk =   0.0438957
        k(   34) = (   0.0261175   0.0522350   0.0759679), wk =   0.0438957
        k(   35) = (   0.0261175   0.0522350   0.1012906), wk =   0.0438957
        k(   36) = (   0.0261175   0.0783525   0.0000000), wk =   0.0219479
        k(   37) = (   0.0261175   0.0783525   0.0253226), wk =   0.0438957
        k(   38) = (   0.0261175   0.0783525   0.0506453), wk =   0.0438957
        k(   39) = (   0.0261175   0.0783525   0.0759679), wk =   0.0438957
        k(   40) = (   0.0261175   0.0783525   0.1012906), wk =   0.0438957
        k(   41) = (   0.0261175   0.1044701   0.0000000), wk =   0.0219479
        k(   42) = (   0.0261175   0.1044701   0.0253226), wk =   0.0438957
        k(   43) = (   0.0261175   0.1044701   0.0506453), wk =   0.0438957
        k(   44) = (   0.0261175   0.1044701   0.0759679), wk =   0.0438957
        k(   45) = (   0.0261175   0.1044701   0.1012906), wk =   0.0438957
        k(   46) = (   0.0522350   0.0522350   0.0000000), wk =   0.0109739
        k(   47) = (   0.0522350   0.0522350   0.0253226), wk =   0.0219479
        k(   48) = (   0.0522350   0.0522350   0.0506453), wk =   0.0219479
        k(   49) = (   0.0522350   0.0522350   0.0759679), wk =   0.0219479
        k(   50) = (   0.0522350   0.0522350   0.1012906), wk =   0.0219479
        k(   51) = (   0.0522350   0.0783525   0.0000000), wk =   0.0219479
        k(   52) = (   0.0522350   0.0783525   0.0253226), wk =   0.0438957
        k(   53) = (   0.0522350   0.0783525   0.0506453), wk =   0.0438957
        k(   54) = (   0.0522350   0.0783525   0.0759679), wk =   0.0438957
        k(   55) = (   0.0522350   0.0783525   0.1012906), wk =   0.0438957
        k(   56) = (   0.0522350   0.1044701   0.0000000), wk =   0.0219479
        k(   57) = (   0.0522350   0.1044701   0.0253226), wk =   0.0438957
        k(   58) = (   0.0522350   0.1044701   0.0506453), wk =   0.0438957
        k(   59) = (   0.0522350   0.1044701   0.0759679), wk =   0.0438957
        k(   60) = (   0.0522350   0.1044701   0.1012906), wk =   0.0438957
        k(   61) = (   0.0783525   0.0783525   0.0000000), wk =   0.0109739
        k(   62) = (   0.0783525   0.0783525   0.0253226), wk =   0.0219479
        k(   63) = (   0.0783525   0.0783525   0.0506453), wk =   0.0219479
        k(   64) = (   0.0783525   0.0783525   0.0759679), wk =   0.0219479
        k(   65) = (   0.0783525   0.0783525   0.1012906), wk =   0.0219479
        k(   66) = (   0.0783525   0.1044701   0.0000000), wk =   0.0219479
        k(   67) = (   0.0783525   0.1044701   0.0253226), wk =   0.0438957
        k(   68) = (   0.0783525   0.1044701   0.0506453), wk =   0.0438957
        k(   69) = (   0.0783525   0.1044701   0.0759679), wk =   0.0438957
        k(   70) = (   0.0783525   0.1044701   0.1012906), wk =   0.0438957
        k(   71) = (   0.1044701   0.1044701   0.0000000), wk =   0.0109739
        k(   72) = (   0.1044701   0.1044701   0.0253226), wk =   0.0219479
        k(   73) = (   0.1044701   0.1044701   0.0506453), wk =   0.0219479
        k(   74) = (   0.1044701   0.1044701   0.0759679), wk =   0.0219479
        k(   75) = (   0.1044701   0.1044701   0.1012906), wk =   0.0219479

     Largest allocated arrays     est. size (Mb)     dimensions
     Largest temporary arrays     est. size (Mb)     dimensions

     Check: negative/imaginary core charge=   -0.000001    0.000000

     Initial potential from superposition of free atoms
     Check: negative starting charge=   -0.215578

     starting charge   56.99990, renormalised to   62.00000

     negative rho (up, down):  2.345E-01 0.000E+00

     *
     * You are using vdW-DF for exchange-correlation in this calculation.
     * Please cite the following three references that made this development
     * possible:
     *
     *   M. Dion, H. Rydberg, E. Schroder, D. C. Langreth, and
     *   B. I. Lundqvist, Phys. Rev. Lett. 92, 246401 (2004).
     *
     *   T. Thonhauser, V. R. Cooper, S. Li, A. Puzder, P. Hyldgaard, and
     *   D. C. Langreth, Phys. Rev. B 76, 125112 (2007).
     *
     *   G. Roman-Perez and J. M. Soler, Phys. Rev. Lett. 103, 096102 (2009).
     *
     *
     * If you are using vdW-DF2, please also cite:
     *
     *   K. Lee, E. D. Murray, L. Kong, B. I. Lundqvist, and
     *   D. C. Langreth, Phys. Rev. B 82, 081101(R) (2010).
     *
     *
     * If you are calculating the stress with vdW-DF, please also cite:
     *
     *   R. Sabatini, E. Kucukbenli, B. Kolb, T. Thonhauser, and
     *   S. de Gironcoli, J. Phys.: Condens. Matter 24, 424209 (2012).
     *

     Carrying out vdW-DF run using the following parameters:

     Nqs =      20    Nr_points =    1024   r_max =   100.000
     q_mesh =
               0.00001000     0.04494208     0.09755937     0.15916263
               0.23128650     0.31572767     0.41458969     0.53033537
               0.66584808     0.82450364     1.01025438     1.22772762
               1.48234092     1.78043706     2.12944203     2.53805004
               3.01644009     3.57652955     4.23227104     5.00000000

     Gradients computed in reciprocal space

     Starting wfc are   52 randomized atomic wfcs

     Self-consistent Calculation

     iteration #  1     ecut=    58.80 Ry     beta=0.10
     Davidson diagonalization with overlap
     ethr =  1.00E-02,  avg # of iterations =  4.3

[...]

     total energy              =    -911.25941949 Ry
     Harris-Foulkes estimate   =    -925.79986929 Ry
     estimated scf accuracy    <      83.98546973 Ry

[...]

     total energy              =    -914.51195506 Ry
     Harris-Foulkes estimate   =    -914.51195613 Ry
     estimated scf accuracy    <       0.00001609 Ry

     iteration # 19     ecut=    58.80 Ry     beta=0.10
     Davidson diagonalization with overlap
     ethr =  2.60E-08,  avg # of iterations =  2.0

     negative rho (up, down):  2.333E-01 0.000E+00

     End of self-consistent calculation

          k = 0.0000 0.0000 0.0000 (  4065 PWs)   bands (ev):

   -77.0450 -77.0389 -46.9364 -46.8614 -40.5319 -40.5226 -40.5180 -40.5180
   -40.4716 -40.4716 -15.6678 -15.6678 -15.5962 -15.4533 -15.0961 -15.0961
     8.0892   9.4629   9.6966   9.7379   9.9130   9.9130  10.2074  11.0099
    11.0099  11.5383  12.1055  14.2846  14.7986  15.0341  17.1520  17.5893
    17.5893  17.6223  17.6223  18.2229  19.8877  19.8877  21.3430  23.2195
    23.5367  24.2436  24.7854  25.8036  25.8036  25.9957  25.9957  26.1040
    27.5273  28.9281  32.6097

[...]

          k = 0.1045 0.1045 0.1013 (  4081 PWs)   bands (ev):

   -77.0421 -77.0419 -46.8996 -46.8973 -40.5276 -40.5273 -40.5227 -40.5213
   -40.4691 -40.4678 -15.7493 -15.7329 -15.5356 -15.5310 -15.0576 -15.0394
     9.5683   9.5740   9.9057   9.9597  10.7992  10.8075  10.8408  10.8997
    11.0693  11.0962  13.4952  13.8367  14.5615  14.7949  15.4020  15.5912
    15.7482  15.9659  18.8159  18.8976  18.9095  18.9102  20.0392  20.0720
    22.9470  23.0854  24.2906  24.3324  28.2011  28.2090  28.5521  28.7163
    30.3090  31.0161  31.3470

     the Fermi energy is    15.6375 ev

!    total energy              =    -914.51196059 Ry
     Harris-Foulkes estimate   =    -914.51195762 Ry
     estimated scf accuracy    <       0.00000060 Ry

     The total energy is the sum of the following terms:

     one-electron contribution =    -342.23577576 Ry
     hartree contribution      =     198.31001983 Ry
     xc contribution           =    -214.91342812 Ry
     ewald contribution        =    -555.66251056 Ry
     smearing contrib. (-TS)   =      -0.01026598 Ry

     convergence has been achieved in  19 iterations

     Forces acting on atoms (Ry/au):

     negative rho (up, down):  2.333E-01 0.000E+00
     atom    1 type  1   force =     0.00000000    0.00000000    0.00000000
     atom    2 type  1   force =     0.00000000    0.00000000    0.00000000
     atom    3 type  2   force =     0.00000000    0.00000000    0.00000000
     atom    4 type  2   force =     0.00000000    0.00000000    0.00000000

     Total force =     0.000000     Total SCF correction =     0.000000

     General routines

     Parallel routines

   This run was terminated on:  18:40: 3  13Nov2017

   JOB DONE.