     Program PWSCF v.5.1rc2 starts on 14Nov2017 at  9:25:15

     Current dimensions of program PWSCF are:
     Max number of different atomic species (ntypx) = 10
     Max number of k-points (npk) =  40000
     Max angular momentum in pseudopotentials (lmaxx) =  3

     IMPORTANT: XC functional enforced from input :
     Exchange-correlation      = BEEF-VDW ( 1  4 27 13 2)
     Any further DFT definition will be discarded
     Please, verify this is what you really want

     Found symmetry operation: I + ( -0.5000 -0.5000  0.0000)
     This is a supercell, fractional translations are disabled

     bravais-lattice index     =            0
     lattice parameter (alat)  =       1.8897  a.u.
     unit-cell volume          =     594.5078 (a.u.)^3
     number of atoms/cell      =            4
     number of atomic types    =            2
     number of electrons       =        66.00
     number of Kohn-Sham states=           53
     kinetic-energy cutoff     =      58.7989  Ry
     charge density cutoff     =     587.9892  Ry
     convergence threshold     =      1.0E-06
     mixing beta               =       0.1000
     number of iterations used =           10  plain     mixing
     Exchange-correlation      = BEEF-VDW ( 1  4 27 13 2)

     celldm(1)=   1.889726  celldm(2)=   0.000000  celldm(3)=   0.000000
     celldm(4)=   0.000000  celldm(5)=   0.000000  celldm(6)=   0.000000

     crystal axes: (cart. coord. in units of alat)
               a(1) = (   5.069440   0.000000   0.000000 )
               a(2) = (   0.000000   5.069440   0.000000 )
               a(3) = (   0.000000   0.000000   3.428001 )

     reciprocal axes: (cart. coord. in units 2 pi/alat)
               b(1) = (  0.197260  0.000000  0.000000 )
               b(2) = (  0.000000  0.197260  0.000000 )
               b(3) = (  0.000000  0.000000  0.291715 )

     PseudoPot. # 1 for Cu read from file:
     /home/users/vossj/suncat/psp/gbrv1.5pbe/Cu.UPF
     MD5 check sum: 6e991ff952a84172a2a52a1c1e996048
     Pseudo is Ultrasoft + core correction, Zval = 19.0
     Generated by new atomic code, or converted to UPF format
     Using radial grid of  867 points,  6 beta functions with:
                l(1) =   0
                l(2) =   0
                l(3) =   1
                l(4) =   1
                l(5) =   2
                l(6) =   2
     Q(r) pseudized with  8 coefficients,  rinner =    1.150   1.150   1.150
                                                       1.150   1.150

     PseudoPot. # 2 for Pb read from file:
     /home/users/vossj/suncat/psp/gbrv1.5pbe/Pb.UPF
     MD5 check sum: 3d1c1779aa92214d1e8f3a7db79003e2
     Pseudo is Ultrasoft + core correction, Zval = 14.0
     Generated by new atomic code, or converted to UPF format
     Using radial grid of  899 points,  6 beta functions with:
                l(1) =   0
                l(2) =   0
                l(3) =   1
                l(4) =   1
                l(5) =   2
                l(6) =   2
     Q(r) pseudized with  6 coefficients,  rinner =    1.000   1.000   1.000
                                                       1.000   1.000

     vdW kernel table read from file vdW_kernel_table
     MD5 check sum: 095c7af220d748ca6e76c0b4c6cfb241

     atomic species   valence    mass     pseudopotential
        Cu1           19.00    63.54600     Cu( 1.00)
        Pb1           14.00   207.20000     Pb( 1.00)

     16 Sym. Ops., with inversion, found

   Cartesian axes

     site n.     atom                  positions (alat units)
         1           Cu1 tau(   1) = (   0.0000000   0.0000000   0.0000000  )
         2           Cu1 tau(   2) = (   2.5347202   2.5347202   0.0000000  )
         3           Pb1 tau(   3) = (   2.5347202   0.0000000   1.7140004  )
         4           Pb1 tau(   4) = (   0.0000000   2.5347202   1.7140004  )

     number of k points=    75  Fermi-Dirac smearing, width (Ry)=  0.0073
                       cart. coord. in units 2pi/alat
        k(    1) = (   0.0000000   0.0000000   0.0000000), wk =   0.0027435
        k(    2) = (   0.0000000   0.0000000   0.0324128), wk =   0.0054870
        k(    3) = (   0.0000000   0.0000000   0.0648256), wk =   0.0054870
        k(    4) = (   0.0000000   0.0000000   0.0972384), wk =   0.0054870
        k(    5) = (   0.0000000   0.0000000   0.1296512), wk =   0.0054870
        k(    6) = (   0.0000000   0.0219178   0.0000000), wk =   0.0109739
        k(    7) = (   0.0000000   0.0219178   0.0324128), wk =   0.0219479
        k(    8) = (   0.0000000   0.0219178   0.0648256), wk =   0.0219479
        k(    9) = (   0.0000000   0.0219178   0.0972384), wk =   0.0219479
        k(   10) = (   0.0000000   0.0219178   0.1296512), wk =   0.0219479
        k(   11) = (   0.0000000   0.0438357   0.0000000), wk =   0.0109739
        k(   12) = (   0.0000000   0.0438357   0.0324128), wk =   0.0219479
        k(   13) = (   0.0000000   0.0438357   0.0648256), wk =   0.0219479
        k(   14) = (   0.0000000   0.0438357   0.0972384), wk =   0.0219479
        k(   15) = (   0.0000000   0.0438357   0.1296512), wk =   0.0219479
        k(   16) = (   0.0000000   0.0657535   0.0000000), wk =   0.0109739
        k(   17) = (   0.0000000   0.0657535   0.0324128), wk =   0.0219479
        k(   18) = (   0.0000000   0.0657535   0.0648256), wk =   0.0219479
        k(   19) = (   0.0000000   0.0657535   0.0972384), wk =   0.0219479
        k(   20) = (   0.0000000   0.0657535   0.1296512), wk =   0.0219479
        k(   21) = (   0.0000000   0.0876713   0.0000000), wk =   0.0109739
        k(   22) = (   0.0000000   0.0876713   0.0324128), wk =   0.0219479
        k(   23) = (   0.0000000   0.0876713   0.0648256), wk =   0.0219479
        k(   24) = (   0.0000000   0.0876713   0.0972384), wk =   0.0219479
        k(   25) = (   0.0000000   0.0876713   0.1296512), wk =   0.0219479
        k(   26) = (   0.0219178   0.0219178   0.0000000), wk =   0.0109739
        k(   27) = (   0.0219178   0.0219178   0.0324128), wk =   0.0219479
        k(   28) = (   0.0219178   0.0219178   0.0648256), wk =   0.0219479
        k(   29) = (   0.0219178   0.0219178   0.0972384), wk =   0.0219479
        k(   30) = (   0.0219178   0.0219178   0.1296512), wk =   0.0219479
        k(   31) = (   0.0219178   0.0438357   0.0000000), wk =   0.0219479
        k(   32) = (   0.0219178   0.0438357   0.0324128), wk =   0.0438957
        k(   33) = (   0.0219178   0.0438357   0.0648256), wk =   0.0438957
        k(   34) = (   0.0219178   0.0438357   0.0972384), wk =   0.0438957
        k(   35) = (   0.0219178   0.0438357   0.1296512), wk =   0.0438957
        k(   36) = (   0.0219178   0.0657535   0.0000000), wk =   0.0219479
        k(   37) = (   0.0219178   0.0657535   0.0324128), wk =   0.0438957
        k(   38) = (   0.0219178   0.0657535   0.0648256), wk =   0.0438957
        k(   39) = (   0.0219178   0.0657535   0.0972384), wk =   0.0438957
        k(   40) = (   0.0219178   0.0657535   0.1296512), wk =   0.0438957
        k(   41) = (   0.0219178   0.0876713   0.0000000), wk =   0.0219479
        k(   42) = (   0.0219178   0.0876713   0.0324128), wk =   0.0438957
        k(   43) = (   0.0219178   0.0876713   0.0648256), wk =   0.0438957
        k(   44) = (   0.0219178   0.0876713   0.0972384), wk =   0.0438957
        k(   45) = (   0.0219178   0.0876713   0.1296512), wk =   0.0438957
        k(   46) = (   0.0438357   0.0438357   0.0000000), wk =   0.0109739
        k(   47) = (   0.0438357   0.0438357   0.0324128), wk =   0.0219479
        k(   48) = (   0.0438357   0.0438357   0.0648256), wk =   0.0219479
        k(   49) = (   0.0438357   0.0438357   0.0972384), wk =   0.0219479
        k(   50) = (   0.0438357   0.0438357   0.1296512), wk =   0.0219479
        k(   51) = (   0.0438357   0.0657535   0.0000000), wk =   0.0219479
        k(   52) = (   0.0438357   0.0657535   0.0324128), wk =   0.0438957
        k(   53) = (   0.0438357   0.0657535   0.0648256), wk =   0.0438957
        k(   54) = (   0.0438357   0.0657535   0.0972384), wk =   0.0438957
        k(   55) = (   0.0438357   0.0657535   0.1296512), wk =   0.0438957
        k(   56) = (   0.0438357   0.0876713   0.0000000), wk =   0.0219479
        k(   57) = (   0.0438357   0.0876713   0.0324128), wk =   0.0438957
        k(   58) = (   0.0438357   0.0876713   0.0648256), wk =   0.0438957
        k(   59) = (   0.0438357   0.0876713   0.0972384), wk =   0.0438957
        k(   60) = (   0.0438357   0.0876713   0.1296512), wk =   0.0438957
        k(   61) = (   0.0657535   0.0657535   0.0000000), wk =   0.0109739
        k(   62) = (   0.0657535   0.0657535   0.0324128), wk =   0.0219479
        k(   63) = (   0.0657535   0.0657535   0.0648256), wk =   0.0219479
        k(   64) = (   0.0657535   0.0657535   0.0972384), wk =   0.0219479
        k(   65) = (   0.0657535   0.0657535   0.1296512), wk =   0.0219479
        k(   66) = (   0.0657535   0.0876713   0.0000000), wk =   0.0219479
        k(   67) = (   0.0657535   0.0876713   0.0324128), wk =   0.0438957
        k(   68) = (   0.0657535   0.0876713   0.0648256), wk =   0.0438957
        k(   69) = (   0.0657535   0.0876713   0.0972384), wk =   0.0438957
        k(   70) = (   0.0657535   0.0876713   0.1296512), wk =   0.0438957
        k(   71) = (   0.0876713   0.0876713   0.0000000), wk =   0.0109739
        k(   72) = (   0.0876713   0.0876713   0.0324128), wk =   0.0219479
        k(   73) = (   0.0876713   0.0876713   0.0648256), wk =   0.0219479
        k(   74) = (   0.0876713   0.0876713   0.0972384), wk =   0.0219479
        k(   75) = (   0.0876713   0.0876713   0.1296512), wk =   0.0219479

     Largest allocated arrays     est. size (Mb)     dimensions
     Largest temporary arrays     est. size (Mb)     dimensions

     Check: negative/imaginary core charge=   -0.000001    0.000000

     Initial potential from superposition of free atoms
     Check: negative starting charge=   -0.032089

     starting charge   63.99529, renormalised to   66.00000

     negative rho (up, down):  3.309E-02 0.000E+00

     *
     * You are using vdW-DF for exchange-correlation in this calculation.
     * Please cite the following three references that made this development
     * possible:
     *
     *   M. Dion, H. Rydberg, E. Schroder, D. C. Langreth, and
     *   B. I. Lundqvist, Phys. Rev. Lett. 92, 246401 (2004).
     *
     *   T. Thonhauser, V. R. Cooper, S. Li, A. Puzder, P. Hyldgaard, and
     *   D. C. Langreth, Phys. Rev. B 76, 125112 (2007).
     *
     *   G. Roman-Perez and J. M. Soler, Phys. Rev. Lett. 103, 096102 (2009).
     *
     *
     * If you are using vdW-DF2, please also cite:
     *
     *   K. Lee, E. D. Murray, L. Kong, B. I. Lundqvist, and
     *   D. C. Langreth, Phys. Rev. B 82, 081101(R) (2010).
     *
     *
     * If you are calculating the stress with vdW-DF, please also cite:
     *
     *   R. Sabatini, E. Kucukbenli, B. Kolb, T. Thonhauser, and
     *   S. de Gironcoli, J. Phys.: Condens. Matter 24, 424209 (2012).
     *

     Carrying out vdW-DF run using the following parameters:

     Nqs =      20    Nr_points =    1024   r_max =   100.000
     q_mesh =
               0.00001000     0.04494208     0.09755937     0.15916263
               0.23128650     0.31572767     0.41458969     0.53033537
               0.66584808     0.82450364     1.01025438     1.22772762
               1.48234092     1.78043706     2.12944203     2.53805004
               3.01644009     3.57652955     4.23227104     5.00000000

     Gradients computed in reciprocal space

     Starting wfc are   44 randomized atomic wfcs +    9 random wfc

     Self-consistent Calculation

     iteration #  1     ecut=    58.80 Ry     beta=0.10
     Davidson diagonalization with overlap
     ethr =  1.00E-02,  avg # of iterations =  5.1

[...]

     total energy              =   -1142.06657084 Ry
     Harris-Foulkes estimate   =   -1142.17927076 Ry
     estimated scf accuracy    <       0.69246335 Ry

[...]

     total energy              =   -1141.89703866 Ry
     Harris-Foulkes estimate   =   -1141.89686603 Ry
     estimated scf accuracy    <       0.00000154 Ry

     iteration # 12     ecut=    58.80 Ry     beta=0.10
     Davidson diagonalization with overlap
     ethr =  2.33E-09,  avg # of iterations =  2.4

     negative rho (up, down):  3.552E-02 0.000E+00

     End of self-consistent calculation

          k = 0.0000 0.0000 0.0000 (  4539 PWs)   bands (ev):

  -100.6789-100.6783 -58.0927 -58.0927 -58.0920 -58.0920 -58.0855 -58.0849
    -5.6157  -5.5555  -5.5207  -5.5030  -5.3844  -5.3844  -5.3399  -5.3288
    -5.3288  -5.2438   0.6983   3.8812   8.7487   8.7487   8.8306   8.8597
     8.8694   9.2048   9.2048   9.2617   9.2967   9.2967   9.4047   9.6589
    11.1864  13.6049  13.6049  13.9717  14.6462  18.5914  18.8680  19.5229
    21.3585  21.4499  21.4499  22.2752  22.3411  23.9521  25.1210  25.1210
    25.2604  25.2604  25.9827  26.0038  26.6775

[...]

          k = 0.0877 0.0877 0.1297 (  4520 PWs)   bands (ev):

  -100.6788-100.6783 -58.0927 -58.0927 -58.0919 -58.0919 -58.0865 -58.0860
    -5.5227  -5.5204  -5.4478  -5.4400  -5.4215  -5.4191  -5.3972  -5.3927
    -5.2308  -5.2257   4.0932   4.1897   8.4694   8.6132   8.7589   8.8960
     9.0156   9.0786   9.1499   9.1659   9.2591   9.2802   9.4861   9.5311
     9.7947   9.8489  11.7739  11.9487  17.4726  17.7865  19.8989  20.2173
    20.2577  20.4398  20.6337  20.7099  22.2670  22.2740  23.4459  23.5703
    24.3555  24.7238  24.7649  24.8475  25.3377

     the Fermi energy is    11.7893 ev

!    total energy              =   -1141.89776299 Ry
     Harris-Foulkes estimate   =   -1141.89703908 Ry
     estimated scf accuracy    <       0.00000039 Ry

     The total energy is the sum of the following terms:

     one-electron contribution =    -741.24602819 Ry
     hartree contribution      =     411.51758639 Ry
     xc contribution           =    -210.75168689 Ry
     ewald contribution        =    -601.41346672 Ry
     smearing contrib. (-TS)   =      -0.00416758 Ry

     convergence has been achieved in  12 iterations

     Forces acting on atoms (Ry/au):

     negative rho (up, down):  3.552E-02 0.000E+00
     atom    1 type  1   force =     0.00000000    0.00000000    0.00000000
     atom    2 type  1   force =     0.00000000    0.00000000    0.00000000
     atom    3 type  2   force =     0.00000000    0.00000000    0.00000000
     atom    4 type  2   force =     0.00000000    0.00000000    0.00000000

     Total force =     0.000000     Total SCF correction =     0.000000

     General routines

     Parallel routines

   This run was terminated on:   9:26:16  14Nov2017

   JOB DONE.