     Program PWSCF v.5.1rc2 (svn rev. ) starts on 23Oct2017 at 14: 0:58

     Current dimensions of program PWSCF are:
     Max number of different atomic species (ntypx) = 10
     Max number of k-points (npk) =  40000
     Max angular momentum in pseudopotentials (lmaxx) =  3

     IMPORTANT: XC functional enforced from input :
     Exchange-correlation      = BEEF-VDW ( 1  4 27 13 2)
     Any further DFT definition will be discarded
     Please, verify this is what you really want

     Subspace diagonalization in iterative solution of the eigenvalue problem:
     a serial algorithm will be used

     Found symmetry operation: I + (  0.0000 -0.5000 -0.5000)
     This is a supercell, fractional translations are disabled

     bravais-lattice index     =            0
     lattice parameter (alat)  =       1.8897  a.u.
     unit-cell volume          =     828.3101 (a.u.)^3
     number of atoms/cell      =            4
     number of atomic types    =            1
     number of electrons       =        44.00
     number of Kohn-Sham states=           42
     kinetic-energy cutoff     =      58.7989  Ry
     charge density cutoff     =     587.9892  Ry
     convergence threshold     =      7.3E-09
     mixing beta               =       0.1000
     number of iterations used =           10  local-TF  mixing
     Exchange-correlation      = BEEF-VDW ( 1  4 27 13 2)

     celldm(1)=   1.889726  celldm(2)=   0.000000  celldm(3)=   0.000000
     celldm(4)=   0.000000  celldm(5)=   0.000000  celldm(6)=   0.000000

     crystal axes: (cart. coord. in units of alat)
               a(1) = (   4.969722   0.000000   0.000000 )
               a(2) = (   0.000000   4.969722   0.000000 )
               a(3) = (   0.000000   0.000000   4.969722 )

     reciprocal axes: (cart. coord. in units 2 pi/alat)
               b(1) = (  0.201218  0.000000  0.000000 )
               b(2) = (  0.000000  0.201218  0.000000 )
               b(3) = (  0.000000  0.000000  0.201218 )

     PseudoPot. # 1 for Y  read from file:
     /home/vossj/suncat/psp/gbrv1.5pbe/Y.UPF
     MD5 check sum: d034151ed7554c50b6e82763ed42c788
     Pseudo is Ultrasoft + core correction, Zval = 11.0
     Generated by new atomic code, or converted to UPF format
     Using radial grid of  885 points,  6 beta functions with:
                l(1) =   0
                l(2) =   0
                l(3) =   1
                l(4) =   1
                l(5) =   2
                l(6) =   2
     Q(r) pseudized with  8 coefficients,  rinner =    1.200   1.200   1.200
                                                       1.200   1.200

     vdW kernel table read from file vdW_kernel_table
     MD5 check sum: 095c7af220d748ca6e76c0b4c6cfb241

     atomic species   valence    mass     pseudopotential
        Y1            11.00    88.90584     Y ( 1.00)

     48 Sym. Ops., with inversion, found

   Cartesian axes

     site n.     atom                  positions (alat units)
         1           Y1  tau(   1) = (   0.0000000   0.0000000   0.0000000  )
         2           Y1  tau(   2) = (   0.0000000   2.4848611   2.4848611  )
         3           Y1  tau(   3) = (   2.4848611   0.0000000   2.4848611  )
         4           Y1  tau(   4) = (   2.4848611   2.4848611   0.0000000  )

     number of k points=    84  Fermi-Dirac smearing, width (Ry)=  0.0073
                       cart. coord. in units 2pi/alat
        k(    1) = (   0.0000000   0.0000000   0.0000000), wk =   0.0011574
        k(    2) = (   0.0000000   0.0000000   0.0167682), wk =   0.0069444
        k(    3) = (   0.0000000   0.0000000   0.0335364), wk =   0.0069444
        k(    4) = (   0.0000000   0.0000000   0.0503046), wk =   0.0069444
        k(    5) = (   0.0000000   0.0000000   0.0670728), wk =   0.0069444
        k(    6) = (   0.0000000   0.0000000   0.0838410), wk =   0.0069444
        k(    7) = (   0.0000000   0.0000000  -0.1006092), wk =   0.0034722
        k(    8) = (   0.0000000   0.0167682   0.0167682), wk =   0.0138889
        k(    9) = (   0.0000000   0.0167682   0.0335364), wk =   0.0277778
        k(   10) = (   0.0000000   0.0167682   0.0503046), wk =   0.0277778
        k(   11) = (   0.0000000   0.0167682   0.0670728), wk =   0.0277778
        k(   12) = (   0.0000000   0.0167682   0.0838410), wk =   0.0277778
        k(   13) = (   0.0000000   0.0167682  -0.1006092), wk =   0.0138889
        k(   14) = (   0.0000000   0.0335364   0.0335364), wk =   0.0138889
        k(   15) = (   0.0000000   0.0335364   0.0503046), wk =   0.0277778
        k(   16) = (   0.0000000   0.0335364   0.0670728), wk =   0.0277778
        k(   17) = (   0.0000000   0.0335364   0.0838410), wk =   0.0277778
        k(   18) = (   0.0000000   0.0335364  -0.1006092), wk =   0.0138889
        k(   19) = (   0.0000000   0.0503046   0.0503046), wk =   0.0138889
        k(   20) = (   0.0000000   0.0503046   0.0670728), wk =   0.0277778
        k(   21) = (   0.0000000   0.0503046   0.0838410), wk =   0.0277778
        k(   22) = (   0.0000000   0.0503046  -0.1006092), wk =   0.0138889
        k(   23) = (   0.0000000   0.0670728   0.0670728), wk =   0.0138889
        k(   24) = (   0.0000000   0.0670728   0.0838410), wk =   0.0277778
        k(   25) = (   0.0000000   0.0670728  -0.1006092), wk =   0.0138889
        k(   26) = (   0.0000000   0.0838410   0.0838410), wk =   0.0138889
        k(   27) = (   0.0000000   0.0838410  -0.1006092), wk =   0.0138889
        k(   28) = (   0.0000000  -0.1006092  -0.1006092), wk =   0.0034722
        k(   29) = (   0.0167682   0.0167682   0.0167682), wk =   0.0092593
        k(   30) = (   0.0167682   0.0167682   0.0335364), wk =   0.0277778
        k(   31) = (   0.0167682   0.0167682   0.0503046), wk =   0.0277778
        k(   32) = (   0.0167682   0.0167682   0.0670728), wk =   0.0277778
        k(   33) = (   0.0167682   0.0167682   0.0838410), wk =   0.0277778
        k(   34) = (   0.0167682   0.0167682  -0.1006092), wk =   0.0138889
        k(   35) = (   0.0167682   0.0335364   0.0335364), wk =   0.0277778
        k(   36) = (   0.0167682   0.0335364   0.0503046), wk =   0.0555556
        k(   37) = (   0.0167682   0.0335364   0.0670728), wk =   0.0555556
        k(   38) = (   0.0167682   0.0335364   0.0838410), wk =   0.0555556
        k(   39) = (   0.0167682   0.0335364  -0.1006092), wk =   0.0277778
        k(   40) = (   0.0167682   0.0503046   0.0503046), wk =   0.0277778
        k(   41) = (   0.0167682   0.0503046   0.0670728), wk =   0.0555556
        k(   42) = (   0.0167682   0.0503046   0.0838410), wk =   0.0555556
        k(   43) = (   0.0167682   0.0503046  -0.1006092), wk =   0.0277778
        k(   44) = (   0.0167682   0.0670728   0.0670728), wk =   0.0277778
        k(   45) = (   0.0167682   0.0670728   0.0838410), wk =   0.0555556
        k(   46) = (   0.0167682   0.0670728  -0.1006092), wk =   0.0277778
        k(   47) = (   0.0167682   0.0838410   0.0838410), wk =   0.0277778
        k(   48) = (   0.0167682   0.0838410  -0.1006092), wk =   0.0277778
        k(   49) = (   0.0167682  -0.1006092  -0.1006092), wk =   0.0069444
        k(   50) = (   0.0335364   0.0335364   0.0335364), wk =   0.0092593
        k(   51) = (   0.0335364   0.0335364   0.0503046), wk =   0.0277778
        k(   52) = (   0.0335364   0.0335364   0.0670728), wk =   0.0277778
        k(   53) = (   0.0335364   0.0335364   0.0838410), wk =   0.0277778
        k(   54) = (   0.0335364   0.0335364  -0.1006092), wk =   0.0138889
        k(   55) = (   0.0335364   0.0503046   0.0503046), wk =   0.0277778
        k(   56) = (   0.0335364   0.0503046   0.0670728), wk =   0.0555556
        k(   57) = (   0.0335364   0.0503046   0.0838410), wk =   0.0555556
        k(   58) = (   0.0335364   0.0503046  -0.1006092), wk =   0.0277778
        k(   59) = (   0.0335364   0.0670728   0.0670728), wk =   0.0277778
        k(   60) = (   0.0335364   0.0670728   0.0838410), wk =   0.0555556
[...]
        k(   70) = (   0.0503046   0.0670728   0.0838410), wk =   0.0555556
        k(   71) = (   0.0503046   0.0670728  -0.1006092), wk =   0.0277778
        k(   72) = (   0.0503046   0.0838410   0.0838410), wk =   0.0277778
        k(   73) = (   0.0503046   0.0838410  -0.1006092), wk =   0.0277778
        k(   74) = (   0.0503046  -0.1006092  -0.1006092), wk =   0.0069444
        k(   75) = (   0.0670728   0.0670728   0.0670728), wk =   0.0092593
        k(   76) = (   0.0670728   0.0670728   0.0838410), wk =   0.0277778
        k(   77) = (   0.0670728   0.0670728  -0.1006092), wk =   0.0138889
        k(   78) = (   0.0670728   0.0838410   0.0838410), wk =   0.0277778
        k(   79) = (   0.0670728   0.0838410  -0.1006092), wk =   0.0277778
        k(   80) = (   0.0670728  -0.1006092  -0.1006092), wk =   0.0069444
        k(   81) = (   0.0838410   0.0838410   0.0838410), wk =   0.0092593
        k(   82) = (   0.0838410   0.0838410  -0.1006092), wk =   0.0138889
        k(   83) = (   0.0838410  -0.1006092  -0.1006092), wk =   0.0069444
        k(   84) = (  -0.1006092  -0.1006092  -0.1006092), wk =   0.0011574

     Largest allocated arrays     est. size (Mb)     dimensions
     Largest temporary arrays     est. size (Mb)     dimensions

     Initial potential from superposition of free atoms

     starting charge   43.98212, renormalised to   44.00000

     *
     * You are using vdW-DF for exchange-correlation in this calculation.
     * Please cite the following three references that made this development
     * possible:
     *
     *   M. Dion, H. Rydberg, E. Schroder, D. C. Langreth, and
     *   B. I. Lundqvist, Phys. Rev. Lett. 92, 246401 (2004).
     *
     *   T. Thonhauser, V. R. Cooper, S. Li, A. Puzder, P. Hyldgaard, and
     *   D. C. Langreth, Phys. Rev. B 76, 125112 (2007).
     *
     *   G. Roman-Perez and J. M. Soler, Phys. Rev. Lett. 103, 096102 (2009).
     *
     *
     * If you are using vdW-DF2, please also cite:
     *
     *   K. Lee, E. D. Murray, L. Kong, B. I. Lundqvist, and
     *   D. C. Langreth, Phys. Rev. B 82, 081101(R) (2010).
     *
     *
     * If you are calculating the stress with vdW-DF, please also cite:
     *
     *   R. Sabatini, E. Kucukbenli, B. Kolb, T. Thonhauser, and
     *   S. de Gironcoli, J. Phys.: Condens. Matter 24, 424209 (2012).
     *

     Carrying out vdW-DF run using the following parameters:

     Nqs =      20    Nr_points =    1024   r_max =   100.000
     q_mesh =
               0.00001000     0.04494208     0.09755937     0.15916263
               0.23128650     0.31572767     0.41458969     0.53033537
               0.66584808     0.82450364     1.01025438     1.22772762
               1.48234092     1.78043706     2.12944203     2.53805004
               3.01644009     3.57652955     4.23227104     5.00000000

     Gradients computed in reciprocal space

     Starting wfc are   52 randomized atomic wfcs

     Self-consistent Calculation

     iteration #  1     ecut=    58.80 Ry     beta=0.10
     Davidson diagonalization with overlap
     ethr =  1.00E-02,  avg # of iterations =  2.6

     Threshold (ethr) on eigenvalues was too large:
     Diagonalizing with lowered threshold

     Davidson diagonalization with overlap
     ethr =  1.71E-05,  avg # of iterations =  4.5

     total energy              =    -374.86854940 Ry
     Harris-Foulkes estimate   =    -374.86815515 Ry
     estimated scf accuracy    <       0.00951385 Ry

[...]

     total energy              =    -374.86993930 Ry
     Harris-Foulkes estimate   =    -374.86993088 Ry
     estimated scf accuracy    <       0.00000004 Ry

     iteration # 12     ecut=    58.80 Ry     beta=0.10
     Davidson diagonalization with overlap
     ethr =  9.17E-11,  avg # of iterations =  3.0

     End of self-consistent calculation

          k = 0.0000 0.0000 0.0000 (  6355 PWs)   bands (ev):

   -32.6055 -32.4968 -32.4966 -32.4966 -12.8430 -12.8430 -12.8430 -12.4567
   -12.4567 -12.4567 -12.4566 -12.4566 -12.4566 -12.2206 -12.2206 -12.2206
     5.4160   8.3144   8.3144   8.3144   9.2049   9.2049   9.2049  12.0209
    12.0209  12.0209  12.5150  12.5150  12.5150  14.1462  14.1462  15.6919
    15.6920  15.6920  16.1109  16.1109  16.1109  16.1110  16.1110  16.1110
    18.3976  18.3976

[...]

          k = 0.0838-0.1006-0.1006 (  6260 PWs)   bands (ev):

[...]

          k =-0.1006-0.1006-0.1006 (  6272 PWs)   bands (ev):

   -32.5237 -32.5233 -32.5233 -32.5233 -12.8870 -12.8870 -12.8870 -12.8870
   -12.3071 -12.3071 -12.3071 -12.3071 -12.3071 -12.3071 -12.3071 -12.3071
     8.1740   8.1741   8.1741   8.1741  10.9482  10.9482  10.9482  10.9483
    11.8386  11.8386  11.8386  11.8387  11.8387  11.8387  11.8387  11.8387
    15.6730  15.6730  15.6730  15.6731  15.6731  15.6731  15.6731  15.6731
    18.5314  18.5315

     the Fermi energy is    10.1757 ev

!    total energy              =    -374.86997183 Ry
     Harris-Foulkes estimate   =    -374.86993931 Ry
     estimated scf accuracy    <          3.1E-09 Ry

     The total energy is the sum of the following terms:

     one-electron contribution =     -76.12994188 Ry
     hartree contribution      =      50.82676924 Ry
     xc contribution           =    -113.26474578 Ry
     ewald contribution        =    -236.28744858 Ry
     smearing contrib. (-TS)   =      -0.01460482 Ry

     convergence has been achieved in  12 iterations

 BEEF-vdW xc energy contributions
           1 :   -98.8029997042615
           2 :    88.9935428860004
           3 :   -71.9232689204214
           4 :    51.6280139936784
           5 :   -32.0857628970671
           6 :    15.9825869213677
           7 :   -4.32130800707372
           8 :   -3.14119882568103
           9 :    7.10410799986711
          10 :   -8.15214047764680
          11 :    6.69204074109780
          12 :   -3.25967035957792
          13 :   -1.19399070578936
          14 :    5.36026979736977
          15 :   -7.99165908260683
          16 :    8.40807425290119
          17 :   -6.74906724824676
          18 :    3.81598367947413
          19 :  -0.628670254635892
          20 :   -2.01295255927192
          21 :    3.72522294647540
          22 :   -4.46279771338783
          23 :    4.32208565660822
          24 :   -3.41814163690606
          25 :    1.90962186372248
          26 :  -9.068329376418660E-002
          27 :   -1.59383208421701
          28 :    2.68035600485260
          29 :   -2.89868932211573
          30 :    2.31461131603787
          31 :   -9.43344310509340
          32 :   -6.51569689378216

     Forces acting on atoms (Ry/au):

     atom    1 type  1   force =     0.00000000    0.00000000    0.00000000
     atom    2 type  1   force =     0.00000000    0.00000000    0.00000000
     atom    3 type  1   force =     0.00000000    0.00000000    0.00000000
     atom    4 type  1   force =     0.00000000    0.00000000    0.00000000

     Total force =     0.000000     Total SCF correction =     0.000000

     General routines

     Parallel routines

   This run was terminated on:  14: 2:17  23Oct2017

   JOB DONE.