     Program PWSCF v.5.1rc2 (svn rev. ) starts on 19Oct2017 at 16:53: 2

     Current dimensions of program PWSCF are:
     Max number of different atomic species (ntypx) = 10
     Max number of k-points (npk) =  40000
     Max angular momentum in pseudopotentials (lmaxx) =  3

     IMPORTANT: XC functional enforced from input :
     Exchange-correlation      = BEEF-VDW ( 1  4 27 13 2)
     Any further DFT definition will be discarded
     Please, verify this is what you really want

     Subspace diagonalization in iterative solution of the eigenvalue problem:
     a serial algorithm will be used

     Found symmetry operation: I + (  0.0000 -0.5000 -0.5000)
     This is a supercell, fractional translations are disabled

     bravais-lattice index     =            0
     lattice parameter (alat)  =       1.8897  a.u.
     unit-cell volume          =     419.0257 (a.u.)^3
     number of atoms/cell      =            4
     number of atomic types    =            1
     number of electrons       =        56.00
     number of Kohn-Sham states=           48
     kinetic-energy cutoff     =      58.7989  Ry
     charge density cutoff     =     587.9892  Ry
     convergence threshold     =      7.3E-09
     mixing beta               =       0.1000
     number of iterations used =           10  local-TF  mixing
     Exchange-correlation      = BEEF-VDW ( 1  4 27 13 2)

     celldm(1)=   1.889726  celldm(2)=   0.000000  celldm(3)=   0.000000
     celldm(4)=   0.000000  celldm(5)=   0.000000  celldm(6)=   0.000000

     crystal axes: (cart. coord. in units of alat)
               a(1) = (   3.959874   0.000000   0.000000 )
               a(2) = (   0.000000   3.959874   0.000000 )
               a(3) = (   0.000000   0.000000   3.959874 )

     reciprocal axes: (cart. coord. in units 2 pi/alat)
               b(1) = (  0.252533  0.000000  0.000000 )
               b(2) = (  0.000000  0.252533  0.000000 )
               b(3) = (  0.000000  0.000000  0.252533 )

     PseudoPot. # 1 for W  read from file:
     /home/vossj/suncat/psp/gbrv1.5pbe/W.UPF
     MD5 check sum: 9c083fa34c2a2ea0f02f1f893e16e1c8
     Pseudo is Ultrasoft + core correction, Zval = 14.0
     Generated by new atomic code, or converted to UPF format
     Using radial grid of  923 points,  8 beta functions with:
                l(1) =   0
                l(2) =   0
                l(3) =   0
                l(4) =   1
                l(5) =   1
                l(6) =   2
                l(7) =   2
                l(8) =   3
     Q(r) pseudized with  6 coefficients,  rinner =    1.350   1.350   1.350
                                                       1.350   1.350   1.350
                                                       1.350

     vdW kernel table read from file vdW_kernel_table
     MD5 check sum: 095c7af220d748ca6e76c0b4c6cfb241

     atomic species   valence    mass     pseudopotential
        W1            14.00   183.84000     W ( 1.00)

     48 Sym. Ops., with inversion, found

   Cartesian axes

     site n.     atom                  positions (alat units)
         1           W1  tau(   1) = (   0.0000000   0.0000000   0.0000000  )
         2           W1  tau(   2) = (   0.0000000   1.9799370   1.9799370  )
         3           W1  tau(   3) = (   1.9799370   0.0000000   1.9799370  )
         4           W1  tau(   4) = (   1.9799370   1.9799370   0.0000000  )

     number of k points=    84  Fermi-Dirac smearing, width (Ry)=  0.0073
                       cart. coord. in units 2pi/alat
        k(    1) = (   0.0000000   0.0000000   0.0000000), wk =   0.0011574
        k(    2) = (   0.0000000   0.0000000   0.0210444), wk =   0.0069444
        k(    3) = (   0.0000000   0.0000000   0.0420889), wk =   0.0069444
        k(    4) = (   0.0000000   0.0000000   0.0631333), wk =   0.0069444
        k(    5) = (   0.0000000   0.0000000   0.0841778), wk =   0.0069444
        k(    6) = (   0.0000000   0.0000000   0.1052222), wk =   0.0069444
        k(    7) = (   0.0000000   0.0000000  -0.1262666), wk =   0.0034722
        k(    8) = (   0.0000000   0.0210444   0.0210444), wk =   0.0138889
        k(    9) = (   0.0000000   0.0210444   0.0420889), wk =   0.0277778
        k(   10) = (   0.0000000   0.0210444   0.0631333), wk =   0.0277778
        k(   11) = (   0.0000000   0.0210444   0.0841778), wk =   0.0277778
        k(   12) = (   0.0000000   0.0210444   0.1052222), wk =   0.0277778
        k(   13) = (   0.0000000   0.0210444  -0.1262666), wk =   0.0138889
        k(   14) = (   0.0000000   0.0420889   0.0420889), wk =   0.0138889
        k(   15) = (   0.0000000   0.0420889   0.0631333), wk =   0.0277778
        k(   16) = (   0.0000000   0.0420889   0.0841778), wk =   0.0277778
        k(   17) = (   0.0000000   0.0420889   0.1052222), wk =   0.0277778
        k(   18) = (   0.0000000   0.0420889  -0.1262666), wk =   0.0138889
        k(   19) = (   0.0000000   0.0631333   0.0631333), wk =   0.0138889
        k(   20) = (   0.0000000   0.0631333   0.0841778), wk =   0.0277778
        k(   21) = (   0.0000000   0.0631333   0.1052222), wk =   0.0277778
        k(   22) = (   0.0000000   0.0631333  -0.1262666), wk =   0.0138889
        k(   23) = (   0.0000000   0.0841778   0.0841778), wk =   0.0138889
        k(   24) = (   0.0000000   0.0841778   0.1052222), wk =   0.0277778
        k(   25) = (   0.0000000   0.0841778  -0.1262666), wk =   0.0138889
        k(   26) = (   0.0000000   0.1052222   0.1052222), wk =   0.0138889
        k(   27) = (   0.0000000   0.1052222  -0.1262666), wk =   0.0138889
        k(   28) = (   0.0000000  -0.1262666  -0.1262666), wk =   0.0034722
        k(   29) = (   0.0210444   0.0210444   0.0210444), wk =   0.0092593
        k(   30) = (   0.0210444   0.0210444   0.0420889), wk =   0.0277778
        k(   31) = (   0.0210444   0.0210444   0.0631333), wk =   0.0277778
        k(   32) = (   0.0210444   0.0210444   0.0841778), wk =   0.0277778
        k(   33) = (   0.0210444   0.0210444   0.1052222), wk =   0.0277778
        k(   34) = (   0.0210444   0.0210444  -0.1262666), wk =   0.0138889
        k(   35) = (   0.0210444   0.0420889   0.0420889), wk =   0.0277778
        k(   36) = (   0.0210444   0.0420889   0.0631333), wk =   0.0555556
        k(   37) = (   0.0210444   0.0420889   0.0841778), wk =   0.0555556
        k(   38) = (   0.0210444   0.0420889   0.1052222), wk =   0.0555556
        k(   39) = (   0.0210444   0.0420889  -0.1262666), wk =   0.0277778
        k(   40) = (   0.0210444   0.0631333   0.0631333), wk =   0.0277778
        k(   41) = (   0.0210444   0.0631333   0.0841778), wk =   0.0555556
        k(   42) = (   0.0210444   0.0631333   0.1052222), wk =   0.0555556
        k(   43) = (   0.0210444   0.0631333  -0.1262666), wk =   0.0277778
        k(   44) = (   0.0210444   0.0841778   0.0841778), wk =   0.0277778
        k(   45) = (   0.0210444   0.0841778   0.1052222), wk =   0.0555556
        k(   46) = (   0.0210444   0.0841778  -0.1262666), wk =   0.0277778
        k(   47) = (   0.0210444   0.1052222   0.1052222), wk =   0.0277778
        k(   48) = (   0.0210444   0.1052222  -0.1262666), wk =   0.0277778
        k(   49) = (   0.0210444  -0.1262666  -0.1262666), wk =   0.0069444
        k(   50) = (   0.0420889   0.0420889   0.0420889), wk =   0.0092593
        k(   51) = (   0.0420889   0.0420889   0.0631333), wk =   0.0277778
        k(   52) = (   0.0420889   0.0420889   0.0841778), wk =   0.0277778
        k(   53) = (   0.0420889   0.0420889   0.1052222), wk =   0.0277778
        k(   54) = (   0.0420889   0.0420889  -0.1262666), wk =   0.0138889
        k(   55) = (   0.0420889   0.0631333   0.0631333), wk =   0.0277778
        k(   56) = (   0.0420889   0.0631333   0.0841778), wk =   0.0555556
        k(   57) = (   0.0420889   0.0631333   0.1052222), wk =   0.0555556
        k(   58) = (   0.0420889   0.0631333  -0.1262666), wk =   0.0277778
        k(   59) = (   0.0420889   0.0841778   0.0841778), wk =   0.0277778
        k(   60) = (   0.0420889   0.0841778   0.1052222), wk =   0.0555556
[...]
        k(   70) = (   0.0631333   0.0841778   0.1052222), wk =   0.0555556
        k(   71) = (   0.0631333   0.0841778  -0.1262666), wk =   0.0277778
        k(   72) = (   0.0631333   0.1052222   0.1052222), wk =   0.0277778
        k(   73) = (   0.0631333   0.1052222  -0.1262666), wk =   0.0277778
        k(   74) = (   0.0631333  -0.1262666  -0.1262666), wk =   0.0069444
        k(   75) = (   0.0841778   0.0841778   0.0841778), wk =   0.0092593
        k(   76) = (   0.0841778   0.0841778   0.1052222), wk =   0.0277778
        k(   77) = (   0.0841778   0.0841778  -0.1262666), wk =   0.0138889
        k(   78) = (   0.0841778   0.1052222   0.1052222), wk =   0.0277778
        k(   79) = (   0.0841778   0.1052222  -0.1262666), wk =   0.0277778
        k(   80) = (   0.0841778  -0.1262666  -0.1262666), wk =   0.0069444
        k(   81) = (   0.1052222   0.1052222   0.1052222), wk =   0.0092593
        k(   82) = (   0.1052222   0.1052222  -0.1262666), wk =   0.0138889
        k(   83) = (   0.1052222  -0.1262666  -0.1262666), wk =   0.0069444
        k(   84) = (  -0.1262666  -0.1262666  -0.1262666), wk =   0.0011574

     Largest allocated arrays     est. size (Mb)     dimensions
     Largest temporary arrays     est. size (Mb)     dimensions

     Initial potential from superposition of free atoms
     Check: negative starting charge=   -0.247588

     starting charge   55.59864, renormalised to   56.00000

     negative rho (up, down):  2.494E-01 0.000E+00

     *
     * You are using vdW-DF for exchange-correlation in this calculation.
     * Please cite the following three references that made this development
     * possible:
     *
     *   M. Dion, H. Rydberg, E. Schroder, D. C. Langreth, and
     *   B. I. Lundqvist, Phys. Rev. Lett. 92, 246401 (2004).
     *
     *   T. Thonhauser, V. R. Cooper, S. Li, A. Puzder, P. Hyldgaard, and
     *   D. C. Langreth, Phys. Rev. B 76, 125112 (2007).
     *
     *   G. Roman-Perez and J. M. Soler, Phys. Rev. Lett. 103, 096102 (2009).
     *
     *
     * If you are using vdW-DF2, please also cite:
     *
     *   K. Lee, E. D. Murray, L. Kong, B. I. Lundqvist, and
     *   D. C. Langreth, Phys. Rev. B 82, 081101(R) (2010).
     *
     *
     * If you are calculating the stress with vdW-DF, please also cite:
     *
     *   R. Sabatini, E. Kucukbenli, B. Kolb, T. Thonhauser, and
     *   S. de Gironcoli, J. Phys.: Condens. Matter 24, 424209 (2012).
     *

     Carrying out vdW-DF run using the following parameters:

     Nqs =      20    Nr_points =    1024   r_max =   100.000
     q_mesh =
               0.00001000     0.04494208     0.09755937     0.15916263
               0.23128650     0.31572767     0.41458969     0.53033537
               0.66584808     0.82450364     1.01025438     1.22772762
               1.48234092     1.78043706     2.12944203     2.53805004
               3.01644009     3.57652955     4.23227104     5.00000000

     Gradients computed in reciprocal space

     Starting wfc are   52 randomized atomic wfcs

     Self-consistent Calculation

     iteration #  1     ecut=    58.80 Ry     beta=0.10
     Davidson diagonalization with overlap
     ethr =  1.00E-02,  avg # of iterations =  4.1

     Threshold (ethr) on eigenvalues was too large:
     Diagonalizing with lowered threshold

     Davidson diagonalization with overlap
     ethr =  2.38E-04,  avg # of iterations =  1.7

[...]

     total energy              =    -641.86025592 Ry
     Harris-Foulkes estimate   =    -641.86563171 Ry
     estimated scf accuracy    <       0.13465594 Ry

[...]

     total energy              =    -641.82661382 Ry
     Harris-Foulkes estimate   =    -641.82661374 Ry
     estimated scf accuracy    <       0.00000002 Ry

     iteration # 11     ecut=    58.80 Ry     beta=0.10
     Davidson diagonalization with overlap
     ethr =  3.75E-11,  avg # of iterations =  2.0

[...]

     negative rho (up, down):  2.731E-01 0.000E+00

     End of self-consistent calculation

          k = 0.0000 0.0000 0.0000 (  3191 PWs)   bands (ev):

   -51.5475 -51.3715 -51.3715 -51.3715 -16.2595 -16.2595 -16.2595 -15.4881
   -15.4881 -15.4881 -15.4881 -15.4881 -15.4881 -15.0074 -15.0074 -15.0074
    13.2111  16.5998  16.5998  16.5998  17.5939  17.5939  17.5939  21.8176
    21.8176  21.8176  25.1804  25.1804  25.7863  25.7863  25.7863  27.8034
    27.8034  27.8034  28.6010  28.6010  28.6010  28.6010  28.6010  28.6010
    34.6749  34.6749  34.6749  34.6749  34.6749  34.6749  35.3287  36.4774

[...]

          k = 0.1052-0.1263-0.1263 (  3168 PWs)   bands (ev):

[...]

          k =-0.1263-0.1263-0.1263 (  3184 PWs)   bands (ev):

   -51.4150 -51.4150 -51.4150 -51.4150 -16.3457 -16.3457 -16.3457 -16.3457
   -15.1846 -15.1846 -15.1846 -15.1846 -15.1846 -15.1846 -15.1846 -15.1846
    16.5788  16.5788  16.5788  16.5788  21.5779  21.5779  21.5779  21.5779
    21.5779  21.5779  21.5779  21.5779  23.2100  23.2100  23.2100  23.2100
    27.8215  27.8215  27.8215  27.8215  27.8215  27.8215  27.8215  27.8215
    33.5696  33.5696  33.5696  33.5696  34.9777  34.9777  34.9777  34.9777

     the Fermi energy is    22.4489 ev

!    total energy              =    -641.82661424 Ry
     Harris-Foulkes estimate   =    -641.82661382 Ry
     estimated scf accuracy    <          1.9E-09 Ry

     The total energy is the sum of the following terms:

     one-electron contribution =     -53.09570987 Ry
     hartree contribution      =      62.48561556 Ry
     xc contribution           =    -170.85041651 Ry
     ewald contribution        =    -480.35476706 Ry
     smearing contrib. (-TS)   =      -0.01133636 Ry

     convergence has been achieved in  11 iterations

 BEEF-vdW xc energy contributions
           1 :   -150.286591628584
           2 :    139.526661731425
           3 :   -120.369517415057
           4 :    96.7808067749387
           5 :   -73.0993694091511
           6 :    52.7958262336392
           7 :   -37.6574130208844
           8 :    27.6431255755440
           9 :   -21.3751813093363
          10 :    16.9916171481149
          11 :   -12.9786180502992
          12 :    8.66291509202847
          13 :   -4.23177326024569
          14 :   0.366989393328254
          15 :    2.26894172980178
          16 :   -3.43075844753071
          17 :    3.40520897752049
          18 :   -2.83464843424139
          19 :    2.38177878380077
          20 :   -2.42581442211613
          21 :    2.93863531087186
          22 :   -3.58044050872326
          23 :    3.93929531216668
          24 :   -3.77521593811076
          25 :    3.14298222477271
          26 :   -2.34355448104861
          27 :    1.74718516487178
          28 :   -1.59313992135407
          29 :    1.87307736625240
          30 :   -2.35218919441303
          31 :   -13.5718881948400
          32 :   -10.2927823421864

     Forces acting on atoms (Ry/au):

     negative rho (up, down):  2.731E-01 0.000E+00
     atom    1 type  1   force =     0.00000000    0.00000000    0.00000000
     atom    2 type  1   force =     0.00000000    0.00000000    0.00000000
     atom    3 type  1   force =     0.00000000    0.00000000    0.00000000
     atom    4 type  1   force =     0.00000000    0.00000000    0.00000000

     Total force =     0.000000     Total SCF correction =     0.000000

     General routines

     Parallel routines

   This run was terminated on:  16:53:54  19Oct2017

   JOB DONE.