     Program PWSCF v.5.1rc2 (svn rev. ) starts on 19Oct2017 at 14:52:17

     Current dimensions of program PWSCF are:
     Max number of different atomic species (ntypx) = 10
     Max number of k-points (npk) =  40000
     Max angular momentum in pseudopotentials (lmaxx) =  3

     IMPORTANT: XC functional enforced from input :
     Exchange-correlation      = BEEF-VDW ( 1  4 27 13 2)
     Any further DFT definition will be discarded
     Please, verify this is what you really want

     Subspace diagonalization in iterative solution of the eigenvalue problem:
     a serial algorithm will be used

     Found symmetry operation: I + (  0.0000  0.5000  0.5000)
     This is a supercell, fractional translations are disabled

     bravais-lattice index     =            0
     lattice parameter (alat)  =       1.8897  a.u.
     unit-cell volume          =     383.4361 (a.u.)^3
     number of atoms/cell      =            4
     number of atomic types    =            1
     number of electrons       =        52.00
     number of Kohn-Sham states=           46
     kinetic-energy cutoff     =      58.7989  Ry
     charge density cutoff     =     587.9892  Ry
     convergence threshold     =      7.3E-09
     mixing beta               =       0.1000
     number of iterations used =           10  local-TF  mixing
     Exchange-correlation      = BEEF-VDW ( 1  4 27 13 2)

     celldm(1)=   1.889726  celldm(2)=   0.000000  celldm(3)=   0.000000
     celldm(4)=   0.000000  celldm(5)=   0.000000  celldm(6)=   0.000000

     crystal axes: (cart. coord. in units of alat)
               a(1) = (   3.844432   0.000000   0.000000 )
               a(2) = (   0.000000   3.844432   0.000000 )
               a(3) = (   0.000000   0.000000   3.844432 )

     reciprocal axes: (cart. coord. in units 2 pi/alat)
               b(1) = (  0.260116  0.000000  0.000000 )
               b(2) = (  0.000000  0.260116  0.000000 )
               b(3) = (  0.000000  0.000000  0.260116 )

     PseudoPot. # 1 for V  read from file:
     /home/vossj/suncat/psp/gbrv1.5pbe/V.UPF
     MD5 check sum: 22b79981416ebb76fdaf5b1b8640f6fb
     Pseudo is Ultrasoft + core correction, Zval = 13.0
     Generated by new atomic code, or converted to UPF format
     Using radial grid of  853 points,  6 beta functions with:
                l(1) =   0
                l(2) =   0
                l(3) =   1
                l(4) =   1
                l(5) =   2
                l(6) =   2
     Q(r) pseudized with  8 coefficients,  rinner =    1.100   1.100   1.100
                                                       1.100   1.100

     vdW kernel table read from file vdW_kernel_table
     MD5 check sum: 095c7af220d748ca6e76c0b4c6cfb241

     atomic species   valence    mass     pseudopotential
        V1            13.00    50.94150     V ( 1.00)

     48 Sym. Ops., with inversion, found

   Cartesian axes

     site n.     atom                  positions (alat units)
         1           V1  tau(   1) = (   0.0000000   0.0000000   0.0000000  )
         2           V1  tau(   2) = (   0.0000000   1.9222158   1.9222158  )
         3           V1  tau(   3) = (   1.9222158   0.0000000   1.9222158  )
         4           V1  tau(   4) = (   1.9222158   1.9222158   0.0000000  )

     number of k points=    84  Fermi-Dirac smearing, width (Ry)=  0.0073
                       cart. coord. in units 2pi/alat
        k(    1) = (   0.0000000   0.0000000   0.0000000), wk =   0.0011574
        k(    2) = (   0.0000000   0.0000000   0.0216764), wk =   0.0069444
        k(    3) = (   0.0000000   0.0000000   0.0433527), wk =   0.0069444
        k(    4) = (   0.0000000   0.0000000   0.0650291), wk =   0.0069444
        k(    5) = (   0.0000000   0.0000000   0.0867055), wk =   0.0069444
        k(    6) = (   0.0000000   0.0000000   0.1083819), wk =   0.0069444
        k(    7) = (   0.0000000   0.0000000  -0.1300582), wk =   0.0034722
        k(    8) = (   0.0000000   0.0216764   0.0216764), wk =   0.0138889
        k(    9) = (   0.0000000   0.0216764   0.0433527), wk =   0.0277778
        k(   10) = (   0.0000000   0.0216764   0.0650291), wk =   0.0277778
        k(   11) = (   0.0000000   0.0216764   0.0867055), wk =   0.0277778
        k(   12) = (   0.0000000   0.0216764   0.1083819), wk =   0.0277778
        k(   13) = (   0.0000000   0.0216764  -0.1300582), wk =   0.0138889
        k(   14) = (   0.0000000   0.0433527   0.0433527), wk =   0.0138889
        k(   15) = (   0.0000000   0.0433527   0.0650291), wk =   0.0277778
        k(   16) = (   0.0000000   0.0433527   0.0867055), wk =   0.0277778
        k(   17) = (   0.0000000   0.0433527   0.1083819), wk =   0.0277778
        k(   18) = (   0.0000000   0.0433527  -0.1300582), wk =   0.0138889
        k(   19) = (   0.0000000   0.0650291   0.0650291), wk =   0.0138889
        k(   20) = (   0.0000000   0.0650291   0.0867055), wk =   0.0277778
        k(   21) = (   0.0000000   0.0650291   0.1083819), wk =   0.0277778
        k(   22) = (   0.0000000   0.0650291  -0.1300582), wk =   0.0138889
        k(   23) = (   0.0000000   0.0867055   0.0867055), wk =   0.0138889
        k(   24) = (   0.0000000   0.0867055   0.1083819), wk =   0.0277778
        k(   25) = (   0.0000000   0.0867055  -0.1300582), wk =   0.0138889
        k(   26) = (   0.0000000   0.1083819   0.1083819), wk =   0.0138889
        k(   27) = (   0.0000000   0.1083819  -0.1300582), wk =   0.0138889
        k(   28) = (   0.0000000  -0.1300582  -0.1300582), wk =   0.0034722
        k(   29) = (   0.0216764   0.0216764   0.0216764), wk =   0.0092593
        k(   30) = (   0.0216764   0.0216764   0.0433527), wk =   0.0277778
        k(   31) = (   0.0216764   0.0216764   0.0650291), wk =   0.0277778
        k(   32) = (   0.0216764   0.0216764   0.0867055), wk =   0.0277778
        k(   33) = (   0.0216764   0.0216764   0.1083819), wk =   0.0277778
        k(   34) = (   0.0216764   0.0216764  -0.1300582), wk =   0.0138889
        k(   35) = (   0.0216764   0.0433527   0.0433527), wk =   0.0277778
        k(   36) = (   0.0216764   0.0433527   0.0650291), wk =   0.0555556
        k(   37) = (   0.0216764   0.0433527   0.0867055), wk =   0.0555556
        k(   38) = (   0.0216764   0.0433527   0.1083819), wk =   0.0555556
        k(   39) = (   0.0216764   0.0433527  -0.1300582), wk =   0.0277778
        k(   40) = (   0.0216764   0.0650291   0.0650291), wk =   0.0277778
        k(   41) = (   0.0216764   0.0650291   0.0867055), wk =   0.0555556
        k(   42) = (   0.0216764   0.0650291   0.1083819), wk =   0.0555556
        k(   43) = (   0.0216764   0.0650291  -0.1300582), wk =   0.0277778
        k(   44) = (   0.0216764   0.0867055   0.0867055), wk =   0.0277778
        k(   45) = (   0.0216764   0.0867055   0.1083819), wk =   0.0555556
        k(   46) = (   0.0216764   0.0867055  -0.1300582), wk =   0.0277778
        k(   47) = (   0.0216764   0.1083819   0.1083819), wk =   0.0277778
        k(   48) = (   0.0216764   0.1083819  -0.1300582), wk =   0.0277778
        k(   49) = (   0.0216764  -0.1300582  -0.1300582), wk =   0.0069444
        k(   50) = (   0.0433527   0.0433527   0.0433527), wk =   0.0092593
        k(   51) = (   0.0433527   0.0433527   0.0650291), wk =   0.0277778
        k(   52) = (   0.0433527   0.0433527   0.0867055), wk =   0.0277778
        k(   53) = (   0.0433527   0.0433527   0.1083819), wk =   0.0277778
        k(   54) = (   0.0433527   0.0433527  -0.1300582), wk =   0.0138889
        k(   55) = (   0.0433527   0.0650291   0.0650291), wk =   0.0277778
        k(   56) = (   0.0433527   0.0650291   0.0867055), wk =   0.0555556
        k(   57) = (   0.0433527   0.0650291   0.1083819), wk =   0.0555556
        k(   58) = (   0.0433527   0.0650291  -0.1300582), wk =   0.0277778
        k(   59) = (   0.0433527   0.0867055   0.0867055), wk =   0.0277778
        k(   60) = (   0.0433527   0.0867055   0.1083819), wk =   0.0555556
[...]
        k(   70) = (   0.0650291   0.0867055   0.1083819), wk =   0.0555556
        k(   71) = (   0.0650291   0.0867055  -0.1300582), wk =   0.0277778
        k(   72) = (   0.0650291   0.1083819   0.1083819), wk =   0.0277778
        k(   73) = (   0.0650291   0.1083819  -0.1300582), wk =   0.0277778
        k(   74) = (   0.0650291  -0.1300582  -0.1300582), wk =   0.0069444
        k(   75) = (   0.0867055   0.0867055   0.0867055), wk =   0.0092593
        k(   76) = (   0.0867055   0.0867055   0.1083819), wk =   0.0277778
        k(   77) = (   0.0867055   0.0867055  -0.1300582), wk =   0.0138889
        k(   78) = (   0.0867055   0.1083819   0.1083819), wk =   0.0277778
        k(   79) = (   0.0867055   0.1083819  -0.1300582), wk =   0.0277778
        k(   80) = (   0.0867055  -0.1300582  -0.1300582), wk =   0.0069444
        k(   81) = (   0.1083819   0.1083819   0.1083819), wk =   0.0092593
        k(   82) = (   0.1083819   0.1083819  -0.1300582), wk =   0.0138889
        k(   83) = (   0.1083819  -0.1300582  -0.1300582), wk =   0.0069444
        k(   84) = (  -0.1300582  -0.1300582  -0.1300582), wk =   0.0011574

     Largest allocated arrays     est. size (Mb)     dimensions
     Largest temporary arrays     est. size (Mb)     dimensions

     Check: negative/imaginary core charge=   -0.000003    0.000000

     Initial potential from superposition of free atoms
     Check: negative starting charge=   -0.001539

     starting charge   51.99509, renormalised to   52.00000

     negative rho (up, down):  1.540E-03 0.000E+00

     *
     * You are using vdW-DF for exchange-correlation in this calculation.
     * Please cite the following three references that made this development
     * possible:
     *
     *   M. Dion, H. Rydberg, E. Schroder, D. C. Langreth, and
     *   B. I. Lundqvist, Phys. Rev. Lett. 92, 246401 (2004).
     *
     *   T. Thonhauser, V. R. Cooper, S. Li, A. Puzder, P. Hyldgaard, and
     *   D. C. Langreth, Phys. Rev. B 76, 125112 (2007).
     *
     *   G. Roman-Perez and J. M. Soler, Phys. Rev. Lett. 103, 096102 (2009).
     *
     *
     * If you are using vdW-DF2, please also cite:
     *
     *   K. Lee, E. D. Murray, L. Kong, B. I. Lundqvist, and
     *   D. C. Langreth, Phys. Rev. B 82, 081101(R) (2010).
     *
     *
     * If you are calculating the stress with vdW-DF, please also cite:
     *
     *   R. Sabatini, E. Kucukbenli, B. Kolb, T. Thonhauser, and
     *   S. de Gironcoli, J. Phys.: Condens. Matter 24, 424209 (2012).
     *

     Carrying out vdW-DF run using the following parameters:

     Nqs =      20    Nr_points =    1024   r_max =   100.000
     q_mesh =
               0.00001000     0.04494208     0.09755937     0.15916263
               0.23128650     0.31572767     0.41458969     0.53033537
               0.66584808     0.82450364     1.01025438     1.22772762
               1.48234092     1.78043706     2.12944203     2.53805004
               3.01644009     3.57652955     4.23227104     5.00000000

     Gradients computed in reciprocal space

     Starting wfc are   40 randomized atomic wfcs +    6 random wfc

     Self-consistent Calculation

     iteration #  1     ecut=    58.80 Ry     beta=0.10
     Davidson diagonalization with overlap
     ethr =  1.00E-02,  avg # of iterations =  3.2

     Threshold (ethr) on eigenvalues was too large:
     Diagonalizing with lowered threshold

     Davidson diagonalization with overlap
     ethr =  2.68E-04,  avg # of iterations =  1.0

[...]

     total energy              =    -583.14371330 Ry
     Harris-Foulkes estimate   =    -583.15178629 Ry
     estimated scf accuracy    <       0.14040244 Ry

[...]

     total energy              =    -583.12184042 Ry
     Harris-Foulkes estimate   =    -583.12183997 Ry
     estimated scf accuracy    <       0.00000001 Ry

     iteration # 12     ecut=    58.80 Ry     beta=0.10
     Davidson diagonalization with overlap
     ethr =  1.61E-11,  avg # of iterations =  1.0

[...]

     negative rho (up, down):  3.014E-03 0.000E+00

     End of self-consistent calculation

          k = 0.0000 0.0000 0.0000 (  2945 PWs)   bands (ev):

   -48.7026 -48.5099 -48.5099 -48.5099 -22.7459 -22.7459 -22.7459 -22.3166
   -22.3166 -22.3166 -22.3166 -22.3166 -22.3166 -22.0562 -22.0562 -22.0562
     8.9002  12.2688  12.2688  12.2688  13.0686  13.0686  13.0686  15.7259
    15.7259  15.7259  17.4017  17.4017  18.4885  18.4885  18.4885  18.7641
    18.7641  18.7641  18.7641  18.7641  18.7641  18.9293  18.9293  18.9293
    26.9397  26.9397  26.9397  29.1707  29.1707  29.1707

[...]

          k = 0.1084-0.1301-0.1301 (  2936 PWs)   bands (ev):

[...]

          k =-0.1301-0.1301-0.1301 (  2872 PWs)   bands (ev):

   -48.5571 -48.5571 -48.5571 -48.5571 -22.7955 -22.7955 -22.7955 -22.7955
   -22.1516 -22.1516 -22.1516 -22.1516 -22.1516 -22.1516 -22.1516 -22.1516
    12.3772  12.3772  12.3772  12.3772  15.6277  15.6277  15.6277  15.6277
    15.6277  15.6277  15.6277  15.6277  16.3699  16.3699  16.3699  16.3699
    18.4891  18.4891  18.4891  18.4891  18.4891  18.4891  18.4891  18.4891
    24.2764  24.2764  24.2764  24.2764  32.2852  32.2852

     the Fermi energy is    15.5782 ev

!    total energy              =    -583.12189711 Ry
     Harris-Foulkes estimate   =    -583.12184042 Ry
     estimated scf accuracy    <          4.8E-09 Ry

     The total energy is the sum of the following terms:

     one-electron contribution =    -196.93975796 Ry
     hartree contribution      =     122.00024230 Ry
     xc contribution           =     -81.54372382 Ry
     ewald contribution        =    -426.62073738 Ry
     smearing contrib. (-TS)   =      -0.01792026 Ry

     convergence has been achieved in  12 iterations

 BEEF-vdW xc energy contributions
           1 :   -70.2695982463773
           2 :    63.2874084417044
           3 :   -51.6601290048796
           4 :    38.9760635642512
           5 :   -28.4859336839005
           6 :    21.8380829531214
           7 :   -18.7377098246948
           8 :    17.5845875026668
           9 :   -16.6133303931825
          10 :    14.8502101208987
          11 :   -12.4036297436363
          12 :    10.0599048484177
          13 :   -8.56407598481255
          14 :    8.08773903816548
          15 :   -8.18431570154830
          16 :    8.17406727436251
          17 :   -7.63252438584249
          18 :    6.63674978120009
          19 :   -5.63421969166941
          20 :    5.07203729898687
          21 :   -5.07073893409849
          22 :    5.36355792109778
          23 :   -5.51503534807425
          24 :    5.23851327676847
          25 :   -4.58176541933055
          26 :    3.86376991669603
          27 :   -3.42914020804186
          28 :    3.40691691994934
          29 :   -3.64032715526604
          30 :    3.82061275728772
          31 :   -7.26523865465809
          32 :   -5.30437208771340

     Forces acting on atoms (Ry/au):

     negative rho (up, down):  3.014E-03 0.000E+00
     atom    1 type  1   force =     0.00000000   -0.00000000    0.00000000
     atom    2 type  1   force =     0.00000000    0.00000000    0.00000000
     atom    3 type  1   force =     0.00000000    0.00000000   -0.00000000
     atom    4 type  1   force =     0.00000000    0.00000000    0.00000000

     Total force =     0.000000     Total SCF correction =     0.000000

     General routines

     Parallel routines

   This run was terminated on:  14:53:11  19Oct2017

   JOB DONE.