     Program PWSCF v.5.1rc2 (svn rev. 11289) starts on 18Dec2018 at 18: 1:12

     Current dimensions of program PWSCF are:
     Max number of different atomic species (ntypx) = 10
     Max number of k-points (npk) =  40000
     Max angular momentum in pseudopotentials (lmaxx) =  3
     Presently stress not available with electric field

     IMPORTANT: XC functional enforced from input :
     Exchange-correlation      = BEEF-VDW ( 1  4 27 13 2)
     Any further DFT definition will be discarded
     Please, verify this is what you really want

     Subspace diagonalization in iterative solution of the eigenvalue problem:
     a serial algorithm will be used

     Found symmetry operation: I + ( -0.5000  0.0000  0.0000)
     This is a supercell, fractional translations are disabled

     Generating pointlists ...
     new r_m :   0.4125 (alat units)  0.7795 (a.u.) for type    1

     bravais-lattice index     =            0
     lattice parameter (alat)  =       1.8897  a.u.
     unit-cell volume          =    3509.4406 (a.u.)^3
     number of atoms/cell      =           12
     number of atomic types    =            1
     number of electrons       =       216.00
     number of Kohn-Sham states=          118
     kinetic-energy cutoff     =      36.7493  Ry
     charge density cutoff     =     367.4932  Ry
     convergence threshold     =      1.0E-05
     mixing beta               =       0.2000
     number of iterations used =           10  plain     mixing
     Exchange-correlation      = BEEF-VDW ( 1  4 27 13 2)
     nstep                     =           50

     celldm(1)=   1.889726  celldm(2)=   0.000000  celldm(3)=   0.000000
     celldm(4)=   0.000000  celldm(5)=   0.000000  celldm(6)=   0.000000

     crystal axes: (cart. coord. in units of alat)
               a(1) = (   4.994004   0.000000   0.000000 )
               a(2) = (   2.497002   4.324934   0.000000 )
               a(3) = (   0.000000   0.000000  24.077587 )

     reciprocal axes: (cart. coord. in units 2 pi/alat)
               b(1) = (  0.200240 -0.115609  0.000000 )
               b(2) = (  0.000000  0.231217  0.000000 )
               b(3) = (  0.000000  0.000000  0.041532 )

     PseudoPot. # 1 for Ni read from file:
     /afs/slac.stanford.edu/u/if/mamunm/psp/gbrv1.5pbe/Ni.UPF
     MD5 check sum: 1ee80287db30b12d2bc1f57a5b5d6409
     Pseudo is Ultrasoft + core correction, Zval = 18.0
     Generated by new atomic code, or converted to UPF format
     Using radial grid of  865 points,  6 beta functions with:
                l(1) =   0
                l(2) =   0
                l(3) =   1
                l(4) =   1
                l(5) =   2
                l(6) =   2
     Q(r) pseudized with 10 coefficients,  rinner =    0.980   0.980   0.980
                                                       0.980   0.980

     vdW kernel table read from file vdW_kernel_table
     MD5 check sum: 095c7af220d748ca6e76c0b4c6cfb241

     atomic species   valence    mass     pseudopotential
        Ni1           18.00    58.69340     Ni( 1.00)

     Starting magnetic structure
     atomic species   magnetization
        Ni1          0.111

     No symmetry found

   Cartesian axes

     site n.     atom                  positions (alat units)
         1           Ni1 tau(   1) = (   1.2485009   0.7208223  10.0000000  )
         2           Ni1 tau(   2) = (   3.7455027   0.7208223  10.0000000  )
         3           Ni1 tau(   3) = (   2.4970018   2.8832893  10.0000000  )
         4           Ni1 tau(   4) = (   4.9940036   2.8832893  10.0000000  )
         5           Ni1 tau(   5) = (   4.9940036   1.4416447  12.0387934  )
         6           Ni1 tau(   6) = (   2.4970018   1.4416447  12.0387934  )
         7           Ni1 tau(   7) = (   6.2425045   3.6041116  12.0387934  )
         8           Ni1 tau(   8) = (   3.7455027   3.6041116  12.0387934  )
         9           Ni1 tau(   9) = (   0.0000000   0.0000000  14.0775869  )
        10           Ni1 tau(  10) = (   2.4970018   0.0000000  14.0775869  )
        11           Ni1 tau(  11) = (   1.2485009   2.1624670  14.0775869  )
        12           Ni1 tau(  12) = (   3.7455027   2.1624670  14.0775869  )

     number of k points=    40  Fermi-Dirac smearing, width (Ry)=  0.0110
                       cart. coord. in units 2pi/alat
        k(    1) = (   0.0000000   0.0000000   0.0000000), wk =   0.0277778
        k(    2) = (   0.0000000   0.0385362   0.0000000), wk =   0.0555556
        k(    3) = (   0.0000000   0.0770725   0.0000000), wk =   0.0555556
        k(    4) = (   0.0000000  -0.1156087   0.0000000), wk =   0.0277778
        k(    5) = (   0.0333734  -0.0192681   0.0000000), wk =   0.0555556
        k(    6) = (   0.0333734   0.0192681   0.0000000), wk =   0.0555556
        k(    7) = (   0.0333734   0.0578044   0.0000000), wk =   0.0555556
        k(    8) = (   0.0333734  -0.1348768   0.0000000), wk =   0.0555556
        k(    9) = (   0.0333734  -0.0963406   0.0000000), wk =   0.0555556
        k(   10) = (   0.0333734  -0.0578044   0.0000000), wk =   0.0555556
        k(   11) = (   0.0667467  -0.0385362   0.0000000), wk =   0.0555556
        k(   12) = (   0.0667467  -0.0000000   0.0000000), wk =   0.0555556
        k(   13) = (   0.0667467   0.0385362   0.0000000), wk =   0.0555556
        k(   14) = (   0.0667467  -0.1541449   0.0000000), wk =   0.0555556
        k(   15) = (   0.0667467  -0.1156087   0.0000000), wk =   0.0555556
        k(   16) = (   0.0667467  -0.0770725   0.0000000), wk =   0.0555556
        k(   17) = (  -0.1001201   0.0578044   0.0000000), wk =   0.0277778
        k(   18) = (  -0.1001201   0.0963406   0.0000000), wk =   0.0555556
        k(   19) = (  -0.1001201   0.1348768   0.0000000), wk =   0.0555556
        k(   20) = (  -0.1001201  -0.0578044   0.0000000), wk =   0.0277778
        k(   21) = (   0.0000000   0.0000000   0.0000000), wk =   0.0277778
        k(   22) = (   0.0000000   0.0385362   0.0000000), wk =   0.0555556
        k(   23) = (   0.0000000   0.0770725   0.0000000), wk =   0.0555556
        k(   24) = (   0.0000000  -0.1156087   0.0000000), wk =   0.0277778
        k(   25) = (   0.0333734  -0.0192681   0.0000000), wk =   0.0555556
        k(   26) = (   0.0333734   0.0192681   0.0000000), wk =   0.0555556
        k(   27) = (   0.0333734   0.0578044   0.0000000), wk =   0.0555556
        k(   28) = (   0.0333734  -0.1348768   0.0000000), wk =   0.0555556
        k(   29) = (   0.0333734  -0.0963406   0.0000000), wk =   0.0555556
        k(   30) = (   0.0333734  -0.0578044   0.0000000), wk =   0.0555556
        k(   31) = (   0.0667467  -0.0385362   0.0000000), wk =   0.0555556
        k(   32) = (   0.0667467  -0.0000000   0.0000000), wk =   0.0555556
        k(   33) = (   0.0667467   0.0385362   0.0000000), wk =   0.0555556
        k(   34) = (   0.0667467  -0.1541449   0.0000000), wk =   0.0555556
        k(   35) = (   0.0667467  -0.1156087   0.0000000), wk =   0.0555556
        k(   36) = (   0.0667467  -0.0770725   0.0000000), wk =   0.0555556
        k(   37) = (  -0.1001201   0.0578044   0.0000000), wk =   0.0277778
        k(   38) = (  -0.1001201   0.0963406   0.0000000), wk =   0.0555556
        k(   39) = (  -0.1001201   0.1348768   0.0000000), wk =   0.0555556
        k(   40) = (  -0.1001201  -0.0578044   0.0000000), wk =   0.0277778

     Largest allocated arrays     est. size (Mb)     dimensions
     Largest temporary arrays     est. size (Mb)     dimensions

     Check: negative/imaginary core charge=   -0.000002    0.000000

     Initial potential from superposition of free atoms
     Check: negative starting charge=(component1):   -0.000570
     Check: negative starting charge=(component2):   -0.000456

     starting charge  192.00000, renormalised to  216.00000

     negative rho (up, down):  6.411E-04 5.129E-04

     *
     * You are using vdW-DF for exchange-correlation in this calculation.
     * Please cite the following three references that made this development
     * possible:
     *
     *   M. Dion, H. Rydberg, E. Schroder, D. C. Langreth, and
     *   B. I. Lundqvist, Phys. Rev. Lett. 92, 246401 (2004).
     *
     *   T. Thonhauser, V. R. Cooper, S. Li, A. Puzder, P. Hyldgaard, and
     *   D. C. Langreth, Phys. Rev. B 76, 125112 (2007).
     *
     *   G. Roman-Perez and J. M. Soler, Phys. Rev. Lett. 103, 096102 (2009).
     *
     *
     * If you are using vdW-DF2, please also cite:
     *
     *   K. Lee, E. D. Murray, L. Kong, B. I. Lundqvist, and
     *   D. C. Langreth, Phys. Rev. B 82, 081101(R) (2010).
     *
     *
     * If you are calculating the stress with vdW-DF, please also cite:
     *
     *   R. Sabatini, E. Kucukbenli, B. Kolb, T. Thonhauser, and
     *   S. de Gironcoli, J. Phys.: Condens. Matter 24, 424209 (2012).
     *

     Carrying out vdW-DF run using the following parameters:

     Nqs =      20    Nr_points =    1024   r_max =   100.000
     q_mesh =
               0.00001000     0.04494208     0.09755937     0.15916263
               0.23128650     0.31572767     0.41458969     0.53033537
               0.66584808     0.82450364     1.01025438     1.22772762
               1.48234092     1.78043706     2.12944203     2.53805004
               3.01644009     3.57652955     4.23227104     5.00000000

     Gradients computed in reciprocal space

     Adding external electric field

     Computed dipole along edir(3) :
        Dipole               -0.0000 Ry au,         -0.0000 Debye
        Dipole field         -0.0000 Ry au

        Potential amp.        0.0000 Ry
        Total length         44.3625 bohr

[...]

     Starting wfc are  156 randomized atomic wfcs

     Self-consistent Calculation

     iteration #  1     ecut=    36.75 Ry     beta=0.20
     Davidson diagonalization with overlap
     ethr =  1.00E-02,  avg # of iterations =  8.1

[...]

     Magnetic moment per site:
     atom:    1    charge:    9.4010    magn:    0.9442    constr:    0.0000
     atom:    2    charge:    9.4010    magn:    0.9443    constr:    0.0000
     atom:    3    charge:    9.4010    magn:    0.9443    constr:    0.0000
     atom:    4    charge:    9.4010    magn:    0.9443    constr:    0.0000
     atom:    5    charge:    9.3939    magn:    0.9438    constr:    0.0000
     atom:    6    charge:    9.3939    magn:    0.9438    constr:    0.0000
     atom:    7    charge:    9.3939    magn:    0.9438    constr:    0.0000
     atom:    8    charge:    9.3939    magn:    0.9438    constr:    0.0000
     atom:    9    charge:    9.4010    magn:    0.9443    constr:    0.0000
     atom:   10    charge:    9.4010    magn:    0.9443    constr:    0.0000
     atom:   11    charge:    9.4010    magn:    0.9443    constr:    0.0000
     atom:   12    charge:    9.4010    magn:    0.9443    constr:    0.0000

     total energy              =   -2928.05029212 Ry
     Harris-Foulkes estimate   =   -4279.45121888 Ry
     estimated scf accuracy    <    3863.68770000 Ry

     total magnetization       =     2.08 Bohr mag/cell
     absolute magnetization    =     2.14 Bohr mag/cell

[...]

     End of self-consistent calculation

 ------ SPIN UP ------------

[...]

     reciprocal axes: (cart. coord. in units 2 pi/alat)
               b(1) = (  0.200240 -0.115609  0.000000 )
               b(2) = (  0.000000  0.231217  0.000000 )
               b(3) = (  0.000000  0.000000  0.041532 )

     PseudoPot. # 1 for Ni read from file:
     /afs/slac.stanford.edu/u/if/mamunm/psp/gbrv1.5pbe/Ni.UPF
     MD5 check sum: 1ee80287db30b12d2bc1f57a5b5d6409
     Pseudo is Ultrasoft + core correction, Zval = 18.0
     Generated by new atomic code, or converted to UPF format
     Using radial grid of  865 points,  6 beta functions with:
                l(1) =   0
                l(2) =   0
                l(3) =   1
                l(4) =   1
                l(5) =   2
                l(6) =   2
     Q(r) pseudized with 10 coefficients,  rinner =    0.980   0.980   0.980
                                                       0.980   0.980

     vdW kernel table read from file vdW_kernel_table
     MD5 check sum: 095c7af220d748ca6e76c0b4c6cfb241

     atomic species   valence    mass     pseudopotential
        Ni1           18.00    58.69340     Ni( 1.00)

     Starting magnetic structure
     atomic species   magnetization
        Ni1          0.111

     No symmetry found

   Cartesian axes

     site n.     atom                  positions (alat units)
         1           Ni1 tau(   1) = (   1.2485009   0.7208223  10.0000000  )
         2           Ni1 tau(   2) = (   3.7455027   0.7208223  10.0000000  )
         3           Ni1 tau(   3) = (   2.4970018   2.8832893  10.0000000  )
         4           Ni1 tau(   4) = (   4.9940036   2.8832893  10.0000000  )
         5           Ni1 tau(   5) = (   4.9940036   1.4416447  12.0387934  )
         6           Ni1 tau(   6) = (   2.4970018   1.4416447  12.0387934  )
         7           Ni1 tau(   7) = (   6.2425045   3.6041116  12.0387934  )
         8           Ni1 tau(   8) = (   3.7455027   3.6041116  12.0387934  )
         9           Ni1 tau(   9) = (   4.9938770   0.0001416  14.0736989  )
        10           Ni1 tau(  10) = (   4.9941263   4.3243648  14.0741813  )
        11           Ni1 tau(  11) = (   6.2419063   2.1627588  14.0740635  )
        12           Ni1 tau(  12) = (   3.7461160   2.1626215  14.0741177  )

     number of k points=    40  Fermi-Dirac smearing, width (Ry)=  0.0110
                       cart. coord. in units 2pi/alat
        k(    1) = (   0.0000000   0.0000000   0.0000000), wk =   0.0277778
        k(    2) = (   0.0000000   0.0385362   0.0000000), wk =   0.0555556
        k(    3) = (   0.0000000   0.0770725   0.0000000), wk =   0.0555556
        k(    4) = (   0.0000000  -0.1156087   0.0000000), wk =   0.0277778
        k(    5) = (   0.0333734  -0.0192681   0.0000000), wk =   0.0555556
        k(    6) = (   0.0333734   0.0192681   0.0000000), wk =   0.0555556
        k(    7) = (   0.0333734   0.0578044   0.0000000), wk =   0.0555556
        k(    8) = (   0.0333734  -0.1348768   0.0000000), wk =   0.0555556
        k(    9) = (   0.0333734  -0.0963406   0.0000000), wk =   0.0555556
        k(   10) = (   0.0333734  -0.0578044   0.0000000), wk =   0.0555556
        k(   11) = (   0.0667467  -0.0385362   0.0000000), wk =   0.0555556
        k(   12) = (   0.0667467  -0.0000000   0.0000000), wk =   0.0555556
        k(   13) = (   0.0667467   0.0385362   0.0000000), wk =   0.0555556
        k(   14) = (   0.0667467  -0.1541449   0.0000000), wk =   0.0555556
        k(   15) = (   0.0667467  -0.1156087   0.0000000), wk =   0.0555556
        k(   16) = (   0.0667467  -0.0770725   0.0000000), wk =   0.0555556
        k(   17) = (  -0.1001201   0.0578044   0.0000000), wk =   0.0277778
        k(   18) = (  -0.1001201   0.0963406   0.0000000), wk =   0.0555556
        k(   19) = (  -0.1001201   0.1348768   0.0000000), wk =   0.0555556
        k(   20) = (  -0.1001201  -0.0578044   0.0000000), wk =   0.0277778
        k(   21) = (   0.0000000   0.0000000   0.0000000), wk =   0.0277778
        k(   22) = (   0.0000000   0.0385362   0.0000000), wk =   0.0555556
        k(   23) = (   0.0000000   0.0770725   0.0000000), wk =   0.0555556
        k(   24) = (   0.0000000  -0.1156087   0.0000000), wk =   0.0277778
        k(   25) = (   0.0333734  -0.0192681   0.0000000), wk =   0.0555556
        k(   26) = (   0.0333734   0.0192681   0.0000000), wk =   0.0555556
        k(   27) = (   0.0333734   0.0578044   0.0000000), wk =   0.0555556
        k(   28) = (   0.0333734  -0.1348768   0.0000000), wk =   0.0555556
        k(   29) = (   0.0333734  -0.0963406   0.0000000), wk =   0.0555556
        k(   30) = (   0.0333734  -0.0578044   0.0000000), wk =   0.0555556
        k(   31) = (   0.0667467  -0.0385362   0.0000000), wk =   0.0555556
        k(   32) = (   0.0667467  -0.0000000   0.0000000), wk =   0.0555556
        k(   33) = (   0.0667467   0.0385362   0.0000000), wk =   0.0555556
        k(   34) = (   0.0667467  -0.1541449   0.0000000), wk =   0.0555556
        k(   35) = (   0.0667467  -0.1156087   0.0000000), wk =   0.0555556
        k(   36) = (   0.0667467  -0.0770725   0.0000000), wk =   0.0555556
        k(   37) = (  -0.1001201   0.0578044   0.0000000), wk =   0.0277778
        k(   38) = (  -0.1001201   0.0963406   0.0000000), wk =   0.0555556
        k(   39) = (  -0.1001201   0.1348768   0.0000000), wk =   0.0555556
        k(   40) = (  -0.1001201  -0.0578044   0.0000000), wk =   0.0277778

     Largest allocated arrays     est. size (Mb)     dimensions
     Largest temporary arrays     est. size (Mb)     dimensions

     Check: negative/imaginary core charge=   -0.000002    0.000000

     Initial potential from superposition of free atoms
     Check: negative starting charge=(component1):   -0.000569
     Check: negative starting charge=(component2):   -0.000455

     starting charge  192.00000, renormalised to  216.00000

[...]

     *
     * You are using vdW-DF for exchange-correlation in this calculation.
     * Please cite the following three references that made this development
     * possible:
     *
     *   M. Dion, H. Rydberg, E. Schroder, D. C. Langreth, and
     *   B. I. Lundqvist, Phys. Rev. Lett. 92, 246401 (2004).
     *
     *   T. Thonhauser, V. R. Cooper, S. Li, A. Puzder, P. Hyldgaard, and
     *   D. C. Langreth, Phys. Rev. B 76, 125112 (2007).
     *
     *   G. Roman-Perez and J. M. Soler, Phys. Rev. Lett. 103, 096102 (2009).
     *
     *
     * If you are using vdW-DF2, please also cite:
     *
     *   K. Lee, E. D. Murray, L. Kong, B. I. Lundqvist, and
     *   D. C. Langreth, Phys. Rev. B 82, 081101(R) (2010).
     *
     *
     * If you are calculating the stress with vdW-DF, please also cite:
     *
     *   R. Sabatini, E. Kucukbenli, B. Kolb, T. Thonhauser, and
     *   S. de Gironcoli, J. Phys.: Condens. Matter 24, 424209 (2012).
     *

     Carrying out vdW-DF run using the following parameters:

     Nqs =      20    Nr_points =    1024   r_max =   100.000
     q_mesh =
               0.00001000     0.04494208     0.09755937     0.15916263
               0.23128650     0.31572767     0.41458969     0.53033537
               0.66584808     0.82450364     1.01025438     1.22772762
               1.48234092     1.78043706     2.12944203     2.53805004
               3.01644009     3.57652955     4.23227104     5.00000000

     Gradients computed in reciprocal space

[...]

     Starting wfc are  156 randomized atomic wfcs

     Self-consistent Calculation

[...]

     total energy              =   -4133.01799455 Ry
     Harris-Foulkes estimate   =   -4133.01799658 Ry
     estimated scf accuracy    <       0.00004746 Ry

[...]

     iteration # 66     ecut=    36.75 Ry     beta=0.20
     Davidson diagonalization with overlap
     ethr =  2.20E-08,  avg # of iterations =  1.1

[...]

     negative rho (up, down):  1.043E-03 8.422E-04

[...]

     Adding external electric field

     Computed dipole along edir(3) :
        Dipole                0.0084 Ry au,          0.0214 Debye
        Dipole field          0.0000 Ry au

        Potential amp.       -0.0027 Ry
        Total length         44.3625 bohr

     Magnetic moment per site:
     atom:    1    charge:    9.3527    magn:    0.4279    constr:    0.0000
     atom:    2    charge:    9.3519    magn:    0.4287    constr:    0.0000
     atom:    3    charge:    9.3522    magn:    0.4281    constr:    0.0000
     atom:    4    charge:    9.3516    magn:    0.4290    constr:    0.0000
     atom:    5    charge:    9.3396    magn:    0.4576    constr:    0.0000
     atom:    6    charge:    9.3399    magn:    0.4577    constr:    0.0000
     atom:    7    charge:    9.3394    magn:    0.4580    constr:    0.0000
     atom:    8    charge:    9.3399    magn:    0.4579    constr:    0.0000
     atom:    9    charge:    9.3470    magn:    0.4288    constr:    0.0000
     atom:   10    charge:    9.3473    magn:    0.4292    constr:    0.0000
     atom:   11    charge:    9.3473    magn:    0.4290    constr:    0.0000
     atom:   12    charge:    9.3473    magn:    0.4291    constr:    0.0000

     End of self-consistent calculation

 ------ SPIN UP ------------

[...]

 ------ SPIN DOWN ----------

[...]

          k = 0.0667-0.0771 0.0000 ( 13218 PWs)   bands (ev):

[...]

          k =-0.1001-0.0578 0.0000 ( 13214 PWs)   bands (ev):

  -102.3234-102.3229-102.3123-102.3118-102.0917-102.0913-102.0902-102.0901
  -102.0809-102.0806-102.0793-102.0793 -62.7721 -62.7716 -62.7358 -62.7352
   -62.7244 -62.7239 -62.7218 -62.7213 -62.7108 -62.7104 -62.6583 -62.6578
   -62.5826 -62.5823 -62.5726 -62.5724 -62.5332 -62.5329 -62.5286 -62.5285
   -62.5219 -62.5217 -62.5192 -62.5192 -62.4723 -62.4719 -62.4703 -62.4703
   -62.3994 -62.3991 -62.3914 -62.3910 -62.3888 -62.3885 -62.3868 -62.3868
    -5.6242  -5.6236  -3.8828  -3.8822  -3.0818  -3.0815  -2.7262  -2.7256
    -2.6593  -2.6586  -2.2070  -2.2066  -2.0592  -2.0585  -1.8903  -1.8900
    -1.6578  -1.6577  -1.6012  -1.6010  -1.5876  -1.5868  -1.2366  -1.2363
    -1.0766  -1.0760  -1.0697  -1.0692  -1.0439  -1.0433  -0.9265  -0.9260
    -0.8387  -0.8382  -0.7855  -0.7851  -0.7394  -0.7392  -0.5874  -0.5866
    -0.2872  -0.2868  -0.2025  -0.2020  -0.1349  -0.1345   0.0035   0.0036
     0.0643   0.0655   0.1245   0.1253   0.3134   0.3135   0.3267   0.3268
     0.4035   0.4038   0.6676   0.6677   0.7250   0.7252   0.8631   0.8634
     2.1776   2.1783   2.3364   2.3366   3.2391   3.2392

     the Fermi energy is     0.5689 ev

!    total energy              =   -4133.01799252 Ry
     Harris-Foulkes estimate   =   -4133.01799618 Ry
     estimated scf accuracy    <       0.00000843 Ry

     The total energy is the sum of the following terms:

     one-electron contribution =  -35377.68980223 Ry
     hartree contribution      =   17699.00666926 Ry
     xc contribution           =    -441.24274201 Ry
     ewald contribution        =   13987.02201065 Ry
     electric field correction =       0.00000025 Ry
     smearing contrib. (-TS)   =      -0.11412845 Ry

     total magnetization       =     8.28 Bohr mag/cell
     absolute magnetization    =     9.59 Bohr mag/cell

     convergence has been achieved in  66 iterations

 BEEF-vdW xc energy contributions
           1 :   -388.774067471395
           2 :    352.395238968093
           3 :   -291.231116391812
           4 :    223.051497517490
           5 :   -164.136768994782
           6 :    123.270785180301
           7 :   -100.085421332742
           8 :    87.8701190908840
           9 :   -78.6796015282055
          10 :    67.6762726700534
          11 :   -54.6113942762489
          12 :    42.2987091418779
          13 :   -33.6858814964652
          14 :    29.5995219586641
          15 :   -28.4242226167576
          16 :    27.5000642597000
          17 :   -24.9932416519488
          18 :    20.9068315697345
          19 :   -16.7040254111174
          20 :    13.9990279373752
          21 :   -13.3422289240102
          22 :    13.9116916866935
          23 :   -14.2181111263563
          24 :    13.2098274516125
          25 :   -10.9681079130618
          26 :    8.53876737822100
          27 :   -7.10231014721126
          28 :    7.11579019422828
          29 :   -8.03458405601759
          30 :    8.75954451897417
          31 :   -32.2026079158999
          32 :   -22.5063415691234

     Forces acting on atoms (Ry/au):

     negative rho (up, down):  1.043E-03 8.422E-04
     atom    1 type  1   force =     0.00000068    0.00002789    0.00100686
     atom    2 type  1   force =    -0.00000533   -0.00005375    0.00102389
     atom    3 type  1   force =    -0.00007553    0.00001281    0.00096799
     atom    4 type  1   force =     0.00007052    0.00001270    0.00103151
     atom    5 type  1   force =    -0.00023083    0.00021396   -0.00025362
     atom    6 type  1   force =     0.00023395   -0.00007257    0.00016705
     atom    7 type  1   force =    -0.00024210    0.00007138   -0.00033618
     atom    8 type  1   force =     0.00024524   -0.00020864   -0.00001399
     atom    9 type  1   force =    -0.00004477   -0.00009182   -0.00106014
     atom   10 type  1   force =     0.00004751    0.00021821   -0.00088709
     atom   11 type  1   force =     0.00027263   -0.00003993   -0.00087007
     atom   12 type  1   force =    -0.00027198   -0.00009024   -0.00077621

     Total force =     0.002846     Total SCF correction =     0.018384
     SCF correction compared to forces is large: reduce conv_thr to get better values

     entering subroutine stress ...

     negative rho (up, down):  1.043E-03 8.422E-04
          total   stress  (Ry/bohr**3)                   (kbar)     P=  -78.02
  -0.00054827   0.00000000  -0.00000000        -80.65      0.00     -0.00
   0.00000000  -0.00054823  -0.00000001          0.00    -80.65     -0.00
  -0.00000000  -0.00000001  -0.00049460         -0.00     -0.00    -72.76

 !ASE

     Writing output data file calc.save

     General routines

     Parallel routines

   This run was terminated on:   3:44: 2  19Dec2018

   JOB DONE.
Job  /afs/slac/g/suncat/bin/suncat-tsmpirun -x LD_LIBRARY_PATH -wdir /scratch/qe529425_yrxwI pw.x -in pw.inp

TID   HOST_NAME   COMMAND_LINE            STATUS            TERMINATION_TIME
00000 suncat1054 pw.x -in pw.inp   Done                     12/19/2018 03:44:02
00001 suncat1054 pw.x -in pw.inp   Done                     12/19/2018 03:44:02
00002 suncat1054 pw.x -in pw.inp   Done                     12/19/2018 03:44:02
00003 suncat1054 pw.x -in pw.inp   Done                     12/19/2018 03:44:02
00004 suncat1054 pw.x -in pw.inp   Done                     12/19/2018 03:44:02
00005 suncat1054 pw.x -in pw.inp   Done                     12/19/2018 03:44:02
00006 suncat1054 pw.x -in pw.inp   Done                     12/19/2018 03:44:02
00007 suncat1054 pw.x -in pw.inp   Done                     12/19/2018 03:44:02
00008 suncat1053 pw.x -in pw.inp   Done                     12/19/2018 03:44:02
00009 suncat1053 pw.x -in pw.inp   Done                     12/19/2018 03:44:02
00010 suncat1053 pw.x -in pw.inp   Done                     12/19/2018 03:44:02
00011 suncat1053 pw.x -in pw.inp   Done                     12/19/2018 03:44:02
00012 suncat1053 pw.x -in pw.inp   Done                     12/19/2018 03:44:02
00013 suncat1053 pw.x -in pw.inp   Done                     12/19/2018 03:44:02
00014 suncat1053 pw.x -in pw.inp   Done                     12/19/2018 03:44:02
00015 suncat1053 pw.x -in pw.inp   Done                     12/19/2018 03:44:02
00016 suncat1053 pw.x -in pw.inp   Done                     12/19/2018 03:44:02
00017 suncat1053 pw.x -in pw.inp   Done                     12/19/2018 03:44:02
00018 suncat1053 pw.x -in pw.inp   Done                     12/19/2018 03:44:02
00019 suncat1053 pw.x -in pw.inp   Done                     12/19/2018 03:44:02
00020 suncat1052 pw.x -in pw.inp   Done                     12/19/2018 03:44:02
00021 suncat1052 pw.x -in pw.inp   Done                     12/19/2018 03:44:02
00022 suncat1052 pw.x -in pw.inp   Done                     12/19/2018 03:44:02
00023 suncat1052 pw.x -in pw.inp   Done                     12/19/2018 03:44:02
00024 suncat1052 pw.x -in pw.inp   Done                     12/19/2018 03:44:02
00025 suncat1052 pw.x -in pw.inp   Done                     12/19/2018 03:44:02
00026 suncat1052 pw.x -in pw.inp   Done                     12/19/2018 03:44:02
00027 suncat1052 pw.x -in pw.inp   Done                     12/19/2018 03:44:02
00028 suncat1052 pw.x -in pw.inp   Done                     12/19/2018 03:44:02
00029 suncat1052 pw.x -in pw.inp   Done                     12/19/2018 03:44:02
00030 suncat1052 pw.x -in pw.inp   Done                     12/19/2018 03:44:02
00031 suncat1052 pw.x -in pw.inp   Done                     12/19/2018 03:44:02