     Program PWSCF v.5.1rc2 (svn rev. 11289) starts on 18Dec2018 at 16:49: 9

     Current dimensions of program PWSCF are:
     Max number of different atomic species (ntypx) = 10
     Max number of k-points (npk) =  40000
     Max angular momentum in pseudopotentials (lmaxx) =  3
     Presently stress not available with electric field

     IMPORTANT: XC functional enforced from input :
     Exchange-correlation      = BEEF-VDW ( 1  4 27 13 2)
     Any further DFT definition will be discarded
     Please, verify this is what you really want

     Subspace diagonalization in iterative solution of the eigenvalue problem:
     a serial algorithm will be used

     Found symmetry operation: I + ( -0.5000  0.0000  0.0000)
     This is a supercell, fractional translations are disabled

     bravais-lattice index     =            0
     lattice parameter (alat)  =       1.8897  a.u.
     unit-cell volume          =    6117.3319 (a.u.)^3
     number of atoms/cell      =           12
     number of atomic types    =            1
     number of electrons       =       144.00
     number of Kohn-Sham states=           82
     kinetic-energy cutoff     =      36.7493  Ry
     charge density cutoff     =     367.4932  Ry
     convergence threshold     =      1.0E-05
     mixing beta               =       0.2000
     number of iterations used =           10  plain     mixing
     Exchange-correlation      = BEEF-VDW ( 1  4 27 13 2)
     nstep                     =           50

     celldm(1)=   1.889726  celldm(2)=   0.000000  celldm(3)=   0.000000
     celldm(4)=   0.000000  celldm(5)=   0.000000  celldm(6)=   0.000000

     crystal axes: (cart. coord. in units of alat)
               a(1) = (   6.437717   0.000000   0.000000 )
               a(2) = (   3.218859   5.575227   0.000000 )
               a(3) = (   0.000000   0.000000  25.256374 )

     reciprocal axes: (cart. coord. in units 2 pi/alat)
               b(1) = (  0.155335 -0.089682  0.000000 )
               b(2) = (  0.000000  0.179365  0.000000 )
               b(3) = (  0.000000  0.000000  0.039594 )

     PseudoPot. # 1 for Hg read from file:
     /afs/slac.stanford.edu/u/if/mamunm/psp/gbrv1.5pbe/Hg.UPF
     MD5 check sum: 8f42caffe07f7fd9c0a564347f8c5498
     Pseudo is Ultrasoft + core correction, Zval = 12.0
     Generated by new atomic code, or converted to UPF format
     Using radial grid of  985 points,  6 beta functions with:
                l(1) =   0
                l(2) =   0
                l(3) =   1
                l(4) =   1
                l(5) =   2
                l(6) =   2
     Q(r) pseudized with  8 coefficients,  rinner =    2.000   2.000   2.000
                                                       2.000   2.000

     vdW kernel table read from file vdW_kernel_table
     MD5 check sum: 095c7af220d748ca6e76c0b4c6cfb241

     atomic species   valence    mass     pseudopotential
        Hg1           12.00   200.59200     Hg( 1.00)

     No symmetry found

   Cartesian axes

     site n.     atom                  positions (alat units)
         1           Hg1 tau(   1) = (   1.6094293   0.9292045  10.0000000  )
         2           Hg1 tau(   2) = (   4.8282880   0.9292045  10.0000000  )
         3           Hg1 tau(   3) = (   3.2188587   3.7168178  10.0000000  )
         4           Hg1 tau(   4) = (   6.4377173   3.7168178  10.0000000  )
         5           Hg1 tau(   5) = (   6.4377173   1.8584089  12.6281871  )
         6           Hg1 tau(   6) = (   3.2188587   1.8584089  12.6281871  )
         7           Hg1 tau(   7) = (   8.0471466   4.6460223  12.6281871  )
         8           Hg1 tau(   8) = (   4.8282880   4.6460223  12.6281871  )
         9           Hg1 tau(   9) = (   0.0000000   0.0000000  15.2563742  )
        10           Hg1 tau(  10) = (   3.2188587   0.0000000  15.2563742  )
        11           Hg1 tau(  11) = (   1.6094293   2.7876134  15.2563742  )
        12           Hg1 tau(  12) = (   4.8282880   2.7876134  15.2563742  )

     number of k points=    20  Fermi-Dirac smearing, width (Ry)=  0.0110
                       cart. coord. in units 2pi/alat
        k(    1) = (   0.0000000   0.0000000   0.0000000), wk =   0.0555556
        k(    2) = (   0.0000000   0.0298942   0.0000000), wk =   0.1111111
        k(    3) = (   0.0000000   0.0597883   0.0000000), wk =   0.1111111
        k(    4) = (   0.0000000  -0.0896825   0.0000000), wk =   0.0555556
        k(    5) = (   0.0258891  -0.0149471   0.0000000), wk =   0.1111111
        k(    6) = (   0.0258891   0.0149471   0.0000000), wk =   0.1111111
        k(    7) = (   0.0258891   0.0448412   0.0000000), wk =   0.1111111
        k(    8) = (   0.0258891  -0.1046295   0.0000000), wk =   0.1111111
        k(    9) = (   0.0258891  -0.0747354   0.0000000), wk =   0.1111111
        k(   10) = (   0.0258891  -0.0448412   0.0000000), wk =   0.1111111
        k(   11) = (   0.0517782  -0.0298942   0.0000000), wk =   0.1111111
        k(   12) = (   0.0517782   0.0000000   0.0000000), wk =   0.1111111
        k(   13) = (   0.0517782   0.0298942   0.0000000), wk =   0.1111111
        k(   14) = (   0.0517782  -0.1195766   0.0000000), wk =   0.1111111
        k(   15) = (   0.0517782  -0.0896825   0.0000000), wk =   0.1111111
        k(   16) = (   0.0517782  -0.0597883   0.0000000), wk =   0.1111111
        k(   17) = (  -0.0776673   0.0448412   0.0000000), wk =   0.0555556
        k(   18) = (  -0.0776673   0.0747354   0.0000000), wk =   0.1111111
        k(   19) = (  -0.0776673   0.1046295   0.0000000), wk =   0.1111111
        k(   20) = (  -0.0776673  -0.0448412   0.0000000), wk =   0.0555556

     Largest allocated arrays     est. size (Mb)     dimensions
     Largest temporary arrays     est. size (Mb)     dimensions

     Initial potential from superposition of free atoms
     Check: negative starting charge=   -0.000102

     starting charge  143.99930, renormalised to  144.00000

     negative rho (up, down):  1.021E-04 0.000E+00

     *
     * You are using vdW-DF for exchange-correlation in this calculation.
     * Please cite the following three references that made this development
     * possible:
     *
     *   M. Dion, H. Rydberg, E. Schroder, D. C. Langreth, and
     *   B. I. Lundqvist, Phys. Rev. Lett. 92, 246401 (2004).
     *
     *   T. Thonhauser, V. R. Cooper, S. Li, A. Puzder, P. Hyldgaard, and
     *   D. C. Langreth, Phys. Rev. B 76, 125112 (2007).
     *
     *   G. Roman-Perez and J. M. Soler, Phys. Rev. Lett. 103, 096102 (2009).
     *
     *
     * If you are using vdW-DF2, please also cite:
     *
     *   K. Lee, E. D. Murray, L. Kong, B. I. Lundqvist, and
     *   D. C. Langreth, Phys. Rev. B 82, 081101(R) (2010).
     *
     *
     * If you are calculating the stress with vdW-DF, please also cite:
     *
     *   R. Sabatini, E. Kucukbenli, B. Kolb, T. Thonhauser, and
     *   S. de Gironcoli, J. Phys.: Condens. Matter 24, 424209 (2012).
     *

     Carrying out vdW-DF run using the following parameters:

     Nqs =      20    Nr_points =    1024   r_max =   100.000
     q_mesh =
               0.00001000     0.04494208     0.09755937     0.15916263
               0.23128650     0.31572767     0.41458969     0.53033537
               0.66584808     0.82450364     1.01025438     1.22772762
               1.48234092     1.78043706     2.12944203     2.53805004
               3.01644009     3.57652955     4.23227104     5.00000000

     Gradients computed in reciprocal space

     Adding external electric field

     Computed dipole along edir(3) :
        Dipole               -0.0000 Ry au,         -0.0000 Debye
        Dipole field         -0.0000 Ry au

        Potential amp.        0.0000 Ry
        Total length         46.5344 bohr

     Starting wfc are  108 randomized atomic wfcs

     Self-consistent Calculation

     iteration #  1     ecut=    36.75 Ry     beta=0.20
     Davidson diagonalization with overlap
     ethr =  1.00E-02,  avg # of iterations =  4.2

     Threshold (ethr) on eigenvalues was too large:
     Diagonalizing with lowered threshold

     Davidson diagonalization with overlap
     ethr =  5.44E-05,  avg # of iterations =  6.7

[...]

     total energy              =   -1309.19869280 Ry
     Harris-Foulkes estimate   =   -1309.21449398 Ry
     estimated scf accuracy    <       0.05777660 Ry

[...]

     End of self-consistent calculation

          k = 0.0000 0.0000 0.0000 ( 23031 PWs)   bands (ev):

    -8.0032  -7.4886  -7.4886  -7.4885  -7.4767  -7.3354  -7.3354  -7.3353
    -7.2597  -7.2578  -7.2577  -7.2577  -7.1057  -7.1057  -7.1057  -6.6917
    -6.6917  -6.6882  -6.6882  -6.6882  -6.6521  -6.6196  -6.6196  -6.6196
    -6.5154  -6.5154  -6.5152  -6.5049  -6.5049  -6.4003  -6.4003  -6.0548
    -6.0548  -5.9747  -5.9747  -5.9747  -5.9579  -5.9579  -5.9578  -5.7887
    -5.7887  -5.7794  -5.7793  -5.7793  -5.7369  -5.6587  -5.6587  -5.6585
    -5.5990  -5.5990  -5.5624  -5.5624  -5.5622  -5.5333  -5.5333  -5.5333
    -5.3542  -5.3542  -5.3542  -5.3419  -5.3419  -5.3419  -3.2866  -1.4699
    -1.4698  -1.4698  -1.4170  -1.4170  -1.4170  -0.0478  -0.0478  -0.0478
     0.0442   0.0543   0.0543   0.0543   1.7476   1.7476   1.7476   2.1037
     2.1037   2.1037

[...]

          k =-0.0777 0.0448 0.0000 ( 23032 PWs)   bands (ev):

[...]

     the Fermi energy is     0.3308 ev

!    total energy              =   -1309.19680818 Ry
     Harris-Foulkes estimate   =   -1309.19681105 Ry
     estimated scf accuracy    <       0.00000488 Ry

     The total energy is the sum of the following terms:

     one-electron contribution =   -8029.04827104 Ry
     hartree contribution      =    4106.49081366 Ry
     xc contribution           =    -485.47803272 Ry
     ewald contribution        =    3098.85897251 Ry
     electric field correction =       0.00000001 Ry
     smearing contrib. (-TS)   =      -0.02029060 Ry

     convergence has been achieved in   8 iterations

 BEEF-vdW xc energy contributions
           1 :   -425.547737145832
           2 :    391.446748955760
           3 :   -332.283961875656
           4 :    262.283437643022
           5 :   -195.572186175315
           6 :    141.865132126540
           7 :   -104.514569555934
           8 :    81.2160346133287
           9 :   -66.6144425103398
          10 :    55.3773440743594
          11 :   -44.3435383415145
          12 :    33.0181086202778
          13 :   -22.6185476824527
          14 :    14.5453074414976
          15 :   -9.24750201849628
          16 :    6.00709694206245
          17 :   -3.53739479300873
          18 :   0.853705505670405
          19 :    2.17067452117266
          20 :   -4.87366275174679
          21 :    6.39042049599084
          22 :   -6.33819093716056
          23 :    5.14901975529170
          24 :   -3.85529069737981
          25 :    3.48389766015691
          26 :   -4.45128408807255
          27 :    6.33013664326984
          28 :   -8.11761105048453
          29 :    8.82959466539711
          30 :   -8.06500721322391
          31 :   -39.5455377167238
          32 :   -29.0496826675054

     Forces acting on atoms (Ry/au):

     negative rho (up, down):  1.058E-04 0.000E+00
[...]
00021 suncat1055 pw.x -in pw.inp   Done                     12/18/2018 16:57:06
00022 suncat1055 pw.x -in pw.inp   Done                     12/18/2018 16:57:06
00023 suncat1055 pw.x -in pw.inp   Done                     12/18/2018 16:57:06
00024 suncat1055 pw.x -in pw.inp   Done                     12/18/2018 16:57:06
00025 suncat1055 pw.x -in pw.inp   Done                     12/18/2018 16:57:06
00026 suncat1055 pw.x -in pw.inp   Done                     12/18/2018 16:57:06
00027 suncat1055 pw.x -in pw.inp   Done                     12/18/2018 16:57:06
00028 suncat1055 pw.x -in pw.inp   Done                     12/18/2018 16:57:06
00029 suncat1055 pw.x -in pw.inp   Done                     12/18/2018 16:57:06
00030 suncat1055 pw.x -in pw.inp   Done                     12/18/2018 16:57:06
00031 suncat1055 pw.x -in pw.inp   Done                     12/18/2018 16:57:06

     Program PWSCF v.5.1rc2 (svn rev. 11289) starts on 18Dec2018 at 16:57:12

[...]

     Initial potential from superposition of free atoms

[...]

   This run was terminated on:  17: 5:15  18Dec2018

[...]

     Program PWSCF v.5.1rc2 (svn rev. 11289) starts on 18Dec2018 at 17: 5:21

[...]

   This run was terminated on:  17:13:35  18Dec2018

[...]

     Program PWSCF v.5.1rc2 (svn rev. 11289) starts on 18Dec2018 at 17:21:51

     Current dimensions of program PWSCF are:
     Max number of different atomic species (ntypx) = 10
     Max number of k-points (npk) =  40000
     Max angular momentum in pseudopotentials (lmaxx) =  3
     Presently stress not available with electric field

     IMPORTANT: XC functional enforced from input :
     Exchange-correlation      = BEEF-VDW ( 1  4 27 13 2)
     Any further DFT definition will be discarded
     Please, verify this is what you really want

     Subspace diagonalization in iterative solution of the eigenvalue problem:
     a serial algorithm will be used

     Found symmetry operation: I + ( -0.5000  0.0000  0.0000)
     This is a supercell, fractional translations are disabled

     bravais-lattice index     =            0
     lattice parameter (alat)  =       1.8897  a.u.
     unit-cell volume          =    6117.3319 (a.u.)^3
     number of atoms/cell      =           12
     number of atomic types    =            1
     number of electrons       =       144.00
     number of Kohn-Sham states=           82
     kinetic-energy cutoff     =      36.7493  Ry
     charge density cutoff     =     367.4932  Ry
     convergence threshold     =      1.0E-05
     mixing beta               =       0.2000
     number of iterations used =           10  plain     mixing
     Exchange-correlation      = BEEF-VDW ( 1  4 27 13 2)
     nstep                     =           50

     celldm(1)=   1.889726  celldm(2)=   0.000000  celldm(3)=   0.000000
     celldm(4)=   0.000000  celldm(5)=   0.000000  celldm(6)=   0.000000

     crystal axes: (cart. coord. in units of alat)
               a(1) = (   6.437717   0.000000   0.000000 )
               a(2) = (   3.218859   5.575227   0.000000 )
               a(3) = (   0.000000   0.000000  25.256374 )

     reciprocal axes: (cart. coord. in units 2 pi/alat)
               b(1) = (  0.155335 -0.089682  0.000000 )
               b(2) = (  0.000000  0.179365  0.000000 )
               b(3) = (  0.000000  0.000000  0.039594 )

     PseudoPot. # 1 for Hg read from file:
     /afs/slac.stanford.edu/u/if/mamunm/psp/gbrv1.5pbe/Hg.UPF
     MD5 check sum: 8f42caffe07f7fd9c0a564347f8c5498
     Pseudo is Ultrasoft + core correction, Zval = 12.0
     Generated by new atomic code, or converted to UPF format
     Using radial grid of  985 points,  6 beta functions with:
                l(1) =   0
                l(2) =   0
                l(3) =   1
                l(4) =   1
                l(5) =   2
                l(6) =   2
     Q(r) pseudized with  8 coefficients,  rinner =    2.000   2.000   2.000
                                                       2.000   2.000

     vdW kernel table read from file vdW_kernel_table
     MD5 check sum: 095c7af220d748ca6e76c0b4c6cfb241

     atomic species   valence    mass     pseudopotential
        Hg1           12.00   200.59200     Hg( 1.00)

     No symmetry found

   Cartesian axes

     site n.     atom                  positions (alat units)
         1           Hg1 tau(   1) = (   1.6094293   0.9292045  10.0000000  )
         2           Hg1 tau(   2) = (   4.8282880   0.9292045  10.0000000  )
         3           Hg1 tau(   3) = (   3.2188587   3.7168178  10.0000000  )
         4           Hg1 tau(   4) = (   6.4377173   3.7168178  10.0000000  )
         5           Hg1 tau(   5) = (   6.4377173   1.8584089  12.6281871  )
         6           Hg1 tau(   6) = (   3.2188587   1.8584089  12.6281871  )
         7           Hg1 tau(   7) = (   8.0471466   4.6460223  12.6281871  )
         8           Hg1 tau(   8) = (   4.8282880   4.6460223  12.6281871  )
         9           Hg1 tau(   9) = (   0.0000304   0.0000510  15.7618386  )
        10           Hg1 tau(  10) = (   3.2188928   0.0000393  15.7620546  )
        11           Hg1 tau(  11) = (   1.6094803   2.7876797  15.7619513  )
        12           Hg1 tau(  12) = (   4.8283885   2.7876615  15.7621275  )

     number of k points=    20  Fermi-Dirac smearing, width (Ry)=  0.0110
                       cart. coord. in units 2pi/alat
        k(    1) = (   0.0000000   0.0000000   0.0000000), wk =   0.0555556
        k(    2) = (   0.0000000   0.0298942   0.0000000), wk =   0.1111111
        k(    3) = (   0.0000000   0.0597883   0.0000000), wk =   0.1111111
        k(    4) = (   0.0000000  -0.0896825   0.0000000), wk =   0.0555556
        k(    5) = (   0.0258891  -0.0149471   0.0000000), wk =   0.1111111
        k(    6) = (   0.0258891   0.0149471   0.0000000), wk =   0.1111111
        k(    7) = (   0.0258891   0.0448412   0.0000000), wk =   0.1111111
        k(    8) = (   0.0258891  -0.1046295   0.0000000), wk =   0.1111111
        k(    9) = (   0.0258891  -0.0747354   0.0000000), wk =   0.1111111
        k(   10) = (   0.0258891  -0.0448412   0.0000000), wk =   0.1111111
        k(   11) = (   0.0517782  -0.0298942   0.0000000), wk =   0.1111111
        k(   12) = (   0.0517782   0.0000000   0.0000000), wk =   0.1111111
        k(   13) = (   0.0517782   0.0298942   0.0000000), wk =   0.1111111
        k(   14) = (   0.0517782  -0.1195766   0.0000000), wk =   0.1111111
        k(   15) = (   0.0517782  -0.0896825   0.0000000), wk =   0.1111111
        k(   16) = (   0.0517782  -0.0597883   0.0000000), wk =   0.1111111
        k(   17) = (  -0.0776673   0.0448412   0.0000000), wk =   0.0555556
        k(   18) = (  -0.0776673   0.0747354   0.0000000), wk =   0.1111111
        k(   19) = (  -0.0776673   0.1046295   0.0000000), wk =   0.1111111
        k(   20) = (  -0.0776673  -0.0448412   0.0000000), wk =   0.0555556

     Largest allocated arrays     est. size (Mb)     dimensions
     Largest temporary arrays     est. size (Mb)     dimensions

     Initial potential from superposition of free atoms

     starting charge  143.99930, renormalised to  144.00000

[...]

     *
     * You are using vdW-DF for exchange-correlation in this calculation.
     * Please cite the following three references that made this development
     * possible:
     *
     *   M. Dion, H. Rydberg, E. Schroder, D. C. Langreth, and
     *   B. I. Lundqvist, Phys. Rev. Lett. 92, 246401 (2004).
     *
     *   T. Thonhauser, V. R. Cooper, S. Li, A. Puzder, P. Hyldgaard, and
     *   D. C. Langreth, Phys. Rev. B 76, 125112 (2007).
     *
     *   G. Roman-Perez and J. M. Soler, Phys. Rev. Lett. 103, 096102 (2009).
     *
     *
     * If you are using vdW-DF2, please also cite:
     *
     *   K. Lee, E. D. Murray, L. Kong, B. I. Lundqvist, and
     *   D. C. Langreth, Phys. Rev. B 82, 081101(R) (2010).
     *
     *
     * If you are calculating the stress with vdW-DF, please also cite:
     *
     *   R. Sabatini, E. Kucukbenli, B. Kolb, T. Thonhauser, and
     *   S. de Gironcoli, J. Phys.: Condens. Matter 24, 424209 (2012).
     *

     Carrying out vdW-DF run using the following parameters:

     Nqs =      20    Nr_points =    1024   r_max =   100.000
     q_mesh =
               0.00001000     0.04494208     0.09755937     0.15916263
               0.23128650     0.31572767     0.41458969     0.53033537
               0.66584808     0.82450364     1.01025438     1.22772762
               1.48234092     1.78043706     2.12944203     2.53805004
               3.01644009     3.57652955     4.23227104     5.00000000

     Gradients computed in reciprocal space

[...]

     Starting wfc are  108 randomized atomic wfcs

     Self-consistent Calculation

[...]

     Threshold (ethr) on eigenvalues was too large:
     Diagonalizing with lowered threshold

     Davidson diagonalization with overlap
     ethr =  5.06E-05,  avg # of iterations =  7.0

[...]

     total energy              =   -1309.23748833 Ry
     Harris-Foulkes estimate   =   -1309.23748822 Ry
     estimated scf accuracy    <       0.00002379 Ry

     iteration #  8     ecut=    36.75 Ry     beta=0.20
     Davidson diagonalization with overlap
     ethr =  1.65E-08,  avg # of iterations =  1.9

[...]

     negative rho (up, down):  9.556E-05 0.000E+00

     Adding external electric field

     Computed dipole along edir(3) :
        Dipole                0.0308 Ry au,          0.0782 Debye
        Dipole field          0.0001 Ry au

        Potential amp.       -0.0059 Ry
        Total length         46.5344 bohr

     End of self-consistent calculation

[...]

          k = 0.0518-0.0598 0.0000 ( 23014 PWs)   bands (ev):

[...]

          k =-0.0777-0.0448 0.0000 ( 23032 PWs)   bands (ev):

    -7.0437  -7.0437  -6.9173  -6.9173  -6.8626  -6.8626  -6.8106  -6.8106
    -6.7363  -6.7363  -6.6890  -6.6890  -6.6502  -6.6502  -6.4996  -6.4996
    -6.4640  -6.4640  -6.3782  -6.3782  -6.3270  -6.3270  -6.2382  -6.2382
    -6.2222  -6.2222  -6.1972  -6.1972  -6.1940  -6.1940  -6.0640  -6.0640
    -6.0542  -6.0542  -5.9997  -5.9997  -5.9867  -5.9866  -5.9527  -5.9527
    -5.9271  -5.9271  -5.8672  -5.8672  -5.8433  -5.8433  -5.8297  -5.8297
    -5.7111  -5.7111  -5.7025  -5.7024  -5.6612  -5.6612  -5.5618  -5.5618
    -5.5303  -5.5303  -5.4895  -5.4895  -5.4147  -5.4147  -4.2979  -4.2978
    -2.5829  -2.5829  -2.5511  -2.5511  -1.4372  -1.4372  -0.1932  -0.1932
     1.7523   1.7524   2.9509   2.9509   3.4660   3.4660   3.6500   3.6500
     4.2292   4.2292

     the Fermi energy is     0.3492 ev

!    total energy              =   -1309.23749209 Ry
     Harris-Foulkes estimate   =   -1309.23748998 Ry
     estimated scf accuracy    <       0.00000559 Ry

     The total energy is the sum of the following terms:

     one-electron contribution =   -7456.44918501 Ry
     hartree contribution      =    3820.94418724 Ry
     xc contribution           =    -485.32152698 Ry
     ewald contribution        =    2811.60812633 Ry
     electric field correction =       0.00000195 Ry
     smearing contrib. (-TS)   =      -0.01909562 Ry

     convergence has been achieved in   8 iterations

 BEEF-vdW xc energy contributions
           1 :   -425.391778900812
           2 :    391.030435418641
           3 :   -331.592834763033
           4 :    261.591144850949
           5 :   -195.249387099587
           6 :    142.101977236207
           7 :   -105.159947115293
           8 :    81.8563810324997
           9 :   -66.8448809136788
          10 :    55.0769236155647
          11 :   -43.7591454645292
          12 :    32.5942889950909
          13 :   -22.6905536395201
          14 :    15.1103055646561
          15 :   -9.97172195740086
          16 :    6.45942224971679
          17 :   -3.48281829370995
          18 :   0.403671674218685
          19 :    2.64803673141910
          20 :   -5.01306561096817
          21 :    6.07544419640914
          22 :   -5.76705238094638
          23 :    4.68400201834572
          24 :   -3.76920172068856
          25 :    3.78180173138429
          26 :   -4.88367538223133
          27 :    6.57550532820028
          28 :   -7.99998451656427
          29 :    8.42382198690950
          30 :   -7.62836803138134
          31 :   -39.5282621433006
          32 :   -28.9677525106896

     Forces acting on atoms (Ry/au):

     negative rho (up, down):  9.556E-05 0.000E+00
     atom    1 type  1   force =    -0.00000766   -0.00000388   -0.02204063
     atom    2 type  1   force =    -0.00000496   -0.00000279   -0.02203375
     atom    3 type  1   force =     0.00000119    0.00000469   -0.02204111
     atom    4 type  1   force =     0.00000169    0.00000489   -0.02203468
     atom    5 type  1   force =     0.00000131   -0.00000376    0.02111195
     atom    6 type  1   force =     0.00000390    0.00000243    0.02111560
     atom    7 type  1   force =    -0.00000194   -0.00000387    0.02111419
     atom    8 type  1   force =    -0.00000418    0.00000210    0.02110498
     atom    9 type  1   force =     0.00000114   -0.00000302    0.00091822
     atom   10 type  1   force =     0.00000382    0.00000975    0.00093532
     atom   11 type  1   force =     0.00000642   -0.00000492    0.00093088
     atom   12 type  1   force =    -0.00000073   -0.00000163    0.00091901

     Total force =     0.061064     Total SCF correction =     0.008427
     SCF correction compared to forces is large: reduce conv_thr to get better values

     entering subroutine stress ...

     negative rho (up, down):  9.556E-05 0.000E+00
          total   stress  (Ry/bohr**3)                   (kbar)     P=   20.15
   0.00016097  -0.00000000  -0.00000000         23.68     -0.00     -0.00
  -0.00000000   0.00016097   0.00000000         -0.00     23.68      0.00
  -0.00000000   0.00000000   0.00008906         -0.00      0.00     13.10

 !ASE

     Writing output data file calc.save

     General routines

     Parallel routines

   This run was terminated on:  17:29:55  18Dec2018

   JOB DONE.
Job  /afs/slac/g/suncat/bin/suncat-tsmpirun -x LD_LIBRARY_PATH -wdir /scratch/qe529416_3qFJY pw.x -in pw.inp

TID   HOST_NAME   COMMAND_LINE            STATUS            TERMINATION_TIME
00000 suncat1057 pw.x -in pw.inp   Done                     12/18/2018 17:29:55
00001 suncat1057 pw.x -in pw.inp   Done                     12/18/2018 17:29:55
00002 suncat1057 pw.x -in pw.inp   Done                     12/18/2018 17:29:55
00003 suncat1057 pw.x -in pw.inp   Done                     12/18/2018 17:29:55
00004 suncat1057 pw.x -in pw.inp   Done                     12/18/2018 17:29:55
00005 suncat1057 pw.x -in pw.inp   Done                     12/18/2018 17:29:55
00006 suncat1057 pw.x -in pw.inp   Done                     12/18/2018 17:29:55
00007 suncat1057 pw.x -in pw.inp   Done                     12/18/2018 17:29:55
00008 suncat1056 pw.x -in pw.inp   Done                     12/18/2018 17:29:55
00009 suncat1056 pw.x -in pw.inp   Done                     12/18/2018 17:29:55
00010 suncat1056 pw.x -in pw.inp   Done                     12/18/2018 17:29:55
00011 suncat1056 pw.x -in pw.inp   Done                     12/18/2018 17:29:55
00012 suncat1056 pw.x -in pw.inp   Done                     12/18/2018 17:29:55
00013 suncat1056 pw.x -in pw.inp   Done                     12/18/2018 17:29:55
00014 suncat1056 pw.x -in pw.inp   Done                     12/18/2018 17:29:55
00015 suncat1056 pw.x -in pw.inp   Done                     12/18/2018 17:29:55
00016 suncat1056 pw.x -in pw.inp   Done                     12/18/2018 17:29:55
00017 suncat1056 pw.x -in pw.inp   Done                     12/18/2018 17:29:55
00018 suncat1056 pw.x -in pw.inp   Done                     12/18/2018 17:29:55
00019 suncat1056 pw.x -in pw.inp   Done                     12/18/2018 17:29:55
00020 suncat1055 pw.x -in pw.inp   Done                     12/18/2018 17:29:55
00021 suncat1055 pw.x -in pw.inp   Done                     12/18/2018 17:29:55
00022 suncat1055 pw.x -in pw.inp   Done                     12/18/2018 17:29:55
00023 suncat1055 pw.x -in pw.inp   Done                     12/18/2018 17:29:55
00024 suncat1055 pw.x -in pw.inp   Done                     12/18/2018 17:29:55
00025 suncat1055 pw.x -in pw.inp   Done                     12/18/2018 17:29:55
00026 suncat1055 pw.x -in pw.inp   Done                     12/18/2018 17:29:55
00027 suncat1055 pw.x -in pw.inp   Done                     12/18/2018 17:29:55
00028 suncat1055 pw.x -in pw.inp   Done                     12/18/2018 17:29:55
00029 suncat1055 pw.x -in pw.inp   Done                     12/18/2018 17:29:55
00030 suncat1055 pw.x -in pw.inp   Done                     12/18/2018 17:29:55
00031 suncat1055 pw.x -in pw.inp   Done                     12/18/2018 17:29:55