     Program PWSCF v.5.1rc2 (svn rev. 11289) starts on 18Dec2018 at 20:20:31

     Current dimensions of program PWSCF are:
     Max number of different atomic species (ntypx) = 10
     Max number of k-points (npk) =  40000
     Max angular momentum in pseudopotentials (lmaxx) =  3
     Presently stress not available with electric field

     IMPORTANT: XC functional enforced from input :
     Exchange-correlation      = BEEF-VDW ( 1  4 27 13 2)
     Any further DFT definition will be discarded
     Please, verify this is what you really want

     Subspace diagonalization in iterative solution of the eigenvalue problem:
     a serial algorithm will be used

     Found symmetry operation: I + ( -0.5000  0.0000  0.0000)
     This is a supercell, fractional translations are disabled

     bravais-lattice index     =            0
     lattice parameter (alat)  =       1.8897  a.u.
     unit-cell volume          =    4198.3539 (a.u.)^3
     number of atoms/cell      =           12
     number of atomic types    =            1
     number of electrons       =       192.00
     number of Kohn-Sham states=          106
     kinetic-energy cutoff     =      36.7493  Ry
     charge density cutoff     =     367.4932  Ry
     convergence threshold     =      1.0E-05
     mixing beta               =       0.2000
     number of iterations used =           10  plain     mixing
     Exchange-correlation      = BEEF-VDW ( 1  4 27 13 2)
     nstep                     =           50

     celldm(1)=   1.889726  celldm(2)=   0.000000  celldm(3)=   0.000000
     celldm(4)=   0.000000  celldm(5)=   0.000000  celldm(6)=   0.000000

     crystal axes: (cart. coord. in units of alat)
               a(1) = (   5.422927   0.000000   0.000000 )
               a(2) = (   2.711463   4.696392   0.000000 )
               a(3) = (   0.000000   0.000000  24.427801 )

     reciprocal axes: (cart. coord. in units 2 pi/alat)
               b(1) = (  0.184402 -0.106465  0.000000 )
               b(2) = (  0.000000  0.212929  0.000000 )
               b(3) = (  0.000000  0.000000  0.040937 )

     PseudoPot. # 1 for Ru read from file:
     /afs/slac.stanford.edu/u/if/mamunm/psp/gbrv1.5pbe/Ru.UPF
     MD5 check sum: 7158a806dd851261a58e6920c40ebe78
     Pseudo is Ultrasoft + core correction, Zval = 16.0
     Generated by new atomic code, or converted to UPF format
     Using radial grid of  967 points,  6 beta functions with:
                l(1) =   0
                l(2) =   0
                l(3) =   1
                l(4) =   1
                l(5) =   2
                l(6) =   2
     Q(r) pseudized with  8 coefficients,  rinner =    1.300   1.300   1.300
                                                       1.300   1.300

     vdW kernel table read from file vdW_kernel_table
     MD5 check sum: 095c7af220d748ca6e76c0b4c6cfb241

     atomic species   valence    mass     pseudopotential
        Ru1           16.00   101.07000     Ru( 1.00)

     No symmetry found

   Cartesian axes

     site n.     atom                  positions (alat units)
         1           Ru1 tau(   1) = (   1.3557316   0.7827320  10.0000000  )
         2           Ru1 tau(   2) = (   4.0671949   0.7827320  10.0000000  )
         3           Ru1 tau(   3) = (   2.7114633   3.1309281  10.0000000  )
         4           Ru1 tau(   4) = (   5.4229265   3.1309281  10.0000000  )
         5           Ru1 tau(   5) = (   5.4229265   1.5654640  12.2139005  )
         6           Ru1 tau(   6) = (   2.7114633   1.5654640  12.2139005  )
         7           Ru1 tau(   7) = (   6.7786581   3.9136601  12.2139005  )
         8           Ru1 tau(   8) = (   4.0671949   3.9136601  12.2139005  )
         9           Ru1 tau(   9) = (   0.0000000   0.0000000  14.4278010  )
        10           Ru1 tau(  10) = (   2.7114633   0.0000000  14.4278010  )
        11           Ru1 tau(  11) = (   1.3557316   2.3481961  14.4278010  )
        12           Ru1 tau(  12) = (   4.0671949   2.3481961  14.4278010  )

     number of k points=    20  Fermi-Dirac smearing, width (Ry)=  0.0110
                       cart. coord. in units 2pi/alat
        k(    1) = (   0.0000000   0.0000000   0.0000000), wk =   0.0555556
        k(    2) = (   0.0000000   0.0354882   0.0000000), wk =   0.1111111
        k(    3) = (   0.0000000   0.0709765   0.0000000), wk =   0.1111111
        k(    4) = (   0.0000000  -0.1064647   0.0000000), wk =   0.0555556
        k(    5) = (   0.0307337  -0.0177441   0.0000000), wk =   0.1111111
        k(    6) = (   0.0307337   0.0177441   0.0000000), wk =   0.1111111
        k(    7) = (   0.0307337   0.0532324   0.0000000), wk =   0.1111111
        k(    8) = (   0.0307337  -0.1242088   0.0000000), wk =   0.1111111
        k(    9) = (   0.0307337  -0.0887206   0.0000000), wk =   0.1111111
        k(   10) = (   0.0307337  -0.0532324   0.0000000), wk =   0.1111111
        k(   11) = (   0.0614674  -0.0354882   0.0000000), wk =   0.1111111
        k(   12) = (   0.0614674   0.0000000   0.0000000), wk =   0.1111111
        k(   13) = (   0.0614674   0.0354882   0.0000000), wk =   0.1111111
        k(   14) = (   0.0614674  -0.1419529   0.0000000), wk =   0.1111111
        k(   15) = (   0.0614674  -0.1064647   0.0000000), wk =   0.1111111
        k(   16) = (   0.0614674  -0.0709765   0.0000000), wk =   0.1111111
        k(   17) = (  -0.0922011   0.0532324   0.0000000), wk =   0.0555556
        k(   18) = (  -0.0922011   0.0887206   0.0000000), wk =   0.1111111
        k(   19) = (  -0.0922011   0.1242088   0.0000000), wk =   0.1111111
        k(   20) = (  -0.0922011  -0.0532324   0.0000000), wk =   0.0555556

     Largest allocated arrays     est. size (Mb)     dimensions
     Largest temporary arrays     est. size (Mb)     dimensions

     Initial potential from superposition of free atoms
     Check: negative starting charge=   -0.873728

     starting charge  179.99981, renormalised to  192.00000

     negative rho (up, down):  9.320E-01 0.000E+00

     *
     * You are using vdW-DF for exchange-correlation in this calculation.
     * Please cite the following three references that made this development
     * possible:
     *
     *   M. Dion, H. Rydberg, E. Schroder, D. C. Langreth, and
     *   B. I. Lundqvist, Phys. Rev. Lett. 92, 246401 (2004).
     *
     *   T. Thonhauser, V. R. Cooper, S. Li, A. Puzder, P. Hyldgaard, and
     *   D. C. Langreth, Phys. Rev. B 76, 125112 (2007).
     *
     *   G. Roman-Perez and J. M. Soler, Phys. Rev. Lett. 103, 096102 (2009).
     *
     *
     * If you are using vdW-DF2, please also cite:
     *
     *   K. Lee, E. D. Murray, L. Kong, B. I. Lundqvist, and
     *   D. C. Langreth, Phys. Rev. B 82, 081101(R) (2010).
     *
     *
     * If you are calculating the stress with vdW-DF, please also cite:
     *
     *   R. Sabatini, E. Kucukbenli, B. Kolb, T. Thonhauser, and
     *   S. de Gironcoli, J. Phys.: Condens. Matter 24, 424209 (2012).
     *

     Carrying out vdW-DF run using the following parameters:

     Nqs =      20    Nr_points =    1024   r_max =   100.000
     q_mesh =
               0.00001000     0.04494208     0.09755937     0.15916263
               0.23128650     0.31572767     0.41458969     0.53033537
               0.66584808     0.82450364     1.01025438     1.22772762
               1.48234092     1.78043706     2.12944203     2.53805004
               3.01644009     3.57652955     4.23227104     5.00000000

     Gradients computed in reciprocal space

     Adding external electric field

     Computed dipole along edir(3) :
        Dipole               -0.0000 Ry au,         -0.0000 Debye
        Dipole field         -0.0000 Ry au

        Potential amp.        0.0000 Ry
        Total length         45.0078 bohr

     Starting wfc are  156 randomized atomic wfcs

     Self-consistent Calculation

     iteration #  1     ecut=    36.75 Ry     beta=0.20
     Davidson diagonalization with overlap
     ethr =  1.00E-02,  avg # of iterations =  2.5

[...]

     total energy              =   -2340.48549352 Ry
     Harris-Foulkes estimate   =   -2346.59791209 Ry
     estimated scf accuracy    <      20.27658640 Ry

[...]

     End of self-consistent calculation

          k = 0.0000 0.0000 0.0000 ( 15761 PWs)   bands (ev):

   -70.9935 -70.8894 -70.8884 -70.8881 -70.4902 -70.4844 -70.3905 -70.3903
   -70.3901 -70.3898 -70.3895 -70.3892 -41.2624 -41.2623 -41.2619 -41.0913
   -40.9820 -40.9814 -40.9813 -40.7465 -40.7464 -40.7463 -40.7057 -40.7056
   -40.7052 -40.6130 -40.6128 -40.6127 -40.5314 -40.5313 -40.4257 -40.3261
   -40.3258 -40.3255 -40.2696 -40.2693 -40.2690 -40.2629 -40.2168 -40.2166
   -40.2165 -40.2051 -40.2050 -40.2049 -40.0497 -40.0496 -40.0454 -40.0454
    -4.4279  -3.2037  -3.2036  -3.2034  -3.0899  -2.9440  -2.8306  -2.8305
    -2.8304  -2.5577  -2.5577  -2.5576  -2.1884  -2.1884  -2.1883  -1.0463
    -1.0461  -1.0461  -0.4545  -0.4544  -0.4544  -0.2281  -0.0913  -0.0912
     0.1066   0.3405   0.3405   0.3632   0.3633   0.3635   0.6094   0.6095
     1.0944   1.0946   1.0947   2.0003   2.0004   2.0006   2.0735   2.1158
     2.1160   2.1160   2.1272   2.1272   2.7387   2.7387   3.2853   3.2855
     3.2856   3.3590   3.3657   3.3658   3.3661   3.5369   3.5369   3.8625
     3.8626   3.8630

[...]

          k =-0.0922 0.0532 0.0000 ( 15808 PWs)   bands (ev):

[...]

     the Fermi energy is     2.3076 ev

!    total energy              =   -2341.20090170 Ry
     Harris-Foulkes estimate   =   -2341.20090234 Ry
     estimated scf accuracy    <       0.00000255 Ry

     The total energy is the sum of the following terms:

     one-electron contribution =  -21793.18673376 Ry
     hartree contribution      =   10895.81217322 Ry
     xc contribution           =    -321.70971922 Ry
     ewald contribution        =    8877.97149021 Ry
     electric field correction =       0.00000013 Ry
     smearing contrib. (-TS)   =      -0.08811229 Ry

     convergence has been achieved in  16 iterations

 BEEF-vdW xc energy contributions
           1 :   -279.071312699454
           2 :    256.238424409294
           3 :   -216.670609275687
           4 :    170.154108434842
           5 :   -126.686715018613
           6 :    93.4029854075441
           7 :   -72.9195681753409
           8 :    63.4838935691008
           9 :   -60.5898373737236
          10 :    59.2307444852569
          11 :   -55.8450799096476
          12 :    49.2810890575142
          13 :   -40.6052844714354
          14 :    32.0612903465070
          15 :   -25.7617485442601
          16 :    22.6953633575301
          17 :   -22.4069822894634
          18 :    23.3804167120631
          19 :   -23.8567556493654
          20 :    22.6666288548328
          21 :   -19.6924056369695
          22 :    15.7849488700510
          23 :   -12.2333669826327
          24 :    10.0854336224116
          25 :   -9.65597628220917
          26 :    10.4392157603006
          27 :   -11.4287479834472
          28 :    11.6525830135184
          29 :   -10.6425125198740
          30 :    8.61368350346174
          31 :   -28.9209453379632
          32 :   -21.9336266987090

     Forces acting on atoms (Ry/au):

[...]
00019 suncat1050 pw.x -in pw.inp   Done                     12/18/2018 20:33:07
00020 suncat1049 pw.x -in pw.inp   Done                     12/18/2018 20:33:07
00021 suncat1049 pw.x -in pw.inp   Done                     12/18/2018 20:33:07
00022 suncat1049 pw.x -in pw.inp   Done                     12/18/2018 20:33:07
00023 suncat1049 pw.x -in pw.inp   Done                     12/18/2018 20:33:07
00024 suncat1049 pw.x -in pw.inp   Done                     12/18/2018 20:33:07
00025 suncat1049 pw.x -in pw.inp   Done                     12/18/2018 20:33:07
00026 suncat1049 pw.x -in pw.inp   Done                     12/18/2018 20:33:07
00027 suncat1049 pw.x -in pw.inp   Done                     12/18/2018 20:33:07
00028 suncat1049 pw.x -in pw.inp   Done                     12/18/2018 20:33:07
00029 suncat1049 pw.x -in pw.inp   Done                     12/18/2018 20:33:07
00030 suncat1049 pw.x -in pw.inp   Done                     12/18/2018 20:33:07
00031 suncat1049 pw.x -in pw.inp   Done                     12/18/2018 20:33:07

     Program PWSCF v.5.1rc2 (svn rev. 11289) starts on 18Dec2018 at 20:33:17

[...]

     Total force =     0.068251     Total SCF correction =     0.004147

[...]

   This run was terminated on:  20:48: 1  18Dec2018

[...]

     Program PWSCF v.5.1rc2 (svn rev. 11289) starts on 18Dec2018 at 20:48: 7

     Current dimensions of program PWSCF are:
     Max number of different atomic species (ntypx) = 10
     Max number of k-points (npk) =  40000
     Max angular momentum in pseudopotentials (lmaxx) =  3
     Presently stress not available with electric field

     IMPORTANT: XC functional enforced from input :
     Exchange-correlation      = BEEF-VDW ( 1  4 27 13 2)
     Any further DFT definition will be discarded
     Please, verify this is what you really want

     Subspace diagonalization in iterative solution of the eigenvalue problem:
     a serial algorithm will be used

     bravais-lattice index     =            0
     lattice parameter (alat)  =       1.8897  a.u.
     unit-cell volume          =    4198.3539 (a.u.)^3
     number of atoms/cell      =           12
     number of atomic types    =            1
     number of electrons       =       192.00
     number of Kohn-Sham states=          106
     kinetic-energy cutoff     =      36.7493  Ry
     charge density cutoff     =     367.4932  Ry
     convergence threshold     =      1.0E-05
     mixing beta               =       0.2000
     number of iterations used =           10  plain     mixing
     Exchange-correlation      = BEEF-VDW ( 1  4 27 13 2)
     nstep                     =           50

     celldm(1)=   1.889726  celldm(2)=   0.000000  celldm(3)=   0.000000
     celldm(4)=   0.000000  celldm(5)=   0.000000  celldm(6)=   0.000000

     crystal axes: (cart. coord. in units of alat)
               a(1) = (   5.422927   0.000000   0.000000 )
               a(2) = (   2.711463   4.696392   0.000000 )
               a(3) = (   0.000000   0.000000  24.427801 )

     reciprocal axes: (cart. coord. in units 2 pi/alat)
               b(1) = (  0.184402 -0.106465  0.000000 )
               b(2) = (  0.000000  0.212929  0.000000 )
               b(3) = (  0.000000  0.000000  0.040937 )

     PseudoPot. # 1 for Ru read from file:
     /afs/slac.stanford.edu/u/if/mamunm/psp/gbrv1.5pbe/Ru.UPF
     MD5 check sum: 7158a806dd851261a58e6920c40ebe78
     Pseudo is Ultrasoft + core correction, Zval = 16.0
     Generated by new atomic code, or converted to UPF format
     Using radial grid of  967 points,  6 beta functions with:
                l(1) =   0
                l(2) =   0
                l(3) =   1
                l(4) =   1
                l(5) =   2
                l(6) =   2
     Q(r) pseudized with  8 coefficients,  rinner =    1.300   1.300   1.300
                                                       1.300   1.300

     vdW kernel table read from file vdW_kernel_table
     MD5 check sum: 095c7af220d748ca6e76c0b4c6cfb241

     atomic species   valence    mass     pseudopotential
        Ru1           16.00   101.07000     Ru( 1.00)

     No symmetry found

   Cartesian axes

     site n.     atom                  positions (alat units)
         1           Ru1 tau(   1) = (   1.3557316   0.7827320  10.0000000  )
         2           Ru1 tau(   2) = (   4.0671949   0.7827320  10.0000000  )
         3           Ru1 tau(   3) = (   2.7114633   3.1309281  10.0000000  )
         4           Ru1 tau(   4) = (   5.4229265   3.1309281  10.0000000  )
         5           Ru1 tau(   5) = (   5.4229265   1.5654640  12.2139005  )
         6           Ru1 tau(   6) = (   2.7114633   1.5654640  12.2139005  )
         7           Ru1 tau(   7) = (   6.7786581   3.9136601  12.2139005  )
         8           Ru1 tau(   8) = (   4.0671949   3.9136601  12.2139005  )
         9           Ru1 tau(   9) = (   5.4229130   0.0001010  14.3116727  )
        10           Ru1 tau(  10) = (   2.7114738   0.0000134  14.3117283  )
        11           Ru1 tau(  11) = (   6.7786023   2.3481442  14.3115974  )
        12           Ru1 tau(  12) = (   4.0672471   2.3481314  14.3115431  )

     number of k points=    20  Fermi-Dirac smearing, width (Ry)=  0.0110
                       cart. coord. in units 2pi/alat
        k(    1) = (   0.0000000   0.0000000   0.0000000), wk =   0.0555556
        k(    2) = (   0.0000000   0.0354882   0.0000000), wk =   0.1111111
        k(    3) = (   0.0000000   0.0709765   0.0000000), wk =   0.1111111
        k(    4) = (   0.0000000  -0.1064647   0.0000000), wk =   0.0555556
        k(    5) = (   0.0307337  -0.0177441   0.0000000), wk =   0.1111111
        k(    6) = (   0.0307337   0.0177441   0.0000000), wk =   0.1111111
        k(    7) = (   0.0307337   0.0532324   0.0000000), wk =   0.1111111
        k(    8) = (   0.0307337  -0.1242088   0.0000000), wk =   0.1111111
        k(    9) = (   0.0307337  -0.0887206   0.0000000), wk =   0.1111111
        k(   10) = (   0.0307337  -0.0532324   0.0000000), wk =   0.1111111
        k(   11) = (   0.0614674  -0.0354882   0.0000000), wk =   0.1111111
        k(   12) = (   0.0614674   0.0000000   0.0000000), wk =   0.1111111
        k(   13) = (   0.0614674   0.0354882   0.0000000), wk =   0.1111111
        k(   14) = (   0.0614674  -0.1419529   0.0000000), wk =   0.1111111
        k(   15) = (   0.0614674  -0.1064647   0.0000000), wk =   0.1111111
        k(   16) = (   0.0614674  -0.0709765   0.0000000), wk =   0.1111111
        k(   17) = (  -0.0922011   0.0532324   0.0000000), wk =   0.0555556
        k(   18) = (  -0.0922011   0.0887206   0.0000000), wk =   0.1111111
        k(   19) = (  -0.0922011   0.1242088   0.0000000), wk =   0.1111111
        k(   20) = (  -0.0922011  -0.0532324   0.0000000), wk =   0.0555556

     Largest allocated arrays     est. size (Mb)     dimensions
     Largest temporary arrays     est. size (Mb)     dimensions

     Initial potential from superposition of free atoms
     Check: negative starting charge=   -0.877548

     starting charge  179.99981, renormalised to  192.00000

[...]

     *
     * You are using vdW-DF for exchange-correlation in this calculation.
     * Please cite the following three references that made this development
     * possible:
     *
     *   M. Dion, H. Rydberg, E. Schroder, D. C. Langreth, and
     *   B. I. Lundqvist, Phys. Rev. Lett. 92, 246401 (2004).
     *
     *   T. Thonhauser, V. R. Cooper, S. Li, A. Puzder, P. Hyldgaard, and
     *   D. C. Langreth, Phys. Rev. B 76, 125112 (2007).
     *
     *   G. Roman-Perez and J. M. Soler, Phys. Rev. Lett. 103, 096102 (2009).
     *
     *
     * If you are using vdW-DF2, please also cite:
     *
     *   K. Lee, E. D. Murray, L. Kong, B. I. Lundqvist, and
     *   D. C. Langreth, Phys. Rev. B 82, 081101(R) (2010).
     *
     *
     * If you are calculating the stress with vdW-DF, please also cite:
     *
     *   R. Sabatini, E. Kucukbenli, B. Kolb, T. Thonhauser, and
     *   S. de Gironcoli, J. Phys.: Condens. Matter 24, 424209 (2012).
     *

     Carrying out vdW-DF run using the following parameters:

     Nqs =      20    Nr_points =    1024   r_max =   100.000
     q_mesh =
               0.00001000     0.04494208     0.09755937     0.15916263
               0.23128650     0.31572767     0.41458969     0.53033537
               0.66584808     0.82450364     1.01025438     1.22772762
               1.48234092     1.78043706     2.12944203     2.53805004
               3.01644009     3.57652955     4.23227104     5.00000000

     Gradients computed in reciprocal space

[...]

     Starting wfc are  156 randomized atomic wfcs

     Self-consistent Calculation

[...]

     total energy              =   -2341.21665630 Ry
     Harris-Foulkes estimate   =   -2341.21665748 Ry
     estimated scf accuracy    <       0.00003730 Ry

     iteration # 17     ecut=    36.75 Ry     beta=0.20
     Davidson diagonalization with overlap
     ethr =  1.94E-08,  avg # of iterations =  3.8

[...]

     negative rho (up, down):  9.137E-01 0.000E+00

     Adding external electric field

     Computed dipole along edir(3) :
        Dipole                0.0429 Ry au,          0.1090 Debye
        Dipole field          0.0001 Ry au

        Potential amp.       -0.0116 Ry
        Total length         45.0078 bohr

     End of self-consistent calculation

[...]

          k = 0.0615-0.0710 0.0000 ( 15803 PWs)   bands (ev):

[...]

          k =-0.0922-0.0532 0.0000 ( 15808 PWs)   bands (ev):

   -70.9815 -70.9811 -70.9272 -70.9268 -70.4765 -70.4757 -70.4290 -70.4283
   -70.3784 -70.3783 -70.3293 -70.3293 -41.1872 -41.1870 -41.0986 -41.0984
   -41.0241 -41.0238 -40.9675 -40.9672 -40.9146 -40.9142 -40.6636 -40.6633
   -40.6107 -40.6103 -40.5066 -40.5066 -40.4313 -40.4308 -40.3780 -40.3774
   -40.3675 -40.3671 -40.3337 -40.3331 -40.3171 -40.3170 -40.2740 -40.2739
   -40.2283 -40.2283 -40.2215 -40.2214 -40.1664 -40.1657 -40.0721 -40.0721
    -2.9998  -2.9998  -2.4080  -2.4079  -2.3892  -2.3890  -2.0918  -2.0917
    -1.9094  -1.9093  -1.8363  -1.8363  -1.3853  -1.3851  -1.3729  -1.3728
    -0.9848  -0.9846  -0.8477  -0.8475  -0.5461  -0.5459  -0.0982  -0.0981
     0.2036   0.2037   0.2679   0.2680   0.4515   0.4516   0.5023   0.5025
     0.6393   0.6395   0.6476   0.6476   0.7560   0.7560   0.8206   0.8208
     1.2873   1.2875   1.6047   1.6050   1.7042   1.7043   1.9867   1.9869
     2.1716   2.1720   2.3125   2.3127   2.6632   2.6636   2.7771   2.7773
     2.8076   2.8077

     the Fermi energy is     2.3332 ev

!    total energy              =   -2341.21665444 Ry
     Harris-Foulkes estimate   =   -2341.21665514 Ry
     estimated scf accuracy    <       0.00000516 Ry

     The total energy is the sum of the following terms:

     one-electron contribution =  -22154.49520554 Ry
     hartree contribution      =   11076.39388949 Ry
     xc contribution           =    -321.96005788 Ry
     ewald contribution        =    9058.92724473 Ry
     electric field correction =       0.00000551 Ry
     smearing contrib. (-TS)   =      -0.08253075 Ry

     convergence has been achieved in  17 iterations

 BEEF-vdW xc energy contributions
           1 :   -279.332610792045
           2 :    256.612617521773
           3 :   -217.197714238637
           4 :    170.768386241115
           5 :   -127.242180469204
           6 :    93.7452452234094
           7 :   -72.9673190517236
           8 :    63.2772865259477
           9 :   -60.2788618457391
          10 :    59.0072957756401
          11 :   -55.8515012617331
          12 :    49.5408591316302
          13 :   -41.0111588976042
          14 :    32.4280731419809
          15 :   -25.9183251981214
          16 :    22.5705638973341
          17 :   -22.0664050291639
          18 :    22.9952598504993
          19 :   -23.6198455280661
          20 :    22.6974553209235
          21 :   -19.9787656646335
          22 :    16.1901830687414
          23 :   -12.5651659182886
          24 :    10.1915927295096
          25 :   -9.49915428538782
          26 :    10.1137481108169
          27 :   -11.1120060084899
          28 :    11.5161119716126
          29 :   -10.7676687899757
          30 :    8.95350090478041
          31 :   -28.9385893029644
          32 :   -21.9773312239244

     Forces acting on atoms (Ry/au):

     negative rho (up, down):  9.137E-01 0.000E+00
     atom    1 type  1   force =     0.00000576   -0.00001093    0.02522403
     atom    2 type  1   force =    -0.00000282   -0.00001645    0.02526222
     atom    3 type  1   force =     0.00000161    0.00001229    0.02531086
     atom    4 type  1   force =     0.00000362    0.00001336    0.02530776
     atom    5 type  1   force =     0.00000306   -0.00003271   -0.02680330
     atom    6 type  1   force =     0.00000256   -0.00001012   -0.02689994
     atom    7 type  1   force =     0.00001326    0.00002496   -0.02689974
     atom    8 type  1   force =    -0.00003063    0.00001769   -0.02684817
     atom    9 type  1   force =     0.00001532   -0.00002258    0.00160898
     atom   10 type  1   force =    -0.00001419   -0.00000107    0.00154481
     atom   11 type  1   force =     0.00000447    0.00000201    0.00159589
     atom   12 type  1   force =    -0.00000203    0.00002356    0.00159660

     Total force =     0.073838     Total SCF correction =     0.018449
     SCF correction compared to forces is large: reduce conv_thr to get better values

     entering subroutine stress ...

     negative rho (up, down):  9.137E-01 0.000E+00
          total   stress  (Ry/bohr**3)                   (kbar)     P=  -22.42
  -0.00018034   0.00000000   0.00000001        -26.53      0.00      0.00
   0.00000000  -0.00018035   0.00000000          0.00    -26.53      0.00
   0.00000001   0.00000000  -0.00009660          0.00      0.00    -14.21

 !ASE

     Writing output data file calc.save

     General routines

     Parallel routines

   This run was terminated on:  21: 2:57  18Dec2018

   JOB DONE.
Job  /afs/slac/g/suncat/bin/suncat-tsmpirun -x LD_LIBRARY_PATH -wdir /scratch/qe529436_SowaH pw.x -in pw.inp

TID   HOST_NAME   COMMAND_LINE            STATUS            TERMINATION_TIME
00000 suncat1061 pw.x -in pw.inp   Done                     12/18/2018 21:02:57
00001 suncat1061 pw.x -in pw.inp   Done                     12/18/2018 21:02:57
00002 suncat1061 pw.x -in pw.inp   Done                     12/18/2018 21:02:57
00003 suncat1061 pw.x -in pw.inp   Done                     12/18/2018 21:02:57
00004 suncat1061 pw.x -in pw.inp   Done                     12/18/2018 21:02:57
00005 suncat1061 pw.x -in pw.inp   Done                     12/18/2018 21:02:57
00006 suncat1061 pw.x -in pw.inp   Done                     12/18/2018 21:02:57
00007 suncat1061 pw.x -in pw.inp   Done                     12/18/2018 21:02:57
00008 suncat1050 pw.x -in pw.inp   Done                     12/18/2018 21:02:57
00009 suncat1050 pw.x -in pw.inp   Done                     12/18/2018 21:02:57
00010 suncat1050 pw.x -in pw.inp   Done                     12/18/2018 21:02:57
00011 suncat1050 pw.x -in pw.inp   Done                     12/18/2018 21:02:57
00012 suncat1050 pw.x -in pw.inp   Done                     12/18/2018 21:02:57
00013 suncat1050 pw.x -in pw.inp   Done                     12/18/2018 21:02:57
00014 suncat1050 pw.x -in pw.inp   Done                     12/18/2018 21:02:57
00015 suncat1050 pw.x -in pw.inp   Done                     12/18/2018 21:02:57
00016 suncat1050 pw.x -in pw.inp   Done                     12/18/2018 21:02:57
00017 suncat1050 pw.x -in pw.inp   Done                     12/18/2018 21:02:57
00018 suncat1050 pw.x -in pw.inp   Done                     12/18/2018 21:02:57
00019 suncat1050 pw.x -in pw.inp   Done                     12/18/2018 21:02:57
00020 suncat1049 pw.x -in pw.inp   Done                     12/18/2018 21:02:57
00021 suncat1049 pw.x -in pw.inp   Done                     12/18/2018 21:02:57
00022 suncat1049 pw.x -in pw.inp   Done                     12/18/2018 21:02:57
00023 suncat1049 pw.x -in pw.inp   Done                     12/18/2018 21:02:57
00024 suncat1049 pw.x -in pw.inp   Done                     12/18/2018 21:02:57
00025 suncat1049 pw.x -in pw.inp   Done                     12/18/2018 21:02:57
00026 suncat1049 pw.x -in pw.inp   Done                     12/18/2018 21:02:57
00027 suncat1049 pw.x -in pw.inp   Done                     12/18/2018 21:02:57
00028 suncat1049 pw.x -in pw.inp   Done                     12/18/2018 21:02:57
00029 suncat1049 pw.x -in pw.inp   Done                     12/18/2018 21:02:57
00030 suncat1049 pw.x -in pw.inp   Done                     12/18/2018 21:02:57
00031 suncat1049 pw.x -in pw.inp   Done                     12/18/2018 21:02:57