     Program PWSCF v.5.1rc2 (svn rev. 11289) starts on 18Dec2018 at 16:49: 8

     Current dimensions of program PWSCF are:
     Max number of different atomic species (ntypx) = 10
     Max number of k-points (npk) =  40000
     Max angular momentum in pseudopotentials (lmaxx) =  3
     Presently stress not available with electric field

     IMPORTANT: XC functional enforced from input :
     Exchange-correlation      = BEEF-VDW ( 1  4 27 13 2)
     Any further DFT definition will be discarded
     Please, verify this is what you really want

     Subspace diagonalization in iterative solution of the eigenvalue problem:
     a serial algorithm will be used

     Found symmetry operation: I + (  0.5000  0.0000  0.0000)
     This is a supercell, fractional translations are disabled

     bravais-lattice index     =            0
     lattice parameter (alat)  =       1.8897  a.u.
     unit-cell volume          =    5739.2980 (a.u.)^3
     number of atoms/cell      =           12
     number of atomic types    =            1
     number of electrons       =       144.00
     number of Kohn-Sham states=           82
     kinetic-energy cutoff     =      36.7493  Ry
     charge density cutoff     =     367.4932  Ry
     convergence threshold     =      1.0E-05
     mixing beta               =       0.2000
     number of iterations used =           10  plain     mixing
     Exchange-correlation      = BEEF-VDW ( 1  4 27 13 2)
     nstep                     =           50

     celldm(1)=   1.889726  celldm(2)=   0.000000  celldm(3)=   0.000000
     celldm(4)=   0.000000  celldm(5)=   0.000000  celldm(6)=   0.000000

     crystal axes: (cart. coord. in units of alat)
               a(1) = (   6.254208   0.000000   0.000000 )
               a(2) = (   3.127104   5.416303   0.000000 )
               a(3) = (   0.000000   0.000000  25.106540 )

     reciprocal axes: (cart. coord. in units 2 pi/alat)
               b(1) = (  0.159892 -0.092314  0.000000 )
               b(2) = (  0.000000  0.184628  0.000000 )
               b(3) = (  0.000000  0.000000  0.039830 )

     PseudoPot. # 1 for Cd read from file:
     /afs/slac.stanford.edu/u/if/mamunm/psp/gbrv1.5pbe/Cd.UPF
     MD5 check sum: 17164a7926edb8e0dc231208abae86a6
     Pseudo is Ultrasoft + core correction, Zval = 12.0
     Generated by new atomic code, or converted to UPF format
     Using radial grid of  889 points,  6 beta functions with:
                l(1) =   0
                l(2) =   0
                l(3) =   1
                l(4) =   1
                l(5) =   2
                l(6) =   2
     Q(r) pseudized with  6 coefficients,  rinner =    1.000   1.000   1.000
                                                       1.000   1.000

     vdW kernel table read from file vdW_kernel_table
     MD5 check sum: 095c7af220d748ca6e76c0b4c6cfb241

     atomic species   valence    mass     pseudopotential
        Cd1           12.00   112.41400     Cd( 1.00)

     No symmetry found

   Cartesian axes

     site n.     atom                  positions (alat units)
         1           Cd1 tau(   1) = (   1.5635521   0.9027172  10.0000000  )
         2           Cd1 tau(   2) = (   4.6906562   0.9027172  10.0000000  )
         3           Cd1 tau(   3) = (   3.1271041   3.6108688  10.0000000  )
         4           Cd1 tau(   4) = (   6.2542083   3.6108688  10.0000000  )
         5           Cd1 tau(   5) = (   6.2542083   1.8054344  12.5532698  )
         6           Cd1 tau(   6) = (   3.1271041   1.8054344  12.5532698  )
         7           Cd1 tau(   7) = (   7.8177603   4.5135860  12.5532698  )
         8           Cd1 tau(   8) = (   4.6906562   4.5135860  12.5532698  )
         9           Cd1 tau(   9) = (   0.0000000   0.0000000  15.1065397  )
        10           Cd1 tau(  10) = (   3.1271041   0.0000000  15.1065397  )
        11           Cd1 tau(  11) = (   1.5635521   2.7081516  15.1065397  )
        12           Cd1 tau(  12) = (   4.6906562   2.7081516  15.1065397  )

     number of k points=    20  Fermi-Dirac smearing, width (Ry)=  0.0110
                       cart. coord. in units 2pi/alat
        k(    1) = (   0.0000000   0.0000000   0.0000000), wk =   0.0555556
        k(    2) = (   0.0000000   0.0307713   0.0000000), wk =   0.1111111
        k(    3) = (   0.0000000   0.0615426   0.0000000), wk =   0.1111111
        k(    4) = (   0.0000000  -0.0923139   0.0000000), wk =   0.0555556
        k(    5) = (   0.0266487  -0.0153856   0.0000000), wk =   0.1111111
        k(    6) = (   0.0266487   0.0153856   0.0000000), wk =   0.1111111
        k(    7) = (   0.0266487   0.0461569   0.0000000), wk =   0.1111111
        k(    8) = (   0.0266487  -0.1076995   0.0000000), wk =   0.1111111
        k(    9) = (   0.0266487  -0.0769282   0.0000000), wk =   0.1111111
        k(   10) = (   0.0266487  -0.0461569   0.0000000), wk =   0.1111111
        k(   11) = (   0.0532974  -0.0307713   0.0000000), wk =   0.1111111
        k(   12) = (   0.0532974   0.0000000   0.0000000), wk =   0.1111111
        k(   13) = (   0.0532974   0.0307713   0.0000000), wk =   0.1111111
        k(   14) = (   0.0532974  -0.1230852   0.0000000), wk =   0.1111111
        k(   15) = (   0.0532974  -0.0923139   0.0000000), wk =   0.1111111
        k(   16) = (   0.0532974  -0.0615426   0.0000000), wk =   0.1111111
        k(   17) = (  -0.0799462   0.0461569   0.0000000), wk =   0.0555556
        k(   18) = (  -0.0799462   0.0769282   0.0000000), wk =   0.1111111
        k(   19) = (  -0.0799462   0.1076995   0.0000000), wk =   0.1111111
        k(   20) = (  -0.0799462  -0.0461569   0.0000000), wk =   0.0555556

     Largest allocated arrays     est. size (Mb)     dimensions
     Largest temporary arrays     est. size (Mb)     dimensions

     Initial potential from superposition of free atoms
     Check: negative starting charge=   -0.258008

     starting charge  137.99950, renormalised to  144.00000

     negative rho (up, down):  2.692E-01 0.000E+00

     *
     * You are using vdW-DF for exchange-correlation in this calculation.
     * Please cite the following three references that made this development
     * possible:
     *
     *   M. Dion, H. Rydberg, E. Schroder, D. C. Langreth, and
     *   B. I. Lundqvist, Phys. Rev. Lett. 92, 246401 (2004).
     *
     *   T. Thonhauser, V. R. Cooper, S. Li, A. Puzder, P. Hyldgaard, and
     *   D. C. Langreth, Phys. Rev. B 76, 125112 (2007).
     *
     *   G. Roman-Perez and J. M. Soler, Phys. Rev. Lett. 103, 096102 (2009).
     *
     *
     * If you are using vdW-DF2, please also cite:
     *
     *   K. Lee, E. D. Murray, L. Kong, B. I. Lundqvist, and
     *   D. C. Langreth, Phys. Rev. B 82, 081101(R) (2010).
     *
     *
     * If you are calculating the stress with vdW-DF, please also cite:
     *
     *   R. Sabatini, E. Kucukbenli, B. Kolb, T. Thonhauser, and
     *   S. de Gironcoli, J. Phys.: Condens. Matter 24, 424209 (2012).
     *

     Carrying out vdW-DF run using the following parameters:

     Nqs =      20    Nr_points =    1024   r_max =   100.000
     q_mesh =
               0.00001000     0.04494208     0.09755937     0.15916263
               0.23128650     0.31572767     0.41458969     0.53033537
               0.66584808     0.82450364     1.01025438     1.22772762
               1.48234092     1.78043706     2.12944203     2.53805004
               3.01644009     3.57652955     4.23227104     5.00000000

     Gradients computed in reciprocal space

     Adding external electric field

     Computed dipole along edir(3) :
        Dipole               -0.0000 Ry au,         -0.0000 Debye
        Dipole field         -0.0000 Ry au

        Potential amp.        0.0000 Ry
        Total length         46.2584 bohr

     Starting wfc are  108 randomized atomic wfcs

     Self-consistent Calculation

     iteration #  1     ecut=    36.75 Ry     beta=0.20
     Davidson diagonalization with overlap
     ethr =  1.00E-02,  avg # of iterations =  3.5

     Threshold (ethr) on eigenvalues was too large:
     Diagonalizing with lowered threshold

     Davidson diagonalization with overlap
     ethr =  9.24E-04,  avg # of iterations =  1.6

[...]

     total energy              =   -1393.03008679 Ry
     Harris-Foulkes estimate   =   -1393.42524698 Ry
     estimated scf accuracy    <       1.28849400 Ry

[...]

     End of self-consistent calculation

          k = 0.0000 0.0000 0.0000 ( 21643 PWs)   bands (ev):

    -9.3342  -9.3342  -9.3342  -9.1963  -9.1963  -9.1963  -9.1886  -9.0793
    -9.0793  -9.0793  -9.0175  -9.0175  -9.0175  -8.8795  -8.8000  -8.8000
    -8.7855  -8.7753  -8.7753  -8.7753  -8.7048  -8.7048  -8.7048  -8.6664
    -8.6664  -8.6664  -8.6403  -8.6403  -8.5547  -8.5547  -8.3353  -8.3353
    -8.2500  -8.2500  -8.2500  -8.2032  -8.2032  -8.2032  -8.1351  -8.1351
    -8.1314  -8.1314  -8.1314  -8.0584  -8.0584  -8.0584  -8.0111  -8.0111
    -7.9971  -7.9971  -7.9971  -7.9538  -7.9538  -7.9538  -7.8168  -7.8168
    -7.8168  -7.8096  -7.8096  -7.8096  -7.6754  -5.9272  -3.2135  -1.6476
    -1.6476  -1.6476  -1.3592  -1.3592  -1.3592  -0.5541  -0.4143  -0.4142
    -0.4142   0.4735   0.4735   0.4735   1.9947   1.9947   1.9947   2.4489
     2.4489   2.4490

[...]

          k =-0.0799 0.0462 0.0000 ( 21576 PWs)   bands (ev):

[...]

     the Fermi energy is     0.6041 ev

!    total energy              =   -1393.00773341 Ry
     Harris-Foulkes estimate   =   -1393.00887736 Ry
     estimated scf accuracy    <       0.00000885 Ry

     The total energy is the sum of the following terms:

     one-electron contribution =   -8725.19932648 Ry
     hartree contribution      =    4455.08859946 Ry
     xc contribution           =    -489.67136385 Ry
     ewald contribution        =    3366.80248484 Ry
     electric field correction =       0.00000000 Ry
     smearing contrib. (-TS)   =      -0.02812739 Ry

     convergence has been achieved in  10 iterations

 BEEF-vdW xc energy contributions
           1 :   -429.139111340471
           2 :    392.693269034216
           3 :   -331.147099639548
           4 :    261.960984426235
           5 :   -201.308800469820
           6 :    158.262679513017
           7 :   -133.034815045663
           8 :    119.464321775880
           9 :   -109.791604882426
          10 :    98.9101590616459
          11 :   -86.0522599853430
          12 :    73.6239030073257
          13 :   -64.5313099041743
          14 :    59.9147440995582
          15 :   -58.5564551145325
          16 :    57.9564984893944
          17 :   -56.0514800055555
          18 :    52.3584857285588
          19 :   -47.9246988621599
          20 :    44.3306379555946
          21 :   -42.5446659883527
          22 :    42.3762812511582
          23 :   -42.7630801244832
          24 :    42.5577571813132
          25 :   -41.2313881982257
          26 :    39.0750864611109
          27 :   -36.8723408733882
          28 :    35.3402620562730
          29 :   -34.7173533567588
          30 :    34.7121754042692
          31 :   -38.5860135748143
          32 :   -28.1874483643928

     Forces acting on atoms (Ry/au):

     negative rho (up, down):  2.664E-01 0.000E+00
[...]
00021 suncat1052 pw.x -in pw.inp   Done                     12/18/2018 16:57:50
00022 suncat1052 pw.x -in pw.inp   Done                     12/18/2018 16:57:50
00023 suncat1052 pw.x -in pw.inp   Done                     12/18/2018 16:57:50
00024 suncat1052 pw.x -in pw.inp   Done                     12/18/2018 16:57:50
00025 suncat1052 pw.x -in pw.inp   Done                     12/18/2018 16:57:50
00026 suncat1052 pw.x -in pw.inp   Done                     12/18/2018 16:57:50
00027 suncat1052 pw.x -in pw.inp   Done                     12/18/2018 16:57:50
00028 suncat1052 pw.x -in pw.inp   Done                     12/18/2018 16:57:50
00029 suncat1052 pw.x -in pw.inp   Done                     12/18/2018 16:57:50
00030 suncat1052 pw.x -in pw.inp   Done                     12/18/2018 16:57:50
00031 suncat1052 pw.x -in pw.inp   Done                     12/18/2018 16:57:50

     Program PWSCF v.5.1rc2 (svn rev. 11289) starts on 18Dec2018 at 16:57:56

[...]

     Found symmetry operation: I + (  0.5000 -0.5000  0.0000)
     This is a supercell, fractional translations are disabled

[...]

   This run was terminated on:  17: 7: 3  18Dec2018

[...]

     Program PWSCF v.5.1rc2 (svn rev. 11289) starts on 18Dec2018 at 17: 7:10

[...]

     Total force =     0.039752     Total SCF correction =     0.002876

[...]

     Program PWSCF v.5.1rc2 (svn rev. 11289) starts on 18Dec2018 at 17:16:23

     Current dimensions of program PWSCF are:
     Max number of different atomic species (ntypx) = 10
     Max number of k-points (npk) =  40000
     Max angular momentum in pseudopotentials (lmaxx) =  3
     Presently stress not available with electric field

     IMPORTANT: XC functional enforced from input :
     Exchange-correlation      = BEEF-VDW ( 1  4 27 13 2)
     Any further DFT definition will be discarded
     Please, verify this is what you really want

     Subspace diagonalization in iterative solution of the eigenvalue problem:
     a serial algorithm will be used

     bravais-lattice index     =            0
     lattice parameter (alat)  =       1.8897  a.u.
     unit-cell volume          =    5739.2980 (a.u.)^3
     number of atoms/cell      =           12
     number of atomic types    =            1
     number of electrons       =       144.00
     number of Kohn-Sham states=           82
     kinetic-energy cutoff     =      36.7493  Ry
     charge density cutoff     =     367.4932  Ry
     convergence threshold     =      1.0E-05
     mixing beta               =       0.2000
     number of iterations used =           10  plain     mixing
     Exchange-correlation      = BEEF-VDW ( 1  4 27 13 2)
     nstep                     =           50

     celldm(1)=   1.889726  celldm(2)=   0.000000  celldm(3)=   0.000000
     celldm(4)=   0.000000  celldm(5)=   0.000000  celldm(6)=   0.000000

     crystal axes: (cart. coord. in units of alat)
               a(1) = (   6.254208   0.000000   0.000000 )
               a(2) = (   3.127104   5.416303   0.000000 )
               a(3) = (   0.000000   0.000000  25.106540 )

     reciprocal axes: (cart. coord. in units 2 pi/alat)
               b(1) = (  0.159892 -0.092314  0.000000 )
               b(2) = (  0.000000  0.184628  0.000000 )
               b(3) = (  0.000000  0.000000  0.039830 )

     PseudoPot. # 1 for Cd read from file:
     /afs/slac.stanford.edu/u/if/mamunm/psp/gbrv1.5pbe/Cd.UPF
     MD5 check sum: 17164a7926edb8e0dc231208abae86a6
     Pseudo is Ultrasoft + core correction, Zval = 12.0
     Generated by new atomic code, or converted to UPF format
     Using radial grid of  889 points,  6 beta functions with:
                l(1) =   0
                l(2) =   0
                l(3) =   1
                l(4) =   1
                l(5) =   2
                l(6) =   2
     Q(r) pseudized with  6 coefficients,  rinner =    1.000   1.000   1.000
                                                       1.000   1.000

     vdW kernel table read from file vdW_kernel_table
     MD5 check sum: 095c7af220d748ca6e76c0b4c6cfb241

     atomic species   valence    mass     pseudopotential
        Cd1           12.00   112.41400     Cd( 1.00)

     No symmetry found

   Cartesian axes

     site n.     atom                  positions (alat units)
         1           Cd1 tau(   1) = (   1.5635521   0.9027172  10.0000000  )
         2           Cd1 tau(   2) = (   4.6906562   0.9027172  10.0000000  )
         3           Cd1 tau(   3) = (   3.1271041   3.6108688  10.0000000  )
         4           Cd1 tau(   4) = (   6.2542083   3.6108688  10.0000000  )
         5           Cd1 tau(   5) = (   6.2542083   1.8054344  12.5532698  )
         6           Cd1 tau(   6) = (   3.1271041   1.8054344  12.5532698  )
         7           Cd1 tau(   7) = (   7.8177603   4.5135860  12.5532698  )
         8           Cd1 tau(   8) = (   4.6906562   4.5135860  12.5532698  )
         9           Cd1 tau(   9) = (   3.1273885   5.4159546  15.4608605  )
        10           Cd1 tau(  10) = (   3.1273084   0.0004598  15.4624636  )
        11           Cd1 tau(  11) = (   1.5637466   2.7083529  15.4608813  )
        12           Cd1 tau(  12) = (   4.6908499   2.7078508  15.4610644  )

     number of k points=    20  Fermi-Dirac smearing, width (Ry)=  0.0110
                       cart. coord. in units 2pi/alat
        k(    1) = (   0.0000000   0.0000000   0.0000000), wk =   0.0555556
        k(    2) = (   0.0000000   0.0307713   0.0000000), wk =   0.1111111
        k(    3) = (   0.0000000   0.0615426   0.0000000), wk =   0.1111111
        k(    4) = (   0.0000000  -0.0923139   0.0000000), wk =   0.0555556
        k(    5) = (   0.0266487  -0.0153856   0.0000000), wk =   0.1111111
        k(    6) = (   0.0266487   0.0153856   0.0000000), wk =   0.1111111
        k(    7) = (   0.0266487   0.0461569   0.0000000), wk =   0.1111111
        k(    8) = (   0.0266487  -0.1076995   0.0000000), wk =   0.1111111
        k(    9) = (   0.0266487  -0.0769282   0.0000000), wk =   0.1111111
        k(   10) = (   0.0266487  -0.0461569   0.0000000), wk =   0.1111111
        k(   11) = (   0.0532974  -0.0307713   0.0000000), wk =   0.1111111
        k(   12) = (   0.0532974   0.0000000   0.0000000), wk =   0.1111111
        k(   13) = (   0.0532974   0.0307713   0.0000000), wk =   0.1111111
        k(   14) = (   0.0532974  -0.1230852   0.0000000), wk =   0.1111111
        k(   15) = (   0.0532974  -0.0923139   0.0000000), wk =   0.1111111
        k(   16) = (   0.0532974  -0.0615426   0.0000000), wk =   0.1111111
        k(   17) = (  -0.0799462   0.0461569   0.0000000), wk =   0.0555556
        k(   18) = (  -0.0799462   0.0769282   0.0000000), wk =   0.1111111
        k(   19) = (  -0.0799462   0.1076995   0.0000000), wk =   0.1111111
        k(   20) = (  -0.0799462  -0.0461569   0.0000000), wk =   0.0555556

     Largest allocated arrays     est. size (Mb)     dimensions
     Largest temporary arrays     est. size (Mb)     dimensions

     Initial potential from superposition of free atoms
     Check: negative starting charge=   -0.259725

     starting charge  137.99950, renormalised to  144.00000

[...]

     *
     * You are using vdW-DF for exchange-correlation in this calculation.
     * Please cite the following three references that made this development
     * possible:
     *
     *   M. Dion, H. Rydberg, E. Schroder, D. C. Langreth, and
     *   B. I. Lundqvist, Phys. Rev. Lett. 92, 246401 (2004).
     *
     *   T. Thonhauser, V. R. Cooper, S. Li, A. Puzder, P. Hyldgaard, and
     *   D. C. Langreth, Phys. Rev. B 76, 125112 (2007).
     *
     *   G. Roman-Perez and J. M. Soler, Phys. Rev. Lett. 103, 096102 (2009).
     *
     *
     * If you are using vdW-DF2, please also cite:
     *
     *   K. Lee, E. D. Murray, L. Kong, B. I. Lundqvist, and
     *   D. C. Langreth, Phys. Rev. B 82, 081101(R) (2010).
     *
     *
     * If you are calculating the stress with vdW-DF, please also cite:
     *
     *   R. Sabatini, E. Kucukbenli, B. Kolb, T. Thonhauser, and
     *   S. de Gironcoli, J. Phys.: Condens. Matter 24, 424209 (2012).
     *

     Carrying out vdW-DF run using the following parameters:

     Nqs =      20    Nr_points =    1024   r_max =   100.000
     q_mesh =
               0.00001000     0.04494208     0.09755937     0.15916263
               0.23128650     0.31572767     0.41458969     0.53033537
               0.66584808     0.82450364     1.01025438     1.22772762
               1.48234092     1.78043706     2.12944203     2.53805004
               3.01644009     3.57652955     4.23227104     5.00000000

     Gradients computed in reciprocal space

[...]

     Starting wfc are  108 randomized atomic wfcs

     Self-consistent Calculation

[...]

     Threshold (ethr) on eigenvalues was too large:
     Diagonalizing with lowered threshold

     Davidson diagonalization with overlap
     ethr =  8.82E-04,  avg # of iterations =  1.4

[...]

     total energy              =   -1393.02747182 Ry
     Harris-Foulkes estimate   =   -1393.02747855 Ry
     estimated scf accuracy    <       0.00001607 Ry

     iteration # 10     ecut=    36.75 Ry     beta=0.20
     Davidson diagonalization with overlap
     ethr =  1.12E-08,  avg # of iterations =  2.9

[...]

     negative rho (up, down):  2.676E-01 0.000E+00

     Adding external electric field

     Computed dipole along edir(3) :
        Dipole                0.0335 Ry au,          0.0853 Debye
        Dipole field          0.0001 Ry au

        Potential amp.       -0.0068 Ry
        Total length         46.2584 bohr

     End of self-consistent calculation

[...]

          k = 0.0533-0.0615 0.0000 ( 21571 PWs)   bands (ev):

[...]

          k =-0.0799-0.0462 0.0000 ( 21576 PWs)   bands (ev):

    -8.9987  -8.9987  -8.8988  -8.8988  -8.8570  -8.8570  -8.8149  -8.8149
    -8.7938  -8.7938  -8.6987  -8.6986  -8.6754  -8.6753  -8.6360  -8.6359
    -8.6273  -8.6271  -8.5284  -8.5284  -8.4888  -8.4887  -8.4452  -8.4452
    -8.4137  -8.4137  -8.4053  -8.4052  -8.4031  -8.4030  -8.3094  -8.3090
    -8.3083  -8.3083  -8.2691  -8.2691  -8.2347  -8.2344  -8.2243  -8.2238
    -8.1834  -8.1833  -8.1670  -8.1669  -8.1643  -8.1643  -8.1452  -8.1451
    -8.0652  -8.0650  -8.0615  -8.0614  -8.0345  -8.0343  -7.9676  -7.9675
    -7.9026  -7.9026  -7.8331  -7.8331  -5.8094  -5.8091  -4.2678  -4.2672
    -2.6875  -2.6874  -2.1773  -2.1769  -1.2720  -1.2716   0.6064   0.6066
     1.0644   1.0647   2.8887   2.8889   3.2515   3.2518   3.5906   3.5914
     3.7827   3.7833

     the Fermi energy is     0.6429 ev

!    total energy              =   -1393.02746855 Ry
     Harris-Foulkes estimate   =   -1393.02747218 Ry
     estimated scf accuracy    <       0.00000580 Ry

     The total energy is the sum of the following terms:

     one-electron contribution =   -8291.34698529 Ry
     hartree contribution      =    4238.67236669 Ry
     xc contribution           =    -489.51005986 Ry
     ewald contribution        =    3149.18727717 Ry
     electric field correction =       0.00000246 Ry
     smearing contrib. (-TS)   =      -0.03006972 Ry

     convergence has been achieved in  10 iterations

 BEEF-vdW xc energy contributions
           1 :   -428.987760479030
           2 :    392.379914709025
           3 :   -330.652775191574
           4 :    261.435826638859
           5 :   -200.962215502642
           6 :    158.205291737417
           7 :   -133.193670162104
           8 :    119.635128895929
           9 :   -109.787491229416
          10 :    98.6943937465261
          11 :   -85.7562648714124
          12 :    73.4401076847718
          13 :   -64.5650991869627
          14 :    60.1084961995763
          15 :   -58.7408953206899
          16 :    57.9856728637847
          17 :   -55.9146716227900
          18 :    52.1831824806872
          19 :   -47.8712853753448
          20 :    44.4635283512893
          21 :   -42.7811546927082
          22 :    42.5521055051747
          23 :   -42.7609913776856
          24 :    42.3967075621253
          25 :   -41.0481302467485
          26 :    39.0159093670475
          27 :   -36.9814160894188
          28 :    35.5308499428730
          29 :   -34.8450836709781
          30 :    34.6898026092927
          31 :   -38.5702561209442
          32 :   -28.1319288835882

     Forces acting on atoms (Ry/au):

     negative rho (up, down):  2.676E-01 0.000E+00
     atom    1 type  1   force =    -0.00001763    0.00000051   -0.01631464
     atom    2 type  1   force =    -0.00002575    0.00003803   -0.01625828
     atom    3 type  1   force =    -0.00001117   -0.00003404   -0.01625602
     atom    4 type  1   force =     0.00002750    0.00000449   -0.01628089
     atom    5 type  1   force =    -0.00002815    0.00002742    0.01718859
     atom    6 type  1   force =     0.00003613   -0.00000253    0.01717401
     atom    7 type  1   force =    -0.00001738    0.00006301    0.01719814
     atom    8 type  1   force =     0.00002460   -0.00000378    0.01721261
     atom    9 type  1   force =     0.00000108   -0.00002494   -0.00092497
     atom   10 type  1   force =    -0.00001730   -0.00006741   -0.00097016
     atom   11 type  1   force =    -0.00003014   -0.00002387   -0.00088870
     atom   12 type  1   force =     0.00005822    0.00002312   -0.00087970

     Total force =     0.047388     Total SCF correction =     0.009477
     SCF correction compared to forces is large: reduce conv_thr to get better values

     entering subroutine stress ...

     negative rho (up, down):  2.676E-01 0.000E+00
          total   stress  (Ry/bohr**3)                   (kbar)     P=   -2.61
  -0.00004318   0.00000001  -0.00000000         -6.35      0.00     -0.00
   0.00000001  -0.00004318  -0.00000000          0.00     -6.35     -0.00
  -0.00000000  -0.00000000   0.00003321         -0.00     -0.00      4.89

 !ASE

     Writing output data file calc.save

     General routines

     Parallel routines

   This run was terminated on:  17:25:27  18Dec2018

   JOB DONE.
Job  /afs/slac/g/suncat/bin/suncat-tsmpirun -x LD_LIBRARY_PATH -wdir /scratch/qe529415_LX3bH pw.x -in pw.inp

TID   HOST_NAME   COMMAND_LINE            STATUS            TERMINATION_TIME
00000 suncat1054 pw.x -in pw.inp   Done                     12/18/2018 17:25:27
00001 suncat1054 pw.x -in pw.inp   Done                     12/18/2018 17:25:27
00002 suncat1054 pw.x -in pw.inp   Done                     12/18/2018 17:25:27
00003 suncat1054 pw.x -in pw.inp   Done                     12/18/2018 17:25:27
00004 suncat1054 pw.x -in pw.inp   Done                     12/18/2018 17:25:27
00005 suncat1054 pw.x -in pw.inp   Done                     12/18/2018 17:25:27
00006 suncat1054 pw.x -in pw.inp   Done                     12/18/2018 17:25:27
00007 suncat1054 pw.x -in pw.inp   Done                     12/18/2018 17:25:27
00008 suncat1053 pw.x -in pw.inp   Done                     12/18/2018 17:25:27
00009 suncat1053 pw.x -in pw.inp   Done                     12/18/2018 17:25:27
00010 suncat1053 pw.x -in pw.inp   Done                     12/18/2018 17:25:27
00011 suncat1053 pw.x -in pw.inp   Done                     12/18/2018 17:25:27
00012 suncat1053 pw.x -in pw.inp   Done                     12/18/2018 17:25:27
00013 suncat1053 pw.x -in pw.inp   Done                     12/18/2018 17:25:27
00014 suncat1053 pw.x -in pw.inp   Done                     12/18/2018 17:25:27
00015 suncat1053 pw.x -in pw.inp   Done                     12/18/2018 17:25:27
00016 suncat1053 pw.x -in pw.inp   Done                     12/18/2018 17:25:27
00017 suncat1053 pw.x -in pw.inp   Done                     12/18/2018 17:25:27
00018 suncat1053 pw.x -in pw.inp   Done                     12/18/2018 17:25:27
00019 suncat1053 pw.x -in pw.inp   Done                     12/18/2018 17:25:27
00020 suncat1052 pw.x -in pw.inp   Done                     12/18/2018 17:25:27
00021 suncat1052 pw.x -in pw.inp   Done                     12/18/2018 17:25:27
00022 suncat1052 pw.x -in pw.inp   Done                     12/18/2018 17:25:27
00023 suncat1052 pw.x -in pw.inp   Done                     12/18/2018 17:25:27
00024 suncat1052 pw.x -in pw.inp   Done                     12/18/2018 17:25:27
00025 suncat1052 pw.x -in pw.inp   Done                     12/18/2018 17:25:27
00026 suncat1052 pw.x -in pw.inp   Done                     12/18/2018 17:25:27
00027 suncat1052 pw.x -in pw.inp   Done                     12/18/2018 17:25:27
00028 suncat1052 pw.x -in pw.inp   Done                     12/18/2018 17:25:27
00029 suncat1052 pw.x -in pw.inp   Done                     12/18/2018 17:25:27
00030 suncat1052 pw.x -in pw.inp   Done                     12/18/2018 17:25:27
00031 suncat1052 pw.x -in pw.inp   Done                     12/18/2018 17:25:27