     Program PWSCF v.5.1rc2 (svn rev. 11289) starts on 18Dec2018 at 20:53:42

     Current dimensions of program PWSCF are:
     Max number of different atomic species (ntypx) = 10
     Max number of k-points (npk) =  40000
     Max angular momentum in pseudopotentials (lmaxx) =  3
     Presently stress not available with electric field

     IMPORTANT: XC functional enforced from input :
     Exchange-correlation      = BEEF-VDW ( 1  4 27 13 2)
     Any further DFT definition will be discarded
     Please, verify this is what you really want

     Subspace diagonalization in iterative solution of the eigenvalue problem:
     a serial algorithm will be used

     Found symmetry operation: I + ( -0.5000  0.0000  0.0000)
     This is a supercell, fractional translations are disabled

     bravais-lattice index     =            0
     lattice parameter (alat)  =       1.8897  a.u.
     unit-cell volume          =    4806.0858 (a.u.)^3
     number of atoms/cell      =           12
     number of atomic types    =            1
     number of electrons       =       144.00
     number of Kohn-Sham states=           82
     kinetic-energy cutoff     =      36.7493  Ry
     charge density cutoff     =     367.4932  Ry
     convergence threshold     =      1.0E-05
     mixing beta               =       0.2000
     number of iterations used =           10  plain     mixing
     Exchange-correlation      = BEEF-VDW ( 1  4 27 13 2)
     nstep                     =           50

     celldm(1)=   1.889726  celldm(2)=   0.000000  celldm(3)=   0.000000
     celldm(4)=   0.000000  celldm(5)=   0.000000  celldm(6)=   0.000000

     crystal axes: (cart. coord. in units of alat)
               a(1) = (   5.768903   0.000000   0.000000 )
               a(2) = (   2.884451   4.996016   0.000000 )
               a(3) = (   0.000000   0.000000  24.710289 )

     reciprocal axes: (cart. coord. in units 2 pi/alat)
               b(1) = (  0.173343 -0.100080  0.000000 )
               b(2) = (  0.000000  0.200159  0.000000 )
               b(3) = (  0.000000  0.000000  0.040469 )

     PseudoPot. # 1 for Ti read from file:
     /afs/slac.stanford.edu/u/if/mamunm/psp/gbrv1.5pbe/Ti.UPF
     MD5 check sum: 88a00a6731bd790ddea75d31a80cb452
     Pseudo is Ultrasoft + core correction, Zval = 12.0
     Generated by new atomic code, or converted to UPF format
     Using radial grid of  851 points,  6 beta functions with:
                l(1) =   0
                l(2) =   0
                l(3) =   1
                l(4) =   1
                l(5) =   2
                l(6) =   2
     Q(r) pseudized with  6 coefficients,  rinner =    1.000   1.000   1.000
                                                       1.000   1.000

     vdW kernel table read from file vdW_kernel_table
     MD5 check sum: 095c7af220d748ca6e76c0b4c6cfb241

     atomic species   valence    mass     pseudopotential
        Ti1           12.00    47.86700     Ti( 1.00)

     No symmetry found

   Cartesian axes

     site n.     atom                  positions (alat units)
         1           Ti1 tau(   1) = (   1.4422257   0.8326694  10.0000000  )
         2           Ti1 tau(   2) = (   4.3266771   0.8326694  10.0000000  )
         3           Ti1 tau(   3) = (   2.8844514   3.3306776  10.0000000  )
         4           Ti1 tau(   4) = (   5.7689029   3.3306776  10.0000000  )
         5           Ti1 tau(   5) = (   5.7689029   1.6653388  12.3551447  )
         6           Ti1 tau(   6) = (   2.8844514   1.6653388  12.3551447  )
         7           Ti1 tau(   7) = (   7.2111286   4.1633470  12.3551447  )
         8           Ti1 tau(   8) = (   4.3266771   4.1633470  12.3551447  )
         9           Ti1 tau(   9) = (   0.0000000   0.0000000  14.7102895  )
        10           Ti1 tau(  10) = (   2.8844514   0.0000000  14.7102895  )
        11           Ti1 tau(  11) = (   1.4422257   2.4980082  14.7102895  )
        12           Ti1 tau(  12) = (   4.3266771   2.4980082  14.7102895  )

     number of k points=    20  Fermi-Dirac smearing, width (Ry)=  0.0110
                       cart. coord. in units 2pi/alat
        k(    1) = (   0.0000000   0.0000000   0.0000000), wk =   0.0555556
        k(    2) = (   0.0000000   0.0333599   0.0000000), wk =   0.1111111
        k(    3) = (   0.0000000   0.0667198   0.0000000), wk =   0.1111111
        k(    4) = (   0.0000000  -0.1000797   0.0000000), wk =   0.0555556
        k(    5) = (   0.0288905  -0.0166800   0.0000000), wk =   0.1111111
        k(    6) = (   0.0288905   0.0166800   0.0000000), wk =   0.1111111
        k(    7) = (   0.0288905   0.0500399   0.0000000), wk =   0.1111111
        k(    8) = (   0.0288905  -0.1167597   0.0000000), wk =   0.1111111
        k(    9) = (   0.0288905  -0.0833998   0.0000000), wk =   0.1111111
        k(   10) = (   0.0288905  -0.0500399   0.0000000), wk =   0.1111111
        k(   11) = (   0.0577811  -0.0333599   0.0000000), wk =   0.1111111
        k(   12) = (   0.0577811  -0.0000000   0.0000000), wk =   0.1111111
        k(   13) = (   0.0577811   0.0333599   0.0000000), wk =   0.1111111
        k(   14) = (   0.0577811  -0.1334396   0.0000000), wk =   0.1111111
        k(   15) = (   0.0577811  -0.1000797   0.0000000), wk =   0.1111111
        k(   16) = (   0.0577811  -0.0667198   0.0000000), wk =   0.1111111
        k(   17) = (  -0.0866716   0.0500399   0.0000000), wk =   0.0555556
        k(   18) = (  -0.0866716   0.0833998   0.0000000), wk =   0.1111111
        k(   19) = (  -0.0866716   0.1167597   0.0000000), wk =   0.1111111
        k(   20) = (  -0.0866716  -0.0500399   0.0000000), wk =   0.0555556

     Largest allocated arrays     est. size (Mb)     dimensions
     Largest temporary arrays     est. size (Mb)     dimensions

     Check: negative/imaginary core charge=   -0.000006    0.000000

     Initial potential from superposition of free atoms
     Check: negative starting charge=   -0.012827

     starting charge  131.99947, renormalised to  144.00000

     negative rho (up, down):  1.399E-02 0.000E+00

     *
     * You are using vdW-DF for exchange-correlation in this calculation.
     * Please cite the following three references that made this development
     * possible:
     *
     *   M. Dion, H. Rydberg, E. Schroder, D. C. Langreth, and
     *   B. I. Lundqvist, Phys. Rev. Lett. 92, 246401 (2004).
     *
     *   T. Thonhauser, V. R. Cooper, S. Li, A. Puzder, P. Hyldgaard, and
     *   D. C. Langreth, Phys. Rev. B 76, 125112 (2007).
     *
     *   G. Roman-Perez and J. M. Soler, Phys. Rev. Lett. 103, 096102 (2009).
     *
     *
     * If you are using vdW-DF2, please also cite:
     *
     *   K. Lee, E. D. Murray, L. Kong, B. I. Lundqvist, and
     *   D. C. Langreth, Phys. Rev. B 82, 081101(R) (2010).
     *
     *
     * If you are calculating the stress with vdW-DF, please also cite:
     *
     *   R. Sabatini, E. Kucukbenli, B. Kolb, T. Thonhauser, and
     *   S. de Gironcoli, J. Phys.: Condens. Matter 24, 424209 (2012).
     *

     Carrying out vdW-DF run using the following parameters:

     Nqs =      20    Nr_points =    1024   r_max =   100.000
     q_mesh =
               0.00001000     0.04494208     0.09755937     0.15916263
               0.23128650     0.31572767     0.41458969     0.53033537
               0.66584808     0.82450364     1.01025438     1.22772762
               1.48234092     1.78043706     2.12944203     2.53805004
               3.01644009     3.57652955     4.23227104     5.00000000

     Gradients computed in reciprocal space

     Adding external electric field

     Computed dipole along edir(3) :
        Dipole                0.0000 Ry au,          0.0000 Debye
        Dipole field          0.0000 Ry au

        Potential amp.       -0.0000 Ry
        Total length         45.5283 bohr

     Starting wfc are  120 randomized atomic wfcs

     Self-consistent Calculation

     iteration #  1     ecut=    36.75 Ry     beta=0.20
     Davidson diagonalization with overlap
     ethr =  1.00E-02,  avg # of iterations =  5.5

[...]

     total energy              =   -1438.57831735 Ry
     Harris-Foulkes estimate   =   -1440.95303930 Ry
     estimated scf accuracy    <       7.69152595 Ry

[...]

     iteration # 12     ecut=    36.75 Ry     beta=0.20
     Davidson diagonalization with overlap
     c_bands:  4 eigenvalues not converged
     ethr =  5.47E-07,  avg # of iterations =  7.3

[...]

     End of self-consistent calculation

          k = 0.0000 0.0000 0.0000 ( 18103 PWs)   bands (ev):

   -56.2847 -56.2744 -56.1885 -56.1884 -56.1883 -56.1874 -56.1873 -56.1872
   -56.0704 -55.9929 -55.9925 -55.9924 -32.7527 -32.7527 -32.7527 -32.7111
   -32.7111 -32.7110 -32.6978 -32.6320 -32.6319 -32.6319 -32.5397 -32.4585
   -32.4584 -32.4583 -32.3621 -32.3621 -32.3620 -32.3168 -32.3167 -32.3167
   -32.3023 -32.3023 -32.3022 -32.1841 -32.1841 -32.1816 -32.1813 -32.1812
   -32.1791 -32.1791 -32.1622 -32.0972 -32.0972 -32.0970 -31.9837 -31.9837
    -4.7512  -3.4422  -2.1976  -1.5905  -1.5904  -1.5904  -1.4634  -1.4634
    -1.4634  -1.0467  -1.0467  -1.0467  -0.8049  -0.8049  -0.8048  -0.1695
    -0.1695  -0.1695   0.6352   0.6468   0.9397   0.9397   0.9397   1.1980
     1.2527   1.2823   1.2824   1.2824   1.5141   1.5141   1.6968   1.6982
     1.7119   1.7659

[...]

          k =-0.0867 0.0500 0.0000 ( 18044 PWs)   bands (ev):

[...]

     the Fermi energy is     0.7249 ev

!    total energy              =   -1438.50007903 Ry
     Harris-Foulkes estimate   =   -1438.50008020 Ry
     estimated scf accuracy    <       0.00000161 Ry

     The total energy is the sum of the following terms:

     one-electron contribution =  -10838.61071513 Ry
     hartree contribution      =    5404.24375006 Ry
     xc contribution           =    -224.79190458 Ry
     ewald contribution        =    4220.79701131 Ry
     electric field correction =       0.00000000 Ry
     smearing contrib. (-TS)   =      -0.13822070 Ry

     convergence has been achieved in  23 iterations

 BEEF-vdW xc energy contributions
           1 :   -193.172384280671
           2 :    172.676627135694
           3 :   -139.027172531621
           4 :    102.939921933349
           5 :   -73.2651737261272
           6 :    53.5003805769629
           7 :   -41.7378624405458
           8 :    33.3906916713117
           9 :   -24.5804093439640
          10 :    14.1108354645690
          11 :   -3.27806199240433
          12 :   -5.79981127871031
          13 :    11.9155813112987
          14 :   -15.4564865968596
          15 :    17.8144531349417
          16 :   -20.1812575543599
          17 :    22.6803467180682
          18 :   -24.4244509006413
          19 :    24.3417231745628
          20 :   -22.0763175445148
          21 :    18.2765445607484
          22 :   -14.1163582548880
          23 :    10.4818775131570
          24 :   -7.46545161163243
          25 :    4.50086307803440
          26 :  -0.967719316532737
          27 :   -3.23517784797798
          28 :    7.56313179544770
          29 :   -11.1941077295613
          30 :    13.5734039234297
          31 :   -20.4693129975680
          32 :   -14.5860442475750

[...]
00020 suncat1009 pw.x -in pw.inp   Done                     12/18/2018 21:09:57
00021 suncat1009 pw.x -in pw.inp   Done                     12/18/2018 21:09:57
00022 suncat1009 pw.x -in pw.inp   Done                     12/18/2018 21:09:57
00023 suncat1009 pw.x -in pw.inp   Done                     12/18/2018 21:09:57
00024 suncat1009 pw.x -in pw.inp   Done                     12/18/2018 21:09:57
00025 suncat1009 pw.x -in pw.inp   Done                     12/18/2018 21:09:57
00026 suncat1009 pw.x -in pw.inp   Done                     12/18/2018 21:09:57
00027 suncat1009 pw.x -in pw.inp   Done                     12/18/2018 21:09:57
00028 suncat1009 pw.x -in pw.inp   Done                     12/18/2018 21:09:57
00029 suncat1009 pw.x -in pw.inp   Done                     12/18/2018 21:09:57
00030 suncat1009 pw.x -in pw.inp   Done                     12/18/2018 21:09:57
00031 suncat1009 pw.x -in pw.inp   Done                     12/18/2018 21:09:57

     Program PWSCF v.5.1rc2 (svn rev. 11289) starts on 18Dec2018 at 21:10: 3

[...]

     Found symmetry operation: I + ( -0.5000  0.0000  0.0000)
     This is a supercell, fractional translations are disabled

[...]

   This run was terminated on:  21:27:13  18Dec2018

[...]

     Program PWSCF v.5.1rc2 (svn rev. 11289) starts on 18Dec2018 at 21:27:19

     Current dimensions of program PWSCF are:
     Max number of different atomic species (ntypx) = 10
     Max number of k-points (npk) =  40000
     Max angular momentum in pseudopotentials (lmaxx) =  3
     Presently stress not available with electric field

     IMPORTANT: XC functional enforced from input :
     Exchange-correlation      = BEEF-VDW ( 1  4 27 13 2)
     Any further DFT definition will be discarded
     Please, verify this is what you really want

     Subspace diagonalization in iterative solution of the eigenvalue problem:
     a serial algorithm will be used

     bravais-lattice index     =            0
     lattice parameter (alat)  =       1.8897  a.u.
     unit-cell volume          =    4806.0858 (a.u.)^3
     number of atoms/cell      =           12
     number of atomic types    =            1
     number of electrons       =       144.00
     number of Kohn-Sham states=           82
     kinetic-energy cutoff     =      36.7493  Ry
     charge density cutoff     =     367.4932  Ry
     convergence threshold     =      1.0E-05
     mixing beta               =       0.2000
     number of iterations used =           10  plain     mixing
     Exchange-correlation      = BEEF-VDW ( 1  4 27 13 2)
     nstep                     =           50

     celldm(1)=   1.889726  celldm(2)=   0.000000  celldm(3)=   0.000000
     celldm(4)=   0.000000  celldm(5)=   0.000000  celldm(6)=   0.000000

     crystal axes: (cart. coord. in units of alat)
               a(1) = (   5.768903   0.000000   0.000000 )
               a(2) = (   2.884451   4.996016   0.000000 )
               a(3) = (   0.000000   0.000000  24.710289 )

     reciprocal axes: (cart. coord. in units 2 pi/alat)
               b(1) = (  0.173343 -0.100080  0.000000 )
               b(2) = (  0.000000  0.200159  0.000000 )
               b(3) = (  0.000000  0.000000  0.040469 )

     PseudoPot. # 1 for Ti read from file:
     /afs/slac.stanford.edu/u/if/mamunm/psp/gbrv1.5pbe/Ti.UPF
     MD5 check sum: 88a00a6731bd790ddea75d31a80cb452
     Pseudo is Ultrasoft + core correction, Zval = 12.0
     Generated by new atomic code, or converted to UPF format
     Using radial grid of  851 points,  6 beta functions with:
                l(1) =   0
                l(2) =   0
                l(3) =   1
                l(4) =   1
                l(5) =   2
                l(6) =   2
     Q(r) pseudized with  6 coefficients,  rinner =    1.000   1.000   1.000
                                                       1.000   1.000

     vdW kernel table read from file vdW_kernel_table
     MD5 check sum: 095c7af220d748ca6e76c0b4c6cfb241

     atomic species   valence    mass     pseudopotential
        Ti1           12.00    47.86700     Ti( 1.00)

     No symmetry found

   Cartesian axes

     site n.     atom                  positions (alat units)
         1           Ti1 tau(   1) = (   1.4422257   0.8326694  10.0000000  )
         2           Ti1 tau(   2) = (   4.3266771   0.8326694  10.0000000  )
         3           Ti1 tau(   3) = (   2.8844514   3.3306776  10.0000000  )
         4           Ti1 tau(   4) = (   5.7689029   3.3306776  10.0000000  )
         5           Ti1 tau(   5) = (   5.7689029   1.6653388  12.3551447  )
         6           Ti1 tau(   6) = (   2.8844514   1.6653388  12.3551447  )
         7           Ti1 tau(   7) = (   7.2111286   4.1633470  12.3551447  )
         8           Ti1 tau(   8) = (   4.3266771   4.1633470  12.3551447  )
         9           Ti1 tau(   9) = (   5.7688341   0.0000439  14.6121387  )
        10           Ti1 tau(  10) = (   2.8845518   0.0000612  14.6119809  )
        11           Ti1 tau(  11) = (   1.4422585   2.4980278  14.6119586  )
        12           Ti1 tau(  12) = (   4.3266860   2.4979333  14.6120613  )

     number of k points=    20  Fermi-Dirac smearing, width (Ry)=  0.0110
                       cart. coord. in units 2pi/alat
        k(    1) = (   0.0000000   0.0000000   0.0000000), wk =   0.0555556
        k(    2) = (   0.0000000   0.0333599   0.0000000), wk =   0.1111111
        k(    3) = (   0.0000000   0.0667198   0.0000000), wk =   0.1111111
        k(    4) = (   0.0000000  -0.1000797   0.0000000), wk =   0.0555556
        k(    5) = (   0.0288905  -0.0166800   0.0000000), wk =   0.1111111
        k(    6) = (   0.0288905   0.0166800   0.0000000), wk =   0.1111111
        k(    7) = (   0.0288905   0.0500399   0.0000000), wk =   0.1111111
        k(    8) = (   0.0288905  -0.1167597   0.0000000), wk =   0.1111111
        k(    9) = (   0.0288905  -0.0833998   0.0000000), wk =   0.1111111
        k(   10) = (   0.0288905  -0.0500399   0.0000000), wk =   0.1111111
        k(   11) = (   0.0577811  -0.0333599   0.0000000), wk =   0.1111111
        k(   12) = (   0.0577811  -0.0000000   0.0000000), wk =   0.1111111
        k(   13) = (   0.0577811   0.0333599   0.0000000), wk =   0.1111111
        k(   14) = (   0.0577811  -0.1334396   0.0000000), wk =   0.1111111
        k(   15) = (   0.0577811  -0.1000797   0.0000000), wk =   0.1111111
        k(   16) = (   0.0577811  -0.0667198   0.0000000), wk =   0.1111111
        k(   17) = (  -0.0866716   0.0500399   0.0000000), wk =   0.0555556
        k(   18) = (  -0.0866716   0.0833998   0.0000000), wk =   0.1111111
        k(   19) = (  -0.0866716   0.1167597   0.0000000), wk =   0.1111111
        k(   20) = (  -0.0866716  -0.0500399   0.0000000), wk =   0.0555556

     Largest allocated arrays     est. size (Mb)     dimensions
     Largest temporary arrays     est. size (Mb)     dimensions

     Check: negative/imaginary core charge=   -0.000006    0.000000

     Initial potential from superposition of free atoms
     Check: negative starting charge=   -0.012642

     starting charge  131.99947, renormalised to  144.00000

[...]

     *
     * You are using vdW-DF for exchange-correlation in this calculation.
     * Please cite the following three references that made this development
     * possible:
     *
     *   M. Dion, H. Rydberg, E. Schroder, D. C. Langreth, and
     *   B. I. Lundqvist, Phys. Rev. Lett. 92, 246401 (2004).
     *
     *   T. Thonhauser, V. R. Cooper, S. Li, A. Puzder, P. Hyldgaard, and
     *   D. C. Langreth, Phys. Rev. B 76, 125112 (2007).
     *
     *   G. Roman-Perez and J. M. Soler, Phys. Rev. Lett. 103, 096102 (2009).
     *
     *
     * If you are using vdW-DF2, please also cite:
     *
     *   K. Lee, E. D. Murray, L. Kong, B. I. Lundqvist, and
     *   D. C. Langreth, Phys. Rev. B 82, 081101(R) (2010).
     *
     *
     * If you are calculating the stress with vdW-DF, please also cite:
     *
     *   R. Sabatini, E. Kucukbenli, B. Kolb, T. Thonhauser, and
     *   S. de Gironcoli, J. Phys.: Condens. Matter 24, 424209 (2012).
     *

     Carrying out vdW-DF run using the following parameters:

     Nqs =      20    Nr_points =    1024   r_max =   100.000
     q_mesh =
               0.00001000     0.04494208     0.09755937     0.15916263
               0.23128650     0.31572767     0.41458969     0.53033537
               0.66584808     0.82450364     1.01025438     1.22772762
               1.48234092     1.78043706     2.12944203     2.53805004
               3.01644009     3.57652955     4.23227104     5.00000000

     Gradients computed in reciprocal space

[...]

     Starting wfc are  120 randomized atomic wfcs

     Self-consistent Calculation

[...]

     iteration # 12     ecut=    36.75 Ry     beta=0.20
     Davidson diagonalization with overlap
     c_bands:  1 eigenvalues not converged
     ethr =  1.01E-05,  avg # of iterations =  7.7

[...]

     total energy              =   -1438.50717822 Ry
     Harris-Foulkes estimate   =   -1438.50717960 Ry
     estimated scf accuracy    <       0.00004299 Ry

     iteration # 21     ecut=    36.75 Ry     beta=0.20
     Davidson diagonalization with overlap
     ethr =  2.99E-08,  avg # of iterations =  1.0

[...]

     negative rho (up, down):  8.281E-03 0.000E+00

     Adding external electric field

     Computed dipole along edir(3) :
        Dipole                0.0121 Ry au,          0.0308 Debye
        Dipole field          0.0000 Ry au

        Potential amp.       -0.0029 Ry
        Total length         45.5283 bohr

     End of self-consistent calculation

[...]

          k = 0.0578-0.0667 0.0000 ( 18031 PWs)   bands (ev):

[...]

          k =-0.0867-0.0500 0.0000 ( 18044 PWs)   bands (ev):

   -56.2348 -56.2347 -56.2101 -56.2099 -56.1887 -56.1886 -56.1624 -56.1623
   -55.9900 -55.9894 -55.9522 -55.9516 -32.6527 -32.6526 -32.6280 -32.6278
   -32.6078 -32.6078 -32.5591 -32.5589 -32.5325 -32.5324 -32.4999 -32.4998
   -32.4564 -32.4564 -32.4392 -32.4391 -32.4133 -32.4133 -32.4030 -32.4029
   -32.2635 -32.2631 -32.2480 -32.2479 -32.2273 -32.2271 -32.1776 -32.1772
   -32.1588 -32.1583 -32.1156 -32.1151 -32.1002 -32.0998 -32.0015 -32.0009
    -3.2034  -3.2033  -2.0442  -2.0442  -1.2364  -1.2363  -0.9749  -0.9747
    -0.9650  -0.9647  -0.2455  -0.2454  -0.2413  -0.2412  -0.0981  -0.0979
     0.2371   0.2371   0.2670   0.2670   0.2887   0.2888   0.5458   0.5459
     0.5509   0.5511   0.7251   0.7252   0.8116   0.8118   1.0107   1.0109
     1.3401   1.3402

     the Fermi energy is     0.7172 ev

!    total energy              =   -1438.50717954 Ry
     Harris-Foulkes estimate   =   -1438.50717868 Ry
     estimated scf accuracy    <       0.00000225 Ry

     The total energy is the sum of the following terms:

     one-electron contribution =  -10987.66923946 Ry
     hartree contribution      =    5478.89158783 Ry
     xc contribution           =    -224.93648190 Ry
     ewald contribution        =    4295.34106029 Ry
     electric field correction =       0.00000038 Ry
     smearing contrib. (-TS)   =      -0.13410669 Ry

     convergence has been achieved in  21 iterations

 BEEF-vdW xc energy contributions
           1 :   -193.433011614657
           2 :    172.982522481244
           3 :   -139.369471570704
           4 :    103.252336301625
           5 :   -73.4757761881079
           6 :    53.5920521575567
           7 :   -41.7664765798916
           8 :    33.4477051550197
           9 :   -24.7295200541489
          10 :    14.3437921954669
          11 :   -3.52124354109438
          12 :   -5.63295789297428
          13 :    11.8622084123804
          14 :   -15.4759238515483
          15 :    17.8167000431901
          16 :   -20.0950034312983
          17 :    22.5091597777719
          18 :   -24.2446520788735
          19 :    24.2410041914800
          20 :   -22.0817270537650
          21 :    18.3312528857878
          22 :   -14.1244322157806
          23 :    10.3836889058991
          24 :   -7.28258901870373
          25 :    4.31743305949686
          26 :  -0.865342362570260
          27 :   -3.23854830960116
          28 :    7.52512285019412
          29 :   -11.2026522634080
          30 :    13.6791392891162
          31 :   -20.4883205229280
          32 :   -14.6120682581258

     Forces acting on atoms (Ry/au):

     negative rho (up, down):  8.281E-03 0.000E+00
     atom    1 type  1   force =    -0.00001679   -0.00001058    0.00722140
     atom    2 type  1   force =     0.00001401   -0.00000110    0.00721749
     atom    3 type  1   force =     0.00001262    0.00001629    0.00721779
     atom    4 type  1   force =    -0.00000989   -0.00000258    0.00723881
     atom    5 type  1   force =    -0.00000990   -0.00000275   -0.00869986
     atom    6 type  1   force =     0.00001264   -0.00000264   -0.00869982
     atom    7 type  1   force =     0.00001223    0.00001525   -0.00871820
     atom    8 type  1   force =    -0.00001305   -0.00000245   -0.00868142
     atom    9 type  1   force =     0.00001753   -0.00000495    0.00144448
     atom   10 type  1   force =    -0.00001708   -0.00003195    0.00149106
     atom   11 type  1   force =    -0.00002137    0.00000309    0.00147996
     atom   12 type  1   force =     0.00001905    0.00002436    0.00148832

     Total force =     0.022808     Total SCF correction =     0.008233
     SCF correction compared to forces is large: reduce conv_thr to get better values

     entering subroutine stress ...

     negative rho (up, down):  8.281E-03 0.000E+00
          total   stress  (Ry/bohr**3)                   (kbar)     P=   -1.45
  -0.00000298  -0.00000001   0.00000001         -0.44     -0.00      0.00
  -0.00000001  -0.00000303  -0.00000001         -0.00     -0.45     -0.00
   0.00000001  -0.00000001  -0.00002357          0.00     -0.00     -3.47

 !ASE

     Writing output data file calc.save

     General routines

     Parallel routines

   This run was terminated on:  21:43:15  18Dec2018

   JOB DONE.
Job  /afs/slac/g/suncat/bin/suncat-tsmpirun -x LD_LIBRARY_PATH -wdir /scratch/qe529439_Xb5w2 pw.x -in pw.inp

TID   HOST_NAME   COMMAND_LINE            STATUS            TERMINATION_TIME
00000 suncat1062 pw.x -in pw.inp   Done                     12/18/2018 21:43:15
00001 suncat1062 pw.x -in pw.inp   Done                     12/18/2018 21:43:15
00002 suncat1062 pw.x -in pw.inp   Done                     12/18/2018 21:43:15
00003 suncat1062 pw.x -in pw.inp   Done                     12/18/2018 21:43:15
00004 suncat1062 pw.x -in pw.inp   Done                     12/18/2018 21:43:15
00005 suncat1062 pw.x -in pw.inp   Done                     12/18/2018 21:43:15
00006 suncat1062 pw.x -in pw.inp   Done                     12/18/2018 21:43:15
00007 suncat1062 pw.x -in pw.inp   Done                     12/18/2018 21:43:15
00008 suncat1010 pw.x -in pw.inp   Done                     12/18/2018 21:43:15
00009 suncat1010 pw.x -in pw.inp   Done                     12/18/2018 21:43:15
00010 suncat1010 pw.x -in pw.inp   Done                     12/18/2018 21:43:15
00011 suncat1010 pw.x -in pw.inp   Done                     12/18/2018 21:43:15
00012 suncat1010 pw.x -in pw.inp   Done                     12/18/2018 21:43:15
00013 suncat1010 pw.x -in pw.inp   Done                     12/18/2018 21:43:15
00014 suncat1010 pw.x -in pw.inp   Done                     12/18/2018 21:43:15
00015 suncat1010 pw.x -in pw.inp   Done                     12/18/2018 21:43:15
00016 suncat1010 pw.x -in pw.inp   Done                     12/18/2018 21:43:15
00017 suncat1010 pw.x -in pw.inp   Done                     12/18/2018 21:43:15
00018 suncat1010 pw.x -in pw.inp   Done                     12/18/2018 21:43:15
00019 suncat1010 pw.x -in pw.inp   Done                     12/18/2018 21:43:15
00020 suncat1009 pw.x -in pw.inp   Done                     12/18/2018 21:43:15
00021 suncat1009 pw.x -in pw.inp   Done                     12/18/2018 21:43:15
00022 suncat1009 pw.x -in pw.inp   Done                     12/18/2018 21:43:15
00023 suncat1009 pw.x -in pw.inp   Done                     12/18/2018 21:43:15
00024 suncat1009 pw.x -in pw.inp   Done                     12/18/2018 21:43:15
00025 suncat1009 pw.x -in pw.inp   Done                     12/18/2018 21:43:15
00026 suncat1009 pw.x -in pw.inp   Done                     12/18/2018 21:43:15
00027 suncat1009 pw.x -in pw.inp   Done                     12/18/2018 21:43:15
00028 suncat1009 pw.x -in pw.inp   Done                     12/18/2018 21:43:15
00029 suncat1009 pw.x -in pw.inp   Done                     12/18/2018 21:43:15
00030 suncat1009 pw.x -in pw.inp   Done                     12/18/2018 21:43:15
00031 suncat1009 pw.x -in pw.inp   Done                     12/18/2018 21:43:15