     Program PWSCF v.5.1rc2 (svn rev. 11289) starts on 18Dec2018 at 19:53:52

     Current dimensions of program PWSCF are:
     Max number of different atomic species (ntypx) = 10
     Max number of k-points (npk) =  40000
     Max angular momentum in pseudopotentials (lmaxx) =  3
     Presently stress not available with electric field

     IMPORTANT: XC functional enforced from input :
     Exchange-correlation      = BEEF-VDW ( 1  4 27 13 2)
     Any further DFT definition will be discarded
     Please, verify this is what you really want

     Subspace diagonalization in iterative solution of the eigenvalue problem:
     a serial algorithm will be used

     Found symmetry operation: I + ( -0.5000  0.0000  0.0000)
     This is a supercell, fractional translations are disabled

     bravais-lattice index     =            0
     lattice parameter (alat)  =       1.8897  a.u.
     unit-cell volume          =    4306.9643 (a.u.)^3
     number of atoms/cell      =           12
     number of atomic types    =            1
     number of electrons       =       180.00
     number of Kohn-Sham states=          100
     kinetic-energy cutoff     =      36.7493  Ry
     charge density cutoff     =     367.4932  Ry
     convergence threshold     =      1.0E-05
     mixing beta               =       0.2000
     number of iterations used =           10  plain     mixing
     Exchange-correlation      = BEEF-VDW ( 1  4 27 13 2)
     nstep                     =           50

     celldm(1)=   1.889726  celldm(2)=   0.000000  celldm(3)=   0.000000
     celldm(4)=   0.000000  celldm(5)=   0.000000  celldm(6)=   0.000000

     crystal axes: (cart. coord. in units of alat)
               a(1) = (   5.486772   0.000000   0.000000 )
               a(2) = (   2.743386   4.751684   0.000000 )
               a(3) = (   0.000000   0.000000  24.479931 )

     reciprocal axes: (cart. coord. in units 2 pi/alat)
               b(1) = (  0.182257 -0.105226  0.000000 )
               b(2) = (  0.000000  0.210452  0.000000 )
               b(3) = (  0.000000  0.000000  0.040850 )

     PseudoPot. # 1 for Re read from file:
     /afs/slac.stanford.edu/u/if/mamunm/psp/gbrv1.5pbe/Re.UPF
     MD5 check sum: 85f993410f3e006da9d71c142b4ad953
     Pseudo is Ultrasoft + core correction, Zval = 15.0
     Generated by new atomic code, or converted to UPF format
     Using radial grid of  981 points,  8 beta functions with:
                l(1) =   0
                l(2) =   0
                l(3) =   1
                l(4) =   1
                l(5) =   2
                l(6) =   2
                l(7) =   3
                l(8) =   3
     Q(r) pseudized with  8 coefficients,  rinner =    1.150   1.150   1.150
                                                       1.150   1.150   1.150
                                                       1.150

     vdW kernel table read from file vdW_kernel_table
     MD5 check sum: 095c7af220d748ca6e76c0b4c6cfb241

     atomic species   valence    mass     pseudopotential
        Re1           15.00   186.20700     Re( 1.00)

     No symmetry found

   Cartesian axes

     site n.     atom                  positions (alat units)
         1           Re1 tau(   1) = (   1.3716930   0.7919474  10.0000000  )
         2           Re1 tau(   2) = (   4.1150791   0.7919474  10.0000000  )
         3           Re1 tau(   3) = (   2.7433861   3.1677894  10.0000000  )
         4           Re1 tau(   4) = (   5.4867722   3.1677894  10.0000000  )
         5           Re1 tau(   5) = (   5.4867722   1.5838947  12.2399654  )
         6           Re1 tau(   6) = (   2.7433861   1.5838947  12.2399654  )
         7           Re1 tau(   7) = (   6.8584652   3.9597368  12.2399654  )
         8           Re1 tau(   8) = (   4.1150791   3.9597368  12.2399654  )
         9           Re1 tau(   9) = (   0.0000000   0.0000000  14.4799307  )
        10           Re1 tau(  10) = (   2.7433861   0.0000000  14.4799307  )
        11           Re1 tau(  11) = (   1.3716930   2.3758421  14.4799307  )
        12           Re1 tau(  12) = (   4.1150791   2.3758421  14.4799307  )

     number of k points=    20  Fermi-Dirac smearing, width (Ry)=  0.0110
                       cart. coord. in units 2pi/alat
        k(    1) = (   0.0000000   0.0000000   0.0000000), wk =   0.0555556
        k(    2) = (   0.0000000   0.0350753   0.0000000), wk =   0.1111111
        k(    3) = (   0.0000000   0.0701506   0.0000000), wk =   0.1111111
        k(    4) = (   0.0000000  -0.1052259   0.0000000), wk =   0.0555556
        k(    5) = (   0.0303761  -0.0175376   0.0000000), wk =   0.1111111
        k(    6) = (   0.0303761   0.0175376   0.0000000), wk =   0.1111111
        k(    7) = (   0.0303761   0.0526129   0.0000000), wk =   0.1111111
        k(    8) = (   0.0303761  -0.1227635   0.0000000), wk =   0.1111111
        k(    9) = (   0.0303761  -0.0876882   0.0000000), wk =   0.1111111
        k(   10) = (   0.0303761  -0.0526129   0.0000000), wk =   0.1111111
        k(   11) = (   0.0607522  -0.0350753   0.0000000), wk =   0.1111111
        k(   12) = (   0.0607522   0.0000000   0.0000000), wk =   0.1111111
        k(   13) = (   0.0607522   0.0350753   0.0000000), wk =   0.1111111
        k(   14) = (   0.0607522  -0.1403011   0.0000000), wk =   0.1111111
        k(   15) = (   0.0607522  -0.1052259   0.0000000), wk =   0.1111111
        k(   16) = (   0.0607522  -0.0701506   0.0000000), wk =   0.1111111
        k(   17) = (  -0.0911283   0.0526129   0.0000000), wk =   0.0555556
        k(   18) = (  -0.0911283   0.0876882   0.0000000), wk =   0.1111111
        k(   19) = (  -0.0911283   0.1227635   0.0000000), wk =   0.1111111
        k(   20) = (  -0.0911283  -0.0526129   0.0000000), wk =   0.0555556

     Largest allocated arrays     est. size (Mb)     dimensions
     Largest temporary arrays     est. size (Mb)     dimensions

     Initial potential from superposition of free atoms
     Check: negative starting charge=   -1.539689

     starting charge  173.99946, renormalised to  180.00000

     negative rho (up, down):  1.593E+00 0.000E+00

     *
     * You are using vdW-DF for exchange-correlation in this calculation.
     * Please cite the following three references that made this development
     * possible:
     *
     *   M. Dion, H. Rydberg, E. Schroder, D. C. Langreth, and
     *   B. I. Lundqvist, Phys. Rev. Lett. 92, 246401 (2004).
     *
     *   T. Thonhauser, V. R. Cooper, S. Li, A. Puzder, P. Hyldgaard, and
     *   D. C. Langreth, Phys. Rev. B 76, 125112 (2007).
     *
     *   G. Roman-Perez and J. M. Soler, Phys. Rev. Lett. 103, 096102 (2009).
     *
     *
     * If you are using vdW-DF2, please also cite:
     *
     *   K. Lee, E. D. Murray, L. Kong, B. I. Lundqvist, and
     *   D. C. Langreth, Phys. Rev. B 82, 081101(R) (2010).
     *
     *
     * If you are calculating the stress with vdW-DF, please also cite:
     *
     *   R. Sabatini, E. Kucukbenli, B. Kolb, T. Thonhauser, and
     *   S. de Gironcoli, J. Phys.: Condens. Matter 24, 424209 (2012).
     *

     Carrying out vdW-DF run using the following parameters:

     Nqs =      20    Nr_points =    1024   r_max =   100.000
     q_mesh =
               0.00001000     0.04494208     0.09755937     0.15916263
               0.23128650     0.31572767     0.41458969     0.53033537
               0.66584808     0.82450364     1.01025438     1.22772762
               1.48234092     1.78043706     2.12944203     2.53805004
               3.01644009     3.57652955     4.23227104     5.00000000

     Gradients computed in reciprocal space

     Adding external electric field

     Computed dipole along edir(3) :
        Dipole                0.0000 Ry au,          0.0000 Debye
        Dipole field          0.0000 Ry au

        Potential amp.       -0.0000 Ry
        Total length         45.1039 bohr

     Starting wfc are  156 randomized atomic wfcs

     Self-consistent Calculation

     iteration #  1     ecut=    36.75 Ry     beta=0.20
     Davidson diagonalization with overlap
     ethr =  1.00E-02,  avg # of iterations =  2.0

[...]

     total energy              =   -2306.07274393 Ry
     Harris-Foulkes estimate   =   -2306.57865839 Ry
     estimated scf accuracy    <       1.93576634 Ry

[...]

     End of self-consistent calculation

          k = 0.0000 0.0000 0.0000 ( 16091 PWs)   bands (ev):

   -77.7391 -77.6512 -77.6512 -77.6511 -77.5860 -77.5748 -77.5096 -77.5096
   -77.5095 -77.5083 -77.5083 -77.5082 -39.9876 -39.9876 -39.9876 -39.8679
   -39.7667 -39.7667 -39.7667 -39.6370 -39.6370 -39.6370 -39.4245 -39.3015
   -39.3015 -39.3014 -39.2939 -39.2939 -39.2938 -39.2299 -39.2299 -39.2299
   -39.0963 -39.0962 -39.0962 -39.0128 -38.9884 -38.9884 -38.9488 -38.9488
   -38.9488 -38.9143 -38.9143 -38.9143 -38.7321 -38.7321 -38.7184 -38.7184
    -6.3204  -4.3358  -3.7872  -3.4089  -3.4089  -3.4089  -3.0776  -3.0776
    -3.0776  -2.3990  -2.3990  -2.3990  -2.1820  -2.1820  -2.1820  -0.6546
    -0.6546  -0.6546   0.3988   0.3988   0.3988   0.5132   0.7073   1.0470
     1.0470   1.5309   1.5309   1.5484   1.5484   1.5484   1.5829   1.5830
     1.5830   1.8471   1.8471   2.1106   3.1631   3.1631   3.1631   3.2762
     3.5808   3.5808   3.5808   4.1315   4.1316   4.6646   4.6646   4.6647
     4.7097   4.7097   5.0537   5.0537

[...]

          k =-0.0911 0.0526 0.0000 ( 16164 PWs)   bands (ev):

[...]

     the Fermi energy is     2.9113 ev

!    total energy              =   -2305.81378289 Ry
     Harris-Foulkes estimate   =   -2305.81377101 Ry
     estimated scf accuracy    <       0.00000278 Ry

     The total energy is the sum of the following terms:

     one-electron contribution =  -18403.29140759 Ry
     hartree contribution      =    9186.11839489 Ry
     xc contribution           =    -649.27990302 Ry
     ewald contribution        =    7560.70792691 Ry
     electric field correction =       0.00000003 Ry
     smearing contrib. (-TS)   =      -0.06879413 Ry

     convergence has been achieved in  15 iterations

 BEEF-vdW xc energy contributions
           1 :   -577.443831742879
           2 :    537.023324643242
           3 :   -464.368429155157
           4 :    373.191835713956
           5 :   -278.720548601104
           6 :    193.787256029467
           7 :   -126.192083400623
           8 :    77.9621641696554
           9 :   -46.4441042945182
          10 :    26.5314884737272
          11 :   -13.0475575343962
          12 :    2.43099440018932
          13 :    6.68968774650773
          14 :   -13.9514582999432
          15 :    18.2962712836495
          16 :   -19.0397301492440
          17 :    16.5210474395519
          18 :   -12.1323863043406
          19 :    7.79971325186398
          20 :   -5.20954955643504
          21 :    5.15453392157178
          22 :   -7.28762812504931
          23 :    10.3691722090555
          24 :   -12.8693735498218
          25 :    13.6422091073853
          26 :   -12.3765592295035
          27 :    9.64482014017904
          28 :   -6.56229741566688
          29 :    4.24404853956014
          30 :   -3.32262668649491
          31 :   -47.9098434059932
[...]
00021 suncat1058 pw.x -in pw.inp   Done                     12/18/2018 20:07:22
00022 suncat1058 pw.x -in pw.inp   Done                     12/18/2018 20:07:22
00023 suncat1058 pw.x -in pw.inp   Done                     12/18/2018 20:07:22
00024 suncat1058 pw.x -in pw.inp   Done                     12/18/2018 20:07:22
00025 suncat1058 pw.x -in pw.inp   Done                     12/18/2018 20:07:22
00026 suncat1058 pw.x -in pw.inp   Done                     12/18/2018 20:07:22
00027 suncat1058 pw.x -in pw.inp   Done                     12/18/2018 20:07:22
00028 suncat1058 pw.x -in pw.inp   Done                     12/18/2018 20:07:22
00029 suncat1058 pw.x -in pw.inp   Done                     12/18/2018 20:07:22
00030 suncat1058 pw.x -in pw.inp   Done                     12/18/2018 20:07:22
00031 suncat1058 pw.x -in pw.inp   Done                     12/18/2018 20:07:22

     Program PWSCF v.5.1rc2 (svn rev. 11289) starts on 18Dec2018 at 20: 7:28

     Current dimensions of program PWSCF are:
     Max number of different atomic species (ntypx) = 10
     Max number of k-points (npk) =  40000
     Max angular momentum in pseudopotentials (lmaxx) =  3
     Presently stress not available with electric field

     IMPORTANT: XC functional enforced from input :
     Exchange-correlation      = BEEF-VDW ( 1  4 27 13 2)
     Any further DFT definition will be discarded
     Please, verify this is what you really want

     Subspace diagonalization in iterative solution of the eigenvalue problem:
     a serial algorithm will be used

     Found symmetry operation: I + ( -0.5000  0.0000  0.0000)
     This is a supercell, fractional translations are disabled

     bravais-lattice index     =            0
     lattice parameter (alat)  =       1.8897  a.u.
     unit-cell volume          =    4306.9643 (a.u.)^3
     number of atoms/cell      =           12
     number of atomic types    =            1
     number of electrons       =       180.00
     number of Kohn-Sham states=          100
     kinetic-energy cutoff     =      36.7493  Ry
     charge density cutoff     =     367.4932  Ry
     convergence threshold     =      1.0E-05
     mixing beta               =       0.2000
     number of iterations used =           10  plain     mixing
     Exchange-correlation      = BEEF-VDW ( 1  4 27 13 2)
     nstep                     =           50

     celldm(1)=   1.889726  celldm(2)=   0.000000  celldm(3)=   0.000000
     celldm(4)=   0.000000  celldm(5)=   0.000000  celldm(6)=   0.000000

     crystal axes: (cart. coord. in units of alat)
               a(1) = (   5.486772   0.000000   0.000000 )
               a(2) = (   2.743386   4.751684   0.000000 )
               a(3) = (   0.000000   0.000000  24.479931 )

     reciprocal axes: (cart. coord. in units 2 pi/alat)
               b(1) = (  0.182257 -0.105226  0.000000 )
               b(2) = (  0.000000  0.210452  0.000000 )
               b(3) = (  0.000000  0.000000  0.040850 )

     PseudoPot. # 1 for Re read from file:
     /afs/slac.stanford.edu/u/if/mamunm/psp/gbrv1.5pbe/Re.UPF
     MD5 check sum: 85f993410f3e006da9d71c142b4ad953
     Pseudo is Ultrasoft + core correction, Zval = 15.0
     Generated by new atomic code, or converted to UPF format
     Using radial grid of  981 points,  8 beta functions with:
                l(1) =   0
                l(2) =   0
                l(3) =   1
                l(4) =   1
                l(5) =   2
                l(6) =   2
                l(7) =   3
                l(8) =   3
     Q(r) pseudized with  8 coefficients,  rinner =    1.150   1.150   1.150
                                                       1.150   1.150   1.150
                                                       1.150

     vdW kernel table read from file vdW_kernel_table
     MD5 check sum: 095c7af220d748ca6e76c0b4c6cfb241

     atomic species   valence    mass     pseudopotential
        Re1           15.00   186.20700     Re( 1.00)

     No symmetry found

   Cartesian axes

     site n.     atom                  positions (alat units)
         1           Re1 tau(   1) = (   1.3716930   0.7919474  10.0000000  )
         2           Re1 tau(   2) = (   4.1150791   0.7919474  10.0000000  )
         3           Re1 tau(   3) = (   2.7433861   3.1677894  10.0000000  )
         4           Re1 tau(   4) = (   5.4867722   3.1677894  10.0000000  )
         5           Re1 tau(   5) = (   5.4867722   1.5838947  12.2399654  )
         6           Re1 tau(   6) = (   2.7433861   1.5838947  12.2399654  )
         7           Re1 tau(   7) = (   6.8584652   3.9597368  12.2399654  )
         8           Re1 tau(   8) = (   4.1150791   3.9597368  12.2399654  )
         9           Re1 tau(   9) = (   2.7433905   4.7516831  14.4234921  )
        10           Re1 tau(  10) = (   2.7433892   0.0000162  14.4234946  )
        11           Re1 tau(  11) = (   1.3717054   2.3758440  14.4234876  )
        12           Re1 tau(  12) = (   4.1150769   2.3758453  14.4234769  )

     number of k points=    20  Fermi-Dirac smearing, width (Ry)=  0.0110
                       cart. coord. in units 2pi/alat
        k(    1) = (   0.0000000   0.0000000   0.0000000), wk =   0.0555556
        k(    2) = (   0.0000000   0.0350753   0.0000000), wk =   0.1111111
        k(    3) = (   0.0000000   0.0701506   0.0000000), wk =   0.1111111
        k(    4) = (   0.0000000  -0.1052259   0.0000000), wk =   0.0555556
        k(    5) = (   0.0303761  -0.0175376   0.0000000), wk =   0.1111111
        k(    6) = (   0.0303761   0.0175376   0.0000000), wk =   0.1111111
        k(    7) = (   0.0303761   0.0526129   0.0000000), wk =   0.1111111
        k(    8) = (   0.0303761  -0.1227635   0.0000000), wk =   0.1111111
        k(    9) = (   0.0303761  -0.0876882   0.0000000), wk =   0.1111111
        k(   10) = (   0.0303761  -0.0526129   0.0000000), wk =   0.1111111
        k(   11) = (   0.0607522  -0.0350753   0.0000000), wk =   0.1111111
        k(   12) = (   0.0607522   0.0000000   0.0000000), wk =   0.1111111
        k(   13) = (   0.0607522   0.0350753   0.0000000), wk =   0.1111111
        k(   14) = (   0.0607522  -0.1403011   0.0000000), wk =   0.1111111
        k(   15) = (   0.0607522  -0.1052259   0.0000000), wk =   0.1111111
        k(   16) = (   0.0607522  -0.0701506   0.0000000), wk =   0.1111111
        k(   17) = (  -0.0911283   0.0526129   0.0000000), wk =   0.0555556
        k(   18) = (  -0.0911283   0.0876882   0.0000000), wk =   0.1111111
        k(   19) = (  -0.0911283   0.1227635   0.0000000), wk =   0.1111111
        k(   20) = (  -0.0911283  -0.0526129   0.0000000), wk =   0.0555556

     Largest allocated arrays     est. size (Mb)     dimensions
     Largest temporary arrays     est. size (Mb)     dimensions

     Initial potential from superposition of free atoms
     Check: negative starting charge=   -1.541181

     starting charge  173.99946, renormalised to  180.00000

[...]

     *
     * You are using vdW-DF for exchange-correlation in this calculation.
     * Please cite the following three references that made this development
     * possible:
     *
     *   M. Dion, H. Rydberg, E. Schroder, D. C. Langreth, and
     *   B. I. Lundqvist, Phys. Rev. Lett. 92, 246401 (2004).
     *
     *   T. Thonhauser, V. R. Cooper, S. Li, A. Puzder, P. Hyldgaard, and
     *   D. C. Langreth, Phys. Rev. B 76, 125112 (2007).
     *
     *   G. Roman-Perez and J. M. Soler, Phys. Rev. Lett. 103, 096102 (2009).
     *
     *
     * If you are using vdW-DF2, please also cite:
     *
     *   K. Lee, E. D. Murray, L. Kong, B. I. Lundqvist, and
     *   D. C. Langreth, Phys. Rev. B 82, 081101(R) (2010).
     *
     *
     * If you are calculating the stress with vdW-DF, please also cite:
     *
     *   R. Sabatini, E. Kucukbenli, B. Kolb, T. Thonhauser, and
     *   S. de Gironcoli, J. Phys.: Condens. Matter 24, 424209 (2012).
     *

     Carrying out vdW-DF run using the following parameters:

     Nqs =      20    Nr_points =    1024   r_max =   100.000
     q_mesh =
               0.00001000     0.04494208     0.09755937     0.15916263
               0.23128650     0.31572767     0.41458969     0.53033537
               0.66584808     0.82450364     1.01025438     1.22772762
               1.48234092     1.78043706     2.12944203     2.53805004
               3.01644009     3.57652955     4.23227104     5.00000000

     Gradients computed in reciprocal space

[...]

     Starting wfc are  156 randomized atomic wfcs

     Self-consistent Calculation

[...]

     iteration # 10     ecut=    36.75 Ry     beta=0.20
     Davidson diagonalization with overlap
     c_bands:  1 eigenvalues not converged
     ethr =  2.69E-07,  avg # of iterations =  4.6

[...]

     total energy              =   -2305.81894997 Ry
     Harris-Foulkes estimate   =   -2305.81895535 Ry
     estimated scf accuracy    <       0.00009765 Ry

     iteration # 12     ecut=    36.75 Ry     beta=0.20
     Davidson diagonalization with overlap
     ethr =  5.42E-08,  avg # of iterations =  1.9

[...]

     negative rho (up, down):  1.623E+00 0.000E+00

     Adding external electric field

     Computed dipole along edir(3) :
        Dipole                0.0320 Ry au,          0.0814 Debye
        Dipole field          0.0001 Ry au

        Potential amp.       -0.0084 Ry
        Total length         45.1039 bohr

     End of self-consistent calculation

[...]

          k = 0.0608-0.0702 0.0000 ( 16218 PWs)   bands (ev):

[...]

          k =-0.0911-0.0526 0.0000 ( 16164 PWs)   bands (ev):

   -77.6731 -77.6729 -77.6273 -77.6272 -77.5527 -77.5526 -77.5174 -77.5173
   -77.4859 -77.4858 -77.4509 -77.4508 -39.8173 -39.8172 -39.7388 -39.7388
   -39.6520 -39.6520 -39.5801 -39.5800 -39.5039 -39.5038 -39.4533 -39.4533
   -39.2572 -39.2572 -39.2233 -39.2233 -39.1999 -39.1998 -39.1857 -39.1857
   -39.1647 -39.1647 -39.1315 -39.1315 -39.1014 -39.1013 -39.0855 -39.0855
   -38.9729 -38.9729 -38.9348 -38.9347 -38.8386 -38.8386 -38.7769 -38.7769
    -4.3235  -4.3234  -2.7187  -2.7187  -2.2118  -2.2118  -2.1919  -2.1919
    -2.0684  -2.0683  -1.3826  -1.3826  -1.0127  -1.0127  -0.8583  -0.8583
    -0.4869  -0.4869  -0.4214  -0.4213   0.0654   0.0654   0.6136   0.6137
     0.9100   0.9100   0.9898   0.9898   1.0166   1.0166   1.1120   1.1120
     1.4230   1.4231   1.5598   1.5598   1.6035   1.6035   1.9861   1.9861
     2.8454   2.8455   2.9092   2.9093   3.1316   3.1316   3.4900   3.4900
     3.9389   3.9389   3.9630   3.9636

     the Fermi energy is     2.9290 ev

!    total energy              =   -2305.81895030 Ry
     Harris-Foulkes estimate   =   -2305.81895149 Ry
     estimated scf accuracy    <       0.00000534 Ry

     The total energy is the sum of the following terms:

     one-electron contribution =  -18553.03819557 Ry
     hartree contribution      =    9261.03037368 Ry
     xc contribution           =    -649.45314239 Ry
     ewald contribution        =    7635.70899762 Ry
     electric field correction =       0.00000299 Ry
     smearing contrib. (-TS)   =      -0.06698663 Ry

     convergence has been achieved in  12 iterations

 BEEF-vdW xc energy contributions
           1 :   -577.617049253985
           2 :    537.249027514667
           3 :   -464.667409441730
           4 :    373.537637778511
           5 :   -279.048230395852
           6 :    194.023173766765
           7 :   -126.290827287897
           8 :    77.9320459412467
           9 :   -46.3471859856971
          10 :    26.4565118621427
          11 :   -13.0686712138719
          12 :    2.57225962788709
          13 :    6.46634573555377
          14 :   -13.7282660886202
          15 :    18.1603916474650
          16 :   -19.0418017768867
          17 :    16.6511341715690
          18 :   -12.3249147344380
          19 :    7.96435239102038
          20 :   -5.27296801366276
          21 :    5.09358500294047
          22 :   -7.13869700607995
          23 :    10.2097019504005
          24 :   -12.7808685456379
          25 :    13.6724343815855
          26 :   -12.5177585947491
          27 :    9.83799859981934
          28 :   -6.72551543629277
          29 :    4.31096438507041
          30 :   -3.27271780829267
          31 :   -47.9207030836610
          32 :   -35.5941863218108

     Forces acting on atoms (Ry/au):

     negative rho (up, down):  1.623E+00 0.000E+00
     atom    1 type  1   force =     0.00001036   -0.00000146    0.01392362
     atom    2 type  1   force =     0.00000909    0.00001101    0.01391897
     atom    3 type  1   force =    -0.00000113   -0.00001713    0.01389639
     atom    4 type  1   force =    -0.00000124    0.00000163    0.01385385
     atom    5 type  1   force =    -0.00000065    0.00004580   -0.01269772
     atom    6 type  1   force =     0.00000392    0.00002951   -0.01268233
     atom    7 type  1   force =    -0.00003132   -0.00004520   -0.01270068
     atom    8 type  1   force =     0.00002888   -0.00004231   -0.01271049
     atom    9 type  1   force =    -0.00000211    0.00000826   -0.00117748
     atom   10 type  1   force =    -0.00000999   -0.00000783   -0.00120495
     atom   11 type  1   force =    -0.00000244    0.00001251   -0.00121400
     atom   12 type  1   force =    -0.00000337    0.00000521   -0.00120517

     Total force =     0.037727     Total SCF correction =     0.020034
     SCF correction compared to forces is large: reduce conv_thr to get better values

     entering subroutine stress ...

     negative rho (up, down):  1.623E+00 0.000E+00
          total   stress  (Ry/bohr**3)                   (kbar)     P=  -18.88
  -0.00014455  -0.00000005   0.00000002        -21.26     -0.01      0.00
  -0.00000005  -0.00014454  -0.00000001         -0.01    -21.26     -0.00
   0.00000002  -0.00000001  -0.00009589          0.00     -0.00    -14.11

 !ASE

     Writing output data file calc.save

     General routines

     Parallel routines

   This run was terminated on:  20:18:44  18Dec2018

   JOB DONE.
Job  /afs/slac/g/suncat/bin/suncat-tsmpirun -x LD_LIBRARY_PATH -wdir /scratch/qe529433_TCJuL pw.x -in pw.inp

TID   HOST_NAME   COMMAND_LINE            STATUS            TERMINATION_TIME
00000 suncat1060 pw.x -in pw.inp   Done                     12/18/2018 20:18:44
00001 suncat1060 pw.x -in pw.inp   Done                     12/18/2018 20:18:44
00002 suncat1060 pw.x -in pw.inp   Done                     12/18/2018 20:18:44
00003 suncat1060 pw.x -in pw.inp   Done                     12/18/2018 20:18:44
00004 suncat1060 pw.x -in pw.inp   Done                     12/18/2018 20:18:44
00005 suncat1060 pw.x -in pw.inp   Done                     12/18/2018 20:18:44
00006 suncat1060 pw.x -in pw.inp   Done                     12/18/2018 20:18:44
00007 suncat1060 pw.x -in pw.inp   Done                     12/18/2018 20:18:44
00008 suncat1059 pw.x -in pw.inp   Done                     12/18/2018 20:18:44
00009 suncat1059 pw.x -in pw.inp   Done                     12/18/2018 20:18:44
00010 suncat1059 pw.x -in pw.inp   Done                     12/18/2018 20:18:44
00011 suncat1059 pw.x -in pw.inp   Done                     12/18/2018 20:18:44
00012 suncat1059 pw.x -in pw.inp   Done                     12/18/2018 20:18:44
00013 suncat1059 pw.x -in pw.inp   Done                     12/18/2018 20:18:44
00014 suncat1059 pw.x -in pw.inp   Done                     12/18/2018 20:18:44
00015 suncat1059 pw.x -in pw.inp   Done                     12/18/2018 20:18:44
00016 suncat1059 pw.x -in pw.inp   Done                     12/18/2018 20:18:44
00017 suncat1059 pw.x -in pw.inp   Done                     12/18/2018 20:18:44
00018 suncat1059 pw.x -in pw.inp   Done                     12/18/2018 20:18:44
00019 suncat1059 pw.x -in pw.inp   Done                     12/18/2018 20:18:44
00020 suncat1058 pw.x -in pw.inp   Done                     12/18/2018 20:18:44
00021 suncat1058 pw.x -in pw.inp   Done                     12/18/2018 20:18:44
00022 suncat1058 pw.x -in pw.inp   Done                     12/18/2018 20:18:44
00023 suncat1058 pw.x -in pw.inp   Done                     12/18/2018 20:18:44
00024 suncat1058 pw.x -in pw.inp   Done                     12/18/2018 20:18:44
00025 suncat1058 pw.x -in pw.inp   Done                     12/18/2018 20:18:44
00026 suncat1058 pw.x -in pw.inp   Done                     12/18/2018 20:18:44
00027 suncat1058 pw.x -in pw.inp   Done                     12/18/2018 20:18:44
00028 suncat1058 pw.x -in pw.inp   Done                     12/18/2018 20:18:44
00029 suncat1058 pw.x -in pw.inp   Done                     12/18/2018 20:18:44
00030 suncat1058 pw.x -in pw.inp   Done                     12/18/2018 20:18:44
00031 suncat1058 pw.x -in pw.inp   Done                     12/18/2018 20:18:44