     Program PWSCF v.5.1rc2 (svn rev. 11289) starts on 18Dec2018 at 17:25:50

     Current dimensions of program PWSCF are:
     Max number of different atomic species (ntypx) = 10
     Max number of k-points (npk) =  40000
     Max angular momentum in pseudopotentials (lmaxx) =  3
     Presently stress not available with electric field

     IMPORTANT: XC functional enforced from input :
     Exchange-correlation      = BEEF-VDW ( 1  4 27 13 2)
     Any further DFT definition will be discarded
     Please, verify this is what you really want

     Subspace diagonalization in iterative solution of the eigenvalue problem:
     a serial algorithm will be used

     Found symmetry operation: I + (  0.5000  0.0000  0.0000)
     This is a supercell, fractional translations are disabled

     bravais-lattice index     =            0
     lattice parameter (alat)  =       1.8897  a.u.
     unit-cell volume          =    4299.0717 (a.u.)^3
     number of atoms/cell      =           12
     number of atomic types    =            1
     number of electrons       =       180.00
     number of Kohn-Sham states=          100
     kinetic-energy cutoff     =      36.7493  Ry
     charge density cutoff     =     367.4932  Ry
     convergence threshold     =      1.0E-05
     mixing beta               =       0.2000
     number of iterations used =           10  plain     mixing
     Exchange-correlation      = BEEF-VDW ( 1  4 27 13 2)
     nstep                     =           50

     celldm(1)=   1.889726  celldm(2)=   0.000000  celldm(3)=   0.000000
     celldm(4)=   0.000000  celldm(5)=   0.000000  celldm(6)=   0.000000

     crystal axes: (cart. coord. in units of alat)
               a(1) = (   5.482164   0.000000   0.000000 )
               a(2) = (   2.741082   4.747693   0.000000 )
               a(3) = (   0.000000   0.000000  24.476168 )

     reciprocal axes: (cart. coord. in units 2 pi/alat)
               b(1) = (  0.182410 -0.105314  0.000000 )
               b(2) = (  0.000000  0.210629  0.000000 )
               b(3) = (  0.000000  0.000000  0.040856 )

     PseudoPot. # 1 for Ir read from file:
     /afs/slac.stanford.edu/u/if/mamunm/psp/gbrv1.5pbe/Ir.UPF
     MD5 check sum: 8836f839c3459d2b385c504ce6d91f2c
     Pseudo is Ultrasoft + core correction, Zval = 15.0
     Generated by new atomic code, or converted to UPF format
     Using radial grid of  983 points,  7 beta functions with:
                l(1) =   0
                l(2) =   0
                l(3) =   1
                l(4) =   1
                l(5) =   1
                l(6) =   2
                l(7) =   2
     Q(r) pseudized with  8 coefficients,  rinner =    1.400   1.400   1.400
                                                       1.400   1.400

     vdW kernel table read from file vdW_kernel_table
     MD5 check sum: 095c7af220d748ca6e76c0b4c6cfb241

     atomic species   valence    mass     pseudopotential
        Ir1           15.00   192.21700     Ir( 1.00)

     No symmetry found

   Cartesian axes

     site n.     atom                  positions (alat units)
         1           Ir1 tau(   1) = (   1.3705410   0.7912822  10.0000000  )
         2           Ir1 tau(   2) = (   4.1116229   0.7912822  10.0000000  )
         3           Ir1 tau(   3) = (   2.7410819   3.1651288  10.0000000  )
         4           Ir1 tau(   4) = (   5.4821639   3.1651288  10.0000000  )
         5           Ir1 tau(   5) = (   5.4821639   1.5825644  12.2380840  )
         6           Ir1 tau(   6) = (   2.7410819   1.5825644  12.2380840  )
         7           Ir1 tau(   7) = (   6.8527049   3.9564110  12.2380840  )
         8           Ir1 tau(   8) = (   4.1116229   3.9564110  12.2380840  )
         9           Ir1 tau(   9) = (   0.0000000   0.0000000  14.4761681  )
        10           Ir1 tau(  10) = (   2.7410819   0.0000000  14.4761681  )
        11           Ir1 tau(  11) = (   1.3705410   2.3738466  14.4761681  )
        12           Ir1 tau(  12) = (   4.1116229   2.3738466  14.4761681  )

     number of k points=    20  Fermi-Dirac smearing, width (Ry)=  0.0110
                       cart. coord. in units 2pi/alat
        k(    1) = (   0.0000000   0.0000000   0.0000000), wk =   0.0555556
        k(    2) = (   0.0000000   0.0351048   0.0000000), wk =   0.1111111
        k(    3) = (   0.0000000   0.0702095   0.0000000), wk =   0.1111111
        k(    4) = (   0.0000000  -0.1053143   0.0000000), wk =   0.0555556
        k(    5) = (   0.0304016  -0.0175524   0.0000000), wk =   0.1111111
        k(    6) = (   0.0304016   0.0175524   0.0000000), wk =   0.1111111
        k(    7) = (   0.0304016   0.0526572   0.0000000), wk =   0.1111111
        k(    8) = (   0.0304016  -0.1228667   0.0000000), wk =   0.1111111
        k(    9) = (   0.0304016  -0.0877619   0.0000000), wk =   0.1111111
        k(   10) = (   0.0304016  -0.0526572   0.0000000), wk =   0.1111111
        k(   11) = (   0.0608032  -0.0351048   0.0000000), wk =   0.1111111
        k(   12) = (   0.0608032   0.0000000   0.0000000), wk =   0.1111111
        k(   13) = (   0.0608032   0.0351048   0.0000000), wk =   0.1111111
        k(   14) = (   0.0608032  -0.1404191   0.0000000), wk =   0.1111111
        k(   15) = (   0.0608032  -0.1053143   0.0000000), wk =   0.1111111
        k(   16) = (   0.0608032  -0.0702095   0.0000000), wk =   0.1111111
        k(   17) = (  -0.0912049   0.0526572   0.0000000), wk =   0.0555556
        k(   18) = (  -0.0912049   0.0877619   0.0000000), wk =   0.1111111
        k(   19) = (  -0.0912049   0.1228667   0.0000000), wk =   0.1111111
        k(   20) = (  -0.0912049  -0.0526572   0.0000000), wk =   0.0555556

     Largest allocated arrays     est. size (Mb)     dimensions
     Largest temporary arrays     est. size (Mb)     dimensions

     Initial potential from superposition of free atoms
     Check: negative starting charge=   -4.362264

     starting charge  173.99962, renormalised to  180.00000

     negative rho (up, down):  4.513E+00 0.000E+00

     *
     * You are using vdW-DF for exchange-correlation in this calculation.
     * Please cite the following three references that made this development
     * possible:
     *
     *   M. Dion, H. Rydberg, E. Schroder, D. C. Langreth, and
     *   B. I. Lundqvist, Phys. Rev. Lett. 92, 246401 (2004).
     *
     *   T. Thonhauser, V. R. Cooper, S. Li, A. Puzder, P. Hyldgaard, and
     *   D. C. Langreth, Phys. Rev. B 76, 125112 (2007).
     *
     *   G. Roman-Perez and J. M. Soler, Phys. Rev. Lett. 103, 096102 (2009).
     *
     *
     * If you are using vdW-DF2, please also cite:
     *
     *   K. Lee, E. D. Murray, L. Kong, B. I. Lundqvist, and
     *   D. C. Langreth, Phys. Rev. B 82, 081101(R) (2010).
     *
     *
     * If you are calculating the stress with vdW-DF, please also cite:
     *
     *   R. Sabatini, E. Kucukbenli, B. Kolb, T. Thonhauser, and
     *   S. de Gironcoli, J. Phys.: Condens. Matter 24, 424209 (2012).
     *

     Carrying out vdW-DF run using the following parameters:

     Nqs =      20    Nr_points =    1024   r_max =   100.000
     q_mesh =
               0.00001000     0.04494208     0.09755937     0.15916263
               0.23128650     0.31572767     0.41458969     0.53033537
               0.66584808     0.82450364     1.01025438     1.22772762
               1.48234092     1.78043706     2.12944203     2.53805004
               3.01644009     3.57652955     4.23227104     5.00000000

     Gradients computed in reciprocal space

     Adding external electric field

     Computed dipole along edir(3) :
        Dipole                0.0000 Ry au,          0.0000 Debye
        Dipole field          0.0000 Ry au

        Potential amp.       -0.0000 Ry
        Total length         45.0969 bohr

     Starting wfc are  144 randomized atomic wfcs

     Self-consistent Calculation

     iteration #  1     ecut=    36.75 Ry     beta=0.20
     Davidson diagonalization with overlap
     ethr =  1.00E-02,  avg # of iterations =  2.1

[...]

     total energy              =   -2198.90333151 Ry
     Harris-Foulkes estimate   =   -2202.82033984 Ry
     estimated scf accuracy    <      13.35744444 Ry

[...]

     End of self-consistent calculation

          k = 0.0000 0.0000 0.0000 ( 16073 PWs)   bands (ev):

   -47.6995 -47.6993 -47.6990 -47.5590 -47.4753 -47.4750 -47.4747 -47.2871
   -47.2869 -47.2868 -47.1908 -47.1906 -47.1905 -47.1537 -47.1537 -47.1267
   -47.1264 -47.1263 -46.8406 -46.7955 -46.7954 -46.7954 -46.7887 -46.7887
   -46.7886 -46.7704 -46.7702 -46.7701 -46.7533 -46.7399 -46.7398 -46.7397
   -46.6669 -46.6669 -46.6641 -46.6641  -7.1008  -5.1875  -4.8314  -4.5206
    -4.5205  -4.5204  -4.2162  -4.2162  -4.2161  -3.7180  -3.7179  -3.7179
    -3.4298  -3.4297  -3.4296  -1.9524  -1.9523  -1.9522  -1.3968  -1.3968
    -1.3968  -1.2077  -1.0629  -1.0629  -0.8877  -0.5945  -0.5945  -0.5517
    -0.5516  -0.5516  -0.2962  -0.2961   0.0097   0.0098   0.0099   1.2991
     1.2992   1.2992   1.3543   1.3545   1.3546   1.3893   1.3893   1.4340
     2.1236   2.1236   2.7218   2.7219   2.7220   2.8250   2.8250   2.8250
     2.8596   3.0134   3.0134   3.3512   3.3514   3.3514   3.6451   3.6451
     3.6452   3.8476   3.8477   3.8477

[...]

          k =-0.0912 0.0527 0.0000 ( 16164 PWs)   bands (ev):

[...]

     the Fermi energy is     2.3921 ev

!    total energy              =   -2199.73383896 Ry
     Harris-Foulkes estimate   =   -2199.73384596 Ry
     estimated scf accuracy    <       0.00000607 Ry

     The total energy is the sum of the following terms:

     one-electron contribution =  -18366.64932889 Ry
     hartree contribution      =    9212.67114312 Ry
     xc contribution           =    -623.53124617 Ry
     ewald contribution        =    7577.87547606 Ry
     electric field correction =       0.00000005 Ry
     smearing contrib. (-TS)   =      -0.09988313 Ry

     convergence has been achieved in  14 iterations

 BEEF-vdW xc energy contributions
           1 :   -552.395841618278
           2 :    514.004675704631
           3 :   -445.288721567160
           4 :    359.697725557997
           5 :   -272.088281529629
           6 :    194.867439966460
           7 :   -135.344978674194
           8 :    94.9097541978062
           9 :   -70.0594096693740
          10 :    54.6956000850961
          11 :   -42.7433253395370
          12 :    30.1649646037081
          13 :   -15.8030531560114
          14 :   0.990123616433493
          15 :    11.6897601705691
          16 :   -19.8812038844549
          17 :    22.5819173910311
          18 :   -20.5386137167295
          19 :    15.8648187514302
          20 :   -11.1403674219710
          21 :    8.41091111827268
          22 :   -8.49179522417171
          23 :    10.8214217037547
          24 :   -13.8773497913940
          25 :    15.9375717346174
          26 :   -15.8482335701956
          27 :    13.4783239656425
          28 :   -9.69846157135692
          29 :    5.93150017658604
          30 :   -3.50097455860487
          31 :   -47.2526565384239
          32 :   -35.4325334049472

     Forces acting on atoms (Ry/au):

     negative rho (up, down):  3.883E+00 0.000E+00
[...]
00017 suncat1053 pw.x -in pw.inp   Done                     12/18/2018 17:37:04
00018 suncat1053 pw.x -in pw.inp   Done                     12/18/2018 17:37:04
00019 suncat1053 pw.x -in pw.inp   Done                     12/18/2018 17:37:04
00020 suncat1052 pw.x -in pw.inp   Done                     12/18/2018 17:37:04
00021 suncat1052 pw.x -in pw.inp   Done                     12/18/2018 17:37:04
00022 suncat1052 pw.x -in pw.inp   Done                     12/18/2018 17:37:04
00023 suncat1052 pw.x -in pw.inp   Done                     12/18/2018 17:37:04
00024 suncat1052 pw.x -in pw.inp   Done                     12/18/2018 17:37:04
00025 suncat1052 pw.x -in pw.inp   Done                     12/18/2018 17:37:04
00026 suncat1052 pw.x -in pw.inp   Done                     12/18/2018 17:37:04
00027 suncat1052 pw.x -in pw.inp   Done                     12/18/2018 17:37:04
00028 suncat1052 pw.x -in pw.inp   Done                     12/18/2018 17:37:04
00029 suncat1052 pw.x -in pw.inp   Done                     12/18/2018 17:37:04
00030 suncat1052 pw.x -in pw.inp   Done                     12/18/2018 17:37:04
00031 suncat1052 pw.x -in pw.inp   Done                     12/18/2018 17:37:04

[...]

   This run was terminated on:  17:48:23  18Dec2018

[...]

     Program PWSCF v.5.1rc2 (svn rev. 11289) starts on 18Dec2018 at 17:48:29

     Current dimensions of program PWSCF are:
     Max number of different atomic species (ntypx) = 10
     Max number of k-points (npk) =  40000
     Max angular momentum in pseudopotentials (lmaxx) =  3
     Presently stress not available with electric field

     IMPORTANT: XC functional enforced from input :
     Exchange-correlation      = BEEF-VDW ( 1  4 27 13 2)
     Any further DFT definition will be discarded
     Please, verify this is what you really want

     Subspace diagonalization in iterative solution of the eigenvalue problem:
     a serial algorithm will be used

     bravais-lattice index     =            0
     lattice parameter (alat)  =       1.8897  a.u.
     unit-cell volume          =    4299.0717 (a.u.)^3
     number of atoms/cell      =           12
     number of atomic types    =            1
     number of electrons       =       180.00
     number of Kohn-Sham states=          100
     kinetic-energy cutoff     =      36.7493  Ry
     charge density cutoff     =     367.4932  Ry
     convergence threshold     =      1.0E-05
     mixing beta               =       0.2000
     number of iterations used =           10  plain     mixing
     Exchange-correlation      = BEEF-VDW ( 1  4 27 13 2)
     nstep                     =           50

     celldm(1)=   1.889726  celldm(2)=   0.000000  celldm(3)=   0.000000
     celldm(4)=   0.000000  celldm(5)=   0.000000  celldm(6)=   0.000000

     crystal axes: (cart. coord. in units of alat)
               a(1) = (   5.482164   0.000000   0.000000 )
               a(2) = (   2.741082   4.747693   0.000000 )
               a(3) = (   0.000000   0.000000  24.476168 )

     reciprocal axes: (cart. coord. in units 2 pi/alat)
               b(1) = (  0.182410 -0.105314  0.000000 )
               b(2) = (  0.000000  0.210629  0.000000 )
               b(3) = (  0.000000  0.000000  0.040856 )

     PseudoPot. # 1 for Ir read from file:
     /afs/slac.stanford.edu/u/if/mamunm/psp/gbrv1.5pbe/Ir.UPF
     MD5 check sum: 8836f839c3459d2b385c504ce6d91f2c
     Pseudo is Ultrasoft + core correction, Zval = 15.0
     Generated by new atomic code, or converted to UPF format
     Using radial grid of  983 points,  7 beta functions with:
                l(1) =   0
                l(2) =   0
                l(3) =   1
                l(4) =   1
                l(5) =   1
                l(6) =   2
                l(7) =   2
     Q(r) pseudized with  8 coefficients,  rinner =    1.400   1.400   1.400
                                                       1.400   1.400

     vdW kernel table read from file vdW_kernel_table
     MD5 check sum: 095c7af220d748ca6e76c0b4c6cfb241

     atomic species   valence    mass     pseudopotential
        Ir1           15.00   192.21700     Ir( 1.00)

     No symmetry found

   Cartesian axes

     site n.     atom                  positions (alat units)
         1           Ir1 tau(   1) = (   1.3705410   0.7912822  10.0000000  )
         2           Ir1 tau(   2) = (   4.1116229   0.7912822  10.0000000  )
         3           Ir1 tau(   3) = (   2.7410819   3.1651288  10.0000000  )
         4           Ir1 tau(   4) = (   5.4821639   3.1651288  10.0000000  )
         5           Ir1 tau(   5) = (   5.4821639   1.5825644  12.2380840  )
         6           Ir1 tau(   6) = (   2.7410819   1.5825644  12.2380840  )
         7           Ir1 tau(   7) = (   6.8527049   3.9564110  12.2380840  )
         8           Ir1 tau(   8) = (   4.1116229   3.9564110  12.2380840  )
         9           Ir1 tau(   9) = (   2.7412123   4.7475933  14.4200773  )
        10           Ir1 tau(  10) = (   5.4820899   4.7475523  14.4199760  )
        11           Ir1 tau(  11) = (   6.8526940   2.3739324  14.4197994  )
        12           Ir1 tau(  12) = (   4.1116995   2.3740384  14.4200415  )

     number of k points=    20  Fermi-Dirac smearing, width (Ry)=  0.0110
                       cart. coord. in units 2pi/alat
        k(    1) = (   0.0000000   0.0000000   0.0000000), wk =   0.0555556
        k(    2) = (   0.0000000   0.0351048   0.0000000), wk =   0.1111111
        k(    3) = (   0.0000000   0.0702095   0.0000000), wk =   0.1111111
        k(    4) = (   0.0000000  -0.1053143   0.0000000), wk =   0.0555556
        k(    5) = (   0.0304016  -0.0175524   0.0000000), wk =   0.1111111
        k(    6) = (   0.0304016   0.0175524   0.0000000), wk =   0.1111111
        k(    7) = (   0.0304016   0.0526572   0.0000000), wk =   0.1111111
        k(    8) = (   0.0304016  -0.1228667   0.0000000), wk =   0.1111111
        k(    9) = (   0.0304016  -0.0877619   0.0000000), wk =   0.1111111
        k(   10) = (   0.0304016  -0.0526572   0.0000000), wk =   0.1111111
        k(   11) = (   0.0608032  -0.0351048   0.0000000), wk =   0.1111111
        k(   12) = (   0.0608032   0.0000000   0.0000000), wk =   0.1111111
        k(   13) = (   0.0608032   0.0351048   0.0000000), wk =   0.1111111
        k(   14) = (   0.0608032  -0.1404191   0.0000000), wk =   0.1111111
        k(   15) = (   0.0608032  -0.1053143   0.0000000), wk =   0.1111111
        k(   16) = (   0.0608032  -0.0702095   0.0000000), wk =   0.1111111
        k(   17) = (  -0.0912049   0.0526572   0.0000000), wk =   0.0555556
        k(   18) = (  -0.0912049   0.0877619   0.0000000), wk =   0.1111111
        k(   19) = (  -0.0912049   0.1228667   0.0000000), wk =   0.1111111
        k(   20) = (  -0.0912049  -0.0526572   0.0000000), wk =   0.0555556

     Largest allocated arrays     est. size (Mb)     dimensions
     Largest temporary arrays     est. size (Mb)     dimensions

     Initial potential from superposition of free atoms
     Check: negative starting charge=   -4.362361

     starting charge  173.99962, renormalised to  180.00000

[...]

     *
     * You are using vdW-DF for exchange-correlation in this calculation.
     * Please cite the following three references that made this development
     * possible:
     *
     *   M. Dion, H. Rydberg, E. Schroder, D. C. Langreth, and
     *   B. I. Lundqvist, Phys. Rev. Lett. 92, 246401 (2004).
     *
     *   T. Thonhauser, V. R. Cooper, S. Li, A. Puzder, P. Hyldgaard, and
     *   D. C. Langreth, Phys. Rev. B 76, 125112 (2007).
     *
     *   G. Roman-Perez and J. M. Soler, Phys. Rev. Lett. 103, 096102 (2009).
     *
     *
     * If you are using vdW-DF2, please also cite:
     *
     *   K. Lee, E. D. Murray, L. Kong, B. I. Lundqvist, and
     *   D. C. Langreth, Phys. Rev. B 82, 081101(R) (2010).
     *
     *
     * If you are calculating the stress with vdW-DF, please also cite:
     *
     *   R. Sabatini, E. Kucukbenli, B. Kolb, T. Thonhauser, and
     *   S. de Gironcoli, J. Phys.: Condens. Matter 24, 424209 (2012).
     *

     Carrying out vdW-DF run using the following parameters:

     Nqs =      20    Nr_points =    1024   r_max =   100.000
     q_mesh =
               0.00001000     0.04494208     0.09755937     0.15916263
               0.23128650     0.31572767     0.41458969     0.53033537
               0.66584808     0.82450364     1.01025438     1.22772762
               1.48234092     1.78043706     2.12944203     2.53805004
               3.01644009     3.57652955     4.23227104     5.00000000

     Gradients computed in reciprocal space

[...]

     Starting wfc are  144 randomized atomic wfcs

     Self-consistent Calculation

[...]

     total energy              =   -2199.73797514 Ry
     Harris-Foulkes estimate   =   -2199.73797659 Ry
     estimated scf accuracy    <       0.00001703 Ry

     iteration # 16     ecut=    36.75 Ry     beta=0.20
     Davidson diagonalization with overlap
     ethr =  9.46E-09,  avg # of iterations =  1.3

[...]

     negative rho (up, down):  3.880E+00 0.000E+00

     Adding external electric field

     Computed dipole along edir(3) :
        Dipole                0.0083 Ry au,          0.0211 Debye
        Dipole field          0.0000 Ry au

        Potential amp.       -0.0022 Ry
        Total length         45.0969 bohr

     End of self-consistent calculation

[...]

          k = 0.0608-0.0702 0.0000 ( 16191 PWs)   bands (ev):

[...]

          k =-0.0912-0.0527 0.0000 ( 16164 PWs)   bands (ev):

   -47.6286 -47.6282 -47.5570 -47.5567 -47.5080 -47.5078 -47.4634 -47.4634
   -47.4246 -47.4246 -47.2466 -47.2462 -47.1047 -47.1044 -47.0331 -47.0330
   -46.9552 -46.9549 -46.9199 -46.9198 -46.8916 -46.8916 -46.8563 -46.8563
   -46.8220 -46.8218 -46.8034 -46.8033 -46.7602 -46.7598 -46.7319 -46.7319
   -46.7171 -46.7171 -46.6925 -46.6925  -5.3028  -5.3026  -3.8271  -3.8269
    -3.5240  -3.5240  -3.4496  -3.4496  -3.4122  -3.4121  -2.8815  -2.8813
    -2.5113  -2.5112  -2.3604  -2.3602  -2.0608  -2.0606  -2.0094  -2.0093
    -1.5792  -1.5792  -1.1031  -1.1029  -0.7327  -0.7326  -0.7066  -0.7059
    -0.6141  -0.6136  -0.3661  -0.3659  -0.3014  -0.3008  -0.2752  -0.2748
    -0.2703  -0.2701  -0.1479  -0.1476   0.5069   0.5071   0.8025   0.8028
     0.9282   0.9284   1.1511   1.1513   1.4129   1.4138   1.5902   1.5907
     1.9912   1.9913   2.0125   2.0129   2.1124   2.1125   2.8079   2.8079
     3.1443   3.1444   3.4400   3.4403

     the Fermi energy is     2.4146 ev

!    total energy              =   -2199.73797561 Ry
     Harris-Foulkes estimate   =   -2199.73797602 Ry
     estimated scf accuracy    <       0.00000229 Ry

     The total energy is the sum of the following terms:

     one-electron contribution =  -18515.68877763 Ry
     hartree contribution      =    9287.01681702 Ry
     xc contribution           =    -623.65951791 Ry
     ewald contribution        =    7652.69067432 Ry
     electric field correction =       0.00000020 Ry
     smearing contrib. (-TS)   =      -0.09717161 Ry

     convergence has been achieved in  16 iterations

 BEEF-vdW xc energy contributions
           1 :   -552.529463787459
           2 :    514.198739738017
           3 :   -445.568392312237
           4 :    360.036051661480
           5 :   -272.415481044749
           6 :    195.101869065379
           7 :   -135.431812832462
           8 :    94.8497304997641
           9 :   -69.9127928473741
          10 :    54.5579139608066
          11 :   -42.7037866349195
          12 :    30.2657694214478
          13 :   -16.0187032781990
          14 :    1.23741958908693
          15 :    11.5147826978963
          16 :   -19.8558335625172
          17 :    22.7206939154258
          18 :   -20.7851849200312
          19 :    16.1160611491658
          20 :   -11.2917560739928
          21 :    8.40260360988248
          22 :   -8.33511753314417
          23 :    10.5933710964958
          24 :   -13.6854754613613
          25 :    15.8713059588565
          26 :   -15.9390113817975
          27 :    13.6867046806766
          28 :   -9.93300018923833
          29 :    6.08972502350082
          30 :   -3.51458894885639
          31 :   -47.2613631290324
          32 :   -35.4561528562675

     Forces acting on atoms (Ry/au):

     negative rho (up, down):  3.880E+00 0.000E+00
     atom    1 type  1   force =     0.00001995   -0.00002182    0.01660814
     atom    2 type  1   force =    -0.00002139    0.00000637    0.01668957
     atom    3 type  1   force =     0.00002441   -0.00000643    0.01660606
     atom    4 type  1   force =    -0.00002653    0.00002289    0.01654605
     atom    5 type  1   force =    -0.00004966   -0.00005295   -0.01660543
     atom    6 type  1   force =     0.00005251   -0.00003485   -0.01665955
     atom    7 type  1   force =     0.00001766    0.00007744   -0.01662511
     atom    8 type  1   force =    -0.00000838    0.00001342   -0.01666885
     atom    9 type  1   force =     0.00000693    0.00001838    0.00008405
     atom   10 type  1   force =    -0.00001016   -0.00000184    0.00003549
     atom   11 type  1   force =    -0.00001483   -0.00001623   -0.00002472
     atom   12 type  1   force =     0.00000950   -0.00000436    0.00001430

     Total force =     0.047026     Total SCF correction =     0.010516
     SCF correction compared to forces is large: reduce conv_thr to get better values

     entering subroutine stress ...

     negative rho (up, down):  3.880E+00 0.000E+00
          total   stress  (Ry/bohr**3)                   (kbar)     P=  -29.11
  -0.00024018   0.00000000  -0.00000000        -35.33      0.00     -0.00
   0.00000000  -0.00024018   0.00000002          0.00    -35.33      0.00
  -0.00000000   0.00000002  -0.00011320         -0.00      0.00    -16.65

 !ASE

     Writing output data file calc.save

     General routines

     Parallel routines

   This run was terminated on:  18: 0:39  18Dec2018

   JOB DONE.
Job  /afs/slac/g/suncat/bin/suncat-tsmpirun -x LD_LIBRARY_PATH -wdir /scratch/qe529420_TSlDS pw.x -in pw.inp

TID   HOST_NAME   COMMAND_LINE            STATUS            TERMINATION_TIME
00000 suncat1054 pw.x -in pw.inp   Done                     12/18/2018 18:00:39
00001 suncat1054 pw.x -in pw.inp   Done                     12/18/2018 18:00:39
00002 suncat1054 pw.x -in pw.inp   Done                     12/18/2018 18:00:39
00003 suncat1054 pw.x -in pw.inp   Done                     12/18/2018 18:00:39
00004 suncat1054 pw.x -in pw.inp   Done                     12/18/2018 18:00:39
00005 suncat1054 pw.x -in pw.inp   Done                     12/18/2018 18:00:39
00006 suncat1054 pw.x -in pw.inp   Done                     12/18/2018 18:00:39
00007 suncat1054 pw.x -in pw.inp   Done                     12/18/2018 18:00:39
00008 suncat1053 pw.x -in pw.inp   Done                     12/18/2018 18:00:39
00009 suncat1053 pw.x -in pw.inp   Done                     12/18/2018 18:00:39
00010 suncat1053 pw.x -in pw.inp   Done                     12/18/2018 18:00:39
00011 suncat1053 pw.x -in pw.inp   Done                     12/18/2018 18:00:39
00012 suncat1053 pw.x -in pw.inp   Done                     12/18/2018 18:00:39
00013 suncat1053 pw.x -in pw.inp   Done                     12/18/2018 18:00:39
00014 suncat1053 pw.x -in pw.inp   Done                     12/18/2018 18:00:39
00015 suncat1053 pw.x -in pw.inp   Done                     12/18/2018 18:00:39
00016 suncat1053 pw.x -in pw.inp   Done                     12/18/2018 18:00:39
00017 suncat1053 pw.x -in pw.inp   Done                     12/18/2018 18:00:39
00018 suncat1053 pw.x -in pw.inp   Done                     12/18/2018 18:00:39
00019 suncat1053 pw.x -in pw.inp   Done                     12/18/2018 18:00:39
00020 suncat1052 pw.x -in pw.inp   Done                     12/18/2018 18:00:39
00021 suncat1052 pw.x -in pw.inp   Done                     12/18/2018 18:00:39
00022 suncat1052 pw.x -in pw.inp   Done                     12/18/2018 18:00:39
00023 suncat1052 pw.x -in pw.inp   Done                     12/18/2018 18:00:39
00024 suncat1052 pw.x -in pw.inp   Done                     12/18/2018 18:00:39
00025 suncat1052 pw.x -in pw.inp   Done                     12/18/2018 18:00:39
00026 suncat1052 pw.x -in pw.inp   Done                     12/18/2018 18:00:39
00027 suncat1052 pw.x -in pw.inp   Done                     12/18/2018 18:00:39
00028 suncat1052 pw.x -in pw.inp   Done                     12/18/2018 18:00:39
00029 suncat1052 pw.x -in pw.inp   Done                     12/18/2018 18:00:39
00030 suncat1052 pw.x -in pw.inp   Done                     12/18/2018 18:00:39
00031 suncat1052 pw.x -in pw.inp   Done                     12/18/2018 18:00:39