     Program PWSCF v.5.1rc2 (svn rev. 11289) starts on 18Dec2018 at 17:57:41

     Current dimensions of program PWSCF are:
     Max number of different atomic species (ntypx) = 10
     Max number of k-points (npk) =  40000
     Max angular momentum in pseudopotentials (lmaxx) =  3
     Presently stress not available with electric field

     IMPORTANT: XC functional enforced from input :
     Exchange-correlation      = BEEF-VDW ( 1  4 27 13 2)
     Any further DFT definition will be discarded
     Please, verify this is what you really want

     Subspace diagonalization in iterative solution of the eigenvalue problem:
     a serial algorithm will be used

     Found symmetry operation: I + ( -0.5000  0.0000  0.0000)
     This is a supercell, fractional translations are disabled

     bravais-lattice index     =            0
     lattice parameter (alat)  =       1.8897  a.u.
     unit-cell volume          =    4552.2840 (a.u.)^3
     number of atoms/cell      =           12
     number of atomic types    =            1
     number of electrons       =       168.00
     number of Kohn-Sham states=           94
     kinetic-energy cutoff     =      36.7493  Ry
     charge density cutoff     =     367.4932  Ry
     convergence threshold     =      1.0E-05
     mixing beta               =       0.2000
     number of iterations used =           10  plain     mixing
     Exchange-correlation      = BEEF-VDW ( 1  4 27 13 2)
     nstep                     =           50

     celldm(1)=   1.889726  celldm(2)=   0.000000  celldm(3)=   0.000000
     celldm(4)=   0.000000  celldm(5)=   0.000000  celldm(6)=   0.000000

     crystal axes: (cart. coord. in units of alat)
               a(1) = (   5.627661   0.000000   0.000000 )
               a(2) = (   2.813831   4.873698   0.000000 )
               a(3) = (   0.000000   0.000000  24.594966 )

     reciprocal axes: (cart. coord. in units 2 pi/alat)
               b(1) = (  0.177694 -0.102592  0.000000 )
               b(2) = (  0.000000  0.205183  0.000000 )
               b(3) = (  0.000000  0.000000  0.040659 )

     PseudoPot. # 1 for Mo read from file:
     /afs/slac.stanford.edu/u/if/mamunm/psp/gbrv1.5pbe/Mo.UPF
     MD5 check sum: 30c4dcd161f5d35cd49bb5239c51a633
     Pseudo is Ultrasoft + core correction, Zval = 14.0
     Generated by new atomic code, or converted to UPF format
     Using radial grid of  889 points,  6 beta functions with:
                l(1) =   0
                l(2) =   0
                l(3) =   1
                l(4) =   1
                l(5) =   2
                l(6) =   2
     Q(r) pseudized with  6 coefficients,  rinner =    1.000   1.000   1.000
                                                       1.000   1.000

     vdW kernel table read from file vdW_kernel_table
     MD5 check sum: 095c7af220d748ca6e76c0b4c6cfb241

     atomic species   valence    mass     pseudopotential
        Mo1           14.00    95.95000     Mo( 1.00)

     No symmetry found

   Cartesian axes

     site n.     atom                  positions (alat units)
         1           Mo1 tau(   1) = (   1.4069153   0.8122829  10.0000000  )
         2           Mo1 tau(   2) = (   4.2207459   0.8122829  10.0000000  )
         3           Mo1 tau(   3) = (   2.8138306   3.2491317  10.0000000  )
         4           Mo1 tau(   4) = (   5.6276612   3.2491317  10.0000000  )
         5           Mo1 tau(   5) = (   5.6276612   1.6245658  12.2974831  )
         6           Mo1 tau(   6) = (   2.8138306   1.6245658  12.2974831  )
         7           Mo1 tau(   7) = (   7.0345765   4.0614146  12.2974831  )
         8           Mo1 tau(   8) = (   4.2207459   4.0614146  12.2974831  )
         9           Mo1 tau(   9) = (   0.0000000   0.0000000  14.5949661  )
        10           Mo1 tau(  10) = (   2.8138306   0.0000000  14.5949661  )
        11           Mo1 tau(  11) = (   1.4069153   2.4368488  14.5949661  )
        12           Mo1 tau(  12) = (   4.2207459   2.4368488  14.5949661  )

     number of k points=    20  Fermi-Dirac smearing, width (Ry)=  0.0110
                       cart. coord. in units 2pi/alat
        k(    1) = (   0.0000000   0.0000000   0.0000000), wk =   0.0555556
        k(    2) = (   0.0000000   0.0341972   0.0000000), wk =   0.1111111
        k(    3) = (   0.0000000   0.0683943   0.0000000), wk =   0.1111111
        k(    4) = (   0.0000000  -0.1025915   0.0000000), wk =   0.0555556
        k(    5) = (   0.0296156  -0.0170986   0.0000000), wk =   0.1111111
        k(    6) = (   0.0296156   0.0170986   0.0000000), wk =   0.1111111
        k(    7) = (   0.0296156   0.0512958   0.0000000), wk =   0.1111111
        k(    8) = (   0.0296156  -0.1196901   0.0000000), wk =   0.1111111
        k(    9) = (   0.0296156  -0.0854929   0.0000000), wk =   0.1111111
        k(   10) = (   0.0296156  -0.0512958   0.0000000), wk =   0.1111111
        k(   11) = (   0.0592312  -0.0341972   0.0000000), wk =   0.1111111
        k(   12) = (   0.0592312   0.0000000   0.0000000), wk =   0.1111111
        k(   13) = (   0.0592312   0.0341972   0.0000000), wk =   0.1111111
        k(   14) = (   0.0592312  -0.1367887   0.0000000), wk =   0.1111111
        k(   15) = (   0.0592312  -0.1025915   0.0000000), wk =   0.1111111
        k(   16) = (   0.0592312  -0.0683943   0.0000000), wk =   0.1111111
        k(   17) = (  -0.0888469   0.0512958   0.0000000), wk =   0.0555556
        k(   18) = (  -0.0888469   0.0854929   0.0000000), wk =   0.1111111
        k(   19) = (  -0.0888469   0.1196901   0.0000000), wk =   0.1111111
        k(   20) = (  -0.0888469  -0.0512958   0.0000000), wk =   0.0555556

     Largest allocated arrays     est. size (Mb)     dimensions
     Largest temporary arrays     est. size (Mb)     dimensions

     Initial potential from superposition of free atoms
     Check: negative starting charge=   -0.005110

     starting charge  167.98724, renormalised to  168.00000

     negative rho (up, down):  5.110E-03 0.000E+00

     *
     * You are using vdW-DF for exchange-correlation in this calculation.
     * Please cite the following three references that made this development
     * possible:
     *
     *   M. Dion, H. Rydberg, E. Schroder, D. C. Langreth, and
     *   B. I. Lundqvist, Phys. Rev. Lett. 92, 246401 (2004).
     *
     *   T. Thonhauser, V. R. Cooper, S. Li, A. Puzder, P. Hyldgaard, and
     *   D. C. Langreth, Phys. Rev. B 76, 125112 (2007).
     *
     *   G. Roman-Perez and J. M. Soler, Phys. Rev. Lett. 103, 096102 (2009).
     *
     *
     * If you are using vdW-DF2, please also cite:
     *
     *   K. Lee, E. D. Murray, L. Kong, B. I. Lundqvist, and
     *   D. C. Langreth, Phys. Rev. B 82, 081101(R) (2010).
     *
     *
     * If you are calculating the stress with vdW-DF, please also cite:
     *
     *   R. Sabatini, E. Kucukbenli, B. Kolb, T. Thonhauser, and
     *   S. de Gironcoli, J. Phys.: Condens. Matter 24, 424209 (2012).
     *

     Carrying out vdW-DF run using the following parameters:

     Nqs =      20    Nr_points =    1024   r_max =   100.000
     q_mesh =
               0.00001000     0.04494208     0.09755937     0.15916263
               0.23128650     0.31572767     0.41458969     0.53033537
               0.66584808     0.82450364     1.01025438     1.22772762
               1.48234092     1.78043706     2.12944203     2.53805004
               3.01644009     3.57652955     4.23227104     5.00000000

     Gradients computed in reciprocal space

     Adding external electric field

     Computed dipole along edir(3) :
        Dipole               -0.0000 Ry au,         -0.0000 Debye
        Dipole field         -0.0000 Ry au

        Potential amp.        0.0000 Ry
        Total length         45.3158 bohr

     Starting wfc are  156 randomized atomic wfcs

     Self-consistent Calculation

     iteration #  1     ecut=    36.75 Ry     beta=0.20
     Davidson diagonalization with overlap
     ethr =  1.00E-02,  avg # of iterations =  2.0

[...]

     total energy              =   -1677.38328384 Ry
     Harris-Foulkes estimate   =   -1679.86738055 Ry
     estimated scf accuracy    <       7.30114055 Ry

[...]

     End of self-consistent calculation

          k = 0.0000 0.0000 0.0000 ( 17111 PWs)   bands (ev):

   -58.7549 -58.6504 -58.5854 -58.5493 -58.5491 -58.5490 -58.4967 -58.4966
   -58.4966 -58.4829 -58.4828 -58.4828 -33.2902 -33.2902 -33.2901 -33.2066
   -33.1780 -33.1780 -33.1779 -33.0849 -33.0849 -33.0849 -32.7522 -32.6000
   -32.5999 -32.5999 -32.5947 -32.5946 -32.5946 -32.4676 -32.4676 -32.4675
   -32.3586 -32.3585 -32.3584 -32.3178 -32.3178 -32.3178 -32.2700 -32.2424
   -32.2424 -32.2423 -32.1903 -32.1903 -32.0822 -32.0822 -32.0473 -32.0473
    -3.6827  -2.3392  -2.1984  -2.1984  -2.1984  -2.1630  -1.7428  -1.7428
    -1.7428  -1.5331  -1.5331  -1.5331  -1.2686  -1.2686  -1.2686  -0.0835
    -0.0835  -0.0835   0.9007   0.9007   0.9008   1.0015   1.2039   1.5802
     1.5802   1.8603   1.8603   1.9573   1.9573   1.9574   2.0654   2.0654
     2.1908   2.2643   2.2643   2.2643   3.3630   3.3631   3.3631   3.3783
     3.5837   3.5837   3.5837   4.1064   4.1064   4.5105

[...]

          k =-0.0888 0.0513 0.0000 ( 17160 PWs)   bands (ev):

[...]

     the Fermi energy is     2.2878 ev

!    total energy              =   -1679.20835000 Ry
     Harris-Foulkes estimate   =   -1679.20835760 Ry
     estimated scf accuracy    <       0.00000859 Ry

     The total energy is the sum of the following terms:

     one-electron contribution =  -15163.09064354 Ry
     hartree contribution      =    7575.55893774 Ry
     xc contribution           =    -240.07452371 Ry
     ewald contribution        =    6148.50099451 Ry
     electric field correction =       0.00000001 Ry
     smearing contrib. (-TS)   =      -0.10311502 Ry

     convergence has been achieved in  15 iterations

 BEEF-vdW xc energy contributions
           1 :   -206.203442432571
           2 :    188.443903123788
           3 :   -157.990024787180
           4 :    122.882935223169
           5 :   -91.2118330390978
           6 :    68.5035075906671
           7 :   -56.4259594311177
           8 :    53.0575069060338
           9 :   -54.3761210099033
          10 :    56.1688398165471
          11 :   -55.5850715049237
          12 :    51.8126287392214
          13 :   -45.8251699305673
          14 :    39.4829514256286
          15 :   -34.4784329700182
          16 :    31.5678208683767
          17 :   -30.3676759877572
          18 :    29.7107326553322
          19 :   -28.3294753140382
          20 :    25.5008056439129
          21 :   -21.3538985659154
          22 :    16.7237014567108
          23 :   -12.6703355707241
          24 :    9.92950698174297
          25 :   -8.57811690680296
          26 :    8.05186339019042
          27 :   -7.47477856495101
          28 :    6.10856920694562
          29 :   -3.69778817891617
          30 :   0.552017638217279
          31 :   -23.4883301252871
          32 :   -18.0251668687488

     Forces acting on atoms (Ry/au):

     negative rho (up, down):  4.978E-03 0.000E+00
     atom    1 type  1   force =    -0.00000050   -0.00000109   -0.00415650
[...]
00016 suncat1059 pw.x -in pw.inp   Done                     12/18/2018 18:09:48
00017 suncat1059 pw.x -in pw.inp   Done                     12/18/2018 18:09:48
00018 suncat1059 pw.x -in pw.inp   Done                     12/18/2018 18:09:48
00019 suncat1059 pw.x -in pw.inp   Done                     12/18/2018 18:09:48
00020 suncat1058 pw.x -in pw.inp   Done                     12/18/2018 18:09:48
00021 suncat1058 pw.x -in pw.inp   Done                     12/18/2018 18:09:48
00022 suncat1058 pw.x -in pw.inp   Done                     12/18/2018 18:09:48
00023 suncat1058 pw.x -in pw.inp   Done                     12/18/2018 18:09:48
00024 suncat1058 pw.x -in pw.inp   Done                     12/18/2018 18:09:48
00025 suncat1058 pw.x -in pw.inp   Done                     12/18/2018 18:09:48
00026 suncat1058 pw.x -in pw.inp   Done                     12/18/2018 18:09:48
00027 suncat1058 pw.x -in pw.inp   Done                     12/18/2018 18:09:48
00028 suncat1058 pw.x -in pw.inp   Done                     12/18/2018 18:09:48
00029 suncat1058 pw.x -in pw.inp   Done                     12/18/2018 18:09:48
00030 suncat1058 pw.x -in pw.inp   Done                     12/18/2018 18:09:48
00031 suncat1058 pw.x -in pw.inp   Done                     12/18/2018 18:09:48

     Program PWSCF v.5.1rc2 (svn rev. 11289) starts on 18Dec2018 at 18: 9:54

     Current dimensions of program PWSCF are:
     Max number of different atomic species (ntypx) = 10
     Max number of k-points (npk) =  40000
     Max angular momentum in pseudopotentials (lmaxx) =  3
     Presently stress not available with electric field

     IMPORTANT: XC functional enforced from input :
     Exchange-correlation      = BEEF-VDW ( 1  4 27 13 2)
     Any further DFT definition will be discarded
     Please, verify this is what you really want

     Subspace diagonalization in iterative solution of the eigenvalue problem:
     a serial algorithm will be used

     Found symmetry operation: I + ( -0.5000  0.0000  0.0000)
     This is a supercell, fractional translations are disabled

     bravais-lattice index     =            0
     lattice parameter (alat)  =       1.8897  a.u.
     unit-cell volume          =    4552.2840 (a.u.)^3
     number of atoms/cell      =           12
     number of atomic types    =            1
     number of electrons       =       168.00
     number of Kohn-Sham states=           94
     kinetic-energy cutoff     =      36.7493  Ry
     charge density cutoff     =     367.4932  Ry
     convergence threshold     =      1.0E-05
     mixing beta               =       0.2000
     number of iterations used =           10  plain     mixing
     Exchange-correlation      = BEEF-VDW ( 1  4 27 13 2)
     nstep                     =           50

     celldm(1)=   1.889726  celldm(2)=   0.000000  celldm(3)=   0.000000
     celldm(4)=   0.000000  celldm(5)=   0.000000  celldm(6)=   0.000000

     crystal axes: (cart. coord. in units of alat)
               a(1) = (   5.627661   0.000000   0.000000 )
               a(2) = (   2.813831   4.873698   0.000000 )
               a(3) = (   0.000000   0.000000  24.594966 )

     reciprocal axes: (cart. coord. in units 2 pi/alat)
               b(1) = (  0.177694 -0.102592  0.000000 )
               b(2) = (  0.000000  0.205183  0.000000 )
               b(3) = (  0.000000  0.000000  0.040659 )

     PseudoPot. # 1 for Mo read from file:
     /afs/slac.stanford.edu/u/if/mamunm/psp/gbrv1.5pbe/Mo.UPF
     MD5 check sum: 30c4dcd161f5d35cd49bb5239c51a633
     Pseudo is Ultrasoft + core correction, Zval = 14.0
     Generated by new atomic code, or converted to UPF format
     Using radial grid of  889 points,  6 beta functions with:
                l(1) =   0
                l(2) =   0
                l(3) =   1
                l(4) =   1
                l(5) =   2
                l(6) =   2
     Q(r) pseudized with  6 coefficients,  rinner =    1.000   1.000   1.000
                                                       1.000   1.000

     vdW kernel table read from file vdW_kernel_table
     MD5 check sum: 095c7af220d748ca6e76c0b4c6cfb241

     atomic species   valence    mass     pseudopotential
        Mo1           14.00    95.95000     Mo( 1.00)

     No symmetry found

   Cartesian axes

     site n.     atom                  positions (alat units)
         1           Mo1 tau(   1) = (   1.4069153   0.8122829  10.0000000  )
         2           Mo1 tau(   2) = (   4.2207459   0.8122829  10.0000000  )
         3           Mo1 tau(   3) = (   2.8138306   3.2491317  10.0000000  )
         4           Mo1 tau(   4) = (   5.6276612   3.2491317  10.0000000  )
         5           Mo1 tau(   5) = (   5.6276612   1.6245658  12.2974831  )
         6           Mo1 tau(   6) = (   2.8138306   1.6245658  12.2974831  )
         7           Mo1 tau(   7) = (   7.0345765   4.0614146  12.2974831  )
         8           Mo1 tau(   8) = (   4.2207459   4.0614146  12.2974831  )
         9           Mo1 tau(   9) = (   0.0000066   0.0000087  14.6056570  )
        10           Mo1 tau(  10) = (   2.8138264   0.0000088  14.6056447  )
        11           Mo1 tau(  11) = (   1.4069145   2.4368404  14.6056281  )
        12           Mo1 tau(  12) = (   4.2207464   2.4368429  14.6056164  )

     number of k points=    20  Fermi-Dirac smearing, width (Ry)=  0.0110
                       cart. coord. in units 2pi/alat
        k(    1) = (   0.0000000   0.0000000   0.0000000), wk =   0.0555556
        k(    2) = (   0.0000000   0.0341972   0.0000000), wk =   0.1111111
        k(    3) = (   0.0000000   0.0683943   0.0000000), wk =   0.1111111
        k(    4) = (   0.0000000  -0.1025915   0.0000000), wk =   0.0555556
        k(    5) = (   0.0296156  -0.0170986   0.0000000), wk =   0.1111111
        k(    6) = (   0.0296156   0.0170986   0.0000000), wk =   0.1111111
        k(    7) = (   0.0296156   0.0512958   0.0000000), wk =   0.1111111
        k(    8) = (   0.0296156  -0.1196901   0.0000000), wk =   0.1111111
        k(    9) = (   0.0296156  -0.0854929   0.0000000), wk =   0.1111111
        k(   10) = (   0.0296156  -0.0512958   0.0000000), wk =   0.1111111
        k(   11) = (   0.0592312  -0.0341972   0.0000000), wk =   0.1111111
        k(   12) = (   0.0592312   0.0000000   0.0000000), wk =   0.1111111
        k(   13) = (   0.0592312   0.0341972   0.0000000), wk =   0.1111111
        k(   14) = (   0.0592312  -0.1367887   0.0000000), wk =   0.1111111
        k(   15) = (   0.0592312  -0.1025915   0.0000000), wk =   0.1111111
        k(   16) = (   0.0592312  -0.0683943   0.0000000), wk =   0.1111111
        k(   17) = (  -0.0888469   0.0512958   0.0000000), wk =   0.0555556
        k(   18) = (  -0.0888469   0.0854929   0.0000000), wk =   0.1111111
        k(   19) = (  -0.0888469   0.1196901   0.0000000), wk =   0.1111111
        k(   20) = (  -0.0888469  -0.0512958   0.0000000), wk =   0.0555556

     Largest allocated arrays     est. size (Mb)     dimensions
     Largest temporary arrays     est. size (Mb)     dimensions

     Initial potential from superposition of free atoms
     Check: negative starting charge=   -0.005091

     starting charge  167.98724, renormalised to  168.00000

[...]

     *
     * You are using vdW-DF for exchange-correlation in this calculation.
     * Please cite the following three references that made this development
     * possible:
     *
     *   M. Dion, H. Rydberg, E. Schroder, D. C. Langreth, and
     *   B. I. Lundqvist, Phys. Rev. Lett. 92, 246401 (2004).
     *
     *   T. Thonhauser, V. R. Cooper, S. Li, A. Puzder, P. Hyldgaard, and
     *   D. C. Langreth, Phys. Rev. B 76, 125112 (2007).
     *
     *   G. Roman-Perez and J. M. Soler, Phys. Rev. Lett. 103, 096102 (2009).
     *
     *
     * If you are using vdW-DF2, please also cite:
     *
     *   K. Lee, E. D. Murray, L. Kong, B. I. Lundqvist, and
     *   D. C. Langreth, Phys. Rev. B 82, 081101(R) (2010).
     *
     *
     * If you are calculating the stress with vdW-DF, please also cite:
     *
     *   R. Sabatini, E. Kucukbenli, B. Kolb, T. Thonhauser, and
     *   S. de Gironcoli, J. Phys.: Condens. Matter 24, 424209 (2012).
     *

     Carrying out vdW-DF run using the following parameters:

     Nqs =      20    Nr_points =    1024   r_max =   100.000
     q_mesh =
               0.00001000     0.04494208     0.09755937     0.15916263
               0.23128650     0.31572767     0.41458969     0.53033537
               0.66584808     0.82450364     1.01025438     1.22772762
               1.48234092     1.78043706     2.12944203     2.53805004
               3.01644009     3.57652955     4.23227104     5.00000000

     Gradients computed in reciprocal space

[...]

     Starting wfc are  156 randomized atomic wfcs

     Self-consistent Calculation

[...]

     total energy              =   -1679.20986072 Ry
     Harris-Foulkes estimate   =   -1679.20986341 Ry
     estimated scf accuracy    <       0.00007751 Ry

     iteration # 14     ecut=    36.75 Ry     beta=0.20
     Davidson diagonalization with overlap
     ethr =  1.48E-08,  avg # of iterations =  3.6

[...]

     negative rho (up, down):  4.960E-03 0.000E+00

     Adding external electric field

     Computed dipole along edir(3) :
        Dipole               -0.0069 Ry au,         -0.0175 Debye
        Dipole field         -0.0000 Ry au

        Potential amp.        0.0017 Ry
        Total length         45.3158 bohr

     End of self-consistent calculation

[...]

          k = 0.0592-0.0684 0.0000 ( 17122 PWs)   bands (ev):

[...]

          k =-0.0888-0.0513 0.0000 ( 17160 PWs)   bands (ev):

   -58.6651 -58.6650 -58.5783 -58.5781 -58.5581 -58.5581 -58.5353 -58.5351
   -58.5022 -58.5018 -58.4861 -58.4857 -33.0984 -33.0983 -33.0563 -33.0562
   -33.0375 -33.0373 -32.8981 -32.8977 -32.8667 -32.8666 -32.7999 -32.7998
   -32.6251 -32.6249 -32.6019 -32.6017 -32.5508 -32.5505 -32.5400 -32.5396
   -32.5095 -32.5094 -32.4773 -32.4772 -32.4720 -32.4716 -32.3385 -32.3384
   -32.3178 -32.3177 -32.2698 -32.2697 -32.2046 -32.2043 -32.1491 -32.1488
    -2.0694  -2.0693  -1.2802  -1.2801  -1.1426  -1.1426  -0.9146  -0.9145
    -0.7628  -0.7627  -0.3927  -0.3927  -0.2720  -0.2718  -0.1042  -0.1041
     0.3831   0.3831   0.5496   0.5496   0.5690   0.5692   1.0430   1.0430
     1.3225   1.3226   1.4862   1.4862   1.4898   1.4898   1.6183   1.6184
     1.7463   1.7464   1.8083   1.8084   1.9978   1.9979   2.4386   2.4387
     2.9539   2.9540   3.1640   3.1642   3.1999   3.1999

     the Fermi energy is     2.2877 ev

!    total energy              =   -1679.20986029 Ry
     Harris-Foulkes estimate   =   -1679.20986397 Ry
     estimated scf accuracy    <       0.00000615 Ry

     The total energy is the sum of the following terms:

     one-electron contribution =  -15139.89561073 Ry
     hartree contribution      =    7563.94551558 Ry
     xc contribution           =    -240.04888016 Ry
     ewald contribution        =    6136.89203085 Ry
     electric field correction =       0.00000013 Ry
     smearing contrib. (-TS)   =      -0.10291597 Ry

     convergence has been achieved in  14 iterations

 BEEF-vdW xc energy contributions
           1 :   -206.213772777027
           2 :    188.446997679385
           3 :   -157.983488610347
           4 :    122.871747749161
           5 :   -91.2067411804379
           6 :    68.5156271360792
           7 :   -56.4604406754900
           8 :    53.1097019021259
           9 :   -54.4330696199593
          10 :    56.2154863951050
          11 :   -55.6120562272071
          12 :    51.8212711301016
          13 :   -45.8264300605893
          14 :    39.4913993258428
          15 :   -34.5046390706123
          16 :    31.6133898024547
          17 :   -30.4248716567868
          18 :    29.7665716778569
          19 :   -28.3720672666090
          20 :    25.5253307777423
          21 :   -21.3651180296306
          22 :    16.7331487283784
          23 :   -12.6903112751627
          24 :    9.96709448416976
          25 :   -8.63152748832564
          26 :    8.11146519861791
          27 :   -7.52847493083320
          28 :    6.14836455456066
          29 :   -3.72387033920995
          30 :   0.572469316767013
          31 :   -23.4897942952371
          32 :   -18.0250466743069

     Forces acting on atoms (Ry/au):

     negative rho (up, down):  4.960E-03 0.000E+00
     atom    1 type  1   force =     0.00000426   -0.00000836   -0.00449047
     atom    2 type  1   force =    -0.00000348   -0.00000225   -0.00444268
     atom    3 type  1   force =     0.00000223   -0.00000049   -0.00443836
     atom    4 type  1   force =    -0.00000855    0.00000616   -0.00446133
     atom    5 type  1   force =     0.00000159   -0.00000748    0.00273284
     atom    6 type  1   force =     0.00000101   -0.00000550    0.00273039
     atom    7 type  1   force =     0.00000243    0.00000425    0.00273411
     atom    8 type  1   force =    -0.00000187    0.00000926    0.00273957
     atom    9 type  1   force =    -0.00000039   -0.00000831    0.00172196
     atom   10 type  1   force =    -0.00000011   -0.00000309    0.00172516
     atom   11 type  1   force =     0.00000599    0.00000810    0.00172342
     atom   12 type  1   force =    -0.00000311    0.00000770    0.00172541

     Total force =     0.011014     Total SCF correction =     0.012023
     SCF correction compared to forces is large: reduce conv_thr to get better values

     entering subroutine stress ...

     negative rho (up, down):  4.960E-03 0.000E+00
          total   stress  (Ry/bohr**3)                   (kbar)     P=  -22.94
  -0.00023756  -0.00000000   0.00000000        -34.95     -0.00      0.00
  -0.00000000  -0.00023756   0.00000000         -0.00    -34.95      0.00
   0.00000000   0.00000000   0.00000736          0.00      0.00      1.08

 !ASE

     Writing output data file calc.save

     General routines

     Parallel routines

   This run was terminated on:  18:20:35  18Dec2018

   JOB DONE.
Job  /afs/slac/g/suncat/bin/suncat-tsmpirun -x LD_LIBRARY_PATH -wdir /scratch/qe529423_apnvL pw.x -in pw.inp

TID   HOST_NAME   COMMAND_LINE            STATUS            TERMINATION_TIME
00000 suncat1060 pw.x -in pw.inp   Done                     12/18/2018 18:20:35
00001 suncat1060 pw.x -in pw.inp   Done                     12/18/2018 18:20:35
00002 suncat1060 pw.x -in pw.inp   Done                     12/18/2018 18:20:35
00003 suncat1060 pw.x -in pw.inp   Done                     12/18/2018 18:20:35
00004 suncat1060 pw.x -in pw.inp   Done                     12/18/2018 18:20:35
00005 suncat1060 pw.x -in pw.inp   Done                     12/18/2018 18:20:35
00006 suncat1060 pw.x -in pw.inp   Done                     12/18/2018 18:20:35
00007 suncat1060 pw.x -in pw.inp   Done                     12/18/2018 18:20:35
00008 suncat1059 pw.x -in pw.inp   Done                     12/18/2018 18:20:35
00009 suncat1059 pw.x -in pw.inp   Done                     12/18/2018 18:20:35
00010 suncat1059 pw.x -in pw.inp   Done                     12/18/2018 18:20:35
00011 suncat1059 pw.x -in pw.inp   Done                     12/18/2018 18:20:35
00012 suncat1059 pw.x -in pw.inp   Done                     12/18/2018 18:20:35
00013 suncat1059 pw.x -in pw.inp   Done                     12/18/2018 18:20:35
00014 suncat1059 pw.x -in pw.inp   Done                     12/18/2018 18:20:35
00015 suncat1059 pw.x -in pw.inp   Done                     12/18/2018 18:20:35
00016 suncat1059 pw.x -in pw.inp   Done                     12/18/2018 18:20:35
00017 suncat1059 pw.x -in pw.inp   Done                     12/18/2018 18:20:35
00018 suncat1059 pw.x -in pw.inp   Done                     12/18/2018 18:20:35
00019 suncat1059 pw.x -in pw.inp   Done                     12/18/2018 18:20:35
00020 suncat1058 pw.x -in pw.inp   Done                     12/18/2018 18:20:35
00021 suncat1058 pw.x -in pw.inp   Done                     12/18/2018 18:20:35
00022 suncat1058 pw.x -in pw.inp   Done                     12/18/2018 18:20:35
00023 suncat1058 pw.x -in pw.inp   Done                     12/18/2018 18:20:35
00024 suncat1058 pw.x -in pw.inp   Done                     12/18/2018 18:20:35
00025 suncat1058 pw.x -in pw.inp   Done                     12/18/2018 18:20:35
00026 suncat1058 pw.x -in pw.inp   Done                     12/18/2018 18:20:35
00027 suncat1058 pw.x -in pw.inp   Done                     12/18/2018 18:20:35
00028 suncat1058 pw.x -in pw.inp   Done                     12/18/2018 18:20:35
00029 suncat1058 pw.x -in pw.inp   Done                     12/18/2018 18:20:35
00030 suncat1058 pw.x -in pw.inp   Done                     12/18/2018 18:20:35
00031 suncat1058 pw.x -in pw.inp   Done                     12/18/2018 18:20:35