     Program PWSCF v.5.1rc2 (svn rev. 11289) starts on 18Dec2018 at 20:52:36

     Current dimensions of program PWSCF are:
     Max number of different atomic species (ntypx) = 10
     Max number of k-points (npk) =  40000
     Max angular momentum in pseudopotentials (lmaxx) =  3
     Presently stress not available with electric field

     IMPORTANT: XC functional enforced from input :
     Exchange-correlation      = BEEF-VDW ( 1  4 27 13 2)
     Any further DFT definition will be discarded
     Please, verify this is what you really want

     Subspace diagonalization in iterative solution of the eigenvalue problem:
     a serial algorithm will be used

     Found symmetry operation: I + (  0.5000  0.0000  0.0000)
     This is a supercell, fractional translations are disabled

     bravais-lattice index     =            0
     lattice parameter (alat)  =       1.8897  a.u.
     unit-cell volume          =    6741.9070 (a.u.)^3
     number of atoms/cell      =           12
     number of atomic types    =            1
     number of electrons       =       168.00
     number of Kohn-Sham states=           94
     kinetic-energy cutoff     =      36.7493  Ry
     charge density cutoff     =     367.4932  Ry
     convergence threshold     =      1.0E-05
     mixing beta               =       0.3000
     number of iterations used =           10  plain     mixing
     Exchange-correlation      = BEEF-VDW ( 1  4 27 13 2)
     nstep                     =           50

     celldm(1)=   1.889726  celldm(2)=   0.000000  celldm(3)=   0.000000
     celldm(4)=   0.000000  celldm(5)=   0.000000  celldm(6)=   0.000000

     crystal axes: (cart. coord. in units of alat)
               a(1) = (   6.726993   0.000000   0.000000 )
               a(2) = (   3.363497   5.825747   0.000000 )
               a(3) = (   0.000000   0.000000  25.492567 )

     reciprocal axes: (cart. coord. in units 2 pi/alat)
               b(1) = (  0.148655 -0.085826  0.000000 )
               b(2) = (  0.000000  0.171652  0.000000 )
               b(3) = (  0.000000  0.000000  0.039227 )

     PseudoPot. # 1 for Sn read from file:
     /afs/slac.stanford.edu/u/if/mamunm/psp/gbrv1.5pbe/Sn.UPF
     MD5 check sum: 469debedee59599fedebd795477fea03
     Pseudo is Ultrasoft + core correction, Zval = 14.0
     Generated by new atomic code, or converted to UPF format
     Using radial grid of  891 points,  6 beta functions with:
                l(1) =   0
                l(2) =   0
                l(3) =   1
                l(4) =   1
                l(5) =   2
                l(6) =   2
     Q(r) pseudized with  8 coefficients,  rinner =    1.350   1.350   1.350
                                                       1.350   1.350

     vdW kernel table read from file vdW_kernel_table
     MD5 check sum: 095c7af220d748ca6e76c0b4c6cfb241

     atomic species   valence    mass     pseudopotential
        Sn1           14.00   118.71000     Sn( 1.00)

     No symmetry found

   Cartesian axes

     site n.     atom                  positions (alat units)
         1           Sn1 tau(   1) = (   1.6817483   0.9709578  10.0000000  )
         2           Sn1 tau(   2) = (   5.0452448   0.9709578  10.0000000  )
         3           Sn1 tau(   3) = (   3.3634965   3.8838312  10.0000000  )
         4           Sn1 tau(   4) = (   6.7269931   3.8838312  10.0000000  )
         5           Sn1 tau(   5) = (   6.7269931   1.9419156  12.7462834  )
         6           Sn1 tau(   6) = (   3.3634965   1.9419156  12.7462834  )
         7           Sn1 tau(   7) = (   8.4087413   4.8547891  12.7462834  )
         8           Sn1 tau(   8) = (   5.0452448   4.8547891  12.7462834  )
         9           Sn1 tau(   9) = (   0.0000000   0.0000000  15.4925668  )
        10           Sn1 tau(  10) = (   3.3634965   0.0000000  15.4925668  )
        11           Sn1 tau(  11) = (   1.6817483   2.9128734  15.4925668  )
        12           Sn1 tau(  12) = (   5.0452448   2.9128734  15.4925668  )

     number of k points=    20  Fermi-Dirac smearing, width (Ry)=  0.0110
                       cart. coord. in units 2pi/alat
        k(    1) = (   0.0000000   0.0000000   0.0000000), wk =   0.0555556
        k(    2) = (   0.0000000   0.0286086   0.0000000), wk =   0.1111111
        k(    3) = (   0.0000000   0.0572173   0.0000000), wk =   0.1111111
        k(    4) = (   0.0000000  -0.0858259   0.0000000), wk =   0.0555556
        k(    5) = (   0.0247758  -0.0143043   0.0000000), wk =   0.1111111
        k(    6) = (   0.0247758   0.0143043   0.0000000), wk =   0.1111111
        k(    7) = (   0.0247758   0.0429130   0.0000000), wk =   0.1111111
        k(    8) = (   0.0247758  -0.1001302   0.0000000), wk =   0.1111111
        k(    9) = (   0.0247758  -0.0715216   0.0000000), wk =   0.1111111
        k(   10) = (   0.0247758  -0.0429130   0.0000000), wk =   0.1111111
        k(   11) = (   0.0495516  -0.0286086   0.0000000), wk =   0.1111111
        k(   12) = (   0.0495516   0.0000000   0.0000000), wk =   0.1111111
        k(   13) = (   0.0495516   0.0286086   0.0000000), wk =   0.1111111
        k(   14) = (   0.0495516  -0.1144345   0.0000000), wk =   0.1111111
        k(   15) = (   0.0495516  -0.0858259   0.0000000), wk =   0.1111111
        k(   16) = (   0.0495516  -0.0572173   0.0000000), wk =   0.1111111
        k(   17) = (  -0.0743274   0.0429130   0.0000000), wk =   0.0555556
        k(   18) = (  -0.0743274   0.0715216   0.0000000), wk =   0.1111111
        k(   19) = (  -0.0743274   0.1001302   0.0000000), wk =   0.1111111
        k(   20) = (  -0.0743274  -0.0429130   0.0000000), wk =   0.0555556

     Largest allocated arrays     est. size (Mb)     dimensions
     Largest temporary arrays     est. size (Mb)     dimensions

     Initial potential from superposition of free atoms
     Check: negative starting charge=   -0.001623

     starting charge  155.99946, renormalised to  168.00000

     negative rho (up, down):  1.748E-03 0.000E+00

     *
     * You are using vdW-DF for exchange-correlation in this calculation.
     * Please cite the following three references that made this development
     * possible:
     *
     *   M. Dion, H. Rydberg, E. Schroder, D. C. Langreth, and
     *   B. I. Lundqvist, Phys. Rev. Lett. 92, 246401 (2004).
     *
     *   T. Thonhauser, V. R. Cooper, S. Li, A. Puzder, P. Hyldgaard, and
     *   D. C. Langreth, Phys. Rev. B 76, 125112 (2007).
     *
     *   G. Roman-Perez and J. M. Soler, Phys. Rev. Lett. 103, 096102 (2009).
     *
     *
     * If you are using vdW-DF2, please also cite:
     *
     *   K. Lee, E. D. Murray, L. Kong, B. I. Lundqvist, and
     *   D. C. Langreth, Phys. Rev. B 82, 081101(R) (2010).
     *
     *
     * If you are calculating the stress with vdW-DF, please also cite:
     *
     *   R. Sabatini, E. Kucukbenli, B. Kolb, T. Thonhauser, and
     *   S. de Gironcoli, J. Phys.: Condens. Matter 24, 424209 (2012).
     *

     Carrying out vdW-DF run using the following parameters:

     Nqs =      20    Nr_points =    1024   r_max =   100.000
     q_mesh =
               0.00001000     0.04494208     0.09755937     0.15916263
               0.23128650     0.31572767     0.41458969     0.53033537
               0.66584808     0.82450364     1.01025438     1.22772762
               1.48234092     1.78043706     2.12944203     2.53805004
               3.01644009     3.57652955     4.23227104     5.00000000

     Gradients computed in reciprocal space

     Adding external electric field

     Computed dipole along edir(3) :
        Dipole                0.0000 Ry au,          0.0000 Debye
        Dipole field          0.0000 Ry au

        Potential amp.       -0.0000 Ry
        Total length         46.9696 bohr

     Starting wfc are  108 randomized atomic wfcs

     Self-consistent Calculation

     iteration #  1     ecut=    36.75 Ry     beta=0.30
     Davidson diagonalization with overlap
     ethr =  1.00E-02,  avg # of iterations =  5.5

[...]

     total energy              =   -1927.30615490 Ry
     Harris-Foulkes estimate   =   -1934.01399352 Ry
     estimated scf accuracy    <      14.42709119 Ry

[...]

     total energy              =   -1928.29306834 Ry
     Harris-Foulkes estimate   =   -1928.29310183 Ry
     estimated scf accuracy    <       0.00018990 Ry

     iteration # 10     ecut=    36.75 Ry     beta=0.30
     Davidson diagonalization with overlap
     ethr =  1.13E-07,  avg # of iterations =  3.0

[...]

     negative rho (up, down):  4.073E-04 0.000E+00

     Adding external electric field

     Computed dipole along edir(3) :
        Dipole                0.0066 Ry au,          0.0168 Debye
        Dipole field          0.0000 Ry au

        Potential amp.       -0.0012 Ry
        Total length         46.9696 bohr

     End of self-consistent calculation

          k = 0.0000 0.0000 0.0000 ( 25377 PWs)   bands (ev):

   -21.3599 -21.3599 -21.3599 -21.3437 -21.3437 -21.3437 -21.3184 -21.3169
   -21.3125 -21.3125 -21.3125 -21.2972 -21.2972 -21.2925 -21.2925 -21.2879
   -21.2879 -21.2879 -21.2756 -21.2756 -21.2756 -21.2650 -21.2650 -21.2650
   -21.2590 -21.2590 -21.2590 -21.2585 -21.2585 -21.2455 -21.2375 -21.2375
   -21.2375 -21.2217 -21.2217 -21.2121 -21.2120 -21.2066 -21.2066 -21.2066
   -21.1605 -21.1605 -21.1605 -21.1586 -21.1586 -21.1586 -21.1570 -21.1570
   -21.1570 -21.1372 -21.1372 -21.1372 -21.1336 -21.1336 -21.1151 -21.1151
   -21.1151 -21.0982 -21.0982 -21.0982 -10.0373  -8.8232  -7.0579  -5.9595
    -5.9595  -5.9595  -5.4921  -5.4921  -5.4921  -4.5938  -4.5938  -4.5938
    -3.2655  -3.2655  -3.2655  -2.7017  -1.9911  -1.9911  -1.9911  -1.8530
    -1.8530  -1.8530   0.1583   1.7005   1.7005   1.7005   1.7442   1.7442
     1.7442   2.9386   3.2647   3.2650   3.9327   4.1804

[...]

          k = 0.0496-0.0572 0.0000 ( 25368 PWs)   bands (ev):

[...]

          k =-0.0743 0.0429 0.0000 ( 25386 PWs)   bands (ev):

[...]

          k =-0.0743-0.0429 0.0000 ( 25386 PWs)   bands (ev):

   -21.3314 -21.3314 -21.3234 -21.3234 -21.3049 -21.3049 -21.2942 -21.2942
   -21.2833 -21.2833 -21.2807 -21.2807 -21.2784 -21.2784 -21.2744 -21.2744
   -21.2739 -21.2739 -21.2657 -21.2657 -21.2628 -21.2628 -21.2577 -21.2577
   -21.2554 -21.2554 -21.2551 -21.2551 -21.2549 -21.2549 -21.2421 -21.2420
   -21.2317 -21.2317 -21.2266 -21.2266 -21.2252 -21.2252 -21.2072 -21.2072
   -21.1942 -21.1942 -21.1925 -21.1925 -21.1716 -21.1716 -21.1669 -21.1669
   -21.1654 -21.1654 -21.1606 -21.1606 -21.1558 -21.1558 -21.1465 -21.1465
   -21.1340 -21.1340 -21.1078 -21.1078  -8.8881  -8.8881  -7.6934  -7.6934
    -6.6571  -6.6571  -5.9917  -5.9917  -5.5789  -5.5789  -4.2676  -4.2676
    -1.5665  -1.5665  -1.4610  -1.4610  -1.2738  -1.2738  -0.2996  -0.2996
    -0.1248  -0.1248   0.6908   0.6908   1.0795   1.0795   1.3363   1.3363
     1.7086   1.7086   1.9796   1.9796   2.0171   2.0171

     the Fermi energy is     0.7402 ev

!    total energy              =   -1928.29309448 Ry
     Harris-Foulkes estimate   =   -1928.29308971 Ry
     estimated scf accuracy    <       0.00000618 Ry

     The total energy is the sum of the following terms:

     one-electron contribution =  -10334.53837507 Ry
     hartree contribution      =    5230.10019208 Ry
     xc contribution           =    -533.82726299 Ry
     ewald contribution        =    3710.01594079 Ry
     electric field correction =       0.00000008 Ry
     smearing contrib. (-TS)   =      -0.04358937 Ry

     convergence has been achieved in  10 iterations

 BEEF-vdW xc energy contributions
           1 :   -469.181254316528
           2 :    429.624019021575
           3 :   -362.466151573143
           4 :    286.357248902046
           5 :   -219.074666929424
           6 :    171.226694878864
           7 :   -143.835441691047
           8 :    130.350974616653
           9 :   -121.574782154713
          10 :    110.721075310380
          11 :   -96.1235108858667
          12 :    80.6252739107741
          13 :   -68.6018561517882
          14 :    62.6985672288508
          15 :   -62.2082714425874
          16 :    63.7760194345949
          17 :   -63.6707504241379
          18 :    60.0346206250920
          19 :   -53.7435285729022
          20 :    47.5033725258353
          21 :   -43.9257510724601
          22 :    43.8687626274677
          23 :   -46.0428359588988
          24 :    47.9978443775506
          25 :   -47.7444563215040
          26 :    44.9349260135662
          27 :   -40.9101166526494
          28 :    37.6881215889712
          29 :   -36.6282872928912
          30 :    37.6368972790420
          31 :   -40.9641419466949
          32 :   -29.8312490163390

     Forces acting on atoms (Ry/au):

     negative rho (up, down):  4.073E-04 0.000E+00
     atom    1 type  1   force =     0.00002052    0.00000564   -0.00014294
     atom    2 type  1   force =    -0.00003445    0.00001552   -0.00011128
     atom    3 type  1   force =    -0.00001350   -0.00002657   -0.00013397
     atom    4 type  1   force =     0.00000363    0.00000645   -0.00013123
     atom    5 type  1   force =    -0.00002056    0.00000214    0.00014572
     atom    6 type  1   force =    -0.00001338    0.00001021    0.00015344
     atom    7 type  1   force =     0.00005068   -0.00001998    0.00017661
     atom    8 type  1   force =    -0.00000205    0.00001609    0.00019844
     atom    9 type  1   force =     0.00001643    0.00000356   -0.00003732
     atom   10 type  1   force =    -0.00001310   -0.00002899   -0.00005184
     atom   11 type  1   force =    -0.00001702    0.00000796   -0.00002247
     atom   12 type  1   force =     0.00002281    0.00000796   -0.00004315

     Total force =     0.000446     Total SCF correction =     0.003639
     SCF correction compared to forces is large: reduce conv_thr to get better values

     entering subroutine stress ...

     negative rho (up, down):  4.073E-04 0.000E+00
          total   stress  (Ry/bohr**3)                   (kbar)     P=   -2.50
  -0.00000752   0.00000000   0.00000000         -1.11      0.00      0.00
   0.00000000  -0.00000752  -0.00000000          0.00     -1.11     -0.00
   0.00000000  -0.00000000  -0.00003600          0.00     -0.00     -5.30

 !ASE

     Writing output data file calc.save

     General routines

     Parallel routines

   This run was terminated on:  21: 4:42  18Dec2018

   JOB DONE.
Job  /afs/slac/g/suncat/bin/suncat-tsmpirun -x LD_LIBRARY_PATH -wdir /scratch/qe529437_Bt4pX pw.x -in pw.inp

TID   HOST_NAME   COMMAND_LINE            STATUS            TERMINATION_TIME
00000 suncat1060 pw.x -in pw.inp   Done                     12/18/2018 21:04:42
00001 suncat1060 pw.x -in pw.inp   Done                     12/18/2018 21:04:42
00002 suncat1060 pw.x -in pw.inp   Done                     12/18/2018 21:04:42
00003 suncat1060 pw.x -in pw.inp   Done                     12/18/2018 21:04:42
00004 suncat1060 pw.x -in pw.inp   Done                     12/18/2018 21:04:42
00005 suncat1060 pw.x -in pw.inp   Done                     12/18/2018 21:04:42
00006 suncat1060 pw.x -in pw.inp   Done                     12/18/2018 21:04:42
00007 suncat1060 pw.x -in pw.inp   Done                     12/18/2018 21:04:42
00008 suncat1059 pw.x -in pw.inp   Done                     12/18/2018 21:04:42
00009 suncat1059 pw.x -in pw.inp   Done                     12/18/2018 21:04:42
00010 suncat1059 pw.x -in pw.inp   Done                     12/18/2018 21:04:42
00011 suncat1059 pw.x -in pw.inp   Done                     12/18/2018 21:04:42
00012 suncat1059 pw.x -in pw.inp   Done                     12/18/2018 21:04:42
00013 suncat1059 pw.x -in pw.inp   Done                     12/18/2018 21:04:42
00014 suncat1059 pw.x -in pw.inp   Done                     12/18/2018 21:04:42
00015 suncat1059 pw.x -in pw.inp   Done                     12/18/2018 21:04:42
00016 suncat1059 pw.x -in pw.inp   Done                     12/18/2018 21:04:42
00017 suncat1059 pw.x -in pw.inp   Done                     12/18/2018 21:04:42
00018 suncat1059 pw.x -in pw.inp   Done                     12/18/2018 21:04:42
00019 suncat1059 pw.x -in pw.inp   Done                     12/18/2018 21:04:42
00020 suncat1058 pw.x -in pw.inp   Done                     12/18/2018 21:04:42
00021 suncat1058 pw.x -in pw.inp   Done                     12/18/2018 21:04:42
00022 suncat1058 pw.x -in pw.inp   Done                     12/18/2018 21:04:42
00023 suncat1058 pw.x -in pw.inp   Done                     12/18/2018 21:04:42
00024 suncat1058 pw.x -in pw.inp   Done                     12/18/2018 21:04:42
00025 suncat1058 pw.x -in pw.inp   Done                     12/18/2018 21:04:42
00026 suncat1058 pw.x -in pw.inp   Done                     12/18/2018 21:04:42
00027 suncat1058 pw.x -in pw.inp   Done                     12/18/2018 21:04:42
00028 suncat1058 pw.x -in pw.inp   Done                     12/18/2018 21:04:42
00029 suncat1058 pw.x -in pw.inp   Done                     12/18/2018 21:04:42
00030 suncat1058 pw.x -in pw.inp   Done                     12/18/2018 21:04:42
00031 suncat1058 pw.x -in pw.inp   Done                     12/18/2018 21:04:42