     Program PWSCF v.5.1rc2 (svn rev. 11289) starts on 18Dec2018 at 19:44:25

     Current dimensions of program PWSCF are:
     Max number of different atomic species (ntypx) = 10
     Max number of k-points (npk) =  40000
     Max angular momentum in pseudopotentials (lmaxx) =  3
     Presently stress not available with electric field

     IMPORTANT: XC functional enforced from input :
     Exchange-correlation      = BEEF-VDW ( 1  4 27 13 2)
     Any further DFT definition will be discarded
     Please, verify this is what you really want

     Subspace diagonalization in iterative solution of the eigenvalue problem:
     a serial algorithm will be used

     Found symmetry operation: I + ( -0.5000  0.0000  0.0000)
     This is a supercell, fractional translations are disabled

     bravais-lattice index     =            0
     lattice parameter (alat)  =       1.8897  a.u.
     unit-cell volume          =    4481.2752 (a.u.)^3
     number of atoms/cell      =           12
     number of atomic types    =            1
     number of electrons       =       192.00
     number of Kohn-Sham states=          106
     kinetic-energy cutoff     =      36.7493  Ry
     charge density cutoff     =     367.4932  Ry
     convergence threshold     =      1.0E-05
     mixing beta               =       0.2000
     number of iterations used =           10  plain     mixing
     Exchange-correlation      = BEEF-VDW ( 1  4 27 13 2)
     nstep                     =           50

     celldm(1)=   1.889726  celldm(2)=   0.000000  celldm(3)=   0.000000
     celldm(4)=   0.000000  celldm(5)=   0.000000  celldm(6)=   0.000000

     crystal axes: (cart. coord. in units of alat)
               a(1) = (   5.587338   0.000000   0.000000 )
               a(2) = (   2.793669   4.838777   0.000000 )
               a(3) = (   0.000000   0.000000  24.562042 )

     reciprocal axes: (cart. coord. in units 2 pi/alat)
               b(1) = (  0.178976 -0.103332  0.000000 )
               b(2) = (  0.000000  0.206664  0.000000 )
               b(3) = (  0.000000  0.000000  0.040713 )

     PseudoPot. # 1 for Pt read from file:
     /afs/slac.stanford.edu/u/if/mamunm/psp/gbrv1.5pbe/Pt.UPF
     MD5 check sum: f09d6de1a584b5a045c4fc126da2d0c4
     Pseudo is Ultrasoft + core correction, Zval = 16.0
     Generated by new atomic code, or converted to UPF format
     Using radial grid of  985 points,  6 beta functions with:
                l(1) =   0
                l(2) =   0
                l(3) =   1
                l(4) =   1
                l(5) =   2
                l(6) =   2
     Q(r) pseudized with  8 coefficients,  rinner =    1.300   1.300   1.300
                                                       1.300   1.300

     vdW kernel table read from file vdW_kernel_table
     MD5 check sum: 095c7af220d748ca6e76c0b4c6cfb241

     atomic species   valence    mass     pseudopotential
        Pt1           16.00   195.08400     Pt( 1.00)

     No symmetry found

   Cartesian axes

     site n.     atom                  positions (alat units)
         1           Pt1 tau(   1) = (   1.3968345   0.8064628  10.0000000  )
         2           Pt1 tau(   2) = (   4.1905036   0.8064628  10.0000000  )
         3           Pt1 tau(   3) = (   2.7936691   3.2258512  10.0000000  )
         4           Pt1 tau(   4) = (   5.5873381   3.2258512  10.0000000  )
         5           Pt1 tau(   5) = (   5.5873381   1.6129256  12.2810212  )
         6           Pt1 tau(   6) = (   2.7936691   1.6129256  12.2810212  )
         7           Pt1 tau(   7) = (   6.9841727   4.0323140  12.2810212  )
         8           Pt1 tau(   8) = (   4.1905036   4.0323140  12.2810212  )
         9           Pt1 tau(   9) = (   0.0000000   0.0000000  14.5620425  )
        10           Pt1 tau(  10) = (   2.7936691   0.0000000  14.5620425  )
        11           Pt1 tau(  11) = (   1.3968345   2.4193884  14.5620425  )
        12           Pt1 tau(  12) = (   4.1905036   2.4193884  14.5620425  )

     number of k points=    20  Fermi-Dirac smearing, width (Ry)=  0.0110
                       cart. coord. in units 2pi/alat
        k(    1) = (   0.0000000   0.0000000   0.0000000), wk =   0.0555556
        k(    2) = (   0.0000000   0.0344440   0.0000000), wk =   0.1111111
        k(    3) = (   0.0000000   0.0688879   0.0000000), wk =   0.1111111
        k(    4) = (   0.0000000  -0.1033319   0.0000000), wk =   0.0555556
        k(    5) = (   0.0298294  -0.0172220   0.0000000), wk =   0.1111111
        k(    6) = (   0.0298294   0.0172220   0.0000000), wk =   0.1111111
        k(    7) = (   0.0298294   0.0516660   0.0000000), wk =   0.1111111
        k(    8) = (   0.0298294  -0.1205539   0.0000000), wk =   0.1111111
        k(    9) = (   0.0298294  -0.0861099   0.0000000), wk =   0.1111111
        k(   10) = (   0.0298294  -0.0516660   0.0000000), wk =   0.1111111
        k(   11) = (   0.0596587  -0.0344440   0.0000000), wk =   0.1111111
        k(   12) = (   0.0596587   0.0000000   0.0000000), wk =   0.1111111
        k(   13) = (   0.0596587   0.0344440   0.0000000), wk =   0.1111111
        k(   14) = (   0.0596587  -0.1377759   0.0000000), wk =   0.1111111
        k(   15) = (   0.0596587  -0.1033319   0.0000000), wk =   0.1111111
        k(   16) = (   0.0596587  -0.0688879   0.0000000), wk =   0.1111111
        k(   17) = (  -0.0894881   0.0516660   0.0000000), wk =   0.0555556
        k(   18) = (  -0.0894881   0.0861099   0.0000000), wk =   0.1111111
        k(   19) = (  -0.0894881   0.1205539   0.0000000), wk =   0.1111111
        k(   20) = (  -0.0894881  -0.0516660   0.0000000), wk =   0.0555556

     Largest allocated arrays     est. size (Mb)     dimensions
     Largest temporary arrays     est. size (Mb)     dimensions

     Initial potential from superposition of free atoms
     Check: negative starting charge=   -2.200891

     starting charge  185.99986, renormalised to  192.00000

     negative rho (up, down):  2.272E+00 0.000E+00

     *
     * You are using vdW-DF for exchange-correlation in this calculation.
     * Please cite the following three references that made this development
     * possible:
     *
     *   M. Dion, H. Rydberg, E. Schroder, D. C. Langreth, and
     *   B. I. Lundqvist, Phys. Rev. Lett. 92, 246401 (2004).
     *
     *   T. Thonhauser, V. R. Cooper, S. Li, A. Puzder, P. Hyldgaard, and
     *   D. C. Langreth, Phys. Rev. B 76, 125112 (2007).
     *
     *   G. Roman-Perez and J. M. Soler, Phys. Rev. Lett. 103, 096102 (2009).
     *
     *
     * If you are using vdW-DF2, please also cite:
     *
     *   K. Lee, E. D. Murray, L. Kong, B. I. Lundqvist, and
     *   D. C. Langreth, Phys. Rev. B 82, 081101(R) (2010).
     *
     *
     * If you are calculating the stress with vdW-DF, please also cite:
     *
     *   R. Sabatini, E. Kucukbenli, B. Kolb, T. Thonhauser, and
     *   S. de Gironcoli, J. Phys.: Condens. Matter 24, 424209 (2012).
     *

     Carrying out vdW-DF run using the following parameters:

     Nqs =      20    Nr_points =    1024   r_max =   100.000
     q_mesh =
               0.00001000     0.04494208     0.09755937     0.15916263
               0.23128650     0.31572767     0.41458969     0.53033537
               0.66584808     0.82450364     1.01025438     1.22772762
               1.48234092     1.78043706     2.12944203     2.53805004
               3.01644009     3.57652955     4.23227104     5.00000000

     Gradients computed in reciprocal space

     Adding external electric field

     Computed dipole along edir(3) :
        Dipole                0.0000 Ry au,          0.0000 Debye
        Dipole field          0.0000 Ry au

        Potential amp.       -0.0000 Ry
        Total length         45.2551 bohr

     Starting wfc are  144 randomized atomic wfcs

     Self-consistent Calculation

     iteration #  1     ecut=    36.75 Ry     beta=0.20
     Davidson diagonalization with overlap
     ethr =  1.00E-02,  avg # of iterations =  3.1

[...]

     total energy              =   -2546.70533846 Ry
     Harris-Foulkes estimate   =   -2551.33329067 Ry
     estimated scf accuracy    <      15.21642163 Ry

[...]

     End of self-consistent calculation

          k = 0.0000 0.0000 0.0000 ( 16787 PWs)   bands (ev):

   -51.2957 -51.2956 -51.2955 -51.1733 -51.1367 -51.1366 -51.1365 -51.0485
   -51.0484 -51.0483 -50.9658 -50.9658 -50.9595 -50.9594 -50.9594 -50.9217
   -50.9216 -50.9216 -50.7192 -50.7191 -50.7191 -50.7154 -50.7153 -50.7153
   -50.6390 -50.6390 -50.6374 -50.6374 -50.5482 -50.5106 -50.5076 -50.5076
   -50.5074 -50.4947 -50.4946 -50.4945  -7.0590  -5.3155  -4.8980  -4.5487
    -4.5487  -4.5487  -4.3167  -4.3167  -4.3167  -3.8669  -3.8669  -3.8669
    -3.7018  -3.7018  -3.7018  -2.3041  -2.3040  -2.3040  -1.9267  -1.9267
    -1.9267  -1.7624  -1.6767  -1.6767  -1.3578  -1.3578  -1.3453  -1.2200
    -1.2200  -1.2200  -1.1345  -1.1345  -0.5876  -0.5876  -0.5875   0.3056
     0.3057   0.3057   0.3119   0.3119   0.4833   0.4833   0.4834   0.9515
     0.9515   1.0392   1.4990   1.4990   1.4991   1.5423   1.5423   1.5424
     1.6484   1.6484   1.8801   1.8801   1.8802   2.2010   2.2011   2.2011
     2.2607   2.2608   2.2608   2.6422   3.0631   3.0632   3.0632   4.7008
     4.7008   4.7009

[...]

          k =-0.0895 0.0517 0.0000 ( 16880 PWs)   bands (ev):

[...]

     the Fermi energy is     1.7082 ev

!    total energy              =   -2548.13694260 Ry
     Harris-Foulkes estimate   =   -2548.13692931 Ry
     estimated scf accuracy    <       0.00000284 Ry

     The total energy is the sum of the following terms:

     one-electron contribution =  -20140.72963470 Ry
     hartree contribution      =   10106.69446691 Ry
     xc contribution           =    -703.40325068 Ry
     ewald contribution        =    8189.41667301 Ry
     electric field correction =       0.00000016 Ry
     smearing contrib. (-TS)   =      -0.11519730 Ry

     convergence has been achieved in  14 iterations

 BEEF-vdW xc energy contributions
           1 :   -625.936938410538
           2 :    582.726448688671
           3 :   -505.142662900643
           4 :    407.847128610968
           5 :   -306.970086722255
           6 :    215.977187690899
           7 :   -142.966809867040
           8 :    89.9544377971372
           9 :   -54.0759360709583
          10 :    29.9868641330268
          11 :   -12.4289712191242
          12 :   -1.98971688491554
          13 :    14.2655731080879
          14 :   -23.6254436922652
          15 :    28.7666988166102
          16 :   -29.0512199291767
          17 :    25.1275068368234
          18 :   -18.8094591647554
          19 :    12.3885477693275
          20 :   -7.77790647131633
          21 :    5.88375582191634
          22 :   -6.44890266650350
          23 :    8.36887033849609
          24 :   -10.2878444562791
          25 :    11.1879502733168
          26 :   -10.7334851347873
          27 :    9.26701999373017
          28 :   -7.52099450448623
          29 :    6.21547494373203
          30 :   -5.73553701703031
          31 :   -51.2418614065845
          32 :   -37.9153476544247

     Forces acting on atoms (Ry/au):

[...]
00021 suncat1049 pw.x -in pw.inp   Done                     12/18/2018 19:55:56
00022 suncat1049 pw.x -in pw.inp   Done                     12/18/2018 19:55:56
00023 suncat1049 pw.x -in pw.inp   Done                     12/18/2018 19:55:56
00024 suncat1049 pw.x -in pw.inp   Done                     12/18/2018 19:55:56
00025 suncat1049 pw.x -in pw.inp   Done                     12/18/2018 19:55:56
00026 suncat1049 pw.x -in pw.inp   Done                     12/18/2018 19:55:56
00027 suncat1049 pw.x -in pw.inp   Done                     12/18/2018 19:55:56
00028 suncat1049 pw.x -in pw.inp   Done                     12/18/2018 19:55:56
00029 suncat1049 pw.x -in pw.inp   Done                     12/18/2018 19:55:56
00030 suncat1049 pw.x -in pw.inp   Done                     12/18/2018 19:55:56
00031 suncat1049 pw.x -in pw.inp   Done                     12/18/2018 19:55:56

     Program PWSCF v.5.1rc2 (svn rev. 11289) starts on 18Dec2018 at 19:56: 2

[...]

     Check: negative/imaginary core charge=   -0.000001    0.000000

[...]

   This run was terminated on:  20: 7:57  18Dec2018

[...]

     Program PWSCF v.5.1rc2 (svn rev. 11289) starts on 18Dec2018 at 20: 8: 3

     Current dimensions of program PWSCF are:
     Max number of different atomic species (ntypx) = 10
     Max number of k-points (npk) =  40000
     Max angular momentum in pseudopotentials (lmaxx) =  3
     Presently stress not available with electric field

     IMPORTANT: XC functional enforced from input :
     Exchange-correlation      = BEEF-VDW ( 1  4 27 13 2)
     Any further DFT definition will be discarded
     Please, verify this is what you really want

     Subspace diagonalization in iterative solution of the eigenvalue problem:
     a serial algorithm will be used

     Found symmetry operation: I + ( -0.5000  0.0000  0.0000)
     This is a supercell, fractional translations are disabled

     bravais-lattice index     =            0
     lattice parameter (alat)  =       1.8897  a.u.
     unit-cell volume          =    4481.2752 (a.u.)^3
     number of atoms/cell      =           12
     number of atomic types    =            1
     number of electrons       =       192.00
     number of Kohn-Sham states=          106
     kinetic-energy cutoff     =      36.7493  Ry
     charge density cutoff     =     367.4932  Ry
     convergence threshold     =      1.0E-05
     mixing beta               =       0.2000
     number of iterations used =           10  plain     mixing
     Exchange-correlation      = BEEF-VDW ( 1  4 27 13 2)
     nstep                     =           50

     celldm(1)=   1.889726  celldm(2)=   0.000000  celldm(3)=   0.000000
     celldm(4)=   0.000000  celldm(5)=   0.000000  celldm(6)=   0.000000

     crystal axes: (cart. coord. in units of alat)
               a(1) = (   5.587338   0.000000   0.000000 )
               a(2) = (   2.793669   4.838777   0.000000 )
               a(3) = (   0.000000   0.000000  24.562042 )

     reciprocal axes: (cart. coord. in units 2 pi/alat)
               b(1) = (  0.178976 -0.103332  0.000000 )
               b(2) = (  0.000000  0.206664  0.000000 )
               b(3) = (  0.000000  0.000000  0.040713 )

     PseudoPot. # 1 for Pt read from file:
     /afs/slac.stanford.edu/u/if/mamunm/psp/gbrv1.5pbe/Pt.UPF
     MD5 check sum: f09d6de1a584b5a045c4fc126da2d0c4
     Pseudo is Ultrasoft + core correction, Zval = 16.0
     Generated by new atomic code, or converted to UPF format
     Using radial grid of  985 points,  6 beta functions with:
                l(1) =   0
                l(2) =   0
                l(3) =   1
                l(4) =   1
                l(5) =   2
                l(6) =   2
     Q(r) pseudized with  8 coefficients,  rinner =    1.300   1.300   1.300
                                                       1.300   1.300

     vdW kernel table read from file vdW_kernel_table
     MD5 check sum: 095c7af220d748ca6e76c0b4c6cfb241

     atomic species   valence    mass     pseudopotential
        Pt1           16.00   195.08400     Pt( 1.00)

     No symmetry found

   Cartesian axes

     site n.     atom                  positions (alat units)
         1           Pt1 tau(   1) = (   1.3968345   0.8064628  10.0000000  )
         2           Pt1 tau(   2) = (   4.1905036   0.8064628  10.0000000  )
         3           Pt1 tau(   3) = (   2.7936691   3.2258512  10.0000000  )
         4           Pt1 tau(   4) = (   5.5873381   3.2258512  10.0000000  )
         5           Pt1 tau(   5) = (   5.5873381   1.6129256  12.2810212  )
         6           Pt1 tau(   6) = (   2.7936691   1.6129256  12.2810212  )
         7           Pt1 tau(   7) = (   6.9841727   4.0323140  12.2810212  )
         8           Pt1 tau(   8) = (   4.1905036   4.0323140  12.2810212  )
         9           Pt1 tau(   9) = (   2.7937083   4.8387661  14.6259962  )
        10           Pt1 tau(  10) = (   5.5872990   4.8387208  14.6259426  )
        11           Pt1 tau(  11) = (   6.9841363   2.4193981  14.6259531  )
        12           Pt1 tau(  12) = (   4.1905407   2.4194424  14.6259038  )

     number of k points=    20  Fermi-Dirac smearing, width (Ry)=  0.0110
                       cart. coord. in units 2pi/alat
        k(    1) = (   0.0000000   0.0000000   0.0000000), wk =   0.0555556
        k(    2) = (   0.0000000   0.0344440   0.0000000), wk =   0.1111111
        k(    3) = (   0.0000000   0.0688879   0.0000000), wk =   0.1111111
        k(    4) = (   0.0000000  -0.1033319   0.0000000), wk =   0.0555556
        k(    5) = (   0.0298294  -0.0172220   0.0000000), wk =   0.1111111
        k(    6) = (   0.0298294   0.0172220   0.0000000), wk =   0.1111111
        k(    7) = (   0.0298294   0.0516660   0.0000000), wk =   0.1111111
        k(    8) = (   0.0298294  -0.1205539   0.0000000), wk =   0.1111111
        k(    9) = (   0.0298294  -0.0861099   0.0000000), wk =   0.1111111
        k(   10) = (   0.0298294  -0.0516660   0.0000000), wk =   0.1111111
        k(   11) = (   0.0596587  -0.0344440   0.0000000), wk =   0.1111111
        k(   12) = (   0.0596587   0.0000000   0.0000000), wk =   0.1111111
        k(   13) = (   0.0596587   0.0344440   0.0000000), wk =   0.1111111
        k(   14) = (   0.0596587  -0.1377759   0.0000000), wk =   0.1111111
        k(   15) = (   0.0596587  -0.1033319   0.0000000), wk =   0.1111111
        k(   16) = (   0.0596587  -0.0688879   0.0000000), wk =   0.1111111
        k(   17) = (  -0.0894881   0.0516660   0.0000000), wk =   0.0555556
        k(   18) = (  -0.0894881   0.0861099   0.0000000), wk =   0.1111111
        k(   19) = (  -0.0894881   0.1205539   0.0000000), wk =   0.1111111
        k(   20) = (  -0.0894881  -0.0516660   0.0000000), wk =   0.0555556

     Largest allocated arrays     est. size (Mb)     dimensions
     Largest temporary arrays     est. size (Mb)     dimensions

     Check: negative/imaginary core charge=   -0.000001    0.000000

     Initial potential from superposition of free atoms
     Check: negative starting charge=   -2.200597

     starting charge  185.99986, renormalised to  192.00000

[...]

     *
     * You are using vdW-DF for exchange-correlation in this calculation.
     * Please cite the following three references that made this development
     * possible:
     *
     *   M. Dion, H. Rydberg, E. Schroder, D. C. Langreth, and
     *   B. I. Lundqvist, Phys. Rev. Lett. 92, 246401 (2004).
     *
     *   T. Thonhauser, V. R. Cooper, S. Li, A. Puzder, P. Hyldgaard, and
     *   D. C. Langreth, Phys. Rev. B 76, 125112 (2007).
     *
     *   G. Roman-Perez and J. M. Soler, Phys. Rev. Lett. 103, 096102 (2009).
     *
     *
     * If you are using vdW-DF2, please also cite:
     *
     *   K. Lee, E. D. Murray, L. Kong, B. I. Lundqvist, and
     *   D. C. Langreth, Phys. Rev. B 82, 081101(R) (2010).
     *
     *
     * If you are calculating the stress with vdW-DF, please also cite:
     *
     *   R. Sabatini, E. Kucukbenli, B. Kolb, T. Thonhauser, and
     *   S. de Gironcoli, J. Phys.: Condens. Matter 24, 424209 (2012).
     *

     Carrying out vdW-DF run using the following parameters:

     Nqs =      20    Nr_points =    1024   r_max =   100.000
     q_mesh =
               0.00001000     0.04494208     0.09755937     0.15916263
               0.23128650     0.31572767     0.41458969     0.53033537
               0.66584808     0.82450364     1.01025438     1.22772762
               1.48234092     1.78043706     2.12944203     2.53805004
               3.01644009     3.57652955     4.23227104     5.00000000

     Gradients computed in reciprocal space

[...]

     Starting wfc are  144 randomized atomic wfcs

     Self-consistent Calculation

[...]

     total energy              =   -2548.15793530 Ry
     Harris-Foulkes estimate   =   -2548.15793624 Ry
     estimated scf accuracy    <       0.00003626 Ry

     iteration # 15     ecut=    36.75 Ry     beta=0.20
     Davidson diagonalization with overlap
     ethr =  1.76E-08,  avg # of iterations =  1.0

[...]

     negative rho (up, down):  2.117E+00 0.000E+00

     Adding external electric field

     Computed dipole along edir(3) :
        Dipole               -0.0046 Ry au,         -0.0118 Debye
        Dipole field         -0.0000 Ry au

        Potential amp.        0.0012 Ry
        Total length         45.2551 bohr

     End of self-consistent calculation

[...]

          k = 0.0597-0.0689 0.0000 ( 16875 PWs)   bands (ev):

[...]

          k =-0.0895-0.0517 0.0000 ( 16880 PWs)   bands (ev):

   -51.2138 -51.2138 -51.1135 -51.1134 -51.0995 -51.0995 -51.0928 -51.0928
   -51.0815 -51.0815 -50.9878 -50.9877 -50.9057 -50.9057 -50.8521 -50.8520
   -50.8142 -50.8142 -50.7949 -50.7949 -50.7592 -50.7591 -50.7397 -50.7396
   -50.6974 -50.6974 -50.6407 -50.6407 -50.5317 -50.5316 -50.5180 -50.5179
   -50.4540 -50.4539 -50.4389 -50.4388  -5.2049  -5.2048  -3.9096  -3.9096
    -3.5334  -3.5333  -3.5010  -3.5009  -3.4251  -3.4250  -2.9759  -2.9759
    -2.7451  -2.7451  -2.5665  -2.5665  -2.2304  -2.2303  -2.2293  -2.2293
    -2.0712  -2.0711  -1.6968  -1.6968  -1.3163  -1.3162  -1.3127  -1.3126
    -1.1954  -1.1953  -0.9826  -0.9825  -0.9686  -0.9685  -0.9460  -0.9458
    -0.8080  -0.8079  -0.7889  -0.7889  -0.2508  -0.2507  -0.0753  -0.0752
     0.0034   0.0035   0.2013   0.2013   0.3104   0.3107   0.4697   0.4700
     0.8501   0.8501   0.9100   0.9100   1.0677   1.0678   1.4981   1.4981
     1.6514   1.6515   1.9333   1.9333   3.3812   3.3813   3.9347   3.9347
     4.7789   4.7790

     the Fermi energy is     1.6849 ev

!    total energy              =   -2548.15793779 Ry
     Harris-Foulkes estimate   =   -2548.15793638 Ry
     estimated scf accuracy    <       0.00000049 Ry

     The total energy is the sum of the following terms:

     one-electron contribution =  -19956.97540707 Ry
     hartree contribution      =   10014.92426986 Ry
     xc contribution           =    -703.31843092 Ry
     ewald contribution        =    8097.32630914 Ry
     electric field correction =       0.00000006 Ry
     smearing contrib. (-TS)   =      -0.11467886 Ry

     convergence has been achieved in  15 iterations

 BEEF-vdW xc energy contributions
           1 :   -626.338384199831
           2 :    583.064097558533
           3 :   -505.393095884610
           4 :    408.043990486895
           5 :   -307.189889614882
           6 :    216.300639462103
           7 :   -143.436797232335
           8 :    90.5518349558030
           9 :   -54.7259247715309
          10 :    30.5937195625412
          11 :   -12.9226148251261
          12 :   -1.61932051883377
          13 :    13.9636315135318
          14 :   -23.2992140500447
          15 :    28.3319876500703
          16 :   -28.4751777805292
          17 :    24.4450215881905
          18 :   -18.1048364973070
          19 :    11.7528776695445
          20 :   -7.26450993151479
          21 :    5.48302902001035
          22 :   -6.09378865106510
          23 :    7.96906265339987
          24 :   -9.77704826841239
          25 :    10.5583293149448
          26 :   -10.0386588786207
          27 :    8.59359087067912
          28 :   -6.94529275999150
          29 :    5.76591259117470
          30 :   -5.37876948218866
          31 :   -51.2621135573502
          32 :   -37.9196683921949

     Forces acting on atoms (Ry/au):

     negative rho (up, down):  2.117E+00 0.000E+00
     atom    1 type  1   force =    -0.00000006   -0.00000356   -0.01544439
     atom    2 type  1   force =     0.00000030   -0.00000591   -0.01542300
     atom    3 type  1   force =    -0.00000136    0.00000411   -0.01545244
     atom    4 type  1   force =     0.00000116    0.00000484   -0.01542539
     atom    5 type  1   force =     0.00000097   -0.00000413    0.01468119
     atom    6 type  1   force =    -0.00000099   -0.00000064    0.01469466
     atom    7 type  1   force =     0.00000310    0.00000270    0.01469527
     atom    8 type  1   force =    -0.00000341    0.00000274    0.01468790
     atom    9 type  1   force =    -0.00002382    0.00000228    0.00074512
     atom   10 type  1   force =     0.00002431    0.00002718    0.00073400
     atom   11 type  1   force =     0.00002084   -0.00000122    0.00074950
     atom   12 type  1   force =    -0.00002106   -0.00002839    0.00075758

     Total force =     0.042644     Total SCF correction =     0.005002
     SCF correction compared to forces is large: reduce conv_thr to get better values

     entering subroutine stress ...

     negative rho (up, down):  2.117E+00 0.000E+00
          total   stress  (Ry/bohr**3)                   (kbar)     P=  -13.35
  -0.00015899   0.00000000   0.00000000        -23.39      0.00      0.00
   0.00000000  -0.00015899   0.00000000          0.00    -23.39      0.00
   0.00000000   0.00000000   0.00004564          0.00      0.00      6.71

 !ASE

     Writing output data file calc.save

     General routines

     Parallel routines

   This run was terminated on:  20:20: 4  18Dec2018

   JOB DONE.
Job  /afs/slac/g/suncat/bin/suncat-tsmpirun -x LD_LIBRARY_PATH -wdir /scratch/qe529430_IgFGs pw.x -in pw.inp

TID   HOST_NAME   COMMAND_LINE            STATUS            TERMINATION_TIME
00000 suncat1061 pw.x -in pw.inp   Done                     12/18/2018 20:20:04
00001 suncat1061 pw.x -in pw.inp   Done                     12/18/2018 20:20:04
00002 suncat1061 pw.x -in pw.inp   Done                     12/18/2018 20:20:04
00003 suncat1061 pw.x -in pw.inp   Done                     12/18/2018 20:20:04
00004 suncat1061 pw.x -in pw.inp   Done                     12/18/2018 20:20:04
00005 suncat1061 pw.x -in pw.inp   Done                     12/18/2018 20:20:04
00006 suncat1061 pw.x -in pw.inp   Done                     12/18/2018 20:20:04
00007 suncat1061 pw.x -in pw.inp   Done                     12/18/2018 20:20:04
00008 suncat1050 pw.x -in pw.inp   Done                     12/18/2018 20:20:04
00009 suncat1050 pw.x -in pw.inp   Done                     12/18/2018 20:20:04
00010 suncat1050 pw.x -in pw.inp   Done                     12/18/2018 20:20:04
00011 suncat1050 pw.x -in pw.inp   Done                     12/18/2018 20:20:04
00012 suncat1050 pw.x -in pw.inp   Done                     12/18/2018 20:20:04
00013 suncat1050 pw.x -in pw.inp   Done                     12/18/2018 20:20:04
00014 suncat1050 pw.x -in pw.inp   Done                     12/18/2018 20:20:04
00015 suncat1050 pw.x -in pw.inp   Done                     12/18/2018 20:20:04
00016 suncat1050 pw.x -in pw.inp   Done                     12/18/2018 20:20:04
00017 suncat1050 pw.x -in pw.inp   Done                     12/18/2018 20:20:04
00018 suncat1050 pw.x -in pw.inp   Done                     12/18/2018 20:20:04
00019 suncat1050 pw.x -in pw.inp   Done                     12/18/2018 20:20:04
00020 suncat1049 pw.x -in pw.inp   Done                     12/18/2018 20:20:04
00021 suncat1049 pw.x -in pw.inp   Done                     12/18/2018 20:20:04
00022 suncat1049 pw.x -in pw.inp   Done                     12/18/2018 20:20:04
00023 suncat1049 pw.x -in pw.inp   Done                     12/18/2018 20:20:04
00024 suncat1049 pw.x -in pw.inp   Done                     12/18/2018 20:20:04
00025 suncat1049 pw.x -in pw.inp   Done                     12/18/2018 20:20:04
00026 suncat1049 pw.x -in pw.inp   Done                     12/18/2018 20:20:04
00027 suncat1049 pw.x -in pw.inp   Done                     12/18/2018 20:20:04
00028 suncat1049 pw.x -in pw.inp   Done                     12/18/2018 20:20:04
00029 suncat1049 pw.x -in pw.inp   Done                     12/18/2018 20:20:04
00030 suncat1049 pw.x -in pw.inp   Done                     12/18/2018 20:20:04
00031 suncat1049 pw.x -in pw.inp   Done                     12/18/2018 20:20:04