     Program PWSCF v.5.1rc2 (svn rev. 11289) starts on 18Dec2018 at 21: 3:15

     Current dimensions of program PWSCF are:
     Max number of different atomic species (ntypx) = 10
     Max number of k-points (npk) =  40000
     Max angular momentum in pseudopotentials (lmaxx) =  3
     Presently stress not available with electric field

     IMPORTANT: XC functional enforced from input :
     Exchange-correlation      = BEEF-VDW ( 1  4 27 13 2)
     Any further DFT definition will be discarded
     Please, verify this is what you really want

     Subspace diagonalization in iterative solution of the eigenvalue problem:
     a serial algorithm will be used

     Found symmetry operation: I + ( -0.5000  0.0000  0.0000)
     This is a supercell, fractional translations are disabled

     bravais-lattice index     =            0
     lattice parameter (alat)  =       1.8897  a.u.
     unit-cell volume          =    6655.4371 (a.u.)^3
     number of atoms/cell      =           12
     number of atomic types    =            1
     number of electrons       =       156.00
     number of Kohn-Sham states=           88
     kinetic-energy cutoff     =      36.7493  Ry
     charge density cutoff     =     367.4932  Ry
     convergence threshold     =      1.0E-05
     mixing beta               =       0.2000
     number of iterations used =           10  plain     mixing
     Exchange-correlation      = BEEF-VDW ( 1  4 27 13 2)
     nstep                     =           50

     celldm(1)=   1.889726  celldm(2)=   0.000000  celldm(3)=   0.000000
     celldm(4)=   0.000000  celldm(5)=   0.000000  celldm(6)=   0.000000

     crystal axes: (cart. coord. in units of alat)
               a(1) = (   6.687903   0.000000   0.000000 )
               a(2) = (   3.343951   5.791894   0.000000 )
               a(3) = (   0.000000   0.000000  25.460650 )

     reciprocal axes: (cart. coord. in units 2 pi/alat)
               b(1) = (  0.149524 -0.086328  0.000000 )
               b(2) = (  0.000000  0.172655  0.000000 )
               b(3) = (  0.000000  0.000000  0.039276 )

     PseudoPot. # 1 for Tl read from file:
     /afs/slac.stanford.edu/u/if/mamunm/psp/gbrv1.5pbe/Tl.UPF
     MD5 check sum: b76cf1f7e72655a2b2c53cf6385d7059
     Pseudo is Ultrasoft + core correction, Zval = 13.0
     Generated by new atomic code, or converted to UPF format
     Using radial grid of  899 points,  6 beta functions with:
                l(1) =   0
                l(2) =   0
                l(3) =   1
                l(4) =   1
                l(5) =   2
                l(6) =   2
     Q(r) pseudized with  6 coefficients,  rinner =    1.100   1.100   1.100
                                                       1.100   1.100

     vdW kernel table read from file vdW_kernel_table
     MD5 check sum: 095c7af220d748ca6e76c0b4c6cfb241

     atomic species   valence    mass     pseudopotential
        Tl1           13.00   204.38000     Tl( 1.00)

     No symmetry found

   Cartesian axes

     site n.     atom                  positions (alat units)
         1           Tl1 tau(   1) = (   1.6719756   0.9653156  10.0000000  )
         2           Tl1 tau(   2) = (   5.0159269   0.9653156  10.0000000  )
         3           Tl1 tau(   3) = (   3.3439513   3.8612623  10.0000000  )
         4           Tl1 tau(   4) = (   6.6879026   3.8612623  10.0000000  )
         5           Tl1 tau(   5) = (   6.6879026   1.9306312  12.7303248  )
         6           Tl1 tau(   6) = (   3.3439513   1.9306312  12.7303248  )
         7           Tl1 tau(   7) = (   8.3598782   4.8265779  12.7303248  )
         8           Tl1 tau(   8) = (   5.0159269   4.8265779  12.7303248  )
         9           Tl1 tau(   9) = (   0.0000000   0.0000000  15.4606496  )
        10           Tl1 tau(  10) = (   3.3439513   0.0000000  15.4606496  )
        11           Tl1 tau(  11) = (   1.6719756   2.8959468  15.4606496  )
        12           Tl1 tau(  12) = (   5.0159269   2.8959468  15.4606496  )

     number of k points=    20  Fermi-Dirac smearing, width (Ry)=  0.0110
                       cart. coord. in units 2pi/alat
        k(    1) = (   0.0000000   0.0000000   0.0000000), wk =   0.0555556
        k(    2) = (   0.0000000   0.0287759   0.0000000), wk =   0.1111111
        k(    3) = (   0.0000000   0.0575517   0.0000000), wk =   0.1111111
        k(    4) = (   0.0000000  -0.0863276   0.0000000), wk =   0.0555556
        k(    5) = (   0.0249206  -0.0143879   0.0000000), wk =   0.1111111
        k(    6) = (   0.0249206   0.0143879   0.0000000), wk =   0.1111111
        k(    7) = (   0.0249206   0.0431638   0.0000000), wk =   0.1111111
        k(    8) = (   0.0249206  -0.1007155   0.0000000), wk =   0.1111111
        k(    9) = (   0.0249206  -0.0719396   0.0000000), wk =   0.1111111
        k(   10) = (   0.0249206  -0.0431638   0.0000000), wk =   0.1111111
        k(   11) = (   0.0498412  -0.0287759   0.0000000), wk =   0.1111111
        k(   12) = (   0.0498412  -0.0000000   0.0000000), wk =   0.1111111
        k(   13) = (   0.0498412   0.0287759   0.0000000), wk =   0.1111111
        k(   14) = (   0.0498412  -0.1151034   0.0000000), wk =   0.1111111
        k(   15) = (   0.0498412  -0.0863276   0.0000000), wk =   0.1111111
        k(   16) = (   0.0498412  -0.0575517   0.0000000), wk =   0.1111111
        k(   17) = (  -0.0747619   0.0431638   0.0000000), wk =   0.0555556
        k(   18) = (  -0.0747619   0.0719396   0.0000000), wk =   0.1111111
        k(   19) = (  -0.0747619   0.1007155   0.0000000), wk =   0.1111111
        k(   20) = (  -0.0747619  -0.0431638   0.0000000), wk =   0.0555556

     Largest allocated arrays     est. size (Mb)     dimensions
     Largest temporary arrays     est. size (Mb)     dimensions

     Check: negative/imaginary core charge=   -0.000001    0.000000

     Initial potential from superposition of free atoms
     Check: negative starting charge=   -0.604846

     starting charge  155.94161, renormalised to  156.00000

     negative rho (up, down):  6.051E-01 0.000E+00

     *
     * You are using vdW-DF for exchange-correlation in this calculation.
     * Please cite the following three references that made this development
     * possible:
     *
     *   M. Dion, H. Rydberg, E. Schroder, D. C. Langreth, and
     *   B. I. Lundqvist, Phys. Rev. Lett. 92, 246401 (2004).
     *
     *   T. Thonhauser, V. R. Cooper, S. Li, A. Puzder, P. Hyldgaard, and
     *   D. C. Langreth, Phys. Rev. B 76, 125112 (2007).
     *
     *   G. Roman-Perez and J. M. Soler, Phys. Rev. Lett. 103, 096102 (2009).
     *
     *
     * If you are using vdW-DF2, please also cite:
     *
     *   K. Lee, E. D. Murray, L. Kong, B. I. Lundqvist, and
     *   D. C. Langreth, Phys. Rev. B 82, 081101(R) (2010).
     *
     *
     * If you are calculating the stress with vdW-DF, please also cite:
     *
     *   R. Sabatini, E. Kucukbenli, B. Kolb, T. Thonhauser, and
     *   S. de Gironcoli, J. Phys.: Condens. Matter 24, 424209 (2012).
     *

     Carrying out vdW-DF run using the following parameters:

     Nqs =      20    Nr_points =    1024   r_max =   100.000
     q_mesh =
               0.00001000     0.04494208     0.09755937     0.15916263
               0.23128650     0.31572767     0.41458969     0.53033537
               0.66584808     0.82450364     1.01025438     1.22772762
               1.48234092     1.78043706     2.12944203     2.53805004
               3.01644009     3.57652955     4.23227104     5.00000000

     Gradients computed in reciprocal space

     Adding external electric field

     Computed dipole along edir(3) :
        Dipole               -0.0000 Ry au,         -0.0000 Debye
        Dipole field         -0.0000 Ry au

        Potential amp.        0.0000 Ry
        Total length         46.9108 bohr

     Starting wfc are  108 randomized atomic wfcs

     Self-consistent Calculation

     iteration #  1     ecut=    36.75 Ry     beta=0.20
     Davidson diagonalization with overlap
     ethr =  1.00E-02,  avg # of iterations =  2.0

     Threshold (ethr) on eigenvalues was too large:
     Diagonalizing with lowered threshold

     Davidson diagonalization with overlap
     ethr =  6.03E-05,  avg # of iterations =  4.0

[...]

     total energy              =   -1761.50759867 Ry
     Harris-Foulkes estimate   =   -1761.54664800 Ry
     estimated scf accuracy    <       0.14237454 Ry

[...]

     End of self-consistent calculation

          k = 0.0000 0.0000 0.0000 ( 24957 PWs)   bands (ev):

   -11.1660 -11.1660 -11.1660 -11.0404 -11.0404 -11.0404 -11.0350 -11.0350
   -11.0350 -11.0338 -10.9987 -10.9987 -10.9987 -10.9275 -10.8466 -10.8232
   -10.8232 -10.8232 -10.7921 -10.7921 -10.7921 -10.7870 -10.7870 -10.7774
   -10.7773 -10.7423 -10.7423 -10.7313 -10.7313 -10.7313 -10.5116 -10.5116
   -10.5116 -10.5089 -10.5089 -10.4457 -10.4456 -10.4456 -10.4336 -10.4336
   -10.3310 -10.3310 -10.3310 -10.3050 -10.3050 -10.3050 -10.2874 -10.2874
   -10.2387 -10.2387 -10.2387 -10.2092 -10.2092 -10.2092 -10.1958 -10.1958
   -10.1958 -10.1715 -10.1715 -10.1715  -8.8979  -7.5034  -5.4151  -4.0885
    -4.0885  -4.0885  -3.7359  -3.7358  -3.7358  -2.7687  -2.7687  -2.7687
    -1.2529  -1.2529  -1.2529  -0.8813   0.1139   0.1139   0.1139   0.2752
     0.2752   0.2752   1.9151   3.8185   4.1768   4.1769   4.1769   4.2207

[...]

          k =-0.0748 0.0432 0.0000 ( 25090 PWs)   bands (ev):

[...]

     the Fermi energy is     1.2015 ev

!    total energy              =   -1761.52922999 Ry
     Harris-Foulkes estimate   =   -1761.52923022 Ry
     estimated scf accuracy    <       0.00000338 Ry

     The total energy is the sum of the following terms:

     one-electron contribution =   -8661.08967784 Ry
     hartree contribution      =    4413.74231800 Ry
     xc contribution           =    -768.50380697 Ry
     ewald contribution        =    3254.36259305 Ry
     electric field correction =       0.00000006 Ry
     smearing contrib. (-TS)   =      -0.04065630 Ry

     convergence has been achieved in   9 iterations

 BEEF-vdW xc energy contributions
           1 :   -684.907946720987
           2 :    636.177279486957
           3 :   -550.330131567523
           4 :    446.023379134688
           5 :   -342.422182213337
           6 :    253.457078518118
           7 :   -184.972807929764
           8 :    135.323559609424
           9 :   -98.5918650777764
          10 :    68.5966306641153
          11 :   -41.8262359913535
          12 :    18.1847089452501
          13 :   0.295623697399833
          14 :   -11.6662490589142
          15 :    15.7990573809922
          16 :   -14.7756988392498
          17 :    11.9172539191610
          18 :   -10.1880774730248
          19 :    10.9191438777116
          20 :   -13.5163471680814
          21 :    16.2004580795776
          22 :   -17.2699292319910
          23 :    16.1305292024606
          24 :   -13.5463020963705
          25 :    11.0470691194519
          26 :   -9.92618051364752
          27 :    10.4569115174199
          28 :   -11.7843758515367
          29 :    12.5115602179440
          30 :   -11.5922304404130
          31 :   -54.9056733147506
[...]
00019 suncat1050 pw.x -in pw.inp   Done                     12/18/2018 21:14:47
00020 suncat1049 pw.x -in pw.inp   Done                     12/18/2018 21:14:47
00021 suncat1049 pw.x -in pw.inp   Done                     12/18/2018 21:14:47
00022 suncat1049 pw.x -in pw.inp   Done                     12/18/2018 21:14:47
00023 suncat1049 pw.x -in pw.inp   Done                     12/18/2018 21:14:47
00024 suncat1049 pw.x -in pw.inp   Done                     12/18/2018 21:14:47
00025 suncat1049 pw.x -in pw.inp   Done                     12/18/2018 21:14:47
00026 suncat1049 pw.x -in pw.inp   Done                     12/18/2018 21:14:47
00027 suncat1049 pw.x -in pw.inp   Done                     12/18/2018 21:14:47
00028 suncat1049 pw.x -in pw.inp   Done                     12/18/2018 21:14:47
00029 suncat1049 pw.x -in pw.inp   Done                     12/18/2018 21:14:47
00030 suncat1049 pw.x -in pw.inp   Done                     12/18/2018 21:14:47
00031 suncat1049 pw.x -in pw.inp   Done                     12/18/2018 21:14:47

     Program PWSCF v.5.1rc2 (svn rev. 11289) starts on 18Dec2018 at 21:14:53

[...]

     Total force =     0.050654     Total SCF correction =     0.004838

[...]

     Program PWSCF v.5.1rc2 (svn rev. 11289) starts on 18Dec2018 at 21:26:16

     Current dimensions of program PWSCF are:
     Max number of different atomic species (ntypx) = 10
     Max number of k-points (npk) =  40000
     Max angular momentum in pseudopotentials (lmaxx) =  3
     Presently stress not available with electric field

     IMPORTANT: XC functional enforced from input :
     Exchange-correlation      = BEEF-VDW ( 1  4 27 13 2)
     Any further DFT definition will be discarded
     Please, verify this is what you really want

     Subspace diagonalization in iterative solution of the eigenvalue problem:
     a serial algorithm will be used

     bravais-lattice index     =            0
     lattice parameter (alat)  =       1.8897  a.u.
     unit-cell volume          =    6655.4371 (a.u.)^3
     number of atoms/cell      =           12
     number of atomic types    =            1
     number of electrons       =       156.00
     number of Kohn-Sham states=           88
     kinetic-energy cutoff     =      36.7493  Ry
     charge density cutoff     =     367.4932  Ry
     convergence threshold     =      1.0E-05
     mixing beta               =       0.2000
     number of iterations used =           10  plain     mixing
     Exchange-correlation      = BEEF-VDW ( 1  4 27 13 2)
     nstep                     =           50

     celldm(1)=   1.889726  celldm(2)=   0.000000  celldm(3)=   0.000000
     celldm(4)=   0.000000  celldm(5)=   0.000000  celldm(6)=   0.000000

     crystal axes: (cart. coord. in units of alat)
               a(1) = (   6.687903   0.000000   0.000000 )
               a(2) = (   3.343951   5.791894   0.000000 )
               a(3) = (   0.000000   0.000000  25.460650 )

     reciprocal axes: (cart. coord. in units 2 pi/alat)
               b(1) = (  0.149524 -0.086328  0.000000 )
               b(2) = (  0.000000  0.172655  0.000000 )
               b(3) = (  0.000000  0.000000  0.039276 )

     PseudoPot. # 1 for Tl read from file:
     /afs/slac.stanford.edu/u/if/mamunm/psp/gbrv1.5pbe/Tl.UPF
     MD5 check sum: b76cf1f7e72655a2b2c53cf6385d7059
     Pseudo is Ultrasoft + core correction, Zval = 13.0
     Generated by new atomic code, or converted to UPF format
     Using radial grid of  899 points,  6 beta functions with:
                l(1) =   0
                l(2) =   0
                l(3) =   1
                l(4) =   1
                l(5) =   2
                l(6) =   2
     Q(r) pseudized with  6 coefficients,  rinner =    1.100   1.100   1.100
                                                       1.100   1.100

     vdW kernel table read from file vdW_kernel_table
     MD5 check sum: 095c7af220d748ca6e76c0b4c6cfb241

     atomic species   valence    mass     pseudopotential
        Tl1           13.00   204.38000     Tl( 1.00)

     No symmetry found

   Cartesian axes

     site n.     atom                  positions (alat units)
         1           Tl1 tau(   1) = (   1.6719756   0.9653156  10.0000000  )
         2           Tl1 tau(   2) = (   5.0159269   0.9653156  10.0000000  )
         3           Tl1 tau(   3) = (   3.3439513   3.8612623  10.0000000  )
         4           Tl1 tau(   4) = (   6.6879026   3.8612623  10.0000000  )
         5           Tl1 tau(   5) = (   6.6879026   1.9306312  12.7303248  )
         6           Tl1 tau(   6) = (   3.3439513   1.9306312  12.7303248  )
         7           Tl1 tau(   7) = (   8.3598782   4.8265779  12.7303248  )
         8           Tl1 tau(   8) = (   5.0159269   4.8265779  12.7303248  )
         9           Tl1 tau(   9) = (   3.3439677   5.7915921  15.7189727  )
        10           Tl1 tau(  10) = (   3.3440212   0.0000395  15.7190178  )
        11           Tl1 tau(  11) = (   1.6721293   2.8961203  15.7188034  )
        12           Tl1 tau(  12) = (   5.0157752   2.8959965  15.7189412  )

     number of k points=    20  Fermi-Dirac smearing, width (Ry)=  0.0110
                       cart. coord. in units 2pi/alat
        k(    1) = (   0.0000000   0.0000000   0.0000000), wk =   0.0555556
        k(    2) = (   0.0000000   0.0287759   0.0000000), wk =   0.1111111
        k(    3) = (   0.0000000   0.0575517   0.0000000), wk =   0.1111111
        k(    4) = (   0.0000000  -0.0863276   0.0000000), wk =   0.0555556
        k(    5) = (   0.0249206  -0.0143879   0.0000000), wk =   0.1111111
        k(    6) = (   0.0249206   0.0143879   0.0000000), wk =   0.1111111
        k(    7) = (   0.0249206   0.0431638   0.0000000), wk =   0.1111111
        k(    8) = (   0.0249206  -0.1007155   0.0000000), wk =   0.1111111
        k(    9) = (   0.0249206  -0.0719396   0.0000000), wk =   0.1111111
        k(   10) = (   0.0249206  -0.0431638   0.0000000), wk =   0.1111111
        k(   11) = (   0.0498412  -0.0287759   0.0000000), wk =   0.1111111
        k(   12) = (   0.0498412  -0.0000000   0.0000000), wk =   0.1111111
        k(   13) = (   0.0498412   0.0287759   0.0000000), wk =   0.1111111
        k(   14) = (   0.0498412  -0.1151034   0.0000000), wk =   0.1111111
        k(   15) = (   0.0498412  -0.0863276   0.0000000), wk =   0.1111111
        k(   16) = (   0.0498412  -0.0575517   0.0000000), wk =   0.1111111
        k(   17) = (  -0.0747619   0.0431638   0.0000000), wk =   0.0555556
        k(   18) = (  -0.0747619   0.0719396   0.0000000), wk =   0.1111111
        k(   19) = (  -0.0747619   0.1007155   0.0000000), wk =   0.1111111
        k(   20) = (  -0.0747619  -0.0431638   0.0000000), wk =   0.0555556

     Largest allocated arrays     est. size (Mb)     dimensions
     Largest temporary arrays     est. size (Mb)     dimensions

     Check: negative/imaginary core charge=   -0.000001    0.000000

     Initial potential from superposition of free atoms
     Check: negative starting charge=   -0.604891

     starting charge  155.94161, renormalised to  156.00000

[...]

     *
     * You are using vdW-DF for exchange-correlation in this calculation.
     * Please cite the following three references that made this development
     * possible:
     *
     *   M. Dion, H. Rydberg, E. Schroder, D. C. Langreth, and
     *   B. I. Lundqvist, Phys. Rev. Lett. 92, 246401 (2004).
     *
     *   T. Thonhauser, V. R. Cooper, S. Li, A. Puzder, P. Hyldgaard, and
     *   D. C. Langreth, Phys. Rev. B 76, 125112 (2007).
     *
     *   G. Roman-Perez and J. M. Soler, Phys. Rev. Lett. 103, 096102 (2009).
     *
     *
     * If you are using vdW-DF2, please also cite:
     *
     *   K. Lee, E. D. Murray, L. Kong, B. I. Lundqvist, and
     *   D. C. Langreth, Phys. Rev. B 82, 081101(R) (2010).
     *
     *
     * If you are calculating the stress with vdW-DF, please also cite:
     *
     *   R. Sabatini, E. Kucukbenli, B. Kolb, T. Thonhauser, and
     *   S. de Gironcoli, J. Phys.: Condens. Matter 24, 424209 (2012).
     *

     Carrying out vdW-DF run using the following parameters:

     Nqs =      20    Nr_points =    1024   r_max =   100.000
     q_mesh =
               0.00001000     0.04494208     0.09755937     0.15916263
               0.23128650     0.31572767     0.41458969     0.53033537
               0.66584808     0.82450364     1.01025438     1.22772762
               1.48234092     1.78043706     2.12944203     2.53805004
               3.01644009     3.57652955     4.23227104     5.00000000

     Gradients computed in reciprocal space

[...]

     Starting wfc are  108 randomized atomic wfcs

     Self-consistent Calculation

[...]

     Threshold (ethr) on eigenvalues was too large:
     Diagonalizing with lowered threshold

     Davidson diagonalization with overlap
     ethr =  7.09E-05,  avg # of iterations =  4.0

[...]

     total energy              =   -1761.55109835 Ry
     Harris-Foulkes estimate   =   -1761.55110313 Ry
     estimated scf accuracy    <       0.00010451 Ry

     iteration #  9     ecut=    36.75 Ry     beta=0.20
     Davidson diagonalization with overlap
     ethr =  6.46E-08,  avg # of iterations =  3.0

[...]

     negative rho (up, down):  6.312E-01 0.000E+00

     Adding external electric field

     Computed dipole along edir(3) :
        Dipole                0.0249 Ry au,          0.0632 Debye
        Dipole field          0.0000 Ry au

        Potential amp.       -0.0044 Ry
        Total length         46.9108 bohr

     End of self-consistent calculation

[...]

          k = 0.0498-0.0576 0.0000 ( 25036 PWs)   bands (ev):

[...]

          k =-0.0748-0.0432 0.0000 ( 25090 PWs)   bands (ev):

   -10.9303 -10.9303 -10.8560 -10.8559 -10.8373 -10.8373 -10.8293 -10.8292
   -10.7882 -10.7881 -10.7613 -10.7613 -10.7060 -10.7060 -10.7015 -10.7013
   -10.6877 -10.6876 -10.6777 -10.6777 -10.6338 -10.6337 -10.5981 -10.5980
   -10.5854 -10.5853 -10.5659 -10.5659 -10.5642 -10.5642 -10.5544 -10.5543
   -10.4951 -10.4951 -10.4505 -10.4505 -10.4423 -10.4422 -10.4325 -10.4325
   -10.4186 -10.4185 -10.4102 -10.4099 -10.3986 -10.3986 -10.3682 -10.3682
   -10.3678 -10.3678 -10.3470 -10.3470 -10.2724 -10.2724 -10.2334 -10.2334
   -10.2260 -10.2260 -10.1415 -10.1415  -7.3154  -7.3152  -6.1285  -6.1277
    -4.7731  -4.7731  -4.5132  -4.5130  -3.7865  -3.7863  -2.6555  -2.6554
     0.5268   0.5271   1.0589   1.0589   1.2862   1.2864   2.0749   2.0751
     2.5585   2.5585   2.6569   2.6571   3.7989   3.7990   3.9035   3.9036

     the Fermi energy is     1.2889 ev

!    total energy              =   -1761.55109783 Ry
     Harris-Foulkes estimate   =   -1761.55111446 Ry
     estimated scf accuracy    <       0.00000739 Ry

     The total energy is the sum of the following terms:

     one-electron contribution =   -8342.96099433 Ry
     hartree contribution      =    4254.94025562 Ry
     xc contribution           =    -768.36156631 Ry
     ewald contribution        =    3094.87081469 Ry
     electric field correction =       0.00000117 Ry
     smearing contrib. (-TS)   =      -0.03960866 Ry

     convergence has been achieved in   9 iterations

 BEEF-vdW xc energy contributions
           1 :   -684.750241900285
           2 :    635.899150449571
           3 :   -549.915793820646
           4 :    445.589489592110
           5 :   -342.144177688426
           6 :    253.446045629966
           7 :   -185.189947302245
           8 :    135.593382518161
           9 :   -98.7071485624371
          10 :    68.4495015835674
          11 :   -41.4802946154861
          12 :    17.8377717282366
          13 :   0.436674545683331
          14 :   -11.5182956886740
          15 :    15.4565299212021
          16 :   -14.4511938629265
          17 :    11.8075460948210
          18 :   -10.3503735843444
          19 :    11.2363461044705
          20 :   -13.7730838750230
          21 :    16.2197695237952
          22 :   -17.0253843213203
          23 :    15.7635275012586
          24 :   -13.2766577987359
          25 :    11.0329772647627
          26 :   -10.1640410182514
          27 :    10.7853138448932
          28 :   -11.9879983062478
          29 :    12.4574819194966
          30 :   -11.3128486651666
          31 :   -54.8908203667204
          32 :   -40.1642462240138

     Forces acting on atoms (Ry/au):

     negative rho (up, down):  6.312E-01 0.000E+00
     atom    1 type  1   force =    -0.00002055    0.00001236   -0.01718061
     atom    2 type  1   force =     0.00002006   -0.00000931   -0.01716325
     atom    3 type  1   force =    -0.00000689   -0.00000090   -0.01715144
     atom    4 type  1   force =     0.00000918   -0.00001406   -0.01713479
     atom    5 type  1   force =     0.00002817    0.00002103    0.01635151
     atom    6 type  1   force =    -0.00002106    0.00000747    0.01635328
     atom    7 type  1   force =    -0.00001138   -0.00002063    0.01634247
     atom    8 type  1   force =    -0.00000187    0.00000292    0.01634521
     atom    9 type  1   force =     0.00003900    0.00004290    0.00081063
     atom   10 type  1   force =    -0.00003280   -0.00001224    0.00081329
     atom   11 type  1   force =    -0.00003638   -0.00003435    0.00079332
     atom   12 type  1   force =     0.00003452    0.00000482    0.00082038

     Total force =     0.047426     Total SCF correction =     0.015854
     SCF correction compared to forces is large: reduce conv_thr to get better values

     entering subroutine stress ...

     negative rho (up, down):  6.312E-01 0.000E+00
          total   stress  (Ry/bohr**3)                   (kbar)     P=    4.98
   0.00005158  -0.00000000  -0.00000000          7.59     -0.00     -0.00
  -0.00000000   0.00005158   0.00000000         -0.00      7.59      0.00
  -0.00000000   0.00000000  -0.00000153         -0.00      0.00     -0.23

 !ASE

     Writing output data file calc.save

     General routines

     Parallel routines

   This run was terminated on:  21:37:51  18Dec2018

   JOB DONE.
Job  /afs/slac/g/suncat/bin/suncat-tsmpirun -x LD_LIBRARY_PATH -wdir /scratch/qe529441_HZ1H0 pw.x -in pw.inp

TID   HOST_NAME   COMMAND_LINE            STATUS            TERMINATION_TIME
00000 suncat1061 pw.x -in pw.inp   Done                     12/18/2018 21:37:51
00001 suncat1061 pw.x -in pw.inp   Done                     12/18/2018 21:37:51
00002 suncat1061 pw.x -in pw.inp   Done                     12/18/2018 21:37:51
00003 suncat1061 pw.x -in pw.inp   Done                     12/18/2018 21:37:51
00004 suncat1061 pw.x -in pw.inp   Done                     12/18/2018 21:37:51
00005 suncat1061 pw.x -in pw.inp   Done                     12/18/2018 21:37:51
00006 suncat1061 pw.x -in pw.inp   Done                     12/18/2018 21:37:51
00007 suncat1061 pw.x -in pw.inp   Done                     12/18/2018 21:37:51
00008 suncat1050 pw.x -in pw.inp   Done                     12/18/2018 21:37:51
00009 suncat1050 pw.x -in pw.inp   Done                     12/18/2018 21:37:51
00010 suncat1050 pw.x -in pw.inp   Done                     12/18/2018 21:37:51
00011 suncat1050 pw.x -in pw.inp   Done                     12/18/2018 21:37:51
00012 suncat1050 pw.x -in pw.inp   Done                     12/18/2018 21:37:51
00013 suncat1050 pw.x -in pw.inp   Done                     12/18/2018 21:37:51
00014 suncat1050 pw.x -in pw.inp   Done                     12/18/2018 21:37:51
00015 suncat1050 pw.x -in pw.inp   Done                     12/18/2018 21:37:51
00016 suncat1050 pw.x -in pw.inp   Done                     12/18/2018 21:37:51
00017 suncat1050 pw.x -in pw.inp   Done                     12/18/2018 21:37:51
00018 suncat1050 pw.x -in pw.inp   Done                     12/18/2018 21:37:51
00019 suncat1050 pw.x -in pw.inp   Done                     12/18/2018 21:37:51
00020 suncat1049 pw.x -in pw.inp   Done                     12/18/2018 21:37:51
00021 suncat1049 pw.x -in pw.inp   Done                     12/18/2018 21:37:51
00022 suncat1049 pw.x -in pw.inp   Done                     12/18/2018 21:37:51
00023 suncat1049 pw.x -in pw.inp   Done                     12/18/2018 21:37:51
00024 suncat1049 pw.x -in pw.inp   Done                     12/18/2018 21:37:51
00025 suncat1049 pw.x -in pw.inp   Done                     12/18/2018 21:37:51
00026 suncat1049 pw.x -in pw.inp   Done                     12/18/2018 21:37:51
00027 suncat1049 pw.x -in pw.inp   Done                     12/18/2018 21:37:51
00028 suncat1049 pw.x -in pw.inp   Done                     12/18/2018 21:37:51
00029 suncat1049 pw.x -in pw.inp   Done                     12/18/2018 21:37:51
00030 suncat1049 pw.x -in pw.inp   Done                     12/18/2018 21:37:51
00031 suncat1049 pw.x -in pw.inp   Done                     12/18/2018 21:37:51