     Program PWSCF v.5.1rc2 (svn rev. 11289) starts on 18Dec2018 at 20:19: 2

     Current dimensions of program PWSCF are:
     Max number of different atomic species (ntypx) = 10
     Max number of k-points (npk) =  40000
     Max angular momentum in pseudopotentials (lmaxx) =  3
     Presently stress not available with electric field

     IMPORTANT: XC functional enforced from input :
     Exchange-correlation      = BEEF-VDW ( 1  4 27 13 2)
     Any further DFT definition will be discarded
     Please, verify this is what you really want

     Subspace diagonalization in iterative solution of the eigenvalue problem:
     a serial algorithm will be used

     Found symmetry operation: I + (  0.5000  0.0000  0.0000)
     This is a supercell, fractional translations are disabled

     bravais-lattice index     =            0
     lattice parameter (alat)  =       1.8897  a.u.
     unit-cell volume          =    4204.8134 (a.u.)^3
     number of atoms/cell      =           12
     number of atomic types    =            1
     number of electrons       =       180.00
     number of Kohn-Sham states=          100
     kinetic-energy cutoff     =      36.7493  Ry
     charge density cutoff     =     367.4932  Ry
     convergence threshold     =      1.0E-05
     mixing beta               =       0.2000
     number of iterations used =           10  plain     mixing
     Exchange-correlation      = BEEF-VDW ( 1  4 27 13 2)
     nstep                     =           50

     celldm(1)=   1.889726  celldm(2)=   0.000000  celldm(3)=   0.000000
     celldm(4)=   0.000000  celldm(5)=   0.000000  celldm(6)=   0.000000

     crystal axes: (cart. coord. in units of alat)
               a(1) = (   5.426750   0.000000   0.000000 )
               a(2) = (   2.713375   4.699703   0.000000 )
               a(3) = (   0.000000   0.000000  24.430923 )

     reciprocal axes: (cart. coord. in units 2 pi/alat)
               b(1) = (  0.184272 -0.106390  0.000000 )
               b(2) = (  0.000000  0.212779  0.000000 )
               b(3) = (  0.000000  0.000000  0.040932 )

     PseudoPot. # 1 for Rh read from file:
     /afs/slac.stanford.edu/u/if/mamunm/psp/gbrv1.5pbe/Rh.UPF
     MD5 check sum: 761627e959a2e3a1f56b0b5fe687810e
     Pseudo is Ultrasoft + core correction, Zval = 15.0
     Generated by new atomic code, or converted to UPF format
     Using radial grid of  969 points,  7 beta functions with:
                l(1) =   0
                l(2) =   0
                l(3) =   1
                l(4) =   1
                l(5) =   2
                l(6) =   2
                l(7) =   2
     Q(r) pseudized with  8 coefficients,  rinner =    1.200   1.200   1.200
                                                       1.200   1.200

     vdW kernel table read from file vdW_kernel_table
     MD5 check sum: 095c7af220d748ca6e76c0b4c6cfb241

     atomic species   valence    mass     pseudopotential
        Rh1           15.00   102.90550     Rh( 1.00)

     No symmetry found

   Cartesian axes

     site n.     atom                  positions (alat units)
         1           Rh1 tau(   1) = (   1.3566875   0.7832839  10.0000000  )
         2           Rh1 tau(   2) = (   4.0700625   0.7832839  10.0000000  )
         3           Rh1 tau(   3) = (   2.7133750   3.1331356  10.0000000  )
         4           Rh1 tau(   4) = (   5.4267500   3.1331356  10.0000000  )
         5           Rh1 tau(   5) = (   5.4267500   1.5665678  12.2154614  )
         6           Rh1 tau(   6) = (   2.7133750   1.5665678  12.2154614  )
         7           Rh1 tau(   7) = (   6.7834375   3.9164194  12.2154614  )
         8           Rh1 tau(   8) = (   4.0700625   3.9164194  12.2154614  )
         9           Rh1 tau(   9) = (   0.0000000   0.0000000  14.4309228  )
        10           Rh1 tau(  10) = (   2.7133750   0.0000000  14.4309228  )
        11           Rh1 tau(  11) = (   1.3566875   2.3498517  14.4309228  )
        12           Rh1 tau(  12) = (   4.0700625   2.3498517  14.4309228  )

     number of k points=    20  Fermi-Dirac smearing, width (Ry)=  0.0110
                       cart. coord. in units 2pi/alat
        k(    1) = (   0.0000000   0.0000000   0.0000000), wk =   0.0555556
        k(    2) = (   0.0000000   0.0354632   0.0000000), wk =   0.1111111
        k(    3) = (   0.0000000   0.0709265   0.0000000), wk =   0.1111111
        k(    4) = (   0.0000000  -0.1063897   0.0000000), wk =   0.0555556
        k(    5) = (   0.0307121  -0.0177316   0.0000000), wk =   0.1111111
        k(    6) = (   0.0307121   0.0177316   0.0000000), wk =   0.1111111
        k(    7) = (   0.0307121   0.0531948   0.0000000), wk =   0.1111111
        k(    8) = (   0.0307121  -0.1241213   0.0000000), wk =   0.1111111
        k(    9) = (   0.0307121  -0.0886581   0.0000000), wk =   0.1111111
        k(   10) = (   0.0307121  -0.0531948   0.0000000), wk =   0.1111111
        k(   11) = (   0.0614241  -0.0354632   0.0000000), wk =   0.1111111
        k(   12) = (   0.0614241   0.0000000   0.0000000), wk =   0.1111111
        k(   13) = (   0.0614241   0.0354632   0.0000000), wk =   0.1111111
        k(   14) = (   0.0614241  -0.1418529   0.0000000), wk =   0.1111111
        k(   15) = (   0.0614241  -0.1063897   0.0000000), wk =   0.1111111
        k(   16) = (   0.0614241  -0.0709265   0.0000000), wk =   0.1111111
        k(   17) = (  -0.0921362   0.0531948   0.0000000), wk =   0.0555556
        k(   18) = (  -0.0921362   0.0886581   0.0000000), wk =   0.1111111
        k(   19) = (  -0.0921362   0.1241213   0.0000000), wk =   0.1111111
        k(   20) = (  -0.0921362  -0.0531948   0.0000000), wk =   0.0555556

     Largest allocated arrays     est. size (Mb)     dimensions
     Largest temporary arrays     est. size (Mb)     dimensions

     Initial potential from superposition of free atoms
     Check: negative starting charge=   -0.652824

     starting charge  173.99882, renormalised to  180.00000

     negative rho (up, down):  6.753E-01 0.000E+00

     *
     * You are using vdW-DF for exchange-correlation in this calculation.
     * Please cite the following three references that made this development
     * possible:
     *
     *   M. Dion, H. Rydberg, E. Schroder, D. C. Langreth, and
     *   B. I. Lundqvist, Phys. Rev. Lett. 92, 246401 (2004).
     *
     *   T. Thonhauser, V. R. Cooper, S. Li, A. Puzder, P. Hyldgaard, and
     *   D. C. Langreth, Phys. Rev. B 76, 125112 (2007).
     *
     *   G. Roman-Perez and J. M. Soler, Phys. Rev. Lett. 103, 096102 (2009).
     *
     *
     * If you are using vdW-DF2, please also cite:
     *
     *   K. Lee, E. D. Murray, L. Kong, B. I. Lundqvist, and
     *   D. C. Langreth, Phys. Rev. B 82, 081101(R) (2010).
     *
     *
     * If you are calculating the stress with vdW-DF, please also cite:
     *
     *   R. Sabatini, E. Kucukbenli, B. Kolb, T. Thonhauser, and
     *   S. de Gironcoli, J. Phys.: Condens. Matter 24, 424209 (2012).
     *

     Carrying out vdW-DF run using the following parameters:

     Nqs =      20    Nr_points =    1024   r_max =   100.000
     q_mesh =
               0.00001000     0.04494208     0.09755937     0.15916263
               0.23128650     0.31572767     0.41458969     0.53033537
               0.66584808     0.82450364     1.01025438     1.22772762
               1.48234092     1.78043706     2.12944203     2.53805004
               3.01644009     3.57652955     4.23227104     5.00000000

     Gradients computed in reciprocal space

     Adding external electric field

     Computed dipole along edir(3) :
        Dipole               -0.0000 Ry au,         -0.0000 Debye
        Dipole field         -0.0000 Ry au

        Potential amp.        0.0000 Ry
        Total length         45.0136 bohr

     Starting wfc are  144 randomized atomic wfcs

     Self-consistent Calculation

     iteration #  1     ecut=    36.75 Ry     beta=0.20
     Davidson diagonalization with overlap
     ethr =  1.00E-02,  avg # of iterations =  2.0

[...]

     total energy              =   -2066.13001386 Ry
     Harris-Foulkes estimate   =   -2067.91255371 Ry
     estimated scf accuracy    <       6.00511976 Ry

[...]

     End of self-consistent calculation

          k = 0.0000 0.0000 0.0000 ( 15785 PWs)   bands (ev):

   -45.3672 -45.3667 -45.3664 -45.2330 -45.1664 -45.1659 -45.1652 -44.9776
   -44.9771 -44.9768 -44.9588 -44.9585 -44.9583 -44.8807 -44.8807 -44.8806
   -44.8531 -44.8531 -44.5831 -44.5828 -44.5826 -44.5826 -44.5757 -44.5755
   -44.5752 -44.5143 -44.5138 -44.5133 -44.4975 -44.4847 -44.4842 -44.4837
   -44.4629 -44.4629 -44.4599 -44.4599  -5.0256  -3.7678  -3.7676  -3.7674
    -3.7137  -3.5971  -3.4715  -3.4712  -3.4711  -3.2389  -3.2388  -3.2388
    -2.9259  -2.9258  -2.9257  -1.8052  -1.8050  -1.8048  -1.3594  -1.3594
    -1.3594  -1.1652  -1.0731  -1.0731  -0.7447  -0.7447  -0.6911  -0.6613
    -0.6610  -0.6608  -0.5178  -0.5178   0.1209   0.1212   0.1214   0.7945
     0.7947   0.7949   0.8273   0.8273   0.9726   0.9727   0.9730   1.4096
     1.4096   1.4982   1.9173   1.9176   1.9178   1.9399   1.9401   1.9404
     2.0566   2.0566   2.2951   2.2955   2.2958   2.6453   2.6456   2.6458
     2.6932   2.6934   2.6936   2.8487

[...]

          k =-0.0921 0.0532 0.0000 ( 15852 PWs)   bands (ev):

[...]

     the Fermi energy is     1.6830 ev

!    total energy              =   -2066.36305350 Ry
     Harris-Foulkes estimate   =   -2066.36305598 Ry
     estimated scf accuracy    <       0.00000398 Ry

     The total energy is the sum of the following terms:

     one-electron contribution =  -19046.41023440 Ry
     hartree contribution      =    9564.11931573 Ry
     xc contribution           =    -372.07956562 Ry
     ewald contribution        =    7788.13275413 Ry
     electric field correction =       0.00000000 Ry
     smearing contrib. (-TS)   =      -0.12532334 Ry

     convergence has been achieved in  14 iterations

 BEEF-vdW xc energy contributions
           1 :   -324.133022879415
           2 :    297.756081006799
           3 :   -252.102363832533
           4 :    198.511820452321
           5 :   -148.450998680106
           6 :    109.925822545773
           7 :   -85.6410014342548
           8 :    73.3262645704252
           9 :   -67.7691364313184
          10 :    63.4997884551154
          11 :   -56.9683501397111
          12 :    47.4404044867683
          13 :   -36.5017447302479
          14 :    26.6703842308107
          15 :   -19.9039831829529
          16 :    16.6882712566867
          17 :   -16.0091755766869
          18 :    16.0586242378646
          19 :   -15.2168204072055
          20 :    12.7972317137916
          21 :   -9.21707290808308
          22 :    5.58796726876028
          23 :   -3.02174975706509
          24 :    2.04057836450738
          25 :   -2.36824425229554
          26 :    3.15640193046619
          27 :   -3.48160428719370
          28 :    2.83253378933824
          29 :   -1.33376977696815
          30 :  -0.389831300848982
          31 :   -31.9896760257704
          32 :   -24.0018681219159

     Forces acting on atoms (Ry/au):

     negative rho (up, down):  6.852E-01 0.000E+00
[...]
00019 suncat1059 pw.x -in pw.inp   Done                     12/18/2018 20:30:04
00020 suncat1058 pw.x -in pw.inp   Done                     12/18/2018 20:30:04
00021 suncat1058 pw.x -in pw.inp   Done                     12/18/2018 20:30:04
00022 suncat1058 pw.x -in pw.inp   Done                     12/18/2018 20:30:04
00023 suncat1058 pw.x -in pw.inp   Done                     12/18/2018 20:30:04
00024 suncat1058 pw.x -in pw.inp   Done                     12/18/2018 20:30:04
00025 suncat1058 pw.x -in pw.inp   Done                     12/18/2018 20:30:04
00026 suncat1058 pw.x -in pw.inp   Done                     12/18/2018 20:30:04
00027 suncat1058 pw.x -in pw.inp   Done                     12/18/2018 20:30:04
00028 suncat1058 pw.x -in pw.inp   Done                     12/18/2018 20:30:04
00029 suncat1058 pw.x -in pw.inp   Done                     12/18/2018 20:30:04
00030 suncat1058 pw.x -in pw.inp   Done                     12/18/2018 20:30:04
00031 suncat1058 pw.x -in pw.inp   Done                     12/18/2018 20:30:04

     Program PWSCF v.5.1rc2 (svn rev. 11289) starts on 18Dec2018 at 20:30:11

[...]

     Found symmetry operation: I + (  0.5000  0.0000  0.0000)
     This is a supercell, fractional translations are disabled

[...]

   This run was terminated on:  20:41:38  18Dec2018

[...]

     Program PWSCF v.5.1rc2 (svn rev. 11289) starts on 18Dec2018 at 20:41:44

     Current dimensions of program PWSCF are:
     Max number of different atomic species (ntypx) = 10
     Max number of k-points (npk) =  40000
     Max angular momentum in pseudopotentials (lmaxx) =  3
     Presently stress not available with electric field

     IMPORTANT: XC functional enforced from input :
     Exchange-correlation      = BEEF-VDW ( 1  4 27 13 2)
     Any further DFT definition will be discarded
     Please, verify this is what you really want

     Subspace diagonalization in iterative solution of the eigenvalue problem:
     a serial algorithm will be used

     bravais-lattice index     =            0
     lattice parameter (alat)  =       1.8897  a.u.
     unit-cell volume          =    4204.8134 (a.u.)^3
     number of atoms/cell      =           12
     number of atomic types    =            1
     number of electrons       =       180.00
     number of Kohn-Sham states=          100
     kinetic-energy cutoff     =      36.7493  Ry
     charge density cutoff     =     367.4932  Ry
     convergence threshold     =      1.0E-05
     mixing beta               =       0.2000
     number of iterations used =           10  plain     mixing
     Exchange-correlation      = BEEF-VDW ( 1  4 27 13 2)
     nstep                     =           50

     celldm(1)=   1.889726  celldm(2)=   0.000000  celldm(3)=   0.000000
     celldm(4)=   0.000000  celldm(5)=   0.000000  celldm(6)=   0.000000

     crystal axes: (cart. coord. in units of alat)
               a(1) = (   5.426750   0.000000   0.000000 )
               a(2) = (   2.713375   4.699703   0.000000 )
               a(3) = (   0.000000   0.000000  24.430923 )

     reciprocal axes: (cart. coord. in units 2 pi/alat)
               b(1) = (  0.184272 -0.106390  0.000000 )
               b(2) = (  0.000000  0.212779  0.000000 )
               b(3) = (  0.000000  0.000000  0.040932 )

     PseudoPot. # 1 for Rh read from file:
     /afs/slac.stanford.edu/u/if/mamunm/psp/gbrv1.5pbe/Rh.UPF
     MD5 check sum: 761627e959a2e3a1f56b0b5fe687810e
     Pseudo is Ultrasoft + core correction, Zval = 15.0
     Generated by new atomic code, or converted to UPF format
     Using radial grid of  969 points,  7 beta functions with:
                l(1) =   0
                l(2) =   0
                l(3) =   1
                l(4) =   1
                l(5) =   2
                l(6) =   2
                l(7) =   2
     Q(r) pseudized with  8 coefficients,  rinner =    1.200   1.200   1.200
                                                       1.200   1.200

     vdW kernel table read from file vdW_kernel_table
     MD5 check sum: 095c7af220d748ca6e76c0b4c6cfb241

     atomic species   valence    mass     pseudopotential
        Rh1           15.00   102.90550     Rh( 1.00)

     No symmetry found

   Cartesian axes

     site n.     atom                  positions (alat units)
         1           Rh1 tau(   1) = (   1.3566875   0.7832839  10.0000000  )
         2           Rh1 tau(   2) = (   4.0700625   0.7832839  10.0000000  )
         3           Rh1 tau(   3) = (   2.7133750   3.1331356  10.0000000  )
         4           Rh1 tau(   4) = (   5.4267500   3.1331356  10.0000000  )
         5           Rh1 tau(   5) = (   5.4267500   1.5665678  12.2154614  )
         6           Rh1 tau(   6) = (   2.7133750   1.5665678  12.2154614  )
         7           Rh1 tau(   7) = (   6.7834375   3.9164194  12.2154614  )
         8           Rh1 tau(   8) = (   4.0700625   3.9164194  12.2154614  )
         9           Rh1 tau(   9) = (   2.7133697   4.6996535  14.4002502  )
        10           Rh1 tau(  10) = (   2.7133838   0.0000312  14.4001062  )
        11           Rh1 tau(  11) = (   1.3567710   2.3498693  14.4002163  )
        12           Rh1 tau(  12) = (   4.0699881   2.3498628  14.4001605  )

     number of k points=    20  Fermi-Dirac smearing, width (Ry)=  0.0110
                       cart. coord. in units 2pi/alat
        k(    1) = (   0.0000000   0.0000000   0.0000000), wk =   0.0555556
        k(    2) = (   0.0000000   0.0354632   0.0000000), wk =   0.1111111
        k(    3) = (   0.0000000   0.0709265   0.0000000), wk =   0.1111111
        k(    4) = (   0.0000000  -0.1063897   0.0000000), wk =   0.0555556
        k(    5) = (   0.0307121  -0.0177316   0.0000000), wk =   0.1111111
        k(    6) = (   0.0307121   0.0177316   0.0000000), wk =   0.1111111
        k(    7) = (   0.0307121   0.0531948   0.0000000), wk =   0.1111111
        k(    8) = (   0.0307121  -0.1241213   0.0000000), wk =   0.1111111
        k(    9) = (   0.0307121  -0.0886581   0.0000000), wk =   0.1111111
        k(   10) = (   0.0307121  -0.0531948   0.0000000), wk =   0.1111111
        k(   11) = (   0.0614241  -0.0354632   0.0000000), wk =   0.1111111
        k(   12) = (   0.0614241   0.0000000   0.0000000), wk =   0.1111111
        k(   13) = (   0.0614241   0.0354632   0.0000000), wk =   0.1111111
        k(   14) = (   0.0614241  -0.1418529   0.0000000), wk =   0.1111111
        k(   15) = (   0.0614241  -0.1063897   0.0000000), wk =   0.1111111
        k(   16) = (   0.0614241  -0.0709265   0.0000000), wk =   0.1111111
        k(   17) = (  -0.0921362   0.0531948   0.0000000), wk =   0.0555556
        k(   18) = (  -0.0921362   0.0886581   0.0000000), wk =   0.1111111
        k(   19) = (  -0.0921362   0.1241213   0.0000000), wk =   0.1111111
        k(   20) = (  -0.0921362  -0.0531948   0.0000000), wk =   0.0555556

     Largest allocated arrays     est. size (Mb)     dimensions
     Largest temporary arrays     est. size (Mb)     dimensions

     Initial potential from superposition of free atoms
     Check: negative starting charge=   -0.655048

     starting charge  173.99882, renormalised to  180.00000

[...]

     *
     * You are using vdW-DF for exchange-correlation in this calculation.
     * Please cite the following three references that made this development
     * possible:
     *
     *   M. Dion, H. Rydberg, E. Schroder, D. C. Langreth, and
     *   B. I. Lundqvist, Phys. Rev. Lett. 92, 246401 (2004).
     *
     *   T. Thonhauser, V. R. Cooper, S. Li, A. Puzder, P. Hyldgaard, and
     *   D. C. Langreth, Phys. Rev. B 76, 125112 (2007).
     *
     *   G. Roman-Perez and J. M. Soler, Phys. Rev. Lett. 103, 096102 (2009).
     *
     *
     * If you are using vdW-DF2, please also cite:
     *
     *   K. Lee, E. D. Murray, L. Kong, B. I. Lundqvist, and
     *   D. C. Langreth, Phys. Rev. B 82, 081101(R) (2010).
     *
     *
     * If you are calculating the stress with vdW-DF, please also cite:
     *
     *   R. Sabatini, E. Kucukbenli, B. Kolb, T. Thonhauser, and
     *   S. de Gironcoli, J. Phys.: Condens. Matter 24, 424209 (2012).
     *

     Carrying out vdW-DF run using the following parameters:

     Nqs =      20    Nr_points =    1024   r_max =   100.000
     q_mesh =
               0.00001000     0.04494208     0.09755937     0.15916263
               0.23128650     0.31572767     0.41458969     0.53033537
               0.66584808     0.82450364     1.01025438     1.22772762
               1.48234092     1.78043706     2.12944203     2.53805004
               3.01644009     3.57652955     4.23227104     5.00000000

     Gradients computed in reciprocal space

[...]

     Starting wfc are  144 randomized atomic wfcs

     Self-consistent Calculation

[...]

     total energy              =   -2066.36403120 Ry
     Harris-Foulkes estimate   =   -2066.36403933 Ry
     estimated scf accuracy    <       0.00019753 Ry

     iteration # 15     ecut=    36.75 Ry     beta=0.20
     Davidson diagonalization with overlap
     ethr =  7.16E-08,  avg # of iterations =  1.2

[...]

     negative rho (up, down):  6.885E-01 0.000E+00

     Adding external electric field

     Computed dipole along edir(3) :
        Dipole                0.0125 Ry au,          0.0318 Debye
        Dipole field          0.0000 Ry au

        Potential amp.       -0.0034 Ry
        Total length         45.0136 bohr

     End of self-consistent calculation

[...]

          k = 0.0614-0.0709 0.0000 ( 15838 PWs)   bands (ev):

[...]

          k =-0.0921-0.0532 0.0000 ( 15852 PWs)   bands (ev):

   -45.2834 -45.2834 -45.2074 -45.2074 -45.1676 -45.1676 -45.1290 -45.1290
   -45.0931 -45.0931 -44.9256 -44.9256 -44.8681 -44.8680 -44.8153 -44.8152
   -44.7208 -44.7207 -44.6902 -44.6902 -44.6863 -44.6861 -44.6582 -44.6582
   -44.5470 -44.5469 -44.5352 -44.5350 -44.5223 -44.5222 -44.5066 -44.5065
   -44.4927 -44.4927 -44.4833 -44.4832  -3.5686  -3.5685  -2.9813  -2.9813
    -2.9424  -2.9423  -2.6956  -2.6955  -2.5588  -2.5587  -2.4643  -2.4643
    -2.1549  -2.1548  -2.0701  -2.0701  -1.6858  -1.6858  -1.5735  -1.5735
    -1.4687  -1.4687  -1.0896  -1.0895  -0.7263  -0.7261  -0.6991  -0.6990
    -0.5339  -0.5338  -0.3874  -0.3873  -0.3311  -0.3309  -0.2876  -0.2875
    -0.2317  -0.2316  -0.2031  -0.2031   0.2249   0.2249   0.4451   0.4452
     0.5088   0.5088   0.7538   0.7539   0.8612   0.8616   0.9809   0.9811
     1.3146   1.3146   1.3851   1.3851   1.7194   1.7195   1.9672   1.9673
     2.1293   2.1295   2.3818   2.3818

     the Fermi energy is     1.6936 ev

!    total energy              =   -2066.36403087 Ry
     Harris-Foulkes estimate   =   -2066.36403583 Ry
     estimated scf accuracy    <       0.00000612 Ry

     The total energy is the sum of the following terms:

     one-electron contribution =  -19129.74675282 Ry
     hartree contribution      =    9605.65993169 Ry
     xc contribution           =    -372.13048503 Ry
     ewald contribution        =    7829.97727434 Ry
     electric field correction =       0.00000047 Ry
     smearing contrib. (-TS)   =      -0.12399952 Ry

     convergence has been achieved in  15 iterations

 BEEF-vdW xc energy contributions
           1 :   -324.187791744139
           2 :    297.840196749986
           3 :   -252.225042036464
           4 :    198.654131465913
           5 :   -148.574400005154
           6 :    109.992541461962
           7 :   -85.6352147642210
           8 :    73.2643120746602
           9 :   -67.6928058822512
          10 :    63.4557906884377
          11 :   -56.9847490757305
          12 :    47.5126809651831
          13 :   -36.5959479221053
          14 :    26.7418380566299
          15 :   -19.9215311887974
          16 :    16.6509022458628
          17 :   -15.9462243569914
          18 :    16.0135264159758
          19 :   -15.2232482546106
          20 :    12.8608107855896
          21 :   -9.31261832328045
          22 :    5.67343585959054
          23 :   -3.06115403909024
          24 :    2.02347862211161
          25 :   -2.31525955885820
          26 :    3.10769962265636
          27 :   -3.47495106517079
          28 :    2.88291307889466
          29 :   -1.42553479636581
          30 :  -0.294036855853506
          31 :   -31.9935066463556
          32 :   -24.0125616189114

     Forces acting on atoms (Ry/au):

     negative rho (up, down):  6.885E-01 0.000E+00
     atom    1 type  1   force =    -0.00000971    0.00000632    0.00733020
     atom    2 type  1   force =     0.00001209   -0.00000216    0.00733177
     atom    3 type  1   force =    -0.00000482    0.00000313    0.00738018
     atom    4 type  1   force =     0.00000605   -0.00000772    0.00735571
     atom    5 type  1   force =    -0.00000329    0.00000224   -0.00731918
     atom    6 type  1   force =     0.00000174   -0.00000941   -0.00730995
     atom    7 type  1   force =    -0.00000680    0.00000210   -0.00731693
     atom    8 type  1   force =     0.00000995    0.00000481   -0.00730089
     atom    9 type  1   force =    -0.00000280    0.00004045   -0.00003246
     atom   10 type  1   force =    -0.00000207   -0.00001997   -0.00010299
     atom   11 type  1   force =    -0.00005574   -0.00000794   -0.00003105
     atom   12 type  1   force =     0.00005540   -0.00001184    0.00001558

     Total force =     0.020735     Total SCF correction =     0.021251
     SCF correction compared to forces is large: reduce conv_thr to get better values

     entering subroutine stress ...

     negative rho (up, down):  6.885E-01 0.000E+00
          total   stress  (Ry/bohr**3)                   (kbar)     P=  -32.49
  -0.00023103  -0.00000003  -0.00000002        -33.99     -0.00     -0.00
  -0.00000003  -0.00023107  -0.00000001         -0.00    -33.99     -0.00
  -0.00000002  -0.00000001  -0.00020052         -0.00     -0.00    -29.50

 !ASE

     Writing output data file calc.save

     General routines

     Parallel routines

   This run was terminated on:  20:52:16  18Dec2018

   JOB DONE.
Job  /afs/slac/g/suncat/bin/suncat-tsmpirun -x LD_LIBRARY_PATH -wdir /scratch/qe529434_Uh0rd pw.x -in pw.inp

TID   HOST_NAME   COMMAND_LINE            STATUS            TERMINATION_TIME
00000 suncat1060 pw.x -in pw.inp   Done                     12/18/2018 20:52:16
00001 suncat1060 pw.x -in pw.inp   Done                     12/18/2018 20:52:16
00002 suncat1060 pw.x -in pw.inp   Done                     12/18/2018 20:52:16
00003 suncat1060 pw.x -in pw.inp   Done                     12/18/2018 20:52:16
00004 suncat1060 pw.x -in pw.inp   Done                     12/18/2018 20:52:16
00005 suncat1060 pw.x -in pw.inp   Done                     12/18/2018 20:52:16
00006 suncat1060 pw.x -in pw.inp   Done                     12/18/2018 20:52:16
00007 suncat1060 pw.x -in pw.inp   Done                     12/18/2018 20:52:16
00008 suncat1059 pw.x -in pw.inp   Done                     12/18/2018 20:52:16
00009 suncat1059 pw.x -in pw.inp   Done                     12/18/2018 20:52:16
00010 suncat1059 pw.x -in pw.inp   Done                     12/18/2018 20:52:16
00011 suncat1059 pw.x -in pw.inp   Done                     12/18/2018 20:52:16
00012 suncat1059 pw.x -in pw.inp   Done                     12/18/2018 20:52:16
00013 suncat1059 pw.x -in pw.inp   Done                     12/18/2018 20:52:16
00014 suncat1059 pw.x -in pw.inp   Done                     12/18/2018 20:52:16
00015 suncat1059 pw.x -in pw.inp   Done                     12/18/2018 20:52:16
00016 suncat1059 pw.x -in pw.inp   Done                     12/18/2018 20:52:16
00017 suncat1059 pw.x -in pw.inp   Done                     12/18/2018 20:52:16
00018 suncat1059 pw.x -in pw.inp   Done                     12/18/2018 20:52:16
00019 suncat1059 pw.x -in pw.inp   Done                     12/18/2018 20:52:16
00020 suncat1058 pw.x -in pw.inp   Done                     12/18/2018 20:52:16
00021 suncat1058 pw.x -in pw.inp   Done                     12/18/2018 20:52:16
00022 suncat1058 pw.x -in pw.inp   Done                     12/18/2018 20:52:16
00023 suncat1058 pw.x -in pw.inp   Done                     12/18/2018 20:52:16
00024 suncat1058 pw.x -in pw.inp   Done                     12/18/2018 20:52:16
00025 suncat1058 pw.x -in pw.inp   Done                     12/18/2018 20:52:16
00026 suncat1058 pw.x -in pw.inp   Done                     12/18/2018 20:52:16
00027 suncat1058 pw.x -in pw.inp   Done                     12/18/2018 20:52:16
00028 suncat1058 pw.x -in pw.inp   Done                     12/18/2018 20:52:16
00029 suncat1058 pw.x -in pw.inp   Done                     12/18/2018 20:52:16
00030 suncat1058 pw.x -in pw.inp   Done                     12/18/2018 20:52:16
00031 suncat1058 pw.x -in pw.inp   Done                     12/18/2018 20:52:16