     Program PWSCF v.6.6 starts on 10Jul2022 at 12:57:59

     R & G space division:  proc/nbgrp/npool/nimage =      37
     Fft bands division:     nmany     =       1
     Reading input from Ag2Cd2.in
Warning: card &CELL ignored
Warning: card / ignored

     Current dimensions of program PWSCF are:
     Max number of different atomic species (ntypx) = 10
     Max number of k-points (npk) =  40000
     Max angular momentum in pseudopotentials (lmaxx) =  3
     Presently stress not available with electric field and gates

     Message from routine cell_base_init:
     DEPRECATED: use true lattice parameter, not A to a.u. conversion factor
     file Cd.pbe-n-rrkjus_psl.1.0.0.UPF: wavefunction(s)  4D renormalized

     IMPORTANT: XC functional enforced from input :
     Exchange-correlation= BEEF-VDW
                           (   1   4  43  14   2   0   0)
     Any further DFT definition will be discarded
     Please, verify this is what you really want

     Subspace diagonalization in iterative solution of the eigenvalue problem:
     a serial algorithm will be used

     Found symmetry operation: I + (  0.5000 -0.5000  0.0000)
     This is a supercell, fractional translations are disabled

     bravais-lattice index     =            0
     lattice parameter (alat)  =       1.8897  a.u.
     unit-cell volume          =    5504.6189 (a.u.)^3
     number of atoms/cell      =           12
     number of atomic types    =            2
     number of electrons       =       138.00
     number of Kohn-Sham states=           83
     kinetic-energy cutoff     =      55.1240  Ry
     charge density cutoff     =     551.2396  Ry
     convergence threshold     =      1.0E-05
     mixing beta               =       0.1000
     number of iterations used =           10  plain     mixing
     Exchange-correlation= BEEF-VDW
                           (   1   4  43  14   2   0   0)

     celldm(1)=   1.889726  celldm(2)=   0.000000  celldm(3)=   0.000000
     celldm(4)=   0.000000  celldm(5)=   0.000000  celldm(6)=   0.000000

     crystal axes: (cart. coord. in units of alat)
               a(1) = (   6.020314   0.000000   0.000000 )
               a(2) = (   2.613881   5.423266   0.000000 )
               a(3) = (   0.000000   0.000000  24.983351 )

     reciprocal axes: (cart. coord. in units 2 pi/alat)
               b(1) = (  0.166104 -0.080058  0.000000 )
               b(2) = (  0.000000  0.184391  0.000000 )
               b(3) = (  0.000000  0.000000  0.040027 )

     PseudoPot. # 1 for Ag read from file:
     ../pseudo/Ag.pbe-n-rrkjus_psl.1.0.0.UPF
     MD5 check sum: d841cbfac2b0861aec33b46768a516bf
     Pseudo is Ultrasoft + core correction, Zval = 11.0
     Generated using "atomic" code by A. Dal Corso v.6.2.2
     Using radial grid of 1237 points,  6 beta functions with:
                l(1) =   0
                l(2) =   0
                l(3) =   1
                l(4) =   1
                l(5) =   2
                l(6) =   2
     Q(r) pseudized with 0 coefficients

     PseudoPot. # 2 for Cd read from file:
     ../pseudo/Cd.pbe-n-rrkjus_psl.1.0.0.UPF
     MD5 check sum: a744746c89d2344a134ead0d8ab94e7a
     Pseudo is Ultrasoft + core correction, Zval = 12.0
     Generated using "atomic" code by A. Dal Corso v.6.3
     Using radial grid of 1239 points,  6 beta functions with:
                l(1) =   0
                l(2) =   0
                l(3) =   1
                l(4) =   1
                l(5) =   2
                l(6) =   2
     Q(r) pseudized with 0 coefficients

     atomic species   valence    mass     pseudopotential
        Ag            11.00   107.86820     Ag( 1.00)
        Cd            12.00   112.41400     Cd( 1.00)

     No symmetry found

   Cartesian axes

     site n.     atom                  positions (alat units)
         1           Ag  tau(   1) = (   0.0000000   0.0000000  10.0000000  )
         2           Ag  tau(   2) = (   4.3170975   2.7116330  10.0000000  )
         3           Cd  tau(   3) = (   3.0101572   0.0000000  10.0000000  )
         4           Cd  tau(   4) = (   1.3069403   2.7116330  10.0000000  )
         5           Ag  tau(   5) = (   6.0203144   3.7814488  12.4916757  )
         6           Ag  tau(   6) = (   1.7032169   1.0698158  12.4916757  )
         7           Cd  tau(   7) = (   3.0101572   3.7814488  12.4916757  )
         8           Cd  tau(   8) = (   4.7133741   1.0698158  12.4916757  )
         9           Ag  tau(   9) = (   3.3911687   2.1300421  15.0110982  )
        10           Ag  tau(  10) = (   7.7082451   4.8416773  15.0111055  )
        11           Cd  tau(  11) = (   6.4215473   2.1427387  15.2366152  )
        12           Cd  tau(  12) = (   4.7183143   4.8543556  15.2365734  )

     number of k points=    74  Fermi-Dirac smearing, width (Ry)=  0.0100
                       cart. coord. in units 2pi/alat
        k(    1) = (   0.0000000   0.0000000   0.0000000), wk =   0.0138889
        k(    2) = (   0.0000000   0.0153659   0.0000000), wk =   0.0277778
        k(    3) = (   0.0000000   0.0307318   0.0000000), wk =   0.0277778
        k(    4) = (   0.0000000   0.0460977   0.0000000), wk =   0.0277778
        k(    5) = (   0.0000000   0.0614636   0.0000000), wk =   0.0277778
        k(    6) = (   0.0000000   0.0768295   0.0000000), wk =   0.0277778
        k(    7) = (   0.0000000  -0.0921954   0.0000000), wk =   0.0138889
        k(    8) = (   0.0138420  -0.0066715   0.0000000), wk =   0.0277778
        k(    9) = (   0.0138420   0.0086944   0.0000000), wk =   0.0277778
        k(   10) = (   0.0138420   0.0240603   0.0000000), wk =   0.0277778
        k(   11) = (   0.0138420   0.0394262   0.0000000), wk =   0.0277778
        k(   12) = (   0.0138420   0.0547921   0.0000000), wk =   0.0277778
        k(   13) = (   0.0138420   0.0701580   0.0000000), wk =   0.0277778
        k(   14) = (   0.0138420  -0.0988669   0.0000000), wk =   0.0277778
        k(   15) = (   0.0138420  -0.0835010   0.0000000), wk =   0.0277778
        k(   16) = (   0.0138420  -0.0681351   0.0000000), wk =   0.0277778
        k(   17) = (   0.0138420  -0.0527692   0.0000000), wk =   0.0277778
        k(   18) = (   0.0138420  -0.0374033   0.0000000), wk =   0.0277778
        k(   19) = (   0.0138420  -0.0220374   0.0000000), wk =   0.0277778
        k(   20) = (   0.0276840  -0.0133430   0.0000000), wk =   0.0277778
        k(   21) = (   0.0276840   0.0020229   0.0000000), wk =   0.0277778
        k(   22) = (   0.0276840   0.0173888   0.0000000), wk =   0.0277778
        k(   23) = (   0.0276840   0.0327547   0.0000000), wk =   0.0277778
        k(   24) = (   0.0276840   0.0481205   0.0000000), wk =   0.0277778
        k(   25) = (   0.0276840   0.0634864   0.0000000), wk =   0.0277778
        k(   26) = (   0.0276840  -0.1055384   0.0000000), wk =   0.0277778
        k(   27) = (   0.0276840  -0.0901725   0.0000000), wk =   0.0277778
        k(   28) = (   0.0276840  -0.0748066   0.0000000), wk =   0.0277778
        k(   29) = (   0.0276840  -0.0594407   0.0000000), wk =   0.0277778
        k(   30) = (   0.0276840  -0.0440748   0.0000000), wk =   0.0277778
        k(   31) = (   0.0276840  -0.0287089   0.0000000), wk =   0.0277778
        k(   32) = (   0.0415261  -0.0200145   0.0000000), wk =   0.0277778
        k(   33) = (   0.0415261  -0.0046487   0.0000000), wk =   0.0277778
        k(   34) = (   0.0415261   0.0107172   0.0000000), wk =   0.0277778
        k(   35) = (   0.0415261   0.0260831   0.0000000), wk =   0.0277778
        k(   36) = (   0.0415261   0.0414490   0.0000000), wk =   0.0277778
        k(   37) = (   0.0415261   0.0568149   0.0000000), wk =   0.0277778
        k(   38) = (   0.0415261  -0.1122099   0.0000000), wk =   0.0277778
        k(   39) = (   0.0415261  -0.0968440   0.0000000), wk =   0.0277778
        k(   40) = (   0.0415261  -0.0814781   0.0000000), wk =   0.0277778
        k(   41) = (   0.0415261  -0.0661122   0.0000000), wk =   0.0277778
        k(   42) = (   0.0415261  -0.0507463   0.0000000), wk =   0.0277778
        k(   43) = (   0.0415261  -0.0353804   0.0000000), wk =   0.0277778
        k(   44) = (   0.0553681  -0.0266861   0.0000000), wk =   0.0277778
        k(   45) = (   0.0553681  -0.0113202   0.0000000), wk =   0.0277778
        k(   46) = (   0.0553681   0.0040457   0.0000000), wk =   0.0277778
        k(   47) = (   0.0553681   0.0194116   0.0000000), wk =   0.0277778
        k(   48) = (   0.0553681   0.0347775   0.0000000), wk =   0.0277778
        k(   49) = (   0.0553681   0.0501434   0.0000000), wk =   0.0277778
        k(   50) = (   0.0553681  -0.1188814   0.0000000), wk =   0.0277778
        k(   51) = (   0.0553681  -0.1035155   0.0000000), wk =   0.0277778
        k(   52) = (   0.0553681  -0.0881496   0.0000000), wk =   0.0277778
        k(   53) = (   0.0553681  -0.0727837   0.0000000), wk =   0.0277778
        k(   54) = (   0.0553681  -0.0574179   0.0000000), wk =   0.0277778
        k(   55) = (   0.0553681  -0.0420520   0.0000000), wk =   0.0277778
        k(   56) = (   0.0692101  -0.0333576   0.0000000), wk =   0.0277778
        k(   57) = (   0.0692101  -0.0179917   0.0000000), wk =   0.0277778
        k(   58) = (   0.0692101  -0.0026258   0.0000000), wk =   0.0277778
        k(   59) = (   0.0692101   0.0127401   0.0000000), wk =   0.0277778
        k(   60) = (   0.0692101   0.0281060   0.0000000), wk =   0.0277778
        k(   61) = (   0.0692101   0.0434719   0.0000000), wk =   0.0277778
        k(   62) = (   0.0692101  -0.1255529   0.0000000), wk =   0.0277778
        k(   63) = (   0.0692101  -0.1101871   0.0000000), wk =   0.0277778
        k(   64) = (   0.0692101  -0.0948212   0.0000000), wk =   0.0277778
        k(   65) = (   0.0692101  -0.0794553   0.0000000), wk =   0.0277778
        k(   66) = (   0.0692101  -0.0640894   0.0000000), wk =   0.0277778
        k(   67) = (   0.0692101  -0.0487235   0.0000000), wk =   0.0277778
        k(   68) = (  -0.0830521   0.0400291   0.0000000), wk =   0.0138889
        k(   69) = (  -0.0830521   0.0553950   0.0000000), wk =   0.0277778
        k(   70) = (  -0.0830521   0.0707609   0.0000000), wk =   0.0277778
        k(   71) = (  -0.0830521   0.0861268   0.0000000), wk =   0.0277778
        k(   72) = (  -0.0830521   0.1014927   0.0000000), wk =   0.0277778
        k(   73) = (  -0.0830521   0.1168586   0.0000000), wk =   0.0277778
        k(   74) = (  -0.0830521  -0.0521663   0.0000000), wk =   0.0138889

     Initial potential from superposition of free atoms

     starting charge  137.96831, renormalised to  138.00000

     negative rho (up, down):  2.812E-03 0.000E+00

     %%%%%%%%%%%%%%%%%%%%%%%%%%%%%%%%%%%%%%%%%%%%%%%%%%%%%%%%%%%%%%%%%%%%%%%%
     %                                                                      %
     % You are using vdW-DF, which was implemented by the Thonhauser group. %
     % Please cite the following two papers that made this development      %
     % possible and the two reviews that describe the various versions:     %
     %                                                                      %
     %   T. Thonhauser et al., PRL 115, 136402 (2015).                      %
     %   T. Thonhauser et al., PRB 76, 125112 (2007).                       %
     %   K. Berland et al., Rep. Prog. Phys. 78, 066501 (2015).             %
     %   D.C. Langreth et al., J. Phys.: Condens. Matter 21, 084203 (2009). %
     %                                                                      %
     %                                                                      %
     % If you are calculating the stress with vdW-DF, please also cite:     %
     %                                                                      %
     %   R. Sabatini et al., J. Phys.: Condens. Matter 24, 424209 (2012).   %
     %                                                                      %
     %%%%%%%%%%%%%%%%%%%%%%%%%%%%%%%%%%%%%%%%%%%%%%%%%%%%%%%%%%%%%%%%%%%%%%%%

     Adding external electric field

     Computed dipole along edir(3) :
        Dipole                0.0018 Ry au,          0.0046 Debye
        Dipole field          0.0000 Ry au,

        Potential amp.       -0.0004 Ry
        Total length         46.0314 bohr

     Starting wfcs are  108 randomized atomic wfcs

     Self-consistent Calculation

     iteration #  1     ecut=    55.12 Ry     beta= 0.10
     Davidson diagonalization with overlap
     ethr =  1.00E-02,  avg # of iterations =  3.3

     Threshold (ethr) on eigenvalues was too large:
     Diagonalizing with lowered threshold

     Davidson diagonalization with overlap
     c_bands:  1 eigenvalues not converged
     ethr =  3.91E-04,  avg # of iterations =  7.0

[...]

     total energy              =   -1117.74818114 Ry
     estimated scf accuracy    <       0.49721375 Ry

[...]

     iteration #  3     ecut=    55.12 Ry     beta= 0.10
     Davidson diagonalization with overlap
     c_bands:  1 eigenvalues not converged
     c_bands:  1 eigenvalues not converged
     c_bands:  2 eigenvalues not converged
     c_bands:  1 eigenvalues not converged
     ethr =  1.92E-04,  avg # of iterations =  8.3

[...]

     iteration # 10     ecut=    55.12 Ry     beta= 0.10
     Davidson diagonalization with overlap
     c_bands:  1 eigenvalues not converged
     ethr =  1.86E-07,  avg # of iterations =  4.4

[...]

     total energy              =   -1117.68432937 Ry
     estimated scf accuracy    <       0.00001103 Ry

     iteration # 15     ecut=    55.12 Ry     beta= 0.10
     Davidson diagonalization with overlap
     ethr =  7.99E-09,  avg # of iterations =  4.4

[...]

     Adding external electric field

     Computed dipole along edir(3) :
        Dipole                0.0233 Ry au,          0.0592 Debye
        Dipole field          0.0001 Ry au,

        Potential amp.       -0.0049 Ry
        Total length         46.0314 bohr

     End of self-consistent calculation

          k = 0.0000 0.0000 0.0000 ( 38151 PWs)   bands (ev):

    -9.1563  -9.0929  -9.0402  -8.9668  -8.9556  -8.9199  -8.8759  -8.8586
    -8.8557  -8.8253  -8.7911  -8.7184  -8.6487  -8.6419  -8.6401  -8.6196
    -8.6060  -8.5962  -8.5683  -8.5457  -8.5281  -8.4874  -8.4545  -8.4224
    -8.3989  -8.3760  -8.3506  -8.3189  -8.2326  -8.1465  -7.0404  -5.6108
    -5.2405  -5.1659  -4.9706  -4.8642  -4.6773  -4.6251  -4.5958  -4.5178
    -4.4863  -4.3884  -4.2787  -4.2534  -4.1178  -4.0957  -4.0850  -4.0338
    -4.0309  -3.9943  -3.9858  -3.9835  -3.9404  -3.8476  -3.8247  -3.7758
    -3.7336  -3.7241  -3.7144  -3.6616  -3.6314  -3.4098  -2.2166  -0.7662
    -0.6797  -0.3653  -0.2876  -0.2503  -0.1141   0.1298   0.3980   0.6352
     1.2380   1.4442   2.0618   2.1725   2.3439   3.1010   3.2757   3.3526
     3.5235   3.7186   3.9356

[...]

          k = 0.0692-0.0487 0.0000 ( 38027 PWs)   bands (ev):

[...]

          k =-0.0831 0.0400 0.0000 ( 38010 PWs)   bands (ev):

[...]

          k =-0.0831-0.0522 0.0000 ( 37984 PWs)   bands (ev):

    -9.1245  -9.0125  -8.9573  -8.9486  -8.8730  -8.8319  -8.8286  -8.8219
    -8.8008  -8.7785  -8.7234  -8.6846  -8.6260  -8.6017  -8.6014  -8.5779
    -8.5743  -8.5545  -8.5136  -8.5093  -8.5028  -8.4896  -8.4652  -8.4133
    -8.3846  -8.3717  -8.3331  -8.3153  -8.2306  -8.1436  -5.6318  -5.4626
    -4.9861  -4.9147  -4.9108  -4.8445  -4.7545  -4.7064  -4.6397  -4.6169
    -4.6057  -4.5859  -4.5569  -4.5245  -4.4928  -4.2620  -4.2269  -4.1799
    -4.1558  -4.1503  -4.1399  -4.0770  -4.0093  -3.9929  -3.9368  -3.8812
    -3.8743  -3.8387  -3.8280  -3.7130  -3.6868  -3.6414  -3.4278  -2.7191
    -2.5055  -1.4786  -0.9642  -0.8632  -0.7755  -0.3228   1.0934   1.6436
     1.8045   2.0724   3.9641   4.1457   4.2602   4.5738   4.5899   4.6240
     4.6755   4.9703   5.3323

     the Fermi energy is     0.2801 ev

!    total energy              =   -1117.68433064 Ry
     estimated scf accuracy    <       0.00000038 Ry
     smearing contrib. (-TS)   =      -0.02090456 Ry
     internal energy E=F+TS    =   -1117.66342607 Ry

     The total energy is F=E-TS. E is the sum of the following terms:
     one-electron contribution =   -8199.84239112 Ry
     hartree contribution      =    4184.87280246 Ry
     xc contribution           =    -281.47135262 Ry
     ewald contribution        =    3178.77751397 Ry
     electric field correction =       0.00000124 Ry

     convergence has been achieved in  15 iterations

     negative rho (up, down):  2.945E-03 0.000E+00

     Forces acting on atoms (cartesian axes, Ry/au):

     atom    1 type  1   force =     0.00194747    0.00122380   -0.00130878
     atom    2 type  1   force =     0.00194822    0.00122495   -0.00130952
     atom    3 type  2   force =    -0.00151809   -0.00096136   -0.01149553
     atom    4 type  2   force =    -0.00152427   -0.00095419   -0.01150556
     atom    5 type  1   force =    -0.00181695   -0.00114298    0.00901991
     atom    6 type  1   force =    -0.00181795   -0.00113889    0.00901719
     atom    7 type  2   force =     0.00203452    0.00127635    0.00624635
     atom    8 type  2   force =     0.00203673    0.00127947    0.00624907
     atom    9 type  1   force =     0.00056857    0.00035492   -0.00079401
     atom   10 type  1   force =     0.00057145    0.00035751   -0.00079567
     atom   11 type  2   force =    -0.00121462   -0.00076195   -0.00166284
     atom   12 type  2   force =    -0.00121506   -0.00075762   -0.00166061

     Total force =     0.023628     Total SCF correction =     0.001391

     Writing output data file ./Ag2Cd2/Ag2Cd2_beef.save/

     General routines

     Parallel routines

   This run was terminated on:  14:13:32  10Jul2022

   JOB DONE.