     Program PWSCF v.6.6 starts on 10Jul2022 at 14:13:39

     R & G space division:  proc/nbgrp/npool/nimage =      37
     Fft bands division:     nmany     =       1
     Reading input from Ag2Hg2.in
Warning: card &CELL ignored
Warning: card / ignored

     Current dimensions of program PWSCF are:
     Max number of different atomic species (ntypx) = 10
     Max number of k-points (npk) =  40000
     Max angular momentum in pseudopotentials (lmaxx) =  3
     Presently stress not available with electric field and gates

     Message from routine cell_base_init:
     DEPRECATED: use true lattice parameter, not A to a.u. conversion factor
     file Hg.pbe-n-rrkjus_psl.1.0.0.UPF: wavefunction(s)  6S renormalized

     IMPORTANT: XC functional enforced from input :
     Exchange-correlation= BEEF-VDW
                           (   1   4  43  14   2   0   0)
     Any further DFT definition will be discarded
     Please, verify this is what you really want

     Subspace diagonalization in iterative solution of the eigenvalue problem:
     a serial algorithm will be used

     Found symmetry operation: I + (  0.5000 -0.5000  0.0000)
     This is a supercell, fractional translations are disabled

     bravais-lattice index     =            0
     lattice parameter (alat)  =       1.8897  a.u.
     unit-cell volume          =    5792.6709 (a.u.)^3
     number of atoms/cell      =           12
     number of atomic types    =            2
     number of electrons       =       138.00
     number of Kohn-Sham states=           83
     kinetic-energy cutoff     =      55.1240  Ry
     charge density cutoff     =     551.2396  Ry
     convergence threshold     =      1.0E-05
     mixing beta               =       0.1000
     number of iterations used =           10  plain     mixing
     Exchange-correlation= BEEF-VDW
                           (   1   4  43  14   2   0   0)

     celldm(1)=   1.889726  celldm(2)=   0.000000  celldm(3)=   0.000000
     celldm(4)=   0.000000  celldm(5)=   0.000000  celldm(6)=   0.000000

     crystal axes: (cart. coord. in units of alat)
               a(1) = (   6.179904   0.000000   0.000000 )
               a(2) = (   2.755075   5.531797   0.000000 )
               a(3) = (   0.000000   0.000000  25.109287 )

     reciprocal axes: (cart. coord. in units 2 pi/alat)
               b(1) = (  0.161815 -0.080591  0.000000 )
               b(2) = (  0.000000  0.180773  0.000000 )
               b(3) = (  0.000000  0.000000  0.039826 )

     PseudoPot. # 1 for Ag read from file:
     ../pseudo/Ag.pbe-n-rrkjus_psl.1.0.0.UPF
     MD5 check sum: d841cbfac2b0861aec33b46768a516bf
     Pseudo is Ultrasoft + core correction, Zval = 11.0
     Generated using "atomic" code by A. Dal Corso v.6.2.2
     Using radial grid of 1237 points,  6 beta functions with:
                l(1) =   0
                l(2) =   0
                l(3) =   1
                l(4) =   1
                l(5) =   2
                l(6) =   2
     Q(r) pseudized with 0 coefficients

     PseudoPot. # 2 for Hg read from file:
     ../pseudo/Hg.pbe-n-rrkjus_psl.1.0.0.UPF
     MD5 check sum: 7519ac2e5b9cac440d3cfd4127d6ea3c
     Pseudo is Ultrasoft + core correction, Zval = 12.0
     Generated using "atomic" code by A. Dal Corso v.6.3
     Using radial grid of 1279 points,  6 beta functions with:
                l(1) =   0
                l(2) =   0
                l(3) =   1
                l(4) =   1
                l(5) =   2
                l(6) =   2
     Q(r) pseudized with 0 coefficients

     atomic species   valence    mass     pseudopotential
        Ag            11.00   107.86820     Ag( 1.00)
        Hg            12.00   200.59200     Hg( 1.00)

     No symmetry found

   Cartesian axes

     site n.     atom                  positions (alat units)
         1           Ag  tau(   1) = (   0.0000000   0.0000000  10.0000000  )
         2           Ag  tau(   2) = (   4.4674895   2.7658986  10.0000000  )
         3           Hg  tau(   3) = (   3.0899521   0.0000000  10.0000000  )
         4           Hg  tau(   4) = (   1.3775374   2.7658986  10.0000000  )
         5           Ag  tau(   5) = (   6.1799042   3.8260836  12.5546433  )
         6           Ag  tau(   6) = (   1.7124147   1.0601850  12.5546433  )
         7           Hg  tau(   7) = (   3.0899521   3.8260836  12.5546433  )
         8           Hg  tau(   8) = (   4.8023668   1.0601850  12.5546433  )
         9           Ag  tau(   9) = (   3.3949760   2.1019084  15.0806362  )
        10           Ag  tau(  10) = (   7.8624891   4.8677809  15.0806271  )
        11           Hg  tau(  11) = (   6.5145913   2.1202662  15.5264289  )
        12           Hg  tau(  12) = (   4.8021846   4.8861512  15.5263909  )

     number of k points=    74  Fermi-Dirac smearing, width (Ry)=  0.0100
                       cart. coord. in units 2pi/alat
        k(    1) = (   0.0000000   0.0000000   0.0000000), wk =   0.0138889
        k(    2) = (   0.0000000   0.0150644   0.0000000), wk =   0.0277778
        k(    3) = (   0.0000000   0.0301288   0.0000000), wk =   0.0277778
        k(    4) = (   0.0000000   0.0451933   0.0000000), wk =   0.0277778
        k(    5) = (   0.0000000   0.0602577   0.0000000), wk =   0.0277778
        k(    6) = (   0.0000000   0.0753221   0.0000000), wk =   0.0277778
        k(    7) = (   0.0000000  -0.0903865   0.0000000), wk =   0.0138889
        k(    8) = (   0.0134846  -0.0067159   0.0000000), wk =   0.0277778
        k(    9) = (   0.0134846   0.0083485   0.0000000), wk =   0.0277778
        k(   10) = (   0.0134846   0.0234129   0.0000000), wk =   0.0277778
        k(   11) = (   0.0134846   0.0384774   0.0000000), wk =   0.0277778
        k(   12) = (   0.0134846   0.0535418   0.0000000), wk =   0.0277778
        k(   13) = (   0.0134846   0.0686062   0.0000000), wk =   0.0277778
        k(   14) = (   0.0134846  -0.0971024   0.0000000), wk =   0.0277778
        k(   15) = (   0.0134846  -0.0820380   0.0000000), wk =   0.0277778
        k(   16) = (   0.0134846  -0.0669736   0.0000000), wk =   0.0277778
        k(   17) = (   0.0134846  -0.0519092   0.0000000), wk =   0.0277778
        k(   18) = (   0.0134846  -0.0368447   0.0000000), wk =   0.0277778
        k(   19) = (   0.0134846  -0.0217803   0.0000000), wk =   0.0277778
        k(   20) = (   0.0269691  -0.0134318   0.0000000), wk =   0.0277778
        k(   21) = (   0.0269691   0.0016326   0.0000000), wk =   0.0277778
        k(   22) = (   0.0269691   0.0166970   0.0000000), wk =   0.0277778
        k(   23) = (   0.0269691   0.0317615   0.0000000), wk =   0.0277778
        k(   24) = (   0.0269691   0.0468259   0.0000000), wk =   0.0277778
        k(   25) = (   0.0269691   0.0618903   0.0000000), wk =   0.0277778
        k(   26) = (   0.0269691  -0.1038183   0.0000000), wk =   0.0277778
        k(   27) = (   0.0269691  -0.0887539   0.0000000), wk =   0.0277778
        k(   28) = (   0.0269691  -0.0736895   0.0000000), wk =   0.0277778
        k(   29) = (   0.0269691  -0.0586251   0.0000000), wk =   0.0277778
        k(   30) = (   0.0269691  -0.0435606   0.0000000), wk =   0.0277778
        k(   31) = (   0.0269691  -0.0284962   0.0000000), wk =   0.0277778
        k(   32) = (   0.0404537  -0.0201477   0.0000000), wk =   0.0277778
        k(   33) = (   0.0404537  -0.0050833   0.0000000), wk =   0.0277778
        k(   34) = (   0.0404537   0.0099811   0.0000000), wk =   0.0277778
        k(   35) = (   0.0404537   0.0250456   0.0000000), wk =   0.0277778
        k(   36) = (   0.0404537   0.0401100   0.0000000), wk =   0.0277778
        k(   37) = (   0.0404537   0.0551744   0.0000000), wk =   0.0277778
        k(   38) = (   0.0404537  -0.1105342   0.0000000), wk =   0.0277778
        k(   39) = (   0.0404537  -0.0954698   0.0000000), wk =   0.0277778
        k(   40) = (   0.0404537  -0.0804054   0.0000000), wk =   0.0277778
        k(   41) = (   0.0404537  -0.0653410   0.0000000), wk =   0.0277778
        k(   42) = (   0.0404537  -0.0502765   0.0000000), wk =   0.0277778
        k(   43) = (   0.0404537  -0.0352121   0.0000000), wk =   0.0277778
        k(   44) = (   0.0539383  -0.0268636   0.0000000), wk =   0.0277778
        k(   45) = (   0.0539383  -0.0117992   0.0000000), wk =   0.0277778
        k(   46) = (   0.0539383   0.0032652   0.0000000), wk =   0.0277778
        k(   47) = (   0.0539383   0.0183297   0.0000000), wk =   0.0277778
        k(   48) = (   0.0539383   0.0333941   0.0000000), wk =   0.0277778
        k(   49) = (   0.0539383   0.0484585   0.0000000), wk =   0.0277778
        k(   50) = (   0.0539383  -0.1172501   0.0000000), wk =   0.0277778
        k(   51) = (   0.0539383  -0.1021857   0.0000000), wk =   0.0277778
        k(   52) = (   0.0539383  -0.0871213   0.0000000), wk =   0.0277778
        k(   53) = (   0.0539383  -0.0720569   0.0000000), wk =   0.0277778
        k(   54) = (   0.0539383  -0.0569924   0.0000000), wk =   0.0277778
        k(   55) = (   0.0539383  -0.0419280   0.0000000), wk =   0.0277778
        k(   56) = (   0.0674228  -0.0335795   0.0000000), wk =   0.0277778
        k(   57) = (   0.0674228  -0.0185151   0.0000000), wk =   0.0277778
        k(   58) = (   0.0674228  -0.0034507   0.0000000), wk =   0.0277778
        k(   59) = (   0.0674228   0.0116138   0.0000000), wk =   0.0277778
        k(   60) = (   0.0674228   0.0266782   0.0000000), wk =   0.0277778
        k(   61) = (   0.0674228   0.0417426   0.0000000), wk =   0.0277778
        k(   62) = (   0.0674228  -0.1239660   0.0000000), wk =   0.0277778
        k(   63) = (   0.0674228  -0.1089016   0.0000000), wk =   0.0277778
        k(   64) = (   0.0674228  -0.0938372   0.0000000), wk =   0.0277778
        k(   65) = (   0.0674228  -0.0787728   0.0000000), wk =   0.0277778
        k(   66) = (   0.0674228  -0.0637083   0.0000000), wk =   0.0277778
        k(   67) = (   0.0674228  -0.0486439   0.0000000), wk =   0.0277778
        k(   68) = (  -0.0809074   0.0402954   0.0000000), wk =   0.0138889
        k(   69) = (  -0.0809074   0.0553598   0.0000000), wk =   0.0277778
        k(   70) = (  -0.0809074   0.0704242   0.0000000), wk =   0.0277778
        k(   71) = (  -0.0809074   0.0854887   0.0000000), wk =   0.0277778
        k(   72) = (  -0.0809074   0.1005531   0.0000000), wk =   0.0277778
        k(   73) = (  -0.0809074   0.1156175   0.0000000), wk =   0.0277778
        k(   74) = (  -0.0809074  -0.0500911   0.0000000), wk =   0.0138889

     Initial potential from superposition of free atoms

     starting charge  137.99711, renormalised to  138.00000

     negative rho (up, down):  1.241E-03 0.000E+00

     %%%%%%%%%%%%%%%%%%%%%%%%%%%%%%%%%%%%%%%%%%%%%%%%%%%%%%%%%%%%%%%%%%%%%%%%
     %                                                                      %
     % You are using vdW-DF, which was implemented by the Thonhauser group. %
     % Please cite the following two papers that made this development      %
     % possible and the two reviews that describe the various versions:     %
     %                                                                      %
     %   T. Thonhauser et al., PRL 115, 136402 (2015).                      %
     %   T. Thonhauser et al., PRB 76, 125112 (2007).                       %
     %   K. Berland et al., Rep. Prog. Phys. 78, 066501 (2015).             %
     %   D.C. Langreth et al., J. Phys.: Condens. Matter 21, 084203 (2009). %
     %                                                                      %
     %                                                                      %
     % If you are calculating the stress with vdW-DF, please also cite:     %
     %                                                                      %
     %   R. Sabatini et al., J. Phys.: Condens. Matter 24, 424209 (2012).   %
     %                                                                      %
     %%%%%%%%%%%%%%%%%%%%%%%%%%%%%%%%%%%%%%%%%%%%%%%%%%%%%%%%%%%%%%%%%%%%%%%%

     Adding external electric field

     Computed dipole along edir(3) :
        Dipole               -0.0003 Ry au,         -0.0007 Debye
        Dipole field         -0.0000 Ry au,

        Potential amp.        0.0001 Ry
        Total length         46.2634 bohr

     Starting wfcs are  108 randomized atomic wfcs

     Self-consistent Calculation

     iteration #  1     ecut=    55.12 Ry     beta= 0.10
     Davidson diagonalization with overlap
     ethr =  1.00E-02,  avg # of iterations =  3.4

     Threshold (ethr) on eigenvalues was too large:
     Diagonalizing with lowered threshold

     Davidson diagonalization with overlap
     ethr =  3.37E-04,  avg # of iterations =  7.7

[...]

     total energy              =   -1117.00770146 Ry
     estimated scf accuracy    <       0.45647881 Ry

[...]

     iteration #  3     ecut=    55.12 Ry     beta= 0.10
     Davidson diagonalization with overlap
     c_bands:  2 eigenvalues not converged
     ethr =  1.66E-04,  avg # of iterations =  5.5

[...]

     iteration # 12     ecut=    55.12 Ry     beta= 0.10
     Davidson diagonalization with overlap
     ethr =  9.18E-09,  avg # of iterations =  6.2

[...]

     total energy              =   -1116.97615147 Ry
     estimated scf accuracy    <       0.00002617 Ry

     iteration # 13     ecut=    55.12 Ry     beta= 0.10
     Davidson diagonalization with overlap
     c_bands:  1 eigenvalues not converged
     ethr =  9.18E-09,  avg # of iterations =  4.1

[...]

     Adding external electric field

     Computed dipole along edir(3) :
        Dipole                0.0172 Ry au,          0.0437 Debye
        Dipole field          0.0000 Ry au,

        Potential amp.       -0.0035 Ry
        Total length         46.2634 bohr

     End of self-consistent calculation

          k = 0.0000 0.0000 0.0000 ( 40021 PWs)   bands (ev):

    -7.5235  -7.3415  -7.2950  -7.2842  -7.1843  -7.1562  -7.1024  -7.0818
    -7.0231  -7.0223  -6.9733  -6.9294  -6.7972  -6.7699  -6.7311  -6.6603
    -6.6444  -6.6227  -6.5696  -6.5467  -6.5196  -6.5034  -6.4431  -6.4400
    -6.3753  -6.2982  -6.2916  -6.2556  -6.1160  -6.1154  -5.9229  -5.5941
    -4.9621  -4.6955  -4.4628  -4.4557  -4.3111  -4.2780  -4.2729  -4.1720
    -4.1184  -4.1027  -3.8502  -3.8485  -3.8233  -3.8177  -3.7731  -3.7674
    -3.7268  -3.6992  -3.6313  -3.6025  -3.5893  -3.5761  -3.5614  -3.5435
    -3.4569  -3.4466  -3.4331  -3.4261  -3.3550  -3.2180  -2.5537  -1.0482
    -0.8703  -0.3755  -0.1515  -0.0774   0.0998   0.2113   0.5512   0.5732
     0.5868   1.3757   1.7999   1.9970   2.5301   2.6770   3.0553   3.2161
     3.5308   3.5539   3.9474

[...]

          k = 0.0674-0.0486 0.0000 ( 40006 PWs)   bands (ev):

[...]

          k =-0.0809 0.0403 0.0000 ( 39992 PWs)   bands (ev):

[...]

          k =-0.0809-0.0501 0.0000 ( 40130 PWs)   bands (ev):

    -7.3955  -7.2185  -7.2027  -7.1125  -7.0505  -7.0237  -6.9442  -6.9352
    -6.9284  -6.9031  -6.7998  -6.7529  -6.6740  -6.6318  -6.6293  -6.5953
    -6.5449  -6.5336  -6.4953  -6.4952  -6.4570  -6.4376  -6.4024  -6.3432
    -6.2842  -6.2699  -6.1856  -6.1171  -6.1170  -5.9122  -5.7556  -5.3583
    -4.5822  -4.5754  -4.4874  -4.4634  -4.4408  -4.4064  -4.3801  -4.3035
    -4.2803  -4.2799  -4.2448  -4.2280  -4.1985  -4.0951  -3.9633  -3.9355
    -3.9277  -3.8865  -3.8500  -3.7957  -3.7723  -3.7619  -3.7563  -3.6660
    -3.6508  -3.6192  -3.6023  -3.5008  -3.4689  -3.4048  -3.2288  -2.7802
    -2.5958  -1.6278  -1.1789  -0.9528  -0.8900  -0.1902   0.0246   1.7689
     1.9837   2.2547   3.7006   3.8833   4.0973   4.5156   4.5487   4.5545
     4.9898   5.3279   5.3682

     the Fermi energy is     0.2598 ev

!    total energy              =   -1116.97615804 Ry
     estimated scf accuracy    <       0.00000061 Ry
     smearing contrib. (-TS)   =      -0.01841130 Ry
     internal energy E=F+TS    =   -1116.95774674 Ry

     The total energy is F=E-TS. E is the sum of the following terms:
     one-electron contribution =   -7607.19145400 Ry
     hartree contribution      =    3890.63555581 Ry
     xc contribution           =    -339.58032357 Ry
     ewald contribution        =    2939.17847437 Ry
     electric field correction =       0.00000064 Ry

     convergence has been achieved in  13 iterations

     negative rho (up, down):  1.131E-03 0.000E+00

     Forces acting on atoms (cartesian axes, Ry/au):

     atom    1 type  1   force =     0.00277053    0.00171611    0.00116149
     atom    2 type  1   force =     0.00277525    0.00171845    0.00115864
     atom    3 type  2   force =    -0.00192174   -0.00118850   -0.01486021
     atom    4 type  2   force =    -0.00191682   -0.00118784   -0.01485281
     atom    5 type  1   force =    -0.00298861   -0.00185418    0.00770055
     atom    6 type  1   force =    -0.00299165   -0.00184924    0.00770308
     atom    7 type  2   force =     0.00375851    0.00232886    0.00670741
     atom    8 type  2   force =     0.00376731    0.00232928    0.00671126
     atom    9 type  1   force =    -0.00042858   -0.00026540   -0.00067491
     atom   10 type  1   force =    -0.00043066   -0.00026542   -0.00067589
     atom   11 type  2   force =    -0.00119505   -0.00074179   -0.00003523
     atom   12 type  2   force =    -0.00119849   -0.00074033   -0.00004336

     Total force =     0.027451     Total SCF correction =     0.001962

     Writing output data file ./Ag2Hg2/Ag2Hg2_beef.save/

     General routines

     Parallel routines

   This run was terminated on:  15:27:41  10Jul2022

   JOB DONE.