     Program PWSCF v.6.6 starts on 23Jun2022 at 15:42:42

     R & G space division:  proc/nbgrp/npool/nimage =      37
     Fft bands division:     nmany     =       1
     Reading input from Ag2Hf2.in
Warning: card &CELL ignored
Warning: card / ignored

     Current dimensions of program PWSCF are:
     Max number of different atomic species (ntypx) = 10
     Max number of k-points (npk) =  40000
     Max angular momentum in pseudopotentials (lmaxx) =  3
     Presently stress not available with electric field and gates

     Message from routine cell_base_init:
     DEPRECATED: use true lattice parameter, not A to a.u. conversion factor

     IMPORTANT: XC functional enforced from input :
     Exchange-correlation= BEEF-VDW
                           (   1   4  43  14   2   0   0)
     Any further DFT definition will be discarded
     Please, verify this is what you really want

     Subspace diagonalization in iterative solution of the eigenvalue problem:
     a serial algorithm will be used

     Found symmetry operation: I + ( -0.5000  0.0000  0.0000)
     This is a supercell, fractional translations are disabled

     bravais-lattice index     =            0
     lattice parameter (alat)  =       1.8897  a.u.
     unit-cell volume          =    5391.6659 (a.u.)^3
     number of atoms/cell      =           12
     number of atomic types    =            2
     number of electrons       =       138.00
     number of Kohn-Sham states=           83
     kinetic-energy cutoff     =      55.1240  Ry
     charge density cutoff     =     551.2396  Ry
     convergence threshold     =      1.0E-05
     mixing beta               =       0.1000
     number of iterations used =           10  plain     mixing
     Exchange-correlation= BEEF-VDW
                           (   1   4  43  14   2   0   0)

     celldm(1)=   1.889726  celldm(2)=   0.000000  celldm(3)=   0.000000
     celldm(4)=   0.000000  celldm(5)=   0.000000  celldm(6)=   0.000000

     crystal axes: (cart. coord. in units of alat)
               a(1) = (   6.016366   0.000000   0.000000 )
               a(2) = (  -3.008183   5.319974   0.000000 )
               a(3) = (   0.000000   0.000000  24.962191 )

     reciprocal axes: (cart. coord. in units 2 pi/alat)
               b(1) = (  0.166213  0.093985 -0.000000 )
               b(2) = (  0.000000  0.187971  0.000000 )
               b(3) = (  0.000000 -0.000000  0.040061 )

     PseudoPot. # 1 for Ag read from file:
     ../pseudo/Ag.pbe-n-rrkjus_psl.1.0.0.UPF
     MD5 check sum: d841cbfac2b0861aec33b46768a516bf
     Pseudo is Ultrasoft + core correction, Zval = 11.0
     Generated using "atomic" code by A. Dal Corso v.6.2.2
     Using radial grid of 1237 points,  6 beta functions with:
                l(1) =   0
                l(2) =   0
                l(3) =   1
                l(4) =   1
                l(5) =   2
                l(6) =   2
     Q(r) pseudized with 0 coefficients

     PseudoPot. # 2 for Hf read from file:
     ../pseudo/Hf.pbe-spn-rrkjus_psl.1.0.0.UPF
     MD5 check sum: 9605440c6f839e558204c6a924125fd0
     Pseudo is Ultrasoft + core correction, Zval = 12.0
     Generated using "atomic" code by A. Dal Corso v.6.2.2
     Using radial grid of 1271 points,  6 beta functions with:
                l(1) =   0
                l(2) =   0
                l(3) =   1
                l(4) =   1
                l(5) =   2
                l(6) =   2
     Q(r) pseudized with 0 coefficients

     atomic species   valence    mass     pseudopotential
        Ag            11.00   107.86820     Ag( 1.00)
        Hf            12.00   178.49000     Hf( 1.00)

     No symmetry found

   Cartesian axes

     site n.     atom                  positions (alat units)
         1           Ag  tau(   1) = (   0.0000000   0.0000000  10.0000000  )
         2           Ag  tau(   2) = (   3.0081830   0.0000000  10.0000000  )
         3           Hf  tau(   3) = (   1.5040915   2.6599868  10.0000000  )
         4           Hf  tau(   4) = (  -1.5040915   2.6599868  10.0000000  )
         5           Ag  tau(   5) = (   3.0081830   1.7009793  12.4810954  )
         6           Ag  tau(   6) = (   0.0000000   1.7009793  12.4810954  )
         7           Hf  tau(   7) = (  -1.5040915   4.3609661  12.4810954  )
         8           Hf  tau(   8) = (   1.5040915   4.3609661  12.4810954  )
         9           Ag  tau(   9) = (   0.0000035   3.4886659  15.0061479  )
        10           Ag  tau(  10) = (   3.0081772   3.4886631  15.0061464  )
        11           Hf  tau(  11) = (   4.5122717   0.8295712  14.8509347  )
        12           Hf  tau(  12) = (   1.5040918   0.8295604  14.8509198  )

     number of k points=    74  Fermi-Dirac smearing, width (Ry)=  0.0100
                       cart. coord. in units 2pi/alat
        k(    1) = (   0.0000000   0.0000000   0.0000000), wk =   0.0138889
        k(    2) = (   0.0000000   0.0156642   0.0000000), wk =   0.0277778
        k(    3) = (   0.0000000   0.0313285   0.0000000), wk =   0.0277778
        k(    4) = (   0.0000000   0.0469927   0.0000000), wk =   0.0277778
        k(    5) = (   0.0000000   0.0626569   0.0000000), wk =   0.0277778
        k(    6) = (   0.0000000   0.0783212   0.0000000), wk =   0.0277778
        k(    7) = (   0.0000000  -0.0939854   0.0000000), wk =   0.0138889
        k(    8) = (   0.0138511   0.0078321   0.0000000), wk =   0.0277778
        k(    9) = (   0.0138511   0.0234964   0.0000000), wk =   0.0277778
        k(   10) = (   0.0138511   0.0391606   0.0000000), wk =   0.0277778
        k(   11) = (   0.0138511   0.0548248   0.0000000), wk =   0.0277778
        k(   12) = (   0.0138511   0.0704891   0.0000000), wk =   0.0277778
        k(   13) = (   0.0138511   0.0861533   0.0000000), wk =   0.0277778
        k(   14) = (   0.0138511  -0.0861533   0.0000000), wk =   0.0277778
        k(   15) = (   0.0138511  -0.0704891   0.0000000), wk =   0.0277778
        k(   16) = (   0.0138511  -0.0548248   0.0000000), wk =   0.0277778
        k(   17) = (   0.0138511  -0.0391606   0.0000000), wk =   0.0277778
        k(   18) = (   0.0138511  -0.0234964   0.0000000), wk =   0.0277778
        k(   19) = (   0.0138511  -0.0078321   0.0000000), wk =   0.0277778
        k(   20) = (   0.0277022   0.0156642   0.0000000), wk =   0.0277778
        k(   21) = (   0.0277022   0.0313285   0.0000000), wk =   0.0277778
        k(   22) = (   0.0277022   0.0469927   0.0000000), wk =   0.0277778
        k(   23) = (   0.0277022   0.0626569   0.0000000), wk =   0.0277778
        k(   24) = (   0.0277022   0.0783212   0.0000000), wk =   0.0277778
        k(   25) = (   0.0277022   0.0939854   0.0000000), wk =   0.0277778
        k(   26) = (   0.0277022  -0.0783212   0.0000000), wk =   0.0277778
        k(   27) = (   0.0277022  -0.0626569   0.0000000), wk =   0.0277778
        k(   28) = (   0.0277022  -0.0469927   0.0000000), wk =   0.0277778
        k(   29) = (   0.0277022  -0.0313285   0.0000000), wk =   0.0277778
        k(   30) = (   0.0277022  -0.0156642   0.0000000), wk =   0.0277778
        k(   31) = (   0.0277022  -0.0000000   0.0000000), wk =   0.0277778
        k(   32) = (   0.0415533   0.0234964   0.0000000), wk =   0.0277778
        k(   33) = (   0.0415533   0.0391606   0.0000000), wk =   0.0277778
        k(   34) = (   0.0415533   0.0548248   0.0000000), wk =   0.0277778
        k(   35) = (   0.0415533   0.0704891   0.0000000), wk =   0.0277778
        k(   36) = (   0.0415533   0.0861533   0.0000000), wk =   0.0277778
        k(   37) = (   0.0415533   0.1018175   0.0000000), wk =   0.0277778
        k(   38) = (   0.0415533  -0.0704891   0.0000000), wk =   0.0277778
        k(   39) = (   0.0415533  -0.0548248   0.0000000), wk =   0.0277778
        k(   40) = (   0.0415533  -0.0391606   0.0000000), wk =   0.0277778
        k(   41) = (   0.0415533  -0.0234964   0.0000000), wk =   0.0277778
        k(   42) = (   0.0415533  -0.0078321   0.0000000), wk =   0.0277778
        k(   43) = (   0.0415533   0.0078321   0.0000000), wk =   0.0277778
        k(   44) = (   0.0554044   0.0313285   0.0000000), wk =   0.0277778
        k(   45) = (   0.0554044   0.0469927   0.0000000), wk =   0.0277778
        k(   46) = (   0.0554044   0.0626569   0.0000000), wk =   0.0277778
        k(   47) = (   0.0554044   0.0783212   0.0000000), wk =   0.0277778
        k(   48) = (   0.0554044   0.0939854   0.0000000), wk =   0.0277778
        k(   49) = (   0.0554044   0.1096497   0.0000000), wk =   0.0277778
        k(   50) = (   0.0554044  -0.0626569   0.0000000), wk =   0.0277778
        k(   51) = (   0.0554044  -0.0469927   0.0000000), wk =   0.0277778
        k(   52) = (   0.0554044  -0.0313285   0.0000000), wk =   0.0277778
        k(   53) = (   0.0554044  -0.0156642   0.0000000), wk =   0.0277778
        k(   54) = (   0.0554044   0.0000000   0.0000000), wk =   0.0277778
        k(   55) = (   0.0554044   0.0156642   0.0000000), wk =   0.0277778
        k(   56) = (   0.0692555   0.0391606   0.0000000), wk =   0.0277778
        k(   57) = (   0.0692555   0.0548248   0.0000000), wk =   0.0277778
        k(   58) = (   0.0692555   0.0704891   0.0000000), wk =   0.0277778
        k(   59) = (   0.0692555   0.0861533   0.0000000), wk =   0.0277778
        k(   60) = (   0.0692555   0.1018175   0.0000000), wk =   0.0277778
        k(   61) = (   0.0692555   0.1174818   0.0000000), wk =   0.0277778
        k(   62) = (   0.0692555  -0.0548248   0.0000000), wk =   0.0277778
        k(   63) = (   0.0692555  -0.0391606   0.0000000), wk =   0.0277778
        k(   64) = (   0.0692555  -0.0234964   0.0000000), wk =   0.0277778
        k(   65) = (   0.0692555  -0.0078321   0.0000000), wk =   0.0277778
        k(   66) = (   0.0692555   0.0078321   0.0000000), wk =   0.0277778
        k(   67) = (   0.0692555   0.0234964   0.0000000), wk =   0.0277778
        k(   68) = (  -0.0831066  -0.0469927   0.0000000), wk =   0.0138889
        k(   69) = (  -0.0831066  -0.0313285   0.0000000), wk =   0.0277778
        k(   70) = (  -0.0831066  -0.0156642   0.0000000), wk =   0.0277778
        k(   71) = (  -0.0831066   0.0000000   0.0000000), wk =   0.0277778
        k(   72) = (  -0.0831066   0.0156642   0.0000000), wk =   0.0277778
        k(   73) = (  -0.0831066   0.0313285   0.0000000), wk =   0.0277778
        k(   74) = (  -0.0831066  -0.1409781   0.0000000), wk =   0.0138889

     Initial potential from superposition of free atoms

     starting charge  137.98598, renormalised to  138.00000

     negative rho (up, down):  3.732E-04 0.000E+00

     %%%%%%%%%%%%%%%%%%%%%%%%%%%%%%%%%%%%%%%%%%%%%%%%%%%%%%%%%%%%%%%%%%%%%%%%
     %                                                                      %
     % You are using vdW-DF, which was implemented by the Thonhauser group. %
     % Please cite the following two papers that made this development      %
     % possible and the two reviews that describe the various versions:     %
     %                                                                      %
     %   T. Thonhauser et al., PRL 115, 136402 (2015).                      %
     %   T. Thonhauser et al., PRB 76, 125112 (2007).                       %
     %   K. Berland et al., Rep. Prog. Phys. 78, 066501 (2015).             %
     %   D.C. Langreth et al., J. Phys.: Condens. Matter 21, 084203 (2009). %
     %                                                                      %
     %                                                                      %
     % If you are calculating the stress with vdW-DF, please also cite:     %
     %                                                                      %
     %   R. Sabatini et al., J. Phys.: Condens. Matter 24, 424209 (2012).   %
     %                                                                      %
     %%%%%%%%%%%%%%%%%%%%%%%%%%%%%%%%%%%%%%%%%%%%%%%%%%%%%%%%%%%%%%%%%%%%%%%%

     Adding external electric field

     Computed dipole along edir(3) :
        Dipole               -0.0004 Ry au,         -0.0011 Debye
        Dipole field         -0.0000 Ry au,

        Potential amp.        0.0001 Ry
        Total length         45.9924 bohr

     Starting wfcs are  114 randomized atomic wfcs

     Self-consistent Calculation

     iteration #  1     ecut=    55.12 Ry     beta= 0.10
     Davidson diagonalization with overlap
     ethr =  1.00E-02,  avg # of iterations =  2.1

[...]

     total energy              =   -1267.02690792 Ry
     estimated scf accuracy    <       1.92844463 Ry

[...]

     iteration #  9     ecut=    55.12 Ry     beta= 0.10
     Davidson diagonalization with overlap
     c_bands:  1 eigenvalues not converged
     c_bands:  1 eigenvalues not converged
     ethr =  2.04E-06,  avg # of iterations =  8.3

[...]

     total energy              =   -1267.22085258 Ry
     estimated scf accuracy    <       0.00001706 Ry

     iteration # 15     ecut=    55.12 Ry     beta= 0.10
     Davidson diagonalization with overlap
     ethr =  1.24E-08,  avg # of iterations =  2.0

[...]

     Adding external electric field

     Computed dipole along edir(3) :
        Dipole               -0.0253 Ry au,         -0.0644 Debye
        Dipole field         -0.0001 Ry au,

        Potential amp.        0.0054 Ry
        Total length         45.9924 bohr

     End of self-consistent calculation

          k = 0.0000 0.0000 0.0000 ( 37325 PWs)   bands (ev):

   -61.8781 -61.8415 -61.8191 -61.7823 -61.4276 -61.3901 -30.4918 -30.4883
   -30.4559 -30.4384 -30.4170 -30.3954 -30.3662 -30.3244 -30.3224 -30.2519
   -30.1905 -30.0507 -29.9764 -29.8586 -29.8188 -29.7465 -29.6805 -29.5453
    -5.8514  -4.7913  -4.7627  -4.7420  -4.7360  -4.6765  -4.4943  -4.4389
    -4.4281  -4.3895  -4.3601  -4.3576  -4.2062  -4.0838  -3.9471  -3.8919
    -3.7493  -3.6995  -3.6367  -3.6290  -3.5498  -3.5126  -3.4863  -3.4631
    -3.3693  -3.2733  -3.2447  -3.2097  -3.1069  -3.0422  -2.9561  -2.5835
    -1.4751  -0.5535  -0.3928  -0.3379  -0.2561  -0.0549   0.2752   0.4037
     0.4621   0.6257   0.7036   0.9544   1.3418   1.3939   1.4770   1.7481
     1.8080   2.1377   2.2091   2.2506   2.3634   2.4367   2.8835   3.1943
     3.4900   3.4974   3.8520

[...]

          k = 0.0693 0.0235 0.0000 ( 37215 PWs)   bands (ev):

[...]

          k =-0.0831-0.0470 0.0000 ( 37224 PWs)   bands (ev):

[...]

          k =-0.0831-0.1410 0.0000 ( 37224 PWs)   bands (ev):

   -61.8598 -61.8598 -61.8007 -61.8007 -61.4089 -61.4089 -30.4534 -30.4534
   -30.4025 -30.4024 -30.3611 -30.3611 -30.2882 -30.2882 -30.1833 -30.1833
   -30.1455 -30.1454 -30.0143 -30.0143 -29.8762 -29.8762 -29.7139 -29.7139
    -4.5700  -4.5700  -4.3816  -4.3816  -4.2713  -4.2713  -4.2031  -4.2031
    -4.0367  -4.0367  -3.9675  -3.9675  -3.9323  -3.9323  -3.7658  -3.7658
    -3.6983  -3.6982  -3.6537  -3.6537  -3.5731  -3.5731  -3.5326  -3.5326
    -3.4643  -3.4643  -3.4458  -3.4458  -3.3259  -3.3259  -3.2061  -3.2061
    -2.3282  -2.3282  -1.2733  -1.2733  -0.3499  -0.3499   0.0018   0.0018
     0.7681   0.7681   1.1380   1.1380   1.4934   1.4934   1.5538   1.5538
     1.9693   1.9693   2.1578   2.1578   2.3271   2.3271   2.4736   2.4736
     2.9198   2.9199   3.5585

     the Fermi energy is     1.1529 ev

!    total energy              =   -1267.22085058 Ry
     estimated scf accuracy    <       0.00000700 Ry
     smearing contrib. (-TS)   =      -0.05907227 Ry
     internal energy E=F+TS    =   -1267.16177831 Ry

     The total energy is F=E-TS. E is the sum of the following terms:
     one-electron contribution =   -8562.01680042 Ry
     hartree contribution      =    4317.64280790 Ry
     xc contribution           =    -395.22128211 Ry
     ewald contribution        =    3372.43349482 Ry
     electric field correction =       0.00000150 Ry

     convergence has been achieved in  15 iterations

     negative rho (up, down):  8.736E-05 0.000E+00

     Forces acting on atoms (cartesian axes, Ry/au):

     atom    1 type  1   force =    -0.00000137   -0.00283256   -0.00522583
     atom    2 type  1   force =     0.00000041   -0.00283334   -0.00522495
     atom    3 type  2   force =     0.00000130    0.00000178    0.01853583
     atom    4 type  2   force =    -0.00000110    0.00000091    0.01853453
     atom    5 type  1   force =     0.00000087    0.00544630   -0.00885818
     atom    6 type  1   force =    -0.00000052    0.00544601   -0.00885744
     atom    7 type  2   force =     0.00000067   -0.00262541   -0.00221910
     atom    8 type  2   force =    -0.00000215   -0.00262292   -0.00221950
     atom    9 type  1   force =     0.00000048    0.00068573   -0.00067408
     atom   10 type  1   force =    -0.00000072    0.00068740   -0.00067575
     atom   11 type  2   force =     0.00000013   -0.00067726   -0.00155818
     atom   12 type  2   force =     0.00000200   -0.00067664   -0.00155734

     Total force =     0.031706     Total SCF correction =     0.013736
     SCF correction compared to forces is large: reduce conv_thr to get better values

     Writing output data file ./Ag2Hf2/Ag2Hf2_beef.save/

     General routines

     Parallel routines

   This run was terminated on:  16:42:53  23Jun2022

   JOB DONE.