     Program PWSCF v.6.6 starts on 23Jun2022 at 15:48:14

     R & G space division:  proc/nbgrp/npool/nimage =      37
     Fft bands division:     nmany     =       1
     Reading input from Ag2Ir2.in
Warning: card &CELL ignored
Warning: card / ignored

     Current dimensions of program PWSCF are:
     Max number of different atomic species (ntypx) = 10
     Max number of k-points (npk) =  40000
     Max angular momentum in pseudopotentials (lmaxx) =  3
     Presently stress not available with electric field and gates

     Message from routine cell_base_init:
     DEPRECATED: use true lattice parameter, not A to a.u. conversion factor
     file Ir.pbe-n-rrkjus_psl.0.2.3.UPF: wavefunction(s)  5D renormalized

     IMPORTANT: XC functional enforced from input :
     Exchange-correlation= BEEF-VDW
                           (   1   4  43  14   2   0   0)
     Any further DFT definition will be discarded
     Please, verify this is what you really want

     Subspace diagonalization in iterative solution of the eigenvalue problem:
     a serial algorithm will be used

     Found symmetry operation: I + ( -0.5000  0.0000  0.0000)
     This is a supercell, fractional translations are disabled

     bravais-lattice index     =            0
     lattice parameter (alat)  =       1.8897  a.u.
     unit-cell volume          =    4721.0677 (a.u.)^3
     number of atoms/cell      =           12
     number of atomic types    =            2
     number of electrons       =       120.00
     number of Kohn-Sham states=           72
     kinetic-energy cutoff     =      55.1240  Ry
     charge density cutoff     =     551.2396  Ry
     convergence threshold     =      1.0E-05
     mixing beta               =       0.1000
     number of iterations used =           10  plain     mixing
     Exchange-correlation= BEEF-VDW
                           (   1   4  43  14   2   0   0)

     celldm(1)=   1.889726  celldm(2)=   0.000000  celldm(3)=   0.000000
     celldm(4)=   0.000000  celldm(5)=   0.000000  celldm(6)=   0.000000

     crystal axes: (cart. coord. in units of alat)
               a(1) = (   5.423438   0.000000   0.000000 )
               a(2) = (  -2.711719   5.235308   0.000000 )
               a(3) = (   0.000000   0.000000  24.639211 )

     reciprocal axes: (cart. coord. in units 2 pi/alat)
               b(1) = (  0.184385  0.095505 -0.000000 )
               b(2) = (  0.000000  0.191011  0.000000 )
               b(3) = (  0.000000 -0.000000  0.040586 )

     PseudoPot. # 1 for Ag read from file:
     ../pseudo/Ag.pbe-n-rrkjus_psl.1.0.0.UPF
     MD5 check sum: d841cbfac2b0861aec33b46768a516bf
     Pseudo is Ultrasoft + core correction, Zval = 11.0
     Generated using "atomic" code by A. Dal Corso v.6.2.2
     Using radial grid of 1237 points,  6 beta functions with:
                l(1) =   0
                l(2) =   0
                l(3) =   1
                l(4) =   1
                l(5) =   2
                l(6) =   2
     Q(r) pseudized with 0 coefficients

     PseudoPot. # 2 for Ir read from file:
     ../pseudo/Ir.pbe-n-rrkjus_psl.0.2.3.UPF
     MD5 check sum: a93e608e8ddc29ee62145620b5f41564
     Pseudo is Ultrasoft + core correction, Zval =  9.0
     Generated using "atomic" code by A. Dal Corso v.5.0.2 svn rev. 9415
     Using radial grid of 1277 points,  6 beta functions with:
                l(1) =   0
                l(2) =   0
                l(3) =   1
                l(4) =   1
                l(5) =   2
                l(6) =   2
     Q(r) pseudized with 0 coefficients

     atomic species   valence    mass     pseudopotential
        Ag            11.00   107.86820     Ag( 1.00)
        Ir             9.00   192.21700     Ir( 1.00)

     No symmetry found

   Cartesian axes

     site n.     atom                  positions (alat units)
         1           Ag  tau(   1) = (   0.0000000   0.0000000  10.0000000  )
         2           Ag  tau(   2) = (   2.7117192   0.0000000  10.0000000  )
         3           Ir  tau(   3) = (   1.3558596   2.6176542  10.0000000  )
         4           Ir  tau(   4) = (  -1.3558596   2.6176542  10.0000000  )
         5           Ag  tau(   5) = (   2.7117192   1.4045822  12.3196055  )
         6           Ag  tau(   6) = (  -0.0000000   1.4045822  12.3196055  )
         7           Ir  tau(   7) = (  -1.3558596   4.0222364  12.3196055  )
         8           Ir  tau(   8) = (   1.3558596   4.0222364  12.3196055  )
         9           Ag  tau(   9) = (   0.0003130   2.5637300  14.8943626  )
        10           Ag  tau(  10) = (   2.7120548   2.5637313  14.8943628  )
        11           Ir  tau(  11) = (   1.3562241   5.1202778  14.5398625  )
        12           Ir  tau(  12) = (  -1.3554969   5.1202735  14.5398552  )

     number of k points=    74  Fermi-Dirac smearing, width (Ry)=  0.0100
                       cart. coord. in units 2pi/alat
        k(    1) = (   0.0000000   0.0000000   0.0000000), wk =   0.0138889
        k(    2) = (   0.0000000   0.0159176   0.0000000), wk =   0.0277778
        k(    3) = (   0.0000000   0.0318351   0.0000000), wk =   0.0277778
        k(    4) = (   0.0000000   0.0477527   0.0000000), wk =   0.0277778
        k(    5) = (   0.0000000   0.0636702   0.0000000), wk =   0.0277778
        k(    6) = (   0.0000000   0.0795878   0.0000000), wk =   0.0277778
        k(    7) = (   0.0000000  -0.0955054   0.0000000), wk =   0.0138889
        k(    8) = (   0.0153654   0.0079588   0.0000000), wk =   0.0277778
        k(    9) = (   0.0153654   0.0238763   0.0000000), wk =   0.0277778
        k(   10) = (   0.0153654   0.0397939   0.0000000), wk =   0.0277778
        k(   11) = (   0.0153654   0.0557115   0.0000000), wk =   0.0277778
        k(   12) = (   0.0153654   0.0716290   0.0000000), wk =   0.0277778
        k(   13) = (   0.0153654   0.0875466   0.0000000), wk =   0.0277778
        k(   14) = (   0.0153654  -0.0875466   0.0000000), wk =   0.0277778
        k(   15) = (   0.0153654  -0.0716290   0.0000000), wk =   0.0277778
        k(   16) = (   0.0153654  -0.0557115   0.0000000), wk =   0.0277778
        k(   17) = (   0.0153654  -0.0397939   0.0000000), wk =   0.0277778
        k(   18) = (   0.0153654  -0.0238763   0.0000000), wk =   0.0277778
        k(   19) = (   0.0153654  -0.0079588   0.0000000), wk =   0.0277778
        k(   20) = (   0.0307308   0.0159176   0.0000000), wk =   0.0277778
        k(   21) = (   0.0307308   0.0318351   0.0000000), wk =   0.0277778
        k(   22) = (   0.0307308   0.0477527   0.0000000), wk =   0.0277778
        k(   23) = (   0.0307308   0.0636702   0.0000000), wk =   0.0277778
        k(   24) = (   0.0307308   0.0795878   0.0000000), wk =   0.0277778
        k(   25) = (   0.0307308   0.0955054   0.0000000), wk =   0.0277778
        k(   26) = (   0.0307308  -0.0795878   0.0000000), wk =   0.0277778
        k(   27) = (   0.0307308  -0.0636702   0.0000000), wk =   0.0277778
        k(   28) = (   0.0307308  -0.0477527   0.0000000), wk =   0.0277778
        k(   29) = (   0.0307308  -0.0318351   0.0000000), wk =   0.0277778
        k(   30) = (   0.0307308  -0.0159176   0.0000000), wk =   0.0277778
        k(   31) = (   0.0307308  -0.0000000   0.0000000), wk =   0.0277778
        k(   32) = (   0.0460962   0.0238763   0.0000000), wk =   0.0277778
        k(   33) = (   0.0460962   0.0397939   0.0000000), wk =   0.0277778
        k(   34) = (   0.0460962   0.0557115   0.0000000), wk =   0.0277778
        k(   35) = (   0.0460962   0.0716290   0.0000000), wk =   0.0277778
        k(   36) = (   0.0460962   0.0875466   0.0000000), wk =   0.0277778
        k(   37) = (   0.0460962   0.1034641   0.0000000), wk =   0.0277778
        k(   38) = (   0.0460962  -0.0716290   0.0000000), wk =   0.0277778
        k(   39) = (   0.0460962  -0.0557115   0.0000000), wk =   0.0277778
        k(   40) = (   0.0460962  -0.0397939   0.0000000), wk =   0.0277778
        k(   41) = (   0.0460962  -0.0238763   0.0000000), wk =   0.0277778
        k(   42) = (   0.0460962  -0.0079588   0.0000000), wk =   0.0277778
        k(   43) = (   0.0460962   0.0079588   0.0000000), wk =   0.0277778
        k(   44) = (   0.0614616   0.0318351   0.0000000), wk =   0.0277778
        k(   45) = (   0.0614616   0.0477527   0.0000000), wk =   0.0277778
        k(   46) = (   0.0614616   0.0636702   0.0000000), wk =   0.0277778
        k(   47) = (   0.0614616   0.0795878   0.0000000), wk =   0.0277778
        k(   48) = (   0.0614616   0.0955054   0.0000000), wk =   0.0277778
        k(   49) = (   0.0614616   0.1114229   0.0000000), wk =   0.0277778
        k(   50) = (   0.0614616  -0.0636702   0.0000000), wk =   0.0277778
        k(   51) = (   0.0614616  -0.0477527   0.0000000), wk =   0.0277778
        k(   52) = (   0.0614616  -0.0318351   0.0000000), wk =   0.0277778
        k(   53) = (   0.0614616  -0.0159176   0.0000000), wk =   0.0277778
        k(   54) = (   0.0614616   0.0000000   0.0000000), wk =   0.0277778
        k(   55) = (   0.0614616   0.0159176   0.0000000), wk =   0.0277778
        k(   56) = (   0.0768270   0.0397939   0.0000000), wk =   0.0277778
        k(   57) = (   0.0768270   0.0557115   0.0000000), wk =   0.0277778
        k(   58) = (   0.0768270   0.0716290   0.0000000), wk =   0.0277778
        k(   59) = (   0.0768270   0.0875466   0.0000000), wk =   0.0277778
        k(   60) = (   0.0768270   0.1034641   0.0000000), wk =   0.0277778
        k(   61) = (   0.0768270   0.1193817   0.0000000), wk =   0.0277778
        k(   62) = (   0.0768270  -0.0557115   0.0000000), wk =   0.0277778
        k(   63) = (   0.0768270  -0.0397939   0.0000000), wk =   0.0277778
        k(   64) = (   0.0768270  -0.0238763   0.0000000), wk =   0.0277778
        k(   65) = (   0.0768270  -0.0079588   0.0000000), wk =   0.0277778
        k(   66) = (   0.0768270   0.0079588   0.0000000), wk =   0.0277778
        k(   67) = (   0.0768270   0.0238763   0.0000000), wk =   0.0277778
        k(   68) = (  -0.0921924  -0.0477527   0.0000000), wk =   0.0138889
        k(   69) = (  -0.0921924  -0.0318351   0.0000000), wk =   0.0277778
        k(   70) = (  -0.0921924  -0.0159176   0.0000000), wk =   0.0277778
        k(   71) = (  -0.0921924   0.0000000   0.0000000), wk =   0.0277778
        k(   72) = (  -0.0921924   0.0159176   0.0000000), wk =   0.0277778
        k(   73) = (  -0.0921924   0.0318351   0.0000000), wk =   0.0277778
        k(   74) = (  -0.0921924  -0.1432580   0.0000000), wk =   0.0138889

     Initial potential from superposition of free atoms

     starting charge  119.99671, renormalised to  120.00000

     negative rho (up, down):  3.232E-04 0.000E+00

     %%%%%%%%%%%%%%%%%%%%%%%%%%%%%%%%%%%%%%%%%%%%%%%%%%%%%%%%%%%%%%%%%%%%%%%%
     %                                                                      %
     % You are using vdW-DF, which was implemented by the Thonhauser group. %
     % Please cite the following two papers that made this development      %
     % possible and the two reviews that describe the various versions:     %
     %                                                                      %
     %   T. Thonhauser et al., PRL 115, 136402 (2015).                      %
     %   T. Thonhauser et al., PRB 76, 125112 (2007).                       %
     %   K. Berland et al., Rep. Prog. Phys. 78, 066501 (2015).             %
     %   D.C. Langreth et al., J. Phys.: Condens. Matter 21, 084203 (2009). %
     %                                                                      %
     %                                                                      %
     % If you are calculating the stress with vdW-DF, please also cite:     %
     %                                                                      %
     %   R. Sabatini et al., J. Phys.: Condens. Matter 24, 424209 (2012).   %
     %                                                                      %
     %%%%%%%%%%%%%%%%%%%%%%%%%%%%%%%%%%%%%%%%%%%%%%%%%%%%%%%%%%%%%%%%%%%%%%%%

     Adding external electric field

     Computed dipole along edir(3) :
        Dipole                0.0001 Ry au,          0.0003 Debye
        Dipole field          0.0000 Ry au,

        Potential amp.       -0.0000 Ry
        Total length         45.3973 bohr

     Starting wfcs are  108 randomized atomic wfcs

     Self-consistent Calculation

     iteration #  1     ecut=    55.12 Ry     beta= 0.10
     Davidson diagonalization with overlap
     ethr =  1.00E-02,  avg # of iterations =  2.0

     Threshold (ethr) on eigenvalues was too large:
     Diagonalizing with lowered threshold

     Davidson diagonalization with overlap
     ethr =  8.73E-04,  avg # of iterations =  2.4

[...]

     total energy              =    -888.26068085 Ry
     estimated scf accuracy    <       1.00229455 Ry

[...]

     iteration #  6     ecut=    55.12 Ry     beta= 0.10
     Davidson diagonalization with overlap
     c_bands:  2 eigenvalues not converged
     c_bands:  2 eigenvalues not converged
     ethr =  2.70E-05,  avg # of iterations =  6.4

[...]

     iteration # 10     ecut=    55.12 Ry     beta= 0.10
     Davidson diagonalization with overlap
     c_bands:  1 eigenvalues not converged
     ethr =  6.91E-07,  avg # of iterations =  3.1

[...]

     total energy              =    -888.29416970 Ry
     estimated scf accuracy    <       0.00013080 Ry

     iteration # 14     ecut=    55.12 Ry     beta= 0.10
     Davidson diagonalization with overlap
     ethr =  5.44E-08,  avg # of iterations =  1.2

[...]

     Adding external electric field

     Computed dipole along edir(3) :
        Dipole                0.0772 Ry au,          0.1962 Debye
        Dipole field          0.0002 Ry au,

        Potential amp.       -0.0187 Ry
        Total length         45.3973 bohr

     End of self-consistent calculation

          k = 0.0000 0.0000 0.0000 ( 32609 PWs)   bands (ev):

    -7.2984  -5.8759  -5.6735  -5.6339  -5.6033  -5.5167  -5.3388  -5.3207
    -5.2128  -5.1314  -5.1174  -5.0058  -4.9605  -4.9015  -4.5384  -4.5337
    -4.4369  -4.2868  -4.0722  -4.0086  -3.9023  -3.7829  -3.5973  -3.5068
    -3.3943  -3.3526  -3.3274  -3.3091  -3.2519  -3.2285  -3.1126  -3.0890
    -3.0050  -2.8231  -2.7944  -2.6309  -2.6307  -2.2261  -2.0553  -2.0304
    -1.9813  -1.6236  -1.5383  -1.2884  -1.2216  -1.1250  -1.1001  -0.9758
    -0.7959  -0.7723  -0.7177  -0.3136  -0.1516   0.2580   0.3536   0.3683
     0.3685   0.3864   0.5546   0.5854   0.6856   1.0442   1.1296   1.4692
     1.5174   1.7046   1.7373   1.9048   2.3642   3.2144   3.6544   4.0480

[...]

          k = 0.0768 0.0239 0.0000 ( 32649 PWs)   bands (ev):

[...]

          k =-0.0922-0.0478 0.0000 ( 32618 PWs)   bands (ev):

[...]

          k =-0.0922-0.1433 0.0000 ( 32618 PWs)   bands (ev):

    -5.7495  -5.7495  -4.9656  -4.9656  -4.8612  -4.8612  -4.8011  -4.8011
    -4.6031  -4.6031  -4.4964  -4.4964  -4.3264  -4.3264  -4.1434  -4.1434
    -4.0802  -4.0802  -3.9909  -3.9909  -3.8543  -3.8543  -3.7820  -3.7820
    -3.6467  -3.6467  -3.6045  -3.6045  -3.4929  -3.4929  -3.3267  -3.3266
    -3.1605  -3.1605  -2.9784  -2.9784  -2.8279  -2.8279  -2.2309  -2.2309
    -2.0694  -2.0694  -1.7590  -1.7590  -1.6219  -1.6219  -1.3540  -1.3540
    -1.2750  -1.2750  -1.1800  -1.1800  -1.1198  -1.1198  -0.9525  -0.9525
    -0.7397  -0.7396  -0.0951  -0.0951   0.1555   0.1555   0.2252   0.2252
     1.5223   1.5223   1.9644   1.9644   2.4805   2.4805   4.1463   4.1463

     the Fermi energy is     0.2889 ev

!    total energy              =    -888.29417325 Ry
     estimated scf accuracy    <       0.00000615 Ry
     smearing contrib. (-TS)   =      -0.06919636 Ry
     internal energy E=F+TS    =    -888.22497689 Ry

     The total energy is F=E-TS. E is the sum of the following terms:
     one-electron contribution =   -7161.75157174 Ry
     hartree contribution      =    3660.40197257 Ry
     xc contribution           =    -333.85738606 Ry
     ewald contribution        =    2946.98199248 Ry
     electric field correction =       0.00001585 Ry

     convergence has been achieved in  14 iterations

     negative rho (up, down):  3.463E-04 0.000E+00

     Forces acting on atoms (cartesian axes, Ry/au):

     atom    1 type  1   force =    -0.00000652   -0.00690753   -0.02743940
     atom    2 type  1   force =     0.00000518   -0.00691417   -0.02743486
     atom    3 type  2   force =     0.00000095    0.01948362    0.02570997
     atom    4 type  2   force =     0.00001569    0.01950862    0.02573827
     atom    5 type  1   force =     0.00000476    0.00841895    0.01407104
     atom    6 type  1   force =     0.00000745    0.00841930    0.01406816
     atom    7 type  2   force =     0.00001527   -0.02088063   -0.01535708
     atom    8 type  2   force =     0.00002240   -0.02087162   -0.01533896
     atom    9 type  1   force =     0.00001570   -0.00050845    0.00015607
     atom   10 type  1   force =    -0.00000459   -0.00051525    0.00015043
     atom   11 type  2   force =    -0.00003690    0.00037612    0.00285164
     atom   12 type  2   force =    -0.00003937    0.00039104    0.00282472

     Total force =     0.074714     Total SCF correction =     0.010216
     SCF correction compared to forces is large: reduce conv_thr to get better values

     Writing output data file ./Ag2Ir2/Ag2Ir2_beef.save/

     General routines

     Parallel routines

   This run was terminated on:  16:36:21  23Jun2022

   JOB DONE.